LAMMPS (24 Dec 2020)
OMP_NUM_THREADS environment is not set. Defaulting to 1 thread. (src/comm.cpp:94)
  using 1 OpenMP thread(s) per MPI task
# Simple rigid body system
# needed variables:

#variable	startTemp equal 0.5
#variable 	temp 	  equal 0.8

units		lj
atom_style	full
dimension 	3
boundary	p p f
pair_style	lj/cut/opt 2.5


variable 	sigma		equal 1.0
variable 	epsilon 	equal 1.0

region		box block 0 100 0 100 0 200
create_box 	3 box
Created orthogonal box = (0.0000000 0.0000000 0.0000000) to (100.00000 100.00000 200.00000)
  4 by 4 by 9 MPI processor grid



lattice 	sc 0.66
Lattice spacing in x,y,z = 1.1485556 1.1485556 1.1485556
region		fluid block EDGE EDGE EDGE EDGE 2 130 units box
create_atoms 	1 region fluid
Created 867328 atoms
  create_atoms CPU = 0.048 seconds

lattice 	sc 0.045
Lattice spacing in x,y,z = 2.8114422 2.8114422 2.8114422
region		gas block EDGE EDGE EDGE EDGE 131 198 units box
create_atoms    1 region gas
Created 31104 atoms
  create_atoms CPU = 0.007 seconds

group		solvent type 1
898432 atoms in group solvent

mass		1 1.0
mass		2 1.0
mass		3 1.0



neighbor 	0.4 bin

pair_coeff	1 1 1.0 1.0
pair_coeff	2 2 0.0 0.0
pair_coeff	3 3 0.0 0.0
pair_coeff	2 3 0.0 0.0
pair_coeff	1 2*3 0.0 0.0

pair_modify 	shift yes

delete_atoms	overlap 0.5 solvent solvent
System init for delete_atoms ...
Neighbor list info ...
  update every 1 steps, delay 10 steps, check yes
  max neighbors/atom: 2000, page size: 100000
  master list distance cutoff = 2.9
  ghost atom cutoff = 2.9
  binsize = 1.45, bins = 69 69 138
  2 neighbor lists, perpetual/occasional/extra = 1 1 0
  (1) command delete_atoms, occasional
      attributes: full, newton on
      pair build: full/bin
      stencil: full/bin/3d
      bin: standard
  (2) pair lj/cut/opt, perpetual
      attributes: half, newton on
      pair build: half/bin/newton
      stencil: half/bin/3d/newton
      bin: standard
WARNING: Ignoring 'compress yes' for molecular system (src/delete_atoms.cpp:125)
Deleted 19600 atoms, new total = 878832

velocity 	solvent create ${startTemp} 563435 loop geom
velocity 	solvent create 1.0 563435 loop geom

balance 	1.05 shift z 10 1.05
Balancing ...
Neighbor list info ...
  update every 1 steps, delay 10 steps, check yes
  max neighbors/atom: 2000, page size: 100000
  master list distance cutoff = 2.9
  ghost atom cutoff = 2.9
  binsize = 1.45, bins = 69 69 138
  1 neighbor lists, perpetual/occasional/extra = 1 0 0
  (1) pair lj/cut/opt, perpetual
      attributes: half, newton on
      pair build: half/bin/newton
      stencil: half/bin/3d/newton
      bin: standard
 rebalancing time: 0.038 seconds
  iteration count = 6
  initial/final maximal load/proc = 9680.0000 6776.0000
  initial/final imbalance factor  = 1.5861052 1.1102736
  x cuts: 0.0000000 0.25000000 0.50000000 0.75000000 1.0000000
  y cuts: 0.0000000 0.25000000 0.50000000 0.75000000 1.0000000
  z cuts: 0.0000000 0.081597222 0.15451389 0.23090278 0.30208333 0.37847222 0.45486111 0.53298611 0.60243056 1.0000000


####################### WALLS ###########################


variable       epsilonWall equal 2*${epsilon}
variable       epsilonWall equal 2*1

variable       cutoffTop   equal   0.7147*${sigma}
variable       cutoffTop   equal   0.7147*1

variable       cutoffLow   equal   3*${sigma}
variable       cutoffLow   equal   3*1


fix            topWall all wall/lj93 zhi EDGE                ${epsilonWall} ${sigma} ${cutoffTop} units box
fix            topWall all wall/lj93 zhi EDGE                2 ${sigma} ${cutoffTop} units box
fix            topWall all wall/lj93 zhi EDGE                2 1 ${cutoffTop} units box
fix            topWall all wall/lj93 zhi EDGE                2 1 0.7147 units box

fix            lowWall all wall/lj93 zlo EDGE                ${epsilonWall} ${sigma} ${cutoffLow} units box
fix            lowWall all wall/lj93 zlo EDGE                2 ${sigma} ${cutoffLow} units box
fix            lowWall all wall/lj93 zlo EDGE                2 1 ${cutoffLow} units box
fix            lowWall all wall/lj93 zlo EDGE                2 1 3 units box


###################### COMPUTES ##########################

compute        bin1 solvent chunk/atom bin/1d z upper 1.0


######################	FIXES ############################


fix 		peclet solvent ave/chunk 1000 1 1000 bin1 density/number norm 		 none ave one file density.profile

fix 		 temp solvent ave/chunk 1000 1 1000 bin1 temp norm 		 none ave one file temp.profile

fix 		2 solvent nve


## Thermostat


region		regthermo block EDGE EDGE EDGE EDGE 0 20 units box

group 		thermo dynamic solvent region regthermo every 1000
dynamic group thermo defined

fix 		3 thermo langevin ${startTemp} ${temp} 10 156453
fix 		3 thermo langevin 1.0 ${temp} 10 156453
fix 		3 thermo langevin 1.0 1.0 10 156453



#### Load balancing


fix 		bal all balance 1000 1.05 shift z 10 1.05


############### Diagnostics and computes ###################
#compute 	com cube	  rigid/local	1 mol x y z
#compute 	quat cube	  rigid/local	1 mol quatw quati quatj quatk

thermo 		1000
thermo_style 	custom step temp epair evdwl etotal press pe ke atoms

dump		1 all custom 100000 dump.lammpstrj id mol type x y z
dump 		2 all image 10000 image.*.png type type
dump 		3 all movie 1000 movie.avi type type

#dump 		com cube local 1000 dump.*.xyz c_com[*]
#dump		quat cube      local 1000 dump.*.quat c_quat[*]


restart 	1000000 restart.dat
timestep 	0.005
timer 		full
New timer settings: style=full  mode=nosync  timeout=off

run		3000000
Per MPI rank memory allocation (min/avg/max) = 12.74 | 15.90 | 19.79 Mbytes
Step Temp E_pair E_vdwl TotEng Press PotEng KinEng Atoms 
       0            1    -4.085589    -4.085589   -2.5855908    -1.390929    -4.085589    1.4999983   878832 
    1000   0.86982955   -3.8581797   -3.8581797   -2.5534369 -0.040363096   -3.8581797    1.3047428   878832 
    2000   0.88196452   -3.8550946   -3.8550946   -2.5321494 -0.018885322   -3.8550946    1.3229453   878832 
    3000   0.89335524   -3.8570977   -3.8570977   -2.5170664 0.0076816036   -3.8570977    1.3400313   878832 
    4000   0.90398578    -3.860984    -3.860984   -2.5050068  0.035699432    -3.860984    1.3559771   878832 
    5000   0.91449545   -3.8673089   -3.8673089   -2.4955672  0.067192023   -3.8673089    1.3717416   878832 
    6000   0.92427028   -3.8745619   -3.8745619   -2.4881581  0.081490545   -3.8745619    1.3864038   878832 
    7000   0.92721612   -3.8746564   -3.8746564   -2.4838338  0.098039763   -3.8746564    1.3908226   878832 
    8000   0.92722806   -3.8725208   -3.8725208   -2.4816803  0.093585946   -3.8725208    1.3908405   878832 
    9000   0.92522924   -3.8704406   -3.8704406   -2.4825984  0.089932746   -3.8704406    1.3878423   878832 
   10000   0.92249602   -3.8684387   -3.8684387   -2.4846963  0.078585372   -3.8684387    1.3837425   878832 
   11000   0.91963146   -3.8669725   -3.8669725   -2.4875269  0.070384346   -3.8669725    1.3794456   878832 
   12000   0.91653678   -3.8638305   -3.8638305   -2.4890269  0.065365401   -3.8638305    1.3748036   878832 
   13000   0.91746624   -3.8660994   -3.8660994   -2.4899016  0.062422157   -3.8660994    1.3761978   878832 
   14000   0.91697686   -3.8649778   -3.8649778   -2.4895141  0.064978035   -3.8649778    1.3754637   878832 
   15000   0.91917579   -3.8664397   -3.8664397   -2.4876776  0.070725374   -3.8664397    1.3787621   878832 
   16000   0.91905391   -3.8632113   -3.8632113    -2.484632  0.071107074   -3.8632113    1.3785793   878832 
   17000   0.91960515   -3.8607041   -3.8607041    -2.481298   0.06459778   -3.8607041    1.3794062   878832 
   18000    0.9198922   -3.8567664   -3.8567664   -2.4769297  0.066860373   -3.8567664    1.3798367   878832 
   19000   0.91773452   -3.8510595   -3.8510595   -2.4744593  0.059065791   -3.8510595    1.3766002   878832 
   20000   0.91482272   -3.8445844   -3.8445844   -2.4723519  0.053241725   -3.8445844    1.3722325   878832 
   21000   0.91209353   -3.8374801   -3.8374801   -2.4693413  0.049061748   -3.8374801    1.3681387   878832 
   22000   0.91090388   -3.8336099   -3.8336099   -2.4672556  0.038008352   -3.8336099    1.3663543   878832 
   23000   0.90924191   -3.8283114   -3.8283114     -2.46445  0.037773069   -3.8283114    1.3638613   878832 
   24000   0.90810364   -3.8238622   -3.8238622   -2.4617083  0.031195787   -3.8238622    1.3621539   878832 
   25000   0.90868731   -3.8206679   -3.8206679   -2.4576385  0.029603436   -3.8206679    1.3630294   878832 
   26000   0.90783323   -3.8160967   -3.8160967   -2.4543484  0.029627968   -3.8160967    1.3617483   878832 
   27000   0.90854917   -3.8125615   -3.8125615   -2.4497393  0.033090242   -3.8125615    1.3628222   878832 
   28000   0.91012142   -3.8107498   -3.8107498   -2.4455692  0.032317175   -3.8107498    1.3651806   878832 
   29000   0.90992955   -3.8063205   -3.8063205   -2.4414277  0.032303077   -3.8063205    1.3648928   878832 
   30000   0.90922979   -3.8019833   -3.8019833   -2.4381402  0.029573804   -3.8019833    1.3638431   878832 
   31000   0.90998012    -3.798639    -3.798639   -2.4336704  0.032004724    -3.798639    1.3649686   878832 
   32000   0.90991588   -3.7956776   -3.7956776   -2.4308054   0.02976966   -3.7956776    1.3648723   878832 
   33000   0.90992915   -3.7931464   -3.7931464   -2.4282542  0.029127725   -3.7931464    1.3648922   878832 
   34000   0.91020765   -3.7910768   -3.7910768   -2.4257668  0.023184208   -3.7910768    1.3653099   878832 
   35000    0.9088669   -3.7869599   -3.7869599   -2.4236611  0.026404888   -3.7869599    1.3632988   878832 
   36000   0.90914563   -3.7848948   -3.7848948   -2.4211779  0.021683303   -3.7848948    1.3637169   878832 
   37000   0.90968492   -3.7830958   -3.7830958     -2.41857  0.022898816   -3.7830958    1.3645258   878832 
   38000   0.91087894   -3.7825625   -3.7825625   -2.4162457  0.023510995   -3.7825625    1.3663169   878832 
   39000   0.91031557   -3.7796943   -3.7796943   -2.4142225  0.024015204   -3.7796943    1.3654718   878832 
   40000   0.91100239   -3.7779152   -3.7779152   -2.4114132  0.031467541   -3.7779152     1.366502   878832 
   41000   0.91231291    -3.778432    -3.778432   -2.4099642  0.030585984    -3.778432    1.3684678   878832 
   42000   0.91177719   -3.7767233   -3.7767233   -2.4090591  0.030797857   -3.7767233    1.3676642   878832 
   43000   0.91285068   -3.7776739   -3.7776739   -2.4083995  0.026946566   -3.7776739    1.3692745   878832 
   44000   0.91239114   -3.7750615   -3.7750615   -2.4064763  0.029620313   -3.7750615    1.3685851   878832 
   45000    0.9132675   -3.7744173   -3.7744173   -2.4045176  0.028183777   -3.7744173    1.3698997   878832 
   46000   0.91330603   -3.7741814   -3.7741814   -2.4042239  0.028416788   -3.7741814    1.3699575   878832 
   47000   0.91318172   -3.7726222   -3.7726222   -2.4028511  0.027286658   -3.7726222     1.369771   878832 
   48000   0.91357301   -3.7729491   -3.7729491   -2.4025912  0.027941385   -3.7729491     1.370358   878832 
   49000    0.9134452   -3.7712721   -3.7712721   -2.4011059   0.03066058   -3.7712721    1.3701662   878832 
   50000   0.91499042   -3.7729121   -3.7729121    -2.400428  0.027893341   -3.7729121    1.3724841   878832 
   51000   0.91480831   -3.7717293   -3.7717293   -2.3995184  0.030102225   -3.7717293    1.3722109   878832 
   52000   0.91480825   -3.7707925   -3.7707925   -2.3985816  0.038294565   -3.7707925    1.3722108   878832 
   53000   0.91535262   -3.7706765   -3.7706765   -2.3976492    0.0358257   -3.7706765    1.3730274   878832 
   54000   0.91552261   -3.7693306   -3.7693306   -2.3960482  0.033877112   -3.7693306    1.3732823   878832 
   55000   0.91603966   -3.7696047   -3.7696047   -2.3955468   0.03547378   -3.7696047    1.3740579   878832 
   56000   0.91631545   -3.7707146   -3.7707146    -2.396243   0.03991636   -3.7707146    1.3744716   878832 
   57000   0.91613188   -3.7701065   -3.7701065   -2.3959103  0.035049246   -3.7701065    1.3741963   878832 
   58000   0.91655127   -3.7703313   -3.7703313    -2.395506  0.034687368   -3.7703313    1.3748253   878832 
   59000   0.91570578   -3.7684592   -3.7684592    -2.394902  0.034665221   -3.7684592    1.3735571   878832 
   60000    0.9162703   -3.7686838   -3.7686838   -2.3942799  0.032276505   -3.7686838    1.3744039   878832 
   61000   0.91573721   -3.7677238   -3.7677238   -2.3941196  0.033310854   -3.7677238    1.3736043   878832 
   62000   0.91641797   -3.7689133   -3.7689133   -2.3942879  0.035170342   -3.7689133    1.3746254   878832 
   63000   0.91589499   -3.7676592   -3.7676592   -2.3938182  0.031994862   -3.7676592    1.3738409   878832 
   64000   0.91599119   -3.7673341   -3.7673341   -2.3933489  0.032470347   -3.7673341    1.3739852   878832 
   65000   0.91648138    -3.767443    -3.767443   -2.3927225  0.031094831    -3.767443    1.3747205   878832 
   66000   0.91592924   -3.7670693   -3.7670693    -2.393177  0.034828726   -3.7670693    1.3738923   878832 
   67000   0.91662761    -3.767212    -3.767212   -2.3922722  0.033511988    -3.767212    1.3749398   878832 
   68000   0.91684842   -3.7671683   -3.7671683   -2.3918972  0.037378629   -3.7671683    1.3752711   878832 
   69000   0.91738843   -3.7669139   -3.7669139   -2.3908328  0.036957257   -3.7669139    1.3760811   878832 
   70000   0.91753944   -3.7673058   -3.7673058   -2.3909982  0.039013767   -3.7673058    1.3763076   878832 
   71000   0.91768877   -3.7677158   -3.7677158   -2.3911842  0.035855072   -3.7677158    1.3765316   878832 
   72000   0.91774594    -3.767296    -3.767296   -2.3906787  0.039910742    -3.767296    1.3766173   878832 
   73000   0.91858037   -3.7676814   -3.7676814   -2.3898124  0.035895044   -3.7676814     1.377869   878832 
   74000   0.91847252   -3.7673333   -3.7673333   -2.3896261    0.0359659   -3.7673333    1.3777072   878832 
   75000   0.91937697    -3.767967    -3.767967   -2.3889031  0.037460227    -3.767967    1.3790639   878832 
   76000   0.91983974   -3.7681112   -3.7681112   -2.3883532  0.037541216   -3.7681112     1.379758   878832 
   77000   0.91828858   -3.7652671   -3.7652671   -2.3878358  0.037248876   -3.7652671    1.3774313   878832 
   78000    0.9179891   -3.7651231   -3.7651231   -2.3881411  0.034361046   -3.7651231    1.3769821   878832 
   79000   0.91793419   -3.7648133   -3.7648133   -2.3879136  0.034289874   -3.7648133    1.3768997   878832 
   80000   0.91752933   -3.7642017   -3.7642017   -2.3879093  0.037262127   -3.7642017    1.3762924   878832 
   81000   0.91799073   -3.7642692   -3.7642692   -2.3872847  0.034633763   -3.7642692    1.3769845   878832 
   82000   0.91803504   -3.7633807   -3.7633807   -2.3863297  0.029310115   -3.7633807     1.377051   878832 
   83000   0.91822596   -3.7631619   -3.7631619   -2.3858246  0.031629697   -3.7631619    1.3773374   878832 
   84000   0.91756764   -3.7616981   -3.7616981   -2.3853482  0.038320226   -3.7616981    1.3763499   878832 
   85000   0.91811877   -3.7619512   -3.7619512   -2.3847746  0.034380741   -3.7619512    1.3771766   878832 
   86000   0.91864335   -3.7621054   -3.7621054    -2.384142   0.03908459   -3.7621054    1.3779635   878832 
   87000   0.91831967   -3.7616428   -3.7616428   -2.3841649  0.036743465   -3.7616428    1.3774779   878832 
   88000   0.91949841   -3.7625439   -3.7625439   -2.3832978  0.034372404   -3.7625439     1.379246   878832 
   89000   0.91912347   -3.7601637   -3.7601637     -2.38148  0.037114862   -3.7601637    1.3786836   878832 
   90000   0.91874556    -3.758785    -3.758785   -2.3806683   0.04154338    -3.758785    1.3781168   878832 
   91000   0.91874339   -3.7580936   -3.7580936     -2.37998  0.037265882   -3.7580936    1.3781135   878832 
   92000   0.91889424   -3.7576087   -3.7576087   -2.3792689   0.03660851   -3.7576087    1.3783398   878832 
   93000   0.91922243   -3.7576135   -3.7576135   -2.3787814  0.031545846   -3.7576135    1.3788321   878832 
   94000   0.91883012   -3.7576976   -3.7576976    -2.379454  0.034182676   -3.7576976    1.3782436   878832 
   95000   0.91883135   -3.7554866   -3.7554866   -2.3772411  0.036548679   -3.7554866    1.3782455   878832 
   96000   0.91920934   -3.7556364   -3.7556364    -2.376824  0.034704067   -3.7556364    1.3788124   878832 
   97000   0.91892181   -3.7551219   -3.7551219   -2.3767408  0.036232294   -3.7551219    1.3783811   878832 
   98000   0.91872628    -3.754689    -3.754689   -2.3766012  0.033059622    -3.754689    1.3780879   878832 
   99000    0.9177935   -3.7539131   -3.7539131   -2.3772244  0.030792438   -3.7539131    1.3766887   878832 
  100000   0.91797837   -3.7534304   -3.7534304   -2.3764644  0.029030244   -3.7534304     1.376966   878832 
  101000   0.91765837   -3.7514334   -3.7514334   -2.3749475  0.033341219   -3.7514334     1.376486   878832 
  102000   0.91881861   -3.7520086   -3.7520086   -2.3737822  0.029617792   -3.7520086    1.3782263   878832 
  103000    0.9187025    -3.750279    -3.750279   -2.3722268  0.032108273    -3.750279    1.3780522   878832 
  104000   0.91938313    -3.750948    -3.750948   -2.3718749  0.031375214    -3.750948    1.3790731   878832 
  105000   0.91964869   -3.7494568   -3.7494568   -2.3699853  0.034289732   -3.7494568    1.3794715   878832 
  106000   0.91963939   -3.7489877   -3.7489877   -2.3695302  0.035114447   -3.7489877    1.3794575   878832 
  107000   0.92081759   -3.7502821   -3.7502821   -2.3690573  0.032407176   -3.7502821    1.3812248   878832 
  108000   0.92020469    -3.748242    -3.748242   -2.3679365  0.033955744    -3.748242    1.3803055   878832 
  109000   0.92093059   -3.7485637   -3.7485637   -2.3671694  0.034221756   -3.7485637    1.3813943   878832 
  110000   0.92109915    -3.747869    -3.747869   -2.3662218  0.033851476    -3.747869    1.3816472   878832 
  111000   0.92025061   -3.7466225   -3.7466225   -2.3662482  0.034222256   -3.7466225    1.3803743   878832 
  112000   0.92012103   -3.7459225   -3.7459225   -2.3657425  0.033587154   -3.7459225      1.38018   878832 
  113000   0.91990141   -3.7448585   -3.7448585   -2.3650079  0.032818885   -3.7448585    1.3798505   878832 
  114000   0.92022792   -3.7445358   -3.7445358   -2.3641955  0.032211848   -3.7445358    1.3803403   878832 
  115000   0.92036516   -3.7449094   -3.7449094   -2.3643633  0.032181938   -3.7449094    1.3805462   878832 
  116000   0.91935264   -3.7423151   -3.7423151   -2.3632877  0.032071431   -3.7423151    1.3790274   878832 
  117000    0.9191683   -3.7423562   -3.7423562   -2.3636053  0.032176622   -3.7423562    1.3787509   878832 
  118000   0.91970116    -3.741227    -3.741227   -2.3616768  0.031325805    -3.741227    1.3795502   878832 
  119000   0.91975968   -3.7415425   -3.7415425   -2.3619046  0.031528198   -3.7415425     1.379638   878832 
  120000   0.91965985   -3.7408035   -3.7408035   -2.3613153  0.030560603   -3.7408035    1.3794882   878832 
  121000   0.92006479   -3.7403351   -3.7403351   -2.3602395  0.033056737   -3.7403351    1.3800956   878832 
  122000   0.92016222   -3.7403511   -3.7403511   -2.3601093  0.029439666   -3.7403511    1.3802418   878832 
  123000   0.92090335    -3.741642    -3.741642   -2.3602885  0.032172665    -3.741642    1.3813535   878832 
  124000   0.92052994   -3.7399645   -3.7399645   -2.3591712  0.032735234   -3.7399645    1.3807933   878832 
  125000   0.92108608   -3.7397468   -3.7397468   -2.3581193  0.035496113   -3.7397468    1.3816275   878832 
  126000   0.92134093   -3.7392604   -3.7392604   -2.3572506  0.034621747   -3.7392604    1.3820098   878832 
  127000   0.92163918   -3.7392938   -3.7392938   -2.3568366  0.034016639   -3.7392938    1.3824572   878832 
  128000    0.9216488   -3.7378462   -3.7378462   -2.3553746  0.031434103   -3.7378462    1.3824716   878832 
  129000   0.92189405   -3.7372319   -3.7372319   -2.3543924  0.037848589   -3.7372319    1.3828395   878832 
  130000   0.92291151   -3.7384466   -3.7384466   -2.3540809   0.03142884   -3.7384466    1.3843657   878832 
  131000   0.92072956   -3.7356256   -3.7356256   -2.3545328  0.033798067   -3.7356256    1.3810928   878832 
  132000   0.92055874   -3.7350444   -3.7350444   -2.3542079  0.032893132   -3.7350444    1.3808365   878832 
  133000   0.92112059   -3.7351824   -3.7351824   -2.3535031  0.032575405   -3.7351824    1.3816793   878832 
  134000   0.92112555   -3.7350085   -3.7350085   -2.3533218  0.032191205   -3.7350085    1.3816868   878832 
  135000   0.92199916   -3.7356021   -3.7356021    -2.352605  0.033258965   -3.7356021    1.3829972   878832 
  136000   0.92153746   -3.7340389   -3.7340389   -2.3517342  0.036492909   -3.7340389    1.3823046   878832 
  137000   0.92200358   -3.7339647   -3.7339647   -2.3509609   0.03396976   -3.7339647    1.3830038   878832 
  138000   0.92162007   -3.7334489   -3.7334489   -2.3510204  0.033732785   -3.7334489    1.3824285   878832 
  139000   0.92129526   -3.7327677   -3.7327677   -2.3508263  0.037079795   -3.7327677    1.3819413   878832 
  140000   0.92244569   -3.7337647   -3.7337647   -2.3500977  0.032742993   -3.7337647     1.383667   878832 
  141000   0.92185187   -3.7317295   -3.7317295   -2.3489533  0.031698022   -3.7317295    1.3827762   878832 
  142000   0.92195665   -3.7313853   -3.7313853   -2.3484519  0.035935051   -3.7313853    1.3829334   878832 
  143000   0.92141233     -3.73048     -3.73048   -2.3483631  0.032433973     -3.73048    1.3821169   878832 
  144000   0.92217111   -3.7313799   -3.7313799   -2.3481248  0.032025693   -3.7313799    1.3832551   878832 
  145000   0.92226306   -3.7312954   -3.7312954   -2.3479024  0.031506818   -3.7312954     1.383393   878832 
  146000   0.92240926   -3.7307743   -3.7307743    -2.347162  0.035815721   -3.7307743    1.3836123   878832 
  147000   0.92198534   -3.7303941   -3.7303941   -2.3474177  0.033696999   -3.7303941    1.3829764   878832 
  148000   0.92287482   -3.7304562   -3.7304562   -2.3461456  0.033455947   -3.7304562    1.3843107   878832 
  149000   0.92273116   -3.7299658   -3.7299658   -2.3458706  0.031606589   -3.7299658    1.3840952   878832 
  150000   0.92297782    -3.729111    -3.729111   -2.3446459  0.033967227    -3.729111    1.3844652   878832 
  151000   0.92208488   -3.7270662   -3.7270662   -2.3439404  0.033484242   -3.7270662    1.3831258   878832 
  152000   0.92323289   -3.7283715   -3.7283715   -2.3435238  0.032343556   -3.7283715    1.3848478   878832 
  153000   0.92411198   -3.7290755   -3.7290755   -2.3429091   0.03538225   -3.7290755    1.3861664   878832 
  154000   0.92322808   -3.7276988   -3.7276988   -2.3428582  0.035473002   -3.7276988    1.3848405   878832 
  155000   0.92358394    -3.726908    -3.726908   -2.3415337  0.036284955    -3.726908    1.3853743   878832 
  156000    0.9247085   -3.7280052   -3.7280052    -2.340944  0.036055286   -3.7280052    1.3870612   878832 
  157000    0.9244291   -3.7276498   -3.7276498   -2.3410077  0.033387465   -3.7276498    1.3866421   878832 
  158000   0.92361601   -3.7261761   -3.7261761   -2.3407536  0.036940035   -3.7261761    1.3854224   878832 
  159000   0.92328525   -3.7245122   -3.7245122   -2.3395859  0.034104882   -3.7245122    1.3849263   878832 
  160000   0.92335198   -3.7248175   -3.7248175   -2.3397911  0.036205394   -3.7248175    1.3850264   878832 
  161000   0.92380245   -3.7250278   -3.7250278   -2.3393257  0.035834286   -3.7250278    1.3857021   878832 
  162000   0.92427902   -3.7248511   -3.7248511   -2.3384342  0.032885242   -3.7248511    1.3864169   878832 
  163000   0.92299456   -3.7231742   -3.7231742   -2.3386839  0.032099321   -3.7231742    1.3844903   878832 
  164000   0.92220157   -3.7212093   -3.7212093   -2.3379085  0.034882584   -3.7212093    1.3833008   878832 
  165000   0.92324468   -3.7223239   -3.7223239   -2.3374585  0.028518974   -3.7223239    1.3848654   878832 
  166000    0.9233251   -3.7216563   -3.7216563   -2.3366702  0.030263172   -3.7216563    1.3849861   878832 
  167000    0.9236577   -3.7204136   -3.7204136   -2.3349286  0.034208866   -3.7204136     1.385485   878832 
  168000   0.92481511   -3.7217207   -3.7217207   -2.3344996  0.033199255   -3.7217207    1.3872211   878832 
  169000   0.92437046   -3.7213192   -3.7213192   -2.3347651  0.034326995   -3.7213192    1.3865541   878832 
  170000   0.92375599   -3.7201745   -3.7201745   -2.3345421  0.031585576   -3.7201745    1.3856324   878832 
  171000   0.92403931   -3.7203457   -3.7203457   -2.3342883  0.037546616   -3.7203457    1.3860574   878832 
  172000    0.9247816   -3.7202783   -3.7202783   -2.3331075  0.034620609   -3.7202783    1.3871708   878832 
  173000   0.92377481   -3.7185393   -3.7185393   -2.3328787  0.034288415   -3.7185393    1.3856606   878832 
  174000   0.92403572   -3.7178909   -3.7178909   -2.3318389  0.032963483   -3.7178909     1.386052   878832 
  175000   0.92454963   -3.7172111   -3.7172111   -2.3303882  0.027975719   -3.7172111    1.3868229   878832 
  176000   0.92448655   -3.7170197   -3.7170197   -2.3302915  0.030853517   -3.7170197    1.3867282   878832 
  177000   0.92348793   -3.7152233   -3.7152233    -2.329993   0.03095107   -3.7152233    1.3852303   878832 
  178000   0.92387327   -3.7152771   -3.7152771   -2.3294687  0.031259137   -3.7152771    1.3858083   878832 
  179000    0.9231971   -3.7144882   -3.7144882   -2.3296941  0.031264265   -3.7144882    1.3847941   878832 
  180000    0.9224879   -3.7135281   -3.7135281   -2.3297978  0.029929497   -3.7135281    1.3837303   878832 
  181000    0.9249752   -3.7155211   -3.7155211   -2.3280599  0.029411038   -3.7155211    1.3874612   878832 
  182000    0.9233191   -3.7112445   -3.7112445   -2.3262674  0.035485602   -3.7112445    1.3849771   878832 
  183000   0.92405278   -3.7113971   -3.7113971   -2.3253195  0.036130258   -3.7113971    1.3860776   878832 
  184000   0.92528671   -3.7128601   -3.7128601   -2.3249317  0.034287072   -3.7128601    1.3879285   878832 
  185000   0.92419836   -3.7116888   -3.7116888   -2.3253928   0.03291901   -3.7116888     1.386296   878832 
  186000   0.92548635   -3.7131629   -3.7131629    -2.324935  0.032044955   -3.7131629    1.3882279   878832 
  187000   0.92512197   -3.7111739   -3.7111739   -2.3234925  0.034017215   -3.7111739    1.3876814   878832 
  188000   0.92565288   -3.7111487   -3.7111487   -2.3226709  0.034834784   -3.7111487    1.3884777   878832 
  189000   0.92427622   -3.7104449   -3.7104449   -2.3240322   0.03132016   -3.7104449    1.3864127   878832 
  190000   0.92468031   -3.7095678   -3.7095678   -2.3225489  0.032261309   -3.7095678    1.3870189   878832 
  191000   0.92550502   -3.7090842   -3.7090842   -2.3208283  0.035099324   -3.7090842    1.3882559   878832 
  192000   0.92548249   -3.7087518   -3.7087518   -2.3205296  0.032240739   -3.7087518    1.3882222   878832 
  193000   0.92485156   -3.7078644   -3.7078644   -2.3205887  0.036491241   -3.7078644    1.3872758   878832 
  194000   0.92528807   -3.7082988   -3.7082988   -2.3203683  0.033871993   -3.7082988    1.3879305   878832 
  195000   0.92505627   -3.7075134   -3.7075134   -2.3199305    0.0383561   -3.7075134    1.3875828   878832 
  196000   0.92572698   -3.7079698   -3.7079698   -2.3193809   0.03346798   -3.7079698    1.3885889   878832 
  197000   0.92532353    -3.707082    -3.707082   -2.3190983   0.03416729    -3.707082    1.3879837   878832 
  198000   0.92633647   -3.7076416   -3.7076416   -2.3181385  0.035522141   -3.7076416    1.3895031   878832 
  199000   0.92638566   -3.7072234   -3.7072234   -2.3176464  0.028906281   -3.7072234    1.3895769   878832 
  200000   0.92566003    -3.706297    -3.706297   -2.3178085  0.031245993    -3.706297    1.3884885   878832 
  201000   0.92574715   -3.7061807   -3.7061807   -2.3175615  0.032658813   -3.7061807    1.3886191   878832 
  202000   0.92564249   -3.7051345   -3.7051345   -2.3166723  0.033018466   -3.7051345    1.3884622   878832 
  203000   0.92493644    -3.704175    -3.704175    -2.316772   0.03754799    -3.704175    1.3874031   878832 
  204000   0.92488224   -3.7046637   -3.7046637   -2.3173419  0.031139086   -3.7046637    1.3873218   878832 
  205000   0.92492729   -3.7038261   -3.7038261   -2.3164368  0.030867141   -3.7038261    1.3873894   878832 
  206000   0.92535248   -3.7032158   -3.7032158   -2.3151887  0.032441776   -3.7032158    1.3880271   878832 
  207000   0.92598833   -3.7030811   -3.7030811   -2.3141002  0.030653289   -3.7030811    1.3889809   878832 
  208000   0.92632305   -3.7038165   -3.7038165   -2.3143335  0.033112752   -3.7038165     1.389483   878832 
  209000   0.92679628   -3.7038613   -3.7038613   -2.3136684  0.028946469   -3.7038613    1.3901928   878832 
  210000   0.92670394   -3.7033276   -3.7033276   -2.3132733    0.0313615   -3.7033276    1.3900543   878832 
  211000   0.92744942    -3.703432    -3.703432   -2.3122595  0.034418383    -3.703432    1.3911726   878832 
  212000   0.92693737   -3.7022352   -3.7022352   -2.3118308  0.033756849   -3.7022352    1.3904045   878832 
  213000    0.9267554   -3.7010346   -3.7010346   -2.3109031  0.036157569   -3.7010346    1.3901315   878832 
  214000   0.92674531   -3.7013192   -3.7013192   -2.3112028  0.030993925   -3.7013192    1.3901164   878832 
  215000   0.92694691   -3.7010786   -3.7010786   -2.3106599  0.029000394   -3.7010786    1.3904188   878832 
  216000    0.9262043     -3.69989     -3.69989   -2.3105852  0.030307723     -3.69989    1.3893049   878832 
  217000   0.92756827    -3.702189    -3.702189   -2.3108381  0.028666473    -3.702189    1.3913508   878832 
  218000   0.92784702   -3.7010951   -3.7010951   -2.3093262  0.032452168   -3.7010951     1.391769   878832 
  219000   0.92696771   -3.6999588   -3.6999588   -2.3095088   0.03700034   -3.6999588      1.39045   878832 
  220000   0.92853981   -3.7015756   -3.7015756   -2.3087674  0.032943992   -3.7015756    1.3928081   878832 
  221000   0.92794902   -3.7004039   -3.7004039    -2.308482  0.035310555   -3.7004039    1.3919219   878832 
  222000   0.92796625   -3.6993853   -3.6993853   -2.3074375  0.037700686   -3.6993853    1.3919478   878832 
  223000   0.92825056   -3.6985318   -3.6985318   -2.3061576  0.036372738   -3.6985318    1.3923743   878832 
  224000   0.92673309   -3.6970307   -3.6970307   -2.3069327  0.037986232   -3.6970307     1.390098   878832 
  225000   0.92853895   -3.6981798   -3.6981798    -2.305373  0.034467251   -3.6981798    1.3928068   878832 
  226000   0.92817332   -3.6977078   -3.6977078   -2.3054494  0.032072321   -3.6977078    1.3922584   878832 
  227000   0.92806013   -3.6976016   -3.6976016    -2.305513  0.033662212   -3.6976016    1.3920886   878832 
  228000    0.9273297   -3.6965132   -3.6965132   -2.3055202   0.03220594   -3.6965132     1.390993   878832 
  229000   0.92702969    -3.694948    -3.694948    -2.304405  0.031984251    -3.694948    1.3905429   878832 
  230000   0.92766458   -3.6943704   -3.6943704   -2.3028751  0.031442227   -3.6943704    1.3914953   878832 
  231000    0.9277158   -3.6946199   -3.6946199   -2.3030478  0.029714816   -3.6946199    1.3915721   878832 
  232000   0.92817416   -3.6957077   -3.6957077    -2.303448  0.030500459   -3.6957077    1.3922597   878832 
  233000   0.92741678   -3.6938227   -3.6938227   -2.3026991  0.034733655   -3.6938227    1.3911236   878832 
  234000   0.92769303   -3.6940004   -3.6940004   -2.3024624  0.038526256   -3.6940004     1.391538   878832 
  235000    0.9281088   -3.6940941   -3.6940941   -2.3019325  0.032440086   -3.6940941    1.3921616   878832 
  236000   0.92799402   -3.6935533   -3.6935533   -2.3015639  0.032083127   -3.6935533    1.3919895   878832 
  237000   0.92775357   -3.6925395   -3.6925395   -2.3009107  0.031879043   -3.6925395    1.3916288   878832 
  238000   0.92744152   -3.6918555   -3.6918555   -2.3006948  0.034040643   -3.6918555    1.3911607   878832 
  239000   0.92695998   -3.6904146   -3.6904146   -2.2999762  0.033024753   -3.6904146    1.3904384   878832 
  240000   0.92917682   -3.6916627   -3.6916627   -2.2978991  0.032018647   -3.6916627    1.3937637   878832 
  241000   0.92801168   -3.6903506   -3.6903506   -2.2983347  0.030503444   -3.6903506    1.3920159   878832 
  242000   0.92828688   -3.6901694   -3.6901694   -2.2977407  0.033961138   -3.6901694    1.3924287   878832 
  243000   0.92911477   -3.6911527   -3.6911527   -2.2974821  0.030994005   -3.6911527    1.3936706   878832 
  244000   0.92734589   -3.6886588   -3.6886588   -2.2976415  0.033931915   -3.6886588    1.3910173   878832 
  245000   0.92690024   -3.6876948   -3.6876948    -2.297346  0.032217924   -3.6876948    1.3903488   878832 
  246000   0.92723614   -3.6880332   -3.6880332   -2.2971805  0.030879084   -3.6880332    1.3908526   878832 
  247000   0.92695056   -3.6874655   -3.6874655   -2.2970412  0.032079604   -3.6874655    1.3904243   878832 
  248000   0.92786052   -3.6890564   -3.6890564   -2.2972672  0.026344256   -3.6890564    1.3917892   878832 
  249000   0.92789773   -3.6880685   -3.6880685   -2.2962235  0.031889574   -3.6880685     1.391845   878832 
  250000   0.92823183   -3.6873804   -3.6873804   -2.2950342  0.029090101   -3.6873804    1.3923462   878832 
  251000    0.9276584   -3.6867498   -3.6867498   -2.2952638  0.029858894   -3.6867498     1.391486   878832 
  252000   0.92761073   -3.6866256   -3.6866256    -2.295211  0.029580382   -3.6866256    1.3914145   878832 
  253000   0.92731307   -3.6851165   -3.6851165   -2.2941485  0.033443835   -3.6851165     1.390968   878832 
  254000   0.92808741   -3.6853168   -3.6853168   -2.2931873  0.032366689   -3.6853168    1.3921295   878832 
  255000    0.9284221   -3.6851198   -3.6851198   -2.2924883  0.033489349   -3.6851198    1.3926316   878832 
  256000   0.92904105   -3.6856796   -3.6856796   -2.2921196  0.031565854   -3.6856796      1.39356   878832 
  257000   0.92831945   -3.6850664   -3.6850664   -2.2925888  0.035824164   -3.6850664    1.3924776   878832 
  258000   0.93010656   -3.6871376   -3.6871376   -2.2919794   0.03156371   -3.6871376    1.3951583   878832 
  259000   0.92881092   -3.6847419   -3.6847419   -2.2915271  0.033274486   -3.6847419    1.3932148   878832 
  260000   0.92997491   -3.6856632   -3.6856632   -2.2907024  0.033069197   -3.6856632    1.3949608   878832 
  261000   0.92958233   -3.6854957   -3.6854957   -2.2911238  0.035399508   -3.6854957    1.3943719   878832 
  262000   0.92846151   -3.6839991   -3.6839991   -2.2913085  0.033523362   -3.6839991    1.3926907   878832 
  263000   0.92939229   -3.6845653   -3.6845653   -2.2904784  0.032316261   -3.6845653    1.3940868   878832 
  264000   0.92887237   -3.6833994   -3.6833994   -2.2900924  0.031137859   -3.6833994     1.393307   878832 
  265000   0.92883376   -3.6829989   -3.6829989   -2.2897498  0.032921484   -3.6829989    1.3932491   878832 
  266000   0.93026393   -3.6842993   -3.6842993    -2.288905  0.034704977   -3.6842993    1.3953943   878832 
  267000   0.92957165   -3.6837593   -3.6837593   -2.2894034   0.03449876   -3.6837593    1.3943559   878832 
  268000   0.93002815   -3.6846325   -3.6846325   -2.2895918  0.035349823   -3.6846325    1.3950406   878832 
  269000   0.92999906   -3.6841573   -3.6841573   -2.2891603  0.035243087   -3.6841573     1.394997   878832 
  270000   0.93066995   -3.6850157   -3.6850157   -2.2890124    0.0345631   -3.6850157    1.3960033   878832 
  271000   0.93074058   -3.6846236   -3.6846236   -2.2885143   0.03391012   -3.6846236    1.3961093   878832 
  272000   0.92997886   -3.6833289   -3.6833289   -2.2883622  0.036152642   -3.6833289    1.3949667   878832 
  273000   0.92912094   -3.6817608   -3.6817608   -2.2880809   0.03301049   -3.6817608    1.3936798   878832 
  274000   0.92896131     -3.68133     -3.68133   -2.2878897  0.033700155     -3.68133    1.3934404   878832 
  275000   0.92981182   -3.6819962   -3.6819962     -2.28728  0.032767889   -3.6819962    1.3947161   878832 
  276000   0.92998668   -3.6816492   -3.6816492   -2.2866708  0.033273916   -3.6816492    1.3949784   878832 
  277000   0.92961753   -3.6805401   -3.6805401   -2.2861154  0.035490973   -3.6805401    1.3944247   878832 
  278000   0.92901914   -3.6789396   -3.6789396   -2.2854125  0.034067508   -3.6789396    1.3935271   878832 
  279000   0.93065225   -3.6805688   -3.6805688    -2.284592  0.036876333   -3.6805688    1.3959768   878832 
  280000   0.93052035   -3.6813676   -3.6813676   -2.2855886  0.029680781   -3.6813676    1.3957789   878832 
  281000   0.92954058   -3.6796178   -3.6796178   -2.2853086  0.033057708   -3.6796178    1.3943093   878832 
  282000   0.93043096   -3.6800695   -3.6800695   -2.2844247  0.034997913   -3.6800695    1.3956448   878832 
  283000   0.93025978   -3.6796003   -3.6796003   -2.2842122  0.035719499   -3.6796003    1.3953881   878832 
  284000   0.93101374   -3.6802416   -3.6802416   -2.2837226  0.035999026   -3.6802416     1.396519   878832 
  285000   0.93143633   -3.6795649   -3.6795649    -2.282412  0.038087719   -3.6795649    1.3971529   878832 
  286000   0.93034805   -3.6783433   -3.6783433   -2.2828228  0.032285342   -3.6783433    1.3955205   878832 
  287000   0.93027676   -3.6781398   -3.6781398   -2.2827262   0.02990879   -3.6781398    1.3954135   878832 
  288000   0.93069834   -3.6776561   -3.6776561   -2.2816102  0.034190978   -3.6776561    1.3960459   878832 
  289000   0.93098082   -3.6786573   -3.6786573   -2.2821877  0.030673486   -3.6786573    1.3964696   878832 
  290000   0.93027698   -3.6780868   -3.6780868   -2.2826729  0.028781249   -3.6780868    1.3954139   878832 
  291000   0.93038572   -3.6774959   -3.6774959   -2.2819189  0.031582974   -3.6774959     1.395577   878832 
  292000   0.92958031   -3.6763126   -3.6763126   -2.2819437  0.031786379   -3.6763126    1.3943689   878832 
  293000    0.9299005   -3.6759936   -3.6759936   -2.2811444  0.034571628   -3.6759936    1.3948492   878832 
  294000   0.92989068   -3.6758246   -3.6758246   -2.2809902  0.035577219   -3.6758246    1.3948344   878832 
  295000   0.92970295   -3.6747619   -3.6747619    -2.280209  0.033528009   -3.6747619    1.3945528   878832 
  296000   0.93098582   -3.6760487   -3.6760487   -2.2795716  0.030656086   -3.6760487    1.3964771   878832 
  297000   0.93021707    -3.673954    -3.673954     -2.27863  0.030599457    -3.673954     1.395324   878832 
  298000   0.93127045   -3.6756137   -3.6756137   -2.2787097  0.030374815   -3.6756137    1.3969041   878832 
  299000    0.9310935   -3.6752953   -3.6752953   -2.2786567  0.028485936   -3.6752953    1.3966387   878832 
  300000    0.9304647   -3.6744735   -3.6744735    -2.278778  0.033516692   -3.6744735    1.3956955   878832 
  301000   0.93071865   -3.6739627   -3.6739627   -2.2778863  0.037080812   -3.6739627    1.3960764   878832 
  302000   0.93014087   -3.6723954   -3.6723954   -2.2771856  0.031069293   -3.6723954    1.3952097   878832 
  303000   0.93091384    -3.672121    -3.672121   -2.2757519  0.031827965    -3.672121    1.3963692   878832 
  304000   0.93150177   -3.6732945   -3.6732945   -2.2760434  0.031948941   -3.6732945    1.3972511   878832 
  305000   0.93166155   -3.6735796   -3.6735796   -2.2760888  0.027500223   -3.6735796    1.3974907   878832 
  306000   0.93216015   -3.6734996   -3.6734996   -2.2752609  0.032823021   -3.6734996    1.3982386   878832 
  307000   0.93184395   -3.6724619   -3.6724619   -2.2746975  0.033658002   -3.6724619    1.3977643   878832 
  308000   0.93228464   -3.6726146   -3.6726146   -2.2741892  0.032947945   -3.6726146    1.3984254   878832 
  309000   0.93174786   -3.6718154   -3.6718154   -2.2741952  0.035369248   -3.6718154    1.3976202   878832 
  310000   0.93075353   -3.6698695   -3.6698695   -2.2737408  0.033211053   -3.6698695    1.3961287   878832 
  311000   0.93105935   -3.6708029   -3.6708029   -2.2742155  0.033177679   -3.6708029    1.3965874   878832 
  312000   0.93194256   -3.6714013   -3.6714013   -2.2734891   0.03412122   -3.6714013    1.3979122   878832 
  313000   0.93195226    -3.671114    -3.671114   -2.2731872  0.033205242    -3.671114    1.3979268   878832 
  314000   0.93107494   -3.6707352   -3.6707352   -2.2741244  0.032388073   -3.6707352    1.3966108   878832 
  315000   0.93169141   -3.6703143   -3.6703143   -2.2727788  0.034913027   -3.6703143    1.3975355   878832 
  316000   0.93066249   -3.6685409   -3.6685409   -2.2725487  0.034525149   -3.6685409    1.3959921   878832 
  317000   0.93209595   -3.6702455   -3.6702455   -2.2721031   0.03089995   -3.6702455    1.3981423   878832 
  318000    0.9311141   -3.6688973   -3.6688973   -2.2722277  0.030370685   -3.6688973    1.3966696   878832 
  319000   0.93145672    -3.669399    -3.669399   -2.2722155  0.032492088    -3.669399    1.3971835   878832 
  320000    0.9321787   -3.6700045   -3.6700045    -2.271738  0.033962982   -3.6700045    1.3982665   878832 
  321000   0.93230541   -3.6701444   -3.6701444   -2.2716879  0.033174576   -3.6701444    1.3984565   878832 
  322000   0.93216308   -3.6692791   -3.6692791   -2.2710361  0.033044983   -3.6692791     1.398243   878832 
  323000   0.93155131   -3.6677522   -3.6677522   -2.2704268  0.033134632   -3.6677522    1.3973254   878832 
  324000   0.93167461   -3.6673071   -3.6673071   -2.2697968  0.034155712   -3.6673071    1.3975103   878832 
  325000    0.9313627   -3.6666809   -3.6666809   -2.2696385  0.034346507   -3.6666809    1.3970425   878832 
  326000   0.93117371   -3.6665261   -3.6665261   -2.2697672  0.037154453   -3.6665261     1.396759   878832 
  327000   0.93223974   -3.6680712   -3.6680712   -2.2697132  0.030158401   -3.6680712     1.398358   878832 
  328000   0.93103835   -3.6660941   -3.6660941   -2.2695381  0.035202168   -3.6660941    1.3965559   878832 
  329000   0.93209861   -3.6674829   -3.6674829   -2.2693366  0.035107819   -3.6674829    1.3981463   878832 
  330000   0.93192722   -3.6665901   -3.6665901   -2.2687009  0.032818357   -3.6665901    1.3978892   878832 
  331000   0.93177294   -3.6662242   -3.6662242   -2.2685664  0.036407147   -3.6662242    1.3976578   878832 
  332000   0.93197103   -3.6655089   -3.6655089   -2.2675539   0.03715376   -3.6655089     1.397955   878832 
  333000   0.93342124   -3.6667956   -3.6667956   -2.2666653  0.036475815   -3.6667956    1.4001303   878832 
  334000   0.93358909   -3.6664942   -3.6664942   -2.2661121  0.032468195   -3.6664942     1.400382   878832 
  335000   0.93292028   -3.6653612   -3.6653612   -2.2659824  0.034609438   -3.6653612    1.3993788   878832 
  336000   0.93499257   -3.6683353   -3.6683353    -2.265848    0.0328102   -3.6683353    1.4024873   878832 
  337000   0.93346353   -3.6659367   -3.6659367    -2.265743  0.038048067   -3.6659367    1.4001937   878832 
  338000   0.93365431   -3.6662431   -3.6662431   -2.2657632  0.036197697   -3.6662431    1.4004799   878832 
  339000   0.93276033   -3.6643768   -3.6643768   -2.2652379  0.034667065   -3.6643768    1.3991389   878832 
  340000     0.933627   -3.6657289   -3.6657289     -2.26529  0.030756635   -3.6657289    1.4004389   878832 
  341000   0.93349749   -3.6651058   -3.6651058   -2.2648612    0.0307879   -3.6651058    1.4002446   878832 
  342000   0.93174289   -3.6628632   -3.6628632   -2.2652504  0.034862276   -3.6628632    1.3976128   878832 
  343000   0.93175889   -3.6622546   -3.6622546   -2.2646179  0.029649899   -3.6622546    1.3976367   878832 
  344000   0.93264046   -3.6621318   -3.6621318   -2.2631727  0.031983688   -3.6621318    1.3989591   878832 
  345000   0.93307364   -3.6623123   -3.6623123   -2.2627034  0.032495013   -3.6623123    1.3996089   878832 
  346000   0.93262583   -3.6615031   -3.6615031    -2.262566  0.034617643   -3.6615031    1.3989371   878832 
  347000   0.93199486   -3.6610448   -3.6610448   -2.2630541  0.039287214   -3.6610448    1.3979907   878832 
  348000   0.93368287   -3.6630012   -3.6630012   -2.2624785  0.033026364   -3.6630012    1.4005227   878832 
  349000   0.93253235   -3.6616015   -3.6616015   -2.2628046  0.033944819   -3.6616015    1.3987969   878832 
  350000   0.93256188   -3.6611137   -3.6611137   -2.2622724   0.03541007   -3.6611137    1.3988412   878832 
  351000   0.93342604   -3.6608468   -3.6608468   -2.2607093  0.033850755   -3.6608468    1.4001375   878832 
  352000   0.93265673   -3.6596188   -3.6596188   -2.2606353  0.033261256   -3.6596188    1.3989835   878832 
  353000   0.93353781   -3.6601281   -3.6601281    -2.259823  0.031771642   -3.6601281    1.4003051   878832 
  354000   0.93252524   -3.6583584   -3.6583584   -2.2595722   0.03450109   -3.6583584    1.3987863   878832 
  355000   0.93414109   -3.6596278   -3.6596278   -2.2584177  0.029507626   -3.6596278      1.40121   878832 
  356000   0.93270702   -3.6581455   -3.6581455   -2.2590866  0.032556241   -3.6581455    1.3990589   878832 
  357000   0.93256113   -3.6577465   -3.6577465   -2.2589064  0.031627052   -3.6577465    1.3988401   878832 
  358000   0.93385819    -3.659327    -3.659327   -2.2585414  0.033178296    -3.659327    1.4007857   878832 
  359000    0.9345442   -3.6594985   -3.6594985   -2.2576838  0.031655258   -3.6594985    1.4018147   878832 
  360000   0.93402019   -3.6590384   -3.6590384   -2.2580097  0.036330112   -3.6590384    1.4010287   878832 
  361000   0.93346883   -3.6581773   -3.6581773   -2.2579756   0.03486905   -3.6581773    1.4002017   878832 
  362000   0.93350027   -3.6569956   -3.6569956   -2.2567468  0.034981607   -3.6569956    1.4002488   878832 
  363000   0.93429592   -3.6567863   -3.6567863    -2.255344  0.033907274   -3.6567863    1.4014423   878832 
  364000    0.9337131   -3.6567301   -3.6567301    -2.256162  0.035705492   -3.6567301    1.4005681   878832 
  365000   0.93389591   -3.6560742   -3.6560742   -2.2552319  0.035339151   -3.6560742    1.4008423   878832 
  366000   0.93559466   -3.6585829   -3.6585829   -2.2551925  0.031155355   -3.6585829    1.4033904   878832 
  367000   0.93442491   -3.6563673   -3.6563673   -2.2547315  0.033986554   -3.6563673    1.4016358   878832 
  368000    0.9342529   -3.6562444   -3.6562444   -2.2548667  0.034150297   -3.6562444    1.4013777   878832 
  369000   0.93427911   -3.6560182   -3.6560182   -2.2546011  0.031025188   -3.6560182    1.4014171   878832 
  370000    0.9342303   -3.6550513   -3.6550513   -2.2537075  0.031235065   -3.6550513    1.4013439   878832 
  371000   0.93381932   -3.6537862   -3.6537862   -2.2530588   0.03463368   -3.6537862    1.4007274   878832 
  372000   0.93376225   -3.6530904   -3.6530904   -2.2524486   0.03444941   -3.6530904    1.4006418   878832 
  373000   0.93490838   -3.6546836   -3.6546836   -2.2523226  0.035052631   -3.6546836     1.402361   878832 
  374000   0.93384471   -3.6516349   -3.6516349   -2.2508695   0.03558486   -3.6516349    1.4007655   878832 
  375000   0.93396553   -3.6517433   -3.6517433   -2.2507966  0.033740921   -3.6517433    1.4009467   878832 
  376000   0.93562125   -3.6534188   -3.6534188   -2.2499886  0.032672137   -3.6534188    1.4034303   878832 
  377000   0.93474665   -3.6511253   -3.6511253   -2.2490069   0.03445208   -3.6511253    1.4021184   878832 
  378000   0.93473352   -3.6522943   -3.6522943   -2.2501957  0.031318709   -3.6522943    1.4020987   878832 
  379000   0.93384414   -3.6505042   -3.6505042   -2.2497396  0.032077194   -3.6505042    1.4007646   878832 
  380000   0.93513428   -3.6520428   -3.6520428    -2.249343  0.027555587   -3.6520428    1.4026998   878832 
  381000   0.93345841   -3.6492402   -3.6492402   -2.2490541  0.031931969   -3.6492402     1.400186   878832 
  382000   0.93420007    -3.649395    -3.649395   -2.2480965  0.029121422    -3.649395    1.4012985   878832 
  383000   0.93345971   -3.6485484   -3.6485484   -2.2483604  0.032146784   -3.6485484     1.400188   878832 
  384000   0.93408167   -3.6483386   -3.6483386   -2.2472177  0.030051523   -3.6483386    1.4011209   878832 
  385000   0.93508286   -3.6490367   -3.6490367   -2.2464141    0.0328611   -3.6490367    1.4026227   878832 
  386000   0.93433133   -3.6490545   -3.6490545   -2.2475591  0.035283767   -3.6490545    1.4014954   878832 
  387000   0.93460645   -3.6486774   -3.6486774   -2.2467693  0.033777586   -3.6486774    1.4019081   878832 
  388000   0.93462885   -3.6478042   -3.6478042   -2.2458625  0.033747575   -3.6478042    1.4019417   878832 
  389000   0.93511064   -3.6488032   -3.6488032   -2.2461389  0.032949504   -3.6488032    1.4026644   878832 
  390000   0.93587609   -3.6489907   -3.6489907   -2.2451781  0.031668068   -3.6489907    1.4038125   878832 
  391000   0.93465133   -3.6477562   -3.6477562   -2.2457808    0.0359822   -3.6477562    1.4019754   878832 
  392000   0.93415471   -3.6467331   -3.6467331   -2.2455027  0.033268076   -3.6467331    1.4012305   878832 
  393000   0.93461535   -3.6475447   -3.6475447   -2.2456233  0.032256609   -3.6475447    1.4019214   878832 
  394000    0.9343533   -3.6458893   -3.6458893    -2.244361  0.030254013   -3.6458893    1.4015284   878832 
  395000   0.93514606   -3.6468154   -3.6468154   -2.2440979  0.032541463   -3.6468154    1.4027175   878832 
  396000   0.93461895   -3.6461341   -3.6461341   -2.2442072  0.032789266   -3.6461341    1.4019268   878832 
  397000   0.93552959   -3.6472202   -3.6472202   -2.2439274  0.032728014   -3.6472202    1.4032928   878832 
  398000   0.93543489     -3.64759     -3.64759   -2.2444392  0.034661911     -3.64759    1.4031507   878832 
  399000   0.93596551   -3.6474091   -3.6474091   -2.2434625  0.032547431   -3.6474091    1.4039467   878832 
  400000     0.934604   -3.6453607   -3.6453607   -2.2434563  0.035355064   -3.6453607    1.4019044   878832 
  401000   0.93524057   -3.6456673   -3.6456673    -2.242808  0.033817527   -3.6456673    1.4028593   878832 
  402000   0.93563703   -3.6460006   -3.6460006   -2.2425467  0.029387015   -3.6460006     1.403454   878832 
  403000   0.93614199   -3.6451371   -3.6451371   -2.2409257  0.033602722   -3.6451371    1.4042114   878832 
  404000   0.93574177   -3.6449646   -3.6449646   -2.2413535  0.034521106   -3.6449646    1.4036111   878832 
  405000   0.93689265   -3.6473407   -3.6473407   -2.2420034   0.03265889   -3.6473407    1.4053374   878832 
  406000   0.93580058     -3.64564     -3.64564   -2.2419408  0.037521284     -3.64564    1.4036993   878832 
  407000   0.93607229   -3.6466585   -3.6466585   -2.2425517  0.034212104   -3.6466585    1.4041068   878832 
  408000   0.93568308   -3.6455572   -3.6455572   -2.2420342  0.034247724   -3.6455572     1.403523   878832 
  409000    0.9353838   -3.6449785   -3.6449785   -2.2419044  0.033693906   -3.6449785    1.4030741   878832 
  410000   0.93559346   -3.6456993   -3.6456993   -2.2423107  0.031685645   -3.6456993    1.4033886   878832 
  411000   0.93489782   -3.6449728   -3.6449728   -2.2426277  0.031395341   -3.6449728    1.4023451   878832 
  412000   0.93406983   -3.6435642   -3.6435642    -2.242461  0.035485582   -3.6435642    1.4011032   878832 
  413000   0.93580444   -3.6455979   -3.6455979   -2.2418929   0.03183853   -3.6455979    1.4037051   878832 
  414000   0.93429904   -3.6440668   -3.6440668   -2.2426198  0.031419467   -3.6440668     1.401447   878832 
  415000   0.93484073   -3.6435777   -3.6435777   -2.2413182  0.030119013   -3.6435777    1.4022595   878832 
  416000   0.93577753   -3.6450155   -3.6450155   -2.2413508  0.028672886   -3.6450155    1.4036647   878832 
  417000   0.93591119   -3.6444699   -3.6444699   -2.2406047   0.03167983   -3.6444699    1.4038652   878832 
  418000   0.93603008   -3.6450092   -3.6450092   -2.2409657  0.033292176   -3.6450092    1.4040435   878832 
  419000   0.93631777   -3.6441061   -3.6441061   -2.2396311  0.035110695   -3.6441061    1.4044751   878832 
  420000   0.93670148    -3.644032    -3.644032   -2.2389814  0.035046114    -3.644032    1.4050506   878832 
  421000   0.93757888   -3.6445167   -3.6445167     -2.23815  0.035533887   -3.6445167    1.4063667   878832 
  422000    0.9380279   -3.6439925   -3.6439925   -2.2369522   0.03609878   -3.6439925    1.4070403   878832 
  423000   0.93747412   -3.6441218   -3.6441218   -2.2379122   0.03871754   -3.6441218    1.4062096   878832 
  424000   0.93815372   -3.6447627   -3.6447627   -2.2375337  0.036156333   -3.6447627     1.407229   878832 
  425000   0.93773986   -3.6444197   -3.6444197   -2.2378115  0.038677114   -3.6444197    1.4066082   878832 
  426000   0.93782421   -3.6447491   -3.6447491   -2.2380144  0.036860748   -3.6447491    1.4067347   878832 
  427000   0.93742754   -3.6435495   -3.6435495   -2.2374098  0.035396659   -3.6435495    1.4061397   878832 
  428000   0.93704796   -3.6441933   -3.6441933   -2.2386229  0.032248488   -3.6441933    1.4055703   878832 
  429000   0.93513969   -3.6410807   -3.6410807   -2.2383728  0.033969776   -3.6410807    1.4027079   878832 
  430000   0.93580221   -3.6414869   -3.6414869   -2.2377852  0.033496472   -3.6414869    1.4037017   878832 
  431000   0.93570864   -3.6415142   -3.6415142   -2.2379529  0.029271432   -3.6415142    1.4035614   878832 
  432000   0.93558746   -3.6403451   -3.6403451   -2.2369655  0.031462748   -3.6403451    1.4033796   878832 
  433000   0.93538529   -3.6408554   -3.6408554    -2.237779  0.032528121   -3.6408554    1.4030763   878832 
  434000   0.93642831    -3.641269    -3.641269   -2.2366281  0.031109538    -3.641269    1.4046409   878832 
  435000   0.93600652   -3.6397131   -3.6397131   -2.2357049   0.03390263   -3.6397131    1.4040082   878832 
  436000   0.93824317   -3.6429967   -3.6429967   -2.2356336  0.031904658   -3.6429967    1.4073632   878832 
  437000   0.93686339   -3.6407678   -3.6407678   -2.2354743  0.035344013   -3.6407678    1.4052935   878832 
  438000    0.9372357   -3.6409944   -3.6409944   -2.2351424  0.037675348   -3.6409944     1.405852   878832 
  439000    0.9366638   -3.6395904   -3.6395904   -2.2345963  0.037322895   -3.6395904    1.4049941   878832 
  440000   0.93707644   -3.6397083   -3.6397083   -2.2340953  0.032074043   -3.6397083    1.4056131   878832 
  441000    0.9368786   -3.6397129   -3.6397129   -2.2343966  0.032377164   -3.6397129    1.4053163   878832 
  442000   0.93618684   -3.6386118   -3.6386118   -2.2343331  0.034824037   -3.6386118    1.4042787   878832 
  443000   0.93599727   -3.6376913   -3.6376913    -2.233697  0.031914837   -3.6376913    1.4039943   878832 
  444000   0.93719282   -3.6387259   -3.6387259   -2.2329383  0.031964422   -3.6387259    1.4057876   878832 
  445000   0.93593325   -3.6364226   -3.6364226   -2.2325243  0.033099073   -3.6364226    1.4038983   878832 
  446000   0.93728672   -3.6373675   -3.6373675    -2.231439  0.035817021   -3.6373675    1.4059285   878832 
  447000    0.9375065   -3.6366602   -3.6366602   -2.2304021  0.036084693   -3.6366602    1.4062581   878832 
  448000   0.93758952   -3.6373795   -3.6373795   -2.2309968  0.035582096   -3.6373795    1.4063827   878832 
  449000   0.93635531   -3.6351984   -3.6351984    -2.230667    0.0368035   -3.6351984    1.4045314   878832 
  450000   0.93756164   -3.6364566   -3.6364566   -2.2301157  0.033954277   -3.6364566    1.4063409   878832 
  451000   0.93879583   -3.6374084   -3.6374084   -2.2292162  0.038223032   -3.6374084    1.4081922   878832 
  452000   0.93806534   -3.6371062   -3.6371062   -2.2300098  0.030137733   -3.6371062    1.4070964   878832 
  453000   0.93763386   -3.6360173   -3.6360173   -2.2295682  0.031174492   -3.6360173    1.4064492   878832 
  454000   0.93752803   -3.6355349   -3.6355349   -2.2292444  0.030750768   -3.6355349    1.4062904   878832 
  455000   0.93708784   -3.6346067   -3.6346067   -2.2289766  0.032242209   -3.6346067    1.4056302   878832 
  456000   0.93683622    -3.634366    -3.634366   -2.2291133  0.028180159    -3.634366    1.4052527   878832 
  457000   0.93690868   -3.6343856   -3.6343856   -2.2290242    0.0325613   -3.6343856    1.4053614   878832 
  458000   0.93618952   -3.6336367   -3.6336367    -2.229354  0.032204083   -3.6336367    1.4042827   878832 
  459000    0.9366929   -3.6333186   -3.6333186   -2.2282809  0.032308751   -3.6333186    1.4050378   878832 
  460000   0.93770084   -3.6347368   -3.6347368   -2.2281872  0.027677186   -3.6347368    1.4065497   878832 
  461000   0.93756537    -3.633162    -3.633162   -2.2268155  0.034688643    -3.633162    1.4063465   878832 
  462000   0.93713624    -3.632849    -3.632849   -2.2271463  0.036473745    -3.632849    1.4057028   878832 
  463000   0.93693374   -3.6330196   -3.6330196   -2.2276205   0.03971035   -3.6330196     1.405399   878832 
  464000   0.93768213   -3.6341051   -3.6341051   -2.2275835  0.034628395   -3.6341051    1.4065216   878832 
  465000   0.93842127   -3.6341178   -3.6341178   -2.2264875  0.032135508   -3.6341178    1.4076303   878832 
  466000   0.93837204   -3.6341328   -3.6341328   -2.2265763  0.031753568   -3.6341328    1.4075565   878832 
  467000   0.93815995    -3.632973    -3.632973   -2.2257347  0.034323245    -3.632973    1.4072383   878832 
  468000   0.93765875   -3.6322018   -3.6322018   -2.2257152  0.033990977   -3.6322018    1.4064865   878832 
  469000   0.93854221    -3.633251    -3.633251   -2.2254393  0.032987485    -3.633251    1.4078117   878832 
  470000   0.93844777   -3.6329579   -3.6329579   -2.2252879  0.030235608   -3.6329579    1.4076701   878832 
  471000   0.93817224   -3.6311554   -3.6311554   -2.2238987  0.034857562   -3.6311554    1.4072568   878832 
  472000   0.93777971   -3.6313303   -3.6313303   -2.2246623  0.032724952   -3.6313303     1.406668   878832 
  473000   0.93760644   -3.6314069   -3.6314069   -2.2249988  0.034474661   -3.6314069    1.4064081   878832 
  474000    0.9371493   -3.6310339   -3.6310339   -2.2253115  0.031064189   -3.6310339    1.4057223   878832 
  475000   0.93851013   -3.6324065   -3.6324065   -2.2246429  0.030014183   -3.6324065    1.4077636   878832 
  476000   0.93802682   -3.6324296   -3.6324296   -2.2253909  0.034577543   -3.6324296    1.4070386   878832 
  477000   0.93780616   -3.6314922   -3.6314922   -2.2247846  0.035341638   -3.6314922    1.4067076   878832 
  478000   0.93843542   -3.6312441   -3.6312441   -2.2235926  0.035014019   -3.6312441    1.4076515   878832 
  479000   0.93918044   -3.6319947   -3.6319947   -2.2232256  0.034001875   -3.6319947    1.4087691   878832 
  480000   0.93897395   -3.6309345   -3.6309345   -2.2224751  0.034791671   -3.6309345    1.4084593   878832 
  481000   0.94007099   -3.6324811   -3.6324811   -2.2223762  0.037149247   -3.6324811    1.4101049   878832 
  482000   0.93942252   -3.6310155   -3.6310155   -2.2218834  0.036929367   -3.6310155    1.4091322   878832 
  483000   0.93975631   -3.6316692   -3.6316692   -2.2220363  0.035784952   -3.6316692    1.4096329   878832 
  484000   0.93859963   -3.6309644   -3.6309644   -2.2230666  0.037548782   -3.6309644    1.4078978   878832 
  485000   0.93857433   -3.6303921   -3.6303921   -2.2225322  0.037263001   -3.6303921    1.4078599   878832 
  486000   0.93770331   -3.6290976   -3.6290976   -2.2225443  0.033541042   -3.6290976    1.4065534   878832 
  487000   0.93790142   -3.6288405   -3.6288405   -2.2219899  0.032123412   -3.6288405    1.4068505   878832 
  488000   0.93825084   -3.6284617   -3.6284617    -2.221087  0.034187571   -3.6284617    1.4073747   878832 
  489000   0.93756863   -3.6272844   -3.6272844    -2.220933  0.031487148   -3.6272844    1.4063513   878832 
  490000   0.93772611   -3.6282793   -3.6282793   -2.2216917  0.031630191   -3.6282793    1.4065876   878832 
  491000   0.93724415   -3.6275513   -3.6275513   -2.2216867  0.033802542   -3.6275513    1.4058646   878832 
  492000   0.93887163   -3.6291696   -3.6291696   -2.2208638  0.034176567   -3.6291696    1.4083058   878832 
  493000   0.93923249   -3.6292154   -3.6292154   -2.2203683   0.03257517   -3.6292154    1.4088471   878832 
  494000   0.93953914   -3.6286963   -3.6286963   -2.2193892  0.035364842   -3.6286963    1.4093071   878832 
  495000   0.93900287   -3.6281938   -3.6281938   -2.2196911  0.036588294   -3.6281938    1.4085027   878832 
  496000    0.9392111   -3.6278492   -3.6278492   -2.2190342  0.033052797   -3.6278492     1.408815   878832 
  497000   0.93904824   -3.6280768   -3.6280768   -2.2195061  0.039275953   -3.6280768    1.4085708   878832 
  498000   0.93879937   -3.6269135   -3.6269135    -2.218716  0.032294917   -3.6269135    1.4081974   878832 
  499000   0.93839836   -3.6255719   -3.6255719   -2.2179759  0.038777781   -3.6255719    1.4075959   878832 
  500000    0.9398591   -3.6281787   -3.6281787   -2.2183916  0.033929019   -3.6281787    1.4097871   878832 
  501000   0.93960153   -3.6273065   -3.6273065   -2.2179058  0.038129299   -3.6273065    1.4094007   878832 
  502000    0.9393934   -3.6264663   -3.6264663   -2.2173778  0.036113627   -3.6264663    1.4090885   878832 
  503000   0.93904745   -3.6267174   -3.6267174   -2.2181478  0.034281523   -3.6267174    1.4085696   878832 
  504000   0.93954329   -3.6266153   -3.6266153    -2.217302  0.031150104   -3.6266153    1.4093133   878832 
  505000   0.93911899    -3.625471    -3.625471   -2.2167941  0.034173715    -3.625471    1.4086769   878832 
  506000   0.93867609   -3.6249807   -3.6249807   -2.2169681  0.032125031   -3.6249807    1.4080125   878832 
  507000   0.93906048    -3.625092    -3.625092   -2.2165029  0.035624162    -3.625092    1.4085891   878832 
  508000   0.93967102   -3.6257035   -3.6257035   -2.2161986  0.035250164   -3.6257035    1.4095049   878832 
  509000   0.93968443   -3.6247543   -3.6247543   -2.2152292   0.03533173   -3.6247543     1.409525   878832 
  510000   0.94009106   -3.6250155   -3.6250155   -2.2148805  0.036516263   -3.6250155     1.410135   878832 
  511000   0.94023683   -3.6247582   -3.6247582   -2.2144046  0.037010537   -3.6247582    1.4103536   878832 
  512000   0.94061178   -3.6259836   -3.6259836   -2.2150675  0.037987258   -3.6259836    1.4109161   878832 
  513000   0.94098378   -3.6257216   -3.6257216   -2.2142475  0.034069557   -3.6257216    1.4114741   878832 
  514000   0.94016514   -3.6245155   -3.6245155   -2.2142693  0.036522067   -3.6245155    1.4102461   878832 
  515000   0.94005859   -3.6238734   -3.6238734   -2.2137871  0.036843281   -3.6238734    1.4100863   878832 
  516000   0.93984162    -3.623323    -3.623323   -2.2135621  0.036200788    -3.623323    1.4097608   878832 
  517000   0.93908935   -3.6223106   -3.6223106   -2.2136782  0.033536191   -3.6223106    1.4086324   878832 
  518000   0.93950579   -3.6211809   -3.6211809   -2.2119238  0.031793187   -3.6211809    1.4092571   878832 
  519000   0.93912733   -3.6207125   -3.6207125   -2.2120231  0.032249286   -3.6207125    1.4086894   878832 
  520000   0.93970089   -3.6217135   -3.6217135   -2.2121637   0.03399069   -3.6217135    1.4095497   878832 
  521000   0.93935317   -3.6204574   -3.6204574   -2.2114292   0.03188274   -3.6204574    1.4090282   878832 
  522000   0.93896916   -3.6198389   -3.6198389   -2.2113867  0.037038229   -3.6198389    1.4084521   878832 
  523000   0.93918369    -3.620011    -3.620011    -2.211237  0.037109505    -3.620011    1.4087739   878832 
  524000   0.93979078   -3.6212612   -3.6212612   -2.2115767  0.031519933   -3.6212612    1.4096846   878832 
  525000   0.94027563   -3.6211732   -3.6211732   -2.2107614  0.032223396   -3.6211732    1.4104118   878832 
  526000   0.93985182   -3.6191138   -3.6191138   -2.2093377  0.037977344   -3.6191138    1.4097761   878832 
  527000   0.93908525   -3.6180297   -3.6180297   -2.2094035  0.033962316   -3.6180297    1.4086263   878832 
  528000   0.93930954   -3.6188411   -3.6188411   -2.2098784  0.035421786   -3.6188411    1.4089627   878832 
  529000   0.93926266   -3.6178227   -3.6178227   -2.2089303  0.030308065   -3.6178227    1.4088924   878832 
  530000   0.93946375    -3.617549    -3.617549   -2.2083549  0.034490903    -3.617549     1.409194   878832 
  531000   0.93798782   -3.6148756   -3.6148756   -2.2078955  0.035239406   -3.6148756    1.4069801   878832 
  532000   0.93826443   -3.6154874   -3.6154874   -2.2080923  0.032280187   -3.6154874     1.407395   878832 
  533000   0.93983283   -3.6168948   -3.6168948   -2.2071472  0.031453786   -3.6168948    1.4097476   878832 
  534000   0.94035944    -3.616837    -3.616837   -2.2062994  0.033732091    -3.616837    1.4105376   878832 
  535000   0.93995277   -3.6162096   -3.6162096   -2.2062821  0.035340166   -3.6162096    1.4099275   878832 
  536000   0.94102111   -3.6175521   -3.6175521    -2.206022  0.033850429   -3.6175521    1.4115301   878832 
  537000   0.94111607   -3.6176247   -3.6176247   -2.2059522  0.034774879   -3.6176247    1.4116725   878832 
  538000   0.94063328   -3.6171749   -3.6171749   -2.2062266  0.036881694   -3.6171749    1.4109483   878832 
  539000    0.9409687   -3.6170617   -3.6170617   -2.2056103  0.035801956   -3.6170617    1.4114515   878832 
  540000   0.94134094   -3.6173421   -3.6173421   -2.2053323  0.036933813   -3.6173421    1.4120098   878832 
  541000   0.94047196   -3.6162323   -3.6162323    -2.205526  0.033090489   -3.6162323    1.4107063   878832 
  542000   0.94033927   -3.6156305   -3.6156305   -2.2051232  0.030411998   -3.6156305    1.4105073   878832 
  543000   0.93989521   -3.6157164   -3.6157164   -2.2058752  0.031924755   -3.6157164    1.4098412   878832 
  544000   0.94057887   -3.6165961   -3.6165961   -2.2057294  0.029620015   -3.6165961    1.4108667   878832 
  545000   0.93987775   -3.6145291   -3.6145291   -2.2047141  0.034334004   -3.6145291     1.409815   878832 
  546000   0.94021055   -3.6148831   -3.6148831   -2.2045689  0.031064307   -3.6148831    1.4103142   878832 
  547000   0.94073011     -3.61568     -3.61568   -2.2045864  0.035791132     -3.61568    1.4110936   878832 
  548000     0.941169   -3.6154058   -3.6154058   -2.2036539  0.037353894   -3.6154058    1.4117519   878832 
  549000   0.94134087   -3.6155981   -3.6155981   -2.2035884  0.039613494   -3.6155981    1.4120097   878832 
  550000   0.94153983   -3.6151252   -3.6151252    -2.202817  0.036871195   -3.6151252    1.4123081   878832 
  551000   0.94160929   -3.6148926   -3.6148926   -2.2024803  0.035465833   -3.6148926    1.4124123   878832 
  552000   0.94187141   -3.6140618   -3.6140618   -2.2012563   0.03789634   -3.6140618    1.4128055   878832 
  553000   0.94231109   -3.6143464   -3.6143464   -2.2008814  0.033848692   -3.6143464     1.413465   878832 
  554000   0.94072952   -3.6123389   -3.6123389   -2.2012462  0.035757337   -3.6123389    1.4110927   878832 
  555000   0.93988157   -3.6117031   -3.6117031   -2.2018823  0.031478139   -3.6117031    1.4098208   878832 
  556000   0.94028986   -3.6132367   -3.6132367   -2.2028036  0.031254321   -3.6132367    1.4104332   878832 
  557000   0.94069027   -3.6141665   -3.6141665   -2.2031327  0.032138214   -3.6141665    1.4110338   878832 
  558000   0.94071637   -3.6131823   -3.6131823   -2.2021093  0.034960438   -3.6131823     1.411073   878832 
  559000   0.94057897   -3.6131345   -3.6131345   -2.2022677   0.03282003   -3.6131345    1.4108668   878832 
  560000   0.94070705   -3.6125803   -3.6125803   -2.2015213  0.033901945   -3.6125803     1.411059   878832 
  561000   0.93981775   -3.6115439   -3.6115439   -2.2018189  0.033446229   -3.6115439     1.409725   878832 
  562000   0.94069258   -3.6116466   -3.6116466   -2.2006094  0.035816665   -3.6116466    1.4110373   878832 
  563000   0.94252142   -3.6136314   -3.6136314   -2.1998509  0.034953922   -3.6136314    1.4137805   878832 
  564000   0.94143928   -3.6118548   -3.6118548   -2.1996975  0.033986839   -3.6118548    1.4121573   878832 
  565000   0.94089872   -3.6108968   -3.6108968   -2.1995504  0.037175088   -3.6108968    1.4113465   878832 
  566000   0.94135645   -3.6112404   -3.6112404   -2.1992073  0.034711052   -3.6112404    1.4120331   878832 
  567000   0.94214712   -3.6128353   -3.6128353   -2.1996162  0.036271423   -3.6128353    1.4132191   878832 
  568000   0.94246535   -3.6121985   -3.6121985   -2.1985021  0.034101295   -3.6121985    1.4136964   878832 
  569000   0.94127116   -3.6104627   -3.6104627   -2.1985575  0.037081564   -3.6104627    1.4119051   878832 
  570000   0.94169762   -3.6113686   -3.6113686   -2.1988237  0.033464004   -3.6113686    1.4125448   878832 
  571000   0.94172387   -3.6117663   -3.6117663   -2.1991821  0.034602158   -3.6117663    1.4125842   878832 
  572000   0.94186967    -3.610908    -3.610908   -2.1981051  0.037691353    -3.610908    1.4128029   878832 
  573000   0.94204524   -3.6113067   -3.6113067   -2.1982404  0.033917235   -3.6113067    1.4130663   878832 
  574000    0.9424528   -3.6117791   -3.6117791   -2.1981015  0.030791563   -3.6117791    1.4136776   878832 
  575000   0.94235795   -3.6124212   -3.6124212   -2.1988858  0.032732433   -3.6124212    1.4135353   878832 
  576000   0.94114016   -3.6099871   -3.6099871   -2.1982785  0.036970353   -3.6099871    1.4117086   878832 
  577000   0.94180065   -3.6112989   -3.6112989   -2.1985995   0.03554772   -3.6112989    1.4126994   878832 
  578000   0.94304877   -3.6125648   -3.6125648   -2.1979933  0.034010439   -3.6125648    1.4145715   878832 
  579000   0.94241916   -3.6120179   -3.6120179   -2.1983907  0.034202907   -3.6120179    1.4136271   878832 
  580000   0.94222543   -3.6105006   -3.6105006   -2.1971641  0.034253195   -3.6105006    1.4133365   878832 
  581000   0.94225284   -3.6101415   -3.6101415   -2.1967639  0.040085659   -3.6101415    1.4133777   878832 
  582000   0.94260329   -3.6099959   -3.6099959   -2.1960926  0.035540183   -3.6099959    1.4139033   878832 
  583000   0.94287725   -3.6105038   -3.6105038   -2.1961895  0.036189296   -3.6105038    1.4143143   878832 
  584000   0.94262307   -3.6103052   -3.6103052   -2.1963722  0.040287424   -3.6103052     1.413933   878832 
  585000   0.94232115   -3.6101191   -3.6101191    -2.196639  0.037128897   -3.6101191    1.4134801   878832 
  586000   0.94262024   -3.6102322   -3.6102322   -2.1963034  0.038445823   -3.6102322    1.4139288   878832 
  587000   0.94321952   -3.6108726   -3.6108726   -2.1960449   0.03558778   -3.6108726    1.4148277   878832 
  588000   0.94234808   -3.6095339   -3.6095339   -2.1960134  0.034050425   -3.6095339    1.4135205   878832 
  589000   0.94113273    -3.608135    -3.608135   -2.1964375  0.037932003    -3.608135    1.4116975   878832 
  590000   0.94110659   -3.6081767   -3.6081767   -2.1965184  0.031386262   -3.6081767    1.4116583   878832 
  591000   0.94158821   -3.6075428   -3.6075428   -2.1951621  0.036066637   -3.6075428    1.4123807   878832 
  592000   0.94247926   -3.6083867   -3.6083867   -2.1946694  0.032533663   -3.6083867    1.4137173   878832 
  593000   0.94317963   -3.6088735   -3.6088735   -2.1941056  0.035809268   -3.6088735    1.4147678   878832 
  594000   0.94237993    -3.607834    -3.607834   -2.1942657  0.033329769    -3.607834    1.4135683   878832 
  595000   0.94327512   -3.6092146   -3.6092146   -2.1943036   0.03267422   -3.6092146    1.4149111   878832 
  596000   0.94243154   -3.6078387   -3.6078387    -2.194193  0.037146148   -3.6078387    1.4136457   878832 
  597000   0.94230702   -3.6067641   -3.6067641   -2.1933052  0.037006799   -3.6067641    1.4134589   878832 
  598000   0.94240308   -3.6061935   -3.6061935   -2.1925905   0.04059445   -3.6061935     1.413603   878832 
  599000   0.94298468   -3.6075795   -3.6075795   -2.1931041  0.036237063   -3.6075795    1.4144754   878832 
  600000   0.94247404   -3.6068105   -3.6068105   -2.1931011  0.034523492   -3.6068105    1.4137095   878832 
  601000   0.94245098   -3.6055376   -3.6055376   -2.1918628  0.032104201   -3.6055376    1.4136749   878832 
  602000    0.9422412   -3.6058386   -3.6058386   -2.1924784  0.036003833   -3.6058386    1.4133602   878832 
  603000   0.94290916   -3.6066359   -3.6066359   -2.1922738  0.032505025   -3.6066359    1.4143621   878832 
  604000   0.94169139   -3.6046313   -3.6046313   -2.1920958  0.032142443   -3.6046313    1.4125355   878832 
  605000   0.94272232   -3.6056758   -3.6056758   -2.1915939  0.034181889   -3.6056758    1.4140819   878832 
  606000   0.94305677   -3.6054417   -3.6054417   -2.1908581  0.034334936   -3.6054417    1.4145836   878832 
  607000   0.94275845   -3.6049383   -3.6049383   -2.1908022    0.0362642   -3.6049383    1.4141361   878832 
  608000   0.94261725   -3.6052605   -3.6052605   -2.1913362  0.033140398   -3.6052605    1.4139243   878832 
  609000   0.94239308    -3.604482    -3.604482    -2.190894  0.034178515    -3.604482     1.413588   878832 
  610000   0.94246612   -3.6039199   -3.6039199   -2.1902224  0.033422073   -3.6039199    1.4136976   878832 
  611000   0.94278558   -3.6049925   -3.6049925   -2.1908157  0.036180043   -3.6049925    1.4141768   878832 
  612000   0.94297316   -3.6039843   -3.6039843   -2.1895262  0.035506374   -3.6039843    1.4144581   878832 
  613000   0.94333059   -3.6043395   -3.6043395   -2.1893452  0.032010988   -3.6043395    1.4149943   878832 
  614000   0.94272992   -3.6031623   -3.6031623    -2.189069   0.03508231   -3.6031623    1.4140933   878832 
  615000   0.94328411   -3.6040396   -3.6040396    -2.189115  0.039540385   -3.6040396    1.4149245   878832 
  616000   0.94279888   -3.6030386   -3.6030386   -2.1888418  0.034731424   -3.6030386    1.4141967   878832 
  617000   0.94224757    -3.601942    -3.601942   -2.1885722   0.03826502    -3.601942    1.4133697   878832 
  618000   0.94288783   -3.6041585   -3.6041585   -2.1898284  0.029267672   -3.6041585    1.4143301   878832 
  619000   0.94228366   -3.6032469   -3.6032469    -2.189823  0.034289039   -3.6032469    1.4134239   878832 
  620000   0.94320349   -3.6033564   -3.6033564   -2.1885528  0.034384842   -3.6033564    1.4148036   878832 
  621000   0.94347954   -3.6026804   -3.6026804   -2.1874627  0.036246785   -3.6026804    1.4152177   878832 
  622000   0.94348854   -3.6025482   -3.6025482    -2.187317  0.036009787   -3.6025482    1.4152312   878832 
  623000   0.94367383   -3.6032129   -3.6032129   -2.1877038  0.035100061   -3.6032129    1.4155091   878832 
  624000   0.94264548   -3.6014431   -3.6014431   -2.1874765  0.033920663   -3.6014431    1.4139666   878832 
  625000   0.94274787   -3.6016456   -3.6016456   -2.1875254   0.03213267   -3.6016456    1.4141202   878832 
  626000   0.94386589   -3.6024752   -3.6024752   -2.1866779  0.032941645   -3.6024752    1.4157972   878832 
  627000   0.94394926   -3.6021906   -3.6021906   -2.1862683  0.036395378   -3.6021906    1.4159223   878832 
  628000    0.9436886   -3.6009883   -3.6009883    -2.185457  0.040057065   -3.6009883    1.4155313   878832 
  629000   0.94403712   -3.6019548   -3.6019548   -2.1859008  0.036420873   -3.6019548    1.4160541   878832 
  630000   0.94457638   -3.6018816   -3.6018816   -2.1850186  0.036197244   -3.6018816     1.416863   878832 
  631000    0.9445296   -3.6016278   -3.6016278    -2.184835  0.036285543   -3.6016278    1.4167928   878832 
  632000   0.94421689   -3.6008876   -3.6008876   -2.1845639  0.035034593   -3.6008876    1.4163237   878832 
  633000   0.94420113   -3.6007561   -3.6007561    -2.184456   0.03425703   -3.6007561    1.4163001   878832 
  634000   0.94388859   -3.5994543   -3.5994543    -2.183623  0.034676156   -3.5994543    1.4158313   878832 
  635000   0.94465434   -3.6007256   -3.6007256   -2.1837457  0.036627044   -3.6007256    1.4169799   878832 
  636000    0.9444124   -3.6002655   -3.6002655   -2.1836485  0.035662055   -3.6002655     1.416617   878832 
  637000   0.94376613   -3.5988589   -3.5988589   -2.1832113  0.040365096   -3.5988589    1.4156476   878832 
  638000   0.94524003   -3.6004192   -3.6004192   -2.1825608  0.035155137   -3.6004192    1.4178584   878832 
  639000   0.94440836   -3.5983343   -3.5983343   -2.1817234  0.039251859   -3.5983343    1.4166109   878832 
  640000   0.94356768   -3.5978833   -3.5978833   -2.1825334   0.03781212   -3.5978833    1.4153499   878832 
  641000   0.94449821   -3.5986571   -3.5986571   -2.1819114  0.038798961   -3.5986571    1.4167457   878832 
  642000   0.94484584   -3.5992899   -3.5992899   -2.1820227  0.037257777   -3.5992899    1.4172671   878832 
  643000   0.94397794   -3.5984803   -3.5984803    -2.182515  0.040234746   -3.5984803    1.4159653   878832 
  644000   0.94446961   -3.5990994   -3.5990994   -2.1823966  0.033844004   -3.5990994    1.4167028   878832 
  645000   0.94432446   -3.5978682   -3.5978682   -2.1813831  0.031123988   -3.5978682    1.4164851   878832 
  646000   0.94319044   -3.5952928   -3.5952928   -2.1805088  0.036370125   -3.5952928     1.414784   878832 
  647000   0.94444549   -3.5971723   -3.5971723   -2.1805056  0.038391985   -3.5971723    1.4166666   878832 
  648000   0.94470675   -3.5975449   -3.5975449   -2.1804864  0.034613591   -3.5975449    1.4170585   878832 
  649000   0.94448374   -3.5969993   -3.5969993   -2.1802753  0.036545961   -3.5969993     1.416724   878832 
  650000   0.94503593   -3.5968816   -3.5968816   -2.1793293  0.034167513   -3.5968816    1.4175523   878832 
  651000   0.94607196   -3.5981161   -3.5981161   -2.1790098    0.0379976   -3.5981161    1.4191063   878832 
  652000   0.94476982   -3.5964918   -3.5964918   -2.1793387  0.039530797   -3.5964918    1.4171531   878832 
  653000   0.94534274   -3.5967661   -3.5967661   -2.1787536  0.036743477   -3.5967661    1.4180125   878832 
  654000   0.94568803   -3.5968046   -3.5968046   -2.1782742  0.036381762   -3.5968046    1.4185304   878832 
  655000   0.94519391   -3.5954619   -3.5954619   -2.1776726  0.038444009   -3.5954619    1.4177892   878832 
  656000   0.94548884   -3.5953249   -3.5953249   -2.1770932  0.041577049   -3.5953249    1.4182316   878832 
  657000   0.94528262    -3.595426    -3.595426   -2.1775037  0.041693999    -3.595426    1.4179223   878832 
  658000    0.9447618   -3.5951139   -3.5951139   -2.1779728  0.032554588   -3.5951139    1.4171411   878832 
  659000   0.94416107   -3.5942557   -3.5942557   -2.1780157  0.035194202   -3.5942557      1.41624   878832 
  660000   0.94387649   -3.5928049   -3.5928049   -2.1769918  0.038359191   -3.5928049    1.4158131   878832 
  661000   0.94388052   -3.5934677   -3.5934677   -2.1776485  0.033921783   -3.5934677    1.4158192   878832 
  662000   0.94473209   -3.5938168   -3.5938168   -2.1767203  0.034272538   -3.5938168    1.4170965   878832 
  663000   0.94540921    -3.594405    -3.594405   -2.1762928  0.035620599    -3.594405    1.4181122   878832 
  664000   0.94537037   -3.5938705   -3.5938705   -2.1758166  0.033337679   -3.5938705    1.4180539   878832 
  665000   0.94503477   -3.5928357   -3.5928357   -2.1752851  0.036065439   -3.5928357    1.4175505   878832 
  666000   0.94478104   -3.5934159   -3.5934159   -2.1762459  0.039041793   -3.5934159    1.4171699   878832 
  667000   0.94509271    -3.592707    -3.592707   -2.1750696  0.033314213    -3.592707    1.4176374   878832 
  668000   0.94495004   -3.5914628   -3.5914628   -2.1740393  0.037420671   -3.5914628    1.4174234   878832 
  669000   0.94455734   -3.5908437   -3.5908437   -2.1740093  0.035008154   -3.5908437    1.4168344   878832 
  670000   0.94452839   -3.5913507   -3.5913507   -2.1745597  0.035032454   -3.5913507     1.416791   878832 
  671000   0.94474032   -3.5903266   -3.5903266   -2.1732177  0.037783901   -3.5903266    1.4171089   878832 
  672000   0.94578768   -3.5914907   -3.5914907   -2.1728108  0.036089953   -3.5914907    1.4186799   878832 
  673000   0.94535419   -3.5920956   -3.5920956    -2.174066   0.03955957   -3.5920956    1.4180297   878832 
  674000   0.94557639   -3.5904348   -3.5904348   -2.1720719  0.039585856   -3.5904348     1.418363   878832 
  675000   0.94599149   -3.5904622   -3.5904622   -2.1714765  0.034322465   -3.5904622    1.4189856   878832 
  676000   0.94605688   -3.5897646   -3.5897646   -2.1706809  0.036977977   -3.5897646    1.4190837   878832 
  677000   0.94605911   -3.5893568   -3.5893568   -2.1702697  0.036891971   -3.5893568    1.4190871   878832 
  678000   0.94709156   -3.5900228   -3.5900228   -2.1693871  0.036616046   -3.5900228    1.4206357   878832 
  679000    0.9460556   -3.5891023   -3.5891023   -2.1700205  0.034959432   -3.5891023    1.4190818   878832 
  680000   0.94563526   -3.5887315   -3.5887315   -2.1702802  0.037703774   -3.5887315    1.4184513   878832 
  681000   0.94610354   -3.5879649   -3.5879649   -2.1688112   0.04121729   -3.5879649    1.4191537   878832 
  682000   0.94617501   -3.5880191   -3.5880191   -2.1687582  0.036896136   -3.5880191    1.4192609   878832 
  683000    0.9459525   -3.5876332   -3.5876332    -2.168706  0.037475324   -3.5876332    1.4189271   878832 
  684000    0.9461177   -3.5870047   -3.5870047   -2.1678297  0.041105803   -3.5870047    1.4191749   878832 
  685000   0.94577411   -3.5855095   -3.5855095   -2.1668499  0.036784058   -3.5855095    1.4186595   878832 
  686000   0.94526924   -3.5859878   -3.5859878   -2.1680855  0.034315898   -3.5859878    1.4179022   878832 
  687000    0.9454504   -3.5855514   -3.5855514   -2.1673774  0.032524918   -3.5855514     1.418174   878832 
  688000   0.94584542   -3.5858471   -3.5858471   -2.1670806  0.034836213   -3.5858471    1.4187665   878832 
  689000   0.94520611    -3.585646    -3.585646   -2.1678385  0.034274931    -3.585646    1.4178076   878832 
  690000   0.94586161   -3.5860609   -3.5860609   -2.1672701  0.036657373   -3.5860609    1.4187908   878832 
  691000   0.94659392    -3.586383    -3.586383   -2.1664937  0.035335693    -3.586383    1.4198893   878832 
  692000   0.94616869   -3.5850511   -3.5850511   -2.1657997  0.036296589   -3.5850511    1.4192514   878832 
  693000   0.94600952   -3.5842893   -3.5842893   -2.1652766  0.036987669   -3.5842893    1.4190127   878832 
  694000   0.94671796   -3.5848352   -3.5848352   -2.1647599  0.037723417   -3.5848352    1.4200753   878832 
  695000   0.94651826    -3.583495    -3.583495   -2.1637192  0.036748811    -3.583495    1.4197758   878832 
  696000   0.94661433   -3.5834627   -3.5834627   -2.1635428  0.036650667   -3.5834627    1.4199199   878832 
  697000   0.94597375   -3.5835917   -3.5835917   -2.1646327  0.037178243   -3.5835917     1.418959   878832 
  698000   0.94565752   -3.5832067   -3.5832067   -2.1647221  0.034512811   -3.5832067    1.4184847   878832 
  699000   0.94579366   -3.5828206   -3.5828206   -2.1641318  0.035623793   -3.5828206    1.4186889   878832 
  700000   0.94483152   -3.5821485   -3.5821485   -2.1649028   0.03392682   -3.5821485    1.4172457   878832 
  701000   0.94396259   -3.5810711   -3.5810711   -2.1651288  0.032724407   -3.5810711    1.4159423   878832 
  702000    0.9450718   -3.5823897   -3.5823897   -2.1647837  0.030605328   -3.5823897    1.4176061   878832 
  703000   0.94448996   -3.5812076   -3.5812076   -2.1644742  0.033938576   -3.5812076    1.4167333   878832 
  704000   0.94514164   -3.5813634   -3.5813634   -2.1636526  0.032644512   -3.5813634    1.4177109   878832 
  705000   0.94639777   -3.5817196   -3.5817196   -2.1621245   0.03356936   -3.5817196     1.419595   878832 
  706000    0.9457755   -3.5801849   -3.5801849   -2.1615232  0.037408635   -3.5801849    1.4186616   878832 
  707000   0.94621309   -3.5815797   -3.5815797   -2.1622617  0.037658686   -3.5815797     1.419318   878832 
  708000   0.94701287   -3.5827799   -3.5827799   -2.1622622  0.034266146   -3.5827799    1.4205177   878832 
  709000   0.94633622   -3.5814094   -3.5814094   -2.1619067  0.036283752   -3.5814094    1.4195027   878832 
  710000   0.94805968   -3.5829675   -3.5829675   -2.1608796  0.034743311   -3.5829675    1.4220879   878832 
  711000   0.94727099   -3.5820215   -3.5820215   -2.1611166  0.032207775   -3.5820215    1.4209049   878832 
  712000   0.94722176   -3.5812027   -3.5812027   -2.1603717  0.034525524   -3.5812027     1.420831   878832 
  713000   0.94692468   -3.5796649   -3.5796649   -2.1592795  0.033998947   -3.5796649    1.4203854   878832 
  714000   0.94550852   -3.5789125   -3.5789125   -2.1606514  0.035996662   -3.5789125    1.4182612   878832 
  715000   0.94592883   -3.5799965   -3.5799965   -2.1611048  0.036401277   -3.5799965    1.4188916   878832 
  716000   0.94674353   -3.5806753   -3.5806753   -2.1605616  0.039418015   -3.5806753    1.4201137   878832 
  717000   0.94717372   -3.5820603   -3.5820603   -2.1613013  0.035960308   -3.5820603     1.420759   878832 
  718000   0.94658034   -3.5800813   -3.5800813   -2.1602124  0.038676009   -3.5800813    1.4198689   878832 
  719000   0.94694362   -3.5804504   -3.5804504   -2.1600366  0.036998119   -3.5804504    1.4204138   878832 
  720000   0.94655201   -3.5797491   -3.5797491   -2.1599227   0.04010056   -3.5797491    1.4198264   878832 
  721000   0.94690617   -3.5808468   -3.5808468   -2.1604891  0.037170713   -3.5808468    1.4203576   878832 
  722000   0.94726864   -3.5809048   -3.5809048   -2.1600034  0.034546933   -3.5809048    1.4209013   878832 
  723000    0.9476948   -3.5812676   -3.5812676    -2.159727  0.034564038   -3.5812676    1.4215406   878832 
  724000   0.94699961   -3.5801903   -3.5801903   -2.1596925  0.035767966   -3.5801903    1.4204978   878832 
  725000   0.94740128   -3.5812929   -3.5812929   -2.1601926  0.035536179   -3.5812929    1.4211003   878832 
  726000   0.94706933   -3.5801637   -3.5801637   -2.1595614  0.036373417   -3.5801637    1.4206024   878832 
  727000   0.94802881   -3.5810305   -3.5810305   -2.1589889  0.036893143   -3.5810305    1.4220416   878832 
  728000   0.94812727    -3.581832    -3.581832   -2.1596427  0.039588639    -3.581832    1.4221893   878832 
  729000   0.94706718   -3.5801129   -3.5801129   -2.1595137  0.038184923   -3.5801129    1.4205992   878832 
  730000   0.94686844   -3.5805128   -3.5805128   -2.1602117  0.040628813   -3.5805128     1.420301   878832 
  731000   0.94706254    -3.580556    -3.580556   -2.1599638  0.036982738    -3.580556    1.4205922   878832 
  732000   0.94652322   -3.5805171   -3.5805171   -2.1607339  0.035633073   -3.5805171    1.4197832   878832 
  733000   0.94713477   -3.5811159   -3.5811159   -2.1604153  0.035183992   -3.5811159    1.4207005   878832 
  734000    0.9474437   -3.5803507   -3.5803507   -2.1591868  0.037262079   -3.5803507    1.4211639   878832 
  735000    0.9464608   -3.5807959   -3.5807959   -2.1611063  0.031002966   -3.5807959    1.4196896   878832 
  736000    0.9454465   -3.5796253   -3.5796253   -2.1614572  0.031449411   -3.5796253    1.4181681   878832 
  737000   0.94620596   -3.5805012   -3.5805012   -2.1611939  0.034895533   -3.5805012    1.4193073   878832 
  738000   0.94639976   -3.5796998   -3.5796998   -2.1601018  0.037115604   -3.5796998     1.419598   878832 
  739000    0.9487108   -3.5821307   -3.5821307   -2.1590662  0.036258048   -3.5821307    1.4230646   878832 
  740000   0.94746207   -3.5795758   -3.5795758   -2.1583843  0.043215848   -3.5795758    1.4211915   878832 
  741000   0.94878035   -3.5811602   -3.5811602   -2.1579913  0.039644199   -3.5811602    1.4231689   878832 
  742000   0.94956779   -3.5827364   -3.5827364   -2.1583863   0.03428491   -3.5827364    1.4243501   878832 
  743000   0.94889798   -3.5810421   -3.5810421   -2.1576967   0.04043225   -3.5810421    1.4233454   878832 
  744000   0.94936839   -3.5813096   -3.5813096   -2.1572587  0.042762736   -3.5813096     1.424051   878832 
  745000   0.94946486   -3.5808033   -3.5808033   -2.1566076  0.041033555   -3.5808033    1.4241957   878832 
  746000   0.94873108   -3.5788782   -3.5788782   -2.1557831  0.043082939   -3.5788782     1.423095   878832 
  747000   0.94981058   -3.5798224   -3.5798224   -2.1551081  0.039483857   -3.5798224    1.4247143   878832 
  748000   0.94972054   -3.5799077   -3.5799077   -2.1553285  0.040119919   -3.5799077    1.4245792   878832 
  749000   0.94949671   -3.5798773   -3.5798773   -2.1556339  0.037896571   -3.5798773    1.4242434   878832 
  750000   0.94863027   -3.5785991   -3.5785991   -2.1556553  0.037213694   -3.5785991    1.4229438   878832 
  751000    0.9489039   -3.5788302   -3.5788302    -2.155476  0.042528467   -3.5788302    1.4233542   878832 
  752000   0.94891897   -3.5793256   -3.5793256   -2.1559487   0.03832964   -3.5793256    1.4233768   878832 
  753000   0.94868831   -3.5786515   -3.5786515   -2.1556206  0.042142598   -3.5786515    1.4230309   878832 
  754000   0.94852612   -3.5771093   -3.5771093   -2.1543217  0.043314543   -3.5771093    1.4227876   878832 
  755000   0.94690266   -3.5751196   -3.5751196   -2.1547672  0.040934639   -3.5751196    1.4203524   878832 
  756000   0.94609489   -3.5737331   -3.5737331   -2.1545924  0.035866972   -3.5737331    1.4191407   878832 
  757000    0.9467004   -3.5740951   -3.5740951   -2.1540461  0.035554848   -3.5740951     1.420049   878832 
  758000   0.94777232   -3.5758895   -3.5758895   -2.1542326    0.0347572   -3.5758895    1.4216569   878832 
  759000   0.94753707   -3.5754146   -3.5754146   -2.1541107   0.03316667   -3.5754146     1.421304   878832 
  760000   0.94706405   -3.5747395   -3.5747395    -2.154145  0.037676998   -3.5747395    1.4205945   878832 
  761000   0.94714362   -3.5747882   -3.5747882   -2.1540744  0.035575312   -3.5747882    1.4207138   878832 
  762000   0.94658548   -3.5738041   -3.5738041   -2.1539275  0.032835172   -3.5738041    1.4198766   878832 
  763000    0.9469854   -3.5735004   -3.5735004   -2.1530239  0.037148938   -3.5735004    1.4204765   878832 
  764000   0.94721093    -3.573191    -3.573191   -2.1523762  0.035307309    -3.573191    1.4208148   878832 
  765000   0.94695739   -3.5725126   -3.5725126   -2.1520781  0.036704288   -3.5725126    1.4204345   878832 
  766000   0.94741157   -3.5736413   -3.5736413   -2.1525255  0.034867872   -3.5736413    1.4211157   878832 
  767000   0.94741129   -3.5732928   -3.5732928   -2.1521775  0.036125049   -3.5732928    1.4211153   878832 
  768000   0.94768481   -3.5721599   -3.5721599   -2.1506343  0.039354027   -3.5721599    1.4215256   878832 
  769000   0.94729418   -3.5712719   -3.5712719   -2.1503323  0.041442564   -3.5712719    1.4209397   878832 
  770000   0.94723207   -3.5708112   -3.5708112   -2.1499647  0.034462145   -3.5708112    1.4208465   878832 
  771000   0.94674839   -3.5698972   -3.5698972   -2.1497762  0.038212994   -3.5698972     1.420121   878832 
  772000   0.94677584    -3.569433    -3.569433   -2.1492708  0.035453032    -3.569433    1.4201622   878832 
  773000   0.94791685   -3.5705465   -3.5705465   -2.1486728  0.039808199   -3.5705465    1.4218737   878832 
  774000   0.94819332   -3.5717181   -3.5717181   -2.1494298  0.038324903   -3.5717181    1.4222884   878832 
  775000   0.94806803   -3.5707361   -3.5707361   -2.1486357  0.039297068   -3.5707361    1.4221004   878832 
  776000   0.94880553   -3.5716912   -3.5716912   -2.1484845  0.038442707   -3.5716912    1.4232067   878832 
  777000   0.94728984   -3.5695981   -3.5695981    -2.148665  0.038618786   -3.5695981    1.4209331   878832 
  778000    0.9485178   -3.5704416   -3.5704416   -2.1476665  0.037185656   -3.5704416    1.4227751   878832 
  779000   0.94915167   -3.5703735   -3.5703735   -2.1466476  0.035864739   -3.5703735    1.4237259   878832 
  780000   0.94903325   -3.5703262   -3.5703262   -2.1467779  0.035007886   -3.5703262    1.4235483   878832 
  781000   0.94944078    -3.570587    -3.570587   -2.1464275  0.034295202    -3.570587    1.4241595   878832 
  782000   0.94802535   -3.5695565   -3.5695565   -2.1475201  0.037390503   -3.5695565    1.4220364   878832 
  783000     0.949587   -3.5712461   -3.5712461   -2.1468672  0.036558228   -3.5712461    1.4243789   878832 
  784000   0.94798036   -3.5685815   -3.5685815   -2.1466125  0.042092966   -3.5685815    1.4219689   878832 
  785000   0.94897307   -3.5690605   -3.5690605   -2.1456025  0.040993793   -3.5690605     1.423458   878832 
  786000   0.94933514   -3.5705491   -3.5705491    -2.146548  0.034913538   -3.5705491    1.4240011   878832 
  787000   0.94882563   -3.5687236   -3.5687236   -2.1454867    0.0363569   -3.5687236    1.4232368   878832 
  788000   0.94853139   -3.5691284   -3.5691284   -2.1463329  0.035413917   -3.5691284    1.4227955   878832 
  789000   0.94928057   -3.5702188   -3.5702188   -2.1462996  0.037099332   -3.5702188    1.4239192   878832 
  790000   0.94758827   -3.5682771   -3.5682771   -2.1468963  0.039991074   -3.5682771    1.4213808   878832 
  791000   0.94811231   -3.5690041   -3.5690041   -2.1468372  0.036175398   -3.5690041    1.4221668   878832 
  792000   0.94746992   -3.5689182   -3.5689182   -2.1477149  0.040106179   -3.5689182    1.4212033   878832 
  793000   0.94768936   -3.5688923   -3.5688923   -2.1473598  0.034702888   -3.5688923    1.4215324   878832 
  794000   0.94809899   -3.5685317   -3.5685317   -2.1463848  0.037233759   -3.5685317    1.4221469   878832 
  795000   0.94854652   -3.5682551   -3.5682551   -2.1454369  0.033182922   -3.5682551    1.4228182   878832 
  796000   0.94763014   -3.5679283   -3.5679283   -2.1464847  0.038862751   -3.5679283    1.4214436   878832 
  797000   0.94852741   -3.5691357   -3.5691357   -2.1463462  0.033652653   -3.5691357    1.4227895   878832 
  798000   0.94872309   -3.5696465   -3.5696465   -2.1465635  0.035426317   -3.5696465     1.423083   878832 
  799000   0.94871959   -3.5684816   -3.5684816   -2.1454038  0.038459583   -3.5684816    1.4230778   878832 
  800000   0.94897868   -3.5683717   -3.5683717   -2.1449053  0.036195265   -3.5683717    1.4234664   878832 
  801000   0.94902043    -3.567972    -3.567972    -2.144443  0.040414795    -3.567972     1.423529   878832 
  802000   0.94992497   -3.5691882   -3.5691882   -2.1443024  0.037629763   -3.5691882    1.4248858   878832 
  803000   0.95020848   -3.5695632   -3.5695632   -2.1442521  0.040166485   -3.5695632    1.4253111   878832 
  804000   0.94961288   -3.5691271   -3.5691271   -2.1447094  0.041090511   -3.5691271    1.4244177   878832 
  805000   0.94970299   -3.5697404   -3.5697404   -2.1451876  0.042913149   -3.5697404    1.4245529   878832 
  806000   0.95074346    -3.570294    -3.570294   -2.1441804  0.039117737    -3.570294    1.4261136   878832 
  807000   0.95010592    -3.568712    -3.568712   -2.1435548  0.041912975    -3.568712    1.4251573   878832 
  808000   0.95014067   -3.5691686   -3.5691686   -2.1439592  0.040918962   -3.5691686    1.4252094   878832 
  809000    0.9497417   -3.5682067   -3.5682067   -2.1435958  0.041197997   -3.5682067    1.4246109   878832 
  810000   0.94940996    -3.568161    -3.568161   -2.1440477  0.038749424    -3.568161    1.4241133   878832 
  811000   0.95001834    -3.569159    -3.569159   -2.1441331  0.037057415    -3.569159    1.4250259   878832 
  812000   0.94884637   -3.5674468   -3.5674468   -2.1441788  0.039865772   -3.5674468    1.4232679   878832 
  813000   0.95074163   -3.5697972   -3.5697972   -2.1436864  0.041233313   -3.5697972    1.4261108   878832 
  814000    0.9496815   -3.5684501   -3.5684501   -2.1439295  0.042687232   -3.5684501    1.4245206   878832 
  815000   0.95053233   -3.5689865   -3.5689865   -2.1431896  0.042350439   -3.5689865    1.4257969   878832 
  816000    0.9509701   -3.5690466   -3.5690466   -2.1425931  0.041690697   -3.5690466    1.4264535   878832 
  817000   0.95033786   -3.5676066   -3.5676066   -2.1421015  0.039866238   -3.5676066    1.4255052   878832 
  818000   0.95118984   -3.5685322   -3.5685322    -2.141749  0.040500254   -3.5685322    1.4267831   878832 
  819000   0.95093016   -3.5673103   -3.5673103   -2.1409167  0.038400273   -3.5673103    1.4263936   878832 
  820000   0.95063964   -3.5670277   -3.5670277   -2.1410699  0.040307581   -3.5670277    1.4259578   878832 
  821000   0.94994077   -3.5675194   -3.5675194   -2.1426099  0.037022138   -3.5675194    1.4249095   878832 
  822000   0.94956901   -3.5664136   -3.5664136   -2.1420617  0.037676202   -3.5664136    1.4243519   878832 
  823000   0.94938012   -3.5657759   -3.5657759   -2.1417074  0.037022019   -3.5657759    1.4240686   878832 
  824000   0.94912319   -3.5655828   -3.5655828   -2.1418997  0.034684286   -3.5655828    1.4236832   878832 
  825000   0.94888873   -3.5643866   -3.5643866   -2.1410551  0.034162311   -3.5643866    1.4233315   878832 
  826000   0.94930029   -3.5654483   -3.5654483   -2.1414995  0.035232952   -3.5654483    1.4239488   878832 
  827000   0.94932964   -3.5657321   -3.5657321   -2.1417393  0.033173901   -3.5657321    1.4239928   878832 
  828000    0.9487436   -3.5643784   -3.5643784   -2.1412646  0.038221327   -3.5643784    1.4231138   878832 
  829000   0.94798367   -3.5629621   -3.5629621   -2.1409882  0.033888382   -3.5629621    1.4219739   878832 
  830000   0.94810749   -3.5625031   -3.5625031   -2.1403435  0.038449218   -3.5625031    1.4221596   878832 
  831000   0.94900932   -3.5634787   -3.5634787   -2.1399664  0.035558291   -3.5634787    1.4235124   878832 
  832000   0.94946915   -3.5634149   -3.5634149   -2.1392128  0.032064984   -3.5634149    1.4242021   878832 
  833000   0.94880258   -3.5616798   -3.5616798   -2.1384775   0.03590758   -3.5616798    1.4232023   878832 
  834000   0.95023421   -3.5635888   -3.5635888   -2.1382391  0.035864567   -3.5635888    1.4253497   878832 
  835000   0.94964847   -3.5619143   -3.5619143   -2.1374432  0.036917952   -3.5619143    1.4244711   878832 
  836000   0.94976963   -3.5620179   -3.5620179    -2.137365  0.037650565   -3.5620179    1.4246528   878832 
  837000   0.95025792   -3.5620906   -3.5620906   -2.1367053  0.037804077   -3.5620906    1.4253853   878832 
  838000   0.94944711   -3.5602051   -3.5602051    -2.136036   0.03701927   -3.5602051     1.424169   878832 
  839000   0.95042321   -3.5619409   -3.5619409   -2.1363077  0.035047221   -3.5619409    1.4256332   878832 
  840000   0.95009055   -3.5614094   -3.5614094   -2.1362752  0.035741477   -3.5614094    1.4251342   878832 
  841000   0.95030353   -3.5610096   -3.5610096   -2.1355559  0.037774998   -3.5610096    1.4254537   878832 
  842000    0.9506514   -3.5605504   -3.5605504   -2.1345749  0.036978153   -3.5605504    1.4259755   878832 
  843000   0.94999827   -3.5593928   -3.5593928   -2.1343971    0.0400388   -3.5593928    1.4249958   878832 
  844000   0.95108221   -3.5603958   -3.5603958   -2.1337741  0.038758156   -3.5603958    1.4266217   878832 
  845000   0.95044183   -3.5591304   -3.5591304   -2.1334693  0.039594605   -3.5591304    1.4256611   878832 
  846000   0.95055929   -3.5590638   -3.5590638   -2.1332265  0.039479136   -3.5590638    1.4258373   878832 
  847000    0.9507753   -3.5579997   -3.5579997   -2.1318384  0.039375074   -3.5579997    1.4261613   878832 
  848000   0.95193731   -3.5589618   -3.5589618   -2.1310575   0.03967287   -3.5589618    1.4279043   878832 
  849000   0.95179736   -3.5592981   -3.5592981   -2.1316037  0.038145944   -3.5592981    1.4276944   878832 
  850000   0.95211293   -3.5587914   -3.5587914   -2.1306237  0.037811455   -3.5587914    1.4281678   878832 
  851000   0.95097354   -3.5580079   -3.5580079   -2.1315492  0.036789575   -3.5580079    1.4264587   878832 
  852000   0.95101288   -3.5585997   -3.5585997    -2.132082  0.035737134   -3.5585997    1.4265177   878832 
  853000     0.951179   -3.5575085   -3.5575085   -2.1307416  0.036066809   -3.5575085    1.4267669   878832 
  854000   0.95160408   -3.5578775   -3.5578775    -2.130473   0.03854716   -3.5578775    1.4274045   878832 
  855000   0.95166237   -3.5571493   -3.5571493   -2.1296573  0.037620689   -3.5571493    1.4274919   878832 
  856000   0.95039374   -3.5559547   -3.5559547   -2.1303658  0.040084084   -3.5559547     1.425589   878832 
  857000   0.95078768   -3.5563071   -3.5563071   -2.1301272  0.037727859   -3.5563071    1.4261799   878832 
  858000   0.95023844   -3.5557516   -3.5557516   -2.1303956  0.038826339   -3.5557516     1.425356   878832 
  859000   0.94995831   -3.5553504   -3.5553504   -2.1304146  0.036858161   -3.5553504    1.4249358   878832 
  860000   0.94991637   -3.5548992   -3.5548992   -2.1300263  0.037357288   -3.5548992    1.4248729   878832 
  861000   0.95063453   -3.5557328   -3.5557328   -2.1297827  0.036097642   -3.5557328    1.4259502   878832 
  862000   0.95105576   -3.5560084   -3.5560084   -2.1294264  0.036274464   -3.5560084     1.426582   878832 
  863000   0.95124109   -3.5564374   -3.5564374   -2.1295774  0.036465125   -3.5564374      1.42686   878832 
  864000   0.95020529   -3.5545832   -3.5545832   -2.1292769  0.039617039   -3.5545832    1.4253063   878832 
  865000   0.95150044    -3.555873    -3.555873    -2.128624  0.035976793    -3.555873     1.427249   878832 
  866000   0.95089021   -3.5540705   -3.5540705   -2.1277368  0.039562036   -3.5540705    1.4263337   878832 
  867000   0.95124054   -3.5543898   -3.5543898   -2.1275306  0.036356848   -3.5543898    1.4268592   878832 
  868000   0.95049904   -3.5534925   -3.5534925   -2.1277456  0.042419645   -3.5534925    1.4257469   878832 
  869000   0.95168558   -3.5547007   -3.5547007    -2.127174  0.033870223   -3.5547007    1.4275267   878832 
  870000   0.95119264   -3.5532446   -3.5532446   -2.1264573  0.039212238   -3.5532446    1.4267873   878832 
  871000   0.95127119   -3.5525147   -3.5525147   -2.1256095  0.037188602   -3.5525147    1.4269052   878832 
  872000    0.9500431   -3.5520711   -3.5520711   -2.1270081  0.039949156   -3.5520711     1.425063   878832 
  873000    0.9506534   -3.5520104   -3.5520104   -2.1260319  0.035658746   -3.5520104    1.4259785   878832 
  874000   0.95154066   -3.5529627   -3.5529627   -2.1256533  0.034809428   -3.5529627    1.4273094   878832 
  875000   0.95097311   -3.5518607   -3.5518607   -2.1254027   0.03689993   -3.5518607     1.426458   878832 
  876000   0.95173138   -3.5527677   -3.5527677   -2.1251723  0.037373819   -3.5527677    1.4275954   878832 
  877000   0.95131793   -3.5520823   -3.5520823   -2.1251071  0.038014303   -3.5520823    1.4269753   878832 
  878000   0.95159922   -3.5527436   -3.5527436   -2.1253464  0.040825745   -3.5527436    1.4273972   878832 
  879000   0.95231549   -3.5541712   -3.5541712   -2.1256996  0.036380186   -3.5541712    1.4284716   878832 
  880000   0.95123751   -3.5525615   -3.5525615   -2.1257068  0.036683814   -3.5525615    1.4268546   878832 
  881000   0.95106954   -3.5518283   -3.5518283   -2.1252256  0.034686338   -3.5518283    1.4266027   878832 
  882000    0.9512955   -3.5523476   -3.5523476    -2.125406  0.038610603   -3.5523476    1.4269416   878832 
  883000    0.9512469   -3.5518065   -3.5518065   -2.1249377  0.037988898   -3.5518065    1.4268687   878832 
  884000   0.95133935   -3.5514665   -3.5514665   -2.1244591  0.040486255   -3.5514665    1.4270074   878832 
  885000   0.95149816   -3.5514957   -3.5514957     -2.12425  0.037302137   -3.5514957    1.4272456   878832 
  886000   0.95065302   -3.5498665   -3.5498665   -2.1238886  0.041700781   -3.5498665    1.4259779   878832 
  887000   0.95187579    -3.551516    -3.551516    -2.123704  0.036843464    -3.551516    1.4278121   878832 
  888000   0.95086384   -3.5483325   -3.5483325   -2.1220383  0.040488916   -3.5483325    1.4262941   878832 
  889000   0.95131604    -3.548881    -3.548881   -2.1219086   0.03758944    -3.548881    1.4269724   878832 
  890000   0.95252716   -3.5509642   -3.5509642   -2.1221751  0.037936149   -3.5509642    1.4287891   878832 
  891000    0.9535492   -3.5523553   -3.5523553   -2.1220331  0.044251515   -3.5523553    1.4303222   878832 
  892000   0.95397503   -3.5528466   -3.5528466   -2.1218857  0.036453402   -3.5528466    1.4309609   878832 
  893000   0.95353775   -3.5516378   -3.5516378   -2.1213328  0.039064474   -3.5516378     1.430305   878832 
  894000   0.95297974   -3.5502645   -3.5502645   -2.1207965  0.044696465   -3.5502645     1.429468   878832 
  895000   0.95349657   -3.5516342   -3.5516342    -2.121391   0.03981604   -3.5516342    1.4302432   878832 
  896000   0.95265488   -3.5501077   -3.5501077    -2.121127  0.037913453   -3.5501077    1.4289807   878832 
  897000   0.95236679   -3.5497061   -3.5497061   -2.1211576   0.03640364   -3.5497061    1.4285486   878832 
  898000   0.95216312   -3.5484785   -3.5484785   -2.1202354  0.036727044   -3.5484785    1.4282431   878832 
  899000   0.95153908   -3.5477009   -3.5477009   -2.1203939  0.035992215   -3.5477009     1.427307   878832 
  900000   0.95147748     -3.54798     -3.54798   -2.1207654  0.036888219     -3.54798    1.4272146   878832 
  901000   0.95184897   -3.5483558   -3.5483558    -2.120584  0.035019041   -3.5483558    1.4277718   878832 
  902000   0.95140366   -3.5476484   -3.5476484   -2.1205445  0.036481345   -3.5476484    1.4271039   878832 
  903000   0.95129146   -3.5469234   -3.5469234   -2.1199878  0.035965236   -3.5469234    1.4269356   878832 
  904000   0.95109489    -3.547266    -3.547266   -2.1206252  0.033994696    -3.547266    1.4266407   878832 
  905000   0.95295465   -3.5504115   -3.5504115   -2.1209811    0.0308116   -3.5504115    1.4294303   878832 
  906000   0.95132199   -3.5480134   -3.5480134   -2.1210321  0.037697199   -3.5480134    1.4269814   878832 
  907000   0.95255431   -3.5491933   -3.5491933   -2.1203634  0.035167974   -3.5491933    1.4288298   878832 
  908000   0.95133131   -3.5470223   -3.5470223    -2.120027  0.038808406   -3.5470223    1.4269953   878832 
  909000   0.95240361      -3.5481      -3.5481   -2.1194962  0.036480716      -3.5481    1.4286038   878832 
  910000   0.95199318   -3.5470689   -3.5470689   -2.1190808  0.040675101   -3.5470689    1.4279882   878832 
  911000    0.9521237   -3.5471373   -3.5471373   -2.1189534  0.032596188   -3.5471373    1.4281839   878832 
  912000   0.95206978   -3.5469244   -3.5469244   -2.1188214   0.03947808   -3.5469244     1.428103   878832 
  913000   0.95147784   -3.5465632   -3.5465632   -2.1193481  0.037466357   -3.5465632    1.4272151   878832 
  914000    0.9514496   -3.5456247   -3.5456247    -2.118452  0.038424508   -3.5456247    1.4271728   878832 
  915000   0.95246336   -3.5468901   -3.5468901   -2.1181967  0.035980127   -3.5468901    1.4286934   878832 
  916000   0.95243343   -3.5469839   -3.5469839   -2.1183354  0.036821326   -3.5469839    1.4286485   878832 
  917000   0.95252105   -3.5463573   -3.5463573   -2.1175773  0.042321323   -3.5463573      1.42878   878832 
  918000   0.95280052   -3.5463363   -3.5463363   -2.1171371  0.040751752   -3.5463363    1.4291991   878832 
  919000   0.95267221   -3.5461892   -3.5461892   -2.1171826  0.039542345   -3.5461892    1.4290067   878832 
  920000   0.95349392   -3.5473579   -3.5473579   -2.1171187  0.037925163   -3.5473579    1.4302393   878832 
  921000    0.9526395   -3.5455315   -3.5455315   -2.1165739   0.04242916   -3.5455315    1.4289576   878832 
  922000   0.95338569   -3.5476972   -3.5476972   -2.1176203  0.040806812   -3.5476972    1.4300769   878832 
  923000   0.95193375   -3.5452827   -3.5452827   -2.1173837  0.038392833   -3.5452827     1.427899   878832 
  924000   0.95323587   -3.5464426   -3.5464426   -2.1165904  0.039800505   -3.5464426    1.4298522   878832 
  925000    0.9524523   -3.5459291   -3.5459291   -2.1172523  0.038811013   -3.5459291    1.4286768   878832 
  926000   0.95218682   -3.5453908   -3.5453908   -2.1171122  0.038128998   -3.5453908    1.4282786   878832 
  927000   0.95200004   -3.5454064   -3.5454064    -2.117408  0.039314683   -3.5454064    1.4279984   878832 
  928000   0.95257813   -3.5457771   -3.5457771   -2.1169115  0.033788245   -3.5457771    1.4288656   878832 
  929000   0.95157534   -3.5447535   -3.5447535   -2.1173921  0.040053684   -3.5447535    1.4273614   878832 
  930000   0.95283654   -3.5459471   -3.5459471   -2.1166939  0.036079156   -3.5459471    1.4292532   878832 
  931000   0.95302982    -3.546249    -3.546249   -2.1167059   0.03872692    -3.546249    1.4295431   878832 
  932000   0.95409813   -3.5476723   -3.5476723   -2.1165268  0.039196995   -3.5476723    1.4311456   878832 
  933000   0.95348689   -3.5458306   -3.5458306   -2.1156019  0.042248462   -3.5458306    1.4302287   878832 
  934000   0.95361832   -3.5454232   -3.5454232   -2.1149974  0.037966848   -3.5454232    1.4304259   878832 
  935000   0.95292067   -3.5453106   -3.5453106   -2.1159312  0.039916169   -3.5453106    1.4293794   878832 
  936000   0.95362283   -3.5461809   -3.5461809   -2.1157483  0.039327905   -3.5461809    1.4304326   878832 
  937000   0.95375584   -3.5465303   -3.5465303   -2.1158982  0.039520597   -3.5465303    1.4306321   878832 
  938000   0.95334855   -3.5459824   -3.5459824   -2.1159612  0.040177381   -3.5459824    1.4300212   878832 
  939000   0.95324684   -3.5457069   -3.5457069   -2.1158383  0.040253001   -3.5457069    1.4298686   878832 
  940000   0.95153133   -3.5436611   -3.5436611   -2.1163658  0.033819873   -3.5436611    1.4272954   878832 
  941000   0.95252889   -3.5455461   -3.5455461   -2.1167544  0.039720478   -3.5455461    1.4287917   878832 
  942000   0.95330011   -3.5465641   -3.5465641   -2.1166155  0.035418757   -3.5465641    1.4299485   878832 
  943000   0.95225654    -3.543964    -3.543964   -2.1155809  0.038767545    -3.543964    1.4283832   878832 
  944000   0.95243402   -3.5446811   -3.5446811   -2.1160317  0.039752757   -3.5446811    1.4286494   878832 
  945000   0.95312025   -3.5459677   -3.5459677   -2.1162889  0.038938138   -3.5459677    1.4296787   878832 
  946000   0.95154641   -3.5438332   -3.5438332   -2.1165152  0.039034527   -3.5438332     1.427318   878832 
  947000   0.95247057    -3.544967    -3.544967   -2.1162627   0.03724781    -3.544967    1.4287042   878832 
  948000   0.95261446   -3.5454337   -3.5454337   -2.1165136  0.039154118   -3.5454337    1.4289201   878832 
  949000   0.95163685   -3.5443584   -3.5443584   -2.1169048  0.038457587   -3.5443584    1.4274537   878832 
  950000   0.95181122   -3.5436422   -3.5436422    -2.115927  0.035442927   -3.5436422    1.4277152   878832 
  951000   0.95187519   -3.5434303   -3.5434303   -2.1156192  0.035562521   -3.5434303    1.4278112   878832 
  952000   0.95271665   -3.5438373   -3.5438373   -2.1147639  0.035106228   -3.5438373    1.4290733   878832 
  953000   0.95161396   -3.5421774   -3.5421774   -2.1147581  0.036630008   -3.5421774    1.4274193   878832 
  954000   0.95358153   -3.5448268   -3.5448268   -2.1144561  0.036145718   -3.5448268    1.4303707   878832 
  955000   0.95272687   -3.5440934   -3.5440934   -2.1150047  0.036855963   -3.5440934    1.4290887   878832 
  956000   0.95299236   -3.5444509   -3.5444509    -2.114964  0.039074608   -3.5444509    1.4294869   878832 
  957000   0.95395994   -3.5446205   -3.5446205   -2.1136822  0.044292772   -3.5446205    1.4309383   878832 
  958000   0.95374354   -3.5444598   -3.5444598   -2.1138461  0.039963665   -3.5444598    1.4306137   878832 
  959000   0.95480784   -3.5460485   -3.5460485   -2.1138384  0.039654152   -3.5460485    1.4322101   878832 
  960000   0.95428629   -3.5451347   -3.5451347   -2.1137069   0.04280615   -3.5451347    1.4314278   878832 
  961000    0.9544703   -3.5454486   -3.5454486   -2.1137448  0.040147267   -3.5454486    1.4317038   878832 
  962000   0.95468364   -3.5448346   -3.5448346   -2.1128108  0.041240519   -3.5448346    1.4320238   878832 
  963000   0.95436104   -3.5451603   -3.5451603   -2.1136204   0.03900694   -3.5451603    1.4315399   878832 
  964000   0.95412888   -3.5442118   -3.5442118   -2.1130201  0.041796646   -3.5442118    1.4311917   878832 
  965000   0.95437556   -3.5440487   -3.5440487    -2.112487  0.043622131   -3.5440487    1.4315617   878832 
  966000   0.95451579   -3.5452179   -3.5452179   -2.1134459  0.040018746   -3.5452179    1.4317721   878832 
  967000   0.95345803   -3.5443986   -3.5443986   -2.1142132  0.039401634   -3.5443986    1.4301854   878832 
  968000   0.95337545    -3.543225    -3.543225   -2.1131635  0.041202461    -3.543225    1.4300615   878832 
  969000   0.95344167   -3.5432615   -3.5432615   -2.1131006  0.038028725   -3.5432615    1.4301609   878832 
  970000   0.95311318   -3.5431025   -3.5431025   -2.1134343  0.043926301   -3.5431025    1.4296681   878832 
  971000   0.95392969   -3.5438718   -3.5438718   -2.1129789  0.041724445   -3.5438718    1.4308929   878832 
  972000   0.95387503    -3.543455    -3.543455    -2.112644  0.040339811    -3.543455    1.4308109   878832 
  973000   0.95353224   -3.5432787   -3.5432787    -2.112982   0.04077576   -3.5432787    1.4302967   878832 
  974000   0.95391811    -3.542998    -3.542998   -2.1121224  0.039220467    -3.542998    1.4308755   878832 
  975000   0.95460743   -3.5432053   -3.5432053   -2.1112958  0.038408118   -3.5432053    1.4319095   878832 
  976000   0.95413335   -3.5426255   -3.5426255   -2.1114271  0.040194397   -3.5426255    1.4311984   878832 
  977000   0.95427809   -3.5425765   -3.5425765    -2.111161  0.041525507   -3.5425765    1.4314155   878832 
  978000   0.95457606   -3.5423239   -3.5423239   -2.1104614  0.040526267   -3.5423239    1.4318625   878832 
  979000   0.95430725   -3.5420025   -3.5420025   -2.1105433  0.040991985   -3.5420025    1.4314593   878832 
  980000   0.95375091   -3.5410132   -3.5410132   -2.1103884  0.043564998   -3.5410132    1.4306247   878832 
  981000   0.95360627   -3.5412079   -3.5412079   -2.1108001   0.04154322   -3.5412079    1.4304078   878832 
  982000   0.95373231   -3.5420853   -3.5420853   -2.1114885  0.040771232   -3.5420853    1.4305968   878832 
  983000   0.95367778   -3.5407489   -3.5407489   -2.1102339  0.040398785   -3.5407489     1.430515   878832 
  984000   0.95267201   -3.5397749   -3.5397749   -2.1107685  0.035186998   -3.5397749    1.4290064   878832 
  985000   0.95287803   -3.5392803   -3.5392803   -2.1099649  0.036472429   -3.5392803    1.4293154   878832 
  986000   0.95421676   -3.5407336   -3.5407336   -2.1094101  0.037114183   -3.5407336    1.4313235   878832 
  987000   0.95366084    -3.539835    -3.539835   -2.1093454  0.039871529    -3.539835    1.4304896   878832 
  988000   0.95352628   -3.5396706   -3.5396706   -2.1093828  0.037383389   -3.5396706    1.4302878   878832 
  989000   0.95289226   -3.5378054   -3.5378054   -2.1084686  0.039882265   -3.5378054    1.4293368   878832 
  990000   0.95252682   -3.5368558   -3.5368558   -2.1080672  0.039589013   -3.5368558    1.4287886   878832 
  991000   0.95387825    -3.538547    -3.538547   -2.1077313  0.039849731    -3.538547    1.4308157   878832 
  992000   0.95421143    -3.538484    -3.538484   -2.1071685  0.039155623    -3.538484    1.4313155   878832 
  993000   0.95386973   -3.5375475   -3.5375475   -2.1067445  0.040377987   -3.5375475     1.430803   878832 
  994000   0.95542494   -3.5398848   -3.5398848    -2.106749  0.038797438   -3.5398848    1.4331358   878832 
  995000   0.95541141   -3.5383444   -3.5383444    -2.105229  0.041057681   -3.5383444    1.4331155   878832 
  996000    0.9564262   -3.5401156   -3.5401156    -2.105478    0.0404449   -3.5401156    1.4346377   878832 
  997000   0.95610192   -3.5392352   -3.5392352    -2.105084  0.041129597   -3.5392352    1.4341513   878832 
  998000   0.95575951   -3.5390636   -3.5390636   -2.1054259  0.036683933   -3.5390636    1.4336376   878832 
  999000   0.95559205   -3.5383318   -3.5383318   -2.1049454  0.043720352   -3.5383318    1.4333864   878832 
 1000000   0.95525572   -3.5380261   -3.5380261   -2.1051441   0.04331971   -3.5380261     1.432882   878832 
 1001000   0.95543906   -3.5380284   -3.5380284   -2.1048715  0.037770938   -3.5380284     1.433157   878832 
 1002000   0.95341224   -3.5348662   -3.5348662   -2.1047495  0.041021444   -3.5348662    1.4301167   878832 
 1003000   0.95365619   -3.5361082   -3.5361082   -2.1056255  0.039696759   -3.5361082    1.4304827   878832 
 1004000   0.95419484   -3.5371956   -3.5371956    -2.105905  0.036462175   -3.5371956    1.4312906   878832 
 1005000   0.95318885    -3.535151    -3.535151   -2.1053694  0.039334451    -3.535151    1.4297816   878832 
 1006000   0.95362223   -3.5354706   -3.5354706   -2.1050389  0.040642922   -3.5354706    1.4304317   878832 
 1007000   0.95326617   -3.5353248   -3.5353248   -2.1054272  0.036315188   -3.5353248    1.4298976   878832 
 1008000   0.95323915   -3.5349098   -3.5349098   -2.1050527  0.037840051   -3.5349098    1.4298571   878832 
 1009000   0.95350375   -3.5344006   -3.5344006   -2.1041466  0.037319932   -3.5344006     1.430254   878832 
 1010000    0.9540748   -3.5350073   -3.5350073   -2.1038968  0.039315207   -3.5350073    1.4311106   878832 
 1011000    0.9550582    -3.535632    -3.535632   -2.1030464   0.03716464    -3.535632    1.4325857   878832 
 1012000   0.95429891   -3.5335106   -3.5335106   -2.1020639  0.041159689   -3.5335106    1.4314467   878832 
 1013000   0.95617777   -3.5351902   -3.5351902   -2.1009252  0.037517267   -3.5351902     1.434265   878832 
 1014000   0.95576452   -3.5348846   -3.5348846   -2.1012394  0.038002482   -3.5348846    1.4336452   878832 
 1015000   0.95570307    -3.535045    -3.535045    -2.101492  0.039209769    -3.535045     1.433553   878832 
 1016000   0.95577266   -3.5348046   -3.5348046   -2.1011472  0.043890632   -3.5348046    1.4336574   878832 
 1017000   0.95568155    -3.535805    -3.535805   -2.1022843  0.039840502    -3.535805    1.4335207   878832 
 1018000   0.95501764   -3.5337529   -3.5337529   -2.1012281  0.041699712   -3.5337529    1.4325248   878832 
 1019000   0.95446161   -3.5327827   -3.5327827   -2.1010919  0.038811444   -3.5327827    1.4316908   878832 
 1020000   0.95544847   -3.5345001   -3.5345001   -2.1013291   0.04069438   -3.5345001    1.4331711   878832 
 1021000   0.95452874   -3.5332516   -3.5332516   -2.1014601  0.040748174   -3.5332516    1.4317915   878832 
 1022000   0.95357872   -3.5319102   -3.5319102   -2.1015437  0.038049929   -3.5319102    1.4303664   878832 
 1023000   0.95365858   -3.5322916   -3.5322916   -2.1018054  0.038387888   -3.5322916    1.4304862   878832 
 1024000   0.95348652   -3.5318232   -3.5318232   -2.1015951  0.040193323   -3.5318232    1.4302282   878832 
 1025000   0.95355684     -3.53191     -3.53191   -2.1015764  0.039209759     -3.53191    1.4303336   878832 
 1026000    0.9535577   -3.5315628   -3.5315628   -2.1012279  0.038730408   -3.5315628    1.4303349   878832 
 1027000   0.95407089   -3.5314896   -3.5314896   -2.1003849  0.038685002   -3.5314896    1.4311047   878832 
 1028000   0.95369334   -3.5317763   -3.5317763    -2.101238  0.037609067   -3.5317763    1.4305384   878832 
 1029000   0.95358826   -3.5319115   -3.5319115   -2.1015307  0.038175481   -3.5319115    1.4303808   878832 
 1030000   0.95486539   -3.5337211   -3.5337211   -2.1014246  0.036942091   -3.5337211    1.4322965   878832 
 1031000   0.95407682   -3.5315289   -3.5315289   -2.1004153  0.042771249   -3.5315289    1.4311136   878832 
 1032000   0.95468638   -3.5319781   -3.5319781   -2.0999501  0.041160794   -3.5319781    1.4320279   878832 
 1033000   0.95467617   -3.5323353   -3.5323353   -2.1003227  0.037670554   -3.5323353    1.4320126   878832 
 1034000   0.95436112   -3.5315774   -3.5315774   -2.1000373   0.03855951   -3.5315774      1.43154   878832 
 1035000   0.95426488    -3.531573    -3.531573   -2.1001773  0.040568796    -3.531573    1.4313957   878832 
 1036000   0.95452288   -3.5315213   -3.5315213   -2.0997386  0.036402505   -3.5315213    1.4317827   878832 
 1037000   0.95430837   -3.5314383   -3.5314383   -2.0999774  0.040547326   -3.5314383    1.4314609   878832 
 1038000   0.95453871   -3.5311508   -3.5311508   -2.0993444  0.038744699   -3.5311508    1.4318064   878832 
 1039000   0.95546731    -3.531914    -3.531914   -2.0987146  0.039990256    -3.531914    1.4331993   878832 
 1040000   0.95490046   -3.5310248   -3.5310248   -2.0986757  0.039758866   -3.5310248    1.4323491   878832 
 1041000   0.95506733   -3.5317196   -3.5317196   -2.0991202  0.039328321   -3.5317196    1.4325994   878832 
 1042000    0.9543468   -3.5308282   -3.5308282   -2.0993096  0.042980129   -3.5308282    1.4315186   878832 
 1043000   0.95462309   -3.5314202   -3.5314202   -2.0994872   0.03937179   -3.5314202     1.431933   878832 
 1044000   0.95557587   -3.5320072   -3.5320072    -2.098645  0.039887554   -3.5320072    1.4333622   878832 
 1045000   0.95490564    -3.531167    -3.531167   -2.0988102  0.038709501    -3.531167    1.4323568   878832 
 1046000   0.95517198   -3.5310845   -3.5310845   -2.0983282  0.042348337   -3.5310845    1.4327563   878832 
 1047000   0.95512201   -3.5310559   -3.5310559   -2.0983745  0.041986237   -3.5310559    1.4326814   878832 
 1048000   0.95638241   -3.5324284   -3.5324284   -2.0978565  0.038259446   -3.5324284     1.434572   878832 
 1049000   0.95570532   -3.5299274   -3.5299274   -2.0963711  0.040304014   -3.5299274    1.4335563   878832 
 1050000   0.95624367    -3.531839    -3.531839   -2.0974751  0.040143604    -3.531839    1.4343639   878832 
 1051000   0.95507864   -3.5295992   -3.5295992   -2.0969829  0.042218773   -3.5295992    1.4326163   878832 
 1052000   0.95594248   -3.5307066   -3.5307066   -2.0967945  0.042456057   -3.5307066    1.4339121   878832 
 1053000   0.95595905   -3.5302211   -3.5302211   -2.0962841  0.038823182   -3.5302211     1.433937   878832 
 1054000   0.95651259   -3.5303536   -3.5303536   -2.0955864  0.041647946   -3.5303536    1.4347673   878832 
 1055000   0.95659089   -3.5305427   -3.5305427    -2.095658   0.04057763   -3.5305427    1.4348847   878832 
 1056000   0.95594315   -3.5289784   -3.5289784   -2.0950653  0.038562079   -3.5289784    1.4339131   878832 
 1057000   0.95647551   -3.5301596   -3.5301596   -2.0954479  0.038864945   -3.5301596    1.4347116   878832 
 1058000   0.95545756   -3.5287509   -3.5287509   -2.0955662  0.040562959   -3.5287509    1.4331847   878832 
 1059000   0.95718849    -3.530503    -3.530503   -2.0947219  0.037423305    -3.530503    1.4357811   878832 
 1060000   0.95509392   -3.5277013   -3.5277013    -2.095062  0.039877381   -3.5277013    1.4326393   878832 
 1061000   0.95576508   -3.5290203   -3.5290203   -2.0953743  0.039326809   -3.5290203     1.433646   878832 
 1062000   0.95559666   -3.5281914   -3.5281914   -2.0947981  0.041758068   -3.5281914    1.4333934   878832 
 1063000   0.95556342    -3.528335    -3.528335   -2.0949915  0.041039518    -3.528335    1.4333435   878832 
 1064000   0.95480545   -3.5270918   -3.5270918   -2.0948853  0.042178782   -3.5270918    1.4322065   878832 
 1065000   0.95557757   -3.5282888   -3.5282888   -2.0949241  0.037259131   -3.5282888    1.4333647   878832 
 1066000   0.95561523   -3.5281574   -3.5281574   -2.0947362  0.037055416   -3.5281574    1.4334212   878832 
 1067000   0.95563526   -3.5283272   -3.5283272    -2.094876  0.036670697   -3.5283272    1.4334513   878832 
 1068000   0.95413797   -3.5256736   -3.5256736   -2.0944683  0.037675563   -3.5256736    1.4312053   878832 
 1069000   0.95445129   -3.5262857   -3.5262857   -2.0946104  0.035447623   -3.5262857    1.4316753   878832 
 1070000   0.95617155   -3.5285539   -3.5285539   -2.0942983  0.034686066   -3.5285539    1.4342557   878832 
 1071000   0.95491747   -3.5256666   -3.5256666    -2.093292  0.042816314   -3.5256666    1.4323746   878832 
 1072000   0.95576291   -3.5268785   -3.5268785   -2.0932358  0.038834825   -3.5268785    1.4336427   878832 
 1073000   0.95689633   -3.5267339   -3.5267339    -2.091391  0.042943361   -3.5267339    1.4353429   878832 
 1074000   0.95625402    -3.526215    -3.526215   -2.0918356  0.041392496    -3.526215    1.4343794   878832 
 1075000   0.95549706   -3.5249748   -3.5249748   -2.0917309  0.042524716   -3.5249748     1.433244   878832 
 1076000   0.95792977   -3.5275329   -3.5275329   -2.0906398  0.040070641   -3.5275329     1.436893   878832 
 1077000   0.95673849   -3.5255452   -3.5255452   -2.0904391  0.041914755   -3.5255452    1.4351061   878832 
 1078000   0.95656749   -3.5249294   -3.5249294   -2.0900798  0.043585012   -3.5249294    1.4348496   878832 
 1079000   0.95714611   -3.5256801   -3.5256801   -2.0899626  0.038152611   -3.5256801    1.4357175   878832 
 1080000   0.95650352   -3.5248816   -3.5248816   -2.0901279  0.039577594   -3.5248816    1.4347536   878832 
 1081000   0.95767427   -3.5263607   -3.5263607   -2.0898509  0.038953122   -3.5263607    1.4365098   878832 
 1082000   0.95602356   -3.5236045   -3.5236045   -2.0895708  0.038269228   -3.5236045    1.4340337   878832 
 1083000     0.956055   -3.5244451   -3.5244451   -2.0903643  0.038342793   -3.5244451    1.4340809   878832 
 1084000   0.95579132   -3.5242033   -3.5242033   -2.0905179  0.041413376   -3.5242033    1.4336853   878832 
 1085000   0.95675143   -3.5249475   -3.5249475    -2.089822  0.042298912   -3.5249475    1.4351255   878832 
 1086000    0.9551026   -3.5223557   -3.5223557   -2.0897034  0.040195629   -3.5223557    1.4326523   878832 
 1087000   0.95540497   -3.5225484   -3.5225484   -2.0894426  0.036571777   -3.5225484    1.4331058   878832 
 1088000   0.95665939    -3.524354    -3.524354   -2.0893665  0.042044068    -3.524354    1.4349875   878832 
 1089000   0.95582479    -3.523838    -3.523838   -2.0901025  0.037783371    -3.523838    1.4337355   878832 
 1090000   0.95549798   -3.5232354   -3.5232354     -2.08999  0.040357382   -3.5232354    1.4332453   878832 
 1091000    0.9570092   -3.5235756   -3.5235756   -2.0880634  0.040066651   -3.5235756    1.4355122   878832 
 1092000   0.95608868   -3.5226133   -3.5226133   -2.0884819  0.047149914   -3.5226133    1.4341314   878832 
 1093000   0.95614787   -3.5228913   -3.5228913   -2.0886711   0.04006245   -3.5228913    1.4342202   878832 
 1094000   0.95533611   -3.5220374   -3.5220374   -2.0890349  0.040014023   -3.5220374    1.4330025   878832 
 1095000   0.95603703   -3.5224228   -3.5224228   -2.0883689  0.039300475   -3.5224228    1.4340539   878832 
 1096000   0.95627395   -3.5230531   -3.5230531   -2.0886438  0.040548776   -3.5230531    1.4344093   878832 
 1097000   0.95699563   -3.5239658   -3.5239658    -2.088474  0.041683503   -3.5239658    1.4354918   878832 
 1098000   0.95612836   -3.5222579   -3.5222579   -2.0880669  0.037118777   -3.5222579    1.4341909   878832 
 1099000   0.95732771    -3.522817    -3.522817   -2.0868271  0.039766128    -3.522817    1.4359899   878832 
 1100000   0.95640966   -3.5216076   -3.5216076   -2.0869948  0.039149508   -3.5216076    1.4346129   878832 
 1101000   0.95668686   -3.5218744   -3.5218744   -2.0868458  0.036366156   -3.5218744    1.4350287   878832 
 1102000    0.9575898   -3.5223544   -3.5223544   -2.0859713  0.042917102   -3.5223544    1.4363831   878832 
 1103000   0.95678383    -3.522072    -3.522072   -2.0868979  0.041018979    -3.522072    1.4351741   878832 
 1104000    0.9565772   -3.5226672   -3.5226672   -2.0878031  0.042156248   -3.5226672    1.4348642   878832 
 1105000   0.95736713   -3.5224122   -3.5224122   -2.0863631   0.04646752   -3.5224122    1.4360491   878832 
 1106000   0.95743986   -3.5230358   -3.5230358   -2.0868776  0.037542318   -3.5230358    1.4361582   878832 
 1107000   0.95699717   -3.5212228   -3.5212228   -2.0857286  0.042114529   -3.5212228    1.4354941   878832 
 1108000   0.95883779   -3.5224531   -3.5224531    -2.084198  0.043799653   -3.5224531    1.4382551   878832 
 1109000   0.95754332    -3.520831    -3.520831   -2.0845177  0.039937242    -3.520831    1.4363133   878832 
 1110000   0.95632983   -3.5188924   -3.5188924   -2.0843993  0.037365626   -3.5188924    1.4344931   878832 
 1111000   0.95786597   -3.5212761   -3.5212761   -2.0844788  0.037493471   -3.5212761    1.4367973   878832 
 1112000   0.95720378   -3.5202137   -3.5202137   -2.0844096  0.045279786   -3.5202137     1.435804   878832 
 1113000   0.95815697   -3.5220243   -3.5220243   -2.0847905  0.037355247   -3.5220243    1.4372338   878832 
 1114000   0.95723986    -3.520281    -3.520281   -2.0844229  0.039486769    -3.520281    1.4358582   878832 
 1115000   0.95715811   -3.5203871   -3.5203871   -2.0846516   0.03772903   -3.5203871    1.4357355   878832 
 1116000   0.95735955   -3.5205445   -3.5205445   -2.0845068  0.041756837   -3.5205445    1.4360377   878832 
 1117000   0.95771356   -3.5201139   -3.5201139   -2.0835452   0.04380485   -3.5201139    1.4365687   878832 
 1118000   0.95717224   -3.5199966   -3.5199966   -2.0842399  0.041065212   -3.5199966    1.4357567   878832 
 1119000   0.95757571   -3.5206389   -3.5206389    -2.084277   0.04194856   -3.5206389    1.4363619   878832 
 1120000   0.95715529    -3.519739    -3.519739   -2.0840077  0.040842341    -3.519739    1.4357313   878832 
 1121000   0.95575823   -3.5178769   -3.5178769   -2.0842412   0.04254278   -3.5178769    1.4336357   878832 
 1122000    0.9558191   -3.5181894   -3.5181894   -2.0844624  0.036672556   -3.5181894     1.433727   878832 
 1123000   0.95622016   -3.5189479   -3.5189479   -2.0846193  0.039403354   -3.5189479    1.4343286   878832 
 1124000   0.95659465   -3.5194187   -3.5194187   -2.0845284  0.037524556   -3.5194187    1.4348903   878832 
 1125000   0.95622263   -3.5189969   -3.5189969   -2.0846646  0.038536578   -3.5189969    1.4343323   878832 
 1126000   0.95553335   -3.5168881   -3.5168881   -2.0835897  0.039022307   -3.5168881    1.4332984   878832 
 1127000   0.95654478   -3.5176822   -3.5176822   -2.0828666  0.037926237   -3.5176822    1.4348155   878832 
 1128000   0.95630603   -3.5176384   -3.5176384    -2.083181  0.036450756   -3.5176384    1.4344574   878832 
 1129000    0.9564985   -3.5174396   -3.5174396   -2.0826934  0.043696716   -3.5174396    1.4347461   878832 
 1130000   0.95733491   -3.5174607   -3.5174607     -2.08146  0.042932683   -3.5174607    1.4360007   878832 
 1131000    0.9570595   -3.5169579   -3.5169579   -2.0813703  0.040861063   -3.5169579    1.4355876   878832 
 1132000   0.95784253   -3.5185614   -3.5185614   -2.0817993  0.040916249   -3.5185614    1.4367622   878832 
 1133000   0.95849289   -3.5193786   -3.5193786   -2.0816409  0.040499772   -3.5193786    1.4377377   878832 
 1134000    0.9589421   -3.5192949   -3.5192949   -2.0808834  0.039308449   -3.5192949    1.4384115   878832 
 1135000   0.95810122   -3.5183183   -3.5183183   -2.0811681  0.038899316   -3.5183183    1.4371502   878832 
 1136000   0.95819347   -3.5183338   -3.5183338   -2.0810452  0.039596732   -3.5183338    1.4372886   878832 
 1137000   0.95783747   -3.5178557   -3.5178557   -2.0811011  0.045352543   -3.5178557    1.4367546   878832 
 1138000   0.95799963    -3.517444    -3.517444   -2.0804462  0.041923338    -3.517444    1.4369978   878832 
 1139000   0.95797473    -3.518675    -3.518675   -2.0817145  0.040792697    -3.518675    1.4369605   878832 
 1140000   0.95772161   -3.5177478   -3.5177478   -2.0811671  0.040927523   -3.5177478    1.4365808   878832 
 1141000   0.95765126   -3.5172571   -3.5172571   -2.0807818  0.041517063   -3.5172571    1.4364753   878832 
 1142000   0.95603284   -3.5149853   -3.5149853   -2.0809377  0.040506691   -3.5149853    1.4340476   878832 
 1143000   0.95769434   -3.5165477   -3.5165477   -2.0800078  0.038535855   -3.5165477    1.4365399   878832 
 1144000   0.95772655   -3.5163908   -3.5163908   -2.0798026  0.035184049   -3.5163908    1.4365882   878832 
 1145000   0.95766471   -3.5160929   -3.5160929   -2.0795975  0.038193064   -3.5160929    1.4364954   878832 
 1146000   0.95682939   -3.5159561   -3.5159561   -2.0807136  0.041140911   -3.5159561    1.4352424   878832 
 1147000   0.95771733    -3.517099    -3.517099   -2.0805247  0.036925313    -3.517099    1.4365744   878832 
 1148000   0.95737131   -3.5166465   -3.5166465   -2.0805912  0.040311609   -3.5166465    1.4360553   878832 
 1149000   0.95716854   -3.5166404   -3.5166404   -2.0808892  0.039558356   -3.5166404    1.4357512   878832 
 1150000   0.95748106   -3.5165039   -3.5165039   -2.0802839  0.040319769   -3.5165039      1.43622   878832 
 1151000    0.9583724   -3.5164778   -3.5164778   -2.0789208  0.038265025   -3.5164778     1.437557   878832 
 1152000   0.95734231   -3.5144505   -3.5144505   -2.0784387  0.039617808   -3.5144505    1.4360118   878832 
 1153000   0.95809996   -3.5150832   -3.5150832   -2.0779349  0.040104012   -3.5150832    1.4371483   878832 
 1154000    0.9592776   -3.5161725   -3.5161725   -2.0772578   0.03903281   -3.5161725    1.4389148   878832 
 1155000   0.95775297    -3.514504    -3.514504   -2.0778762  0.044087537    -3.514504    1.4366278   878832 
 1156000   0.95831597   -3.5159176   -3.5159176   -2.0784453  0.044183324   -3.5159176    1.4374723   878832 
 1157000   0.95828925   -3.5165233   -3.5165233   -2.0790911  0.041557779   -3.5165233    1.4374322   878832 
 1158000   0.95764829   -3.5151896   -3.5151896   -2.0787188  0.039428974   -3.5151896    1.4364708   878832 
 1159000   0.95759057   -3.5142569   -3.5142569   -2.0778727  0.039491771   -3.5142569    1.4363842   878832 
 1160000   0.95731569    -3.513848    -3.513848   -2.0778761  0.042847535    -3.513848    1.4359719   878832 
 1161000   0.95767265   -3.5135718   -3.5135718   -2.0770644  0.038537712   -3.5135718    1.4365073   878832 
 1162000   0.95778917   -3.5144825   -3.5144825   -2.0778004  0.038069534   -3.5144825    1.4366821   878832 
 1163000   0.95683757   -3.5125869   -3.5125869   -2.0773322  0.041653964   -3.5125869    1.4352547   878832 
 1164000   0.95790052   -3.5144625   -3.5144625   -2.0776133  0.040130997   -3.5144625    1.4368492   878832 
 1165000   0.95868911   -3.5159959   -3.5159959   -2.0779638  0.041607707   -3.5159959     1.438032   878832 
 1166000   0.95743237   -3.5143226   -3.5143226   -2.0781757  0.044618987   -3.5143226    1.4361469   878832 
 1167000   0.95822092   -3.5146751   -3.5146751   -2.0773453  0.046802489   -3.5146751    1.4373298   878832 
 1168000   0.95836952   -3.5145331   -3.5145331   -2.0769805  0.040048809   -3.5145331    1.4375526   878832 
 1169000   0.95860578   -3.5146201   -3.5146201   -2.0767131  0.041043658   -3.5146201     1.437907   878832 
 1170000   0.95754846    -3.512848    -3.512848    -2.076527  0.041117735    -3.512848    1.4363211   878832 
 1171000   0.95836488   -3.5136792   -3.5136792   -2.0761335  0.040368541   -3.5136792    1.4375457   878832 
 1172000   0.95832108   -3.5119879   -3.5119879   -2.0745079  0.043943159   -3.5119879      1.43748   878832 
 1173000   0.95896894   -3.5132105   -3.5132105   -2.0747588  0.044768766   -3.5132105    1.4384518   878832 
 1174000   0.96019065   -3.5149093   -3.5149093   -2.0746249  0.040586767   -3.5149093    1.4402843   878832 
 1175000   0.95976867   -3.5137623   -3.5137623   -2.0741109  0.044251646   -3.5137623    1.4396514   878832 
 1176000   0.96004081   -3.5146958   -3.5146958   -2.0746362  0.041676604   -3.5146958    1.4400596   878832 
 1177000   0.95933813    -3.514506    -3.514506   -2.0755004  0.038691257    -3.514506    1.4390056   878832 
 1178000   0.95948244   -3.5134897   -3.5134897   -2.0742676   0.04393359   -3.5134897     1.439222   878832 
 1179000   0.95935876   -3.5129523   -3.5129523   -2.0739158  0.044760334   -3.5129523    1.4390365   878832 
 1180000   0.95801361   -3.5122324   -3.5122324   -2.0752136  0.042064146   -3.5122324    1.4370188   878832 
 1181000   0.95798083   -3.5120359   -3.5120359   -2.0750663  0.039072075   -3.5120359    1.4369696   878832 
 1182000   0.95825033   -3.5122189   -3.5122189   -2.0748451  0.042774323   -3.5122189    1.4373739   878832 
 1183000   0.95934264   -3.5143097   -3.5143097   -2.0752974  0.037231234   -3.5143097    1.4390123   878832 
 1184000   0.95789289   -3.5114053   -3.5114053   -2.0745676  0.040836403   -3.5114053    1.4368377   878832 
 1185000   0.95834006   -3.5118709   -3.5118709   -2.0743624   0.03995614   -3.5118709    1.4375085   878832 
 1186000   0.95854757   -3.5128503   -3.5128503   -2.0750306  0.042769035   -3.5128503    1.4378197   878832 
 1187000   0.95845408   -3.5128773   -3.5128773   -2.0751978  0.039106458   -3.5128773    1.4376795   878832 
 1188000   0.95761493   -3.5108766   -3.5108766   -2.0744558  0.045421044   -3.5108766    1.4364208   878832 
 1189000    0.9582457   -3.5113148   -3.5113148   -2.0739479  0.043661209   -3.5113148    1.4373669   878832 
 1190000   0.95889923   -3.5105479   -3.5105479   -2.0722007  0.042244351   -3.5105479    1.4383472   878832 
 1191000   0.95971937   -3.5116688   -3.5116688   -2.0720913  0.039964442   -3.5116688    1.4395774   878832 
 1192000   0.95912501   -3.5118933   -3.5118933   -2.0732074  0.041313817   -3.5118933    1.4386859   878832 
 1193000   0.95868726   -3.5093963   -3.5093963    -2.071367  0.040644909   -3.5093963    1.4380292   878832 
 1194000    0.9588921   -3.5099068   -3.5099068   -2.0715703  0.040409208   -3.5099068    1.4383365   878832 
 1195000   0.95963533   -3.5107605   -3.5107605   -2.0713092  0.042614523   -3.5107605    1.4394514   878832 
 1196000   0.96021416   -3.5106041   -3.5106041   -2.0702845  0.038404588   -3.5106041    1.4403196   878832 
 1197000   0.95931187   -3.5094802   -3.5094802    -2.070514  0.043322942   -3.5094802    1.4389662   878832 
 1198000   0.95951407   -3.5098759   -3.5098759   -2.0706065  0.041685458   -3.5098759    1.4392695   878832 
 1199000   0.95989612   -3.5105033   -3.5105033   -2.0706608  0.042854304   -3.5105033    1.4398425   878832 
 1200000   0.95943908   -3.5098568   -3.5098568   -2.0706998  0.043967188   -3.5098568     1.439157   878832 
 1201000    0.9597117   -3.5093872   -3.5093872   -2.0698213  0.039951695   -3.5093872    1.4395659   878832 
 1202000    0.9582831   -3.5077884   -3.5077884   -2.0703653  0.044137599   -3.5077884     1.437423   878832 
 1203000   0.95805127   -3.5074445   -3.5074445   -2.0703693   0.04173142   -3.5074445    1.4370753   878832 
 1204000   0.95935525    -3.508766    -3.508766   -2.0697348  0.036806783    -3.508766    1.4390312   878832 
 1205000   0.95827274   -3.5071122   -3.5071122   -2.0697048  0.040934865   -3.5071122    1.4374075   878832 
 1206000   0.95859839   -3.5079339   -3.5079339   -2.0700379  0.035779717   -3.5079339    1.4378959   878832 
 1207000   0.95881719   -3.5074169   -3.5074169   -2.0691928  0.040361658   -3.5074169    1.4382241   878832 
 1208000   0.95833604   -3.5067938   -3.5067938   -2.0692914  0.039944312   -3.5067938    1.4375024   878832 
 1209000   0.95877842   -3.5077345   -3.5077345   -2.0695685  0.038415311   -3.5077345     1.438166   878832 
 1210000   0.95883218   -3.5071251   -3.5071251   -2.0688785  0.037255845   -3.5071251    1.4382466   878832 
 1211000   0.95938841    -3.508522    -3.508522    -2.069441  0.041382479    -3.508522     1.439081   878832 
 1212000   0.95846459     -3.50651     -3.50651   -2.0688148  0.043271772     -3.50651    1.4376952   878832 
 1213000   0.95904937   -3.5065703   -3.5065703   -2.0679978  0.041149114   -3.5065703    1.4385724   878832 
 1214000   0.95972753   -3.5066387   -3.5066387   -2.0670491  0.041752206   -3.5066387    1.4395896   878832 
 1215000    0.9588215   -3.5051466   -3.5051466   -2.0669159  0.043639368   -3.5051466    1.4382306   878832 
 1216000   0.95896352   -3.5049192   -3.5049192   -2.0664756  0.043330145   -3.5049192    1.4384436   878832 
 1217000   0.96008969   -3.5063334   -3.5063334   -2.0662005  0.040185168   -3.5063334    1.4401329   878832 
 1218000   0.96084827   -3.5069089   -3.5069089   -2.0656381  0.041643871   -3.5069089    1.4412708   878832 
 1219000   0.96015053   -3.5061466   -3.5061466   -2.0659225  0.039788722   -3.5061466    1.4402241   878832 
 1220000   0.95980012   -3.5057933   -3.5057933   -2.0660948  0.040839453   -3.5057933    1.4396985   878832 
 1221000    0.9601002    -3.505978    -3.505978   -2.0658293  0.039768177    -3.505978    1.4401487   878832 
 1222000   0.96094353   -3.5065886   -3.5065886    -2.065175  0.038120191   -3.5065886    1.4414136   878832 
 1223000   0.96037634   -3.5056877   -3.5056877   -2.0651249  0.043218145   -3.5056877    1.4405629   878832 
 1224000   0.95976874   -3.5047824   -3.5047824    -2.065131  0.042476113   -3.5047824    1.4396515   878832 
 1225000   0.95996306   -3.5044283   -3.5044283   -2.0644853  0.041032197   -3.5044283     1.439943   878832 
 1226000   0.96116556   -3.5058158   -3.5058158   -2.0640691   0.04114044   -3.5058158    1.4417467   878832 
 1227000   0.96093562   -3.5055552   -3.5055552   -2.0641534  0.042590422   -3.5055552    1.4414018   878832 
 1228000   0.96002963   -3.5035012   -3.5035012   -2.0634584  0.044523239   -3.5035012    1.4400428   878832 
 1229000   0.96035857    -3.505298    -3.505298   -2.0647618  0.041312854    -3.505298    1.4405362   878832 
 1230000   0.95929034   -3.5033069   -3.5033069   -2.0643731  0.042134129   -3.5033069    1.4389339   878832 
 1231000   0.95854503   -3.5021094   -3.5021094   -2.0642934  0.042278516   -3.5021094    1.4378159   878832 
 1232000   0.95976961    -3.504139    -3.504139   -2.0644863  0.039263833    -3.504139    1.4396528   878832 
 1233000   0.95933947    -3.502964    -3.502964   -2.0639564  0.041869931    -3.502964    1.4390076   878832 
 1234000   0.95995052   -3.5032653   -3.5032653   -2.0633411  0.039132368   -3.5032653    1.4399241   878832 
 1235000   0.95835981   -3.5020363   -3.5020363   -2.0644982  0.039054238   -3.5020363    1.4375381   878832 
 1236000    0.9584574   -3.5018015   -3.5018015   -2.0641171   0.03913293   -3.5018015    1.4376845   878832 
 1237000   0.95894755   -3.5022264   -3.5022264   -2.0638067  0.042835873   -3.5022264    1.4384197   878832 
 1238000   0.95966093   -3.5028759   -3.5028759   -2.0633862  0.038563627   -3.5028759    1.4394898   878832 
 1239000   0.95974074   -3.5024566   -3.5024566   -2.0628472  0.039180858   -3.5024566    1.4396095   878832 
 1240000     0.959233   -3.5019152   -3.5019152   -2.0630673  0.040941237   -3.5019152    1.4388479   878832 
 1241000   0.96026383   -3.5030938   -3.5030938   -2.0626997  0.040914788   -3.5030938    1.4403941   878832 
 1242000   0.95961575   -3.5020359   -3.5020359   -2.0626139  0.040206919   -3.5020359     1.439422   878832 
 1243000   0.96002837    -3.503173    -3.503173   -2.0631321  0.041853951    -3.503173    1.4400409   878832 
 1244000   0.95956257    -3.502313    -3.502313   -2.0629708  0.042989536    -3.502313    1.4393422   878832 
 1245000    0.9603631   -3.5031502   -3.5031502   -2.0626072  0.042417956   -3.5031502     1.440543   878832 
 1246000   0.96040119   -3.5035138   -3.5035138   -2.0629137   0.04092965   -3.5035138    1.4406001   878832 
 1247000   0.96041862   -3.5034996   -3.5034996   -2.0628733  0.042772253   -3.5034996    1.4406263   878832 
 1248000   0.95969127   -3.5022795   -3.5022795   -2.0627443  0.043985372   -3.5022795    1.4395353   878832 
 1249000   0.96053038   -3.5037118   -3.5037118   -2.0629178  0.042496296   -3.5037118    1.4407939   878832 
 1250000   0.95998886   -3.5033235   -3.5033235   -2.0633418  0.042501904   -3.5033235    1.4399817   878832 
 1251000   0.96118457   -3.5043373   -3.5043373   -2.0625621  0.043413717   -3.5043373    1.4417752   878832 
 1252000     0.959924   -3.5024925   -3.5024925   -2.0626082  0.041151199   -3.5024925    1.4398844   878832 
 1253000   0.96071883   -3.5035336   -3.5035336    -2.062457  0.043988377   -3.5035336    1.4410766   878832 
 1254000   0.96043547   -3.5027945   -3.5027945    -2.062143  0.039739965   -3.5027945    1.4406516   878832 
 1255000   0.96046602   -3.5028952   -3.5028952   -2.0621978  0.042828929   -3.5028952    1.4406974   878832 
 1256000   0.96035096   -3.5038781   -3.5038781   -2.0633533  0.036452771   -3.5038781    1.4405248   878832 
 1257000   0.95958145   -3.5024638   -3.5024638   -2.0630933  0.043192445   -3.5024638    1.4393705   878832 
 1258000   0.96059519   -3.5032342   -3.5032342   -2.0623431  0.040509942   -3.5032342    1.4408911   878832 
 1259000   0.96095509   -3.5039218   -3.5039218   -2.0624908  0.041060657   -3.5039218     1.441431   878832 
 1260000   0.95930212   -3.5019995   -3.5019995   -2.0630479  0.042906298   -3.5019995    1.4389515   878832 
 1261000   0.96104743   -3.5049762   -3.5049762   -2.0634067  0.039044455   -3.5049762    1.4415695   878832 
 1262000    0.9603236   -3.5030148   -3.5030148    -2.062531  0.042159159   -3.5030148    1.4404838   878832 
 1263000   0.96040484   -3.5031435   -3.5031435   -2.0625379  0.041678581   -3.5031435    1.4406056   878832 
 1264000   0.96056906   -3.5033812   -3.5033812   -2.0625293   0.04444142   -3.5033812    1.4408519   878832 
 1265000   0.96028017   -3.5022405   -3.5022405   -2.0618218  0.044768994   -3.5022405    1.4404186   878832 
 1266000   0.95959709    -3.501574    -3.501574     -2.06218  0.043845618    -3.501574     1.439394   878832 
 1267000   0.96062322   -3.5023837   -3.5023837   -2.0614505  0.041008906   -3.5023837    1.4409332   878832 
 1268000   0.96057433   -3.5028771   -3.5028771   -2.0620172  0.040168588   -3.5028771    1.4408599   878832 
 1269000   0.95963545   -3.5018905   -3.5018905    -2.062439  0.042355491   -3.5018905    1.4394515   878832 
 1270000   0.96030702   -3.5028776   -3.5028776   -2.0624187   0.04130255   -3.5028776    1.4404589   878832 
 1271000   0.96011984   -3.5021633   -3.5021633   -2.0619852  0.041466848   -3.5021633    1.4401781   878832 
 1272000   0.96001235   -3.5014284   -3.5014284   -2.0614115  0.044185584   -3.5014284    1.4400169   878832 
 1273000   0.96064072   -3.5026044   -3.5026044   -2.0616449  0.039668822   -3.5026044    1.4409594   878832 
 1274000   0.96023553   -3.5014645   -3.5014645   -2.0611128  0.041832667   -3.5014645    1.4403517   878832 
 1275000   0.96048683   -3.5020595   -3.5020595   -2.0613309  0.039991008   -3.5020595    1.4407286   878832 
 1276000   0.96141555   -3.5027275   -3.5027275   -2.0606059  0.040760095   -3.5027275    1.4421217   878832 
 1277000   0.96138019   -3.5032676   -3.5032676   -2.0611989  0.041965064   -3.5032676    1.4420686   878832 
 1278000   0.96067137   -3.5021925   -3.5021925   -2.0611871   0.04236366   -3.5021925    1.4410054   878832 
 1279000   0.96158552   -3.5026473   -3.5026473   -2.0602706  0.042129435   -3.5026473    1.4423766   878832 
 1280000   0.96033279   -3.5007506   -3.5007506   -2.0602531   0.04003882   -3.5007506    1.4404975   878832 
 1281000   0.96153917   -3.5024521   -3.5024521    -2.060145  0.037651823   -3.5024521    1.4423071   878832 
 1282000   0.95917083   -3.4998673   -3.4998673   -2.0611127  0.043840866   -3.4998673    1.4387546   878832 
 1283000   0.96070782   -3.5015365   -3.5015365   -2.0604764  0.038854612   -3.5015365    1.4410601   878832 
 1284000   0.96108382   -3.5019886   -3.5019886   -2.0603645  0.042680913   -3.5019886    1.4416241   878832 
 1285000    0.9596054   -3.5001931   -3.5001931   -2.0607867   0.04276211   -3.5001931    1.4394065   878832 
 1286000   0.96082178   -3.5023441   -3.5023441    -2.061113  0.041496626   -3.5023441     1.441231   878832 
 1287000   0.95916156    -3.501386    -3.501386   -2.0626453  0.039116508    -3.501386    1.4387407   878832 
 1288000   0.95893989   -3.5001949   -3.5001949   -2.0617867  0.039079447   -3.5001949    1.4384082   878832 
 1289000   0.95945432   -3.5002717   -3.5002717   -2.0610918  0.044545023   -3.5002717    1.4391798   878832 
 1290000   0.96051391   -3.5015608   -3.5015608   -2.0607916   0.04350992   -3.5015608    1.4407692   878832 
 1291000   0.96102871   -3.5017782   -3.5017782   -2.0602368  0.043248973   -3.5017782    1.4415414   878832 
 1292000   0.96171128   -3.5027898   -3.5027898   -2.0602246  0.043526594   -3.5027898    1.4425653   878832 
 1293000   0.96096037    -3.501191    -3.501191   -2.0597521  0.042636666    -3.501191    1.4414389   878832 
 1294000   0.96087596   -3.5008463   -3.5008463    -2.059534  0.044046375   -3.5008463    1.4413123   878832 
 1295000   0.96094707   -3.4999057   -3.4999057   -2.0584868  0.042689311   -3.4999057     1.441419   878832 
 1296000   0.96068571   -3.5002123   -3.5002123   -2.0591854  0.043097244   -3.5002123    1.4410269   878832 
 1297000   0.96164434    -3.499922    -3.499922   -2.0574572  0.046208086    -3.499922    1.4424649   878832 
 1298000   0.96165433   -3.5001888   -3.5001888   -2.0577089  0.044850429   -3.5001888    1.4424798   878832 
 1299000   0.96216942     -3.50113     -3.50113   -2.0578776  0.041473352     -3.50113    1.4432525   878832 
 1300000   0.96133223   -3.4999471   -3.4999471   -2.0579504  0.042727016   -3.4999471    1.4419967   878832 
 1301000    0.9612294   -3.5005909   -3.5005909   -2.0587484  0.041265542   -3.5005909    1.4418425   878832 
 1302000    0.9605362   -3.4986999   -3.4986999   -2.0578972  0.041083904   -3.4986999    1.4408027   878832 
 1303000   0.96118783   -3.5003118   -3.5003118   -2.0585317  0.039739505   -3.5003118    1.4417801   878832 
 1304000   0.96053469   -3.4995897   -3.4995897   -2.0587893  0.038124926   -3.4995897    1.4408004   878832 
 1305000   0.96031785   -3.4989906   -3.4989906   -2.0585154  0.042226711   -3.4989906    1.4404751   878832 
 1306000    0.9609362   -3.4992198   -3.4992198   -2.0578172  0.038154764   -3.4992198    1.4414027   878832 
 1307000   0.96141501   -3.4996043   -3.4996043   -2.0574834   0.03962669   -3.4996043    1.4421209   878832 
 1308000   0.96094412   -3.4982804   -3.4982804   -2.0568658  0.038640459   -3.4982804    1.4414145   878832 
 1309000   0.96119085   -3.4984098   -3.4984098   -2.0566252  0.040380993   -3.4984098    1.4417846   878832 
 1310000   0.96179079   -3.4986867   -3.4986867   -2.0560021  0.044024802   -3.4986867    1.4426845   878832 
 1311000   0.96143749    -3.498391    -3.498391   -2.0562364  0.038437146    -3.498391    1.4421546   878832 
 1312000    0.9608069     -3.49733     -3.49733   -2.0561213  0.037936111     -3.49733    1.4412087   878832 
 1313000   0.96139254   -3.4979553   -3.4979553   -2.0558681  0.042174001   -3.4979553    1.4420872   878832 
 1314000   0.96102483   -3.4966312   -3.4966312   -2.0550956  0.044544391   -3.4966312    1.4415356   878832 
 1315000    0.9614405    -3.496673    -3.496673   -2.0545139  0.041002054    -3.496673    1.4421591   878832 
 1316000   0.96128639   -3.4960882   -3.4960882   -2.0541602  0.046066883   -3.4960882    1.4419279   878832 
 1317000   0.96125016   -3.4958019   -3.4958019   -2.0539283  0.039802417   -3.4958019    1.4418736   878832 
 1318000   0.96127975   -3.4962398   -3.4962398   -2.0543219  0.040745197   -3.4962398     1.441918   878832 
 1319000   0.96068132   -3.4952383   -3.4952383   -2.0542179  0.039685351   -3.4952383    1.4410203   878832 
 1320000   0.96021581   -3.4944776   -3.4944776   -2.0541555  0.040899921   -3.4944776    1.4403221   878832 
 1321000   0.96083995   -3.4952813   -3.4952813    -2.054023   0.04129242   -3.4952813    1.4412583   878832 
 1322000   0.96045124   -3.4942832   -3.4942832    -2.053608  0.044453076   -3.4942832    1.4406752   878832 
 1323000   0.96008266   -3.4943891   -3.4943891   -2.0542668  0.040282221   -3.4943891    1.4401224   878832 
 1324000   0.95987573   -3.4936085   -3.4936085   -2.0537966  0.039269975   -3.4936085     1.439812   878832 
 1325000   0.96067556   -3.4941176   -3.4941176   -2.0531059  0.040821885   -3.4941176    1.4410117   878832 
 1326000   0.96155801   -3.4943878   -3.4943878   -2.0520524  0.042081633   -3.4943878    1.4423354   878832 
 1327000   0.96053106   -3.4929154   -3.4929154   -2.0521204  0.046994974   -3.4929154     1.440795   878832 
 1328000   0.96065048   -3.4935412   -3.4935412   -2.0525671  0.044343831   -3.4935412    1.4409741   878832 
 1329000   0.96130431   -3.4942854   -3.4942854   -2.0523305  0.040645665   -3.4942854    1.4419548   878832 
 1330000   0.96113567     -3.49448     -3.49448   -2.0527782  0.040572147     -3.49448    1.4417019   878832 
 1331000   0.96125692   -3.4936571   -3.4936571   -2.0517734  0.044698343   -3.4936571    1.4418837   878832 
 1332000    0.9616999   -3.4942268   -3.4942268   -2.0516786  0.045664516   -3.4942268    1.4425482   878832 
 1333000   0.96137734   -3.4944129   -3.4944129   -2.0523485  0.044014783   -3.4944129    1.4420644   878832 
 1334000   0.96210353   -3.4936306   -3.4936306    -2.050477  0.041122817   -3.4936306    1.4431537   878832 
 1335000   0.96226026   -3.4937259   -3.4937259   -2.0503371   0.03803686   -3.4937259    1.4433888   878832 
 1336000   0.96244896   -3.4935627   -3.4935627   -2.0498909   0.03885376   -3.4935627    1.4436718   878832 
 1337000   0.96244802   -3.4935411   -3.4935411   -2.0498707  0.041771846   -3.4935411    1.4436704   878832 
 1338000    0.9616035   -3.4922301   -3.4922301   -2.0498265  0.044332857   -3.4922301    1.4424036   878832 
 1339000   0.96277303   -3.4942443   -3.4942443   -2.0500864  0.040256582   -3.4942443    1.4441579   878832 
 1340000   0.96232297   -3.4936479   -3.4936479   -2.0501651  0.043618411   -3.4936479    1.4434828   878832 
 1341000   0.96188857   -3.4932127   -3.4932127   -2.0503815  0.042899304   -3.4932127    1.4428312   878832 
 1342000   0.96116859    -3.492009    -3.492009   -2.0502578  0.042171944    -3.492009    1.4417512   878832 
 1343000   0.96124593   -3.4919376   -3.4919376   -2.0500704  0.044652506   -3.4919376    1.4418672   878832 
 1344000   0.96165583   -3.4915392   -3.4915392    -2.049057  0.041993068   -3.4915392    1.4424821   878832 
 1345000   0.96159489    -3.492045    -3.492045   -2.0496543  0.042959551    -3.492045    1.4423907   878832 
 1346000   0.96229934   -3.4933112   -3.4933112   -2.0498639  0.041516795   -3.4933112    1.4434474   878832 
 1347000   0.96240673   -3.4932992   -3.4932992   -2.0496907  0.041074324   -3.4932992    1.4436085   878832 
 1348000   0.96180304   -3.4921936   -3.4921936   -2.0494906   0.03975111   -3.4921936    1.4427029   878832 
 1349000    0.9622844    -3.492931    -3.492931    -2.049506  0.040553765    -3.492931     1.443425   878832 
 1350000   0.96132079    -3.491115    -3.491115   -2.0491355  0.044481291    -3.491115    1.4419796   878832 
 1351000    0.9622834   -3.4923601   -3.4923601   -2.0489366  0.046336737   -3.4923601    1.4434235   878832 
 1352000   0.96226785    -3.491914    -3.491914   -2.0485139  0.042349275    -3.491914    1.4434001   878832 
 1353000   0.96246062   -3.4916044   -3.4916044   -2.0479152  0.043502826   -3.4916044    1.4436893   878832 
 1354000   0.96231645   -3.4905644   -3.4905644   -2.0470914  0.043614154   -3.4905644     1.443473   878832 
 1355000   0.96300492   -3.4912036   -3.4912036   -2.0466979  0.043851832   -3.4912036    1.4445057   878832 
 1356000   0.96282111   -3.4914213   -3.4914213   -2.0471913  0.043155181   -3.4914213      1.44423   878832 
 1357000   0.96314841   -3.4927118   -3.4927118   -2.0479909  0.042897804   -3.4927118     1.444721   878832 
 1358000   0.96361935   -3.4929417   -3.4929417   -2.0475144  0.037462141   -3.4929417    1.4454274   878832 
 1359000    0.9622738      -3.4912      -3.4912    -2.047791  0.043515763      -3.4912    1.4434091   878832 
 1360000   0.96148955   -3.4902492   -3.4902492   -2.0480166  0.043278058   -3.4902492    1.4422327   878832 
 1361000   0.96170196   -3.4903063   -3.4903063    -2.047755  0.041798008   -3.4903063    1.4425513   878832 
 1362000   0.96126854   -3.4893263   -3.4893263   -2.0474251  0.044041421   -3.4893263    1.4419012   878832 
 1363000   0.96203646   -3.4908362   -3.4908362   -2.0477831  0.038412197   -3.4908362    1.4430531   878832 
 1364000   0.96122969   -3.4899919   -3.4899919    -2.048149  0.040547364   -3.4899919    1.4418429   878832 
 1365000   0.96085885   -3.4899791   -3.4899791   -2.0486925  0.040754392   -3.4899791    1.4412866   878832 
 1366000   0.96147758   -3.4891075   -3.4891075   -2.0468928  0.039431888   -3.4891075    1.4422147   878832 
 1367000    0.9623421   -3.4909555   -3.4909555    -2.047444  0.039686724   -3.4909555    1.4435115   878832 
 1368000    0.9621875   -3.4905407   -3.4905407   -2.0472611  0.042697967   -3.4905407    1.4432796   878832 
 1369000    0.9615423   -3.4888498   -3.4888498    -2.046538  0.040496621   -3.4888498    1.4423118   878832 
 1370000   0.96285654   -3.4897766   -3.4897766   -2.0454934  0.039555136   -3.4897766    1.4442832   878832 
 1371000   0.96336036   -3.4903479   -3.4903479    -2.045309   0.04165685   -3.4903479    1.4450389   878832 
 1372000   0.96257556   -3.4886422   -3.4886422   -2.0447805  0.045507539   -3.4886422    1.4438617   878832 
 1373000   0.96291909   -3.4892734   -3.4892734   -2.0448964  0.044547893   -3.4892734     1.444377   878832 
 1374000   0.96184695   -3.4876493   -3.4876493   -2.0448805  0.048665459   -3.4876493    1.4427688   878832 
 1375000   0.96223833   -3.4884724   -3.4884724   -2.0451166  0.047213808   -3.4884724    1.4433559   878832 
 1376000   0.96249511   -3.4883908   -3.4883908   -2.0446497  0.046164847   -3.4883908     1.443741   878832 
 1377000   0.96276684   -3.4887168   -3.4887168   -2.0445682  0.044364308   -3.4887168    1.4441486   878832 
 1378000   0.96327951   -3.4894282   -3.4894282   -2.0445106   0.04213156   -3.4894282    1.4449176   878832 
 1379000   0.96257568   -3.4886774   -3.4886774   -2.0448155  0.043702832   -3.4886774    1.4438619   878832 
 1380000   0.96181715   -3.4887302   -3.4887302   -2.0460062  0.042027952   -3.4887302    1.4427241   878832 
 1381000   0.96242219   -3.4887612   -3.4887612   -2.0451295  0.039960054   -3.4887612    1.4436316   878832 
 1382000   0.96224811   -3.4882415   -3.4882415    -2.044871  0.037559779   -3.4882415    1.4433705   878832 
 1383000   0.96131319   -3.4877291   -3.4877291   -2.0457609  0.041447803   -3.4877291    1.4419681   878832 
 1384000   0.96163838    -3.487884    -3.487884   -2.0454281   0.04188604    -3.487884    1.4424559   878832 
 1385000   0.96177064   -3.4885497   -3.4885497   -2.0458954  0.040234592   -3.4885497    1.4426543   878832 
 1386000   0.96162443   -3.4886707   -3.4886707   -2.0462357  0.043899861   -3.4886707     1.442435   878832 
 1387000   0.96197115   -3.4890455   -3.4890455   -2.0460904  0.040375475   -3.4890455    1.4429551   878832 
 1388000   0.96232612   -3.4887235   -3.4887235    -2.045236    0.0446707   -3.4887235    1.4434875   878832 
 1389000    0.9634198   -3.4896715   -3.4896715   -2.0445435  0.043127495   -3.4896715    1.4451281   878832 
 1390000   0.96270849   -3.4883211   -3.4883211   -2.0442601  0.041921376   -3.4883211    1.4440611   878832 
 1391000   0.96301181   -3.4883642   -3.4883642   -2.0438481  0.043203566   -3.4883642    1.4445161   878832 
 1392000   0.96359428   -3.4886633   -3.4886633   -2.0432735   0.03823063   -3.4886633    1.4453898   878832 
 1393000   0.96321252   -3.4876363   -3.4876363   -2.0428191  0.046328572   -3.4876363    1.4448171   878832 
 1394000   0.96394848   -3.4880344   -3.4880344   -2.0421133  0.048393601   -3.4880344    1.4459211   878832 
 1395000   0.96348578   -3.4878978   -3.4878978   -2.0426708  0.043224453   -3.4878978     1.445227   878832 
 1396000   0.96344864   -3.4883094   -3.4883094   -2.0431381  0.044587275   -3.4883094    1.4451713   878832 
 1397000   0.96335928   -3.4880788   -3.4880788   -2.0430416   0.04602171   -3.4880788    1.4450373   878832 
 1398000   0.96366657   -3.4885562   -3.4885562    -2.043058   0.03985833   -3.4885562    1.4454982   878832 
 1399000   0.96163752   -3.4859847   -3.4859847     -2.04353  0.046488281   -3.4859847    1.4424546   878832 
 1400000   0.96309576   -3.4876412   -3.4876412   -2.0429992  0.040843346   -3.4876412     1.444642   878832 
 1401000   0.96267619   -3.4862116   -3.4862116   -2.0421989  0.042239106   -3.4862116    1.4440126   878832 
 1402000   0.96461704   -3.4882785   -3.4882785   -2.0413545  0.039941634   -3.4882785    1.4469239   878832 
 1403000   0.96414586   -3.4874299   -3.4874299   -2.0412128  0.041322122   -3.4874299    1.4462171   878832 
 1404000   0.96389008     -3.48674     -3.48674   -2.0409065  0.042693652     -3.48674    1.4458335   878832 
 1405000    0.9620342   -3.4838921   -3.4838921   -2.0408424  0.044214979   -3.4838921    1.4430497   878832 
 1406000   0.96306269   -3.4852402   -3.4852402   -2.0406478  0.044894194   -3.4852402    1.4445924   878832 
 1407000   0.96402048   -3.4858743   -3.4858743   -2.0398452  0.042710793   -3.4858743    1.4460291   878832 
 1408000   0.96302002   -3.4835833   -3.4835833   -2.0390549  0.044063948   -3.4835833    1.4445284   878832 
 1409000   0.96249435   -3.4827886   -3.4827886   -2.0390487  0.041838877   -3.4827886    1.4437399   878832 
 1410000   0.96389626   -3.4847692   -3.4847692   -2.0389265  0.044411351   -3.4847692    1.4458427   878832 
 1411000   0.96377092   -3.4846777   -3.4846777   -2.0390229  0.040636348   -3.4846777    1.4456547   878832 
 1412000   0.96350214    -3.484357    -3.484357   -2.0391054  0.046241579    -3.484357    1.4452516   878832 
 1413000   0.96362529   -3.4845105   -3.4845105   -2.0390742  0.037586649   -3.4845105    1.4454363   878832 
 1414000   0.96294235   -3.4835371   -3.4835371   -2.0391253  0.041953116   -3.4835371    1.4444119   878832 
 1415000   0.96391478   -3.4838472   -3.4838472   -2.0379767  0.042559804   -3.4838472    1.4458705   878832 
 1416000    0.9627439   -3.4815257   -3.4815257   -2.0374115  0.040458233   -3.4815257    1.4441142   878832 
 1417000   0.96160158   -3.4798809   -3.4798809   -2.0374802  0.044372152   -3.4798809    1.4424007   878832 
 1418000   0.96226579   -3.4811242   -3.4811242   -2.0377271  0.044665454   -3.4811242     1.443397   878832 
 1419000   0.96242494     -3.48153     -3.48153   -2.0378943  0.039719358     -3.48153    1.4436358   878832 
 1420000   0.96251459   -3.4816133   -3.4816133   -2.0378431  0.042898856   -3.4816133    1.4437702   878832 
 1421000    0.9637503   -3.4823929   -3.4823929   -2.0367691  0.041319793   -3.4823929    1.4456238   878832 
 1422000   0.96353838   -3.4824403   -3.4824403   -2.0371343  0.045264267   -3.4824403    1.4453059   878832 
 1423000   0.96204183   -3.4798269   -3.4798269   -2.0367658  0.046358273   -3.4798269    1.4430611   878832 
 1424000   0.96319685   -3.4806817   -3.4806817   -2.0358881  0.044051058   -3.4806817    1.4447936   878832 
 1425000   0.96443448   -3.4817597   -3.4817597   -2.0351096  0.042118805   -3.4817597    1.4466501   878832 
 1426000   0.96456947   -3.4812347   -3.4812347   -2.0343821  0.043325686   -3.4812347    1.4468526   878832 
 1427000   0.96446519   -3.4812122   -3.4812122   -2.0345161   0.03888638   -3.4812122    1.4466961   878832 
 1428000   0.96478166   -3.4811719   -3.4811719    -2.034001  0.044016729   -3.4811719    1.4471708   878832 
 1429000   0.96472512   -3.4804967   -3.4804967   -2.0334107  0.037918731   -3.4804967     1.447086   878832 
 1430000   0.96398292   -3.4800924   -3.4800924   -2.0341196  0.041960699   -3.4800924    1.4459727   878832 
 1431000   0.96439368   -3.4804441   -3.4804441   -2.0338552  0.042860246   -3.4804441    1.4465889   878832 
 1432000   0.96328819   -3.4799765   -3.4799765   -2.0350459  0.042187235   -3.4799765    1.4449306   878832 
 1433000   0.96342094   -3.4794759   -3.4794759   -2.0343462  0.043641782   -3.4794759    1.4451298   878832 
 1434000   0.96319292   -3.4786487   -3.4786487    -2.033861  0.043687518   -3.4786487    1.4447877   878832 
 1435000   0.96420092   -3.4797089   -3.4797089   -2.0334092  0.040679858   -3.4797089    1.4462997   878832 
 1436000   0.96395375   -3.4797378   -3.4797378   -2.0338088  0.045355734   -3.4797378     1.445929   878832 
 1437000    0.9627882   -3.4785183   -3.4785183   -2.0343376  0.044056407   -3.4785183    1.4441807   878832 
 1438000   0.96404468   -3.4802414   -3.4802414    -2.034176  0.037508093   -3.4802414    1.4460654   878832 
 1439000   0.96295896   -3.4786986   -3.4786986   -2.0342618  0.043873974   -3.4786986    1.4444368   878832 
 1440000   0.96276791   -3.4787967   -3.4787967   -2.0346465  0.043072198   -3.4787967    1.4441502   878832 
 1441000   0.96310135   -3.4792803   -3.4792803   -2.0346299  0.042455118   -3.4792803    1.4446504   878832 
 1442000   0.96345783    -3.480171    -3.480171   -2.0349859  0.040453975    -3.480171    1.4451851   878832 
 1443000   0.96274105   -3.4789703   -3.4789703   -2.0348604  0.044040309   -3.4789703    1.4441099   878832 
 1444000   0.96235259   -3.4786472   -3.4786472     -2.03512  0.042956543   -3.4786472    1.4435272   878832 
 1445000   0.96335566   -3.4799434   -3.4799434   -2.0349115  0.041100223   -3.4799434    1.4450318   878832 
 1446000   0.96285302   -3.4790144   -3.4790144   -2.0347365  0.040863104   -3.4790144    1.4442779   878832 
 1447000   0.96428837   -3.4804705   -3.4804705   -2.0340396  0.043169119   -3.4804705    1.4464309   878832 
 1448000   0.96467997   -3.4812334   -3.4812334   -2.0342151  0.040870296   -3.4812334    1.4470183   878832 
 1449000   0.96487633   -3.4802572   -3.4802572   -2.0329444  0.043495028   -3.4802572    1.4473129   878832 
 1450000   0.96500942   -3.4803867   -3.4803867   -2.0328742  0.043332755   -3.4803867    1.4475125   878832 
 1451000   0.96617639   -3.4813418   -3.4813418   -2.0320789  0.044285041   -3.4813418    1.4492629   878832 
 1452000   0.96568011   -3.4805406   -3.4805406   -2.0320221   0.05001946   -3.4805406    1.4485185   878832 
 1453000   0.96619293   -3.4826463   -3.4826463   -2.0333586  0.045003526   -3.4826463    1.4492877   878832 
 1454000   0.96497427   -3.4805773   -3.4805773   -2.0331176   0.04736258   -3.4805773    1.4474598   878832 
 1455000   0.96609902   -3.4804452   -3.4804452   -2.0312983  0.048392681   -3.4804452    1.4491469   878832 
 1456000   0.96534979   -3.4798647   -3.4798647   -2.0318417  0.045042369   -3.4798647     1.448023   878832 
 1457000   0.96539566   -3.4810884   -3.4810884   -2.0329965  0.042669657   -3.4810884    1.4480918   878832 
 1458000   0.96564254   -3.4804016   -3.4804016   -2.0319395  0.046209117   -3.4804016    1.4484622   878832 
 1459000   0.96516211   -3.4805302   -3.4805302   -2.0327887  0.046701525   -3.4805302    1.4477415   878832 
 1460000    0.9659878   -3.4815733   -3.4815733   -2.0325933  0.038864371   -3.4815733    1.4489801   878832 
 1461000   0.96498484   -3.4802703   -3.4802703   -2.0327947  0.048104351   -3.4802703    1.4474756   878832 
 1462000   0.96569022   -3.4814236   -3.4814236   -2.0328899   0.04662002   -3.4814236    1.4485337   878832 
 1463000   0.96592862   -3.4809301   -3.4809301   -2.0320389  0.045952266   -3.4809301    1.4488913   878832 
 1464000   0.96586482     -3.48055     -3.48055   -2.0317544  0.043916464     -3.48055    1.4487956   878832 
 1465000   0.96595281   -3.4800551   -3.4800551   -2.0311275  0.041876457   -3.4800551    1.4489276   878832 
 1466000   0.96621628   -3.4810148   -3.4810148    -2.031692   0.04244578   -3.4810148    1.4493228   878832 
 1467000   0.96519845   -3.4793991   -3.4793991   -2.0316031  0.041588564   -3.4793991     1.447796   878832 
 1468000   0.96456248   -3.4781073   -3.4781073   -2.0312652  0.043676973   -3.4781073    1.4468421   878832 
 1469000   0.96477567   -3.4773791   -3.4773791   -2.0302172  0.046093989   -3.4773791    1.4471619   878832 
 1470000   0.96515702   -3.4780962   -3.4780962   -2.0303623  0.045654857   -3.4780962    1.4477339   878832 
 1471000   0.96517974     -3.47722     -3.47722   -2.0294521  0.049978896     -3.47722     1.447768   878832 
 1472000   0.96489416   -3.4771961   -3.4771961   -2.0298565  0.046260366   -3.4771961    1.4473396   878832 
 1473000   0.96545039   -3.4772086   -3.4772086   -2.0290347  0.046186954   -3.4772086    1.4481739   878832 
 1474000   0.96466178    -3.476081    -3.476081     -2.02909  0.048818786    -3.476081     1.446991   878832 
 1475000    0.9644467   -3.4763302   -3.4763302   -2.0296618  0.041788565   -3.4763302    1.4466684   878832 
 1476000   0.96444794   -3.4752279   -3.4752279   -2.0285577   0.04564176   -3.4752279    1.4466703   878832 
 1477000   0.96437008   -3.4746954   -3.4746954   -2.0281419  0.044482862   -3.4746954    1.4465535   878832 
 1478000   0.96513236   -3.4755009   -3.4755009    -2.027804  0.043438212   -3.4755009    1.4476969   878832 
 1479000   0.96322669   -3.4735732   -3.4735732   -2.0287348  0.042906792   -3.4735732    1.4448384   878832 
 1480000   0.96463647   -3.4750257   -3.4750257   -2.0280726  0.044119449   -3.4750257    1.4469531   878832 
 1481000   0.96351718   -3.4737262   -3.4737262   -2.0284521  0.041668451   -3.4737262    1.4452741   878832 
 1482000   0.96357619   -3.4729853   -3.4729853   -2.0276227  0.043458293   -3.4729853    1.4453626   878832 
 1483000    0.9642578    -3.474097    -3.474097    -2.027712  0.041382399    -3.474097    1.4463851   878832 
 1484000   0.96533777   -3.4755419   -3.4755419   -2.0275369  0.040349548   -3.4755419     1.448005   878832 
 1485000   0.96360395   -3.4728182   -3.4728182    -2.027414  0.039435236   -3.4728182    1.4454043   878832 
 1486000   0.96304124   -3.4728691   -3.4728691   -2.0283089  0.039687899   -3.4728691    1.4445602   878832 
 1487000   0.96361498   -3.4739191   -3.4739191   -2.0284983  0.038099341   -3.4739191    1.4454208   878832 
 1488000   0.96314933   -3.4735618   -3.4735618   -2.0288394  0.039228007   -3.4735618    1.4447224   878832 
 1489000    0.9642724   -3.4742082   -3.4742082   -2.0278013  0.042399696   -3.4742082     1.446407   878832 
 1490000   0.96374254   -3.4740433   -3.4740433   -2.0284312  0.040852399   -3.4740433    1.4456122   878832 
 1491000   0.96362875    -3.472684    -3.472684   -2.0272425  0.043370192    -3.472684    1.4454415   878832 
 1492000   0.96454948    -3.473626    -3.473626   -2.0268034  0.044102321    -3.473626    1.4468226   878832 
 1493000   0.96493873   -3.4742709   -3.4742709   -2.0268644  0.041852396   -3.4742709    1.4474065   878832 
 1494000   0.96431147   -3.4733868   -3.4733868   -2.0269212  0.044063081   -3.4733868    1.4464656   878832 
 1495000   0.96482218   -3.4735362   -3.4735362   -2.0263046  0.045727123   -3.4735362    1.4472316   878832 
 1496000   0.96569123   -3.4748491   -3.4748491   -2.0263139  0.041298695   -3.4748491    1.4485352   878832 
 1497000   0.96484127   -3.4734654   -3.4734654   -2.0262052  0.045378812   -3.4734654    1.4472603   878832 
 1498000   0.96479131   -3.4731404   -3.4731404   -2.0259551  0.049443539   -3.4731404    1.4471853   878832 
 1499000   0.96440989    -3.472807    -3.472807   -2.0261938  0.044999239    -3.472807    1.4466132   878832 
 1500000   0.96521095   -3.4730742   -3.4730742   -2.0252594  0.044095417   -3.4730742    1.4478148   878832 
 1501000   0.96594259   -3.4741856   -3.4741856   -2.0252733  0.045756442   -3.4741856    1.4489122   878832 
 1502000   0.96558396   -3.4735618   -3.4735618   -2.0251875  0.048499138   -3.4735618    1.4483743   878832 
 1503000    0.9650405   -3.4744458   -3.4744458   -2.0268867  0.047254079   -3.4744458    1.4475591   878832 
 1504000   0.96536158   -3.4741328   -3.4741328   -2.0260921  0.048281941   -3.4741328    1.4480407   878832 
 1505000   0.96551805   -3.4744753   -3.4744753   -2.0261999  0.042321946   -3.4744753    1.4482754   878832 
 1506000   0.96536753   -3.4737778   -3.4737778   -2.0257282  0.047042346   -3.4737778    1.4480496   878832 
 1507000   0.96534167   -3.4745113   -3.4745113   -2.0265004  0.046421477   -3.4745113    1.4480109   878832 
 1508000   0.96595207   -3.4751753   -3.4751753   -2.0262488  0.044837787   -3.4751753    1.4489265   878832 
 1509000   0.96582302   -3.4748497   -3.4748497   -2.0261168  0.040976573   -3.4748497    1.4487329   878832 
 1510000   0.96606241   -3.4745658   -3.4745658   -2.0254738  0.042779216   -3.4745658     1.449092   878832 
 1511000   0.96491994   -3.4726093   -3.4726093    -2.025231   0.04691021   -3.4726093    1.4473783   878832 
 1512000   0.96558243   -3.4735951   -3.4735951   -2.0252231  0.042561238   -3.4735951     1.448372   878832 
 1513000   0.96564978   -3.4731209   -3.4731209   -2.0246478  0.043763046   -3.4731209     1.448473   878832 
 1514000   0.96606436   -3.4741062   -3.4741062   -2.0250113  0.045136884   -3.4741062    1.4490949   878832 
 1515000   0.96657246   -3.4734178   -3.4734178   -2.0235608  0.045891018   -3.4734178     1.449857   878832 
 1516000   0.96643814   -3.4732751   -3.4732751   -2.0236196  0.044750366   -3.4732751    1.4496556   878832 
 1517000   0.96624599   -3.4736856   -3.4736856   -2.0243183  0.043710381   -3.4736856    1.4493673   878832 
 1518000   0.96659549   -3.4741555   -3.4741555   -2.0242639  0.039999694   -3.4741555    1.4498916   878832 
 1519000   0.96629489   -3.4738806   -3.4738806     -2.02444  0.042620982   -3.4738806    1.4494407   878832 
 1520000   0.96526614   -3.4713902   -3.4713902   -2.0234927  0.048229084   -3.4713902    1.4478976   878832 
 1521000   0.96471636   -3.4713245   -3.4713245   -2.0242516  0.042596521   -3.4713245    1.4470729   878832 
 1522000    0.9649445   -3.4705813   -3.4705813   -2.0231662  0.043136689   -3.4705813    1.4474151   878832 
 1523000   0.96557743   -3.4711149   -3.4711149   -2.0227504  0.042460787   -3.4711149    1.4483645   878832 
 1524000   0.96539376   -3.4718473   -3.4718473   -2.0237583  0.040013743   -3.4718473     1.448089   878832 
 1525000   0.96471848   -3.4701263   -3.4701263   -2.0230502  0.039535406   -3.4701263    1.4470761   878832 
 1526000   0.96473477    -3.469679    -3.469679   -2.0225785  0.045175757    -3.469679    1.4471005   878832 
 1527000   0.96438781   -3.4688385   -3.4688385   -2.0222584   0.04359276   -3.4688385    1.4465801   878832 
 1528000   0.96472625   -3.4693574   -3.4693574   -2.0222697  0.043392538   -3.4693574    1.4470877   878832 
 1529000   0.96438132   -3.4688659   -3.4688659   -2.0222955  0.043076877   -3.4688659    1.4465703   878832 
 1530000   0.96401244   -3.4679322   -3.4679322   -2.0219152  0.044318345   -3.4679322     1.446017   878832 
 1531000   0.96425802   -3.4675183   -3.4675183   -2.0211329  0.043633368   -3.4675183    1.4463854   878832 
 1532000    0.9659408   -3.4691113   -3.4691113   -2.0202017  0.040226384   -3.4691113    1.4489096   878832 
 1533000   0.96615395   -3.4688213   -3.4688213    -2.019592  0.042846265   -3.4688213    1.4492293   878832 
 1534000   0.96583179   -3.4683175   -3.4683175   -2.0195715   0.04767591   -3.4683175     1.448746   878832 
 1535000   0.96559971   -3.4685786   -3.4685786   -2.0201807  0.046617834   -3.4685786    1.4483979   878832 
 1536000   0.96583783   -3.4681555   -3.4681555   -2.0194004  0.043430753   -3.4681555    1.4487551   878832 
 1537000   0.96600793   -3.4689165   -3.4689165   -2.0199062  0.043448933   -3.4689165    1.4490102   878832 
 1538000   0.96580463   -3.4683681   -3.4683681   -2.0196628  0.044347409   -3.4683681    1.4487053   878832 
 1539000   0.96515544   -3.4668561   -3.4668561   -2.0191246  0.043756419   -3.4668561    1.4477315   878832 
 1540000   0.96453055   -3.4665678   -3.4665678   -2.0197736  0.043429404   -3.4665678    1.4467942   878832 
 1541000   0.96543555   -3.4672423   -3.4672423   -2.0190906  0.044888317   -3.4672423    1.4481517   878832 
 1542000   0.96559862   -3.4666422   -3.4666422   -2.0182459   0.04142496   -3.4666422    1.4483963   878832 
 1543000   0.96520275   -3.4667246   -3.4667246   -2.0189221  0.044296943   -3.4667246    1.4478025   878832 
 1544000   0.96485878    -3.465794    -3.465794   -2.0185075  0.046199029    -3.465794    1.4472865   878832 
 1545000   0.96443506   -3.4659697   -3.4659697   -2.0193188  0.042846692   -3.4659697    1.4466509   878832 
 1546000   0.96401275   -3.4658079   -3.4658079   -2.0197904  0.043228059   -3.4658079    1.4460175   878832 
 1547000   0.96553452   -3.4668669   -3.4668669   -2.0185668   0.04224392   -3.4668669    1.4483001   878832 
 1548000   0.96478809   -3.4657342   -3.4657342   -2.0185537  0.045192226   -3.4657342    1.4471805   878832 
 1549000    0.9663518   -3.4682172   -3.4682172   -2.0186911  0.044795698   -3.4682172    1.4495261   878832 
 1550000   0.96679072   -3.4692484   -3.4692484    -2.019064  0.040004759   -3.4692484    1.4501844   878832 
 1551000   0.96697497   -3.4684504   -3.4684504   -2.0179895   0.04101399   -3.4684504    1.4504608   878832 
 1552000   0.96632773   -3.4680967   -3.4680967   -2.0186067  0.048346148   -3.4680967      1.44949   878832 
 1553000   0.96628433   -3.4677911   -3.4677911   -2.0183663    0.0442976   -3.4677911    1.4494248   878832 
 1554000   0.96761006   -3.4701439   -3.4701439   -2.0187304  0.041704432   -3.4701439    1.4514134   878832 
 1555000   0.96633015   -3.4673741   -3.4673741   -2.0178805  0.046460528   -3.4673741    1.4494936   878832 
 1556000   0.96643354   -3.4680123   -3.4680123   -2.0183637   0.04242656   -3.4680123    1.4496487   878832 
 1557000    0.9673164   -3.4685729   -3.4685729      -2.0176  0.044009042   -3.4685729    1.4509729   878832 
 1558000   0.96701468   -3.4684199   -3.4684199   -2.0178995  0.044534226   -3.4684199    1.4505204   878832 
 1559000   0.96645531   -3.4677382   -3.4677382   -2.0180569  0.044475333   -3.4677382    1.4496813   878832 
 1560000   0.96563818   -3.4671439   -3.4671439   -2.0186883  0.047382121   -3.4671439    1.4484556   878832 
 1561000   0.96655627    -3.468445    -3.468445   -2.0186123  0.044541253    -3.468445    1.4498327   878832 
 1562000   0.96673914   -3.4682785   -3.4682785   -2.0181715  0.046882213   -3.4682785    1.4501071   878832 
 1563000   0.96725356   -3.4689356   -3.4689356   -2.0180569  0.042517421   -3.4689356    1.4508787   878832 
 1564000   0.96631592   -3.4671186   -3.4671186   -2.0176463  0.043193209   -3.4671186    1.4494722   878832 
 1565000   0.96722019   -3.4681578   -3.4681578   -2.0173292  0.046609752   -3.4681578    1.4508286   878832 
 1566000   0.96785461   -3.4693636   -3.4693636   -2.0175834  0.044627934   -3.4693636    1.4517803   878832 
 1567000   0.96718655   -3.4676929   -3.4676929   -2.0169147  0.046379007   -3.4676929    1.4507782   878832 
 1568000   0.96717078   -3.4675694   -3.4675694   -2.0168149   0.04637242   -3.4675694    1.4507545   878832 
 1569000   0.96668306    -3.466484    -3.466484    -2.016461   0.04625802    -3.466484    1.4500229   878832 
 1570000   0.96710136   -3.4678982   -3.4678982   -2.0172478  0.045801429   -3.4678982    1.4506504   878832 
 1571000   0.96748297   -3.4683442   -3.4683442   -2.0171214  0.045017216   -3.4683442    1.4512228   878832 
 1572000   0.96668741   -3.4667717   -3.4667717   -2.0167422  0.049541439   -3.4667717    1.4500295   878832 
 1573000    0.9672774   -3.4682035   -3.4682035    -2.017289  0.044371754   -3.4682035    1.4509144   878832 
 1574000   0.96755089   -3.4679314   -3.4679314   -2.0166067  0.046684157   -3.4679314    1.4513247   878832 
 1575000   0.96676665    -3.466439    -3.466439   -2.0162907  0.047568775    -3.466439    1.4501483   878832 
 1576000   0.96721984   -3.4668461   -3.4668461   -2.0160179  0.045315369   -3.4668461    1.4508281   878832 
 1577000   0.96633171   -3.4656229   -3.4656229   -2.0161269  0.043918173   -3.4656229    1.4494959   878832 
 1578000   0.96607331   -3.4652568   -3.4652568   -2.0161484  0.043250869   -3.4652568    1.4491083   878832 
 1579000   0.96603038   -3.4649349   -3.4649349    -2.015891  0.044072122   -3.4649349    1.4490439   878832 
 1580000   0.96706342   -3.4660637   -3.4660637   -2.0154702  0.044295885   -3.4660637    1.4505935   878832 
 1581000   0.96643728   -3.4644949   -3.4644949   -2.0148406  0.045972715   -3.4644949    1.4496543   878832 
 1582000   0.96638675   -3.4644279   -3.4644279   -2.0148495  0.045047919   -3.4644279    1.4495785   878832 
 1583000   0.96597389   -3.4638019   -3.4638019   -2.0148428  0.045632956   -3.4638019    1.4489592   878832 
 1584000   0.96596285   -3.4635737   -3.4635737    -2.014631   0.03993516   -3.4635737    1.4489426   878832 
 1585000   0.96684799   -3.4647157   -3.4647157   -2.0144454  0.043941738   -3.4647157    1.4502703   878832 
 1586000   0.96699138   -3.4651174   -3.4651174    -2.014632  0.045966446   -3.4651174    1.4504854   878832 
 1587000   0.96655973   -3.4639938   -3.4639938   -2.0141558   0.04467499   -3.4639938    1.4498379   878832 
 1588000   0.96546427   -3.4628492   -3.4628492   -2.0146545  0.047077539   -3.4628492    1.4481948   878832 
 1589000   0.96589437   -3.4630132   -3.4630132   -2.0141733  0.046335141   -3.4630132    1.4488399   878832 
 1590000    0.9661152    -3.462817    -3.462817   -2.0136459  0.045458166    -3.462817    1.4491712   878832 
 1591000   0.96606034   -3.4630662   -3.4630662   -2.0139773  0.044791798   -3.4630662    1.4490889   878832 
 1592000   0.96494045   -3.4600785   -3.4600785   -2.0126694  0.044029165   -3.4600785     1.447409   878832 
 1593000   0.96596758   -3.4618684   -3.4618684   -2.0129187  0.044417302   -3.4618684    1.4489497   878832 
 1594000   0.96731342   -3.4632561   -3.4632561   -2.0122876  0.043154544   -3.4632561    1.4509685   878832 
 1595000   0.96622987   -3.4615457   -3.4615457   -2.0122026  0.045890098   -3.4615457    1.4493432   878832 
 1596000   0.96637352   -3.4619925   -3.4619925   -2.0124339  0.043446555   -3.4619925    1.4495586   878832 
 1597000   0.96615713   -3.4619679   -3.4619679   -2.0127339  0.044751309   -3.4619679    1.4492341   878832 
 1598000   0.96693578   -3.4620376   -3.4620376   -2.0116356   0.05028308   -3.4620376     1.450402   878832 
 1599000   0.96693327   -3.4621888   -3.4621888   -2.0117905  0.046396984   -3.4621888    1.4503983   878832 
 1600000   0.96780111   -3.4622094   -3.4622094   -2.0105094  0.047912514   -3.4622094       1.4517   878832 
 1601000   0.96712618   -3.4609588   -3.4609588   -2.0102712  0.045542116   -3.4609588    1.4506876   878832 
 1602000   0.96724944   -3.4612727   -3.4612727   -2.0104002  0.044092218   -3.4612727    1.4508725   878832 
 1603000   0.96768341   -3.4617029   -3.4617029   -2.0101794  0.045574023   -3.4617029    1.4515235   878832 
 1604000   0.96889811   -3.4634958   -3.4634958   -2.0101502  0.046508286   -3.4634958    1.4533455   878832 
 1605000   0.96752214   -3.4620268   -3.4620268   -2.0107452   0.04860211   -3.4620268    1.4512816   878832 
 1606000   0.96767992   -3.4614197   -3.4614197   -2.0099014  0.048734855   -3.4614197    1.4515182   878832 
 1607000   0.96882331   -3.4627099   -3.4627099   -2.0094766  0.038461519   -3.4627099    1.4532333   878832 
 1608000   0.96757967   -3.4612275   -3.4612275   -2.0098597  0.043652952   -3.4612275    1.4513679   878832 
 1609000   0.96830771   -3.4614443   -3.4614443   -2.0089843   0.04666596   -3.4614443    1.4524599   878832 
 1610000   0.96741495   -3.4608292   -3.4608292   -2.0097084  0.047537962   -3.4608292    1.4511208   878832 
 1611000   0.96711648   -3.4606244   -3.4606244   -2.0099514  0.042233496   -3.4606244    1.4506731   878832 
 1612000   0.96821617   -3.4608306   -3.4608306    -2.008508  0.047704015   -3.4608306    1.4523226   878832 
 1613000   0.96914052   -3.4623401   -3.4623401   -2.0086309  0.043055856   -3.4623401    1.4537091   878832 
 1614000   0.96681961   -3.4595104   -3.4595104   -2.0092827  0.042212585   -3.4595104    1.4502278   878832 
 1615000   0.96732389   -3.4607169   -3.4607169   -2.0097327   0.04317251   -3.4607169    1.4509842   878832 
 1616000   0.96776401   -3.4617409   -3.4617409   -2.0100965  0.042992639   -3.4617409    1.4516444   878832 
 1617000   0.96578774     -3.45945     -3.45945     -2.01077  0.044851089     -3.45945      1.44868   878832 
 1618000   0.96565278   -3.4591919   -3.4591919   -2.0107144  0.043560801   -3.4591919    1.4484775   878832 
 1619000    0.9664369   -3.4593545   -3.4593545   -2.0097008  0.041226645   -3.4593545    1.4496537   878832 
 1620000   0.96672853   -3.4598037   -3.4598037   -2.0097126  0.043024744   -3.4598037    1.4500911   878832 
 1621000   0.96693378   -3.4593238   -3.4593238   -2.0089248  0.046027941   -3.4593238     1.450399   878832 
 1622000   0.96677336   -3.4590403   -3.4590403   -2.0088819  0.044167908   -3.4590403    1.4501584   878832 
 1623000    0.9664309   -3.4583085   -3.4583085   -2.0086638  0.043438948   -3.4583085    1.4496447   878832 
 1624000   0.96698624   -3.4586642   -3.4586642   -2.0081865  0.045269409   -3.4586642    1.4504777   878832 
 1625000   0.96682067   -3.4588088   -3.4588088   -2.0085795  0.045800949   -3.4588088    1.4502294   878832 
 1626000   0.96698326   -3.4584235   -3.4584235   -2.0079502  0.050797803   -3.4584235    1.4504732   878832 
 1627000   0.96853321   -3.4610104   -3.4610104   -2.0082123  0.042395952   -3.4610104    1.4527982   878832 
 1628000   0.96796885   -3.4589255   -3.4589255   -2.0069739  0.043711773   -3.4589255    1.4519516   878832 
 1629000   0.96726718   -3.4568143   -3.4568143   -2.0059152  0.045275888   -3.4568143    1.4508991   878832 
 1630000   0.96762243   -3.4577073   -3.4577073   -2.0062753  0.043525835   -3.4577073     1.451432   878832 
 1631000   0.96834979   -3.4581258   -3.4581258   -2.0056027  0.043642057   -3.4581258     1.452523   878832 
 1632000   0.96767512   -3.4569798   -3.4569798   -2.0054688  0.044181593   -3.4569798     1.451511   878832 
 1633000   0.96775145   -3.4574725   -3.4574725    -2.005847  0.045508343   -3.4574725    1.4516255   878832 
 1634000   0.96746836   -3.4583808   -3.4583808   -2.0071799  0.048280865   -3.4583808    1.4512009   878832 
 1635000   0.96866292   -3.4599235   -3.4599235   -2.0069308  0.047305465   -3.4599235    1.4529927   878832 
 1636000   0.96764228    -3.458714    -3.458714   -2.0072522   0.04587907    -3.458714    1.4514618   878832 
 1637000   0.96818726   -3.4594688   -3.4594688   -2.0071896  0.041497388   -3.4594688    1.4522792   878832 
 1638000   0.96718258   -3.4571413   -3.4571413   -2.0063691  0.045749373   -3.4571413    1.4507722   878832 
 1639000   0.96817026   -3.4575326   -3.4575326   -2.0052789  0.045691731   -3.4575326    1.4522537   878832 
 1640000   0.96742216   -3.4561771   -3.4561771   -2.0050455  0.047529707   -3.4561771    1.4511316   878832 
 1641000   0.96721937    -3.456494    -3.456494   -2.0056666  0.043665103    -3.456494    1.4508274   878832 
 1642000   0.96773887   -3.4565801   -3.4565801   -2.0049734  0.045890553   -3.4565801    1.4516067   878832 
 1643000   0.96654004   -3.4550283   -3.4550283   -2.0052199  0.043152727   -3.4550283    1.4498084   878832 
 1644000   0.96747637   -3.4559392   -3.4559392   -2.0047263  0.046129436   -3.4559392    1.4512129   878832 
 1645000   0.96752582   -3.4562519   -3.4562519   -2.0049648  0.045291841   -3.4562519    1.4512871   878832 
 1646000   0.96731166   -3.4553091   -3.4553091   -2.0043433  0.048711901   -3.4553091    1.4509658   878832 
 1647000   0.96740795   -3.4560631   -3.4560631   -2.0049528  0.047392972   -3.4560631    1.4511103   878832 
 1648000     0.968074   -3.4568274   -3.4568274    -2.004718  0.044299588   -3.4568274    1.4521093   878832 
 1649000   0.96782729   -3.4568445   -3.4568445   -2.0051053  0.042571317   -3.4568445    1.4517393   878832 
 1650000   0.96735533   -3.4554715   -3.4554715   -2.0044402  0.044670689   -3.4554715    1.4510313   878832 
 1651000   0.96765729   -3.4558102   -3.4558102   -2.0043259  0.046175907   -3.4558102    1.4514843   878832 
 1652000   0.96741335   -3.4552314   -3.4552314    -2.004113  0.044890875   -3.4552314    1.4511184   878832 
 1653000   0.96678029   -3.4545544   -3.4545544   -2.0043856  0.043776814   -3.4545544    1.4501688   878832 
 1654000   0.96779189   -3.4558196   -3.4558196   -2.0041334  0.043233176   -3.4558196    1.4516862   878832 
 1655000   0.96866704   -3.4567849   -3.4567849    -2.003786  0.041208348   -3.4567849    1.4529989   878832 
 1656000   0.96853908   -3.4564834   -3.4564834   -2.0036765   0.04631017   -3.4564834     1.452807   878832 
 1657000   0.96620155   -3.4530093   -3.4530093   -2.0037086  0.046497678   -3.4530093    1.4493007   878832 
 1658000   0.96807499   -3.4556339   -3.4556339   -2.0035231  0.048397317   -3.4556339    1.4521108   878832 
 1659000    0.9685718   -3.4553376   -3.4553376   -2.0024816  0.047054484   -3.4553376    1.4528561   878832 
 1660000   0.96867111   -3.4554881   -3.4554881   -2.0024831  0.048195243   -3.4554881     1.453005   878832 
 1661000   0.96826952   -3.4547247   -3.4547247    -2.002322  0.046031224   -3.4547247    1.4524026   878832 
 1662000   0.96818045   -3.4547799   -3.4547799   -2.0025109  0.050909184   -3.4547799     1.452269   878832 
 1663000   0.96799487   -3.4550397   -3.4550397   -2.0030491  0.046907701   -3.4550397    1.4519906   878832 
 1664000   0.96804421   -3.4561543   -3.4561543   -2.0040896  0.043243703   -3.4561543    1.4520647   878832 
 1665000   0.96827375   -3.4564114   -3.4564114   -2.0040025  0.041683128   -3.4564114     1.452409   878832 
 1666000   0.96682896   -3.4533669   -3.4533669   -2.0031251  0.043699476   -3.4533669    1.4502418   878832 
 1667000   0.96867475   -3.4563326   -3.4563326   -2.0033221  0.046805798   -3.4563326    1.4530105   878832 
 1668000   0.96739371   -3.4546736   -3.4546736   -2.0035847  0.046820978   -3.4546736    1.4510889   878832 
 1669000   0.96695204    -3.454714    -3.454714   -2.0042876  0.043136741    -3.454714    1.4504264   878832 
 1670000   0.96708629   -3.4540678   -3.4540678     -2.00344  0.045292679   -3.4540678    1.4506278   878832 
 1671000   0.96676605   -3.4528614   -3.4528614    -2.002714  0.045312711   -3.4528614    1.4501474   878832 
 1672000   0.96705186   -3.4538835   -3.4538835   -2.0033073  0.041167801   -3.4538835    1.4505761   878832 
 1673000   0.96748511   -3.4539216   -3.4539216   -2.0026956  0.045049112   -3.4539216     1.451226   878832 
 1674000   0.96823442   -3.4542964   -3.4542964   -2.0019464  0.042845414   -3.4542964      1.45235   878832 
 1675000   0.96772006      -3.4539      -3.4539   -2.0023216   0.04537878      -3.4539    1.4515784   878832 
 1676000   0.96713306   -3.4538128   -3.4538128   -2.0031149  0.044885465   -3.4538128    1.4506979   878832 
 1677000   0.96736255   -3.4537714   -3.4537714   -2.0027293  0.047053793   -3.4537714    1.4510422   878832 
 1678000   0.96882348   -3.4546984   -3.4546984   -2.0014648   0.04226347   -3.4546984    1.4532336   878832 
 1679000    0.9681927   -3.4544463   -3.4544463   -2.0021589  0.044965275   -3.4544463    1.4522874   878832 
 1680000   0.96927258   -3.4557392   -3.4557392    -2.001832  0.044079906   -3.4557392    1.4539072   878832 
 1681000   0.96851018   -3.4543662   -3.4543662   -2.0016025  0.047606291   -3.4543662    1.4527636   878832 
 1682000   0.96822326   -3.4540827   -3.4540827   -2.0017495  0.046118724   -3.4540827    1.4523332   878832 
 1683000   0.96834866   -3.4536688   -3.4536688   -2.0011475  0.047625302   -3.4536688    1.4525213   878832 
 1684000   0.96782465   -3.4529996   -3.4529996   -2.0012643  0.044460349   -3.4529996    1.4517353   878832 
 1685000   0.96858049   -3.4541514   -3.4541514   -2.0012823   0.04484814   -3.4541514    1.4528691   878832 
 1686000   0.96873603   -3.4538569   -3.4538569   -2.0007545  0.047012281   -3.4538569    1.4531024   878832 
 1687000    0.9682514   -3.4527305   -3.4527305   -2.0003551  0.048077502   -3.4527305    1.4523754   878832 
 1688000   0.96934835   -3.4542341   -3.4542341   -2.0002132  0.042967443   -3.4542341    1.4540209   878832 
 1689000   0.96883614   -3.4533227   -3.4533227   -2.0000702  0.042904552   -3.4533227    1.4532526   878832 
 1690000   0.96814746   -3.4518938   -3.4518938   -1.9996742  0.047948675   -3.4518938    1.4522195   878832 
 1691000    0.9680633   -3.4522056   -3.4522056   -2.0001123  0.047930241   -3.4522056    1.4520933   878832 
 1692000   0.96898461   -3.4532628   -3.4532628   -1.9997876  0.045649572   -3.4532628    1.4534753   878832 
 1693000   0.96883842   -3.4542067   -3.4542067   -2.0009508  0.044652342   -3.4542067     1.453256   878832 
 1694000   0.96888363   -3.4532918   -3.4532918    -1.999968  0.046175491   -3.4532918    1.4533238   878832 
 1695000   0.96842635   -3.4534714   -3.4534714   -2.0008335  0.046601461   -3.4534714    1.4526379   878832 
 1696000   0.96844294   -3.4531549   -3.4531549   -2.0004921  0.041126768   -3.4531549    1.4526628   878832 
 1697000   0.96793487   -3.4519528   -3.4519528   -2.0000521  0.048422837   -3.4519528    1.4519007   878832 
 1698000   0.96819424   -3.4527825   -3.4527825   -2.0004928  0.045025352   -3.4527825    1.4522897   878832 
 1699000   0.96750687   -3.4516314   -3.4516314   -2.0003727  0.042541413   -3.4516314    1.4512586   878832 
 1700000   0.96768591    -3.450697    -3.450697   -1.9991698    0.0464532    -3.450697    1.4515272   878832 
 1701000    0.9677326   -3.4498271   -3.4498271   -1.9982298  0.039672898   -3.4498271    1.4515973   878832 
 1702000    0.9680274   -3.4499887   -3.4499887   -1.9979493  0.044627779   -3.4499887    1.4520394   878832 
 1703000   0.96783085   -3.4498562   -3.4498562   -1.9981116  0.046768369   -3.4498562    1.4517446   878832 
 1704000   0.96755019    -3.450102    -3.450102   -1.9987784   0.04401742    -3.450102    1.4513236   878832 
 1705000   0.96932964   -3.4514537   -3.4514537   -1.9974609  0.042919643   -3.4514537    1.4539928   878832 
 1706000   0.96855883   -3.4515377   -3.4515377   -1.9987011  0.047525984   -3.4515377    1.4528366   878832 
 1707000   0.96808637    -3.449538    -3.449538   -1.9974101   0.04691065    -3.449538    1.4521279   878832 
 1708000   0.96874479   -3.4510704   -3.4510704   -1.9979548  0.045328972   -3.4510704    1.4531155   878832 
 1709000   0.96848677   -3.4500106   -3.4500106   -1.9972821  0.044561144   -3.4500106    1.4527285   878832 
 1710000   0.96897356   -3.4502901   -3.4502901   -1.9968314  0.043705236   -3.4502901    1.4534587   878832 
 1711000   0.96874053   -3.4491466   -3.4491466   -1.9960375  0.045499077   -3.4491466    1.4531091   878832 
 1712000   0.96766135   -3.4474378   -3.4474378   -1.9959474  0.044948185   -3.4474378    1.4514904   878832 
 1713000   0.96857295      -3.4485      -3.4485   -1.9956422  0.048851784      -3.4485    1.4528578   878832 
 1714000   0.96864205   -3.4489007   -3.4489007   -1.9959393  0.045076662   -3.4489007    1.4529614   878832 
 1715000   0.96833039   -3.4485565   -3.4485565   -1.9960625  0.047649257   -3.4485565    1.4524939   878832 
 1716000   0.96788619   -3.4490515   -3.4490515   -1.9972239  0.041156903   -3.4490515    1.4518276   878832 
 1717000   0.96752236   -3.4479165   -3.4479165   -1.9966346  0.046731116   -3.4479165    1.4512819   878832 
 1718000   0.96722889   -3.4474858   -3.4474858   -1.9966441  0.048012911   -3.4474858    1.4508417   878832 
 1719000   0.96716369   -3.4474974   -3.4474974   -1.9967535  0.048249999   -3.4474974    1.4507439   878832 
 1720000   0.96785286   -3.4488575   -3.4488575   -1.9970799  0.042525758   -3.4488575    1.4517776   878832 
 1721000   0.96878038   -3.4496427   -3.4496427   -1.9964738  0.043050066   -3.4496427    1.4531689   878832 
 1722000   0.96874865   -3.4496504   -3.4496504   -1.9965291   0.04477369   -3.4496504    1.4531213   878832 
 1723000   0.96844516   -3.4485167   -3.4485167   -1.9958506  0.042876086   -3.4485167    1.4526661   878832 
 1724000   0.96885973   -3.4488591   -3.4488591   -1.9955712  0.045538576   -3.4488591    1.4532879   878832 
 1725000   0.96842462   -3.4486515   -3.4486515   -1.9960163  0.046030766   -3.4486515    1.4526353   878832 
 1726000   0.96881083   -3.4485452   -3.4485452   -1.9953306  0.044263759   -3.4485452    1.4532146   878832 
 1727000   0.96944531   -3.4485727   -3.4485727   -1.9944064  0.047554811   -3.4485727    1.4541663   878832 
 1728000   0.96959733   -3.4483752   -3.4483752   -1.9939809  0.046545867   -3.4483752    1.4543943   878832 
 1729000   0.96801585   -3.4476147   -3.4476147   -1.9955925  0.051985539   -3.4476147    1.4520221   878832 
 1730000   0.96925601    -3.449404    -3.449404   -1.9955216  0.050675122    -3.449404    1.4538824   878832 
 1731000   0.97025698   -3.4509503   -3.4509503   -1.9955665  0.046145217   -3.4509503    1.4553838   878832 
 1732000   0.96972428   -3.4496474   -3.4496474   -1.9950626  0.043548285   -3.4496474    1.4545848   878832 
 1733000   0.96883901   -3.4490381   -3.4490381   -1.9957813  0.045382348   -3.4490381    1.4532569   878832 
 1734000   0.96936274   -3.4490306   -3.4490306   -1.9949882  0.044848456   -3.4490306    1.4540425   878832 
 1735000   0.96883103   -3.4488168   -3.4488168   -1.9955719  0.047689221   -3.4488168    1.4532449   878832 
 1736000   0.96884896   -3.4492386   -3.4492386   -1.9959668  0.046835345   -3.4492386    1.4532718   878832 
 1737000   0.96767152   -3.4475594   -3.4475594   -1.9960537  0.047107783   -3.4475594    1.4515056   878832 
 1738000   0.96911523   -3.4499142   -3.4499142    -1.996243  0.044191757   -3.4499142    1.4536712   878832 
 1739000   0.96917352   -3.4501309   -3.4501309   -1.9963723  0.044879138   -3.4501309    1.4537586   878832 
 1740000   0.96842617   -3.4484929   -3.4484929   -1.9958553  0.051254114   -3.4484929    1.4526376   878832 
 1741000   0.96969004    -3.450369    -3.450369   -1.9958356  0.044524535    -3.450369    1.4545334   878832 
 1742000    0.9697868   -3.4508807   -3.4508807   -1.9962022  0.047282326   -3.4508807    1.4546785   878832 
 1743000   0.96945184   -3.4501711   -3.4501711   -1.9959949  0.049458645   -3.4501711    1.4541761   878832 
 1744000   0.96786775   -3.4471141   -3.4471141   -1.9953141  0.050456738   -3.4471141       1.4518   878832 
 1745000   0.96962225   -3.4495463   -3.4495463   -1.9951146   0.04371428   -3.4495463    1.4544317   878832 
 1746000   0.96850816   -3.4478528   -3.4478528   -1.9950922  0.045167171   -3.4478528    1.4527606   878832 
 1747000   0.97022534     -3.45107     -3.45107   -1.9957336   0.04566902     -3.45107    1.4553364   878832 
 1748000   0.96917672   -3.4495378   -3.4495378   -1.9957743  0.045996466   -3.4495378    1.4537634   878832 
 1749000   0.96865633   -3.4488046   -3.4488046   -1.9958217  0.047106577   -3.4488046    1.4529828   878832 
 1750000   0.96906127   -3.4496239   -3.4496239   -1.9960336  0.045650913   -3.4496239    1.4535903   878832 
 1751000   0.96920272    -3.449124    -3.449124   -1.9953216  0.046329357    -3.449124    1.4538024   878832 
 1752000   0.96847349   -3.4479789   -3.4479789   -1.9952703  0.044917563   -3.4479789    1.4527086   878832 
 1753000   0.96895573   -3.4481445   -3.4481445   -1.9947126  0.048563535   -3.4481445    1.4534319   878832 
 1754000   0.96991005   -3.4484768   -3.4484768   -1.9936134    0.0470535   -3.4484768    1.4548634   878832 
 1755000   0.97066957    -3.449902    -3.449902   -1.9938993  0.044875846    -3.449902    1.4560027   878832 
 1756000   0.97042578   -3.4492028   -3.4492028   -1.9935658  0.042908627   -3.4492028     1.455637   878832 
 1757000    0.9696506   -3.4477681   -3.4477681   -1.9932938  0.049668139   -3.4477681    1.4544742   878832 
 1758000   0.96936921   -3.4466579   -3.4466579   -1.9926057  0.046349369   -3.4466579    1.4540522   878832 
 1759000   0.97054614   -3.4481759   -3.4481759   -1.9923584  0.044900586   -3.4481759    1.4558176   878832 
 1760000   0.97084184   -3.4495724   -3.4495724   -1.9933113  0.046628242   -3.4495724    1.4562611   878832 
 1761000   0.96981039   -3.4479535   -3.4479535   -1.9932395  0.052783499   -3.4479535    1.4547139   878832 
 1762000   0.96999542   -3.4476173   -3.4476173   -1.9926259  0.047015134   -3.4476173    1.4549915   878832 
 1763000    0.9707436   -3.4484176   -3.4484176   -1.9923038  0.048034557   -3.4484176    1.4561137   878832 
 1764000   0.97073562   -3.4480454   -3.4480454   -1.9919436  0.044762445   -3.4480454    1.4561018   878832 
 1765000   0.97005254   -3.4472734   -3.4472734   -1.9921962  0.047209457   -3.4472734    1.4550771   878832 
 1766000   0.96952493   -3.4463413   -3.4463413   -1.9920556  0.051338967   -3.4463413    1.4542857   878832 
 1767000   0.96928356   -3.4462754   -3.4462754   -1.9923517  0.044133782   -3.4462754    1.4539237   878832 
 1768000   0.96917848     -3.44667     -3.44667   -1.9929039  0.042915132     -3.44667    1.4537661   878832 
 1769000   0.96837582   -3.4452603   -3.4452603   -1.9926982  0.043175173   -3.4452603    1.4525621   878832 
 1770000    0.9677648   -3.4441683   -3.4441683   -1.9925228  0.046663637   -3.4441683    1.4516456   878832 
 1771000   0.96881958   -3.4452427   -3.4452427   -1.9920149  0.044073067   -3.4452427    1.4532277   878832 
 1772000   0.96810081   -3.4439111   -3.4439111   -1.9917616  0.045602293   -3.4439111    1.4521496   878832 
 1773000   0.96902514   -3.4445071   -3.4445071   -1.9909711  0.046229275   -3.4445071    1.4535361   878832 
 1774000   0.96875455   -3.4443379   -3.4443379   -1.9912077  0.045221775   -3.4443379    1.4531302   878832 
 1775000   0.96961588   -3.4460039   -3.4460039   -1.9915817  0.045012782   -3.4460039    1.4544222   878832 
 1776000   0.96822185   -3.4433975   -3.4433975   -1.9910664  0.046735323   -3.4433975    1.4523311   878832 
 1777000   0.96941209   -3.4443316   -3.4443316   -1.9902151  0.046868017   -3.4443316    1.4541165   878832 
 1778000   0.96909371   -3.4436529   -3.4436529    -1.990014   0.04468117   -3.4436529    1.4536389   878832 
 1779000   0.96962942   -3.4437352   -3.4437352   -1.9892927  0.048344776   -3.4437352    1.4544425   878832 
 1780000   0.97067536   -3.4442664   -3.4442664    -1.988255  0.046127313   -3.4442664    1.4560114   878832 
 1781000   0.97009196   -3.4440489   -3.4440489   -1.9889127   0.04528402   -3.4440489    1.4551363   878832 
 1782000   0.97079431   -3.4450412   -3.4450412   -1.9888514  0.046821115   -3.4450412    1.4561898   878832 
 1783000   0.97046008   -3.4444308   -3.4444308   -1.9887423  0.046745417   -3.4444308    1.4556885   878832 
 1784000    0.9700183   -3.4434568   -3.4434568    -1.988431   0.04809031   -3.4434568    1.4550258   878832 
 1785000    0.9705628   -3.4442537   -3.4442537   -1.9884112  0.047764895   -3.4442537    1.4558425   878832 
 1786000   0.96887942   -3.4424666   -3.4424666   -1.9891491  0.046935925   -3.4424666    1.4533175   878832 
 1787000   0.97007265   -3.4441663   -3.4441663    -1.989059  0.044448869   -3.4441663    1.4551073   878832 
 1788000   0.96995016   -3.4437246   -3.4437246    -1.988801  0.043560951   -3.4437246    1.4549236   878832 
 1789000   0.97033555   -3.4443702   -3.4443702   -1.9888686  0.042742124   -3.4443702    1.4555017   878832 
 1790000   0.96890301   -3.4421897   -3.4421897   -1.9888368  0.043835615   -3.4421897    1.4533529   878832 
 1791000   0.96945094   -3.4428888   -3.4428888   -1.9887141   0.04233263   -3.4428888    1.4541748   878832 
 1792000   0.96820147   -3.4415023   -3.4415023   -1.9892017  0.044757436   -3.4415023    1.4523006   878832 
 1793000   0.96895958   -3.4432905   -3.4432905   -1.9898528  0.042292522   -3.4432905    1.4534377   878832 
 1794000   0.96943058   -3.4434038   -3.4434038   -1.9892596  0.042483916   -3.4434038    1.4541442   878832 
 1795000   0.96842552   -3.4413081   -3.4413081   -1.9886715  0.045304466   -3.4413081    1.4526366   878832 
 1796000   0.96998673   -3.4428043   -3.4428043   -1.9878259   0.04563077   -3.4428043    1.4549784   878832 
 1797000   0.97019192   -3.4433283   -3.4433283    -1.988042  0.044974677   -3.4433283    1.4552862   878832 
 1798000   0.96934139   -3.4416418   -3.4416418   -1.9876314  0.048458139   -3.4416418    1.4540104   878832 
 1799000   0.96879388   -3.4411662   -3.4411662    -1.987977  0.047175871   -3.4411662    1.4531892   878832 
 1800000   0.97084952   -3.4446594   -3.4446594   -1.9883868  0.046571727   -3.4446594    1.4562726   878832 
 1801000   0.97042441   -3.4439267   -3.4439267   -1.9882917  0.048574965   -3.4439267     1.455635   878832 
 1802000   0.96965553   -3.4420492   -3.4420492   -1.9875675  0.049599424   -3.4420492    1.4544816   878832 
 1803000    0.9699899   -3.4418413   -3.4418413   -1.9868581  0.051972273   -3.4418413    1.4549832   878832 
 1804000   0.96971328   -3.4421964   -3.4421964   -1.9876281  0.048377093   -3.4421964    1.4545683   878832 
 1805000   0.96987652   -3.4422958   -3.4422958   -1.9874827  0.044476571   -3.4422958    1.4548131   878832 
 1806000   0.97057693   -3.4428048   -3.4428048    -1.986941  0.045853213   -3.4428048    1.4558637   878832 
 1807000   0.97016013   -3.4424775   -3.4424775    -1.987239  0.046564862   -3.4424775    1.4552385   878832 
 1808000   0.97040003   -3.4433008   -3.4433008   -1.9877024  0.043303295   -3.4433008    1.4555984   878832 
 1809000   0.97054743    -3.442793    -3.442793   -1.9869735  0.044857485    -3.442793    1.4558195   878832 
 1810000   0.97065294   -3.4434459   -3.4434459   -1.9874681  0.045138932   -3.4434459    1.4559778   878832 
 1811000   0.97028073   -3.4422288   -3.4422288   -1.9868093  0.049372655   -3.4422288    1.4554194   878832 
 1812000    0.9704595   -3.4431415   -3.4431415   -1.9874539  0.049699521   -3.4431415    1.4556876   878832 
 1813000   0.97096201   -3.4431866   -3.4431866   -1.9867452  0.047125741   -3.4431866    1.4564414   878832 
 1814000   0.97081661   -3.4434788   -3.4434788   -1.9872555  0.045200828   -3.4434788    1.4562233   878832 
 1815000    0.9709911   -3.4439475   -3.4439475   -1.9874625  0.049393488   -3.4439475     1.456485   878832 
 1816000   0.97072495   -3.4437829   -3.4437829   -1.9876971  0.045670468   -3.4437829    1.4560858   878832 
 1817000   0.97080515   -3.4431495   -3.4431495   -1.9869434  0.047046869   -3.4431495    1.4562061   878832 
 1818000   0.97059524    -3.442875    -3.442875   -1.9869838  0.051336204    -3.442875    1.4558912   878832 
 1819000   0.97019992   -3.4420417   -3.4420417   -1.9867435  0.048725188   -3.4420417    1.4552982   878832 
 1820000   0.96908815   -3.4406224   -3.4406224   -1.9869919  0.048099411   -3.4406224    1.4536306   878832 
 1821000   0.97009693   -3.4421094   -3.4421094   -1.9869656  0.042806961   -3.4421094    1.4551437   878832 
 1822000   0.97014424   -3.4428123   -3.4428123   -1.9875976  0.046979408   -3.4428123    1.4552147   878832 
 1823000   0.97012985    -3.441704    -3.441704   -1.9865109  0.044800275    -3.441704    1.4551931   878832 
 1824000   0.97076509   -3.4427982   -3.4427982   -1.9866523  0.045269086   -3.4427982     1.456146   878832 
 1825000   0.96978524   -3.4405372   -3.4405372   -1.9858609   0.04996034   -3.4405372    1.4546762   878832 
 1826000   0.97044061     -3.44194     -3.44194   -1.9862807   0.04547671     -3.44194    1.4556593   878832 
 1827000   0.97126904   -3.4423535   -3.4423535   -1.9854516  0.046834304   -3.4423535    1.4569019   878832 
 1828000   0.97175737   -3.4432961   -3.4432961   -1.9856617  0.045651374   -3.4432961    1.4576344   878832 
 1829000   0.96954595   -3.4403524   -3.4403524   -1.9860351  0.048509744   -3.4403524    1.4543173   878832 
 1830000    0.9702622   -3.4415296   -3.4415296   -1.9861379  0.044838832   -3.4415296    1.4553916   878832 
 1831000   0.97105493    -3.442651    -3.442651   -1.9860703  0.048152259    -3.442651    1.4565807   878832 
 1832000   0.97081595   -3.4409759   -3.4409759   -1.9847536  0.048138784   -3.4409759    1.4562223   878832 
 1833000   0.96976001   -3.4409788   -3.4409788   -1.9863404  0.046287002   -3.4409788    1.4546384   878832 
 1834000   0.96936261   -3.4400761   -3.4400761   -1.9860338  0.043093757   -3.4400761    1.4540423   878832 
 1835000   0.97053389   -3.4403841   -3.4403841    -1.984585  0.047926256   -3.4403841    1.4557992   878832 
 1836000   0.96979967   -3.4400721   -3.4400721   -1.9853743   0.04536441   -3.4400721    1.4546978   878832 
 1837000    0.9697524   -3.4391006   -3.4391006   -1.9844736  0.044883176   -3.4391006    1.4546269   878832 
 1838000    0.9691396   -3.4387901   -3.4387901   -1.9850823  0.046660496   -3.4387901    1.4537077   878832 
 1839000   0.97051972    -3.440199    -3.440199    -1.984421  0.045949354    -3.440199    1.4557779   878832 
 1840000   0.96994691   -3.4397255   -3.4397255   -1.9848068   0.04632855   -3.4397255    1.4549187   878832 
 1841000   0.97021651   -3.4401349   -3.4401349   -1.9848118   0.04513606   -3.4401349    1.4553231   878832 
 1842000   0.97034227    -3.439831    -3.439831   -1.9843193  0.045232942    -3.439831    1.4555117   878832 
 1843000    0.9703758   -3.4396201   -3.4396201    -1.984058  0.045469226   -3.4396201     1.455562   878832 
 1844000   0.96992169   -3.4389413   -3.4389413   -1.9840604  0.047937885   -3.4389413    1.4548809   878832 
 1845000   0.97065403   -3.4394466   -3.4394466   -1.9834672  0.048013573   -3.4394466    1.4559794   878832 
 1846000   0.97153707    -3.440626    -3.440626    -1.983322  0.046280967    -3.440626    1.4573039   878832 
 1847000   0.97007572   -3.4378557   -3.4378557   -1.9827438   0.04528425   -3.4378557    1.4551119   878832 
 1848000   0.97026204   -3.4383485   -3.4383485   -1.9829571  0.049922572   -3.4383485    1.4553914   878832 
 1849000   0.97128772   -3.4399851   -3.4399851   -1.9830551  0.047233215   -3.4399851    1.4569299   878832 
 1850000   0.97200283   -3.4408267   -3.4408267   -1.9828242  0.050030155   -3.4408267    1.4580026   878832 
 1851000   0.97201189   -3.4405999   -3.4405999   -1.9825837  0.048337426   -3.4405999    1.4580162   878832 
 1852000   0.97070062    -3.438921    -3.438921   -1.9828717  0.046269253    -3.438921    1.4560493   878832 
 1853000   0.97017848   -3.4389084   -3.4389084   -1.9836424  0.047710764   -3.4389084    1.4552661   878832 
 1854000    0.9707644   -3.4393113   -3.4393113   -1.9831664  0.046361206   -3.4393113    1.4561449   878832 
 1855000   0.97175222   -3.4401587   -3.4401587    -1.982532  0.047825554   -3.4401587    1.4576267   878832 
 1856000   0.97141319   -3.4403328   -3.4403328   -1.9832147   0.04606584   -3.4403328    1.4571181   878832 
 1857000   0.97091979   -3.4397927   -3.4397927   -1.9834147   0.04548748   -3.4397927     1.456378   878832 
 1858000   0.97050547   -3.4387333   -3.4387333   -1.9829768   0.04624844   -3.4387333    1.4557565   878832 
 1859000   0.96999475   -3.4385148   -3.4385148   -1.9835243  0.049394435   -3.4385148    1.4549905   878832 
 1860000    0.9695726   -3.4383173   -3.4383173   -1.9839601  0.045051983   -3.4383173    1.4543572   878832 
 1861000   0.97061188   -3.4390309   -3.4390309   -1.9831147  0.044992959   -3.4390309    1.4559162   878832 
 1862000   0.97017011   -3.4391585   -3.4391585    -1.983905  0.041757853   -3.4391585    1.4552535   878832 
 1863000   0.96977284   -3.4387513   -3.4387513   -1.9840937  0.041912366   -3.4387513    1.4546576   878832 
 1864000   0.97136566   -3.4402719   -3.4402719   -1.9832251  0.042898287   -3.4402719    1.4570468   878832 
 1865000   0.97021027   -3.4387954   -3.4387954   -1.9834816  0.044535807   -3.4387954    1.4553137   878832 
 1866000   0.97174575    -3.440675    -3.440675    -1.983058  0.049213164    -3.440675     1.457617   878832 
 1867000   0.97070872   -3.4393752   -3.4393752   -1.9833138  0.041580456   -3.4393752    1.4560614   878832 
 1868000   0.97090184   -3.4395749   -3.4395749   -1.9832238  0.044902237   -3.4395749    1.4563511   878832 
 1869000   0.97149484   -3.4399349   -3.4399349   -1.9826943  0.045740408   -3.4399349    1.4572406   878832 
 1870000   0.97157549   -3.4390088   -3.4390088   -1.9816472  0.047362708   -3.4390088    1.4573616   878832 
 1871000   0.97194683   -3.4398073   -3.4398073   -1.9818888   0.04770553   -3.4398073    1.4579186   878832 
 1872000     0.972163   -3.4405193   -3.4405193   -1.9822765  0.048957042   -3.4405193    1.4582428   878832 
 1873000   0.97246137   -3.4399086   -3.4399086   -1.9812182  0.047298127   -3.4399086    1.4586904   878832 
 1874000   0.97196582    -3.439705    -3.439705   -1.9817579  0.049875926    -3.439705    1.4579471   878832 
 1875000   0.97170476   -3.4387063   -3.4387063   -1.9811509  0.050586847   -3.4387063    1.4575555   878832 
 1876000    0.9732659   -3.4419553   -3.4419553   -1.9820581  0.047523267   -3.4419553    1.4598972   878832 
 1877000    0.9714185   -3.4384369   -3.4384369   -1.9813108   0.05302339   -3.4384369    1.4571261   878832 
 1878000    0.9718902   -3.4387616   -3.4387616   -1.9809279  0.051308812   -3.4387616    1.4578336   878832 
 1879000   0.97286152   -3.4395917   -3.4395917   -1.9803011   0.04832627   -3.4395917    1.4592906   878832 
 1880000   0.97276176   -3.4398497   -3.4398497   -1.9807087  0.048189731   -3.4398497     1.459141   878832 
 1881000   0.97232244   -3.4400365   -3.4400365   -1.9815545  0.049280701   -3.4400365     1.458482   878832 
 1882000   0.97123199   -3.4387527   -3.4387527   -1.9819064  0.049708599   -3.4387527    1.4568463   878832 
 1883000   0.97132495   -3.4391867   -3.4391867    -1.982201  0.045279855   -3.4391867    1.4569858   878832 
 1884000   0.97117234   -3.4386374   -3.4386374   -1.9818805  0.047490311   -3.4386374    1.4567569   878832 
 1885000   0.97128626   -3.4384144   -3.4384144   -1.9814866  0.048749256   -3.4384144    1.4569277   878832 
 1886000   0.97173758   -3.4389858   -3.4389858   -1.9813811  0.044866611   -3.4389858    1.4576047   878832 
 1887000   0.97129242   -3.4372029   -3.4372029   -1.9802659  0.046419269   -3.4372029     1.456937   878832 
 1888000   0.97077252   -3.4368573   -3.4368573   -1.9807002  0.047938192   -3.4368573    1.4561571   878832 
 1889000   0.97121189   -3.4377688   -3.4377688   -1.9809527  0.042540364   -3.4377688    1.4568162   878832 
 1890000   0.96991807   -3.4362505   -3.4362505   -1.9813751  0.047563568   -3.4362505    1.4548755   878832 
 1891000   0.97060052   -3.4365857   -3.4365857   -1.9806866  0.045042478   -3.4365857    1.4558991   878832 
 1892000   0.97112529   -3.4373113   -3.4373113   -1.9806251  0.047232216   -3.4373113    1.4566863   878832 
 1893000   0.97058982   -3.4367107   -3.4367107   -1.9808277  0.048429557   -3.4367107    1.4558831   878832 
 1894000   0.96912068   -3.4345289   -3.4345289   -1.9808495  0.053033121   -3.4345289    1.4536794   878832 
 1895000   0.97028711   -3.4357252   -3.4357252   -1.9802962  0.046445686   -3.4357252     1.455429   878832 
 1896000   0.96963725   -3.4348146   -3.4348146   -1.9803604  0.048717182   -3.4348146    1.4544542   878832 
 1897000    0.9693757   -3.4350683   -3.4350683   -1.9810064  0.046971981   -3.4350683    1.4540619   878832 
 1898000   0.96962581   -3.4345674   -3.4345674   -1.9801303  0.048183906   -3.4345674    1.4544371   878832 
 1899000   0.97076837   -3.4354519   -3.4354519    -1.979301  0.045165226   -3.4354519    1.4561509   878832 
 1900000    0.9711649   -3.4358527   -3.4358527    -1.979107  0.044942922   -3.4358527    1.4567457   878832 
 1901000   0.97154796   -3.4369058   -3.4369058   -1.9795855  0.044024372   -3.4369058    1.4573203   878832 
 1902000   0.97153372   -3.4372545   -3.4372545   -1.9799556  0.045227429   -3.4372545    1.4572989   878832 
 1903000   0.97112556    -3.435986    -3.435986   -1.9792994  0.044926576    -3.435986    1.4566867   878832 
 1904000   0.97052152   -3.4351624   -3.4351624   -1.9793818  0.049425792   -3.4351624    1.4557806   878832 
 1905000   0.97106482   -3.4355833   -3.4355833   -1.9789877  0.043694964   -3.4355833    1.4565956   878832 
 1906000    0.9702492   -3.4344153   -3.4344153   -1.9790432  0.044421915   -3.4344153    1.4553721   878832 
 1907000   0.97072393   -3.4343638   -3.4343638   -1.9782796  0.047535333   -3.4343638    1.4560842   878832 
 1908000   0.97132322   -3.4355624   -3.4355624   -1.9785792  0.045567717   -3.4355624    1.4569832   878832 
 1909000   0.97007916   -3.4337259   -3.4337259   -1.9786088  0.044886765   -3.4337259    1.4551171   878832 
 1910000   0.96984871   -3.4334441   -3.4334441   -1.9786727  0.048992313   -3.4334441    1.4547714   878832 
 1911000   0.97107831   -3.4349772   -3.4349772   -1.9783614  0.044216901   -3.4349772    1.4566158   878832 
 1912000   0.97210136   -3.4368507   -3.4368507   -1.9787003   0.04273744   -3.4368507    1.4581504   878832 
 1913000    0.9719377    -3.436275    -3.436275   -1.9783701  0.047173345    -3.436275    1.4579049   878832 
 1914000   0.97142594   -3.4350791   -3.4350791   -1.9779418  0.051138177   -3.4350791    1.4571372   878832 
 1915000   0.97234964   -3.4365687   -3.4365687   -1.9780459  0.048988361   -3.4365687    1.4585228   878832 
 1916000   0.97151947   -3.4357964   -3.4357964   -1.9785188  0.048961907   -3.4357964    1.4572775   878832 
 1917000   0.97292233   -3.4364322   -3.4364322   -1.9770504  0.050814701   -3.4364322    1.4593818   878832 
 1918000   0.97238273   -3.4341571   -3.4341571   -1.9755846  0.051415303   -3.4341571    1.4585724   878832 
 1919000   0.97315232   -3.4351978   -3.4351978    -1.975471   0.04836554   -3.4351978    1.4597268   878832 
 1920000   0.97278624   -3.4353629   -3.4353629   -1.9761852  0.050346853   -3.4353629    1.4591777   878832 
 1921000   0.97271386   -3.4355193   -3.4355193   -1.9764502  0.051062436   -3.4355193    1.4590691   878832 
 1922000    0.9727325   -3.4347705   -3.4347705   -1.9756735  0.050669752   -3.4347705    1.4590971   878832 
 1923000   0.97302986   -3.4351641   -3.4351641   -1.9756209  0.052371422   -3.4351641    1.4595431   878832 
 1924000   0.97287728   -3.4362756   -3.4362756   -1.9769613  0.043315324   -3.4362756    1.4593143   878832 
 1925000   0.97237818   -3.4352442   -3.4352442   -1.9766786  0.048461495   -3.4352442    1.4585656   878832 
 1926000   0.97075404   -3.4336166   -3.4336166   -1.9774872    0.0495326   -3.4336166    1.4561294   878832 
 1927000   0.97191179    -3.435614    -3.435614    -1.977748  0.046895962    -3.435614     1.457866   878832 
 1928000   0.97094342   -3.4339048   -3.4339048   -1.9774913  0.048553354   -3.4339048    1.4564135   878832 
 1929000   0.97104293   -3.4342085   -3.4342085   -1.9776458  0.044091499   -3.4342085    1.4565627   878832 
 1930000     0.972149   -3.4355219   -3.4355219   -1.9773001  0.043285157   -3.4355219    1.4582218   878832 
 1931000   0.97166001   -3.4340751   -3.4340751   -1.9765868  0.045242524   -3.4340751    1.4574884   878832 
 1932000   0.97221013   -3.4352127   -3.4352127   -1.9768992  0.042304511   -3.4352127    1.4583135   878832 
 1933000   0.97062753   -3.4335144   -3.4335144   -1.9775748  0.047472017   -3.4335144    1.4559396   878832 
 1934000   0.97059778   -3.4334179   -3.4334179   -1.9775228  0.044422907   -3.4334179     1.455895   878832 
 1935000   0.97078555   -3.4322869   -3.4322869   -1.9761102  0.051911741   -3.4322869    1.4561767   878832 
 1936000   0.97099341   -3.4336056   -3.4336056   -1.9771171   0.04931497   -3.4336056    1.4564885   878832 
 1937000   0.97173624   -3.4347248   -3.4347248   -1.9771221  0.046891086   -3.4347248    1.4576027   878832 
 1938000   0.97111797   -3.4338642   -3.4338642   -1.9771889  0.047844197   -3.4338642    1.4566753   878832 
 1939000    0.9712044    -3.433601    -3.433601    -1.976796  0.046933935    -3.433601    1.4568049   878832 
 1940000   0.97101736   -3.4334122   -3.4334122   -1.9768878   0.04562963   -3.4334122    1.4565244   878832 
 1941000   0.97045826   -3.4322209   -3.4322209   -1.9765352    0.0469094   -3.4322209    1.4556857   878832 
 1942000   0.97079488   -3.4329701   -3.4329701   -1.9767795  0.047272911   -3.4329701    1.4561907   878832 
 1943000   0.97096699   -3.4318518   -3.4318518    -1.975403  0.049814286   -3.4318518    1.4564488   878832 
 1944000   0.97195416   -3.4326098   -3.4326098   -1.9746802  0.046446544   -3.4326098    1.4579296   878832 
 1945000   0.97242024   -3.4327171   -3.4327171   -1.9740885  0.047197911   -3.4327171    1.4586287   878832 
 1946000    0.9726137   -3.4327158   -3.4327158   -1.9737969  0.046608695   -3.4327158    1.4589189   878832 
 1947000   0.97068751   -3.4305585   -3.4305585   -1.9745289  0.049301266   -3.4305585    1.4560296   878832 
 1948000   0.97219647   -3.4323722   -3.4323722   -1.9740792   0.04690647   -3.4323722    1.4582931   878832 
 1949000   0.97158085   -3.4315789   -3.4315789   -1.9742093  0.050870661   -3.4315789    1.4573696   878832 
 1950000   0.97291268   -3.4337225   -3.4337225   -1.9743552  0.047816229   -3.4337225    1.4593674   878832 
 1951000   0.97268385   -3.4327608   -3.4327608   -1.9737367  0.052932651   -3.4327608    1.4590241   878832 
 1952000    0.9725836   -3.4323374   -3.4323374   -1.9734636  0.050987856   -3.4323374    1.4588737   878832 
 1953000   0.97249333   -3.4332644   -3.4332644   -1.9745261  0.048809054   -3.4332644    1.4587383   878832 
 1954000   0.97244291   -3.4334472   -3.4334472   -1.9747845  0.043602991   -3.4334472    1.4586627   878832 
 1955000   0.97049117   -3.4312406   -3.4312406   -1.9755055  0.049346909   -3.4312406    1.4557351   878832 
 1956000    0.9716775   -3.4314721   -3.4314721   -1.9739575  0.048496823   -3.4314721    1.4575146   878832 
 1957000   0.97241113   -3.4330254   -3.4330254   -1.9744104  0.047264943   -3.4330254     1.458615   878832 
 1958000   0.97191546   -3.4317576   -3.4317576   -1.9738861  0.047920911   -3.4317576    1.4578715   878832 
 1959000   0.97264569   -3.4322868   -3.4322868   -1.9733199  0.044101056   -3.4322868    1.4589669   878832 
 1960000    0.9720351   -3.4312795   -3.4312795   -1.9732285  0.049385901   -3.4312795     1.458051   878832 
 1961000   0.97227181   -3.4315927   -3.4315927   -1.9731866  0.046644954   -3.4315927    1.4584061   878832 
 1962000    0.9735557   -3.4334798   -3.4334798   -1.9731479  0.050299553   -3.4334798    1.4603319   878832 
 1963000   0.97208241   -3.4318241   -3.4318241   -1.9737021  0.051450936   -3.4318241     1.458122   878832 
 1964000   0.97220042   -3.4319538   -3.4319538   -1.9736549  0.045558696   -3.4319538     1.458299   878832 
 1965000   0.97339277   -3.4331587   -3.4331587   -1.9730712  0.048025306   -3.4331587    1.4600875   878832 
 1966000   0.97330516   -3.4326577   -3.4326577   -1.9727016  0.048250809   -3.4326577    1.4599561   878832 
 1967000   0.97352831   -3.4323903   -3.4323903   -1.9720995  0.049254841   -3.4323903    1.4602908   878832 
 1968000   0.97389694   -3.4322928   -3.4322928   -1.9714491  0.048661782   -3.4322928    1.4608437   878832 
 1969000    0.9723942   -3.4301212   -3.4301212   -1.9715315  0.049046547   -3.4301212    1.4585896   878832 
 1970000   0.97309576   -3.4312801   -3.4312801   -1.9716381  0.052610468   -3.4312801     1.459642   878832 
 1971000    0.9733661   -3.4321509   -3.4321509   -1.9721034  0.046627189   -3.4321509    1.4600475   878832 
 1972000   0.97351998   -3.4328346   -3.4328346   -1.9725563  0.049217896   -3.4328346    1.4602783   878832 
 1973000   0.97132549   -3.4304302   -3.4304302   -1.9734436  0.049672801   -3.4304302    1.4569866   878832 
 1974000   0.97194052    -3.430884    -3.430884   -1.9729749  0.049570545    -3.430884    1.4579091   878832 
 1975000   0.97162854   -3.4296958   -3.4296958   -1.9722546  0.047538707   -3.4296958    1.4574412   878832 
 1976000   0.97119391   -3.4293106   -3.4293106   -1.9725214  0.045647663   -3.4293106    1.4567892   878832 
 1977000    0.9721981   -3.4302165   -3.4302165    -1.971921  0.045770547   -3.4302165    1.4582955   878832 
 1978000    0.9722283   -3.4303549   -3.4303549   -1.9720141  0.043128392   -3.4303549    1.4583408   878832 
 1979000   0.97126965   -3.4284782   -3.4284782   -1.9715754  0.050555116   -3.4284782    1.4569028   878832 
 1980000   0.97270546   -3.4293059   -3.4293059   -1.9702493  0.050421909   -3.4293059    1.4590565   878832 
 1981000   0.97300806   -3.4297423   -3.4297423   -1.9702319  0.045310309   -3.4297423    1.4595104   878832 
 1982000   0.97274883   -3.4297267   -3.4297267   -1.9706051  0.047747556   -3.4297267    1.4591216   878832 
 1983000   0.97212455   -3.4288746   -3.4288746   -1.9706894   0.04678115   -3.4288746    1.4581852   878832 
 1984000   0.97223134   -3.4285029   -3.4285029   -1.9701576  0.047745815   -3.4285029    1.4583454   878832 
 1985000   0.97311009   -3.4297251   -3.4297251   -1.9700617  0.048108158   -3.4297251    1.4596635   878832 
 1986000   0.97243368   -3.4286983   -3.4286983   -1.9700494    0.0507458   -3.4286983    1.4586489   878832 
 1987000   0.97337757   -3.4297586   -3.4297586   -1.9696939   0.04551842   -3.4297586    1.4600647   878832 
 1988000   0.97317945   -3.4292428   -3.4292428   -1.9694753  0.046181186   -3.4292428    1.4597675   878832 
 1989000   0.97366547   -3.4295423   -3.4295423   -1.9690458  0.048728313   -3.4295423    1.4604966   878832 
 1990000   0.97395052   -3.4305896   -3.4305896   -1.9696655  0.044875372   -3.4305896    1.4609241   878832 
 1991000   0.97227867   -3.4282417   -3.4282417   -1.9698254  0.050753638   -3.4282417    1.4584164   878832 
 1992000   0.97346253   -3.4299414   -3.4299414   -1.9697492  0.048771454   -3.4299414    1.4601921   878832 
 1993000   0.97439255   -3.4299725   -3.4299725   -1.9683853  0.046283731   -3.4299725    1.4615872   878832 
 1994000   0.97358211   -3.4291455   -3.4291455    -1.968774  0.044880808   -3.4291455    1.4603715   878832 
 1995000   0.97331113   -3.4288509   -3.4288509   -1.9688859  0.049156701   -3.4288509     1.459965   878832 
 1996000    0.9726511   -3.4278602   -3.4278602   -1.9688853  0.051100834   -3.4278602     1.458975   878832 
 1997000   0.97362005   -3.4283589   -3.4283589   -1.9679305  0.048546349   -3.4283589    1.4604284   878832 
 1998000   0.97385232   -3.4289396   -3.4289396   -1.9681628  0.045051205   -3.4289396    1.4607768   878832 
 1999000   0.97323877   -3.4280327   -3.4280327   -1.9681762  0.048261109   -3.4280327    1.4598565   878832 
 2000000   0.97397187   -3.4284889   -3.4284889   -1.9675328  0.050244958   -3.4284889    1.4609561   878832 
 2001000   0.97378517    -3.428764    -3.428764    -1.968088  0.051788613    -3.428764    1.4606761   878832 
 2002000   0.97448557   -3.4292915   -3.4292915   -1.9675648   0.04625947   -3.4292915    1.4617267   878832 
 2003000   0.97302487   -3.4271616   -3.4271616   -1.9676259  0.051747718   -3.4271616    1.4595356   878832 
 2004000   0.97444437   -3.4286262   -3.4286262   -1.9669613  0.049727894   -3.4286262    1.4616649   878832 
 2005000   0.97233173    -3.426473    -3.426473   -1.9679771  0.046255113    -3.426473    1.4584959   878832 
 2006000   0.97335308   -3.4271987   -3.4271987   -1.9671707  0.049957683   -3.4271987     1.460028   878832 
 2007000   0.97411476   -3.4282608   -3.4282608   -1.9670903  0.045574899   -3.4282608    1.4611705   878832 
 2008000   0.97201471   -3.4261051   -3.4261051   -1.9680846  0.048461577   -3.4261051    1.4580204   878832 
 2009000   0.97212378   -3.4258243   -3.4258243   -1.9676403  0.045002532   -3.4258243     1.458184   878832 
 2010000   0.97240448   -3.4267622   -3.4267622   -1.9681572  0.045601374   -3.4267622    1.4586051   878832 
 2011000   0.97241618   -3.4273212   -3.4273212   -1.9686986  0.044350934   -3.4273212    1.4586226   878832 
 2012000   0.97235946   -3.4268997   -3.4268997   -1.9683622  0.043330802   -3.4268997    1.4585375   878832 
 2013000   0.97241116   -3.4263753   -3.4263753   -1.9677602  0.045497362   -3.4263753    1.4586151   878832 
 2014000   0.97316533   -3.4268305   -3.4268305   -1.9670841  0.047915191   -3.4268305    1.4597463   878832 
 2015000   0.97288052   -3.4262678   -3.4262678   -1.9669486  0.048874011   -3.4262678    1.4593191   878832 
 2016000    0.9723764   -3.4261449   -3.4261449    -1.967582  0.048480999   -3.4261449    1.4585629   878832 
 2017000   0.97299388   -3.4256089   -3.4256089   -1.9661198  0.050434486   -3.4256089    1.4594892   878832 
 2018000   0.97271422   -3.4257462   -3.4257462   -1.9666765  0.047472798   -3.4257462    1.4590697   878832 
 2019000   0.97352778   -3.4268572   -3.4268572   -1.9665672  0.046802879   -3.4268572      1.46029   878832 
 2020000   0.97363707   -3.4260673   -3.4260673   -1.9656134  0.049733117   -3.4260673    1.4604539   878832 
 2021000   0.97237741   -3.4247621   -3.4247621   -1.9661977  0.051871323   -3.4247621    1.4585645   878832 
 2022000   0.97274648   -3.4249141   -3.4249141    -1.965796  0.050069047   -3.4249141    1.4591181   878832 
 2023000   0.97362017   -3.4270281   -3.4270281   -1.9665995   0.04462545   -3.4270281    1.4604286   878832 
 2024000   0.97312246   -3.4265864   -3.4265864   -1.9669044  0.044622691   -3.4265864     1.459682   878832 
 2025000   0.97280574    -3.425117    -3.425117   -1.9659101    0.0480479    -3.425117    1.4592069   878832 
 2026000   0.97380465   -3.4264984   -3.4264984   -1.9657931  0.046035007   -3.4264984    1.4607053   878832 
 2027000   0.97340786   -3.4255418   -3.4255418   -1.9654317  0.048864558   -3.4255418    1.4601101   878832 
 2028000   0.97345261   -3.4267575   -3.4267575   -1.9665803  0.047010399   -3.4267575    1.4601773   878832 
 2029000   0.97315826   -3.4258389   -3.4258389   -1.9661032  0.045829705   -3.4258389    1.4597357   878832 
 2030000   0.97378959   -3.4263011   -3.4263011   -1.9656184  0.049515793   -3.4263011    1.4606827   878832 
 2031000   0.97417538    -3.426582    -3.426582   -1.9653206  0.050812172    -3.426582    1.4612614   878832 
 2032000    0.9740969   -3.4259756   -3.4259756   -1.9648319  0.047727143   -3.4259756    1.4611437   878832 
 2033000   0.97451008   -3.4258599   -3.4258599   -1.9640964  0.049293838   -3.4258599    1.4617635   878832 
 2034000   0.97412101   -3.4254153   -3.4254153   -1.9642355  0.049142361   -3.4254153    1.4611798   878832 
 2035000   0.97394577   -3.4259746   -3.4259746   -1.9650577  0.051370519   -3.4259746     1.460917   878832 
 2036000   0.97341784   -3.4246497   -3.4246497   -1.9645246  0.048865134   -3.4246497    1.4601251   878832 
 2037000    0.9733935   -3.4248223   -3.4248223   -1.9647337  0.046652548   -3.4248223    1.4600886   878832 
 2038000   0.97370129    -3.425078    -3.425078   -1.9645277  0.052600328    -3.425078    1.4605503   878832 
 2039000   0.97397571   -3.4258562   -3.4258562   -1.9648943    0.0506093   -3.4258562    1.4609619   878832 
 2040000   0.97374437   -3.4253847   -3.4253847   -1.9647698  0.049577852   -3.4253847    1.4606149   878832 
 2041000   0.97418725   -3.4252768   -3.4252768   -1.9639976  0.049962634   -3.4252768    1.4612792   878832 
 2042000    0.9732653   -3.4231901   -3.4231901   -1.9632938  0.050476003   -3.4231901    1.4598963   878832 
 2043000   0.97414509   -3.4249915   -3.4249915   -1.9637755  0.047629024   -3.4249915     1.461216   878832 
 2044000   0.97380127   -3.4246336   -3.4246336   -1.9639333  0.050833767   -3.4246336    1.4607002   878832 
 2045000   0.97392401   -3.4241273   -3.4241273   -1.9632429  0.050824186   -3.4241273    1.4608844   878832 
 2046000   0.97530071   -3.4249586   -3.4249586   -1.9620092  0.047147396   -3.4249586    1.4629494   878832 
 2047000   0.97418234    -3.423573    -3.423573   -1.9623012  0.052024139    -3.423573    1.4612718   878832 
 2048000   0.97465363   -3.4235572   -3.4235572   -1.9615784  0.049471212   -3.4235572    1.4619788   878832 
 2049000   0.97472287   -3.4238548   -3.4238548   -1.9617722  0.049022134   -3.4238548    1.4620826   878832 
 2050000   0.97416745   -3.4232752   -3.4232752   -1.9620257  0.050016959   -3.4232752    1.4612495   878832 
 2051000   0.97399626   -3.4229367   -3.4229367    -1.961944  0.047233894   -3.4229367    1.4609927   878832 
 2052000   0.97507196   -3.4247704   -3.4247704   -1.9621641  0.046935622   -3.4247704    1.4626063   878832 
 2053000   0.97330358    -3.422135    -3.422135   -1.9621813  0.049424172    -3.422135    1.4599537   878832 
 2054000   0.97384317   -3.4228094   -3.4228094   -1.9620463  0.042760344   -3.4228094    1.4607631   878832 
 2055000   0.97350688   -3.4219116   -3.4219116   -1.9616529  0.046428805   -3.4219116    1.4602587   878832 
 2056000   0.97322301   -3.4214588   -3.4214588   -1.9616259  0.050988923   -3.4214588    1.4598329   878832 
 2057000   0.97299346   -3.4205384   -3.4205384   -1.9610498   0.04924992   -3.4205384    1.4594885   878832 
 2058000   0.97318693   -3.4210421   -3.4210421   -1.9612634  0.052139885   -3.4210421    1.4597787   878832 
 2059000    0.9722147   -3.4195783   -3.4195783   -1.9612579  0.046024894   -3.4195783    1.4583204   878832 
 2060000   0.97358434   -3.4214584   -3.4214584   -1.9610836  0.042695762   -3.4214584    1.4603748   878832 
 2061000   0.97459975   -3.4226597   -3.4226597   -1.9607617  0.047500112   -3.4226597     1.461898   878832 
 2062000   0.97402193   -3.4218365   -3.4218365   -1.9608053  0.048174191   -3.4218365    1.4610312   878832 
 2063000   0.97433369    -3.422478    -3.422478   -1.9609791  0.048494003    -3.422478    1.4614989   878832 
 2064000   0.97225101   -3.4192483   -3.4192483   -1.9608734  0.045580191   -3.4192483    1.4583749   878832 
 2065000   0.97382662   -3.4206851   -3.4206851   -1.9599468  0.047491124   -3.4206851    1.4607383   878832 
 2066000   0.97381508   -3.4209928   -3.4209928   -1.9602718  0.043583578   -3.4209928     1.460721   878832 
 2067000   0.97338232   -3.4207834   -3.4207834   -1.9607116  0.048430898   -3.4207834    1.4600718   878832 
 2068000   0.97265953   -3.4194847   -3.4194847   -1.9604971  0.051324741   -3.4194847    1.4589876   878832 
 2069000     0.972744   -3.4202611   -3.4202611   -1.9611468  0.046991448   -3.4202611    1.4591143   878832 
 2070000   0.97316185   -3.4203124   -3.4203124   -1.9605713  0.051081866   -3.4203124    1.4597411   878832 
 2071000   0.97376257   -3.4203645   -3.4203645   -1.9597223  0.053671156   -3.4203645    1.4606422   878832 
 2072000   0.97445699   -3.4214223   -3.4214223   -1.9597385  0.049675291   -3.4214223    1.4616838   878832 
 2073000   0.97500788   -3.4224269   -3.4224269   -1.9599167  0.048988487   -3.4224269    1.4625102   878832 
 2074000    0.9738878   -3.4208987   -3.4208987   -1.9600686  0.049843916   -3.4208987      1.46083   878832 
 2075000   0.97470366   -3.4220749   -3.4220749   -1.9600211  0.050390737   -3.4220749    1.4620538   878832 
 2076000   0.97450465   -3.4213474   -3.4213474   -1.9595921  0.050762558   -3.4213474    1.4617553   878832 
 2077000   0.97402867   -3.4207765   -3.4207765   -1.9597352  0.051456999   -3.4207765    1.4610413   878832 
 2078000   0.97509864   -3.4221628   -3.4221628   -1.9595165  0.049991326   -3.4221628    1.4626463   878832 
 2079000    0.9754558   -3.4229459   -3.4229459   -1.9597639  0.046700749   -3.4229459     1.463182   878832 
 2080000   0.97398757   -3.4211626   -3.4211626   -1.9601829  0.049888407   -3.4211626    1.4609797   878832 
 2081000   0.97521335   -3.4226049   -3.4226049   -1.9597865  0.047163642   -3.4226049    1.4628184   878832 
 2082000   0.97481051    -3.421285    -3.421285   -1.9590709  0.050147022    -3.421285    1.4622141   878832 
 2083000   0.97486102   -3.4214895   -3.4214895   -1.9591996  0.049554551   -3.4214895    1.4622899   878832 
 2084000   0.97455235   -3.4214253   -3.4214253   -1.9595984  0.048732358   -3.4214253    1.4618269   878832 
 2085000   0.97347355   -3.4205747   -3.4205747    -1.960366   0.05077154   -3.4205747    1.4602087   878832 
 2086000   0.97470507   -3.4217939   -3.4217939    -1.959738   0.04873754   -3.4217939    1.4620559   878832 
 2087000   0.97488917   -3.4226869   -3.4226869   -1.9603548  0.046704648   -3.4226869    1.4623321   878832 
 2088000   0.97463795   -3.4236189   -3.4236189   -1.9616636  0.046074395   -3.4236189    1.4619553   878832 
 2089000    0.9741271   -3.4218415   -3.4218415   -1.9606525  0.047449798   -3.4218415     1.461189   878832 
 2090000    0.9731376   -3.4202903   -3.4202903   -1.9605856  0.051226414   -3.4202903    1.4597047   878832 
 2091000   0.97365805   -3.4216927   -3.4216927   -1.9612073  0.048239865   -3.4216927    1.4604854   878832 
 2092000   0.97283914   -3.4203769   -3.4203769   -1.9611198  0.051904219   -3.4203769    1.4592571   878832 
 2093000   0.97373184   -3.4213697   -3.4213697   -1.9607736  0.050912355   -3.4213697    1.4605961   878832 
 2094000   0.97333095   -3.4207806   -3.4207806   -1.9607859   0.04819863   -3.4207806    1.4599948   878832 
 2095000   0.97315702   -3.4206373   -3.4206373   -1.9609034  0.046573798   -3.4206373    1.4597339   878832 
 2096000   0.97388852   -3.4209453   -3.4209453   -1.9601141  0.048333759   -3.4209453    1.4608311   878832 
 2097000   0.97343729   -3.4205138   -3.4205138   -1.9603596  0.049422516   -3.4205138    1.4601543   878832 
 2098000   0.97279622   -3.4199247   -3.4199247   -1.9607321  0.047985564   -3.4199247    1.4591927   878832 
 2099000   0.97421525   -3.4211599   -3.4211599   -1.9598387  0.048551995   -3.4211599    1.4613212   878832 
 2100000   0.97465834   -3.4214917   -3.4214917   -1.9595059  0.047885777   -3.4214917    1.4619858   878832 
 2101000   0.97453188   -3.4222503   -3.4222503   -1.9604542  0.047291314   -3.4222503    1.4617962   878832 
 2102000   0.97461399    -3.421043    -3.421043   -1.9591236  0.046253581    -3.421043    1.4619193   878832 
 2103000   0.97427301   -3.4209173   -3.4209173   -1.9595094  0.050608271   -3.4209173    1.4614078   878832 
 2104000   0.97492737   -3.4212753   -3.4212753   -1.9588859  0.052889268   -3.4212753    1.4623894   878832 
 2105000    0.9751163   -3.4217618   -3.4217618    -1.959089  0.051418934   -3.4217618    1.4626728   878832 
 2106000   0.97373024   -3.4203028   -3.4203028   -1.9597091  0.050167626   -3.4203028    1.4605937   878832 
 2107000   0.97489288   -3.4222032   -3.4222032   -1.9598656  0.046237119   -3.4222032    1.4623377   878832 
 2108000   0.97367903   -3.4203051   -3.4203051   -1.9597883  0.047897518   -3.4203051    1.4605169   878832 
 2109000   0.97354069   -3.4209322   -3.4209322   -1.9606228  0.049259055   -3.4209322    1.4603094   878832 
 2110000   0.97405594   -3.4215164   -3.4215164   -1.9604342  0.046488993   -3.4215164    1.4610823   878832 
 2111000   0.97502934   -3.4224946   -3.4224946   -1.9599522  0.047386583   -3.4224946    1.4625423   878832 
 2112000   0.97363823   -3.4211444   -3.4211444   -1.9606888  0.052354954   -3.4211444    1.4604557   878832 
 2113000   0.97399731   -3.4208622   -3.4208622   -1.9598679  0.048551288   -3.4208622    1.4609943   878832 
 2114000    0.9748187   -3.4224758   -3.4224758   -1.9602495  0.045918259   -3.4224758    1.4622264   878832 
 2115000   0.97507409   -3.4220829   -3.4220829   -1.9594734  0.052216129   -3.4220829    1.4626095   878832 
 2116000   0.97528092     -3.42218     -3.42218   -1.9592603  0.051810908     -3.42218    1.4629197   878832 
 2117000    0.9744961   -3.4204758   -3.4204758   -1.9587333  0.052996382   -3.4204758    1.4617425   878832 
 2118000   0.97432866   -3.4207616   -3.4207616   -1.9592702  0.048837382   -3.4207616    1.4614913   878832 
 2119000   0.97524354   -3.4204928   -3.4204928   -1.9576292  0.050068105   -3.4204928    1.4628637   878832 
 2120000   0.97575526   -3.4202632   -3.4202632    -1.956632  0.050807762   -3.4202632    1.4636312   878832 
 2121000   0.97475685   -3.4197203   -3.4197203   -1.9575867  0.049936908   -3.4197203    1.4621336   878832 
 2122000   0.97610415   -3.4216333   -3.4216333   -1.9574787  0.049187365   -3.4216333    1.4641546   878832 
 2123000   0.97410306   -3.4189658   -3.4189658   -1.9578129   0.05112105   -3.4189658    1.4611529   878832 
 2124000   0.97492295   -3.4195252   -3.4195252   -1.9571424  0.048468014   -3.4195252    1.4623828   878832 
 2125000   0.97524345   -3.4201003   -3.4201003   -1.9572368  0.052039006   -3.4201003    1.4628635   878832 
 2126000    0.9743743   -3.4180507   -3.4180507   -1.9564909  0.047598704   -3.4180507    1.4615598   878832 
 2127000   0.97378983   -3.4167355   -3.4167355   -1.9560524  0.052618385   -3.4167355    1.4606831   878832 
 2128000   0.97607302   -3.4198117   -3.4198117   -1.9557038  0.049228272   -3.4198117    1.4641079   878832 
 2129000   0.97578254   -3.4187989   -3.4187989   -1.9551268  0.047203828   -3.4187989    1.4636721   878832 
 2130000   0.97547619   -3.4190786   -3.4190786    -1.955866   0.05067019   -3.4190786    1.4632126   878832 
 2131000   0.97538116   -3.4193042   -3.4193042   -1.9562342  0.050492671   -3.4193042    1.4630701   878832 
 2132000   0.97529036   -3.4185227   -3.4185227   -1.9555889  0.049388221   -3.4185227    1.4629339   878832 
 2133000   0.97432569   -3.4172702   -3.4172702   -1.9557833  0.047914215   -3.4172702    1.4614869   878832 
 2134000   0.97488398   -3.4173619   -3.4173619   -1.9550376  0.048531249   -3.4173619    1.4623243   878832 
 2135000   0.97606211   -3.4183256   -3.4183256   -1.9542341  0.047918721   -3.4183256    1.4640915   878832 
 2136000    0.9751587   -3.4171186   -3.4171186   -1.9543822  0.048656763   -3.4171186    1.4627364   878832 
 2137000    0.9750692   -3.4167116   -3.4167116   -1.9541094  0.044150354   -3.4167116    1.4626021   878832 
 2138000   0.97442516   -3.4153655   -3.4153655   -1.9537294  0.050662329   -3.4153655    1.4616361   878832 
 2139000   0.97495141   -3.4156074   -3.4156074   -1.9531819  0.048723064   -3.4156074    1.4624255   878832 
 2140000   0.97488745    -3.413892    -3.413892   -1.9515625  0.052060777    -3.413892    1.4623295   878832 
 2141000   0.97456405   -3.4138171   -3.4138171   -1.9519727  0.050426773   -3.4138171    1.4618444   878832 
 2142000   0.97542823   -3.4155075   -3.4155075   -1.9523668  0.050491408   -3.4155075    1.4631407   878832 
 2143000   0.97499764   -3.4149961   -3.4149961   -1.9525013  0.046876458   -3.4149961    1.4624948   878832 
 2144000   0.97500092   -3.4145016   -3.4145016   -1.9520019  0.047268553   -3.4145016    1.4624997   878832 
 2145000   0.97490102   -3.4133741   -3.4133741   -1.9510242   0.05397697   -3.4133741    1.4623499   878832 
 2146000   0.97423806   -3.4121584   -3.4121584    -1.950803  0.051411797   -3.4121584    1.4613554   878832 
 2147000   0.97421927   -3.4129856   -3.4129856   -1.9516584  0.047701172   -3.4129856    1.4613272   878832 
 2148000   0.97362036   -3.4120595   -3.4120595   -1.9516306  0.046734749   -3.4120595    1.4604289   878832 
 2149000    0.9738092   -3.4124451   -3.4124451    -1.951733  0.044273771   -3.4124451    1.4607121   878832 
 2150000   0.97318109   -3.4115096   -3.4115096   -1.9517396  0.047110404   -3.4115096      1.45977   878832 
 2151000   0.97294481   -3.4104649   -3.4104649   -1.9510493  0.046708307   -3.4104649    1.4594156   878832 
 2152000   0.97303411   -3.4112918   -3.4112918   -1.9517422  0.045895736   -3.4112918    1.4595495   878832 
 2153000   0.97360262    -3.411458    -3.411458   -1.9510557  0.044073463    -3.411458    1.4604023   878832 
 2154000   0.97386172   -3.4115299   -3.4115299    -1.950739  0.043471662   -3.4115299    1.4607909   878832 
 2155000   0.97292553   -3.4104488   -3.4104488   -1.9510622  0.049409482   -3.4104488    1.4593866   878832 
 2156000   0.97443438   -3.4116217   -3.4116217   -1.9499718  0.048042517   -3.4116217    1.4616499   878832 
 2157000   0.97460267   -3.4112743   -3.4112743    -1.949372  0.050844323   -3.4112743    1.4619023   878832 
 2158000   0.97581224    -3.413022    -3.413022   -1.9493053   0.04738092    -3.413022    1.4637167   878832 
 2159000   0.97522964   -3.4119992   -3.4119992   -1.9491564  0.049440101   -3.4119992    1.4628428   878832 
 2160000   0.97526951    -3.412462    -3.412462   -1.9495594  0.045923675    -3.412462    1.4629026   878832 
 2161000   0.97605068   -3.4130191   -3.4130191   -1.9489448   0.04913932   -3.4130191    1.4640743   878832 
 2162000   0.97578609   -3.4114881   -3.4114881   -1.9478106   0.04982908   -3.4114881    1.4636775   878832 
 2163000   0.97627309   -3.4118413   -3.4118413   -1.9474333  0.053721874   -3.4118413     1.464408   878832 
 2164000   0.97630876   -3.4123582   -3.4123582   -1.9478968  0.053915955   -3.4123582    1.4644615   878832 
 2165000   0.97570163   -3.4121644   -3.4121644   -1.9486136    0.0544059   -3.4121644    1.4635508   878832 
 2166000    0.9751704   -3.4123206   -3.4123206   -1.9495667  0.051619187   -3.4123206    1.4627539   878832 
 2167000   0.97503524   -3.4117392   -3.4117392    -1.949188  0.049124615   -3.4117392    1.4625512   878832 
 2168000   0.97529965   -3.4122255   -3.4122255   -1.9492777  0.048482432   -3.4122255    1.4629478   878832 
 2169000   0.97507941   -3.4121776   -3.4121776   -1.9495602   0.05158604   -3.4121776    1.4626174   878832 
 2170000   0.97570456   -3.4130538   -3.4130538   -1.9494986  0.050001599   -3.4130538    1.4635552   878832 
 2171000     0.974706   -3.4123068   -3.4123068   -1.9502495  0.054894693   -3.4123068    1.4620573   878832 
 2172000   0.97526769   -3.4135817   -3.4135817   -1.9506819  0.048568322   -3.4135817    1.4628999   878832 
 2173000   0.97486163   -3.4135074   -3.4135074   -1.9512166  0.050187947   -3.4135074    1.4622908   878832 
 2174000   0.97449703   -3.4123497   -3.4123497   -1.9506059  0.048531735   -3.4123497    1.4617439   878832 
 2175000   0.97529228    -3.413194    -3.413194   -1.9502572  0.049329723    -3.413194    1.4629368   878832 
 2176000   0.97482955   -3.4124501   -3.4124501   -1.9502075  0.043084234   -3.4124501    1.4622427   878832 
 2177000   0.97487878   -3.4137802   -3.4137802   -1.9514637  0.050895326   -3.4137802    1.4623165   878832 
 2178000   0.97390569   -3.4112824   -3.4112824   -1.9504255  0.046205855   -3.4112824    1.4608569   878832 
 2179000    0.9758324    -3.413502    -3.413502   -1.9497551  0.048390213    -3.413502    1.4637469   878832 
 2180000   0.97540262   -3.4129301   -3.4129301   -1.9498278  0.047435823   -3.4129301    1.4631023   878832 
 2181000   0.97552799   -3.4136604   -3.4136604     -1.95037  0.049874798   -3.4136604    1.4632903   878832 
 2182000   0.97604453   -3.4137941   -3.4137941    -1.949729   0.04900365   -3.4137941    1.4640651   878832 
 2183000   0.97622955   -3.4140523   -3.4140523   -1.9497097  0.052865196   -3.4140523    1.4643427   878832 
 2184000   0.97654963   -3.4140862   -3.4140862   -1.9492635  0.053155165   -3.4140862    1.4648228   878832 
 2185000   0.97562315   -3.4132994   -3.4132994   -1.9498664  0.049372252   -3.4132994    1.4634331   878832 
 2186000   0.97501003    -3.412445    -3.412445   -1.9499316  0.050368909    -3.412445    1.4625134   878832 
 2187000    0.9755703   -3.4138002   -3.4138002   -1.9504464  0.048757347   -3.4138002    1.4633538   878832 
 2188000   0.97517644    -3.413004    -3.413004    -1.950241  0.048780619    -3.413004     1.462763   878832 
 2189000   0.97576501   -3.4135555   -3.4135555   -1.9499097  0.047035968   -3.4135555    1.4636458   878832 
 2190000   0.97551516   -3.4133275   -3.4133275   -1.9500564  0.052347566   -3.4133275    1.4632711   878832 
 2191000     0.975696   -3.4139752   -3.4139752   -1.9504329  0.051582712   -3.4139752    1.4635423   878832 
 2192000    0.9769303   -3.4154535   -3.4154535   -1.9500598  0.051053768   -3.4154535    1.4653938   878832 
 2193000   0.97614848   -3.4145027   -3.4145027   -1.9502816  0.045497516   -3.4145027    1.4642211   878832 
 2194000   0.97564168   -3.4142983   -3.4142983   -1.9508374  0.047654204   -3.4142983    1.4634609   878832 
 2195000   0.97588789    -3.414292    -3.414292   -1.9504619  0.048592274    -3.414292    1.4638302   878832 
 2196000   0.97489965   -3.4127618   -3.4127618    -1.950414  0.054067997   -3.4127618    1.4623478   878832 
 2197000   0.97532448   -3.4131833   -3.4131833   -1.9501983  0.045097156   -3.4131833    1.4629851   878832 
 2198000   0.97384671   -3.4107714   -3.4107714    -1.950003  0.051852812   -3.4107714    1.4607684   878832 
 2199000   0.97534435   -3.4127466   -3.4127466   -1.9497317  0.049469756   -3.4127466    1.4630149   878832 
 2200000     0.975455   -3.4126716   -3.4126716   -1.9494908   0.04842805   -3.4126716    1.4631808   878832 
 2201000   0.97590056    -3.411997    -3.411997   -1.9481478  0.051520268    -3.411997    1.4638492   878832 
 2202000   0.97705968   -3.4136488   -3.4136488   -1.9480609  0.050970407   -3.4136488    1.4655879   878832 
 2203000   0.97580301    -3.412545    -3.412545   -1.9488422  0.050940736    -3.412545    1.4637029   878832 
 2204000   0.97605121   -3.4126811   -3.4126811   -1.9486059  0.051639727   -3.4126811    1.4640751   878832 
 2205000   0.97641542   -3.4137493   -3.4137493   -1.9491279  0.047284438   -3.4137493    1.4646215   878832 
 2206000   0.97651362   -3.4130733   -3.4130733   -1.9483046  0.049985021   -3.4130733    1.4647688   878832 
 2207000   0.97573746   -3.4122898   -3.4122898   -1.9486853  0.047971222   -3.4122898    1.4636045   878832 
 2208000   0.97661999   -3.4122822   -3.4122822   -1.9473539   0.04708289   -3.4122822    1.4649283   878832 
 2209000   0.97567219   -3.4116075   -3.4116075   -1.9481009  0.046601019   -3.4116075    1.4635066   878832 
 2210000   0.97623557   -3.4125004   -3.4125004   -1.9481487  0.047054298   -3.4125004    1.4643517   878832 
 2211000    0.9761875   -3.4126853   -3.4126853   -1.9484057  0.048546081   -3.4126853    1.4642796   878832 
 2212000   0.97496724   -3.4115294   -3.4115294   -1.9490802  0.050906232   -3.4115294    1.4624492   878832 
 2213000   0.97550447   -3.4113667   -3.4113667   -1.9481117  0.047241168   -3.4113667     1.463255   878832 
 2214000   0.97465144   -3.4104276   -3.4104276   -1.9484521  0.049950226   -3.4104276    1.4619755   878832 
 2215000   0.97528318    -3.410973    -3.410973   -1.9480499   0.04651116    -3.410973    1.4629231   878832 
 2216000   0.97579458    -3.411667    -3.411667   -1.9479768  0.051574783    -3.411667    1.4636902   878832 
 2217000   0.97594733   -3.4122941   -3.4122941   -1.9483748  0.045444114   -3.4122941    1.4639193   878832 
 2218000   0.97537919   -3.4109287   -3.4109287   -1.9478616  0.050689818   -3.4109287    1.4630671   878832 
 2219000   0.97578415   -3.4112071   -3.4112071   -1.9475325  0.050159698   -3.4112071    1.4636746   878832 
 2220000   0.97541634   -3.4105785   -3.4105785   -1.9474557  0.048885674   -3.4105785    1.4631228   878832 
 2221000   0.97489388   -3.4098124   -3.4098124   -1.9474732  0.047917287   -3.4098124    1.4623392   878832 
 2222000   0.97564371   -3.4102451   -3.4102451   -1.9467812  0.049808045   -3.4102451    1.4634639   878832 
 2223000   0.97606595   -3.4108124   -3.4108124   -1.9467152  0.047904943   -3.4108124    1.4640973   878832 
 2224000   0.97547438   -3.4092403   -3.4092403   -1.9460304  0.048864069   -3.4092403    1.4632099   878832 
 2225000   0.97565701   -3.4099722   -3.4099722   -1.9464883  0.048426942   -3.4099722    1.4634838   878832 
 2226000   0.97524734   -3.4088507   -3.4088507   -1.9459814  0.049099539   -3.4088507    1.4628694   878832 
 2227000   0.97532374   -3.4082893   -3.4082893   -1.9453054  0.050041008   -3.4082893     1.462984   878832 
 2228000   0.97584085    -3.409791    -3.409791   -1.9460314  0.051088286    -3.409791    1.4637596   878832 
 2229000   0.97682433   -3.4106275   -3.4106275   -1.9453927   0.05007965   -3.4106275    1.4652348   878832 
 2230000   0.97625268   -3.4103333   -3.4103333   -1.9459559  0.051026185   -3.4103333    1.4643773   878832 
 2231000   0.97557082   -3.4095212   -3.4095212   -1.9461666  0.047314369   -3.4095212    1.4633546   878832 
 2232000   0.97639293   -3.4104162   -3.4104162   -1.9458284  0.047701636   -3.4104162    1.4645877   878832 
 2233000   0.97623186   -3.4093166   -3.4093166   -1.9449705  0.048980772   -3.4093166    1.4643461   878832 
 2234000   0.97714014    -3.410121    -3.410121   -1.9444125  0.050257727    -3.410121    1.4657085   878832 
 2235000   0.97650189   -3.4091027   -3.4091027   -1.9443516   0.04750282   -3.4091027    1.4647512   878832 
 2236000   0.97618044   -3.4087759   -3.4087759   -1.9445069  0.048642166   -3.4087759     1.464269   878832 
 2237000   0.97582612   -3.4084954   -3.4084954   -1.9447579  0.052277507   -3.4084954    1.4637375   878832 
 2238000   0.97552211   -3.4081322   -3.4081322   -1.9448507  0.051645191   -3.4081322    1.4632815   878832 
 2239000   0.97493313   -3.4070551   -3.4070551   -1.9446571  0.051874276   -3.4070551     1.462398   878832 
 2240000   0.97486625   -3.4073432   -3.4073432   -1.9450455  0.043887794   -3.4073432    1.4622977   878832 
 2241000   0.97518502   -3.4086379   -3.4086379   -1.9458621  0.047427236   -3.4086379    1.4627759   878832 
 2242000   0.97578221   -3.4089867   -3.4089867    -1.945315  0.046113637   -3.4089867    1.4636717   878832 
 2243000   0.97570771   -3.4087108   -3.4087108   -1.9451509  0.049752908   -3.4087108    1.4635599   878832 
 2244000   0.97593915   -3.4081021   -3.4081021    -1.944195   0.05177638   -3.4081021    1.4639071   878832 
 2245000   0.97656538   -3.4091373   -3.4091373   -1.9442909   0.04649455   -3.4091373    1.4648464   878832 
 2246000   0.97657208   -3.4083553   -3.4083553   -1.9434989  0.048905666   -3.4083553    1.4648565   878832 
 2247000   0.97720033   -3.4091841   -3.4091841   -1.9433852  0.048442067   -3.4091841    1.4657988   878832 
 2248000   0.97592321   -3.4083865   -3.4083865   -1.9445034  0.049727562   -3.4083865    1.4638831   878832 
 2249000   0.97556571   -3.4072358   -3.4072358   -1.9438889   0.05169252   -3.4072358    1.4633469   878832 
 2250000   0.97643407   -3.4085271   -3.4085271   -1.9438777  0.047390875   -3.4085271    1.4646494   878832 
 2251000   0.97680741   -3.4090832   -3.4090832   -1.9438738  0.045716361   -3.4090832    1.4652095   878832 
 2252000   0.97606642   -3.4072542   -3.4072542   -1.9431563  0.050272376   -3.4072542     1.464098   878832 
 2253000   0.97613079   -3.4071572   -3.4071572   -1.9429627  0.051293559   -3.4071572    1.4641945   878832 
 2254000    0.9770047   -3.4073593   -3.4073593   -1.9418539  0.050109129   -3.4073593    1.4655054   878832 
 2255000   0.97879763   -3.4094554   -3.4094554   -1.9412606  0.052194806   -3.4094554    1.4681948   878832 
 2256000   0.97691025   -3.4072738   -3.4072738   -1.9419101  0.054158823   -3.4072738    1.4653637   878832 
 2257000   0.97700014   -3.4080353   -3.4080353   -1.9425368  0.052962368   -3.4080353    1.4654985   878832 
 2258000   0.97709361   -3.4071337   -3.4071337    -1.941495  0.048980964   -3.4071337    1.4656387   878832 
 2259000   0.97782488   -3.4081915   -3.4081915   -1.9414558  0.048961477   -3.4081915    1.4667357   878832 
 2260000   0.97715369   -3.4074386   -3.4074386   -1.9417097  0.050032473   -3.4074386    1.4657289   878832 
 2261000   0.97572031   -3.4050419   -3.4050419   -1.9414631  0.052629623   -3.4050419    1.4635788   878832 
 2262000   0.97606652   -3.4051079   -3.4051079   -1.9410098  0.049227872   -3.4051079    1.4640981   878832 
 2263000   0.97515778   -3.4040945   -3.4040945   -1.9413595   0.04800696   -3.4040945     1.462735   878832 
 2264000    0.9746007    -3.403481    -3.403481   -1.9415816  0.048878869    -3.403481    1.4618994   878832 
 2265000   0.97644192   -3.4059426   -3.4059426   -1.9412814  0.046634583   -3.4059426    1.4646612   878832 
 2266000   0.97500549   -3.4039343   -3.4039343   -1.9414278  0.048978022   -3.4039343    1.4625066   878832 
 2267000   0.97603934   -3.4056111   -3.4056111   -1.9415537  0.049777117   -3.4056111    1.4640573   878832 
 2268000   0.97561784   -3.4051101   -3.4051101    -1.941685  0.041705634   -3.4051101    1.4634251   878832 
 2269000   0.97517717    -3.404032    -3.404032   -1.9412679   0.04608874    -3.404032    1.4627641   878832 
 2270000   0.97568569   -3.4044423   -3.4044423   -1.9409154  0.049507861   -3.4044423    1.4635269   878832 
 2271000   0.97561978   -3.4045764   -3.4045764   -1.9411484  0.050281325   -3.4045764     1.463428   878832 
 2272000    0.9751658   -3.4026055   -3.4026055   -1.9398585  0.050349143   -3.4026055     1.462747   878832 
 2273000   0.97696715   -3.4058907   -3.4058907   -1.9404417  0.045059885   -3.4058907    1.4654491   878832 
 2274000   0.97570261   -3.4035819   -3.4035819   -1.9400296  0.047826904   -3.4035819    1.4635523   878832 
 2275000   0.97598345   -3.4035255   -3.4035255    -1.939552  0.050680466   -3.4035255    1.4639735   878832 
 2276000   0.97696803   -3.4041886   -3.4041886   -1.9387382  0.047028579   -3.4041886    1.4654504   878832 
 2277000   0.97523421   -3.4020293   -3.4020293   -1.9391797  0.049193429   -3.4020293    1.4628496   878832 
 2278000   0.97663857   -3.4033658   -3.4033658   -1.9384096  0.049495581   -3.4033658    1.4649562   878832 
 2279000   0.97733255   -3.4048447   -3.4048447   -1.9388476  0.050036728   -3.4048447    1.4659972   878832 
 2280000   0.97696208   -3.4038125   -3.4038125   -1.9383711  0.051185632   -3.4038125    1.4654414   878832 
 2281000   0.97697048   -3.4046086   -3.4046086   -1.9391545  0.046169885   -3.4046086     1.465454   878832 
 2282000   0.97722681   -3.4049146   -3.4049146   -1.9390761  0.050517623   -3.4049146    1.4658385   878832 
 2283000   0.97667834   -3.4038283   -3.4038283   -1.9388125  0.047262053   -3.4038283    1.4650158   878832 
 2284000   0.97705701   -3.4044266   -3.4044266   -1.9388428  0.048751204   -3.4044266    1.4655838   878832 
 2285000   0.97727669   -3.4040649   -3.4040649   -1.9381515  0.047743409   -3.4040649    1.4659134   878832 
 2286000   0.97659749   -3.4035226   -3.4035226    -1.938628  0.047483122   -3.4035226    1.4648946   878832 
 2287000   0.97737488   -3.4047132   -3.4047132   -1.9386526  0.048986604   -3.4047132    1.4660607   878832 
 2288000   0.97612549   -3.4029589   -3.4029589   -1.9387723  0.049580726   -3.4029589    1.4641866   878832 
 2289000    0.9767323   -3.4051288   -3.4051288    -1.940032  0.047870277   -3.4051288    1.4650968   878832 
 2290000   0.97631453   -3.4039931   -3.4039931   -1.9395229  0.051640972   -3.4039931    1.4644701   878832 
 2291000   0.97657301   -3.4044732   -3.4044732   -1.9396154  0.048056131   -3.4044732    1.4648578   878832 
 2292000   0.97588909   -3.4032287   -3.4032287   -1.9393967  0.053262165   -3.4032287     1.463832   878832 
 2293000   0.97715308   -3.4048627   -3.4048627   -1.9391347   0.05049765   -3.4048627     1.465728   878832 
 2294000   0.97824828   -3.4049572   -3.4049572   -1.9375864  0.048512097   -3.4049572    1.4673707   878832 
 2295000   0.97793832   -3.4042179   -3.4042179    -1.937312  0.055325938   -3.4042179    1.4669058   878832 
 2296000   0.97854864   -3.4056761   -3.4056761   -1.9378548  0.054876035   -3.4056761    1.4678213   878832 
 2297000    0.9784396   -3.4059002   -3.4059002   -1.9382425   0.05071315   -3.4059002    1.4676577   878832 
 2298000   0.97903652    -3.406493    -3.406493   -1.9379399  0.053920124    -3.406493    1.4685531   878832 
 2299000    0.9784216    -3.405492    -3.405492   -1.9378613  0.053191601    -3.405492    1.4676307   878832 
 2300000   0.97877791   -3.4060581   -3.4060581   -1.9378929  0.052688757   -3.4060581    1.4681652   878832 
 2301000   0.97865986   -3.4044128   -3.4044128   -1.9364247  0.053407161   -3.4044128    1.4679881   878832 
 2302000   0.97877457   -3.4056414   -3.4056414   -1.9374812  0.051240276   -3.4056414    1.4681602   878832 
 2303000   0.97623451    -3.402895    -3.402895   -1.9385449  0.053878387    -3.402895    1.4643501   878832 
 2304000    0.9767718   -3.4038481   -3.4038481    -1.938692  0.051611286   -3.4038481     1.465156   878832 
 2305000   0.97693978   -3.4037875   -3.4037875   -1.9383795  0.051426688   -3.4037875     1.465408   878832 
 2306000    0.9773812   -3.4048617   -3.4048617   -1.9387915  0.046346276   -3.4048617    1.4660701   878832 
 2307000   0.97603398   -3.4020343   -3.4020343   -1.9379849  0.048030756   -3.4020343    1.4640493   878832 
 2308000   0.97717885   -3.4036174   -3.4036174   -1.9378508  0.049378447   -3.4036174    1.4657666   878832 
 2309000   0.97771039   -3.4040576   -3.4040576   -1.9374937  0.047498958   -3.4040576    1.4665639   878832 
 2310000   0.97701107   -3.4028495   -3.4028495   -1.9373346  0.049038264   -3.4028495    1.4655149   878832 
 2311000   0.97749074   -3.4034579   -3.4034579   -1.9372235  0.049962171   -3.4034579    1.4662344   878832 
 2312000   0.97779724   -3.4037749   -3.4037749   -1.9370807  0.048859309   -3.4037749    1.4666942   878832 
 2313000   0.97735852   -3.4017732   -3.4017732   -1.9357371  0.051797494   -3.4017732    1.4660361   878832 
 2314000    0.9774313   -3.4015163   -3.4015163    -1.935371  0.052913719   -3.4015163    1.4661453   878832 
 2315000   0.97687828   -3.4009083   -3.4009083   -1.9355926   0.05295739   -3.4009083    1.4653157   878832 
 2316000   0.97699159    -3.400928    -3.400928   -1.9354423  0.051882929    -3.400928    1.4654857   878832 
 2317000   0.97732765   -3.4013774   -3.4013774   -1.9353876  0.046849272   -3.4013774    1.4659898   878832 
 2318000   0.97702985   -3.4014539   -3.4014539   -1.9359108  0.046757606   -3.4014539    1.4655431   878832 
 2319000   0.97708157   -3.4003192   -3.4003192   -1.9346986  0.051919816   -3.4003192    1.4656207   878832 
 2320000   0.97686858    -3.400587    -3.400587   -1.9352858  0.050712113    -3.400587    1.4653012   878832 
 2321000   0.97703498   -3.4003856   -3.4003856   -1.9348348  0.047753572   -3.4003856    1.4655508   878832 
 2322000   0.97706469   -3.3998868   -3.3998868   -1.9342914  0.050935636   -3.3998868    1.4655954   878832 
 2323000   0.97708374     -3.40016     -3.40016   -1.9345361  0.048381316     -3.40016    1.4656239   878832 
 2324000   0.97667819   -3.3992747   -3.3992747    -1.934259   0.05181693   -3.3992747    1.4650156   878832 
 2325000   0.97701528   -3.3994887   -3.3994887   -1.9339675  0.047555385   -3.3994887    1.4655213   878832 
 2326000   0.97814268   -3.4005484   -3.4005484    -1.933336  0.043804628   -3.4005484    1.4672124   878832 
 2327000   0.97714185   -3.3990011   -3.3990011     -1.93329  0.048205049   -3.3990011    1.4657111   878832 
 2328000   0.97757604   -3.3995813   -3.3995813   -1.9332189  0.046423544   -3.3995813    1.4663624   878832 
 2329000   0.97777025   -3.3986202   -3.3986202   -1.9319665  0.051742501   -3.3986202    1.4666537   878832 
 2330000   0.97801623   -3.3990891   -3.3990891   -1.9320664  0.050898849   -3.3990891    1.4670227   878832 
 2331000   0.97781811   -3.3995963   -3.3995963   -1.9328708  0.049025792   -3.3995963    1.4667255   878832 
 2332000   0.97754301   -3.3987305   -3.3987305   -1.9324176  0.046532771   -3.3987305    1.4663128   878832 
 2333000   0.97799935   -3.3984102   -3.3984102   -1.9314128  0.048465165   -3.3984102    1.4669974   878832 
 2334000   0.97746278   -3.3971813   -3.3971813   -1.9309888  0.048500115   -3.3971813    1.4661925   878832 
 2335000   0.97722621   -3.3963693   -3.3963693   -1.9305316  0.048732569   -3.3963693    1.4658376   878832 
 2336000   0.97705549   -3.3970044   -3.3970044   -1.9314229  0.048769886   -3.3970044    1.4655816   878832 
 2337000   0.97710228   -3.3973012   -3.3973012   -1.9316495  0.047777614   -3.3973012    1.4656517   878832 
 2338000   0.97660277   -3.3967005   -3.3967005    -1.931798  0.048101257   -3.3967005    1.4649025   878832 
 2339000   0.97665098   -3.3968175   -3.3968175   -1.9318427  0.049082949   -3.3968175    1.4649748   878832 
 2340000    0.9761111   -3.3956825   -3.3956825   -1.9315175   0.04841386   -3.3956825     1.464165   878832 
 2341000   0.97711967   -3.3966915   -3.3966915   -1.9310136  0.051757381   -3.3966915    1.4656778   878832 
 2342000   0.97669431   -3.3965995   -3.3965995   -1.9315597  0.051417759   -3.3965995    1.4650398   878832 
 2343000   0.97658097   -3.3962521   -3.3962521   -1.9313823  0.047986891   -3.3962521    1.4648698   878832 
 2344000   0.97635515   -3.3965848   -3.3965848   -1.9320537  0.047770476   -3.3965848    1.4645311   878832 
 2345000   0.97548703   -3.3960962   -3.3960962   -1.9328674   0.04872908   -3.3960962    1.4632289   878832 
 2346000   0.97652354   -3.3963171   -3.3963171   -1.9315334  0.045209679   -3.3963171    1.4647836   878832 
 2347000   0.97701323   -3.3969326   -3.3969326   -1.9314144  0.048447819   -3.3969326    1.4655182   878832 
 2348000   0.97732912   -3.3982453   -3.3982453   -1.9322533  0.050278612   -3.3982453     1.465992   878832 
 2349000   0.97772833    -3.398839    -3.398839   -1.9322482  0.045329189    -3.398839    1.4665908   878832 
 2350000   0.97794082   -3.3975399   -3.3975399   -1.9306303   0.05065965   -3.3975399    1.4669096   878832 
 2351000   0.97702194   -3.3962871   -3.3962871   -1.9307559  0.050355091   -3.3962871    1.4655312   878832 
 2352000   0.97764489   -3.3963436   -3.3963436   -1.9298779   0.05057115   -3.3963436    1.4664657   878832 
 2353000   0.97811931   -3.3976386   -3.3976386   -1.9304613  0.049786829   -3.3976386    1.4671773   878832 
 2354000   0.97759515   -3.3962142   -3.3962142   -1.9298232  0.050060505   -3.3962142    1.4663911   878832 
 2355000   0.97841936   -3.3974279   -3.3974279   -1.9298005  0.055403897   -3.3974279    1.4676274   878832 
 2356000   0.97867473   -3.3984389   -3.3984389   -1.9304285  0.051994667   -3.3984389    1.4680104   878832 
 2357000   0.97854733   -3.3974825   -3.3974825   -1.9296632  0.052843149   -3.3974825    1.4678193   878832 
 2358000   0.97901293   -3.3994221   -3.3994221   -1.9309044  0.051488238   -3.3994221    1.4685177   878832 
 2359000   0.97845186   -3.3993966   -3.3993966   -1.9317205  0.048507488   -3.3993966    1.4676761   878832 
 2360000   0.97726813   -3.3977988   -3.3977988   -1.9318983  0.055360209   -3.3977988    1.4659005   878832 
 2361000   0.97819705   -3.3998349   -3.3998349    -1.932541   0.05040097   -3.3998349    1.4672939   878832 
 2362000    0.9786486   -3.4005046   -3.4005046   -1.9325334  0.051927855   -3.4005046    1.4679712   878832 
 2363000   0.97822969   -3.3999297   -3.3999297   -1.9325868  0.051809555   -3.3999297    1.4673429   878832 
 2364000   0.97730352   -3.3996209   -3.3996209   -1.9336673  0.048706654   -3.3996209    1.4659536   878832 
 2365000   0.97734989    -3.399759    -3.399759   -1.9337358  0.053700368    -3.399759    1.4660232   878832 
 2366000    0.9769117    -3.398232    -3.398232   -1.9328661    0.0488559    -3.398232    1.4653659   878832 
 2367000   0.97748776   -3.3985646   -3.3985646   -1.9323347   0.04988139   -3.3985646      1.46623   878832 
 2368000   0.97714204   -3.3979628   -3.3979628   -1.9322514  0.044851588   -3.3979628    1.4657114   878832 
 2369000   0.97728447   -3.3985425   -3.3985425   -1.9326174  0.049144806   -3.3985425     1.465925   878832 
 2370000   0.97824928   -3.4004363   -3.4004363   -1.9330641  0.048349975   -3.4004363    1.4673723   878832 
 2371000   0.97682546   -3.3986726   -3.3986726   -1.9334361  0.051008517   -3.3986726    1.4652365   878832 
 2372000    0.9786462   -3.3994557   -3.3994557    -1.931488  0.050570752   -3.3994557    1.4679676   878832 
 2373000   0.97750784   -3.3976316   -3.3976316   -1.9313715  0.052321215   -3.3976316    1.4662601   878832 
 2374000   0.97832053   -3.3994308   -3.3994308   -1.9319517   0.05041401   -3.3994308    1.4674791   878832 
 2375000   0.97800776   -3.3984172   -3.3984172   -1.9314072  0.048320402   -3.3984172      1.46701   878832 
 2376000   0.97957787   -3.3990688   -3.3990688   -1.9297036  0.051324224   -3.3990688    1.4693651   878832 
 2377000   0.97813602   -3.3978814   -3.3978814    -1.930679  0.054975535   -3.3978814    1.4672024   878832 
 2378000   0.97937173   -3.3988919   -3.3988919   -1.9298359  0.050498711   -3.3988919    1.4690559   878832 
 2379000   0.97839261   -3.3975414   -3.3975414   -1.9299542  0.052084702   -3.3975414    1.4675872   878832 
 2380000    0.9788513   -3.3986071   -3.3986071   -1.9303318  0.052507596   -3.3986071    1.4682753   878832 
 2381000   0.97811769    -3.398049    -3.398049   -1.9308742  0.049038434    -3.398049    1.4671749   878832 
 2382000   0.97751242   -3.3965646   -3.3965646   -1.9302976  0.053517407   -3.3965646     1.466267   878832 
 2383000   0.97821118   -3.3971028   -3.3971028   -1.9297877  0.049280186   -3.3971028    1.4673151   878832 
 2384000   0.97828546   -3.3971361   -3.3971361   -1.9297096  0.053302772   -3.3971361    1.4674265   878832 
 2385000   0.97731729   -3.3957877   -3.3957877   -1.9298135   0.05153214   -3.3957877    1.4659743   878832 
 2386000   0.97808056   -3.3973221   -3.3973221   -1.9302029  0.047993648   -3.3973221    1.4671192   878832 
 2387000   0.97896633   -3.3975514   -3.3975514   -1.9291036  0.046723974   -3.3975514    1.4684478   878832 
 2388000    0.9777331   -3.3961174   -3.3961174   -1.9295195  0.048071246   -3.3961174     1.466598   878832 
 2389000   0.97851971   -3.3970027   -3.3970027   -1.9292248  0.050314064   -3.3970027    1.4677779   878832 
 2390000   0.97821786   -3.3964258   -3.3964258   -1.9291007  0.050510349   -3.3964258    1.4673251   878832 
 2391000   0.97897557    -3.396904    -3.396904   -1.9284423  0.050638787    -3.396904    1.4684617   878832 
 2392000   0.97887359   -3.3963617   -3.3963617    -1.928053  0.047941347   -3.3963617    1.4683087   878832 
 2393000   0.97859661   -3.3958669   -3.3958669   -1.9279737  0.052182411   -3.3958669    1.4678932   878832 
 2394000   0.97833517   -3.3951443   -3.3951443   -1.9276433  0.051182284   -3.3951443    1.4675011   878832 
 2395000   0.97693785   -3.3927921   -3.3927921    -1.927387  0.052389101   -3.3927921    1.4654051   878832 
 2396000   0.97674052   -3.3921641   -3.3921641    -1.927055  0.051648437   -3.3921641    1.4651091   878832 
 2397000   0.97724349   -3.3927693   -3.3927693   -1.9269058   0.04758453   -3.3927693    1.4658636   878832 
 2398000   0.97778085    -3.393011    -3.393011   -1.9263414  0.052210019    -3.393011    1.4666696   878832 
 2399000   0.97838879   -3.3942799   -3.3942799   -1.9266984  0.050910183   -3.3942799    1.4675815   878832 
 2400000   0.97760919   -3.3933756   -3.3933756   -1.9269635  0.045939137   -3.3933756    1.4664121   878832 
 2401000   0.97860447   -3.3949049   -3.3949049   -1.9269998  0.048644108   -3.3949049     1.467905   878832 
 2402000   0.97705713   -3.3922609   -3.3922609   -1.9266769  0.050258206   -3.3922609     1.465584   878832 
 2403000    0.9782957    -3.393766    -3.393766   -1.9263242  0.047909443    -3.393766    1.4674419   878832 
 2404000   0.97749436   -3.3920169   -3.3920169    -1.925777  0.052504934   -3.3920169    1.4662399   878832 
 2405000   0.97898842   -3.3944155   -3.3944155   -1.9259345  0.045681422   -3.3944155     1.468481   878832 
 2406000   0.97804984   -3.3925455   -3.3925455   -1.9254724  0.049951179   -3.3925455    1.4670731   878832 
 2407000   0.97896322   -3.3930733   -3.3930733   -1.9246301  0.051270499   -3.3930733    1.4684432   878832 
 2408000   0.97797979   -3.3921549   -3.3921549   -1.9251868  0.050005861   -3.3921549     1.466968   878832 
 2409000   0.97784096    -3.392478    -3.392478   -1.9257182  0.053404531    -3.392478    1.4667598   878832 
 2410000   0.97744372   -3.3909314   -3.3909314   -1.9247675  0.049480254   -3.3909314    1.4661639   878832 
 2411000   0.97903853   -3.3933587   -3.3933587   -1.9248026  0.048597009   -3.3933587    1.4685561   878832 
 2412000   0.97966357   -3.3941175   -3.3941175   -1.9246238  0.050205463   -3.3941175    1.4694937   878832 
 2413000     0.978438    -3.393525    -3.393525   -1.9258696  0.050784097    -3.393525    1.4676553   878832 
 2414000    0.9789274   -3.3945508   -3.3945508   -1.9261614  0.048789926   -3.3945508    1.4683894   878832 
 2415000   0.97740821   -3.3921063   -3.3921063   -1.9259957  0.050622005   -3.3921063    1.4661106   878832 
 2416000   0.97865636   -3.3926827   -3.3926827   -1.9246998  0.045909274   -3.3926827    1.4679829   878832 
 2417000   0.97745038   -3.3912939   -3.3912939     -1.92512  0.054256566   -3.3912939    1.4661739   878832 
 2418000    0.9779942     -3.39266     -3.39266   -1.9256703  0.050954047     -3.39266    1.4669896   878832 
 2419000   0.97961453   -3.3928075   -3.3928075   -1.9233874  0.047992577   -3.3928075    1.4694201   878832 
 2420000   0.97846949   -3.3918634   -3.3918634   -1.9241609  0.048952102   -3.3918634    1.4677026   878832 
 2421000   0.97854473    -3.391971    -3.391971   -1.9241556   0.05174582    -3.391971    1.4678154   878832 
 2422000   0.97854097   -3.3923268   -3.3923268   -1.9245171  0.049189064   -3.3923268    1.4678098   878832 
 2423000   0.97905869   -3.3934582   -3.3934582   -1.9248719  0.047595162   -3.3934582    1.4685864   878832 
 2424000   0.97909195   -3.3937497   -3.3937497   -1.9251134  0.048909041   -3.3937497    1.4686363   878832 
 2425000   0.97852832   -3.3929707   -3.3929707   -1.9251799  0.055126374   -3.3929707    1.4677908   878832 
 2426000   0.97802045   -3.3927981   -3.3927981   -1.9257691  0.048550562   -3.3927981     1.467029   878832 
 2427000   0.97890238   -3.3930077   -3.3930077   -1.9246558  0.049302207   -3.3930077    1.4683519   878832 
 2428000   0.97898782   -3.3937308   -3.3937308   -1.9252507  0.052977534   -3.3937308    1.4684801   878832 
 2429000   0.97854923    -3.393095    -3.393095   -1.9252728  0.051850899    -3.393095    1.4678222   878832 
 2430000   0.97824988    -3.392323    -3.392323   -1.9249499  0.048362077    -3.392323    1.4673732   878832 
 2431000   0.97884257   -3.3929841   -3.3929841   -1.9247219  0.050330034   -3.3929841    1.4682622   878832 
 2432000   0.97883782     -3.39273     -3.39273    -1.924475  0.046986533     -3.39273    1.4682551   878832 
 2433000   0.97807514   -3.3920166   -3.3920166   -1.9249055  0.054204846   -3.3920166     1.467111   878832 
 2434000   0.97968263   -3.3937336   -3.3937336   -1.9242113  0.051690203   -3.3937336    1.4695223   878832 
 2435000   0.97858776   -3.3923144   -3.3923144   -1.9244344  0.050871761   -3.3923144      1.46788   878832 
 2436000   0.97906208     -3.39369     -3.39369   -1.9250985  0.050703071     -3.39369    1.4685914   878832 
 2437000   0.97947375   -3.3941375   -3.3941375   -1.9249285  0.050620291   -3.3941375    1.4692089   878832 
 2438000   0.97882646   -3.3935567   -3.3935567   -1.9253187  0.050373231   -3.3935567     1.468238   878832 
 2439000   0.97807583   -3.3911373   -3.3911373   -1.9240253  0.051569867   -3.3911373    1.4671121   878832 
 2440000   0.97916183   -3.3924568   -3.3924568   -1.9237158  0.053898019   -3.3924568    1.4687411   878832 
 2441000   0.97889381   -3.3918459   -3.3918459   -1.9235069  0.057001691   -3.3918459     1.468339   878832 
 2442000   0.97828034   -3.3910469   -3.3910469   -1.9236281  0.050964282   -3.3910469    1.4674188   878832 
 2443000   0.97929261   -3.3930673   -3.3930673     -1.92413  0.051121242   -3.3930673    1.4689372   878832 
 2444000   0.97814994   -3.3904717   -3.3904717   -1.9232485  0.052349687   -3.3904717    1.4672232   878832 
 2445000   0.97942527    -3.392792    -3.392792   -1.9236558  0.052851015    -3.392792    1.4691362   878832 
 2446000   0.98051405   -3.3941652   -3.3941652   -1.9233958  0.050649757   -3.3941652    1.4707694   878832 
 2447000   0.97977029   -3.3932522   -3.3932522   -1.9235985   0.04950748   -3.3932522    1.4696538   878832 
 2448000   0.97948918   -3.3929967   -3.3929967   -1.9237646  0.051553135   -3.3929967    1.4692321   878832 
 2449000   0.97922444   -3.3928651   -3.3928651   -1.9240301  0.050534511   -3.3928651     1.468835   878832 
 2450000   0.97846919   -3.3908649   -3.3908649   -1.9231628  0.052224842   -3.3908649    1.4677021   878832 
 2451000   0.97891048   -3.3910676   -3.3910676   -1.9227035  0.052371231   -3.3910676    1.4683641   878832 
 2452000   0.97743935   -3.3893149   -3.3893149   -1.9231575  0.047543504   -3.3893149    1.4661574   878832 
 2453000   0.97716487   -3.3891926   -3.3891926    -1.923447   0.05166422   -3.3891926    1.4657456   878832 
 2454000   0.97766576   -3.3898318   -3.3898318   -1.9233348  0.050152882   -3.3898318     1.466497   878832 
 2455000   0.97820664   -3.3891878   -3.3891878   -1.9218795  0.047482615   -3.3891878    1.4673083   878832 
 2456000   0.97817765   -3.3899223   -3.3899223   -1.9226574  0.049090099   -3.3899223    1.4672648   878832 
 2457000   0.97845304   -3.3897896   -3.3897896   -1.9221117  0.049211424   -3.3897896    1.4676779   878832 
 2458000   0.97943258   -3.3905987   -3.3905987   -1.9214515  0.048259459   -3.3905987    1.4691472   878832 
 2459000   0.97887843   -3.3898411   -3.3898411   -1.9215251  0.054345366   -3.3898411     1.468316   878832 
 2460000   0.97931869   -3.3897258   -3.3897258   -1.9207495  0.053195406   -3.3897258    1.4689764   878832 
 2461000   0.98032618   -3.3908472   -3.3908472   -1.9203596  0.051618606   -3.3908472    1.4704876   878832 
 2462000   0.97927406   -3.3892645   -3.3892645   -1.9203551  0.048273564   -3.3892645    1.4689094   878832 
 2463000   0.97985493   -3.3892926   -3.3892926   -1.9195119  0.055856232   -3.3892926    1.4697807   878832 
 2464000   0.97952047   -3.3885397   -3.3885397   -1.9192606   0.05321556   -3.3885397     1.469279   878832 
 2465000   0.97955515   -3.3889362   -3.3889362   -1.9196052  0.052853999   -3.3889362    1.4693311   878832 
 2466000    0.9790791   -3.3892613   -3.3892613   -1.9206443  0.051533433   -3.3892613     1.468617   878832 
 2467000   0.97904981   -3.3880253   -3.3880253   -1.9194522  0.052820533   -3.3880253     1.468573   878832 
 2468000   0.97904167   -3.3888519   -3.3888519    -1.920291  0.049474349   -3.3888519    1.4685608   878832 
 2469000   0.97878116   -3.3885195   -3.3885195   -1.9203495  0.049080272   -3.3885195    1.4681701   878832 
 2470000   0.97901056   -3.3889375   -3.3889375   -1.9204234  0.046385434   -3.3889375    1.4685142   878832 
 2471000   0.97873063    -3.388624    -3.388624   -1.9205297  0.048050657    -3.388624    1.4680943   878832 
 2472000   0.97829089   -3.3873729   -3.3873729   -1.9199382  0.051057589   -3.3873729    1.4674347   878832 
 2473000    0.9773204   -3.3870869   -3.3870869   -1.9211079  0.050458868   -3.3870869    1.4659789   878832 
 2474000    0.9778637   -3.3875041   -3.3875041   -1.9207102  0.049100782   -3.3875041    1.4667939   878832 
 2475000   0.97930109   -3.3879073   -3.3879073   -1.9189573  0.050662418   -3.3879073      1.46895   878832 
 2476000   0.97858385   -3.3883074   -3.3883074   -1.9204333  0.045182099   -3.3883074    1.4678741   878832 
 2477000   0.97853111   -3.3882676   -3.3882676   -1.9204727  0.049781381   -3.3882676     1.467795   878832 
 2478000   0.97824105   -3.3877888   -3.3877888   -1.9204289  0.050263622   -3.3877888    1.4673599   878832 
 2479000   0.98020545   -3.3900159   -3.3900159   -1.9197094  0.048125425   -3.3900159    1.4703065   878832 
 2480000   0.97867553    -3.387872    -3.387872   -1.9198604  0.049720319    -3.387872    1.4680116   878832 
 2481000   0.97891995   -3.3885379   -3.3885379   -1.9201596    0.0511157   -3.3885379    1.4683782   878832 
 2482000   0.97871649   -3.3886497   -3.3886497   -1.9205767   0.04772532   -3.3886497    1.4680731   878832 
 2483000   0.97757589   -3.3871437   -3.3871437   -1.9207815  0.049446507   -3.3871437    1.4663622   878832 
 2484000   0.97977517   -3.3896829   -3.3896829   -1.9200218  0.045499967   -3.3896829    1.4696611   878832 
 2485000   0.97771467   -3.3875511   -3.3875511   -1.9209808  0.050653694   -3.3875511    1.4665703   878832 
 2486000   0.97869061   -3.3894471   -3.3894471   -1.9214128  0.047093072   -3.3894471    1.4680343   878832 
 2487000   0.97872682   -3.3896503   -3.3896503   -1.9215618  0.049788357   -3.3896503    1.4680886   878832 
 2488000   0.97836339   -3.3882001   -3.3882001   -1.9206567  0.052278733   -3.3882001    1.4675434   878832 
 2489000   0.97991397   -3.3905137   -3.3905137   -1.9206444  0.049669955   -3.3905137    1.4698693   878832 
 2490000   0.97896563   -3.3898042   -3.3898042   -1.9213574  0.055628639   -3.3898042    1.4684468   878832 
 2491000   0.97949483    -3.390298    -3.390298   -1.9210574  0.052381221    -3.390298    1.4692406   878832 
 2492000   0.97989049   -3.3901499   -3.3901499   -1.9203158  0.053098536   -3.3901499    1.4698341   878832 
 2493000   0.97972865   -3.3894688   -3.3894688   -1.9198775  0.055971745   -3.3894688    1.4695913   878832 
 2494000   0.98015862   -3.3909911   -3.3909911   -1.9207549  0.053708593   -3.3909911    1.4702363   878832 
 2495000   0.98025305   -3.3897507   -3.3897507   -1.9193728  0.052818726   -3.3897507    1.4703779   878832 
 2496000    0.9791933   -3.3891893   -3.3891893    -1.920401  0.053421239   -3.3891893    1.4687883   878832 
 2497000   0.98007299   -3.3903825   -3.3903825   -1.9202747  0.047557994   -3.3903825    1.4701078   878832 
 2498000   0.97986541   -3.3892901   -3.3892901   -1.9194936  0.054260383   -3.3892901    1.4697964   878832 
 2499000   0.97891888   -3.3886955   -3.3886955   -1.9203188   0.05336693   -3.3886955    1.4683766   878832 
 2500000   0.98005444   -3.3911909   -3.3911909   -1.9211109  0.052380225   -3.3911909      1.47008   878832 
 2501000   0.97878439   -3.3898233   -3.3898233   -1.9216483  0.050479289   -3.3898233    1.4681749   878832 
 2502000   0.97969034    -3.390855    -3.390855   -1.9213212  0.049119517    -3.390855    1.4695338   878832 
 2503000    0.9788762   -3.3895009   -3.3895009   -1.9211883   0.05330636   -3.3895009    1.4683126   878832 
 2504000   0.97940173    -3.390535    -3.390535    -1.921434   0.05367335    -3.390535    1.4691009   878832 
 2505000   0.98092806   -3.3922385   -3.3922385   -1.9208481  0.052083678   -3.3922385    1.4713904   878832 
 2506000   0.97922652   -3.3896332   -3.3896332   -1.9207951  0.054024755   -3.3896332    1.4688381   878832 
 2507000   0.97963916   -3.3898406   -3.3898406   -1.9203835  0.052980347   -3.3898406    1.4694571   878832 
 2508000   0.97956371   -3.3893327   -3.3893327   -1.9199888  0.052996421   -3.3893327    1.4693439   878832 
 2509000   0.97954122   -3.3895408   -3.3895408   -1.9202306  0.054005848   -3.3895408    1.4693102   878832 
 2510000    0.9805066   -3.3901126   -3.3901126   -1.9193544  0.050327758   -3.3901126    1.4707582   878832 
 2511000   0.97878634   -3.3877337   -3.3877337   -1.9195559  0.050554531   -3.3877337    1.4681778   878832 
 2512000   0.97836812   -3.3872248   -3.3872248   -1.9196743  0.046264872   -3.3872248    1.4675505   878832 
 2513000   0.97878413   -3.3876072   -3.3876072   -1.9194327  0.052616309   -3.3876072    1.4681745   878832 
 2514000    0.9792897   -3.3879962   -3.3879962   -1.9190633  0.050973779   -3.3879962    1.4689329   878832 
 2515000   0.97955022   -3.3881336   -3.3881336   -1.9188099  0.045405671   -3.3881336    1.4693237   878832 
 2516000   0.97959445     -3.38824     -3.38824     -1.91885  0.048487951     -3.38824      1.46939   878832 
 2517000   0.97976042   -3.3877888   -3.3877888   -1.9181499  0.050750379   -3.3877888     1.469639   878832 
 2518000   0.97915651   -3.3863692   -3.3863692   -1.9176361  0.052017108   -3.3863692    1.4687331   878832 
 2519000   0.97918288   -3.3861074   -3.3861074   -1.9173348  0.047980358   -3.3861074    1.4687727   878832 
 2520000   0.97875534   -3.3858492   -3.3858492   -1.9177178  0.050163673   -3.3858492    1.4681313   878832 
 2521000   0.98015288   -3.3867654   -3.3867654   -1.9165378  0.054691727   -3.3867654    1.4702276   878832 
 2522000   0.97958312   -3.3854276   -3.3854276   -1.9160546    0.0546547   -3.3854276     1.469373   878832 
 2523000   0.98024646   -3.3859556   -3.3859556   -1.9155876  0.052835612   -3.3859556     1.470368   878832 
 2524000   0.97957436   -3.3857844   -3.3857844   -1.9164245  0.052903144   -3.3857844    1.4693599   878832 
 2525000   0.97955567   -3.3856132   -3.3856132   -1.9162813  0.051102891   -3.3856132    1.4693318   878832 
 2526000   0.97911891   -3.3850298   -3.3850298   -1.9163531  0.048785834   -3.3850298    1.4686767   878832 
 2527000   0.97826208   -3.3841981   -3.3841981   -1.9168067  0.050676929   -3.3841981    1.4673914   878832 
 2528000   0.97886013   -3.3848581   -3.3848581   -1.9165696  0.050524027   -3.3848581    1.4682885   878832 
 2529000   0.97741372   -3.3822233   -3.3822233   -1.9161044  0.051458319   -3.3822233    1.4661189   878832 
 2530000   0.97902098   -3.3838263   -3.3838263   -1.9152965  0.048916537   -3.3838263    1.4685298   878832 
 2531000   0.97793999   -3.3842045   -3.3842045   -1.9172961  0.044384119   -3.3842045    1.4669083   878832 
 2532000   0.97861717   -3.3843101   -3.3843101   -1.9163861  0.047452544   -3.3843101    1.4679241   878832 
 2533000   0.97814769   -3.3833122   -3.3833122   -1.9160924   0.04673211   -3.3833122    1.4672199   878832 
 2534000   0.97843599   -3.3837414   -3.3837414   -1.9160891  0.050763924   -3.3837414    1.4676523   878832 
 2535000   0.97964216   -3.3857134   -3.3857134   -1.9162518  0.049149655   -3.3857134    1.4694616   878832 
 2536000    0.9788834    -3.382945    -3.382945   -1.9146215  0.051899629    -3.382945    1.4683234   878832 
 2537000    0.9793087   -3.3839504   -3.3839504   -1.9149891  0.048853877   -3.3839504    1.4689614   878832 
 2538000   0.98003798   -3.3848612   -3.3848612   -1.9148059   0.05140593   -3.3848612    1.4700553   878832 
 2539000   0.98042326   -3.3860036   -3.3860036   -1.9153704  0.048940591   -3.3860036    1.4706332   878832 
 2540000   0.97988064   -3.3843945   -3.3843945   -1.9145752    0.0565411   -3.3843945    1.4698193   878832 
 2541000   0.98024387   -3.3842231   -3.3842231    -1.913859  0.050934657   -3.3842231    1.4703641   878832 
 2542000   0.98111923   -3.3855455   -3.3855455   -1.9138683  0.052366852   -3.3855455    1.4716772   878832 
 2543000    0.9800564   -3.3846167   -3.3846167   -1.9145337  0.052266592   -3.3846167    1.4700829   878832 
 2544000   0.97991067   -3.3848066   -3.3848066   -1.9149422  0.049119601   -3.3848066    1.4698643   878832 
 2545000   0.98061008    -3.386012    -3.386012   -1.9150985  0.049727577    -3.386012    1.4709134   878832 
 2546000   0.97893302   -3.3837974   -3.3837974   -1.9153995  0.053800993   -3.3837974    1.4683979   878832 
 2547000   0.98042095   -3.3856327   -3.3856327   -1.9150029  0.052022949   -3.3856327    1.4706297   878832 
 2548000    0.9807993   -3.3868628   -3.3868628   -1.9156655  0.052464969   -3.3868628    1.4711973   878832 
 2549000   0.97998177   -3.3856687   -3.3856687   -1.9156977  0.048438275   -3.3856687     1.469971   878832 
 2550000   0.98016544   -3.3847939   -3.3847939   -1.9145474  0.049973638   -3.3847939    1.4702465   878832 
 2551000   0.97954732   -3.3844773   -3.3844773    -1.915158  0.054981696   -3.3844773    1.4693193   878832 
 2552000    0.9795085   -3.3844541   -3.3844541    -1.915193  0.052465623   -3.3844541    1.4692611   878832 
 2553000   0.97981961   -3.3847545   -3.3847545   -1.9150268  0.049892543   -3.3847545    1.4697277   878832 
 2554000   0.97952566    -3.383777    -3.383777   -1.9144902  0.051567831    -3.383777    1.4692868   878832 
 2555000   0.97954134   -3.3835432   -3.3835432   -1.9142329  0.049460747   -3.3835432    1.4693103   878832 
 2556000   0.97858359   -3.3829529   -3.3829529   -1.9150791  0.054671612   -3.3829529    1.4678737   878832 
 2557000   0.98059502   -3.3861755   -3.3861755   -1.9152846  0.051110203   -3.3861755    1.4708909   878832 
 2558000   0.97967765   -3.3842595   -3.3842595   -1.9147447  0.049787997   -3.3842595    1.4695148   878832 
 2559000   0.97954081   -3.3837311   -3.3837311   -1.9144216  0.055670855   -3.3837311    1.4693095   878832 
 2560000   0.97978597   -3.3848541   -3.3848541   -1.9151769  0.054990914   -3.3848541    1.4696773   878832 
 2561000   0.98032759   -3.3854375   -3.3854375   -1.9149478   0.05496182   -3.3854375    1.4704897   878832 
 2562000   0.98023178    -3.385218    -3.385218   -1.9148721  0.053166292    -3.385218     1.470346   878832 
 2563000   0.98017115   -3.3850605   -3.3850605   -1.9148055  0.052140178   -3.3850605    1.4702551   878832 
 2564000   0.97973517   -3.3852922   -3.3852922   -1.9156911  0.051502789   -3.3852922    1.4696011   878832 
 2565000   0.98055096   -3.3860994   -3.3860994   -1.9152746  0.052031486   -3.3860994    1.4708248   878832 
 2566000   0.97943148   -3.3847715   -3.3847715   -1.9156259  0.050121814   -3.3847715    1.4691455   878832 
 2567000   0.97971011   -3.3849685   -3.3849685    -1.915405  0.052148279   -3.3849685    1.4695635   878832 
 2568000   0.97971822   -3.3848072   -3.3848072   -1.9152316  0.054570208   -3.3848072    1.4695757   878832 
 2569000   0.97847318    -3.383493    -3.383493   -1.9157849  0.050252873    -3.383493    1.4677081   878832 
 2570000   0.97897492   -3.3841391   -3.3841391   -1.9156783   0.05097876   -3.3841391    1.4684607   878832 
 2571000   0.97816356    -3.382963    -3.382963   -1.9157193  0.051127629    -3.382963    1.4672437   878832 
 2572000    0.9790925   -3.3847291   -3.3847291    -1.916092  0.047385619   -3.3847291    1.4686371   878832 
 2573000   0.97823467   -3.3839365   -3.3839365   -1.9165862  0.046913213   -3.3839365    1.4673503   878832 
 2574000   0.97878367      -3.3842      -3.3842   -1.9160262  0.048807014      -3.3842    1.4681738   878832 
 2575000   0.97957944   -3.3844973   -3.3844973   -1.9151298  0.048157205   -3.3844973    1.4693675   878832 
 2576000   0.98016047   -3.3846422   -3.3846422   -1.9144031  0.047195493   -3.3846422     1.470239   878832 
 2577000   0.97980406   -3.3846457   -3.3846457   -1.9149413  0.051414379   -3.3846457    1.4697044   878832 
 2578000   0.98009308   -3.3850722   -3.3850722   -1.9149342  0.052419175   -3.3850722     1.470138   878832 
 2579000   0.97949147   -3.3839206   -3.3839206   -1.9146851  0.053213525   -3.3839206    1.4692355   878832 
 2580000    0.9802993   -3.3855757   -3.3855757   -1.9151284  0.050350333   -3.3855757    1.4704473   878832 
 2581000   0.98061229    -3.385728    -3.385728   -1.9148112  0.053718734    -3.385728    1.4709168   878832 
 2582000    0.9799531   -3.3848528   -3.3848528   -1.9149249  0.052696365   -3.3848528     1.469928   878832 
 2583000   0.97992746   -3.3844253   -3.3844253   -1.9145357  0.054961096   -3.3844253    1.4698895   878832 
 2584000   0.98085632   -3.3844862   -3.3844862   -1.9132034  0.051631424   -3.3844862    1.4712828   878832 
 2585000   0.98158164   -3.3859586   -3.3859586   -1.9135878  0.054498048   -3.3859586    1.4723708   878832 
 2586000   0.98157296   -3.3855157   -3.3855157    -1.913158  0.052739731   -3.3855157    1.4723578   878832 
 2587000    0.9811504   -3.3851083   -3.3851083   -1.9133844  0.051346199   -3.3851083    1.4717239   878832 
 2588000   0.98052232   -3.3846024   -3.3846024   -1.9138206  0.054080142   -3.3846024    1.4707818   878832 
 2589000   0.98019122   -3.3842875   -3.3842875   -1.9140023  0.054501289   -3.3842875    1.4702852   878832 
 2590000   0.98118815   -3.3860089   -3.3860089   -1.9142283  0.052658236   -3.3860089    1.4717806   878832 
 2591000   0.98067668   -3.3847119   -3.3847119   -1.9136985  0.053517562   -3.3847119    1.4710134   878832 
 2592000   0.98080212   -3.3850296   -3.3850296   -1.9138281  0.055129916   -3.3850296    1.4712015   878832 
 2593000   0.98091255   -3.3847306   -3.3847306   -1.9133634  0.053505956   -3.3847306    1.4713672   878832 
 2594000   0.98151459   -3.3856385   -3.3856385   -1.9133683  0.053922543   -3.3856385    1.4722702   878832 
 2595000   0.98022949   -3.3830211   -3.3830211   -1.9126785  0.050750545   -3.3830211    1.4703426   878832 
 2596000   0.97858316    -3.381681    -3.381681   -1.9138079  0.054352418    -3.381681    1.4678731   878832 
 2597000   0.97974699   -3.3834637   -3.3834637   -1.9138449  0.048986133   -3.3834637    1.4696188   878832 
 2598000   0.97966563   -3.3825893   -3.3825893   -1.9130925  0.051455728   -3.3825893    1.4694968   878832 
 2599000   0.97947514   -3.3824938   -3.3824938   -1.9132828  0.053786546   -3.3824938     1.469211   878832 
 2600000   0.98005056   -3.3831359   -3.3831359   -1.9130618  0.049300263   -3.3831359    1.4700742   878832 
 2601000   0.98016549   -3.3823622   -3.3823622   -1.9121156  0.047707014   -3.3823622    1.4702466   878832 
 2602000   0.98052226   -3.3826229   -3.3826229   -1.9118411  0.051450836   -3.3826229    1.4707817   878832 
 2603000   0.98086796   -3.3825964   -3.3825964   -1.9112961  0.052742201   -3.3825964    1.4713003   878832 
 2604000   0.97949397   -3.3814127   -3.3814127   -1.9121734   0.05212829   -3.3814127    1.4692393   878832 
 2605000   0.98087099   -3.3827151   -3.3827151   -1.9114103  0.051681872   -3.3827151    1.4713048   878832 
 2606000   0.98077649   -3.3822595   -3.3822595   -1.9110964  0.051821626   -3.3822595    1.4711631   878832 
 2607000   0.98124417   -3.3823531   -3.3823531   -1.9104885   0.05193984   -3.3823531    1.4718646   878832 
 2608000   0.98095645   -3.3810899   -3.3810899   -1.9096569  0.051942465   -3.3810899     1.471433   878832 
 2609000   0.98064404   -3.3815226   -3.3815226   -1.9105582  0.051409632   -3.3815226    1.4709644   878832 
 2610000   0.98095689   -3.3815209   -3.3815209   -1.9100872  0.052129084   -3.3815209    1.4714337   878832 
 2611000   0.98008565   -3.3810224   -3.3810224   -1.9108956  0.050587462   -3.3810224    1.4701268   878832 
 2612000   0.98003802   -3.3801558   -3.3801558   -1.9101004  0.048537639   -3.3801558    1.4700554   878832 
 2613000   0.98001686   -3.3801123   -3.3801123   -1.9100887  0.050277846   -3.3801123    1.4700236   878832 
 2614000   0.97993022   -3.3797817   -3.3797817    -1.909888  0.049239547   -3.3797817    1.4698937   878832 
 2615000   0.98127046   -3.3805683   -3.3805683   -1.9086643  0.053771571   -3.3805683     1.471904   878832 
 2616000   0.97952015   -3.3791254   -3.3791254   -1.9098469  0.048782413   -3.3791254    1.4692785   878832 
 2617000   0.98025428   -3.3798935   -3.3798935   -1.9095137  0.051621002   -3.3798935    1.4703797   878832 
 2618000   0.98030543   -3.3802013   -3.3802013   -1.9097448  0.051441054   -3.3802013    1.4704565   878832 
 2619000   0.98015922   -3.3793384   -3.3793384   -1.9091013  0.053871882   -3.3793384    1.4702372   878832 
 2620000   0.98128518    -3.380347    -3.380347   -1.9084209  0.052111778    -3.380347    1.4719261   878832 
 2621000   0.98031308   -3.3800962   -3.3800962   -1.9096283  0.051789349   -3.3800962    1.4704679   878832 
 2622000   0.98057957   -3.3801953   -3.3801953   -1.9093276  0.053203761   -3.3801953    1.4708677   878832 
 2623000   0.98007721   -3.3799144   -3.3799144   -1.9098002  0.051950769   -3.3799144    1.4701141   878832 
 2624000   0.98007695   -3.3793712   -3.3793712   -1.9092574  0.052259126   -3.3793712    1.4701138   878832 
 2625000   0.97975636   -3.3790822   -3.3790822   -1.9094493  0.049846371   -3.3790822    1.4696329   878832 
 2626000   0.97966333   -3.3792402   -3.3792402   -1.9097469  0.053121876   -3.3792402    1.4694933   878832 
 2627000   0.98034368   -3.3807988   -3.3807988    -1.910285  0.048741191   -3.3807988    1.4705138   878832 
 2628000   0.97982692   -3.3785356   -3.3785356   -1.9087969  0.055622804   -3.3785356    1.4697387   878832 
 2629000   0.97928259   -3.3774406   -3.3774406   -1.9085184  0.051973118   -3.3774406    1.4689222   878832 
 2630000   0.98029109   -3.3790551   -3.3790551   -1.9086201  0.050555315   -3.3790551     1.470435   878832 
 2631000   0.98053553   -3.3797712   -3.3797712   -1.9089696  0.054426033   -3.3797712    1.4708016   878832 
 2632000   0.98028767   -3.3789169   -3.3789169   -1.9084871  0.052438654   -3.3789169    1.4704298   878832 
 2633000   0.98064111   -3.3791553   -3.3791553   -1.9081954  0.054514105   -3.3791553      1.47096   878832 
 2634000   0.98086068   -3.3799239   -3.3799239   -1.9086346  0.054283625   -3.3799239    1.4712893   878832 
 2635000   0.98135536   -3.3791813   -3.3791813   -1.9071499  0.052798131   -3.3791813    1.4720314   878832 
 2636000   0.98225747   -3.3799456   -3.3799456   -1.9065611  0.055484662   -3.3799456    1.4733845   878832 
 2637000    0.9813314   -3.3788923   -3.3788923   -1.9068968  0.057619956   -3.3788923    1.4719954   878832 
 2638000   0.98098806   -3.3790977   -3.3790977   -1.9076173  0.055524888   -3.3790977    1.4714804   878832 
 2639000   0.98237695   -3.3812303   -3.3812303   -1.9076665  0.052457399   -3.3812303    1.4735637   878832 
 2640000   0.98141825   -3.3803786   -3.3803786   -1.9082529  0.055245734   -3.3803786    1.4721257   878832 
 2641000   0.98118229    -3.380254    -3.380254   -1.9084823  0.052649686    -3.380254    1.4717718   878832 
 2642000   0.98014426   -3.3778178   -3.3778178   -1.9076031  0.055281194   -3.3778178    1.4702147   878832 
 2643000   0.98070917   -3.3787324   -3.3787324   -1.9076704  0.053758829   -3.3787324    1.4710621   878832 
 2644000   0.98103139   -3.3793133   -3.3793133   -1.9077679  0.050569767   -3.3793133    1.4715454   878832 
 2645000    0.9812555   -3.3795602   -3.3795602   -1.9076786  0.049802128   -3.3795602    1.4718816   878832 
 2646000   0.98030636   -3.3784304   -3.3784304   -1.9079726  0.051890086   -3.3784304    1.4704579   878832 
 2647000   0.97966509   -3.3778126   -3.3778126   -1.9083167  0.055127349   -3.3778126     1.469496   878832 
 2648000   0.98038478   -3.3792979   -3.3792979   -1.9087224  0.054379134   -3.3792979    1.4705755   878832 
 2649000   0.98139419   -3.3812292   -3.3812292   -1.9091396  0.049195861   -3.3812292    1.4720896   878832 
 2650000    0.9804747   -3.3794655   -3.3794655   -1.9087551  0.053003002   -3.3794655    1.4707104   878832 
 2651000   0.98208396   -3.3813371   -3.3813371   -1.9082129   0.05274086   -3.3813371    1.4731243   878832 
 2652000   0.98248715   -3.3813899   -3.3813899   -1.9076608  0.050616414   -3.3813899    1.4737291   878832 
 2653000   0.98205076   -3.3806242   -3.3806242   -1.9075497  0.050180379   -3.3806242    1.4730745   878832 
 2654000   0.98172428   -3.3802979   -3.3802979   -1.9077131  0.053258471   -3.3802979    1.4725847   878832 
 2655000   0.98010787   -3.3780439   -3.3780439   -1.9078838  0.050772725   -3.3780439    1.4701601   878832 
 2656000   0.98178552   -3.3785547   -3.3785547   -1.9058781  0.052501935   -3.3785547    1.4726766   878832 
 2657000   0.98070248   -3.3768602   -3.3768602   -1.9058082  0.051234748   -3.3768602    1.4710521   878832 
 2658000   0.98065548   -3.3773005   -3.3773005    -1.906319  0.050743227   -3.3773005    1.4709815   878832 
 2659000    0.9803746   -3.3769344   -3.3769344   -1.9063741  0.050297187   -3.3769344    1.4705602   878832 
 2660000   0.97969057   -3.3751915   -3.3751915   -1.9056574  0.053316222   -3.3751915    1.4695342   878832 
 2661000   0.98061662   -3.3774354   -3.3774354   -1.9065121  0.048382758   -3.3774354    1.4709233   878832 
 2662000   0.98024093   -3.3770491   -3.3770491   -1.9066894  0.054010896   -3.3770491    1.4703597   878832 
 2663000   0.98042647   -3.3770818   -3.3770818   -1.9064438  0.049945054   -3.3770818     1.470638   878832 
 2664000   0.98076166   -3.3768803   -3.3768803   -1.9057395  0.057251485   -3.3768803    1.4711408   878832 
 2665000     0.981333   -3.3779668   -3.3779668   -1.9059689  0.052948915   -3.3779668    1.4719978   878832 
 2666000   0.98039908   -3.3770286   -3.3770286   -1.9064316  0.050188154   -3.3770286    1.4705969   878832 
 2667000   0.98106952   -3.3776644   -3.3776644   -1.9060617   0.05243611   -3.3776644    1.4716026   878832 
 2668000    0.9807627   -3.3776715   -3.3776715   -1.9065292  0.048353482   -3.3776715    1.4711424   878832 
 2669000   0.98027615   -3.3763545   -3.3763545    -1.905942  0.050562167   -3.3763545    1.4704126   878832 
 2670000   0.97999517    -3.374898    -3.374898   -1.9049069  0.052318356    -3.374898    1.4699911   878832 
 2671000   0.98178201    -3.376927    -3.376927   -1.9042557  0.052241314    -3.376927    1.4726713   878832 
 2672000   0.98199472   -3.3771105   -3.3771105   -1.9041201   0.05618447   -3.3771105    1.4729904   878832 
 2673000   0.98165709   -3.3773543   -3.3773543   -1.9048704  0.051111323   -3.3773543     1.472484   878832 
 2674000   0.98220922   -3.3780351   -3.3780351   -1.9047229  0.054481816   -3.3780351    1.4733122   878832 
 2675000   0.98068144   -3.3756615   -3.3756615    -1.904641  0.048713984   -3.3756615    1.4710205   878832 
 2676000   0.98234316   -3.3767674   -3.3767674   -1.9032543  0.051446086   -3.3767674    1.4735131   878832 
 2677000    0.9818351   -3.3763145   -3.3763145   -1.9035635  0.053919459   -3.3763145     1.472751   878832 
 2678000   0.98105929   -3.3746103   -3.3746103    -1.903023  0.054696883   -3.3746103    1.4715873   878832 
 2679000   0.98278282   -3.3762041   -3.3762041   -1.9020316  0.053136388   -3.3762041    1.4741726   878832 
 2680000    0.9820879   -3.3746628   -3.3746628   -1.9015326  0.056711742   -3.3746628    1.4731302   878832 
 2681000   0.98104288   -3.3740986   -3.3740986    -1.902536   0.05182843   -3.3740986    1.4715626   878832 
 2682000   0.98094733    -3.374973    -3.374973   -1.9035537  0.051219833    -3.374973    1.4714193   878832 
 2683000   0.98071018   -3.3747624   -3.3747624   -1.9036988  0.057508359   -3.3747624    1.4710636   878832 
 2684000   0.98218252   -3.3763363   -3.3763363   -1.9030642  0.046805445   -3.3763363    1.4732721   878832 
 2685000   0.98183263   -3.3748039   -3.3748039   -1.9020566  0.051119938   -3.3748039    1.4727473   878832 
 2686000    0.9818504   -3.3756188   -3.3756188   -1.9028449  0.053061887   -3.3756188    1.4727739   878832 
 2687000   0.98121187    -3.374201    -3.374201   -1.9023849  0.050516552    -3.374201    1.4718161   878832 
 2688000   0.97985844   -3.3719248   -3.3719248   -1.9021388  0.053765827   -3.3719248     1.469786   878832 
 2689000   0.97975365   -3.3711681   -3.3711681   -1.9015393  0.052485979   -3.3711681    1.4696288   878832 
 2690000   0.98098808   -3.3733394   -3.3733394    -1.901859  0.050341222   -3.3733394    1.4714804   878832 
 2691000   0.98017456    -3.371642    -3.371642   -1.9013819  0.050528952    -3.371642    1.4702602   878832 
 2692000   0.98146641   -3.3728362   -3.3728362   -1.9006383  0.053403965   -3.3728362    1.4721979   878832 
 2693000   0.98176133   -3.3733765   -3.3733765   -1.9007361  0.055185348   -3.3733765    1.4726403   878832 
 2694000   0.98272406   -3.3741708   -3.3741708   -1.9000864  0.053224124   -3.3741708    1.4740844   878832 
 2695000   0.98261825   -3.3743466   -3.3743466   -1.9004209  0.051787905   -3.3743466    1.4739257   878832 
 2696000   0.98293642   -3.3745123   -3.3745123   -1.9001094  0.051823912   -3.3745123    1.4744029   878832 
 2697000   0.98135925    -3.372395    -3.372395   -1.9003578  0.057930538    -3.372395    1.4720372   878832 
 2698000   0.98058051   -3.3724964   -3.3724964   -1.9016273  0.052103127   -3.3724964    1.4708691   878832 
 2699000    0.9820178   -3.3731988   -3.3731988   -1.9001737  0.051576099   -3.3731988     1.473025   878832 
 2700000   0.98149146   -3.3732657   -3.3732657   -1.9010302  0.051807275   -3.3732657    1.4722355   878832 
 2701000     0.981326   -3.3727819   -3.3727819   -1.9007946  0.052868789   -3.3727819    1.4719873   878832 
 2702000   0.98146184   -3.3727553   -3.3727553   -1.9005642  0.052842977   -3.3727553    1.4721911   878832 
 2703000   0.98110955    -3.373054    -3.373054   -1.9013913   0.05307288    -3.373054    1.4716626   878832 
 2704000    0.9801601   -3.3715542   -3.3715542   -1.9013157  0.051849061   -3.3715542    1.4702385   878832 
 2705000   0.98040482   -3.3719795   -3.3719795   -1.9013739  0.052450628   -3.3719795    1.4706056   878832 
 2706000   0.98074392   -3.3730106   -3.3730106   -1.9018964  0.050813092   -3.3730106    1.4711142   878832 
 2707000   0.98091201   -3.3736079   -3.3736079   -1.9022416  0.051642383   -3.3736079    1.4713663   878832 
 2708000   0.98105372    -3.373455    -3.373455   -1.9018761  0.050024268    -3.373455    1.4715789   878832 
 2709000   0.98087854   -3.3734056   -3.3734056   -1.9020895  0.050683978   -3.3734056    1.4713161   878832 
 2710000   0.98067598   -3.3724621   -3.3724621   -1.9014498  0.053710615   -3.3724621    1.4710123   878832 
 2711000   0.98208712   -3.3750017   -3.3750017   -1.9018727  0.053755543   -3.3750017     1.473129   878832 
 2712000   0.98100615   -3.3733044   -3.3733044   -1.9017968  0.052708292   -3.3733044    1.4715076   878832 
 2713000   0.98172204   -3.3737724   -3.3737724    -1.901191  0.051749694   -3.3737724    1.4725814   878832 
 2714000   0.98244361   -3.3743843   -3.3743843   -1.9007206  0.049266785   -3.3743843    1.4736637   878832 
 2715000   0.98189198   -3.3734234   -3.3734234   -1.9005871  0.053953002   -3.3734234    1.4728363   878832 
 2716000   0.98151873    -3.373021    -3.373021   -1.9007445  0.053522158    -3.373021    1.4722764   878832 
 2717000   0.98203993   -3.3740078   -3.3740078   -1.9009496  0.054309772   -3.3740078    1.4730582   878832 
 2718000   0.98237662   -3.3747827   -3.3747827   -1.9012195   0.05228908   -3.3747827    1.4735633   878832 
 2719000   0.98163111   -3.3736404   -3.3736404   -1.9011954  0.050859218   -3.3736404     1.472445   878832 
 2720000   0.98172089   -3.3732676   -3.3732676    -1.900688  0.052639619   -3.3732676    1.4725797   878832 
 2721000   0.98100797    -3.372506    -3.372506   -1.9009957  0.055446171    -3.372506    1.4715103   878832 
 2722000   0.98189162   -3.3735336   -3.3735336   -1.9006979  0.052593486   -3.3735336    1.4728358   878832 
 2723000   0.98217794   -3.3741063   -3.3741063   -1.9008411  0.054647538   -3.3741063    1.4732652   878832 
 2724000    0.9817794   -3.3744933   -3.3744933   -1.9018259  0.051402649   -3.3744933    1.4726674   878832 
 2725000   0.98139197   -3.3738128   -3.3738128   -1.9017266  0.053325077   -3.3738128    1.4720863   878832 
 2726000    0.9815198   -3.3739441   -3.3739441   -1.9016661  0.054041503   -3.3739441     1.472278   878832 
 2727000   0.98163675   -3.3743616   -3.3743616   -1.9019081  0.055328598   -3.3743616    1.4724534   878832 
 2728000   0.98161995   -3.3747318   -3.3747318   -1.9023035   0.05087479   -3.3747318    1.4724282   878832 
 2729000   0.98150635   -3.3744906   -3.3744906   -1.9022328  0.053019268   -3.3744906    1.4722578   878832 
 2730000    0.9809605   -3.3732489   -3.3732489   -1.9018098  0.056506406   -3.3732489    1.4714391   878832 
 2731000   0.98139393   -3.3741117   -3.3741117   -1.9020224  0.051091596   -3.3741117    1.4720892   878832 
 2732000   0.98066598   -3.3732484   -3.3732484   -1.9022511  0.057069912   -3.3732484    1.4709973   878832 
 2733000   0.98217832   -3.3756911   -3.3756911   -1.9024253  0.053636876   -3.3756911    1.4732658   878832 
 2734000   0.98206202    -3.375527    -3.375527   -1.9024357  0.052071031    -3.375527    1.4730914   878832 
 2735000   0.98229733   -3.3753761   -3.3753761   -1.9019318  0.055023113   -3.3753761    1.4734443   878832 
 2736000   0.98129231   -3.3736471   -3.3736471   -1.9017104  0.049990417   -3.3736471    1.4719368   878832 
 2737000   0.98126667   -3.3736761   -3.3736761   -1.9017777   0.05413313   -3.3736761    1.4718983   878832 
 2738000   0.98227209   -3.3752152   -3.3752152   -1.9018087  0.052487178   -3.3752152    1.4734065   878832 
 2739000   0.98113145   -3.3735743   -3.3735743   -1.9018788   0.05436154   -3.3735743    1.4716955   878832 
 2740000    0.9817307   -3.3739726   -3.3739726   -1.9013782  0.053787547   -3.3739726    1.4725944   878832 
 2741000   0.98025938   -3.3730184   -3.3730184    -1.902631  0.054811806   -3.3730184    1.4703874   878832 
 2742000   0.98147079   -3.3745665   -3.3745665    -1.902362  0.052832585   -3.3745665    1.4722045   878832 
 2743000   0.98104619   -3.3744979   -3.3744979   -1.9029303  0.053341989   -3.3744979    1.4715676   878832 
 2744000   0.98193198   -3.3751236   -3.3751236   -1.9022273  0.054119879   -3.3751236    1.4728963   878832 
 2745000   0.98073896   -3.3743246   -3.3743246   -1.9032179  0.053978011   -3.3743246    1.4711068   878832 
 2746000   0.98223642   -3.3747555   -3.3747555   -1.9014026  0.053799799   -3.3747555     1.473353   878832 
 2747000   0.98277687   -3.3763284   -3.3763284   -1.9021647  0.053683728   -3.3763284    1.4741636   878832 
 2748000   0.98228116   -3.3757174   -3.3757174   -1.9022973  0.053439483   -3.3757174    1.4734201   878832 
 2749000    0.9828688   -3.3764578   -3.3764578   -1.9021563  0.052587705   -3.3764578    1.4743015   878832 
 2750000    0.9828586   -3.3757448   -3.3757448   -1.9014585  0.053411149   -3.3757448    1.4742862   878832 
 2751000   0.98177131   -3.3740595   -3.3740595   -1.9014042  0.050899586   -3.3740595    1.4726553   878832 
 2752000   0.98137273   -3.3737753   -3.3737753   -1.9017179   0.05398956   -3.3737753    1.4720574   878832 
 2753000   0.98272432   -3.3752427   -3.3752427   -1.9011579  0.055629215   -3.3752427    1.4740848   878832 
 2754000   0.98174449   -3.3741725   -3.3741725   -1.9015575  0.049125165   -3.3741725    1.4726151   878832 
 2755000   0.98152189   -3.3734742   -3.3734742    -1.901193  0.057279493   -3.3734742    1.4722812   878832 
 2756000   0.98246248   -3.3742603   -3.3742603   -1.9005683  0.056472105   -3.3742603     1.473692   878832 
 2757000   0.98175719   -3.3733202   -3.3733202   -1.9006861  0.054041204   -3.3733202    1.4726341   878832 
 2758000   0.98270795   -3.3751655   -3.3751655   -1.9011052  0.054188701   -3.3751655    1.4740603   878832 
 2759000   0.98253797    -3.374198    -3.374198   -1.9003927   0.05531569    -3.374198    1.4738053   878832 
 2760000   0.98325649    -3.374928    -3.374928   -1.9000449  0.054505655    -3.374928    1.4748831   878832 
 2761000   0.98244426    -3.373674    -3.373674   -1.9000093  0.056084116    -3.373674    1.4736647   878832 
 2762000   0.98253109    -3.373521    -3.373521   -1.8997261  0.055811149    -3.373521     1.473795   878832 
 2763000   0.98295608   -3.3724073   -3.3724073   -1.8979749  0.054801125   -3.3724073    1.4744324   878832 
 2764000   0.98229275   -3.3713045   -3.3713045    -1.897867  0.055635117   -3.3713045    1.4734374   878832 
 2765000   0.98320281   -3.3729571   -3.3729571   -1.8981545  0.054426301   -3.3729571    1.4748025   878832 
 2766000   0.98093624   -3.3694745   -3.3694745   -1.8980718  0.055505477   -3.3694745    1.4714027   878832 
 2767000   0.98108561   -3.3704326   -3.3704326   -1.8988059  0.054419574   -3.3704326    1.4716267   878832 
 2768000   0.98256988   -3.3722198   -3.3722198   -1.8983667  0.050882584   -3.3722198    1.4738531   878832 
 2769000    0.9824849    -3.371733    -3.371733   -1.8980073  0.056018081    -3.371733    1.4737257   878832 
 2770000   0.98162001   -3.3705193   -3.3705193   -1.8980909  0.050850663   -3.3705193    1.4724283   878832 
 2771000   0.98167701   -3.3701808   -3.3701808   -1.8976669  0.052026077   -3.3701808    1.4725138   878832 
 2772000   0.98178847    -3.369904    -3.369904    -1.897223  0.054999092    -3.369904     1.472681   878832 
 2773000    0.9821274   -3.3701575   -3.3701575    -1.896968  0.053439213   -3.3701575    1.4731894   878832 
 2774000   0.98200489   -3.3706242   -3.3706242   -1.8976185  0.051404848   -3.3706242    1.4730057   878832 
 2775000   0.98244661   -3.3712164   -3.3712164   -1.8975482  0.052391376   -3.3712164    1.4736682   878832 
 2776000   0.98192846   -3.3698936   -3.3698936   -1.8970026  0.051409873   -3.3698936     1.472891   878832 
 2777000   0.98162798   -3.3689609   -3.3689609   -1.8965206  0.049601258   -3.3689609    1.4724403   878832 
 2778000   0.98116475   -3.3685841   -3.3685841   -1.8968387  0.049609081   -3.3685841    1.4717455   878832 
 2779000   0.98166594   -3.3691854   -3.3691854   -1.8966882  0.056326217   -3.3691854    1.4724972   878832 
 2780000   0.98237605   -3.3701108   -3.3701108   -1.8965484  0.054278154   -3.3701108    1.4735624   878832 
 2781000   0.98148874   -3.3684822   -3.3684822   -1.8962508  0.055140883   -3.3684822    1.4722314   878832 
 2782000   0.98315882   -3.3702426   -3.3702426    -1.895506  0.053632818   -3.3702426    1.4747366   878832 
 2783000   0.98229217   -3.3700776   -3.3700776   -1.8966411  0.051971245   -3.3700776    1.4734366   878832 
 2784000   0.98174119   -3.3683438   -3.3683438   -1.8957337  0.055243988   -3.3683438    1.4726101   878832 
 2785000   0.98171406   -3.3684667   -3.3684667   -1.8958973  0.051520234   -3.3684667    1.4725694   878832 
 2786000   0.98221253   -3.3690223   -3.3690223   -1.8957052  0.053461754   -3.3690223    1.4733171   878832 
 2787000   0.98172727   -3.3685441   -3.3685441   -1.8959548  0.050383171   -3.3685441    1.4725892   878832 
 2788000   0.98149339   -3.3678771   -3.3678771   -1.8956387  0.051794543   -3.3678771    1.4722384   878832 
 2789000   0.98179827   -3.3681238   -3.3681238    -1.895428  0.052271711   -3.3681238    1.4726957   878832 
 2790000   0.98161896   -3.3687498   -3.3687498    -1.896323    0.0463178   -3.3687498    1.4724268   878832 
 2791000   0.98272963   -3.3694509   -3.3694509   -1.8953582  0.052207862   -3.3694509    1.4740928   878832 
 2792000   0.98150952   -3.3677102   -3.3677102   -1.8954476  0.054342802   -3.3677102    1.4722626   878832 
 2793000   0.98188662   -3.3682667   -3.3682667   -1.8954384  0.055102617   -3.3682667    1.4728283   878832 
 2794000   0.98255548   -3.3688865   -3.3688865    -1.895055  0.050793732   -3.3688865    1.4738315   878832 
 2795000   0.98160066   -3.3687285   -3.3687285   -1.8963292  0.053831276   -3.3687285    1.4723993   878832 
 2796000    0.9826036   -3.3697335   -3.3697335   -1.8958298  0.053996137   -3.3697335    1.4739037   878832 
 2797000   0.98242878   -3.3695562   -3.3695562   -1.8959147  0.055422135   -3.3695562    1.4736415   878832 
 2798000   0.98265305   -3.3696465   -3.3696465   -1.8956686  0.056492293   -3.3696465    1.4739779   878832 
 2799000   0.98303208   -3.3706969   -3.3706969   -1.8961504  0.054005165   -3.3706969    1.4745464   878832 
 2800000   0.98200807   -3.3685602   -3.3685602   -1.8955497  0.052621861   -3.3685602    1.4730104   878832 
 2801000   0.98205281   -3.3687148   -3.3687148   -1.8956373  0.049078359   -3.3687148    1.4730775   878832 
 2802000   0.98192467   -3.3681304   -3.3681304   -1.8952451  0.058483214   -3.3681304    1.4728853   878832 
 2803000   0.98210426   -3.3685821   -3.3685821   -1.8954274  0.051662961   -3.3685821    1.4731547   878832 
 2804000   0.98259299   -3.3696528   -3.3696528    -1.895765   0.05613729   -3.3696528    1.4738878   878832 
 2805000   0.98121656   -3.3667048   -3.3667048   -1.8948816  0.056116857   -3.3667048    1.4718232   878832 
 2806000   0.98262302   -3.3694612   -3.3694612   -1.8955283  0.056391757   -3.3694612    1.4739328   878832 
 2807000    0.9829119   -3.3704671   -3.3704671   -1.8961009  0.049325252   -3.3704671    1.4743662   878832 
 2808000    0.9817351   -3.3682522   -3.3682522   -1.8956512  0.053614118   -3.3682522     1.472601   878832 
 2809000   0.98374438    -3.371047    -3.371047   -1.8954321  0.052060716    -3.371047    1.4756149   878832 
 2810000   0.98337236   -3.3695041   -3.3695041   -1.8944472   0.05401964   -3.3695041    1.4750569   878832 
 2811000   0.98233037   -3.3689324   -3.3689324   -1.8954385  0.057971562   -3.3689324    1.4734939   878832 
 2812000   0.98190205   -3.3688291   -3.3688291   -1.8959777  0.051405564   -3.3688291    1.4728514   878832 
 2813000   0.98248305   -3.3689387   -3.3689387   -1.8952158  0.054080794   -3.3689387    1.4737229   878832 
 2814000   0.98373503   -3.3698553   -3.3698553   -1.8942544  0.053267606   -3.3698553    1.4756009   878832 
 2815000   0.98373898   -3.3709617   -3.3709617   -1.8953549  0.056147214   -3.3709617    1.4756068   878832 
 2816000   0.98317577   -3.3699094   -3.3699094   -1.8951474  0.053482078   -3.3699094     1.474762   878832 
 2817000   0.98309188    -3.369599    -3.369599   -1.8949628  0.050393836    -3.369599    1.4746361   878832 
 2818000   0.98237322   -3.3686945   -3.3686945   -1.8951364  0.050823595   -3.3686945    1.4735582   878832 
 2819000   0.98320217   -3.3693058   -3.3693058   -1.8945043  0.054089887   -3.3693058    1.4748016   878832 
 2820000   0.98215788   -3.3681169   -3.3681169   -1.8948818  0.055350197   -3.3681169    1.4732351   878832 
 2821000   0.98285056   -3.3688797   -3.3688797   -1.8946055  0.057246862   -3.3688797    1.4742742   878832 
 2822000   0.98375204   -3.3699106   -3.3699106   -1.8942842  0.054709566   -3.3699106    1.4756264   878832 
 2823000   0.98336089   -3.3691578   -3.3691578   -1.8941181  0.053203082   -3.3691578    1.4750396   878832 
 2824000   0.98304036   -3.3685793   -3.3685793   -1.8940205   0.05277526   -3.3685793    1.4745589   878832 
 2825000   0.98237551   -3.3670723   -3.3670723   -1.8935107   0.05507009   -3.3670723    1.4735616   878832 
 2826000   0.98347493   -3.3682383   -3.3682383   -1.8930276  0.054361298   -3.3682383    1.4752107   878832 
 2827000   0.98322962   -3.3677375   -3.3677375   -1.8928948  0.053679737   -3.3677375    1.4748428   878832 
 2828000   0.98307623   -3.3673303   -3.3673303   -1.8927176  0.055913687   -3.3673303    1.4746127   878832 
 2829000   0.98315708   -3.3671198   -3.3671198   -1.8923859  0.055932377   -3.3671198    1.4747339   878832 
 2830000   0.98264522   -3.3668181   -3.3668181   -1.8928519  0.056044218   -3.3668181    1.4739662   878832 
 2831000   0.98286048    -3.366699    -3.366699     -1.89241  0.055509094    -3.366699     1.474289   878832 
 2832000   0.98316387    -3.366833    -3.366833   -1.8920888  0.052645268    -3.366833    1.4747441   878832 
 2833000   0.98240491    -3.365741    -3.365741   -1.8921353  0.049398678    -3.365741    1.4736057   878832 
 2834000    0.9829705   -3.3660809   -3.3660809   -1.8916269  0.053122681   -3.3660809    1.4744541   878832 
 2835000   0.98185733   -3.3640517   -3.3640517   -1.8912674  0.052264203   -3.3640517    1.4727843   878832 
 2836000   0.98258268   -3.3654372   -3.3654372   -1.8915649  0.051964759   -3.3654372    1.4738723   878832 
 2837000   0.98216092   -3.3648338   -3.3648338   -1.8915941  0.052881642   -3.3648338    1.4732397   878832 
 2838000   0.98293471   -3.3665868   -3.3665868   -1.8921864  0.050990461   -3.3665868    1.4744004   878832 
 2839000   0.98197294   -3.3645039   -3.3645039   -1.8915461  0.051429797   -3.3645039    1.4729577   878832 
 2840000   0.98187329   -3.3637745   -3.3637745   -1.8909663  0.047868282   -3.3637745    1.4728083   878832 
 2841000   0.98186455    -3.363389    -3.363389   -1.8905938  0.056899113    -3.363389    1.4727952   878832 
 2842000   0.98210801   -3.3635792   -3.3635792   -1.8904189  0.053747523   -3.3635792    1.4731603   878832 
 2843000   0.98239377      -3.3635      -3.3635    -1.889911  0.051555645      -3.3635     1.473589   878832 
 2844000   0.98342806   -3.3643438   -3.3643438   -1.8892033  0.050621365   -3.3643438    1.4751404   878832 
 2845000   0.98362105   -3.3648506   -3.3648506   -1.8894207  0.055172015   -3.3648506    1.4754299   878832 
 2846000   0.98423084   -3.3655385   -3.3655385   -1.8891939  0.052112632   -3.3655385    1.4763446   878832 
 2847000   0.98431121   -3.3651421   -3.3651421   -1.8886769  0.050953289   -3.3651421    1.4764651   878832 
 2848000   0.98403076   -3.3645188   -3.3645188   -1.8884743  0.054419639   -3.3645188    1.4760445   878832 
 2849000   0.98310767   -3.3628936   -3.3628936   -1.8882338  0.057079039   -3.3628936    1.4746598   878832 
 2850000   0.98340576   -3.3640058   -3.3640058   -1.8888989    0.0530668   -3.3640058     1.475107   878832 
 2851000   0.98311492   -3.3639255   -3.3639255   -1.8892548  0.050151069   -3.3639255    1.4746707   878832 
 2852000   0.98291266    -3.364186    -3.364186   -1.8898187  0.050838972    -3.364186    1.4743673   878832 
 2853000   0.98229012   -3.3626292   -3.3626292   -1.8891957  0.053905079   -3.3626292    1.4734335   878832 
 2854000   0.98231568   -3.3620434   -3.3620434   -1.8885716  0.053097285   -3.3620434    1.4734718   878832 
 2855000   0.98232618   -3.3627273   -3.3627273   -1.8892397  0.052045598   -3.3627273    1.4734876   878832 
 2856000   0.98311103   -3.3640984   -3.3640984   -1.8894335  0.051181383   -3.3640984    1.4746649   878832 
 2857000   0.98198776   -3.3622935   -3.3622935   -1.8893135  0.053316152   -3.3622935      1.47298   878832 
 2858000   0.98263061   -3.3641306   -3.3641306   -1.8901864  0.049923276   -3.3641306    1.4739442   878832 
 2859000   0.98258045   -3.3638938   -3.3638938   -1.8900248  0.050215026   -3.3638938     1.473869   878832 
 2860000   0.98250443   -3.3635924   -3.3635924   -1.8898375  0.052380832   -3.3635924     1.473755   878832 
 2861000   0.98305482   -3.3646802   -3.3646802   -1.8900996  0.051880836   -3.3646802    1.4745806   878832 
 2862000   0.98446644   -3.3668676   -3.3668676   -1.8901696  0.050110319   -3.3668676     1.476698   878832 
 2863000   0.98207468   -3.3633026   -3.3633026   -1.8901922  0.052906575   -3.3633026    1.4731103   878832 
 2864000   0.98250555   -3.3641255   -3.3641255   -1.8903689  0.053369332   -3.3641255    1.4737566   878832 
 2865000   0.98200265   -3.3637178   -3.3637178   -1.8907155  0.054922376   -3.3637178    1.4730023   878832 
 2866000   0.98229767   -3.3647676   -3.3647676   -1.8913228  0.051771142   -3.3647676    1.4734448   878832 
 2867000   0.98268151   -3.3650426   -3.3650426    -1.891022  0.053115138   -3.3650426    1.4740206   878832 
 2868000   0.98311071   -3.3653417   -3.3653417   -1.8906773  0.054340111   -3.3653417    1.4746644   878832 
 2869000    0.9845482   -3.3676823   -3.3676823   -1.8908616  0.052080385   -3.3676823    1.4768206   878832 
 2870000   0.98363763    -3.365926    -3.365926   -1.8904713  0.051420925    -3.365926    1.4754548   878832 
 2871000   0.98296859   -3.3649326   -3.3649326   -1.8904813  0.056583052   -3.3649326    1.4744512   878832 
 2872000   0.98406279   -3.3667554   -3.3667554   -1.8906629  0.052631984   -3.3667554    1.4760925   878832 
 2873000   0.98321783     -3.36558     -3.36558    -1.890755  0.056017114     -3.36558    1.4748251   878832 
 2874000    0.9842463   -3.3666599   -3.3666599   -1.8902922  0.054797745   -3.3666599    1.4763678   878832 
 2875000   0.98375576   -3.3660515   -3.3660515   -1.8904196  0.056103572   -3.3660515     1.475632   878832 
 2876000   0.98362294   -3.3662239   -3.3662239   -1.8907912  0.058657972   -3.3662239    1.4754327   878832 
 2877000   0.98450324   -3.3677612   -3.3677612    -1.891008  0.052832889   -3.3677612    1.4767532   878832 
 2878000   0.98403382   -3.3665133   -3.3665133   -1.8904642  0.052646272   -3.3665133     1.476049   878832 
 2879000   0.98406876    -3.365456    -3.365456   -1.8893546  0.059709237    -3.365456    1.4761015   878832 
 2880000   0.98478782   -3.3660448   -3.3660448   -1.8888647  0.058291637   -3.3660448    1.4771801   878832 
 2881000   0.98564382   -3.3675582   -3.3675582   -1.8890941  0.054398221   -3.3675582     1.478464   878832 
 2882000   0.98385118   -3.3656743   -3.3656743   -1.8898992  0.057589229   -3.3656743    1.4757751   878832 
 2883000   0.98472807   -3.3665634   -3.3665634    -1.889473  0.055845469   -3.3665634    1.4770904   878832 
 2884000   0.98481454   -3.3655518   -3.3655518   -1.8883317  0.053985241   -3.3655518    1.4772201   878832 
 2885000   0.98441924   -3.3651837   -3.3651837   -1.8885565  0.055663437   -3.3651837    1.4766272   878832 
 2886000   0.98475015   -3.3650593   -3.3650593   -1.8879358  0.056875108   -3.3650593    1.4771235   878832 
 2887000   0.98391516   -3.3641251   -3.3641251    -1.888254  0.057247725   -3.3641251    1.4758711   878832 
 2888000   0.98437667   -3.3651372   -3.3651372   -1.8885739  0.051174169   -3.3651372    1.4765633   878832 
 2889000   0.98420674   -3.3646577   -3.3646577   -1.8883492  0.050600315   -3.3646577    1.4763084   878832 
 2890000   0.98314988   -3.3636645   -3.3636645   -1.8889414  0.049810464   -3.3636645    1.4747231   878832 
 2891000   0.98175841   -3.3620752   -3.3620752   -1.8894393  0.054904122   -3.3620752    1.4726359   878832 
 2892000    0.9832961   -3.3640496   -3.3640496   -1.8891071  0.053059302   -3.3640496    1.4749425   878832 
 2893000   0.98327352   -3.3635238   -3.3635238   -1.8886153  0.054248411   -3.3635238    1.4749086   878832 
 2894000   0.98399829   -3.3645533   -3.3645533   -1.8885576  0.050163072   -3.3645533    1.4759958   878832 
 2895000   0.98277562   -3.3627967   -3.3627967   -1.8886349  0.051711526   -3.3627967    1.4741618   878832 
 2896000   0.98175534   -3.3617685   -3.3617685   -1.8891371  0.050036135   -3.3617685    1.4726313   878832 
 2897000   0.98231393   -3.3634972   -3.3634972    -1.890028  0.048056283   -3.3634972    1.4734692   878832 
 2898000   0.98118302   -3.3612895   -3.3612895   -1.8895166  0.049738211   -3.3612895    1.4717729   878832 
 2899000   0.98213725   -3.3622233   -3.3622233   -1.8890191  0.048192751   -3.3622233    1.4732042   878832 
 2900000   0.98240092   -3.3617882   -3.3617882   -1.8881885   0.05087661   -3.3617882    1.4735997   878832 
 2901000   0.98195908   -3.3617816   -3.3617816   -1.8888447  0.052258123   -3.3617816     1.472937   878832 
 2902000   0.98184438     -3.36154     -3.36154   -1.8887751  0.054827188     -3.36154    1.4727649   878832 
 2903000   0.98267633   -3.3621674   -3.3621674   -1.8881545  0.053369644   -3.3621674    1.4740128   878832 
 2904000   0.98368951   -3.3636225   -3.3636225   -1.8880899  0.051073195   -3.3636225    1.4755326   878832 
 2905000   0.98170602   -3.3615695   -3.3615695   -1.8890121  0.054408891   -3.3615695    1.4725574   878832 
 2906000   0.98245222   -3.3629329   -3.3629329   -1.8892562  0.051474677   -3.3629329    1.4736766   878832 
 2907000   0.98205194   -3.3609502   -3.3609502    -1.887874  0.056004708   -3.3609502    1.4730762   878832 
 2908000    0.9839506   -3.3635018   -3.3635018   -1.8875776  0.052604017   -3.3635018    1.4759242   878832 
 2909000   0.98455784   -3.3640214   -3.3640214   -1.8871863  0.049938434   -3.3640214    1.4768351   878832 
 2910000   0.98371072   -3.3625733   -3.3625733   -1.8870089  0.051918206   -3.3625733    1.4755644   878832 
 2911000    0.9831584   -3.3622338   -3.3622338   -1.8874978  0.056837349   -3.3622338    1.4747359   878832 
 2912000   0.98346616   -3.3630934   -3.3630934   -1.8878959  0.054419279   -3.3630934    1.4751976   878832 
 2913000   0.98397691   -3.3632615   -3.3632615   -1.8872978  0.055455032   -3.3632615    1.4759637   878832 
 2914000    0.9838117   -3.3623406   -3.3623406   -1.8866247   0.05473358   -3.3623406    1.4757159   878832 
 2915000   0.98337248   -3.3618497   -3.3618497   -1.8867927  0.054226126   -3.3618497     1.475057   878832 
 2916000   0.98393526   -3.3624327   -3.3624327   -1.8865315  0.054522728   -3.3624327    1.4759012   878832 
 2917000   0.98472197   -3.3628914   -3.3628914   -1.8858102  0.051682009   -3.3628914    1.4770813   878832 
 2918000   0.98321796   -3.3617956   -3.3617956   -1.8869703  0.055678807   -3.3617956    1.4748253   878832 
 2919000   0.98445166   -3.3634583   -3.3634583   -1.8867825  0.055817016   -3.3634583    1.4766758   878832 
 2920000   0.98500435   -3.3653418   -3.3653418   -1.8878369  0.056789088   -3.3653418    1.4775048   878832 
 2921000   0.98499737    -3.365956    -3.365956   -1.8884616  0.053085417    -3.365956    1.4774944   878832 
 2922000   0.98382984   -3.3637404   -3.3637404   -1.8879973  0.054890925   -3.3637404    1.4757431   878832 
 2923000   0.98428257   -3.3644245   -3.3644245   -1.8880023  0.056233544   -3.3644245    1.4764222   878832 
 2924000   0.98398384   -3.3631896   -3.3631896   -1.8872155  0.054142609   -3.3631896    1.4759741   878832 
 2925000   0.98393606   -3.3636165   -3.3636165   -1.8877141  0.051763041   -3.3636165    1.4759024   878832 
 2926000   0.98361827   -3.3633138   -3.3633138   -1.8878881  0.054192599   -3.3633138    1.4754257   878832 
 2927000   0.98233508   -3.3615041   -3.3615041   -1.8880032  0.055540706   -3.3615041    1.4735009   878832 
 2928000   0.98250649   -3.3620994   -3.3620994   -1.8883413  0.054475453   -3.3620994    1.4737581   878832 
 2929000   0.98277953   -3.3626869   -3.3626869   -1.8885193  0.053254697   -3.3626869    1.4741676   878832 
 2930000    0.9834633   -3.3636302   -3.3636302   -1.8884369  0.049281587   -3.3636302    1.4751933   878832 
 2931000   0.98231843    -3.361973    -3.361973    -1.888497  0.051782441    -3.361973     1.473476   878832 
 2932000   0.98310951   -3.3623084   -3.3623084   -1.8876459  0.050712795   -3.3623084    1.4746626   878832 
 2933000   0.98244485   -3.3608103   -3.3608103   -1.8871447  0.057442857   -3.3608103    1.4736656   878832 
 2934000   0.98296488   -3.3616727   -3.3616727   -1.8872271   0.05674077   -3.3616727    1.4744456   878832 
 2935000   0.98365878   -3.3622866   -3.3622866   -1.8868001  0.054724299   -3.3622866    1.4754865   878832 
 2936000   0.98370142   -3.3626809   -3.3626809   -1.8871304  0.052869845   -3.3626809    1.4755504   878832 
 2937000   0.98336858   -3.3622429   -3.3622429   -1.8871917  0.057552186   -3.3622429    1.4750512   878832 
 2938000   0.98346722   -3.3613302   -3.3613302    -1.886131  0.057314679   -3.3613302    1.4751992   878832 
 2939000   0.98417983   -3.3617657   -3.3617657   -1.8854976  0.056083428   -3.3617657    1.4762681   878832 
 2940000   0.98291185   -3.3615029   -3.3615029   -1.8871368  0.053481064   -3.3615029    1.4743661   878832 
 2941000   0.98297838   -3.3615932   -3.3615932   -1.8871273  0.056995313   -3.3615932    1.4744659   878832 
 2942000   0.98362317   -3.3627637   -3.3627637   -1.8873306  0.052629133   -3.3627637    1.4754331   878832 
 2943000   0.98373098   -3.3621705   -3.3621705   -1.8865757  0.053931745   -3.3621705    1.4755948   878832 
 2944000   0.98306893   -3.3611239   -3.3611239   -1.8865222  0.056062842   -3.3611239    1.4746017   878832 
 2945000   0.98343957   -3.3616575   -3.3616575   -1.8864998  0.055609324   -3.3616575    1.4751577   878832 
 2946000   0.98283326   -3.3609178   -3.3609178   -1.8866696  0.057855027   -3.3609178    1.4742482   878832 
 2947000   0.98344775   -3.3614848   -3.3614848   -1.8863149  0.052405701   -3.3614848    1.4751699   878832 
 2948000   0.98302441   -3.3610708   -3.3610708   -1.8865359   0.05487166   -3.3610708    1.4745349   878832 
 2949000    0.9827456   -3.3604316   -3.3604316   -1.8863149   0.05502236   -3.3604316    1.4741167   878832 
 2950000   0.98380596   -3.3614304   -3.3614304   -1.8857231  0.051648655   -3.3614304    1.4757073   878832 
 2951000   0.98362885   -3.3602758   -3.3602758   -1.8848342  0.055167962   -3.3602758    1.4754416   878832 
 2952000   0.98372194   -3.3605108   -3.3605108   -1.8849295  0.053521042   -3.3605108    1.4755812   878832 
 2953000   0.98347769   -3.3600494   -3.3600494   -1.8848345  0.053618037   -3.3600494    1.4752149   878832 
 2954000   0.98482385   -3.3613941   -3.3613941     -1.88416  0.053847871   -3.3613941    1.4772341   878832 
 2955000    0.9849308   -3.3613599   -3.3613599   -1.8839654  0.052770834   -3.3613599    1.4773945   878832 
 2956000   0.98425211   -3.3604638   -3.3604638   -1.8840874  0.055659168   -3.3604638    1.4763765   878832 
 2957000   0.98458593   -3.3608024   -3.3608024   -1.8839252  0.056386671   -3.3608024    1.4768772   878832 
 2958000   0.98485549   -3.3599602   -3.3599602   -1.8826786  0.054949275   -3.3599602    1.4772816   878832 
 2959000   0.98469104    -3.360085    -3.360085   -1.8830501   0.05743285    -3.360085    1.4770349   878832 
 2960000   0.98421792   -3.3605569   -3.3605569   -1.8842317  0.053094648   -3.3605569    1.4763252   878832 
 2961000    0.9832384   -3.3584695   -3.3584695   -1.8836136  0.052833752   -3.3584695    1.4748559   878832 
 2962000    0.9836046   -3.3581557   -3.3581557   -1.8827505  0.055928682   -3.3581557    1.4754052   878832 
 2963000   0.98385139   -3.3583461   -3.3583461   -1.8825707  0.054508923   -3.3583461    1.4757754   878832 
 2964000   0.98355286   -3.3587582   -3.3587582   -1.8834306  0.052921476   -3.3587582    1.4753276   878832 
 2965000   0.98413071   -3.3596425   -3.3596425   -1.8834481  0.052214528   -3.3596425    1.4761944   878832 
 2966000   0.98380165   -3.3598485   -3.3598485   -1.8841477  0.051666204   -3.3598485    1.4757008   878832 
 2967000    0.9827269   -3.3580171   -3.3580171   -1.8839284  0.054689107   -3.3580171    1.4740887   878832 
 2968000   0.98339505   -3.3591426   -3.3591426   -1.8840517  0.054333974   -3.3591426    1.4750909   878832 
 2969000   0.98216158   -3.3576898   -3.3576898   -1.8844492  0.054448263   -3.3576898    1.4732407   878832 
 2970000   0.98318867    -3.359899    -3.359899   -1.8851177  0.052273349    -3.359899    1.4747813   878832 
 2971000   0.98309239   -3.3593621   -3.3593621   -1.8847252  0.051613899   -3.3593621    1.4746369   878832 
 2972000   0.98347415   -3.3593434   -3.3593434   -1.8841339  0.055345277   -3.3593434    1.4752095   878832 
 2973000    0.9834293   -3.3590374   -3.3590374   -1.8838952  0.053805432   -3.3590374    1.4751423   878832 
 2974000   0.98261804   -3.3584493   -3.3584493    -1.884524  0.055545472   -3.3584493    1.4739254   878832 
 2975000   0.98320293   -3.3594203   -3.3594203   -1.8846176  0.049889601   -3.3594203    1.4748027   878832 
 2976000   0.98351974   -3.3595627   -3.3595627   -1.8842848  0.052898668   -3.3595627    1.4752779   878832 
 2977000   0.98396008   -3.3602307   -3.3602307   -1.8842923  0.051963173   -3.3602307    1.4759384   878832 
 2978000   0.98336809   -3.3595261   -3.3595261   -1.8844757  0.053653355   -3.3595261    1.4750505   878832 
 2979000   0.98427275   -3.3603546   -3.3603546   -1.8839471  0.054159615   -3.3603546    1.4764074   878832 
 2980000   0.98516662   -3.3611668   -3.3611668   -1.8834185   0.05654001   -3.3611668    1.4777483   878832 
 2981000   0.98425562   -3.3605941   -3.3605941   -1.8842123  0.054770259   -3.3605941    1.4763817   878832 
 2982000   0.98369851   -3.3598987   -3.3598987   -1.8843526  0.051561329   -3.3598987    1.4755461   878832 
 2983000   0.98529525   -3.3606699   -3.3606699   -1.8827287  0.056419107   -3.3606699    1.4779412   878832 
 2984000   0.98363708   -3.3588195   -3.3588195   -1.8833656  0.055655924   -3.3588195    1.4754539   878832 
 2985000   0.98459607    -3.359951    -3.359951   -1.8830585   0.05395715    -3.359951    1.4768924   878832 
 2986000   0.98382384   -3.3596541   -3.3596541     -1.88392  0.051753071   -3.3596541    1.4757341   878832 
 2987000   0.98268656   -3.3581202   -3.3581202    -1.884092  0.054205952   -3.3581202    1.4740282   878832 
 2988000   0.98443022   -3.3597717   -3.3597717   -1.8831281  0.057199855   -3.3597717    1.4766436   878832 
 2989000   0.98473848   -3.3608483   -3.3608483   -1.8837423  0.053067056   -3.3608483     1.477106   878832 
 2990000   0.98572768    -3.361996    -3.361996   -1.8834061   0.05278273    -3.361996    1.4785898   878832 
 2991000   0.98315647   -3.3584624   -3.3584624   -1.8837293  0.052762665   -3.3584624     1.474733   878832 
 2992000   0.98473474   -3.3607662   -3.3607662   -1.8836658  0.054525055   -3.3607662    1.4771004   878832 
 2993000   0.98528158   -3.3611398   -3.3611398   -1.8832191  0.052475797   -3.3611398    1.4779207   878832 
 2994000   0.98496641   -3.3608535   -3.3608535   -1.8834056  0.058167987   -3.3608535    1.4774479   878832 
 2995000      0.98566   -3.3618885   -3.3618885   -1.8834002  0.055292184   -3.3618885    1.4784883   878832 
 2996000   0.98567204   -3.3616768   -3.3616768   -1.8831704  0.057688275   -3.3616768    1.4785064   878832 
 2997000   0.98471364   -3.3602335   -3.3602335   -1.8831648  0.055694275   -3.3602335    1.4770688   878832 
 2998000   0.98462046   -3.3607361   -3.3607361    -1.883807  0.059712256   -3.3607361     1.476929   878832 
 2999000   0.98408508   -3.3602879   -3.3602879    -1.884162  0.052340343   -3.3602879    1.4761259   878832 
 3000000   0.98378862   -3.3591705   -3.3591705   -1.8834892  0.056035388   -3.3591705    1.4756812   878832 
Loop time of 11178.5 on 144 procs for 3000000 steps with 878832 atoms

Performance: 115936.792 tau/day, 268.372 timesteps/s
93.7% CPU use with 144 MPI tasks x 1 OpenMP threads

MPI task timing breakdown:
Section |  min time  |  avg time  |  max time  |%varavg|  %CPU | %total
-----------------------------------------------------------------------
Pair    | 3415.9     | 5460.3     | 6007.2     | 930.9 |  97.0 | 48.85
Bond    | 2.0095     | 2.2533     | 2.581      |   7.1 | 100.0 |  0.02
Neigh   | 1787.2     | 2577       | 2793.7     | 498.8 |  99.5 | 23.05
Comm    | 1863       | 2541.4     | 5506.5     |1905.6 |  85.4 | 22.73
Output  | 143.78     | 145.91     | 145.94     |   1.5 |  65.9 |  1.31
Modify  | 216        | 331.62     | 995.45     |1257.6 |  90.7 |  2.97
Other   |            | 120        |            |       |       |  1.07

Nlocal:        6103.00 ave        6545 max        5668 min
Histogram: 2 0 2 12 61 56 7 0 2 2
Nghost:        6048.86 ave        6579 max        4632 min
Histogram: 21 10 1 0 0 0 0 0 41 71
Neighs:        171590.0 ave      188984 max       85116 min
Histogram: 4 8 4 0 0 0 0 0 37 91

Total # of neighbors = 24709005
Ave neighs/atom = 28.115732
Ave special neighs/atom = 0.0000000
Neighbor list builds = 299999
Dangerous builds = 296994

write_data	data.lj
System init for write_data ...
WARNING: Not all mixed pair coeffs generated from mixing. Use write_data with 'pair ij' option to store all pair coeffs. (src/write_data.cpp:312)
Total wall time: 3:06:22
