LAMMPS (24 Dec 2020)
OMP_NUM_THREADS environment is not set. Defaulting to 1 thread. (src/comm.cpp:94)
  using 1 OpenMP thread(s) per MPI task
# Simple rigid body system
# needed variables:

units		lj
atom_style	full
dimension 	3
boundary	p p f
pair_style	lj/cut/opt 2.5


variable 	sigma		equal 1.0
variable 	epsilon 	equal 1.0


region		box block 0 80 0 80 0 80
create_box 	3 box
Created orthogonal box = (0.0000000 0.0000000 0.0000000) to (80.000000 80.000000 80.000000)
  2 by 4 by 4 MPI processor grid
lattice 	sc 1.0
Lattice spacing in x,y,z = 1.0000000 1.0000000 1.0000000

create_atoms 	1 region box
Created 512000 atoms
  create_atoms CPU = 0.024 seconds

mass		1 1.0
mass		2 1.0
mass		3 1.0


group		solvent type 1
512000 atoms in group solvent


velocity 	solvent create ${startTemp} 563435 loop geom
velocity 	solvent create 0.5 563435 loop geom

read_data	data.vac add append
Reading data file ...
  orthogonal box = (0.0000000 0.0000000 0.0000000) to (80.000000 80.000000 160.00000)
  2 by 2 by 8 MPI processor grid
Finding 1-2 1-3 1-4 neighbors ...
  special bond factors lj:    0        0        0       
  special bond factors coul:  0        0        0       
     0 = max # of 1-2 neighbors
     0 = max # of 1-3 neighbors
     0 = max # of 1-4 neighbors
     1 = max # of special neighbors
  special bonds CPU = 0.082 seconds
  read_data CPU = 0.091 seconds

neighbor 	0.4 bin

pair_coeff	1 1 1.0 1.0
pair_coeff	2 2 0.0 0.0
pair_coeff	3 3 0.0 0.0
pair_coeff	2 3 0.0 0.0
pair_coeff	1 2*3 0.0 0.0

pair_modify 	shift yes


balance 	1.05 shift z 10 1.05
Balancing ...
Neighbor list info ...
  update every 1 steps, delay 10 steps, check yes
  max neighbors/atom: 2000, page size: 100000
  master list distance cutoff = 2.9
  ghost atom cutoff = 2.9
  binsize = 1.45, bins = 56 56 111
  1 neighbor lists, perpetual/occasional/extra = 1 0 0
  (1) pair lj/cut/opt, perpetual
      attributes: half, newton on
      pair build: half/bin/newton
      stencil: half/bin/3d/newton
      bin: standard
 rebalancing time: 0.016 seconds
  iteration count = 5
  initial/final maximal load/proc = 32000.000 19200.000
  initial/final imbalance factor  = 2.0000000 1.2000000
  x cuts: 0.0000000 0.50000000 1.0000000
  y cuts: 0.0000000 0.50000000 1.0000000
  z cuts: 0.0000000 0.062500000 0.12890625 0.18750000 0.25781250 0.30859375 0.38671875 0.43750000 1.0000000


####################### WALLS ###########################


region	       low block  EDGE EDGE EDGE EDGE 0 2

region 	       top block  EDGE EDGE EDGE EDGE 159 160


delete_atoms   region low
WARNING: Ignoring 'compress yes' for molecular system (src/delete_atoms.cpp:125)
Deleted 19200 atoms, new total = 492800

delete_atoms   region top
WARNING: Ignoring 'compress yes' for molecular system (src/delete_atoms.cpp:125)
Deleted 0 atoms, new total = 492800


variable       epsilonWall equal 2*${epsilon}
variable       epsilonWall equal 2*1

variable       cutoffTop   equal   0.7147*${sigma}
variable       cutoffTop   equal   0.7147*1

variable       cutoffLow   equal   3*${sigma}
variable       cutoffLow   equal   3*1


fix            topWall all wall/lj93 zhi EDGE                ${epsilonWall} ${sigma} ${cutoffTop} units box
fix            topWall all wall/lj93 zhi EDGE                2 ${sigma} ${cutoffTop} units box
fix            topWall all wall/lj93 zhi EDGE                2 1 ${cutoffTop} units box
fix            topWall all wall/lj93 zhi EDGE                2 1 0.7147 units box

fix            lowWall all wall/lj93 zlo EDGE                ${epsilonWall} ${sigma} ${cutoffLow} units box
fix            lowWall all wall/lj93 zlo EDGE                2 ${sigma} ${cutoffLow} units box
fix            lowWall all wall/lj93 zlo EDGE                2 1 ${cutoffLow} units box
fix            lowWall all wall/lj93 zlo EDGE                2 1 3 units box


###################### COMPUTES ##########################

compute        bin1 solvent chunk/atom bin/1d z upper 1.0



######################	FIXES ############################


fix 		peclet solvent ave/chunk 1000 1 1000 bin1 density/number norm 		 none ave one file density.profile

fix 		2 solvent nve

## Thermostat


region		regthermo block EDGE EDGE EDGE EDGE 0 20

group 		thermo dynamic solvent region regthermo every 1000
dynamic group thermo defined

fix 		3 thermo langevin ${startTemp} ${temp} 10 156453
fix 		3 thermo langevin 0.5 ${temp} 10 156453
fix 		3 thermo langevin 0.5 1.2 10 156453



#### Load balancing


fix 		bal all balance 1000 1.05 shift z 10 1.05


############### Diagnostics and computes ###################
#compute 	com cube	  rigid/local	1 mol x y z
#compute 	quat cube	  rigid/local	1 mol quatw quati quatj quatk

thermo 		1000
thermo_style 	custom step temp epair evdwl etotal press pe ke vol

dump		1 all custom 100000 dump.lammpstrj id mol type x y z
dump 		2 all image 10000 image.*.png type type
dump 		3 all movie 1000 movie.avi type type
#dump 		com cube local 1000 dump.*.xyz c_com[*]
#dump		quat cube      local 1000 dump.*.quat c_quat[*]


restart 	500000 restart.dat
timestep 	0.0025
timer 		full
New timer settings: style=full  mode=nosync  timeout=off


run		1000000
Per MPI rank memory allocation (min/avg/max) = 21.45 | 22.19 | 22.73 Mbytes
Step Temp E_pair E_vdwl TotEng Press PotEng KinEng Volume 
       0   0.49998514   -3.2974116   -3.2974116   -2.5474355    8.3319627   -3.2974116   0.74997619      1024000 
    1000    1.4274103   -4.8138435   -4.8138435   -2.6727324    3.6859999   -4.8138435     2.141111      1024000 
    2000    1.3661083   -4.8622716   -4.8622716   -2.8131132    2.4701997   -4.8622716    2.0491583      1024000 
    3000     1.263466    -4.835161    -4.835161   -2.9399658    1.6370092    -4.835161    1.8951952      1024000 
    4000    1.2141114   -4.8497619   -4.8497619   -3.0285985    0.7152885   -4.8497619    1.8211633      1024000 
    5000    1.1427573   -4.7860608   -4.7860608   -3.0719282  0.084128977   -4.7860608    1.7141325      1024000 
    6000    1.0637587   -4.6825805   -4.6825805   -3.0869457   -0.2532577   -4.6825805    1.5956348      1024000 
    7000    1.0052102   -4.5964727   -4.5964727   -3.0886604  -0.34931105   -4.5964727    1.5078123      1024000 
    8000   0.99092124   -4.5743622   -4.5743622   -3.0879833  -0.23879853   -4.5743622    1.4863788      1024000 
    9000    1.0035505   -4.5974903   -4.5974903   -3.0921676  -0.10234244   -4.5974903    1.5053227      1024000 
   10000    1.0092623   -4.6170576   -4.6170576   -3.1031672 -0.029816926   -4.6170576    1.5138904      1024000 
   11000    1.0091697   -4.6281679   -4.6281679   -3.1144164  0.011418548   -4.6281679    1.5137515      1024000 
   12000    1.0089163   -4.6375533   -4.6375533   -3.1241819  0.042518779   -4.6375533    1.5133714      1024000 
   13000    1.0117085   -4.6499646   -4.6499646   -3.1324049  0.067783538   -4.6499646    1.5175597      1024000 
   14000    1.0119426   -4.6587514   -4.6587514   -3.1408407  0.081458037   -4.6587514    1.5179108      1024000 
   15000    1.0102085   -4.6637419   -4.6637419   -3.1484322  0.090313286   -4.6637419    1.5153097      1024000 
   16000    1.0060661   -4.6637585   -4.6637585   -3.1546625  0.080005674   -4.6637585    1.5090961      1024000 
   17000    1.0050971   -4.6675746   -4.6675746   -3.1599319   0.08663471   -4.6675746    1.5076427      1024000 
   18000    1.0065066   -4.6744079   -4.6744079   -3.1646511   0.10011437   -4.6744079    1.5097568      1024000 
   19000    1.0070845   -4.6792447   -4.6792447    -3.168621   0.11047659   -4.6792447    1.5106237      1024000 
   20000    1.0075539   -4.6832424   -4.6832424   -3.1719147   0.11247359   -4.6832424    1.5113277      1024000 
   21000    1.0062837   -4.6851201   -4.6851201   -3.1756976   0.11371842   -4.6851201    1.5094225      1024000 
   22000    1.0069015   -4.6889995   -4.6889995   -3.1786504   0.11943926   -4.6889995    1.5103492      1024000 
   23000    1.0071446    -4.692565    -4.692565   -3.1818512   0.13467405    -4.692565    1.5107138      1024000 
   24000    1.0118161   -4.7033219   -4.7033219   -3.1856008   0.24236079   -4.7033219     1.517721      1024000 
   25000    1.0249041    -4.725126    -4.725126    -3.187773    0.7038284    -4.725126     1.537353      1024000 
   26000    1.0372812   -4.7463164   -4.7463164   -3.1903978    1.0236915   -4.7463164    1.5559186      1024000 
   27000    1.0476448   -4.7627476   -4.7627476   -3.1912836     1.465647   -4.7627476    1.5714641      1024000 
   28000    1.0525728   -4.7723267   -4.7723267   -3.1934707    1.7542003   -4.7723267     1.578856      1024000 
   29000    1.0326684   -4.7447235   -4.7447235    -3.195724    1.3947816   -4.7447235    1.5489994      1024000 
   30000    1.0098913   -4.7117091   -4.7117091   -3.1968753    1.0224735   -4.7117091    1.5148338      1024000 
   31000   0.99546851    -4.691171    -4.691171   -3.1979712   0.63086982    -4.691171    1.4931997      1024000 
   32000   0.96762271   -4.6503693   -4.6503693   -3.1989382   0.36335083   -4.6503693    1.4514311      1024000 
   33000   0.92815507    -4.592781    -4.592781   -3.2005513    0.1736631    -4.592781    1.3922298      1024000 
   34000   0.89096512   -4.5384415   -4.5384415   -3.2019965  0.020927883   -4.5384415     1.336445      1024000 
   35000   0.86063552   -4.4942108   -4.4942108   -3.2032601 -0.071041265   -4.4942108    1.2909507      1024000 
   36000   0.84248446   -4.4676871   -4.4676871    -3.203963  -0.10324744   -4.4676871    1.2637241      1024000 
   37000   0.83671497   -4.4605454   -4.4605454   -3.2054755 -0.091413516   -4.4605454    1.2550699      1024000 
   38000   0.84107965   -4.4685052   -4.4685052   -3.2068883 -0.071014184   -4.4685052    1.2616169      1024000 
   39000   0.85012276   -4.4833245   -4.4833245   -3.2081429 -0.035375482   -4.4833245    1.2751815      1024000 
   40000   0.86198171   -4.5023943   -4.5023943   -3.2094244 0.0081204241   -4.5023943    1.2929699      1024000 
   41000   0.87364259   -4.5206326   -4.5206326   -3.2101714  0.061245037   -4.5206326    1.3104612      1024000 
   42000   0.88257932   -4.5352433   -4.5352433    -3.211377  0.097618376   -4.5352433    1.3238663      1024000 
   43000   0.88643869   -4.5421679   -4.5421679   -3.2125126   0.12238486   -4.5421679    1.3296553      1024000 
   44000   0.88948756    -4.547324    -4.547324   -3.2130953   0.13392939    -4.547324    1.3342286      1024000 
   45000   0.88763623   -4.5461018   -4.5461018   -3.2146501    0.1274096   -4.5461018    1.3314516      1024000 
   46000   0.88234479   -4.5392011   -4.5392011   -3.2156866   0.11066313   -4.5392011    1.3235145      1024000 
   47000   0.87672018   -4.5322367   -4.5322367   -3.2171591  0.079211686   -4.5322367    1.3150776      1024000 
   48000   0.87240174   -4.5269533   -4.5269533   -3.2183533  0.068017876   -4.5269533       1.3086      1024000 
   49000   0.87143757   -4.5265917   -4.5265917    -3.219438  0.062783821   -4.5265917    1.3071537      1024000 
   50000   0.86784911   -4.5225486   -4.5225486   -3.2207775  0.056094017   -4.5225486     1.301771      1024000 
   51000   0.86531207   -4.5207091   -4.5207091   -3.2227436  0.048932681   -4.5207091    1.2979655      1024000 
   52000   0.86367387   -4.5201346   -4.5201346   -3.2246264  0.051886593   -4.5201346    1.2955082      1024000 
   53000    0.8639085   -4.5225415   -4.5225415   -3.2266814  0.055280748   -4.5225415    1.2958601      1024000 
   54000   0.86693356   -4.5294022   -4.5294022   -3.2290045  0.061574395   -4.5294022    1.3003977      1024000 
   55000   0.86915815   -4.5345324   -4.5345324   -3.2307978  0.082188203   -4.5345324    1.3037346      1024000 
   56000   0.87361829   -4.5433877   -4.5433877   -3.2329629   0.09739461   -4.5433877    1.3104248      1024000 
   57000   0.87438606   -4.5469738   -4.5469738   -3.2353974   0.11036711   -4.5469738    1.3115764      1024000 
   58000    0.8779291    -4.555675    -4.555675   -3.2387841    0.1196089    -4.555675     1.316891      1024000 
   59000   0.87709056   -4.5578528   -4.5578528   -3.2422196   0.12689389   -4.5578528    1.3156332      1024000 
   60000   0.87775772   -4.5625326   -4.5625326   -3.2458986   0.13512118   -4.5625326    1.3166339      1024000 
   61000   0.88056467   -4.5706091   -4.5706091   -3.2497647   0.14877177   -4.5706091    1.3208443      1024000 
   62000   0.88339878   -4.5798047   -4.5798047   -3.2547092   0.18712587   -4.5798047    1.3250955      1024000 
   63000   0.88847866   -4.5939656   -4.5939656   -3.2612503   0.23361882   -4.5939656    1.3327153      1024000 
   64000   0.89755251   -4.6152745   -4.6152745   -3.2689485   0.29288011   -4.6152745     1.346326      1024000 
   65000    0.9039532   -4.6338268   -4.6338268   -3.2778998   0.37557104   -4.6338268    1.3559271      1024000 
   66000   0.90820391   -4.6514443   -4.6514443   -3.2891412   0.42552153   -4.6514443    1.3623031      1024000 
   67000   0.90651718   -4.6605236   -4.6605236   -3.3007506   0.45080584   -4.6605236     1.359773      1024000 
   68000   0.90337211   -4.6677943   -4.6677943   -3.3127388   0.48722515   -4.6677943    1.3550554      1024000 
   69000   0.89220184    -4.673241    -4.673241    -3.334941   0.56693692    -4.673241       1.3383      1024000 
   70000   0.87895257   -4.6817783   -4.6817783   -3.3633522   0.63120118   -4.6817783    1.3184262      1024000 
   71000   0.86942977   -4.6942471   -4.6942471    -3.390105   0.64200382   -4.6942471     1.304142      1024000 
   72000   0.86295641   -4.7086692   -4.7086692   -3.4142372   0.64990956   -4.7086692     1.294432      1024000 
   73000   0.86383769   -4.7300275   -4.7300275   -3.4342736   0.62960074   -4.7300275    1.2957539      1024000 
   74000   0.86544654   -4.7488797   -4.7488797   -3.4507126   0.62364559   -4.7488797    1.2981672      1024000 
   75000   0.86693727   -4.7627525   -4.7627525   -3.4623492   0.62867255   -4.7627525    1.3004033      1024000 
   76000   0.85854442   -4.7579469   -4.7579469   -3.4701328   0.53828405   -4.7579469     1.287814      1024000 
   77000   0.83718138   -4.7310675   -4.7310675    -3.475298   0.38579086   -4.7310675    1.2557695      1024000 
   78000   0.81469555   -4.6999318   -4.6999318   -3.4778909   0.25524443   -4.6999318    1.2220408      1024000 
   79000   0.79311127   -4.6691386   -4.6691386   -3.4794741   0.14807637   -4.6691386    1.1896645      1024000 
   80000    0.7728723   -4.6405775   -4.6405775   -3.4812714  0.077886918   -4.6405775    1.1593061      1024000 
   81000   0.75404566   -4.6154666   -4.6154666   -3.4844004 0.0080220472   -4.6154666    1.1310662      1024000 
   82000   0.73636909   -4.5921889   -4.5921889   -3.4876375  -0.06587065   -4.5921889    1.1045514      1024000 
   83000   0.72160714   -4.5710759   -4.5710759   -3.4886674  -0.13804189   -4.5710759    1.0824085      1024000 
   84000   0.70880738   -4.5500976   -4.5500976   -3.4868887  -0.19614979   -4.5500976    1.0632089      1024000 
   85000   0.69941232   -4.5314107   -4.5314107   -3.4822943  -0.24065153   -4.5314107    1.0491164      1024000 
   86000   0.69276143   -4.5162876   -4.5162876   -3.4771476  -0.27232122   -4.5162876      1.03914      1024000 
   87000    0.6913074   -4.5079153   -4.5079153   -3.4709563  -0.27482775   -4.5079153     1.036959      1024000 
   88000   0.69421348   -4.5045108   -4.5045108   -3.4631927  -0.25846939   -4.5045108    1.0413181      1024000 
   89000   0.70155666   -4.5103983   -4.5103983   -3.4580654  -0.22273991   -4.5103983    1.0523329      1024000 
   90000   0.71052563   -4.5196226   -4.5196226   -3.4538363  -0.18291407   -4.5196226    1.0657863      1024000 
   91000   0.72044593   -4.5315848   -4.5315848   -3.4509181  -0.13030585   -4.5315848    1.0806667      1024000 
   92000   0.72836145   -4.5427921   -4.5427921   -3.4502521 -0.089896291   -4.5427921      1.09254      1024000 
   93000   0.73405385   -4.5531943   -4.5531943   -3.4521158    -0.043535   -4.5531943    1.1010785      1024000 
   94000   0.73849135   -4.5641169   -4.5641169   -3.4563822 -0.012302745   -4.5641169    1.1077348      1024000 
   95000   0.74077916   -4.5723406   -4.5723406   -3.4611741 0.0077462968   -4.5723406    1.1111665      1024000 
   96000   0.74187446   -4.5795106   -4.5795106   -3.4667012 0.0099643466   -4.5795106    1.1128094      1024000 
   97000   0.73907639   -4.5811268   -4.5811268   -3.4725145 0.0019431911   -4.5811268    1.1086123      1024000 
   98000   0.73774018   -4.5831143   -4.5831143   -3.4765062 -0.0090126804   -4.5831143     1.106608      1024000 
   99000   0.73488945   -4.5818595   -4.5818595   -3.4795276 -0.023376281   -4.5818595    1.1023319      1024000 
  100000   0.73333668   -4.5816692   -4.5816692   -3.4816664 -0.036211945   -4.5816692    1.1000028      1024000 
  101000   0.73298733   -4.5819649   -4.5819649   -3.4824861 -0.045793997   -4.5819649    1.0994788      1024000 
  102000   0.73238373   -4.5817796   -4.5817796   -3.4832062 -0.036225271   -4.5817796    1.0985734      1024000 
  103000   0.73449861   -4.5855119   -4.5855119   -3.4837662 -0.033101887   -4.5855119    1.1017457      1024000 
  104000   0.73569945   -4.5884082   -4.5884082   -3.4848613 -0.021808573   -4.5884082    1.1035469      1024000 
  105000   0.73702821   -4.5924831   -4.5924831    -3.486943 -0.017784839   -4.5924831    1.1055401      1024000 
  106000    0.7370874   -4.5943774   -4.5943774   -3.4887485  -0.01075955   -4.5943774    1.1056289      1024000 
  107000   0.73747036   -4.5966662   -4.5966662   -3.4904629 -0.0037645745   -4.5966662    1.1062033      1024000 
  108000   0.73630789   -4.5971792   -4.5971792   -3.4927196 0.00082023062   -4.5971792    1.1044596      1024000 
  109000    0.7371825   -4.6007225   -4.6007225    -3.494951 -0.010133501   -4.6007225    1.1057715      1024000 
  110000   0.73504858   -4.6007013   -4.6007013   -3.4981307 -0.0027540195   -4.6007013    1.1025706      1024000 
  111000   0.73516859   -4.6031201   -4.6031201   -3.5003694 -0.0079150701   -4.6031201    1.1027506      1024000 
  112000    0.7335319   -4.6022776   -4.6022776    -3.501982 -0.0076833611   -4.6022776    1.1002956      1024000 
  113000   0.73422567   -4.6045824   -4.6045824   -3.5032462 -0.012164555   -4.6045824    1.1013363      1024000 
  114000   0.73351849    -4.604556    -4.604556   -3.5042805 -0.0097623183    -4.604556    1.1002755      1024000 
  115000   0.73329426   -4.6050549   -4.6050549   -3.5051158 -0.0076968767   -4.6050549    1.0999392      1024000 
  116000   0.73434184   -4.6074886   -4.6074886   -3.5059781 -0.013977621   -4.6074886    1.1015105      1024000 
  117000   0.73449236   -4.6075309   -4.6075309   -3.5057946 -0.0082932794   -4.6075309    1.1017363      1024000 
  118000   0.73440329   -4.6088289   -4.6088289   -3.5072262 -0.011885414   -4.6088289    1.1016027      1024000 
  119000   0.73427641   -4.6092165   -4.6092165   -3.5078041 -0.0047601775   -4.6092165    1.1014124      1024000 
  120000   0.73318364   -4.6090001   -4.6090001   -3.5092268 -0.0070488407   -4.6090001    1.0997732      1024000 
  121000   0.73394636   -4.6113998   -4.6113998   -3.5104825 -0.0052084059   -4.6113998    1.1009173      1024000 
  122000   0.73430268   -4.6126917   -4.6126917   -3.5112399 -0.0024269417   -4.6126917    1.1014518      1024000 
  123000   0.73407271   -4.6134942   -4.6134942   -3.5123874 -0.0059049885   -4.6134942    1.1011068      1024000 
  124000   0.73430943   -4.6146365   -4.6146365   -3.5131746 -0.0020208038   -4.6146365    1.1014619      1024000 
  125000   0.73357235   -4.6148585   -4.6148585   -3.5145022 0.0046682172   -4.6148585    1.1003563      1024000 
  126000   0.73368111    -4.616222    -4.616222   -3.5157026 0.0051210244    -4.616222    1.1005194      1024000 
  127000   0.73416277   -4.6169389   -4.6169389    -3.515697 -0.00085103996   -4.6169389    1.1012419      1024000 
  128000   0.73397464   -4.6174816   -4.6174816   -3.5165219 -0.00060666851   -4.6174816    1.1009597      1024000 
  129000   0.73405737   -4.6183703   -4.6183703   -3.5172865 -0.0056293169   -4.6183703    1.1010838      1024000 
  130000   0.73267628   -4.6175656   -4.6175656   -3.5185534 -0.0083556396   -4.6175656    1.0990122      1024000 
  131000   0.73115295   -4.6159496   -4.6159496   -3.5192224 -0.0047997959   -4.6159496    1.0967272      1024000 
  132000   0.73254889   -4.6187899   -4.6187899   -3.5199688 -0.0097782498   -4.6187899    1.0988211      1024000 
  133000   0.73239727   -4.6187798   -4.6187798   -3.5201861 -0.0068627663   -4.6187798    1.0985937      1024000 
  134000   0.73341011   -4.6206483   -4.6206483   -3.5205354 -0.0065294596   -4.6206483    1.1001129      1024000 
  135000   0.73286048   -4.6202691   -4.6202691   -3.5209806 0.00036540182   -4.6202691    1.0992885      1024000 
  136000   0.73378074   -4.6223174   -4.6223174   -3.5216485 0.0039342102   -4.6223174    1.1006689      1024000 
  137000   0.73245106   -4.6214104   -4.6214104    -3.522736 0.0025186987   -4.6214104    1.0986744      1024000 
  138000   0.73155337   -4.6202542   -4.6202542   -3.5229264 -0.0015666209   -4.6202542    1.0973278      1024000 
  139000   0.73132458   -4.6206822   -4.6206822   -3.5236976 -0.0028139421   -4.6206822    1.0969847      1024000 
  140000   0.73247104   -4.6224484   -4.6224484   -3.5237441 -0.0061849983   -4.6224484    1.0987043      1024000 
  141000   0.73116557   -4.6210335   -4.6210335   -3.5242873 -0.0056900435   -4.6210335    1.0967461      1024000 
  142000   0.73102167   -4.6215571   -4.6215571   -3.5250268 -0.008943926   -4.6215571    1.0965303      1024000 
  143000   0.73155216   -4.6224653   -4.6224653   -3.5251393 -0.004852127   -4.6224653     1.097326      1024000 
  144000    0.7305032   -4.6215241   -4.6215241   -3.5257715 -0.0010376509   -4.6215241    1.0957526      1024000 
  145000   0.73010194    -4.622171    -4.622171   -3.5270203 0.0022661293    -4.622171    1.0951507      1024000 
  146000   0.73144157   -4.6244111   -4.6244111    -3.527251 0.0025119836   -4.6244111    1.0971601      1024000 
  147000   0.73120633   -4.6251292   -4.6251292   -3.5283219 -0.0056611884   -4.6251292    1.0968073      1024000 
  148000   0.72969022   -4.6233838   -4.6233838   -3.5288506 0.0041787157   -4.6233838    1.0945331      1024000 
  149000   0.73104794   -4.6262173   -4.6262173   -3.5296477 -0.001456943   -4.6262173    1.0965697      1024000 
  150000   0.73093537   -4.6253967   -4.6253967   -3.5289959 0.00081347699   -4.6253967    1.0964008      1024000 
  151000   0.73135946   -4.6265293   -4.6265293   -3.5294923 -0.0039239353   -4.6265293     1.097037      1024000 
  152000   0.73106302   -4.6261343   -4.6261343    -3.529542 -0.0042950499   -4.6261343    1.0965923      1024000 
  153000   0.73138651   -4.6271542   -4.6271542   -3.5300767 -0.004121681   -4.6271542    1.0970775      1024000 
  154000   0.73150123   -4.6284219   -4.6284219   -3.5311723 -0.0058438091   -4.6284219    1.0972496      1024000 
  155000   0.73132325   -4.6281962   -4.6281962   -3.5312136 -0.0028535735   -4.6281962    1.0969826      1024000 
  156000   0.73200882   -4.6297193   -4.6297193   -3.5317083 -0.0025744773   -4.6297193     1.098011      1024000 
  157000   0.73150389   -4.6290467   -4.6290467   -3.5317931 3.0705876e-05   -4.6290467    1.0972536      1024000 
  158000   0.73077614   -4.6275266   -4.6275266   -3.5313646  0.001196433   -4.6275266     1.096162      1024000 
  159000   0.73223225   -4.6287644   -4.6287644   -3.5304182 -0.0042934259   -4.6287644    1.0983461      1024000 
  160000   0.73159976   -4.6279318   -4.6279318   -3.5305344 -0.0024542327   -4.6279318    1.0973974      1024000 
  161000   0.73010572   -4.6268574   -4.6268574    -3.531701 -0.00054083076   -4.6268574    1.0951564      1024000 
  162000   0.73058331   -4.6277095   -4.6277095   -3.5318367 -0.0077559024   -4.6277095    1.0958727      1024000 
  163000    0.7309684   -4.6295277   -4.6295277   -3.5330773 -0.0066039539   -4.6295277    1.0964504      1024000 
  164000   0.73007408   -4.6275233   -4.6275233   -3.5324145 0.0048794636   -4.6275233    1.0951089      1024000 
  165000   0.73211183   -4.6307666   -4.6307666   -3.5326011 0.0082124763   -4.6307666    1.0981655      1024000 
  166000   0.73232938   -4.6311419   -4.6311419     -3.53265 0.0028147809   -4.6311419    1.0984918      1024000 
  167000   0.73233307   -4.6308686   -4.6308686   -3.5323712 0.0041844053   -4.6308686    1.0984974      1024000 
  168000   0.73334294   -4.6319269   -4.6319269   -3.5319148 0.0052462199   -4.6319269    1.1000122      1024000 
  169000   0.73332518   -4.6319349   -4.6319349   -3.5319494 -0.0010901483   -4.6319349    1.0999855      1024000 
  170000   0.73169812   -4.6295856   -4.6295856   -3.5320407 -0.00016473039   -4.6295856     1.097545      1024000 
  171000   0.73152681   -4.6295382   -4.6295382   -3.5322502 -0.00075136018   -4.6295382     1.097288      1024000 
  172000   0.73252407    -4.631057    -4.631057   -3.5322731 -0.0036380937    -4.631057    1.0987839      1024000 
  173000   0.73149888   -4.6294059   -4.6294059   -3.5321598 -0.0011404047   -4.6294059    1.0972461      1024000 
  174000   0.73211632    -4.629916    -4.629916   -3.5317437 0.0030242504    -4.629916    1.0981723      1024000 
  175000   0.73234737   -4.6309209   -4.6309209   -3.5324021 -0.00045069305   -4.6309209    1.0985188      1024000 
  176000   0.73262941   -4.6312096   -4.6312096   -3.5322677 -0.0016596174   -4.6312096    1.0989419      1024000 
  177000     0.732295    -4.629599    -4.629599   -3.5311588 0.00095902528    -4.629599    1.0984403      1024000 
  178000   0.73336854   -4.6309487   -4.6309487   -3.5308981 8.6468544e-05   -4.6309487    1.1000506      1024000 
  179000   0.73287333   -4.6303201   -4.6303201   -3.5310124 0.0082940614   -4.6303201    1.0993078      1024000 
  180000   0.73378002   -4.6323662   -4.6323662   -3.5316984 0.0048448301   -4.6323662    1.1006678      1024000 
  181000   0.73398502    -4.632058    -4.632058   -3.5310827 -0.00093805951    -4.632058    1.1009753      1024000 
  182000   0.73266377   -4.6304162   -4.6304162   -3.5314227 0.0025484969   -4.6304162    1.0989934      1024000 
  183000   0.73277134   -4.6304838   -4.6304838   -3.5313291 0.0034464154   -4.6304838    1.0991548      1024000 
  184000   0.73237837   -4.6295778   -4.6295778   -3.5310125 0.0042870007   -4.6295778    1.0985653      1024000 
  185000    0.7324488    -4.629952    -4.629952    -3.531281 0.0031043333    -4.629952     1.098671      1024000 
  186000   0.73279531   -4.6294529   -4.6294529   -3.5302622 0.0032459567   -4.6294529    1.0991907      1024000 
  187000   0.73373293   -4.6311081   -4.6311081   -3.5305109 0.0064805424   -4.6311081    1.1005972      1024000 
  188000   0.73455775   -4.6328268   -4.6328268   -3.5309924 -0.0022949328   -4.6328268    1.1018344      1024000 
  189000   0.73455548   -4.6329883   -4.6329883   -3.5311573 -0.0030830915   -4.6329883     1.101831      1024000 
  190000   0.73364473     -4.63204     -4.63204   -3.5315751 -0.00089315237     -4.63204    1.1004649      1024000 
  191000   0.73452674    -4.633563    -4.633563   -3.5317751 4.6177847e-05    -4.633563    1.1017879      1024000 
  192000   0.73321662    -4.632404    -4.632404   -3.5325813 0.00049227025    -4.632404    1.0998227      1024000 
  193000   0.73302006    -4.631701    -4.631701   -3.5321731 0.0038164276    -4.631701    1.0995279      1024000 
  194000   0.73362832   -4.6324038   -4.6324038   -3.5319635 0.0032840064   -4.6324038    1.1004402      1024000 
  195000    0.7337526   -4.6332487   -4.6332487   -3.5326221 0.0051442912   -4.6332487    1.1006267      1024000 
  196000   0.73502712   -4.6345153   -4.6345153   -3.5319769 0.0079197317   -4.6345153    1.1025384      1024000 
  197000   0.73559391   -4.6350487   -4.6350487     -3.53166  0.015298536   -4.6350487    1.1033886      1024000 
  198000   0.73574705   -4.6360644   -4.6360644   -3.5324461 0.0072216689   -4.6360644    1.1036183      1024000 
  199000   0.73537056   -4.6354708   -4.6354708   -3.5324172 0.0076520472   -4.6354708    1.1030536      1024000 
  200000   0.73661088   -4.6371697   -4.6371697   -3.5322556 0.0017161791   -4.6371697    1.1049141      1024000 
  201000   0.73518333    -4.634143    -4.634143   -3.5313702  0.008528437    -4.634143    1.1027728      1024000 
  202000   0.73579535   -4.6345517   -4.6345517   -3.5308609 0.0086519289   -4.6345517    1.1036908      1024000 
  203000    0.7358621   -4.6347186   -4.6347186   -3.5309277  0.002623902   -4.6347186    1.1037909      1024000 
  204000   0.73661742   -4.6361378   -4.6361378   -3.5312139 0.0032227795   -4.6361378    1.1049239      1024000 
  205000   0.73573402   -4.6340231   -4.6340231   -3.5304243  0.009076996   -4.6340231    1.1035988      1024000 
  206000   0.73720519   -4.6362729   -4.6362729   -3.5304674 0.0042951857   -4.6362729    1.1058055      1024000 
  207000   0.73770057   -4.6370252   -4.6370252   -3.5304766 0.0063907778   -4.6370252    1.1065486      1024000 
  208000   0.73794062    -4.636403    -4.636403   -3.5294943 0.0064657712    -4.636403    1.1069087      1024000 
  209000   0.73906148   -4.6379352   -4.6379352   -3.5293452 0.0062300497   -4.6379352      1.10859      1024000 
  210000    0.7392499   -4.6378698   -4.6378698   -3.5289972  0.011784742   -4.6378698    1.1088726      1024000 
  211000   0.73913477   -4.6373187   -4.6373187   -3.5286188  0.013775349   -4.6373187    1.1086999      1024000 
  212000   0.73785986   -4.6353509   -4.6353509   -3.5285634   0.01469381   -4.6353509    1.1067875      1024000 
  213000   0.73930928   -4.6374733   -4.6374733   -3.5285116  0.012161465   -4.6374733    1.1089617      1024000 
  214000   0.74086159   -4.6398766   -4.6398766   -3.5285865  0.011222092   -4.6398766    1.1112901      1024000 
  215000    0.7400551   -4.6386883   -4.6386883   -3.5286079  0.015584694   -4.6386883    1.1100804      1024000 
  216000   0.74114633   -4.6406921   -4.6406921   -3.5289749  0.014846216   -4.6406921    1.1117172      1024000 
  217000   0.74081294   -4.6401337   -4.6401337   -3.5289166  0.022661014   -4.6401337    1.1112172      1024000 
  218000   0.74118068    -4.640516    -4.640516   -3.5287473  0.030792662    -4.640516    1.1117688      1024000 
  219000    0.7436134   -4.6443343   -4.6443343   -3.5289165  0.033838425   -4.6443343    1.1154178      1024000 
  220000   0.74419242   -4.6459097   -4.6459097   -3.5296233  0.038006844   -4.6459097    1.1162864      1024000 
  221000    0.7457168    -4.648652    -4.648652    -3.530079  0.043340829    -4.648652    1.1185729      1024000 
  222000   0.74815749     -4.65182     -4.65182   -3.5295861  0.048119525     -4.65182     1.122234      1024000 
  223000   0.74870348   -4.6533266   -4.6533266   -3.5302736  0.055559516   -4.6533266    1.1230529      1024000 
  224000    0.7500467   -4.6556171   -4.6556171   -3.5305493  0.064243928   -4.6556171    1.1250678      1024000 
  225000   0.75118053   -4.6581465   -4.6581465    -3.531378  0.071349146   -4.6581465    1.1267685      1024000 
  226000   0.75250917   -4.6605634   -4.6605634   -3.5318019  0.077643901   -4.6605634    1.1287615      1024000 
  227000   0.75390579   -4.6638526   -4.6638526   -3.5329962  0.084495714   -4.6638526    1.1308564      1024000 
  228000   0.75350963   -4.6654375   -4.6654375   -3.5351753  0.088360728   -4.6654375    1.1302621      1024000 
  229000   0.75482727   -4.6677054   -4.6677054   -3.5354668  0.086998906   -4.6677054    1.1322386      1024000 
  230000   0.75286411   -4.6658155   -4.6658155   -3.5365216   0.08977239   -4.6658155    1.1292939      1024000 
  231000   0.75191111   -4.6658126   -4.6658126   -3.5379483  0.085470299   -4.6658126    1.1278644      1024000 
  232000   0.75020138   -4.6638573   -4.6638573   -3.5385576  0.076401929   -4.6638573    1.1252998      1024000 
  233000   0.74905328   -4.6626399   -4.6626399   -3.5390623  0.062341696   -4.6626399    1.1235776      1024000 
  234000   0.74625598     -4.65807     -4.65807   -3.5386883   0.05583788     -4.65807    1.1193817      1024000 
  235000   0.74460521   -4.6567224   -4.6567224   -3.5398169  0.045770206   -4.6567224    1.1169056      1024000 
  236000   0.74320767   -4.6533766   -4.6533766   -3.5385673  0.037907874   -4.6533766    1.1148092      1024000 
  237000   0.74217297   -4.6507124   -4.6507124   -3.5374552  0.025444268   -4.6507124    1.1132572      1024000 
  238000   0.73999886   -4.6471081   -4.6471081   -3.5371121 0.0076940161   -4.6471081     1.109996      1024000 
  239000   0.73673856   -4.6412305   -4.6412305   -3.5361249 0.0011099027   -4.6412305    1.1051056      1024000 
  240000   0.73506154   -4.6356421   -4.6356421    -3.533052 -0.010788168   -4.6356421    1.1025901      1024000 
  241000   0.73418923   -4.6331972   -4.6331972   -3.5319156 -0.020532477   -4.6331972    1.1012816      1024000 
  242000   0.73258143   -4.6284788   -4.6284788   -3.5296089 -0.023337884   -4.6284788    1.0988699      1024000 
  243000   0.73254613   -4.6260137   -4.6260137   -3.5271967 -0.029944964   -4.6260137     1.098817      1024000 
  244000   0.73239407   -4.6239715   -4.6239715   -3.5253826 -0.037089942   -4.6239715    1.0985889      1024000 
  245000   0.73158337   -4.6214826   -4.6214826   -3.5241097 -0.041073892   -4.6214826    1.0973728      1024000 
  246000   0.73216147   -4.6209344   -4.6209344   -3.5226944 -0.039958369   -4.6209344      1.09824      1024000 
  247000   0.73111795   -4.6173818   -4.6173818   -3.5207072 -0.029327597   -4.6173818    1.0966747      1024000 
  248000   0.73318829   -4.6179751   -4.6179751   -3.5181948 -0.037931488   -4.6179751    1.0997802      1024000 
  249000   0.73392866   -4.6171057   -4.6171057   -3.5162149 -0.029857423   -4.6171057    1.1008908      1024000 
  250000   0.73445869   -4.6162501   -4.6162501   -3.5145643 -0.021182459   -4.6162501    1.1016858      1024000 
  251000   0.73699524   -4.6193519   -4.6193519   -3.5138613 -0.020785343   -4.6193519    1.1054906      1024000 
  252000   0.73819787   -4.6208831   -4.6208831   -3.5135885 -0.019802052   -4.6208831    1.1072946      1024000 
  253000   0.73904048   -4.6210522   -4.6210522   -3.5124937 -0.0088204665   -4.6210522    1.1085585      1024000 
  254000    0.7405682   -4.6230475   -4.6230475   -3.5121975 -0.0023790374   -4.6230475      1.11085      1024000 
  255000   0.74219402   -4.6246984   -4.6246984   -3.5114096 0.0039508427   -4.6246984    1.1132888      1024000 
  256000    0.7440339   -4.6276208   -4.6276208   -3.5115723 0.0092137478   -4.6276208    1.1160486      1024000 
  257000   0.74513156    -4.628847    -4.628847   -3.5111519  0.020153082    -4.628847    1.1176951      1024000 
  258000   0.74597056   -4.6303667   -4.6303667   -3.5114131  0.027878154   -4.6303667    1.1189536      1024000 
  259000   0.74738032   -4.6330495   -4.6330495   -3.5119813  0.029203706   -4.6330495    1.1210682      1024000 
  260000    0.7483562     -4.63478     -4.63478    -3.512248  0.032586622     -4.63478     1.122532      1024000 
  261000   0.74749183   -4.6338528   -4.6338528   -3.5126173  0.040361788   -4.6338528    1.1212355      1024000 
  262000   0.74863261   -4.6363991   -4.6363991   -3.5134525  0.041173179   -4.6363991    1.1229466      1024000 
  263000    0.7489901   -4.6368323   -4.6368323   -3.5133494    0.0505568   -4.6368323    1.1234829      1024000 
  264000   0.74976485   -4.6383296   -4.6383296   -3.5136846   0.04635485   -4.6383296     1.124645      1024000 
  265000   0.74947941   -4.6383002   -4.6383002   -3.5140834  0.043334102   -4.6383002    1.1242168      1024000 
  266000   0.74914092   -4.6384334   -4.6384334   -3.5147243  0.039125776   -4.6384334    1.1237091      1024000 
  267000   0.74748455   -4.6359544   -4.6359544   -3.5147298  0.046796969   -4.6359544    1.1212245      1024000 
  268000   0.74734578   -4.6354954   -4.6354954    -3.514479  0.041081892   -4.6354954    1.1210164      1024000 
  269000   0.74718365   -4.6347918   -4.6347918   -3.5140186  0.039496872   -4.6347918    1.1207732      1024000 
  270000   0.74705305   -4.6356893   -4.6356893    -3.515112  0.028935303   -4.6356893    1.1205773      1024000 
  271000   0.74500423   -4.6311068   -4.6311068   -3.5136027  0.029290699   -4.6311068    1.1175041      1024000 
  272000    0.7444535   -4.6302448   -4.6302448   -3.5135668  0.024700434   -4.6302448     1.116678      1024000 
  273000   0.74348789   -4.6275941   -4.6275941   -3.5123645  0.018854301   -4.6275941    1.1152296      1024000 
  274000   0.74316163   -4.6259014   -4.6259014   -3.5111612  0.013538936   -4.6259014    1.1147402      1024000 
  275000   0.74316165   -4.6249827   -4.6249827   -3.5102425  0.006152676   -4.6249827    1.1147402      1024000 
  276000   0.74270202   -4.6226495   -4.6226495   -3.5085987 0.0030595084   -4.6226495    1.1140508      1024000 
  277000   0.74108545   -4.6194729   -4.6194729    -3.507847 -0.0006697271   -4.6194729    1.1116259      1024000 
  278000   0.74121483   -4.6188745   -4.6188745   -3.5070545 -0.0030834942   -4.6188745      1.11182      1024000 
  279000    0.7408527   -4.6167269   -4.6167269   -3.5054501 -0.005103827   -4.6167269    1.1112768      1024000 
  280000   0.74110066   -4.6160493   -4.6160493   -3.5044006 -0.0069911435   -4.6160493    1.1116487      1024000 
  281000   0.74136727   -4.6148683   -4.6148683   -3.5028196 -0.011892977   -4.6148683    1.1120486      1024000 
  282000   0.74152129   -4.6141824   -4.6141824   -3.5019027 -0.011541251   -4.6141824    1.1122797      1024000 
  283000   0.74099813   -4.6112996   -4.6112996   -3.4998047 -0.0032796424   -4.6112996    1.1114949      1024000 
  284000   0.74175694   -4.6114705   -4.6114705   -3.4988374 -0.0079116957   -4.6114705    1.1126332      1024000 
  285000   0.74171845    -4.611141    -4.611141   -3.4985656 -0.0086349585    -4.611141    1.1125754      1024000 
  286000   0.74194814   -4.6107156   -4.6107156   -3.4977956  -0.00981581   -4.6107156      1.11292      1024000 
  287000   0.74322645    -4.611693    -4.611693   -3.4968556 -0.0078358263    -4.611693    1.1148374      1024000 
  288000   0.74285187   -4.6100976   -4.6100976    -3.495822 -0.00070378015   -4.6100976    1.1142755      1024000 
  289000   0.74372944   -4.6107129   -4.6107129    -3.495121 0.0019403165   -4.6107129    1.1155919      1024000 
  290000   0.74457135   -4.6109773   -4.6109773   -3.4941225 0.00046461018   -4.6109773    1.1168548      1024000 
  291000   0.74511369   -4.6118985   -4.6118985   -3.4942302 0.0089360486   -4.6118985    1.1176683      1024000 
  292000   0.74618248   -4.6136464   -4.6136464    -3.494375 0.0094233566   -4.6136464    1.1192714      1024000 
  293000   0.74660907   -4.6135778   -4.6135778   -3.4936665  0.012297897   -4.6135778    1.1199113      1024000 
  294000   0.74705475   -4.6135429   -4.6135429   -3.4929631  0.015834525   -4.6135429    1.1205799      1024000 
  295000   0.74681358   -4.6123042   -4.6123042   -3.4920862  0.024491945   -4.6123042    1.1202181      1024000 
  296000   0.74922115    -4.615778    -4.615778   -3.4919486  0.017192882    -4.615778    1.1238294      1024000 
  297000   0.74899538   -4.6147072   -4.6147072   -3.4912165   0.02509544   -4.6147072    1.1234908      1024000 
  298000   0.74964031    -4.615577    -4.615577   -3.4911188  0.024481851    -4.615577    1.1244582      1024000 
  299000   0.75085512   -4.6170425   -4.6170425   -3.4907621   0.02549426   -4.6170425    1.1262804      1024000 
  300000   0.74962545   -4.6160837   -4.6160837   -3.4916478  0.028372905   -4.6160837    1.1244359      1024000 
  301000   0.74933557   -4.6152003   -4.6152003   -3.4911992  0.032624116   -4.6152003    1.1240011      1024000 
  302000    0.7498245   -4.6154442   -4.6154442   -3.4907097  0.028642004   -4.6154442    1.1247345      1024000 
  303000   0.75076126   -4.6166823   -4.6166823   -3.4905427  0.022714642   -4.6166823    1.1261396      1024000 
  304000   0.75002278    -4.614698    -4.614698   -3.4896661  0.026303523    -4.614698    1.1250319      1024000 
  305000   0.74952587   -4.6135042   -4.6135042   -3.4892177  0.029421258   -4.6135042    1.1242865      1024000 
  306000   0.74844262   -4.6116518   -4.6116518   -3.4889902   0.02252155   -4.6116518    1.1226617      1024000 
  307000    0.7489535   -4.6116776   -4.6116776   -3.4882496  0.022748069   -4.6116776     1.123428      1024000 
  308000   0.74991664   -4.6125152   -4.6125152   -3.4876425  0.018418187   -4.6125152    1.1248727      1024000 
  309000   0.74886225   -4.6109223   -4.6109223   -3.4876312  0.018706088   -4.6109223    1.1232911      1024000 
  310000   0.74802098   -4.6084843   -4.6084843   -3.4864551  0.018935517   -4.6084843    1.1220292      1024000 
  311000   0.74900067   -4.6088927   -4.6088927    -3.485394 0.0095169896   -4.6088927    1.1234987      1024000 
  312000   0.74834059   -4.6065655   -4.6065655   -3.4840568 0.0098758965   -4.6065655    1.1225086      1024000 
  313000   0.74874663   -4.6058349   -4.6058349   -3.4827173  0.014159248   -4.6058349    1.1231177      1024000 
  314000   0.74931096   -4.6051783   -4.6051783   -3.4812141 0.0068915995   -4.6051783    1.1239642      1024000 
  315000   0.74896544    -4.604104    -4.604104   -3.4806582 0.0072420615    -4.604104    1.1234459      1024000 
  316000   0.74814828   -4.6017708   -4.6017708   -3.4795507 0.0061730958   -4.6017708    1.1222201      1024000 
  317000   0.74805206   -4.6000696   -4.6000696   -3.4779938 0.0058610344   -4.6000696    1.1220758      1024000 
  318000   0.74768074   -4.5984958   -4.5984958    -3.476977 0.0069136041   -4.5984958    1.1215188      1024000 
  319000   0.74770665   -4.5978327   -4.5978327    -3.476275 0.0065423782   -4.5978327    1.1215577      1024000 
  320000   0.74816907   -4.5975176   -4.5975176   -3.4752662   0.00666363   -4.5975176    1.1222513      1024000 
  321000   0.74795899   -4.5962665   -4.5962665   -3.4743303 0.0033949944   -4.5962665    1.1219362      1024000 
  322000    0.7486011   -4.5962783   -4.5962783   -3.4733789  0.004230972   -4.5962783    1.1228994      1024000 
  323000   0.74934379   -4.5960856   -4.5960856   -3.4720722 0.0034012376   -4.5960856    1.1240134      1024000 
  324000   0.74892246   -4.5948106   -4.5948106   -3.4714291 0.0044714057   -4.5948106    1.1233814      1024000 
  325000   0.74980109   -4.5951453   -4.5951453    -3.470446 0.0085353391   -4.5951453    1.1246994      1024000 
  326000   0.74997582   -4.5942077   -4.5942077   -3.4692463 0.0073691597   -4.5942077    1.1249615      1024000 
  327000    0.7492615   -4.5933322   -4.5933322   -3.4694422 0.0093110762   -4.5933322      1.12389      1024000 
  328000   0.74968836   -4.5933239   -4.5933239   -3.4687937 0.0071452223   -4.5933239    1.1245303      1024000 
  329000   0.75067103   -4.5946446   -4.5946446   -3.4686403 0.0090238549   -4.5946446    1.1260043      1024000 
  330000   0.75180125   -4.5956641   -4.5956641   -3.4679645 0.0083261622   -4.5956641    1.1276996      1024000 
  331000   0.75151606   -4.5936272   -4.5936272   -3.4663554  0.014268104   -4.5936272    1.1272718      1024000 
  332000   0.75005274   -4.5920134   -4.5920134   -3.4669366  0.015114922   -4.5920134    1.1250768      1024000 
  333000   0.75225639   -4.5940259   -4.5940259   -3.4656436  0.015226766   -4.5940259    1.1283823      1024000 
  334000   0.75254166   -4.5940084   -4.5940084   -3.4651982   0.01237441   -4.5940084    1.1288102      1024000 
  335000   0.75319647   -4.5947135   -4.5947135   -3.4649211  0.015100023   -4.5947135    1.1297924      1024000 
  336000   0.75433494   -4.5951017   -4.5951017   -3.4636016  0.015696573   -4.5951017    1.1315001      1024000 
  337000   0.75412626   -4.5943714   -4.5943714   -3.4631843  0.019703404   -4.5943714    1.1311871      1024000 
  338000   0.75253198   -4.5921395   -4.5921395   -3.4633438  0.023051268   -4.5921395    1.1287957      1024000 
  339000   0.75303574   -4.5916055   -4.5916055   -3.4620542  0.022088254   -4.5916055    1.1295513      1024000 
  340000   0.75423405   -4.5929654   -4.5929654   -3.4616166  0.018238593   -4.5929654    1.1313488      1024000 
  341000   0.75487319   -4.5923569   -4.5923569   -3.4600494  0.017677881   -4.5923569    1.1323075      1024000 
  342000   0.75471602   -4.5918202   -4.5918202   -3.4597485  0.021075754   -4.5918202    1.1320717      1024000 
  343000   0.75516384   -4.5910001   -4.5910001   -3.4582567  0.021289558   -4.5910001    1.1327435      1024000 
  344000   0.75517861    -4.590245    -4.590245   -3.4574794  0.024415966    -4.590245    1.1327656      1024000 
  345000   0.75493416    -4.588745    -4.588745   -3.4563461  0.025622435    -4.588745    1.1323989      1024000 
  346000   0.75420897   -4.5871292   -4.5871292   -3.4558181  0.023784267   -4.5871292    1.1313112      1024000 
  347000    0.7559711   -4.5877159   -4.5877159   -3.4537616  0.017963269   -4.5877159    1.1339544      1024000 
  348000   0.75493955   -4.5846272   -4.5846272   -3.4522202  0.017657645   -4.5846272     1.132407      1024000 
  349000   0.75449143   -4.5838139   -4.5838139    -3.452079   0.01558956   -4.5838139    1.1317349      1024000 
  350000   0.75487031   -4.5842814   -4.5842814   -3.4519783  0.013234159   -4.5842814    1.1323032      1024000 
  351000    0.7543811   -4.5820138   -4.5820138   -3.4504444  0.011308451   -4.5820138    1.1315694      1024000 
  352000    0.7542513   -4.5810463   -4.5810463   -3.4496716 0.0089224627   -4.5810463    1.1313747      1024000 
  353000   0.75394249    -4.579095    -4.579095   -3.4481835  0.013451819    -4.579095    1.1309114      1024000 
  354000   0.75441005   -4.5784042   -4.5784042   -3.4467914  0.011878731   -4.5784042    1.1316128      1024000 
  355000   0.75365052   -4.5757543   -4.5757543   -3.4452808 0.0097719959   -4.5757543    1.1304735      1024000 
  356000    0.7542182   -4.5752527   -4.5752527   -3.4439277  0.010378964   -4.5752527     1.131325      1024000 
  357000   0.75407366    -4.573001    -4.573001   -3.4418928  0.012656797    -4.573001    1.1311082      1024000 
  358000   0.75583985   -4.5741291   -4.5741291   -3.4403716 0.0058347624   -4.5741291    1.1337575      1024000 
  359000   0.75564804   -4.5725429   -4.5725429   -3.4390731 0.0042691988   -4.5725429    1.1334698      1024000 
  360000   0.75488171   -4.5707478   -4.5707478   -3.4384275  0.011200437   -4.5707478    1.1323203      1024000 
  361000   0.75608575   -4.5715872   -4.5715872   -3.4374609 0.0074703474   -4.5715872    1.1341263      1024000 
  362000   0.75607958   -4.5700712   -4.5700712   -3.4359541 0.0054648596   -4.5700712    1.1341171      1024000 
  363000   0.75605212   -4.5696987   -4.5696987   -3.4356229 0.0055990832   -4.5696987    1.1340759      1024000 
  364000   0.75704707   -4.5702073   -4.5702073    -3.434639 0.0086151172   -4.5702073    1.1355683      1024000 
  365000   0.75701313   -4.5687015   -4.5687015   -3.4331841 0.0092884692   -4.5687015    1.1355174      1024000 
  366000   0.75626565   -4.5666106   -4.5666106   -3.4322144 0.0083778939   -4.5666106    1.1343962      1024000 
  367000   0.75743712   -4.5677383   -4.5677383   -3.4315849 0.0082418921   -4.5677383    1.1361534      1024000 
  368000    0.7573028   -4.5666936   -4.5666936   -3.4307417 0.0085086945   -4.5666936    1.1359519      1024000 
  369000   0.75662699   -4.5652298   -4.5652298   -3.4302916  0.013859013   -4.5652298    1.1349382      1024000 
  370000   0.75737011   -4.5657581   -4.5657581   -3.4297052 0.0068922184   -4.5657581    1.1360529      1024000 
  371000   0.75727531   -4.5641575   -4.5641575   -3.4282469   0.01260563   -4.5641575    1.1359107      1024000 
  372000   0.75745242    -4.563455    -4.563455   -3.4272787  0.011252152    -4.563455    1.1361763      1024000 
  373000   0.75811384   -4.5642977   -4.5642977   -3.4271292  0.010545053   -4.5642977    1.1371685      1024000 
  374000   0.75848364   -4.5628108   -4.5628108   -3.4250876  0.015023501   -4.5628108    1.1377232      1024000 
  375000   0.75975134    -4.563625    -4.563625   -3.4240003  0.016796347    -4.563625    1.1396247      1024000 
  376000   0.75939525   -4.5618085   -4.5618085   -3.4227179  0.018902006   -4.5618085    1.1390906      1024000 
  377000   0.76018192   -4.5625882   -4.5625882   -3.4223176  0.013074627   -4.5625882    1.1402706      1024000 
  378000    0.7596273   -4.5613562   -4.5613562   -3.4219176  0.016686803   -4.5613562    1.1394386      1024000 
  379000   0.75932408   -4.5601799   -4.5601799   -3.4211961  0.022165652   -4.5601799    1.1389838      1024000 
  380000   0.76058621   -4.5613071   -4.5613071   -3.4204301  0.018278967   -4.5613071     1.140877      1024000 
  381000   0.76065227   -4.5599508   -4.5599508   -3.4189747  0.019950172   -4.5599508    1.1409761      1024000 
  382000   0.76147747      -4.5601      -4.5601   -3.4178861  0.016788244      -4.5601    1.1422139      1024000 
  383000     0.761629   -4.5593761   -4.5593761    -3.416935  0.020560173   -4.5593761    1.1424412      1024000 
  384000   0.76183292   -4.5589072   -4.5589072   -3.4161602  0.023605137   -4.5589072    1.1427471      1024000 
  385000   0.76240349   -4.5589314   -4.5589314   -3.4153285  0.018040603   -4.5589314    1.1436029      1024000 
  386000   0.76194293   -4.5573638   -4.5573638   -3.4144517  0.020563321   -4.5573638    1.1429121      1024000 
  387000     0.761416   -4.5554149   -4.5554149   -3.4132933  0.022356957   -4.5554149    1.1421217      1024000 
  388000   0.76220922   -4.5552126   -4.5552126   -3.4119011  0.016195116   -4.5552126    1.1433115      1024000 
  389000    0.7614163    -4.554175    -4.554175   -3.4120529   0.01709894    -4.554175    1.1421221      1024000 
  390000   0.76170705   -4.5533017   -4.5533017   -3.4107435  0.014297406   -4.5533017    1.1425583      1024000 
  391000   0.76132359   -4.5516905   -4.5516905   -3.4097074  0.015667175   -4.5516905    1.1419831      1024000 
  392000   0.76214774      -4.5515      -4.5515   -3.4082807  0.013903401      -4.5515    1.1432193      1024000 
  393000   0.76138016   -4.5498112   -4.5498112   -3.4077432  0.015564327   -4.5498112    1.1420679      1024000 
  394000   0.76173625   -4.5485951   -4.5485951    -3.405993  0.011933077   -4.5485951    1.1426021      1024000 
  395000   0.76174231   -4.5480299   -4.5480299   -3.4054187   0.01213923   -4.5480299    1.1426112      1024000 
  396000   0.76253038   -4.5477792   -4.5477792   -3.4039859  0.014747452   -4.5477792    1.1437932      1024000 
  397000   0.76228156    -4.545345    -4.545345    -3.401925  0.017428187    -4.545345      1.14342      1024000 
  398000   0.76416185    -4.547439    -4.547439   -3.4011986 0.0092478445    -4.547439    1.1462404      1024000 
  399000   0.76288848   -4.5446462   -4.5446462   -3.4003158  0.015528481   -4.5446462    1.1443304      1024000 
  400000   0.76381094   -4.5447309   -4.5447309   -3.3990168  0.012827135   -4.5447309    1.1457141      1024000 
  401000   0.76298199   -4.5414972   -4.5414972   -3.3970265  0.011828727   -4.5414972    1.1444707      1024000 
  402000    0.7637229   -4.5416484   -4.5416484   -3.3960664   0.01367316   -4.5416484     1.145582      1024000 
  403000   0.76408536   -4.5412074   -4.5412074   -3.3950817 0.0096355621   -4.5412074    1.1461257      1024000 
  404000   0.76385629   -4.5400177   -4.5400177   -3.3942356 0.0094548774   -4.5400177    1.1457821      1024000 
  405000   0.76294975   -4.5385016   -4.5385016   -3.3940793  0.010740411   -4.5385016    1.1444223      1024000 
  406000   0.76246146    -4.536663    -4.536663   -3.3929731  0.012058453    -4.536663    1.1436899      1024000 
  407000   0.76424049   -4.5383679   -4.5383679   -3.3920095 0.0070554625   -4.5383679    1.1463584      1024000 
  408000   0.76402393   -4.5375341   -4.5375341   -3.3915006 0.0081270654   -4.5375341    1.1460336      1024000 
  409000   0.76371693   -4.5353411   -4.5353411    -3.389768   0.01444755   -4.5353411    1.1455731      1024000 
  410000   0.76604048   -4.5372857   -4.5372857   -3.3882273 0.0072097269   -4.5372857    1.1490584      1024000 
  411000   0.76546046   -4.5347828   -4.5347828   -3.3865945  0.010909292   -4.5347828    1.1481884      1024000 
  412000   0.76583048   -4.5335499   -4.5335499   -3.3848065  0.011417704   -4.5335499    1.1487434      1024000 
  413000   0.76562986   -4.5317683   -4.5317683   -3.3833258  0.016772617   -4.5317683    1.1484425      1024000 
  414000   0.76605532   -4.5319529   -4.5319529   -3.3828723  0.012821142   -4.5319529    1.1490806      1024000 
  415000    0.7654833   -4.5294275   -4.5294275   -3.3812049  0.017557134   -4.5294275    1.1482226      1024000 
  416000   0.76701314   -4.5303171   -4.5303171   -3.3797997  0.016472336   -4.5303171    1.1505174      1024000 
  417000   0.76728883   -4.5296246   -4.5296246   -3.3786937    0.0146233   -4.5296246    1.1509309      1024000 
  418000   0.76748951   -4.5286725   -4.5286725   -3.3774405  0.016666497   -4.5286725    1.1512319      1024000 
  419000   0.76877596   -4.5301713   -4.5301713   -3.3770097   0.01956443   -4.5301713    1.1531616      1024000 
  420000   0.76825262   -4.5282791   -4.5282791   -3.3759025  0.018296034   -4.5282791    1.1523766      1024000 
  421000    0.7677616   -4.5262809   -4.5262809   -3.3746408  0.017096268   -4.5262809    1.1516401      1024000 
  422000   0.76905147   -4.5264336   -4.5264336   -3.3728587  0.017284732   -4.5264336    1.1535749      1024000 
  423000   0.76789714   -4.5241931   -4.5241931   -3.3723497  0.014602145   -4.5241931    1.1518434      1024000 
  424000   0.76880864   -4.5244253   -4.5244253   -3.3712147    0.0127978   -4.5244253    1.1532106      1024000 
  425000   0.76959627   -4.5240575   -4.5240575   -3.3696654  0.014471225   -4.5240575    1.1543921      1024000 
  426000   0.76791606   -4.5206388   -4.5206388   -3.3687671  0.018861501   -4.5206388    1.1518718      1024000 
  427000   0.76970495   -4.5207899   -4.5207899   -3.3662348  0.018032616   -4.5207899    1.1545551      1024000 
  428000    0.7703735   -4.5216232   -4.5216232   -3.3660653  0.015716549   -4.5216232    1.1555579      1024000 
  429000   0.76924928   -4.5182166   -4.5182166   -3.3643451   0.01852208   -4.5182166    1.1538716      1024000 
  430000   0.76976506   -4.5177341   -4.5177341   -3.3630889  0.021061302   -4.5177341    1.1546452      1024000 
  431000   0.77124089   -4.5187899   -4.5187899   -3.3619309  0.014836248   -4.5187899     1.156859      1024000 
  432000   0.77041123   -4.5162557   -4.5162557   -3.3606412  0.018252335   -4.5162557    1.1556145      1024000 
  433000   0.77134028   -4.5167562   -4.5167562   -3.3597482  0.012793085   -4.5167562    1.1570081      1024000 
  434000   0.77146743   -4.5154641   -4.5154641   -3.3582653  0.013186715   -4.5154641    1.1571988      1024000 
  435000   0.77069668   -4.5138497   -4.5138497    -3.357807  0.013898711   -4.5138497    1.1560427      1024000 
  436000   0.77062403   -4.5119912   -4.5119912   -3.3560575  0.011279297   -4.5119912    1.1559337      1024000 
  437000   0.77120284   -4.5108807   -4.5108807   -3.3540788 0.0096626307   -4.5108807    1.1568019      1024000 
  438000   0.77144187   -4.5097691   -4.5097691   -3.3526086  0.011621915   -4.5097691    1.1571605      1024000 
  439000   0.77081299   -4.5074497   -4.5074497   -3.3512325  0.014351264   -4.5074497    1.1562171      1024000 
  440000   0.77189957   -4.5077453   -4.5077453   -3.3498983  0.013372405   -4.5077453     1.157847      1024000 
  441000   0.77149541   -4.5062229   -4.5062229   -3.3489821  0.011038275   -4.5062229    1.1572408      1024000 
  442000   0.77260313   -4.5062222   -4.5062222   -3.3473199 0.0098487293   -4.5062222    1.1589023      1024000 
  443000   0.77129829   -4.5028151   -4.5028151     -3.34587  0.010979205   -4.5028151    1.1569451      1024000 
  444000   0.77097789   -4.5021714   -4.5021714   -3.3457069  0.010044543   -4.5021714    1.1564645      1024000 
  445000   0.77246678   -4.5023231   -4.5023231   -3.3436252  0.010903895   -4.5023231    1.1586978      1024000 
  446000   0.77300224   -4.5014977   -4.5014977   -3.3419967  0.003438694   -4.5014977     1.159501      1024000 
  447000   0.77290589   -4.5008596   -4.5008596   -3.3415031 0.0062147693   -4.5008596    1.1593565      1024000 
  448000   0.77246453   -4.4985633   -4.4985633   -3.3398688  0.010778117   -4.4985633    1.1586944      1024000 
  449000   0.77218549   -4.4958929   -4.4958929    -3.337617 0.0095777213   -4.4958929    1.1582759      1024000 
  450000   0.77350897   -4.4964184   -4.4964184   -3.3361573 0.0080169203   -4.4964184    1.1602611      1024000 
  451000   0.77375224   -4.4958637   -4.4958637   -3.3352377  0.012791765   -4.4958637     1.160626      1024000 
  452000    0.7740145   -4.4952595   -4.4952595   -3.3342401 0.0086047873   -4.4952595    1.1610194      1024000 
  453000   0.77356077   -4.4936106   -4.4936106   -3.3332718  0.013160192   -4.4936106    1.1603388      1024000 
  454000   0.77457701   -4.4937588   -4.4937588   -3.3318956  0.013589902   -4.4937588    1.1618632      1024000 
  455000   0.77406441   -4.4910627   -4.4910627   -3.3299685  0.014088857   -4.4910627    1.1610943      1024000 
  456000    0.7747274   -4.4905826   -4.4905826   -3.3284938  0.016763982   -4.4905826    1.1620887      1024000 
  457000    0.7758356    -4.491009    -4.491009    -3.327258   0.01097564    -4.491009     1.163751      1024000 
  458000    0.7755463   -4.4896444   -4.4896444   -3.3263273  0.014173398   -4.4896444    1.1633171      1024000 
  459000   0.77623471   -4.4888724   -4.4888724   -3.3245227  0.011519365   -4.4888724    1.1643497      1024000 
  460000   0.77673564   -4.4898177   -4.4898177   -3.3247166  0.012224742   -4.4898177    1.1651011      1024000 
  461000    0.7764123   -4.4880096   -4.4880096   -3.3233935   0.01278402   -4.4880096    1.1646161      1024000 
  462000   0.77673274   -4.4877464   -4.4877464   -3.3226497  0.015333279   -4.4877464    1.1650967      1024000 
  463000   0.77632666   -4.4865361   -4.4865361   -3.3220484  0.017484208   -4.4865361    1.1644876      1024000 
  464000   0.77644979   -4.4854994   -4.4854994    -3.320827  0.019924785   -4.4854994    1.1646723      1024000 
  465000   0.77735553   -4.4864323   -4.4864323   -3.3204014  0.017140564   -4.4864323    1.1660309      1024000 
  466000   0.77698653   -4.4834918   -4.4834918   -3.3180144  0.016124471   -4.4834918    1.1654774      1024000 
  467000   0.77822864   -4.4837082   -4.4837082   -3.3163676   0.01167177   -4.4837082    1.1673406      1024000 
  468000   0.77815794   -4.4824805   -4.4824805    -3.315246  0.015576602   -4.4824805    1.1672345      1024000 
  469000   0.77921208   -4.4832264   -4.4832264   -3.3144106  0.012180806   -4.4832264    1.1688158      1024000 
  470000   0.77860977   -4.4807159   -4.4807159   -3.3128036  0.016235295   -4.4807159    1.1679123      1024000 
  471000   0.77718024   -4.4783872   -4.4783872   -3.3126192  0.017459465   -4.4783872     1.165768      1024000 
  472000   0.77806619   -4.4789919   -4.4789919    -3.311895  0.013155451   -4.4789919    1.1670969      1024000 
  473000   0.77917229   -4.4785306   -4.4785306   -3.3097746  0.016127735   -4.4785306    1.1687561      1024000 
  474000   0.77971599   -4.4781863   -4.4781863   -3.3086146  0.011263976   -4.4781863    1.1695716      1024000 
  475000   0.77835897   -4.4747039   -4.4747039   -3.3071678  0.018812622   -4.4747039    1.1675361      1024000 
  476000    0.7801341   -4.4751559   -4.4751559   -3.3049571  0.014414769   -4.4751559    1.1701988      1024000 
  477000   0.78060778    -4.474104    -4.474104   -3.3031948  0.016302632    -4.474104    1.1709093      1024000 
  478000   0.77978956   -4.4716559   -4.4716559    -3.301974  0.020418585   -4.4716559     1.169682      1024000 
  479000   0.78061142   -4.4713282   -4.4713282   -3.3004134  0.019052532   -4.4713282    1.1709148      1024000 
  480000   0.78169178   -4.4715524   -4.4715524   -3.2990171   0.01813913   -4.4715524    1.1725353      1024000 
  481000   0.78263214   -4.4718438   -4.4718438    -3.297898  0.017405496   -4.4718438    1.1739458      1024000 
  482000   0.78136848   -4.4686163   -4.4686163    -3.296566  0.018617254   -4.4686163    1.1720503      1024000 
  483000   0.78206659    -4.468837    -4.468837   -3.2957395  0.015035233    -4.468837    1.1730975      1024000 
  484000   0.78126471   -4.4659748   -4.4659748   -3.2940802  0.016874892   -4.4659748    1.1718947      1024000 
  485000   0.78091114   -4.4641867   -4.4641867   -3.2928223  0.016888134   -4.4641867    1.1713643      1024000 
  486000   0.78064003   -4.4628993   -4.4628993   -3.2919416  0.013928307   -4.4628993    1.1709577      1024000 
  487000   0.78181547   -4.4638893   -4.4638893   -3.2911685  0.010408487   -4.4638893    1.1727208      1024000 
  488000   0.78114535   -4.4614259   -4.4614259   -3.2897102  0.012821138   -4.4614259    1.1717156      1024000 
  489000   0.78154343   -4.4602781   -4.4602781   -3.2879653  0.011428272   -4.4602781    1.1723128      1024000 
  490000   0.78200624   -4.4605875   -4.4605875   -3.2875805  0.003609934   -4.4605875     1.173007      1024000 
  491000   0.78182443   -4.4586541   -4.4586541   -3.2859198 0.0092054442   -4.4586541    1.1727343      1024000 
  492000   0.78214888   -4.4570431   -4.4570431   -3.2838221 0.0080605294   -4.4570431    1.1732209      1024000 
  493000   0.78290043   -4.4563063   -4.4563063    -3.281958 0.0063614673   -4.4563063    1.1743483      1024000 
  494000   0.78430514   -4.4565386   -4.4565386   -3.2800833 0.0074047774   -4.4565386    1.1764553      1024000 
  495000    0.7842112   -4.4552814   -4.4552814    -3.278967  0.010127918   -4.4552814    1.1763144      1024000 
  496000   0.78436528    -4.454914    -4.454914   -3.2783684  0.012921584    -4.454914    1.1765455      1024000 
  497000   0.78484115   -4.4531902   -4.4531902   -3.2759309  0.013151999   -4.4531902    1.1772593      1024000 
  498000   0.78493507   -4.4513547   -4.4513547   -3.2739545  0.010192684   -4.4513547    1.1774002      1024000 
  499000   0.78503495   -4.4503621   -4.4503621   -3.2728121  0.015750091   -4.4503621      1.17755      1024000 
  500000   0.78557388    -4.449348    -4.449348   -3.2709896  0.012720112    -4.449348    1.1783584      1024000 
  501000   0.78644461   -4.4491688   -4.4491688   -3.2695043  0.011440959   -4.4491688    1.1796645      1024000 
  502000   0.78491806   -4.4455228   -4.4455228   -3.2681481  0.020393825   -4.4455228    1.1773747      1024000 
  503000   0.78642344   -4.4466581   -4.4466581   -3.2670254  0.012864767   -4.4466581    1.1796328      1024000 
  504000   0.78682859   -4.4460737   -4.4460737   -3.2658332  0.015966679   -4.4460737    1.1802405      1024000 
  505000   0.78666515   -4.4443767   -4.4443767   -3.2643813  0.016777452   -4.4443767    1.1799953      1024000 
  506000   0.78636845   -4.4420061   -4.4420061   -3.2624558  0.018913787   -4.4420061    1.1795503      1024000 
  507000   0.78765335   -4.4427076   -4.4427076     -3.26123 0.0099484397   -4.4427076    1.1814776      1024000 
  508000   0.78644639   -4.4397344   -4.4397344   -3.2600672  0.011640325   -4.4397344    1.1796672      1024000 
  509000   0.78682832   -4.4396253   -4.4396253   -3.2593852  0.008542029   -4.4396253    1.1802401      1024000 
  510000   0.78617404   -4.4389176   -4.4389176    -3.259659  0.010455433   -4.4389176    1.1792587      1024000 
  511000   0.78734063   -4.4391328   -4.4391328   -3.2581243 0.0089489225   -4.4391328    1.1810085      1024000 
  512000   0.78720509   -4.4374156   -4.4374156   -3.2566104  0.011833302   -4.4374156    1.1808052      1024000 
  513000   0.78737119   -4.4364464   -4.4364464    -3.255392  0.013582754   -4.4364464    1.1810544      1024000 
  514000   0.78826197   -4.4365218   -4.4365218   -3.2541313  0.010283783   -4.4365218    1.1823906      1024000 
  515000   0.78793308   -4.4355113   -4.4355113   -3.2536141 0.0067642697   -4.4355113    1.1818972      1024000 
  516000   0.78806733   -4.4338117   -4.4338117   -3.2517131  0.010423998   -4.4338117    1.1820986      1024000 
  517000   0.78948459   -4.4337173   -4.4337173   -3.2494928 0.0060086508   -4.4337173    1.1842245      1024000 
  518000   0.78827756   -4.4301683   -4.4301683   -3.2477543  0.012913026   -4.4301683    1.1824139      1024000 
  519000   0.78952377   -4.4304523   -4.4304523   -3.2461691  0.010429754   -4.4304523    1.1842833      1024000 
  520000   0.79050935   -4.4310778   -4.4310778   -3.2453162  0.014710048   -4.4310778    1.1857616      1024000 
  521000   0.79115354    -4.430181    -4.430181   -3.2434531  0.010951274    -4.430181    1.1867279      1024000 
  522000   0.79124425    -4.429456    -4.429456   -3.2425921   0.01475683    -4.429456     1.186864      1024000 
  523000   0.78995579    -4.426556    -4.426556   -3.2416247  0.016397316    -4.426556    1.1849313      1024000 
  524000   0.79096282   -4.4267108   -4.4267108    -3.240269  0.014046656   -4.4267108    1.1864418      1024000 
  525000   0.79159628   -4.4258663   -4.4258663   -3.2384743  0.017558553   -4.4258663     1.187392      1024000 
  526000    0.7912759   -4.4238922   -4.4238922   -3.2369808  0.020685072   -4.4238922    1.1869114      1024000 
  527000   0.79187589   -4.4222951   -4.4222951   -3.2344837  0.019572123   -4.4222951    1.1878114      1024000 
  528000   0.79213033   -4.4224269   -4.4224269   -3.2342338  0.017465383   -4.4224269    1.1881931      1024000 
  529000   0.79323122   -4.4228233   -4.4228233   -3.2329789   0.01384997   -4.4228233    1.1898444      1024000 
  530000   0.79177326   -4.4193084   -4.4193084   -3.2316509  0.020360683   -4.4193084    1.1876575      1024000 
  531000   0.79238338   -4.4184668   -4.4184668   -3.2298942  0.015457868   -4.4184668    1.1885727      1024000 
  532000   0.79281471   -4.4185004   -4.4185004   -3.2292808 0.0086618426   -4.4185004    1.1892197      1024000 
  533000   0.79239273   -4.4155748   -4.4155748   -3.2269881  0.012445227   -4.4155748    1.1885867      1024000 
  534000   0.79315094   -4.4159622   -4.4159622   -3.2262382  0.014176843   -4.4159622     1.189724      1024000 
  535000   0.79299792   -4.4148508   -4.4148508   -3.2253564  0.013723167   -4.4148508    1.1894945      1024000 
  536000   0.79376143   -4.4145189   -4.4145189   -3.2238792  0.011016149   -4.4145189    1.1906397      1024000 
  537000   0.79290891   -4.4120794   -4.4120794   -3.2227185  0.010512517   -4.4120794     1.189361      1024000 
  538000   0.79222079   -4.4099187   -4.4099187   -3.2215899  0.012035359   -4.4099187    1.1883288      1024000 
  539000   0.79427181   -4.4102305   -4.4102305   -3.2188252 0.0079518106   -4.4102305    1.1914053      1024000 
  540000   0.79381307   -4.4079619   -4.4079619   -3.2172447  0.016172005   -4.4079619    1.1907172      1024000 
  541000   0.79542181   -4.4087352   -4.4087352   -3.2156049  0.010241715   -4.4087352    1.1931303      1024000 
  542000   0.79396055   -4.4058427   -4.4058427   -3.2149043  0.013355536   -4.4058427    1.1909384      1024000 
  543000   0.79365522   -4.4041477   -4.4041477   -3.2136673  0.012964189   -4.4041477    1.1904804      1024000 
  544000   0.79502079   -4.4055865   -4.4055865   -3.2130578 0.0076373453   -4.4055865    1.1925288      1024000 
  545000   0.79435119   -4.4019794   -4.4019794    -3.210455  0.015330114   -4.4019794    1.1915244      1024000 
  546000   0.79452754   -4.3999181   -4.3999181   -3.2081292  0.019849846   -4.3999181    1.1917889      1024000 
  547000   0.79593244   -4.3997096   -4.3997096   -3.2058134  0.013038168   -4.3997096    1.1938962      1024000 
  548000   0.79763871   -4.4013933   -4.4013933   -3.2049377 0.0059610678   -4.4013933    1.1964556      1024000 
  549000   0.79611282   -4.3975584   -4.3975584   -3.2033916  0.014803081   -4.3975584    1.1941668      1024000 
  550000     0.797028   -4.3974662   -4.3974662   -3.2019267  0.013546272   -4.3974662    1.1955396      1024000 
  551000   0.79676147   -4.3964367   -4.3964367   -3.2012969  0.015257381   -4.3964367    1.1951398      1024000 
  552000   0.79745684   -4.3956616   -4.3956616   -3.1994787   0.01212261   -4.3956616    1.1961828      1024000 
  553000   0.79770002    -4.394107    -4.394107   -3.1975594  0.016017517    -4.394107    1.1965476      1024000 
  554000   0.79886512   -4.3936222   -4.3936222   -3.1953269  0.011285531   -4.3936222    1.1982953      1024000 
  555000   0.79823282   -4.3912122   -4.3912122   -3.1938654  0.012620908   -4.3912122    1.1973468      1024000 
  556000   0.79898577   -4.3906897   -4.3906897   -3.1922135  0.014483975   -4.3906897    1.1984762      1024000 
  557000   0.79891571   -4.3890922   -4.3890922    -3.190721  0.017157463   -4.3890922    1.1983711      1024000 
  558000   0.80022184   -4.3887968   -4.3887968   -3.1884665  0.014495206   -4.3887968    1.2003303      1024000 
  559000   0.80014193   -4.3872938   -4.3872938   -3.1870833   0.01478518   -4.3872938    1.2002105      1024000 
  560000   0.80000949   -4.3851205   -4.3851205   -3.1851087  0.014739513   -4.3851205    1.2000118      1024000 
  561000   0.79976714   -4.3840062   -4.3840062   -3.1843579  0.015752162   -4.3840062    1.1996483      1024000 
  562000   0.80060673   -4.3841836   -4.3841836   -3.1832759  0.012666459   -4.3841836    1.2009077      1024000 
  563000   0.80041489   -4.3822093   -4.3822093   -3.1815894  0.015124086   -4.3822093    1.2006199      1024000 
  564000   0.80082013   -4.3812583   -4.3812583   -3.1800305  0.014190836   -4.3812583    1.2012278      1024000 
  565000   0.80216028   -4.3807205   -4.3807205   -3.1774826   0.01725003   -4.3807205     1.203238      1024000 
  566000   0.80140438   -4.3785326   -4.3785326   -3.1764285  0.012656093   -4.3785326    1.2021041      1024000 
  567000   0.80149838   -4.3775456   -4.3775456   -3.1753005 0.0082835217   -4.3775456    1.2022451      1024000 
  568000   0.79996287   -4.3737132   -4.3737132   -3.1737713  0.013435328   -4.3737132    1.1999419      1024000 
  569000    0.8002329   -4.3736403   -4.3736403   -3.1732933  0.010009874   -4.3736403    1.2003469      1024000 
  570000   0.79963321   -4.3720013   -4.3720013   -3.1725539  0.011805381   -4.3720013    1.1994474      1024000 
  571000   0.80095124   -4.3712524   -4.3712524    -3.169828 0.0063988469   -4.3712524    1.2014244      1024000 
  572000   0.80078845   -4.3693627   -4.3693627   -3.1681824  0.010579664   -4.3693627    1.2011802      1024000 
  573000   0.80154698   -4.3687682   -4.3687682   -3.1664502  0.011510922   -4.3687682     1.202318      1024000 
  574000   0.80200381   -4.3690526   -4.3690526   -3.1660493 0.0086697824   -4.3690526    1.2030033      1024000 
  575000   0.80302507    -4.368568    -4.368568   -3.1640328 0.0080381732    -4.368568    1.2045352      1024000 
  576000   0.80271798   -4.3663397   -4.3663397   -3.1622652  0.013825883   -4.3663397    1.2040745      1024000 
  577000   0.80173595   -4.3630317   -4.3630317   -3.1604302  0.015045803   -4.3630317    1.2026015      1024000 
  578000   0.80395639   -4.3643487   -4.3643487   -3.1584166  0.012605942   -4.3643487    1.2059321      1024000 
  579000   0.80351077    -4.362225    -4.362225   -3.1569613  0.017669115    -4.362225    1.2052637      1024000 
  580000   0.80398581   -4.3611317   -4.3611317   -3.1551554  0.011121608   -4.3611317    1.2059763      1024000 
  581000   0.80522647    -4.360384    -4.360384   -3.1525468  0.010988323    -4.360384    1.2078372      1024000 
  582000   0.80510829   -4.3594382   -4.3594382   -3.1517782 0.0094612849   -4.3594382      1.20766      1024000 
  583000   0.80593436   -4.3589466   -4.3589466   -3.1500475  0.011388055   -4.3589466    1.2088991      1024000 
  584000   0.80537553   -4.3574955   -4.3574955   -3.1494346  0.012417551   -4.3574955    1.2080608      1024000 
  585000   0.80570683   -4.3567054   -4.3567054   -3.1481476  0.012338982   -4.3567054    1.2085578      1024000 
  586000    0.8055666   -4.3555468   -4.3555468   -3.1471994  0.011587563   -4.3555468    1.2083474      1024000 
  587000   0.80560613   -4.3527322   -4.3527322   -3.1443255  0.013328114   -4.3527322    1.2084067      1024000 
  588000   0.80672931   -4.3526444   -4.3526444   -3.1425529  0.011406582   -4.3526444    1.2100915      1024000 
  589000   0.80666739   -4.3522355   -4.3522355   -3.1422369 0.0053595337   -4.3522355    1.2099986      1024000 
  590000   0.80625399   -4.3501631   -4.3501631   -3.1407845  0.018326731   -4.3501631    1.2093785      1024000 
  591000    0.8070337    -4.348749    -4.348749   -3.1382009  0.018268556    -4.348749    1.2105481      1024000 
  592000   0.80787055   -4.3483605   -4.3483605   -3.1365571  0.014530748   -4.3483605    1.2118034      1024000 
  593000   0.80859483   -4.3483077   -4.3483077    -3.135418  0.010463532   -4.3483077    1.2128898      1024000 
  594000   0.80757808   -4.3453418   -4.3453418   -3.1339771  0.015356698   -4.3453418    1.2113647      1024000 
  595000   0.80867052   -4.3451703   -4.3451703    -3.132167  0.013723593   -4.3451703    1.2130033      1024000 
  596000   0.80969348   -4.3447514   -4.3447514   -3.1302136  0.017533346   -4.3447514    1.2145378      1024000 
  597000   0.81008154   -4.3449411   -4.3449411   -3.1298213  0.014196188   -4.3449411    1.2151198      1024000 
  598000   0.80979259   -4.3424992   -4.3424992   -3.1278128   0.01527956   -4.3424992    1.2146864      1024000 
  599000   0.81095793   -4.3421088   -4.3421088   -3.1256744  0.017476663   -4.3421088    1.2164344      1024000 
  600000   0.80953922   -4.3388031   -4.3388031   -3.1244967  0.017867914   -4.3388031    1.2143064      1024000 
  601000   0.80976476    -4.338183    -4.338183   -3.1235383  0.013787838    -4.338183    1.2146447      1024000 
  602000   0.81100388    -4.338538    -4.338538   -3.1220347  0.017492057    -4.338538    1.2165034      1024000 
  603000   0.81033801   -4.3350005   -4.3350005    -3.119496  0.018045582   -4.3350005    1.2155045      1024000 
  604000     0.811167   -4.3345695   -4.3345695   -3.1178215  0.016486605   -4.3345695     1.216748      1024000 
  605000   0.81084073   -4.3324689   -4.3324689   -3.1162103  0.016852857   -4.3324689    1.2162586      1024000 
  606000   0.81355217   -4.3339789   -4.3339789   -3.1136532  0.010307635   -4.3339789    1.2203258      1024000 
  607000   0.81196459   -4.3300309   -4.3300309   -3.1120865  0.018003027   -4.3300309    1.2179444      1024000 
  608000   0.81214919   -4.3301621   -4.3301621   -3.1119408  0.015336104   -4.3301621    1.2182213      1024000 
  609000   0.81216303   -4.3287278   -4.3287278   -3.1104857  0.016374377   -4.3287278    1.2182421      1024000 
  610000   0.81327164   -4.3285365   -4.3285365   -3.1086315  0.016880772   -4.3285365     1.219905      1024000 
  611000     0.812404   -4.3250454   -4.3250454   -3.1064419  0.017505497   -4.3250454    1.2186035      1024000 
  612000   0.81189871   -4.3232654   -4.3232654   -3.1054198   0.01615421   -4.3232654    1.2178456      1024000 
  613000   0.81290593   -4.3231902   -4.3231902   -3.1038338 0.0091991962   -4.3231902    1.2193564      1024000 
  614000   0.81258577   -4.3210145   -4.3210145   -3.1021383  0.011196658   -4.3210145    1.2188762      1024000 
  615000   0.81312864   -4.3199104   -4.3199104   -3.1002199 0.0075952081   -4.3199104    1.2196905      1024000 
  616000   0.81226107   -4.3175798   -4.3175798   -3.0991907  0.013287411   -4.3175798    1.2183891      1024000 
  617000    0.8130612    -4.316745    -4.316745   -3.0971556  0.009118806    -4.316745    1.2195893      1024000 
  618000   0.81268327   -4.3144314   -4.3144314   -3.0954089  0.010453171   -4.3144314    1.2190224      1024000 
  619000   0.81357162   -4.3139238   -4.3139238   -3.0935688  0.010071646   -4.3139238     1.220355      1024000 
  620000   0.81399633   -4.3128537   -4.3128537   -3.0918616 0.0087842338   -4.3128537     1.220992      1024000 
  621000    0.8147288   -4.3115646   -4.3115646   -3.0894739  0.010351762   -4.3115646    1.2220907      1024000 
  622000   0.81495785   -4.3107524   -4.3107524   -3.0883181  0.011479239   -4.3107524    1.2224343      1024000 
  623000   0.81567172   -4.3098109   -4.3098109   -3.0863058 0.0087610086   -4.3098109    1.2235051      1024000 
  624000   0.81420972   -4.3065883   -4.3065883   -3.0852762  0.014011273   -4.3065883    1.2213121      1024000 
  625000   0.81426539    -4.305174    -4.305174   -3.0837784  0.012519864    -4.305174    1.2213956      1024000 
  626000   0.81476341   -4.3051264   -4.3051264   -3.0829837 0.0068004647   -4.3051264    1.2221426      1024000 
  627000   0.81583136   -4.3039276   -4.3039276   -3.0801831 0.0088393083   -4.3039276    1.2237446      1024000 
  628000   0.81501276   -4.3014696   -4.3014696   -3.0789529  0.010490821   -4.3014696    1.2225167      1024000 
  629000   0.81593079   -4.3016833   -4.3016833   -3.0777896 0.0088932884   -4.3016833    1.2238937      1024000 
  630000   0.81684723   -4.3021348   -4.3021348   -3.0768665 0.0098371425   -4.3021348    1.2252684      1024000 
  631000   0.81701796   -4.3011286   -4.3011286   -3.0756041 0.0082555642   -4.3011286    1.2255245      1024000 
  632000   0.81572806   -4.2971946   -4.2971946   -3.0736049 0.0097091161   -4.2971946    1.2235896      1024000 
  633000   0.81731569   -4.2983042   -4.2983042   -3.0723332  0.005795574   -4.2983042     1.225971      1024000 
  634000   0.81614378   -4.2941982   -4.2941982    -3.069985  0.012548392   -4.2941982    1.2242132      1024000 
  635000   0.81736024   -4.2940148   -4.2940148   -3.0679769  0.011535849   -4.2940148    1.2260379      1024000 
  636000   0.81731281   -4.2921277   -4.2921277    -3.066161   0.01601981   -4.2921277    1.2259667      1024000 
  637000    0.8186723   -4.2925482   -4.2925482   -3.0645423  0.011738401   -4.2925482     1.228006      1024000 
  638000   0.81858785   -4.2908061   -4.2908061   -3.0629268  0.016420315   -4.2908061    1.2278793      1024000 
  639000   0.81946735   -4.2903577   -4.2903577   -3.0611592   0.01437689   -4.2903577    1.2291985      1024000 
  640000   0.81922376   -4.2884865   -4.2884865   -3.0596534  0.015270462   -4.2884865    1.2288331      1024000 
  641000   0.81913139   -4.2873918   -4.2873918   -3.0586973  0.011816391   -4.2873918    1.2286946      1024000 
  642000   0.81908729   -4.2858528   -4.2858528   -3.0572243  0.016104186   -4.2858528    1.2286284      1024000 
  643000   0.82058198   -4.2860717   -4.2860717   -3.0552012  0.015896258   -4.2860717    1.2308705      1024000 
  644000   0.82093867   -4.2851856   -4.2851856   -3.0537801  0.016352546   -4.2851856    1.2314055      1024000 
  645000   0.82067777   -4.2835565   -4.2835565   -3.0525424  0.015649913   -4.2835565    1.2310142      1024000 
  646000   0.82140568   -4.2836963   -4.2836963   -3.0515903 0.0086267184   -4.2836963     1.232106      1024000 
  647000   0.82082985   -4.2811082   -4.2811082   -3.0498659  0.017838031   -4.2811082    1.2312423      1024000 
  648000   0.82169213   -4.2803056   -4.2803056     -3.04777  0.016372873   -4.2803056    1.2325357      1024000 
  649000   0.82338416   -4.2802203   -4.2802203   -3.0451466  0.014905443   -4.2802203    1.2350737      1024000 
  650000   0.82350545   -4.2791419   -4.2791419   -3.0438862  0.010944057   -4.2791419    1.2352557      1024000 
  651000   0.82372138   -4.2772161   -4.2772161   -3.0416366  0.015019334   -4.2772161    1.2355796      1024000 
  652000   0.82357976   -4.2752695   -4.2752695   -3.0399024  0.015352681   -4.2752695    1.2353671      1024000 
  653000    0.8224715   -4.2729515   -4.2729515   -3.0392468  0.021784526   -4.2729515    1.2337047      1024000 
  654000   0.82356888   -4.2720183   -4.2720183   -3.0366675  0.019447238   -4.2720183    1.2353508      1024000 
  655000   0.82306556   -4.2699282   -4.2699282   -3.0353324  0.017183464   -4.2699282    1.2345958      1024000 
  656000   0.82361997   -4.2692886   -4.2692886   -3.0338612  0.015069358   -4.2692886    1.2354275      1024000 
  657000   0.82379692   -4.2676929   -4.2676929   -3.0320001   0.01400592   -4.2676929    1.2356929      1024000 
  658000   0.82447354   -4.2670406   -4.2670406   -3.0303328  0.014398053   -4.2670406    1.2367078      1024000 
  659000   0.82441093    -4.266474    -4.266474   -3.0298601   0.01413668    -4.266474    1.2366139      1024000 
  660000   0.82389717   -4.2641584   -4.2641584   -3.0283151  0.016204696   -4.2641584    1.2358432      1024000 
  661000   0.82351931   -4.2614935   -4.2614935    -3.026217  0.016264511   -4.2614935    1.2352765      1024000 
  662000   0.82384184   -4.2605362   -4.2605362   -3.0247759  0.015126008   -4.2605362    1.2357603      1024000 
  663000   0.82433236    -4.260221    -4.260221    -3.023725  0.016254716    -4.260221     1.236496      1024000 
  664000   0.82488499   -4.2589041   -4.2589041   -3.0215791  0.016695334   -4.2589041     1.237325      1024000 
  665000   0.82652935    -4.259043    -4.259043   -3.0192515   0.01324866    -4.259043    1.2397915      1024000 
  666000   0.82432268   -4.2530894   -4.2530894   -3.0166079   0.02150612   -4.2530894    1.2364815      1024000 
  667000   0.82665371    -4.254496    -4.254496    -3.014518   0.01697016    -4.254496     1.239978      1024000 
  668000   0.82704461    -4.253438    -4.253438   -3.0128736  0.011914451    -4.253438    1.2405644      1024000 
  669000   0.82672885   -4.2515903   -4.2515903   -3.0114996    0.0129652   -4.2515903    1.2400908      1024000 
  670000   0.82731017   -4.2501188   -4.2501188   -3.0091561  0.015739695   -4.2501188    1.2409627      1024000 
  671000   0.82725264   -4.2479093   -4.2479093   -3.0070329  0.018104968   -4.2479093    1.2408764      1024000 
  672000   0.82787437   -4.2472336   -4.2472336   -3.0054246  0.015748872   -4.2472336     1.241809      1024000 
  673000   0.82834527   -4.2461842   -4.2461842   -3.0036688  0.012161543   -4.2461842    1.2425154      1024000 
  674000   0.82817829   -4.2447363   -4.2447363   -3.0024714  0.010229305   -4.2447363    1.2422649      1024000 
  675000   0.82760499   -4.2428635   -4.2428635   -3.0014585  0.011522844   -4.2428635     1.241405      1024000 
  676000   0.82651115   -4.2396699   -4.2396699   -2.9999057  0.012792637   -4.2396699    1.2397642      1024000 
  677000   0.82765324   -4.2393532   -4.2393532   -2.9978758   0.01132744   -4.2393532    1.2414773      1024000 
  678000    0.8277012    -4.237571    -4.237571   -2.9960218  0.012932824    -4.237571    1.2415493      1024000 
  679000   0.82772969   -4.2357321   -4.2357321   -2.9941401  0.017928067   -4.2357321     1.241592      1024000 
  680000   0.82833176   -4.2350375   -4.2350375   -2.9925424  0.019951558   -4.2350375    1.2424951      1024000 
  681000   0.82833343   -4.2334669   -4.2334669   -2.9909693  0.013297518   -4.2334669    1.2424976      1024000 
  682000   0.82828109   -4.2325151   -4.2325151    -2.990096  0.012929844   -4.2325151    1.2424191      1024000 
  683000   0.83089842   -4.2342257   -4.2342257   -2.9878806  0.011029741   -4.2342257    1.2463451      1024000 
  684000   0.83080404   -4.2330284   -4.2330284   -2.9868248   0.01475648   -4.2330284    1.2462035      1024000 
  685000   0.83054273   -4.2312928   -4.2312928   -2.9854812  0.013234692   -4.2312928    1.2458116      1024000 
  686000   0.82978916   -4.2271552   -4.2271552    -2.982474  0.016901908   -4.2271552    1.2446812      1024000 
  687000   0.83110999   -4.2275747   -4.2275747   -2.9809123  0.016961134   -4.2275747    1.2466624      1024000 
  688000   0.83183072   -4.2263163   -4.2263163   -2.9785728  0.025795468   -4.2263163    1.2477435      1024000 
  689000   0.83125018    -4.224505    -4.224505   -2.9776323  0.018947713    -4.224505    1.2468727      1024000 
  690000   0.83195452   -4.2224361   -4.2224361   -2.9745068  0.018329862   -4.2224361    1.2479292      1024000 
  691000   0.83178409   -4.2208356   -4.2208356    -2.973162 0.0087289502   -4.2208356    1.2476736      1024000 
  692000   0.83143928   -4.2186834   -4.2186834    -2.971527  0.010740794   -4.2186834    1.2471564      1024000 
  693000   0.83158043   -4.2187598   -4.2187598   -2.9713917 0.0077286445   -4.2187598    1.2473681      1024000 
  694000   0.83142054   -4.2159435   -4.2159435   -2.9688152   0.01297072   -4.2159435    1.2471283      1024000 
  695000   0.83253623   -4.2142433   -4.2142433   -2.9654415  0.015621864   -4.2142433    1.2488018      1024000 
  696000   0.83289022   -4.2133013   -4.2133013   -2.9639685   0.01647806   -4.2133013    1.2493328      1024000 
  697000   0.83197483   -4.2116626   -4.2116626   -2.9637029  0.011848861   -4.2116626    1.2479597      1024000 
  698000   0.83365261   -4.2120784   -4.2120784   -2.9616021  0.011426022   -4.2120784    1.2504764      1024000 
  699000   0.83374288   -4.2100569   -4.2100569   -2.9594451  0.015060726   -4.2100569    1.2506118      1024000 
  700000   0.83451113   -4.2100368   -4.2100368   -2.9582726  0.010722851   -4.2100368    1.2517642      1024000 
  701000   0.83458996   -4.2080317   -4.2080317   -2.9561493  0.015931201   -4.2080317    1.2518824      1024000 
  702000   0.83477104   -4.2060868   -4.2060868   -2.9539328  0.020505616   -4.2060868     1.252154      1024000 
  703000   0.83382508    -4.202876    -4.202876    -2.952141  0.020200571    -4.202876    1.2507351      1024000 
  704000   0.83469918   -4.2035296   -4.2035296   -2.9514833  0.015460142   -4.2035296    1.2520462      1024000 
  705000   0.83570552   -4.2041543   -4.2041543   -2.9505986    0.0119132   -4.2041543    1.2535557      1024000 
  706000     0.835288   -4.2020339   -4.2020339   -2.9491045  0.016049259   -4.2020339    1.2529295      1024000 
  707000   0.83345361   -4.1974046   -4.1974046   -2.9472267    0.0179599   -4.1974046    1.2501779      1024000 
  708000    0.8347714   -4.1978139   -4.1978139   -2.9456593   0.01011876   -4.1978139    1.2521546      1024000 
  709000   0.83451398   -4.1956348   -4.1956348   -2.9438663  0.017392397   -4.1956348    1.2517684      1024000 
  710000   0.83415876    -4.193966    -4.193966   -2.9427304  0.012085996    -4.193966    1.2512356      1024000 
  711000   0.83492928   -4.1938262   -4.1938262   -2.9414349  0.016238503   -4.1938262    1.2523914      1024000 
  712000   0.83630936    -4.193667    -4.193667   -2.9392056  0.010365165    -4.193667    1.2544615      1024000 
  713000    0.8354716   -4.1896841   -4.1896841   -2.9364792  0.011607551   -4.1896841    1.2532049      1024000 
  714000   0.83551625   -4.1881001   -4.1881001   -2.9348283   0.01374324   -4.1881001    1.2532718      1024000 
  715000   0.83633619   -4.1880226   -4.1880226   -2.9335208  0.011145692   -4.1880226    1.2545017      1024000 
  716000   0.83773467   -4.1884027   -4.1884027   -2.9318033 0.0087623002   -4.1884027    1.2565995      1024000 
  717000   0.83707752   -4.1856095   -4.1856095   -2.9299958  0.013421874   -4.1856095    1.2556137      1024000 
  718000   0.83708648   -4.1836071   -4.1836071     -2.92798  0.017817595   -4.1836071    1.2556272      1024000 
  719000   0.83802688   -4.1823933   -4.1823933   -2.9253555  0.017097534   -4.1823933    1.2570378      1024000 
  720000   0.83823843   -4.1820589   -4.1820589   -2.9247038   0.01533683   -4.1820589    1.2573551      1024000 
  721000    0.8386973   -4.1811894   -4.1811894    -2.923146  0.015964381   -4.1811894    1.2580434      1024000 
  722000   0.83909872   -4.1789642   -4.1789642   -2.9203187  0.011902523   -4.1789642    1.2586455      1024000 
  723000   0.83923244    -4.177034    -4.177034   -2.9181879  0.017329783    -4.177034    1.2588461      1024000 
  724000   0.84065849   -4.1773809   -4.1773809   -2.9163957   0.01495112   -4.1773809    1.2609852      1024000 
  725000   0.83942918    -4.174511    -4.174511   -2.9153698  0.020749861    -4.174511    1.2591412      1024000 
  726000   0.84020011   -4.1746553   -4.1746553   -2.9143577  0.012471918   -4.1746553    1.2602976      1024000 
  727000   0.84234262   -4.1765098   -4.1765098   -2.9129985  0.015264904   -4.1765098    1.2635114      1024000 
  728000   0.84133251   -4.1732917   -4.1732917   -2.9112955  0.019070216   -4.1732917    1.2619962      1024000 
  729000   0.84073896   -4.1717898   -4.1717898   -2.9106839   0.02070384   -4.1717898    1.2611059      1024000 
  730000   0.84213015   -4.1710787   -4.1710787   -2.9078861  0.013740012   -4.1710787    1.2631927      1024000 
  731000   0.84031835   -4.1671779   -4.1671779   -2.9067029  0.025553297   -4.1671779     1.260475      1024000 
  732000   0.84163736   -4.1678904   -4.1678904   -2.9054369  0.014815067   -4.1678904    1.2624535      1024000 
  733000    0.8409932   -4.1641815   -4.1641815   -2.9026943  0.017878123   -4.1641815    1.2614872      1024000 
  734000   0.84136654    -4.162861    -4.162861   -2.9008138   0.01723135    -4.162861    1.2620472      1024000 
  735000   0.84267599   -4.1631343   -4.1631343   -2.8991228 0.0071843082   -4.1631343    1.2640114      1024000 
  736000   0.84162907   -4.1598459   -4.1598459   -2.8974049  0.014666539   -4.1598459     1.262441      1024000 
  737000   0.84242613   -4.1592807   -4.1592807   -2.8956441  0.011454117   -4.1592807    1.2636366      1024000 
  738000   0.84199564   -4.1559972   -4.1559972   -2.8930063  0.018230137   -4.1559972    1.2629909      1024000 
  739000   0.84300901   -4.1549569   -4.1549569   -2.8904459  0.017873115   -4.1549569     1.264511      1024000 
  740000    0.8427994   -4.1537727   -4.1537727   -2.8895761  0.016583001   -4.1537727    1.2641965      1024000 
  741000   0.84429997   -4.1549316   -4.1549316   -2.8884842  0.015742445   -4.1549316    1.2664474      1024000 
  742000   0.84428594    -4.152917    -4.152917   -2.8864906  0.012762369    -4.152917    1.2664263      1024000 
  743000   0.84424501   -4.1508458   -4.1508458   -2.8844809  0.016151495   -4.1508458    1.2663649      1024000 
  744000   0.84390653   -4.1491415   -4.1491415   -2.8832842  0.023241803   -4.1491415    1.2658572      1024000 
  745000   0.84638674   -4.1491563   -4.1491563   -2.8795788   0.02117342   -4.1491563    1.2695775      1024000 
  746000   0.84488558   -4.1448655   -4.1448655   -2.8775397  0.025586714   -4.1448655    1.2673258      1024000 
  747000   0.84553877   -4.1441876   -4.1441876    -2.875882   0.02466937   -4.1441876    1.2683056      1024000 
  748000   0.84528802   -4.1423442   -4.1423442   -2.8744148  0.025430595   -4.1423442    1.2679295      1024000 
  749000   0.84578377    -4.142081    -4.142081   -2.8734079  0.019895223    -4.142081    1.2686731      1024000 
  750000   0.84617932   -4.1408915   -4.1408915   -2.8716251  0.017333275   -4.1408915    1.2692664      1024000 
  751000    0.8457664   -4.1388423   -4.1388423   -2.8701953  0.022958025   -4.1388423     1.268647      1024000 
  752000   0.84575813   -4.1370913   -4.1370913   -2.8684567  0.016274492   -4.1370913    1.2686346      1024000 
  753000   0.84640933   -4.1354361   -4.1354361   -2.8658247  0.015199174   -4.1354361    1.2696114      1024000 
  754000   0.84505871   -4.1327319   -4.1327319   -2.8651464  0.015805987   -4.1327319    1.2675855      1024000 
  755000   0.84610279   -4.1326063   -4.1326063   -2.8634547  0.012039277   -4.1326063    1.2691516      1024000 
  756000   0.84709132   -4.1316938   -4.1316938   -2.8610595  0.012898637   -4.1316938    1.2706344      1024000 
  757000   0.84595652   -4.1287919   -4.1287919   -2.8598597  0.014349048   -4.1287919    1.2689322      1024000 
  758000   0.84604008   -4.1270575   -4.1270575   -2.8579999  0.020190816   -4.1270575    1.2690575      1024000 
  759000   0.84679348   -4.1265704   -4.1265704   -2.8563827  0.015637377   -4.1265704    1.2701876      1024000 
  760000   0.84610403   -4.1239326   -4.1239326   -2.8547791  0.020477752   -4.1239326    1.2691535      1024000 
  761000   0.84598811   -4.1222736   -4.1222736    -2.853294  0.019107412   -4.1222736    1.2689796      1024000 
  762000   0.84674308   -4.1216096   -4.1216096   -2.8514975  0.021410829   -4.1216096     1.270112      1024000 
  763000   0.84801179   -4.1217148   -4.1217148   -2.8496997  0.016907788   -4.1217148    1.2720151      1024000 
  764000   0.84684883   -4.1181504   -4.1181504   -2.8478797  0.021508579   -4.1181504    1.2702707      1024000 
  765000    0.8481416   -4.1176137   -4.1176137   -2.8454039  0.015386066   -4.1176137    1.2722098      1024000 
  766000   0.84785274   -4.1156073   -4.1156073   -2.8438308  0.019203603   -4.1156073    1.2717765      1024000 
  767000   0.85027229   -4.1163746   -4.1163746   -2.8409688  0.014798558   -4.1163746    1.2754059      1024000 
  768000   0.84992998   -4.1138476   -4.1138476   -2.8389552  0.021287172   -4.1138476    1.2748924      1024000 
  769000   0.84877367   -4.1097431   -4.1097431   -2.8365852  0.019522014   -4.1097431    1.2731579      1024000 
  770000   0.84942019   -4.1089745   -4.1089745   -2.8348469  0.025470009   -4.1089745    1.2741277      1024000 
  771000   0.84995704   -4.1074518   -4.1074518   -2.8325189  0.022714548   -4.1074518     1.274933      1024000 
  772000   0.85154654   -4.1076617   -4.1076617   -2.8303445  0.023344886   -4.1076617    1.2773172      1024000 
  773000   0.85204773   -4.1064994   -4.1064994   -2.8284304  0.025193955   -4.1064994     1.278069      1024000 
  774000   0.85222399   -4.1056866   -4.1056866   -2.8273532  0.019711164   -4.1056866    1.2783334      1024000 
  775000   0.85208418    -4.104094    -4.104094   -2.8259703  0.017619799    -4.104094    1.2781237      1024000 
  776000   0.85221917   -4.1019691   -4.1019691   -2.8236429  0.021167673   -4.1019691    1.2783262      1024000 
  777000   0.85220204   -4.0990621   -4.0990621   -2.8207616   0.02486357   -4.0990621    1.2783005      1024000 
  778000   0.85201138   -4.0974041   -4.0974041   -2.8193896  0.024718741   -4.0974041    1.2780145      1024000 
  779000   0.85268863   -4.0977687   -4.0977687   -2.8187383  0.027145645   -4.0977687    1.2790303      1024000 
  780000   0.85407145   -4.0974854   -4.0974854   -2.8163809  0.023421414   -4.0974854    1.2811046      1024000 
  781000   0.85416282   -4.0959177   -4.0959177   -2.8146761  0.022713657   -4.0959177    1.2812416      1024000 
  782000   0.85240691   -4.0923195   -4.0923195   -2.8137117  0.021890733   -4.0923195    1.2786078      1024000 
  783000   0.85493481   -4.0933507   -4.0933507   -2.8109511  0.020867425   -4.0933507    1.2823996      1024000 
  784000   0.85342809   -4.0887113   -4.0887113   -2.8085718  0.024423882   -4.0887113    1.2801395      1024000 
  785000   0.85337741   -4.0861584   -4.0861584   -2.8060949  0.023944627   -4.0861584    1.2800635      1024000 
  786000   0.85467767   -4.0854754   -4.0854754   -2.8034615  0.027204588   -4.0854754    1.2820139      1024000 
  787000   0.85393401   -4.0836509   -4.0836509   -2.8027524  0.025864436   -4.0836509    1.2808984      1024000 
  788000   0.85459494   -4.0822262   -4.0822262   -2.8003364  0.025440494   -4.0822262    1.2818898      1024000 
  789000   0.85609907   -4.0824841   -4.0824841   -2.7983381  0.022610316   -4.0824841     1.284146      1024000 
  790000   0.85486169   -4.0784299   -4.0784299     -2.79614  0.027703318   -4.0784299    1.2822899      1024000 
  791000   0.85579092   -4.0785294   -4.0785294   -2.7948457   0.02329768   -4.0785294    1.2836838      1024000 
  792000   0.85576621   -4.0771753   -4.0771753   -2.7935286  0.022689982   -4.0771753    1.2836467      1024000 
  793000    0.8557056    -4.075351    -4.075351   -2.7917952  0.022724392    -4.075351    1.2835558      1024000 
  794000   0.85732025   -4.0747481   -4.0747481   -2.7887703   0.02276352   -4.0747481    1.2859778      1024000 
  795000   0.85664429   -4.0715194   -4.0715194   -2.7865556  0.023281226   -4.0715194    1.2849638      1024000 
  796000   0.85569733   -4.0693713   -4.0693713   -2.7858279  0.027055275   -4.0693713    1.2835434      1024000 
  797000     0.856961   -4.0693575   -4.0693575   -2.7839186  0.029981172   -4.0693575    1.2854389      1024000 
  798000    0.8570163   -4.0676085   -4.0676085   -2.7820867  0.029107209   -4.0676085    1.2855218      1024000 
  799000   0.85758395   -4.0674972   -4.0674972   -2.7811239  0.026057387   -4.0674972    1.2863733      1024000 
  800000   0.85751945   -4.0654886   -4.0654886    -2.779212  0.032967424   -4.0654886    1.2862766      1024000 
  801000   0.85743171   -4.0629856   -4.0629856   -2.7768407  0.031785422   -4.0629856     1.286145      1024000 
  802000   0.85815049   -4.0626015   -4.0626015   -2.7753784  0.024904593   -4.0626015    1.2872231      1024000 
  803000   0.85819967   -4.0596647   -4.0596647   -2.7723678  0.028103204   -4.0596647    1.2872969      1024000 
  804000   0.85770577   -4.0574567   -4.0574567   -2.7709006  0.026478698   -4.0574567     1.286556      1024000 
  805000   0.85787976   -4.0557878   -4.0557878   -2.7689708  0.024740778   -4.0557878     1.286817      1024000 
  806000   0.85904837   -4.0549301   -4.0549301   -2.7663602  0.031477265   -4.0549301    1.2885699      1024000 
  807000   0.85916018   -4.0532121   -4.0532121   -2.7644745  0.028944328   -4.0532121    1.2887377      1024000 
  808000   0.85999669   -4.0532832   -4.0532832   -2.7632908  0.028728297   -4.0532832    1.2899924      1024000 
  809000   0.86025093   -4.0520222   -4.0520222   -2.7616484  0.026876379   -4.0520222    1.2903738      1024000 
  810000   0.85985764   -4.0498689   -4.0498689   -2.7600851  0.032220393   -4.0498689    1.2897838      1024000 
  811000   0.85927038   -4.0475954   -4.0475954   -2.7586925  0.030958638   -4.0475954     1.288903      1024000 
  812000   0.86014866   -4.0469506   -4.0469506   -2.7567302   0.03403393   -4.0469506    1.2902204      1024000 
  813000   0.85934877   -4.0444356   -4.0444356    -2.755415  0.032876967   -4.0444356    1.2890205      1024000 
  814000   0.86008417   -4.0434565   -4.0434565   -2.7533328  0.029703844   -4.0434565    1.2901236      1024000 
  815000   0.85934329   -4.0407084   -4.0407084   -2.7516961   0.03689309   -4.0407084    1.2890123      1024000 
  816000   0.86058229    -4.039689    -4.039689   -2.7488182   0.03771145    -4.039689    1.2908708      1024000 
  817000   0.86132051   -4.0399744   -4.0399744   -2.7479962  0.033404138   -4.0399744    1.2919781      1024000 
  818000   0.86128376   -4.0385106   -4.0385106   -2.7465875  0.033719343   -4.0385106     1.291923      1024000 
  819000   0.86087975   -4.0357948   -4.0357948   -2.7444778   0.03515059   -4.0357948     1.291317      1024000 
  820000   0.86189257    -4.036072    -4.036072   -2.7432357  0.036231531    -4.036072    1.2928362      1024000 
  821000   0.86081713   -4.0328847   -4.0328847   -2.7416616  0.031122025   -4.0328847    1.2912231      1024000 
  822000   0.86230803   -4.0331271   -4.0331271   -2.7396677  0.031730598   -4.0331271    1.2934594      1024000 
  823000   0.86262994   -4.0318168   -4.0318168   -2.7378745  0.030601374   -4.0318168    1.2939423      1024000 
  824000   0.86169604   -4.0290631   -4.0290631   -2.7365217  0.032051109   -4.0290631    1.2925414      1024000 
  825000   0.86249015   -4.0287635   -4.0287635   -2.7350309  0.033992385   -4.0287635    1.2937326      1024000 
  826000   0.86259754   -4.0280168   -4.0280168   -2.7341232  0.030676234   -4.0280168    1.2938937      1024000 
  827000   0.86328222   -4.0271228   -4.0271228   -2.7322021  0.028368879   -4.0271228    1.2949207      1024000 
  828000   0.86357958   -4.0253753   -4.0253753   -2.7300085  0.034844933   -4.0253753    1.2953667      1024000 
  829000   0.86497587   -4.0258168   -4.0258168   -2.7283557  0.033839502   -4.0258168    1.2974612      1024000 
  830000   0.86501871   -4.0247286   -4.0247286   -2.7272031  0.040033245   -4.0247286    1.2975254      1024000 
  831000    0.8639722    -4.021643    -4.021643   -2.7256873  0.043412292    -4.021643    1.2959557      1024000 
  832000   0.86514183   -4.0215853   -4.0215853   -2.7238751  0.042347197   -4.0215853    1.2977101      1024000 
  833000   0.86491963   -4.0197539   -4.0197539   -2.7223771  0.048536346   -4.0197539    1.2973768      1024000 
  834000    0.8647484   -4.0179152   -4.0179152   -2.7207953  0.037488981   -4.0179152      1.29712      1024000 
  835000   0.86474957   -4.0162299   -4.0162299   -2.7191082  0.040843889   -4.0162299    1.2971217      1024000 
  836000   0.86574445   -4.0159939   -4.0159939   -2.7173798  0.035583196   -4.0159939     1.298614      1024000 
  837000   0.86591355   -4.0154844   -4.0154844   -2.7166167  0.043830055   -4.0154844    1.2988677      1024000 
  838000    0.8668153   -4.0148914   -4.0148914   -2.7146711  0.040666778   -4.0148914    1.3002203      1024000 
  839000   0.86589036   -4.0119668   -4.0119668   -2.7131339  0.039570945   -4.0119668    1.2988329      1024000 
  840000   0.86650706   -4.0120824   -4.0120824   -2.7123244  0.038356022   -4.0120824     1.299758      1024000 
  841000   0.86620501   -4.0101377   -4.0101377   -2.7108328       0.0398   -4.0101377    1.2993049      1024000 
  842000   0.86618897   -4.0089108   -4.0089108     -2.70963  0.039275518   -4.0089108    1.2992808      1024000 
  843000   0.86676607   -4.0083268   -4.0083268   -2.7081804   0.04044587   -4.0083268    1.3001465      1024000 
  844000   0.86745249   -4.0074961   -4.0074961     -2.70632  0.038555833   -4.0074961    1.3011761      1024000 
  845000   0.86742688   -4.0062805   -4.0062805   -2.7051428  0.043012997   -4.0062805    1.3011377      1024000 
  846000   0.86691853   -4.0036811   -4.0036811   -2.7033059  0.040963583   -4.0036811    1.3003752      1024000 
  847000   0.86784057   -4.0027473   -4.0027473   -2.7009891  0.039092909   -4.0027473    1.3017582      1024000 
  848000   0.86795316   -4.0015845   -4.0015845   -2.6996574  0.033863497   -4.0015845    1.3019271      1024000 
  849000   0.86821961   -3.9999291   -3.9999291   -2.6976023  0.036674167   -3.9999291    1.3023268      1024000 
  850000   0.86884436   -3.9995158   -3.9995158   -2.6962519  0.038649344   -3.9995158    1.3032639      1024000 
  851000   0.86709318   -3.9954024   -3.9954024   -2.6947653   0.04369973   -3.9954024    1.3006371      1024000 
  852000   0.86865556   -3.9960065   -3.9960065   -2.6930258  0.041224852   -3.9960065    1.3029807      1024000 
  853000   0.87004914     -3.99623     -3.99623   -2.6911589  0.041397487     -3.99623    1.3050711      1024000 
  854000   0.86925059   -3.9938695   -3.9938695   -2.6899962  0.042261262   -3.9938695    1.3038732      1024000 
  855000   0.87088579   -3.9938152   -3.9938152   -2.6874891  0.040076953   -3.9938152     1.306326      1024000 
  856000   0.86927378   -3.9902296   -3.9902296   -2.6863215  0.048877365   -3.9902296     1.303908      1024000 
  857000   0.86946203    -3.989082    -3.989082   -2.6848917  0.044453785    -3.989082    1.3041904      1024000 
  858000   0.86994991   -3.9882459   -3.9882459   -2.6833237   0.04233812   -3.9882459    1.3049222      1024000 
  859000   0.87101916   -3.9879701   -3.9879701    -2.681444  0.042554832   -3.9879701    1.3065261      1024000 
  860000   0.87201372   -3.9874972   -3.9874972   -2.6794793  0.044501637   -3.9874972    1.3080179      1024000 
  861000   0.87225627   -3.9866956   -3.9866956   -2.6783139  0.046364054   -3.9866956    1.3083818      1024000 
  862000   0.87213844   -3.9856815   -3.9856815   -2.6774765  0.052116102   -3.9856815     1.308205      1024000 
  863000   0.87122924   -3.9827407   -3.9827407   -2.6758995  0.050622237   -3.9827407    1.3068412      1024000 
  864000   0.87333616    -3.984375    -3.984375   -2.6743734   0.04005139    -3.984375    1.3100016      1024000 
  865000   0.87114627   -3.9796765   -3.9796765   -2.6729598  0.044802542   -3.9796765    1.3067168      1024000 
  866000   0.87331383   -3.9814016   -3.9814016   -2.6714335  0.041741321   -3.9814016    1.3099681      1024000 
  867000   0.87261481   -3.9784411   -3.9784411   -2.6695216  0.043203585   -3.9784411    1.3089196      1024000 
  868000   0.87290034   -3.9776616   -3.9776616   -2.6683137  0.044393655   -3.9776616    1.3093479      1024000 
  869000   0.87335769   -3.9765952   -3.9765952   -2.6665613  0.044282646   -3.9765952    1.3100339      1024000 
  870000    0.8719297   -3.9731772   -3.9731772   -2.6652853   0.05104625   -3.9731772    1.3078919      1024000 
  871000   0.87370378   -3.9746288   -3.9746288   -2.6640758  0.042623933   -3.9746288     1.310553      1024000 
  872000   0.87427077   -3.9734086   -3.9734086   -2.6620051  0.043477191   -3.9734086    1.3114035      1024000 
  873000   0.87396223    -3.971466    -3.971466   -2.6605253  0.046221496    -3.971466    1.3109407      1024000 
  874000   0.87561317   -3.9718538   -3.9718538   -2.6584367  0.045101605   -3.9718538    1.3134171      1024000 
  875000   0.87470806   -3.9690732   -3.9690732   -2.6570138  0.046495686   -3.9690732    1.3120594      1024000 
  876000   0.87425685   -3.9672556   -3.9672556   -2.6558729  0.050680334   -3.9672556    1.3113826      1024000 
  877000   0.87369124   -3.9653183   -3.9653183   -2.6547841  0.051493661   -3.9653183    1.3105342      1024000 
  878000   0.87665318   -3.9678883   -3.9678883   -2.6529112  0.049254547   -3.9678883    1.3149771      1024000 
  879000   0.87637464   -3.9659634   -3.9659634   -2.6514041  0.043951595   -3.9659634    1.3145593      1024000 
  880000   0.87702454    -3.964892    -3.964892   -2.6493578  0.048518493    -3.964892    1.3155341      1024000 
  881000   0.87580048   -3.9620359   -3.9620359   -2.6483378   0.05211201   -3.9620359    1.3136981      1024000 
  882000    0.8783168   -3.9644132   -3.9644132   -2.6469407  0.050171669   -3.9644132    1.3174725      1024000 
  883000   0.87879236   -3.9636848   -3.9636848   -2.6454989  0.048278202   -3.9636848    1.3181859      1024000 
  884000   0.87899374   -3.9622878   -3.9622878   -2.6437998  0.050666606   -3.9622878    1.3184879      1024000 
  885000   0.87804261    -3.959583    -3.959583   -2.6425217  0.054768416    -3.959583    1.3170612      1024000 
  886000    0.8788313   -3.9591666   -3.9591666   -2.6409223  0.048623811   -3.9591666    1.3182443      1024000 
  887000   0.87905016   -3.9576744   -3.9576744   -2.6391019  0.052184831   -3.9576744    1.3185726      1024000 
  888000   0.87953953   -3.9574917   -3.9574917   -2.6381851  0.052929594   -3.9574917    1.3193066      1024000 
  889000   0.87937192   -3.9554686   -3.9554686   -2.6364134  0.058194993   -3.9554686    1.3190552      1024000 
  890000   0.88125468   -3.9565376   -3.9565376   -2.6346582  0.055094808   -3.9565376    1.3218793      1024000 
  891000   0.88117502   -3.9549414   -3.9549414   -2.6331815  0.054210587   -3.9549414    1.3217599      1024000 
  892000   0.88123184   -3.9536698   -3.9536698   -2.6318247  0.056019139   -3.9536698    1.3218451      1024000 
  893000   0.88074386   -3.9515186   -3.9515186   -2.6304055  0.053979457   -3.9515186    1.3211131      1024000 
  894000   0.87993359   -3.9494618   -3.9494618   -2.6295641  0.055202813   -3.9494618    1.3198977      1024000 
  895000   0.87944251   -3.9471845   -3.9471845   -2.6280234  0.055897176   -3.9471845    1.3191611      1024000 
  896000   0.88135531   -3.9495674   -3.9495674   -2.6275371  0.046077493   -3.9495674    1.3220303      1024000 
  897000   0.88040903   -3.9467966   -3.9467966   -2.6261857  0.053324136   -3.9467966    1.3206109      1024000 
  898000   0.88024029   -3.9449489   -3.9449489   -2.6245911  0.052402707   -3.9449489    1.3203578      1024000 
  899000   0.88150195    -3.945408    -3.945408   -2.6231578   0.04717652    -3.945408    1.3222502      1024000 
  900000    0.8812372   -3.9435513   -3.9435513   -2.6216982  0.053178577   -3.9435513    1.3218531      1024000 
  901000   0.88125051    -3.941938    -3.941938    -2.620065  0.055344355    -3.941938    1.3218731      1024000 
  902000   0.88188384   -3.9418636   -3.9418636   -2.6190406  0.054612045   -3.9418636    1.3228231      1024000 
  903000   0.88220885   -3.9409421   -3.9409421   -2.6176315   0.05498206   -3.9409421    1.3233106      1024000 
  904000   0.88339586   -3.9414114   -3.9414114   -2.6163203  0.054101187   -3.9414114    1.3250911      1024000 
  905000   0.88413789   -3.9408928   -3.9408928   -2.6146886   0.05671513   -3.9408928    1.3262041      1024000 
  906000   0.88520722   -3.9410955   -3.9410955   -2.6132874  0.059107303   -3.9410955    1.3278081      1024000 
  907000    0.8845087   -3.9386018   -3.9386018   -2.6118415   0.05871466   -3.9386018    1.3267604      1024000 
  908000   0.88549008   -3.9389613   -3.9389613   -2.6107289  0.059035854   -3.9389613    1.3282324      1024000 
  909000   0.88598895   -3.9383324   -3.9383324   -2.6093517  0.060638141   -3.9383324    1.3289807      1024000 
  910000   0.88708308   -3.9386907   -3.9386907   -2.6080688  0.060184957   -3.9386907    1.3306219      1024000 
  911000   0.88728389   -3.9379236   -3.9379236   -2.6070004  0.061270068   -3.9379236    1.3309231      1024000 
  912000   0.88682821    -3.936023    -3.936023   -2.6057834  0.064147582    -3.936023    1.3302396      1024000 
  913000   0.88710549   -3.9358147   -3.9358147   -2.6051592  0.064534316   -3.9358147    1.3306555      1024000 
  914000   0.88784355   -3.9359259   -3.9359259   -2.6041633  0.062692045   -3.9359259    1.3317626      1024000 
  915000   0.88783115   -3.9350505   -3.9350505   -2.6033065  0.063381361   -3.9350505     1.331744      1024000 
  916000   0.88939331     -3.93552     -3.93552   -2.6014327  0.055077993     -3.93552    1.3340873      1024000 
  917000   0.89005019   -3.9355779   -3.9355779   -2.6005053  0.056327466   -3.9355779    1.3350726      1024000 
  918000   0.88824843   -3.9321363   -3.9321363   -2.5997664  0.067648386   -3.9321363    1.3323699      1024000 
  919000   0.88942939   -3.9329361   -3.9329361   -2.5987947  0.066291809   -3.9329361    1.3341414      1024000 
  920000   0.89153049   -3.9349805   -3.9349805   -2.5976875  0.072332841   -3.9349805     1.337293      1024000 
  921000   0.89646718   -3.9407899   -3.9407899   -2.5960919  0.083381943   -3.9407899     1.344698      1024000 
  922000   0.90236349     -3.94807     -3.94807   -2.5945275   0.10398228     -3.94807    1.3535425      1024000 
  923000   0.90588986   -3.9521108   -3.9521108   -2.5932788   0.14324389   -3.9521108     1.358832      1024000 
  924000   0.91397301   -3.9637683   -3.9637683   -2.5928116   0.17695109   -3.9637683    1.3709567      1024000 
  925000   0.92237836   -3.9755858   -3.9755858   -2.5920211   0.21612506   -3.9755858    1.3835647      1024000 
  926000   0.93050977    -3.987053    -3.987053   -2.5912912   0.25807444    -3.987053    1.3957618      1024000 
  927000    0.9382706   -3.9978493   -3.9978493   -2.5904463   0.29855907   -3.9978493     1.407403      1024000 
  928000   0.94686144   -4.0098393   -4.0098393     -2.58955   0.32827066   -4.0098393    1.4202893      1024000 
  929000   0.95344403   -4.0187615   -4.0187615   -2.5885984   0.35797405   -4.0187615    1.4301631      1024000 
  930000   0.95981129   -4.0277041   -4.0277041   -2.5879901   0.37209078   -4.0277041     1.439714      1024000 
  931000   0.96170105   -4.0298193   -4.0298193   -2.5872707   0.38023377   -4.0298193    1.4425487      1024000 
  932000   0.96093387   -4.0278805   -4.0278805   -2.5864826    0.3684433   -4.0278805    1.4413979      1024000 
  933000    0.9562225   -4.0198668   -4.0198668    -2.585536   0.34374663   -4.0198668    1.4343308      1024000 
  934000   0.94810745   -4.0069777   -4.0069777   -2.5848194   0.31816192   -4.0069777    1.4221583      1024000 
  935000   0.94218684   -3.9967756   -3.9967756   -2.5834982   0.27361993   -3.9967756    1.4132774      1024000 
  936000   0.93318706   -3.9824265   -3.9824265   -2.5826488   0.22873405   -3.9824265    1.3997777      1024000 
  937000   0.92412396   -3.9675364   -3.9675364   -2.5813533   0.19615632   -3.9675364    1.3861831      1024000 
  938000   0.91587755   -3.9550154   -3.9550154   -2.5812019   0.15005845   -3.9550154    1.3738135      1024000 
  939000    0.9083578   -3.9427553   -3.9427553   -2.5802214   0.11530659   -3.9427553    1.3625339      1024000 
  940000   0.90063593   -3.9311793   -3.9311793   -2.5802282  0.089652519   -3.9311793    1.3509512      1024000 
  941000   0.89492069   -3.9217178   -3.9217178   -2.5793395   0.06151509   -3.9217178    1.3423783      1024000 
  942000   0.89084258   -3.9148862   -3.9148862   -2.5786251  0.044003754   -3.9148862    1.3362612      1024000 
  943000   0.88811578   -3.9102048   -3.9102048   -2.5780339  0.031709487   -3.9102048     1.332171      1024000 
  944000   0.88607579   -3.9068449   -3.9068449   -2.5777339  0.028393569   -3.9068449     1.329111      1024000 
  945000   0.88446924   -3.9044412   -3.9044412     -2.57774  0.022687648   -3.9044412    1.3267012      1024000 
  946000   0.88612334   -3.9066402   -3.9066402   -2.5774578  0.026223442   -3.9066402    1.3291823      1024000 
  947000   0.88516268   -3.9057588   -3.9057588   -2.5780175  0.028606652   -3.9057588    1.3277413      1024000 
  948000   0.88820564   -3.9103588   -3.9103588   -2.5780531  0.030937868   -3.9103588    1.3323058      1024000 
  949000   0.88947586   -3.9125211   -3.9125211   -2.5783101  0.046601778   -3.9125211    1.3342111      1024000 
  950000   0.89118507   -3.9156814   -3.9156814   -2.5789065  0.051815586   -3.9156814    1.3367749      1024000 
  951000   0.89400543   -3.9203709   -3.9203709   -2.5793655   0.05945994   -3.9203709    1.3410054      1024000 
  952000   0.89460263   -3.9216406   -3.9216406   -2.5797393  0.070241601   -3.9216406    1.3419012      1024000 
  953000    0.8971886   -3.9258223   -3.9258223   -2.5800422  0.075636881   -3.9258223    1.3457802      1024000 
  954000   0.89845725   -3.9287703   -3.9287703   -2.5810871   0.07424216   -3.9287703    1.3476831      1024000 
  955000   0.89778534   -3.9282429   -3.9282429   -2.5815677  0.087034564   -3.9282429    1.3466753      1024000 
  956000   0.89963026   -3.9310751   -3.9310751   -2.5816325  0.079064598   -3.9310751    1.3494426      1024000 
  957000   0.89821657   -3.9295686   -3.9295686   -2.5822464  0.080030924   -3.9295686    1.3473221      1024000 
  958000    0.8977855   -3.9296051   -3.9296051   -2.5829296  0.072352277   -3.9296051    1.3466755      1024000 
  959000    0.8960387   -3.9268531   -3.9268531   -2.5827978  0.072882853   -3.9268531    1.3440553      1024000 
  960000   0.89337552    -3.922895    -3.922895   -2.5828345  0.064558432    -3.922895    1.3400606      1024000 
  961000   0.89235378     -3.92162     -3.92162    -2.583092  0.062334314     -3.92162     1.338528      1024000 
  962000   0.88976071   -3.9178219   -3.9178219   -2.5831835  0.048299407   -3.9178219    1.3346384      1024000 
  963000   0.88687725   -3.9142091   -3.9142091   -2.5838959  0.046883588   -3.9142091    1.3303132      1024000 
  964000   0.88469088   -3.9108765   -3.9108765   -2.5838429   0.04493734   -3.9108765    1.3270336      1024000 
  965000   0.88494266   -3.9113397   -3.9113397   -2.5839284  0.030473652   -3.9113397    1.3274113      1024000 
  966000   0.88343632   -3.9088587   -3.9088587   -2.5837069  0.034772256   -3.9088587    1.3251518      1024000 
  967000   0.88281638    -3.908275    -3.908275   -2.5840531  0.032191164    -3.908275    1.3242219      1024000 
  968000   0.88457903   -3.9109499   -3.9109499    -2.584084  0.031615315   -3.9109499    1.3268659      1024000 
  969000   0.88511476   -3.9121689   -3.9121689   -2.5844995  0.033862522   -3.9121689    1.3276694      1024000 
  970000   0.88598194   -3.9131098   -3.9131098   -2.5841396  0.044728957   -3.9131098    1.3289702      1024000 
  971000   0.88678329   -3.9144284   -3.9144284   -2.5842562  0.054394483   -3.9144284    1.3301722      1024000 
  972000    0.8886504    -3.917367    -3.917367   -2.5843941  0.051835063    -3.917367    1.3329729      1024000 
  973000   0.89108015   -3.9212717   -3.9212717   -2.5846542  0.060068363   -3.9212717    1.3366175      1024000 
  974000   0.89304218   -3.9241482   -3.9241482   -2.5845877   0.06154441   -3.9241482    1.3395606      1024000 
  975000   0.89353257   -3.9252053   -3.9252053   -2.5849092  0.073139932   -3.9252053    1.3402961      1024000 
  976000   0.89277362   -3.9246539   -3.9246539   -2.5854961  0.080134089   -3.9246539    1.3391577      1024000 
  977000   0.89556587    -3.929222    -3.929222   -2.5858759  0.077686219    -3.929222    1.3433461      1024000 
  978000   0.89426986   -3.9274597   -3.9274597   -2.5860576  0.080504925   -3.9274597    1.3414021      1024000 
  979000   0.89356537   -3.9266992   -3.9266992   -2.5863539  0.076375227   -3.9266992    1.3403453      1024000 
  980000    0.8936956   -3.9264243   -3.9264243   -2.5858836  0.072002526   -3.9264243    1.3405407      1024000 
  981000   0.89259539   -3.9250091   -3.9250091   -2.5861187  0.070792168   -3.9250091    1.3388904      1024000 
  982000   0.89013033   -3.9216612   -3.9216612   -2.5864684  0.060262497   -3.9216612    1.3351928      1024000 
  983000   0.89029021   -3.9218786   -3.9218786    -2.586446  0.060712551   -3.9218786    1.3354326      1024000 
  984000   0.88896887   -3.9193016   -3.9193016    -2.585851  0.050365499   -3.9193016    1.3334506      1024000 
  985000   0.88645502   -3.9153391   -3.9153391   -2.5856593  0.049974242   -3.9153391    1.3296798      1024000 
  986000   0.88527535    -3.913901    -3.913901   -2.5859907  0.046341462    -3.913901    1.3279103      1024000 
  987000   0.88578094   -3.9144003   -3.9144003   -2.5857316  0.038221169   -3.9144003    1.3286687      1024000 
  988000   0.88483711   -3.9131992   -3.9131992   -2.5859462   0.03834057   -3.9131992     1.327253      1024000 
  989000   0.88290877   -3.9104809   -3.9104809   -2.5861204   0.04163646   -3.9104809    1.3243605      1024000 
  990000   0.88341061   -3.9116509   -3.9116509   -2.5865377  0.037188679   -3.9116509    1.3251132      1024000 
  991000   0.88284077   -3.9109526   -3.9109526   -2.5866942  0.041559911   -3.9109526    1.3242585      1024000 
  992000   0.88504719   -3.9140113   -3.9140113   -2.5864432  0.043860773   -3.9140113    1.3275681      1024000 
  993000   0.88691053   -3.9171837   -3.9171837   -2.5868206    0.0436924   -3.9171837    1.3303631      1024000 
  994000   0.88677514   -3.9166878   -3.9166878   -2.5865278  0.048608837   -3.9166878      1.33016      1024000 
  995000   0.88800301   -3.9181059   -3.9181059   -2.5861041  0.052680595   -3.9181059    1.3320018      1024000 
  996000   0.88901191   -3.9196292   -3.9196292   -2.5861141  0.059481996   -3.9196292    1.3335152      1024000 
  997000   0.88957531   -3.9201614   -3.9201614   -2.5858011  0.066293765   -3.9201614    1.3343603      1024000 
  998000   0.89137621   -3.9230929   -3.9230929   -2.5860313  0.065766465   -3.9230929    1.3370616      1024000 
  999000   0.89088238   -3.9217872   -3.9217872   -2.5854663  0.070624602   -3.9217872    1.3363209      1024000 
 1000000   0.89252192   -3.9242102   -3.9242102     -2.58543  0.065547737   -3.9242102    1.3387802      1024000 
Loop time of 7562.73 on 32 procs for 1000000 steps with 492800 atoms

Performance: 28561.107 tau/day, 132.227 timesteps/s
99.7% CPU use with 32 MPI tasks x 1 OpenMP threads

MPI task timing breakdown:
Section |  min time  |  avg time  |  max time  |%varavg|  %CPU | %total
-----------------------------------------------------------------------
Pair    | 4106.5     | 4794.4     | 5146.5     | 486.8 |  99.7 | 63.40
Bond    | 0.62936    | 0.64813    | 0.67991    |   1.4 | 100.0 |  0.01
Neigh   | 1082.6     | 1234.3     | 1311.9     | 198.7 |  99.8 | 16.32
Comm    | 723.31     | 1051.9     | 1907.4     |1087.2 |  99.5 | 13.91
Output  | 22.466     | 22.651     | 22.659     |   0.7 |  98.3 |  0.30
Modify  | 151.66     | 243.02     | 643.3      |1041.5 |  99.2 |  3.21
Other   |            | 215.8      |            |       |       |  2.85

Nlocal:        15400.0 ave       16650 max       13413 min
Histogram: 1 0 0 0 2 5 21 1 1 1
Nghost:        12090.6 ave       13608 max        8030 min
Histogram: 3 3 2 0 0 0 0 4 4 16
Neighs:        497096.0 ave      560834 max      214081 min
Histogram: 1 1 1 1 0 0 0 4 8 16

Total # of neighbors = 15907064
Ave neighs/atom = 32.278945
Ave special neighs/atom = 0.0000000
Neighbor list builds = 61294
Dangerous builds = 130
Total wall time: 2:06:03
