LAMMPS (24 Dec 2020)
OMP_NUM_THREADS environment is not set. Defaulting to 1 thread. (src/comm.cpp:94)
  using 1 OpenMP thread(s) per MPI task
# Simple rigid body system
# needed variables: startTemp, temp

units		lj
atom_style	full
dimension 	3
boundary	p p f
pair_style	lj/cut/opt 2.5

variable 	gcmcdisplace	equal 0
variable 	sigma		equal 1.0
variable 	epsilon 	equal 1.0


read_restart	restart.dat.3000000
Reading restart file ...
  restart file = 24 Dec 2020, LAMMPS = 24 Dec 2020
WARNING: Restart file used different # of processors: 48 vs. 192 (src/read_restart.cpp:697)
  restoring atom style full from restart
  orthogonal box = (0.0000000 0.0000000 0.0000000) to (80.000000 80.000000 160.00000)
  6 by 4 by 8 MPI processor grid
  restoring pair style lj/cut/opt from restart
  439061 atoms
Finding 1-2 1-3 1-4 neighbors ...
  special bond factors lj:    0        0        0       
  special bond factors coul:  0        0        0       
     0 = max # of 1-2 neighbors
     0 = max # of 1-3 neighbors
     0 = max # of 1-4 neighbors
     1 = max # of special neighbors
  special bonds CPU = 1.408 seconds
  read_restart CPU = 1.708 seconds

mass		1 1.0
mass		2 1.0
mass		3 1.0


group		solvent type 1
439061 atoms in group solvent


neighbor 	0.4 bin

pair_coeff	1 1 1.0 1.0
pair_coeff	2 2 0.0 0.0
pair_coeff	3 3 0.0 0.0
pair_coeff	2 3 0.0 0.0
pair_coeff	1 2*3 0.0 0.0

pair_modify 	shift yes


balance 	1.05 shift z 10 1.05
Balancing ...
Neighbor list info ...
  update every 1 steps, delay 10 steps, check yes
  max neighbors/atom: 2000, page size: 100000
  master list distance cutoff = 2.9
  ghost atom cutoff = 2.9
  binsize = 1.45, bins = 56 56 111
  1 neighbor lists, perpetual/occasional/extra = 1 0 0
  (1) pair lj/cut/opt, perpetual
      attributes: half, newton on
      pair build: half/bin/newton
      stencil: half/bin/3d/newton
      bin: standard
 rebalancing time: 0.023 seconds
  iteration count = 5
  initial/final maximal load/proc = 3162.0000 2575.0000
  initial/final imbalance factor  = 1.3827327 1.1260394
  x cuts: 0.0000000 0.16666667 0.33333333 0.50000000 0.66666667 0.83333333 1.0000000
  y cuts: 0.0000000 0.25000000 0.50000000 0.75000000 1.0000000
  z cuts: 0.0000000 0.097656250 0.18359375 0.27734375 0.37890625 0.47656250 0.57031250 0.67968750 1.0000000


####################### WALLS ###########################


variable       epsilonWall equal 2*${epsilon}
variable       epsilonWall equal 2*1

variable       cutoffTop   equal   0.7147*${sigma}
variable       cutoffTop   equal   0.7147*1

variable       cutoffLow   equal   3*${sigma}
variable       cutoffLow   equal   3*1


fix            topWall all wall/lj93 zhi EDGE                ${epsilonWall} ${sigma} ${cutoffTop} units box
fix            topWall all wall/lj93 zhi EDGE                2 ${sigma} ${cutoffTop} units box
fix            topWall all wall/lj93 zhi EDGE                2 1 ${cutoffTop} units box
fix            topWall all wall/lj93 zhi EDGE                2 1 0.7147 units box

fix            lowWall all wall/lj93 zlo EDGE                ${epsilonWall} ${sigma} ${cutoffLow} units box
fix            lowWall all wall/lj93 zlo EDGE                2 ${sigma} ${cutoffLow} units box
fix            lowWall all wall/lj93 zlo EDGE                2 1 ${cutoffLow} units box
fix            lowWall all wall/lj93 zlo EDGE                2 1 3 units box


###################### COMPUTES ##########################

compute        bin1 solvent chunk/atom bin/1d z upper 1.0



######################	FIXES ############################


fix 		peclet solvent ave/chunk 1000 1 1000 bin1 density/number norm 		 none ave one file density.profile

fix 		 temp solvent ave/chunk 1000 1 1000 bin1 temp norm none ave one file temp.profile

fix 		2 solvent nve

## Thermostat


region		regthermo block EDGE EDGE EDGE EDGE 0 20

group 		thermo dynamic solvent region regthermo every 1000
dynamic group thermo defined

fix 		3 thermo langevin ${startTemp} ${temp} 10 156453
fix 		3 thermo langevin 1.0 ${temp} 10 156453
fix 		3 thermo langevin 1.0 1.0 10 156453


## Evaporation

region		regevap block EDGE EDGE EDGE EDGE 140 158
#fix 		gcmc solvent gcmc 100 100 0 1 780493 ${temp} ${mu} ${gcmcdisplace} region regevap
fix 		evap solvent evaporate ${evap} 1 regevap 4379103
fix 		evap solvent evaporate 125 1 regevap 4379103

#### Load balancing

fix 		bal all balance 1000 1.05 shift z 10 1.05

############### Diagnostics and computes ###################
#compute 	com cube	  rigid/local	1 mol x y z
#compute 	quat cube	  rigid/local	1 mol quatw quati quatj quatk

thermo 		1000
thermo_style 	custom step temp epair etotal press pe ke atoms

dump		1 all custom 100000 dump.lammpstrj id mol type x y z
dump 		2 all image 10000 image.*.png type type
dump 		3 all movie 1000 movie.avi type type
#dump 		com cube local 1000 dump.*.xyz c_com[*]
#dump		quat cube      local 1000 dump.*.quat c_quat[*]


restart 	1000000 restart.dat
timestep 	0.005
timer 		full
New timer settings: style=full  mode=nosync  timeout=off


run		5000000
Per MPI rank memory allocation (min/avg/max) = 9.923 | 9.986 | 10.01 Mbytes
Step Temp E_pair TotEng Press PotEng KinEng Atoms 
 3000000     1.016004   -3.1352716   -1.6112691  0.079025997   -3.1352716    1.5240025   439061 
 3001000    1.0160271   -3.1343189   -1.6102539  0.076385665   -3.1343189     1.524065   439053 
 3002000     1.015506   -3.1356059   -1.6122949  0.074432934   -3.1356059    1.5233111   439045 
 3003000     1.013686     -3.13287   -1.6122615  0.083067265     -3.13287    1.5206086   439037 
 3004000     1.015703   -3.1365914   -1.6129292   0.07695403   -3.1365914    1.5236621   439029 
 3005000     1.015377   -3.1359195   -1.6127187  0.075007731   -3.1359195    1.5232008   439021 
 3006000    1.0132519   -3.1332369   -1.6131963  0.078285981   -3.1332369    1.5200406   439013 
 3007000    1.0141877   -3.1344604   -1.6129883  0.077462762   -3.1344604    1.5214722   439005 
 3008000    1.0127089   -3.1332762   -1.6139948  0.070539847   -3.1332762    1.5192814   438997 
 3009000    1.0133155   -3.1341792   -1.6139601  0.071693147   -3.1341792     1.520219   438989 
 3010000    1.0125796   -3.1319815   -1.6128387  0.075666114   -3.1319815    1.5191428   438981 
 3011000     1.014852   -3.1356835   -1.6131039  0.071425348   -3.1356835    1.5225796   438973 
 3012000    1.0143265   -3.1352167   -1.6133977   0.07391401   -3.1352167     1.521819   438965 
 3013000    1.0139002   -3.1366117   -1.6154046  0.070830893   -3.1366117    1.5212071   438957 
 3014000    1.0154451   -3.1374376   -1.6138848  0.078013287   -3.1374376    1.5235528   438949 
 3015000    1.0150242   -3.1394413   -1.6164922  0.076932475   -3.1394413    1.5229491   438941 
 3016000    1.0144983   -3.1384921   -1.6163042  0.072771985   -3.1384921    1.5221878   438933 
 3017000     1.014121   -3.1368514   -1.6152019  0.072371575   -3.1368514    1.5216494   438925 
 3018000    1.0137719   -3.1370862   -1.6159329  0.074312565   -3.1370862    1.5211533   438917 
 3019000     1.015852   -3.1383837   -1.6140814  0.077657473   -3.1383837    1.5243023   438909 
 3020000    1.0167629   -3.1393422   -1.6136454  0.076807594   -3.1393422    1.5256968   438901 
 3021000    1.0156826   -3.1398085   -1.6157049  0.075386754   -3.1398085    1.5241036   438893 
 3022000    1.0172489   -3.1429335   -1.6164518  0.077716829   -3.1429335    1.5264817   438885 
 3023000     1.016107     -3.14064    -1.615844  0.078822171     -3.14064     1.524796   438877 
 3024000    1.0169255   -3.1418001    -1.615748  0.083326514   -3.1418001    1.5260521   438869 
 3025000    1.0151937   -3.1405358   -1.6170547   0.07644769   -3.1405358     1.523481   438861 
 3026000    1.0153351   -3.1389502   -1.6152291  0.079458279   -3.1389502    1.5237211   438853 
 3027000    1.0152025   -3.1378804   -1.6143307  0.081542204   -3.1378804    1.5235497   438845 
 3028000    1.0152672   -3.1380266   -1.6143519  0.078638657   -3.1380266    1.5236747   438837 
 3029000     1.015246   -3.1403991   -1.6167284  0.075398736   -3.1403991    1.5236707   438829 
 3030000    1.0145271   -3.1397825    -1.617163  0.076274322   -3.1397825    1.5226195   438821 
 3031000    1.0136058   -3.1394307   -1.6181662  0.075445775   -3.1394307    1.5212645   438813 
 3032000     1.013583   -3.1403967   -1.6191386  0.076242369   -3.1403967    1.5212581   438805 
 3033000    1.0148215   -3.1400834   -1.6169388  0.076229419   -3.1400834    1.5231446   438797 
 3034000    1.0137649   -3.1387742   -1.6171878  0.074752253   -3.1387742    1.5215865   438789 
 3035000    1.0145523   -3.1403171   -1.6175211  0.072590396   -3.1403171     1.522796   438781 
 3036000     1.012411   -3.1368955   -1.6172857  0.073914363   -3.1368955    1.5196098   438773 
 3037000    1.0122705   -3.1357037    -1.616277  0.078693553   -3.1357037    1.5194267   438765 
 3038000    1.0156781   -3.1402314   -1.6156622  0.072205049   -3.1402314    1.5245692   438757 
 3039000     1.015115   -3.1400151   -1.6162632  0.072084448   -3.1400151    1.5237519   438749 
 3040000    1.0156334   -3.1405666   -1.6160088  0.073364537   -3.1405666    1.5245578   438741 
 3041000    1.0130365   -3.1378648   -1.6171774  0.080666463   -3.1378648    1.5206874   438733 
 3042000    1.0138371    -3.138985   -1.6170682  0.078207514    -3.138985    1.5219168   438725 
 3043000    1.0140816   -3.1398033   -1.6174917   0.07807471   -3.1398033    1.5223116   438717 
 3044000    1.0139789   -3.1400109   -1.6178257  0.077423252   -3.1400109    1.5221852   438709 
 3045000    1.0149549   -3.1415224   -1.6178442  0.073213729   -3.1415224    1.5236782   438701 
 3046000    1.0140602   -3.1407751   -1.6184122  0.079808501   -3.1407751    1.5223629   438693 
 3047000    1.0129175   -3.1410265   -1.6203514  0.079086598   -3.1410265    1.5206751   438685 
 3048000    1.0143005   -3.1415338   -1.6187546  0.070578901   -3.1415338    1.5227791   438677 
 3049000    1.0150497   -3.1404423   -1.6165106  0.074815472   -3.1404423    1.5239317   438669 
 3050000    1.0135367   -3.1391618   -1.6174739  0.079880487   -3.1391618    1.5216878   438661 
 3051000    1.0138485   -3.1397148   -1.6175311  0.072868112   -3.1397148    1.5221837   438653 
 3052000    1.0149624   -3.1413205   -1.6174366  0.071355256   -3.1413205    1.5238839   438645 
 3053000    1.0146933   -3.1408971   -1.6173894  0.075784171   -3.1408971    1.5235077   438637 
 3054000    1.0161746   -3.1428235   -1.6170638  0.076683471   -3.1428235    1.5257596   438629 
 3055000     1.015234   -3.1394575   -1.6150824  0.073784222   -3.1394575    1.5243751   438621 
 3056000    1.0155973   -3.1393153   -1.6143667  0.079079461   -3.1393153    1.5249485   438613 
 3057000    1.0151385   -3.1387836   -1.6144963  0.080757658   -3.1387836    1.5242873   438605 
 3058000    1.0149571   -3.1394204   -1.6153776  0.076395441   -3.1394204    1.5240428   438597 
 3059000    1.0162007   -3.1415291   -1.6155911  0.076743695   -3.1415291     1.525938   438589 
 3060000    1.0161472   -3.1426354   -1.6167499  0.074781929   -3.1426354    1.5258855   438581 
 3061000    1.0144915   -3.1390764   -1.6156494  0.077790635   -3.1390764     1.523427   438573 
 3062000    1.0150975   -3.1392906   -1.6149258   0.07859891   -3.1392906    1.5243648   438565 
 3063000    1.0144503   -3.1389319   -1.6155111  0.078956798   -3.1389319    1.5234208   438557 
 3064000    1.0140647   -3.1381612   -1.6152918  0.075612205   -3.1381612    1.5228694   438549 
 3065000    1.0122417   -3.1369437   -1.6167842  0.080282483   -3.1369437    1.5201595   438541 
 3066000    1.0142581   -3.1392977   -1.6160823  0.076657496   -3.1392977    1.5232154   438533 
 3067000    1.0135534   -3.1386137   -1.6164287  0.072917439   -3.1386137    1.5221849   438525 
 3068000     1.014075   -3.1394244   -1.6164284  0.072689112   -3.1394244     1.522996   438517 
 3069000    1.0132679   -3.1394512   -1.6176396  0.070968539   -3.1394512    1.5218116   438509 
 3070000    1.0116998   -3.1389384   -1.6194542  0.073265089   -3.1389384    1.5194842   438501 
 3071000    1.0106346     -3.13688    -1.618968  0.071580563     -3.13688    1.5179121   438493 
 3072000    1.0112135   -3.1382771   -1.6194679   0.07046813   -3.1382771    1.5188093   438485 
 3073000    1.0117713   -3.1384766   -1.6188017  0.068878255   -3.1384766    1.5196748   438477 
 3074000    1.0122618   -3.1384151   -1.6179759  0.073585868   -3.1384151    1.5204393   438469 
 3075000    1.0120005   -3.1379901   -1.6179155   0.06973028   -3.1379901    1.5200746   438461 
 3076000    1.0113658   -3.1375358   -1.6183869  0.074296789   -3.1375358    1.5191489   438453 
 3077000    1.0120252   -3.1394369   -1.6192699  0.071047576   -3.1394369    1.5201671   438445 
 3078000    1.0110679   -3.1377203   -1.6189635  0.073983508   -3.1377203    1.5187569   438437 
 3079000    1.0147403   -3.1432191    -1.618918  0.068563464   -3.1432191    1.5243011   438429 
 3080000    1.0128597   -3.1400559    -1.618552  0.075263773   -3.1400559    1.5215039   438421 
 3081000    1.0137261   -3.1410579   -1.6182247  0.074237068   -3.1410579    1.5228332   438413 
 3082000    1.0131736    -3.139634    -1.617603  0.079831833    -3.139634     1.522031   438405 
 3083000    1.0148266   -3.1418321   -1.6172901  0.077798573   -3.1418321     1.524542   438397 
 3084000    1.0149487   -3.1433625   -1.6186093  0.078994819   -3.1433625    1.5247533   438389 
 3085000    1.0158791   -3.1442959    -1.618117  0.079785998   -3.1442959    1.5261789   438381 
 3086000    1.0126295   -3.1414489   -1.6201242  0.081297866   -3.1414489    1.5213246   438373 
 3087000    1.0129734   -3.1422574   -1.6203883  0.077138418   -3.1422574    1.5218691   438365 
 3088000     1.013288   -3.1442589   -1.6218894  0.072952637   -3.1442589    1.5223695   438357 
 3089000    1.0123964   -3.1428253   -1.6217676  0.083196708   -3.1428253    1.5210577   438349 
 3090000    1.0146464   -3.1453885   -1.6209225  0.076050412   -3.1453885     1.524466   438341 
 3091000    1.0142979    -3.144072   -1.6201018  0.077840303    -3.144072    1.5239702   438333 
 3092000    1.0150131   -3.1462986   -1.6212259  0.077763666   -3.1462986    1.5250727   438325 
 3093000    1.0129576   -3.1437033   -1.6216913  0.078778826   -3.1437033     1.522012   438317 
 3094000     1.015878   -3.1479808   -1.6215529  0.071250582   -3.1479808    1.5264279   438309 
 3095000    1.0143118   -3.1451318   -1.6210295  0.073385004   -3.1451318    1.5241024   438301 
 3096000    1.0136706   -3.1451032   -1.6219365  0.076675271   -3.1451032    1.5231667   438293 
 3097000    1.0131013   -3.1443977   -1.6220586  0.080951033   -3.1443977    1.5223391   438285 
 3098000    1.0141409   -3.1455348   -1.6216058   0.07110973   -3.1455348     1.523929   438277 
 3099000    1.0128327    -3.143578    -1.621587  0.075591199    -3.143578    1.5219911   438269 
 3100000    1.0146794      -3.1455    -1.620706  0.078995803      -3.1455     1.524794   438261 
 3101000    1.0121385   -3.1421293    -1.621126  0.078057323   -3.1421293    1.5210033   438253 
 3102000    1.0107192   -3.1411933   -1.6222951  0.075817124   -3.1411933    1.5188983   438245 
 3103000    1.0121779   -3.1431198   -1.6220017  0.071222045   -3.1431198    1.5211181   438237 
 3104000    1.0108897   -3.1400183   -1.6208085    0.0793513   -3.1400183    1.5192099   438229 
 3105000    1.0130423   -3.1428438   -1.6203711  0.074614432   -3.1428438    1.5224727   438221 
 3106000    1.0109001   -3.1408502   -1.6215692  0.069958157   -3.1408502    1.5192811   438213 
 3107000    1.0122697   -3.1421276   -1.6207604  0.075019371   -3.1421276    1.5213672   438205 
 3108000    1.0107157   -3.1403976   -1.6213382  0.075979341   -3.1403976    1.5190594   438197 
 3109000     1.012755   -3.1427292   -1.6205771  0.075634326   -3.1427292    1.5221521   438189 
 3110000    1.0135257   -3.1427328   -1.6193945  0.071928215   -3.1427328    1.5233383   438181 
 3111000    1.0120089   -3.1400636   -1.6189773  0.073796965   -3.1400636    1.5210863   438173 
 3112000    1.0133922   -3.1425104   -1.6193172  0.077120887   -3.1425104    1.5231932   438165 
 3113000    1.0136747   -3.1440279   -1.6203823  0.070934926   -3.1440279    1.5236456   438157 
 3114000    1.0126881   -3.1419058   -1.6197153  0.075477043   -3.1419058    1.5221905   438149 
 3115000    1.0131462   -3.1425573   -1.6196504  0.073212829   -3.1425573    1.5229069   438141 
 3116000    1.0122888   -3.1431008   -1.6214548  0.070602035   -3.1431008     1.521646   438133 
 3117000    1.0122719   -3.1432091   -1.6215609  0.077119634   -3.1432091    1.5216483   438125 
 3118000    1.0125644   -3.1428388   -1.6207231  0.068404717   -3.1428388    1.5221157   438117 
 3119000    1.0125422   -3.1421345   -1.6200243  0.076591374   -3.1421345    1.5221102   438109 
 3120000    1.0115644   -3.1398997   -1.6192316  0.075131537   -3.1398997    1.5206681   438101 
 3121000    1.0119151   -3.1408488   -1.6196258  0.073900331   -3.1408488     1.521223   438093 
 3122000     1.012395   -3.1430649   -1.6210926  0.073944039   -3.1430649    1.5219723   438085 
 3123000    1.0121152   -3.1432271   -1.6216478  0.074092814   -3.1432271    1.5215794   438077 
 3124000    1.0104945   -3.1417691   -1.6225984  0.079752883   -3.1417691    1.5191707   438069 
 3125000    1.0123939   -3.1436992   -1.6216451  0.077203564   -3.1436992     1.522054   438061 
 3126000    1.0124033   -3.1428363   -1.6207404  0.078092669   -3.1428363    1.5220959   438053 
 3127000    1.0115607   -3.1422353   -1.6213784  0.074706511   -3.1422353    1.5208569   438045 
 3128000    1.0115968   -3.1431293   -1.6221904  0.078429201   -3.1431293    1.5209389   438037 
 3129000    1.0110228   -3.1420537     -1.62195  0.072362866   -3.1420537    1.5201037   438029 
 3130000    1.0124275   -3.1449184   -1.6226749  0.073300782   -3.1449184    1.5222435   438021 
 3131000     1.013193   -3.1457939   -1.6223717  0.069801513   -3.1457939    1.5234223   438013 
 3132000    1.0127386   -3.1457668   -1.6229999  0.072404411   -3.1457668    1.5227669   438005 
 3133000    1.0125447   -3.1448505   -1.6223473   0.07338255   -3.1448505    1.5225031   437997 
 3134000     1.011534   -3.1442553   -1.6232441  0.074331813   -3.1442553    1.5210111   437989 
 3135000    1.0124708   -3.1469514   -1.6245038  0.073056803   -3.1469514    1.5224477   437981 
 3136000    1.0137572    -3.148334   -1.6239241  0.074148295    -3.148334    1.5244099   437973 
 3137000    1.0143073   -3.1462858   -1.6210208   0.07860126   -3.1462858     1.525265   437965 
 3138000    1.0133905   -3.1458783   -1.6219642  0.078950983   -3.1458783    1.5239141   437957 
 3139000    1.0128228   -3.1459866   -1.6228983  0.082171674   -3.1459866    1.5230882   437949 
 3140000    1.0143527   -3.1480569   -1.6226401  0.075953818   -3.1480569    1.5254168   437941 
 3141000    1.0153463   -3.1492616   -1.6223228  0.078909382   -3.1492616    1.5269388   437933 
 3142000    1.0135165   -3.1474227   -1.6232077  0.081107654   -3.1474227     1.524215   437925 
 3143000     1.013309   -3.1470462   -1.6231155  0.079092541   -3.1470462    1.5239307   437917 
 3144000    1.0124848   -3.1456162   -1.6228972  0.080925025   -3.1456162     1.522719   437909 
 3145000    1.0122319   -3.1458833   -1.6235169  0.074676592   -3.1458833    1.5223664   437901 
 3146000    1.0119534   -3.1468711   -1.6248957  0.074152544   -3.1468711    1.5219754   437893 
 3147000     1.011667   -3.1472531   -1.6256806  0.071818412   -3.1472531    1.5215726   437885 
 3148000    1.0100743   -3.1441137   -1.6249089  0.073633285   -3.1441137    1.5192047   437877 
 3149000    1.0117023   -3.1480935   -1.6264122  0.074204198   -3.1480935    1.5216812   437869 
 3150000    1.0109164   -3.1463274   -1.6258004  0.071557925   -3.1463274     1.520527   437861 
 3151000    1.0099014   -3.1458024   -1.6267745  0.071940554   -3.1458024    1.5190279   437853 
 3152000    1.0122559   -3.1482318   -1.6256345  0.072711415   -3.1482318    1.5225973   437845 
 3153000    1.0112078   -3.1480271   -1.6269786   0.07046937   -3.1480271    1.5210485   437837 
 3154000    1.0107079   -3.1465353   -1.6262109  0.073996337   -3.1465353    1.5203244   437829 
 3155000    1.0106549   -3.1469309   -1.6266585  0.074334934   -3.1469309    1.5202724   437821 
 3156000     1.010444   -3.1466038   -1.6266208  0.073226494   -3.1466038     1.519983   437813 
 3157000     1.010741   -3.1479966    -1.627539  0.068823901   -3.1479966    1.5204576   437805 
 3158000    1.0096131   -3.1458865   -1.6270979   0.06628088   -3.1458865    1.5187886   437797 
 3159000    1.0084425   -3.1457559   -1.6287006  0.071023466   -3.1457559    1.5170554   437789 
 3160000    1.0106323   -3.1477641   -1.6273867   0.07136112   -3.1477641    1.5203774   437781 
 3161000    1.0106044   -3.1475523   -1.6271891  0.072705287   -3.1475523    1.5203633   437773 
 3162000     1.008856   -3.1461225   -1.6283618  0.075367599   -3.1461225    1.5177607   437765 
 3163000    1.0096611   -3.1461027   -1.6271031  0.075522057   -3.1461027    1.5189996   437757 
 3164000    1.0110099   -3.1481184   -1.6270617    0.0757317   -3.1481184    1.5210567   437749 
 3165000    1.0117067   -3.1500449   -1.6279122  0.074666419   -3.1500449    1.5221327   437741 
 3166000    1.0104309   -3.1485225   -1.6282814  0.078749819   -3.1485225    1.5202411   437733 
 3167000    1.0121203   -3.1501327    -1.627322  0.079289888   -3.1501327    1.5228106   437725 
 3168000    1.0118491   -3.1504775    -1.628047  0.076259591   -3.1504775    1.5224305   437717 
 3169000    1.0122671   -3.1508956   -1.6278084  0.079075687   -3.1508956    1.5230872   437709 
 3170000    1.0122919   -3.1504083   -1.6272559    0.0792939   -3.1504083    1.5231524   437701 
 3171000    1.0108868    -3.149196   -1.6281299   0.07776237    -3.149196    1.5210661   437693 
 3172000    1.0115296   -3.1507589   -1.6286978  0.077310566   -3.1507589    1.5220611   437685 
 3173000    1.0128701   -3.1520446   -1.6279386  0.078083915   -3.1520446     1.524106   437677 
 3174000    1.0142755   -3.1525692   -1.6263206  0.078883496   -3.1525692    1.5262486   437669 
 3175000    1.0117064   -3.1501543   -1.6277438   0.07438038   -3.1501543    1.5224105   437661 
 3176000     1.012649   -3.1535511   -1.6296944  0.071637221   -3.1535511    1.5238568   437653 
 3177000    1.0116097   -3.1522263   -1.6299056  0.079716751   -3.1522263    1.5223206   437645 
 3178000     1.010708   -3.1511049   -1.6301132  0.075681462   -3.1511049    1.5209916   437637 
 3179000    1.0097019   -3.1517618   -1.6322566  0.073947276   -3.1517618    1.5195052   437629 
 3180000    1.0097909   -3.1502068   -1.6305397  0.074531609   -3.1502068    1.5196671   437621 
 3181000    1.0095566   -3.1496072    -1.630265  0.070658282   -3.1496072    1.5193422   437613 
 3182000    1.0083424   -3.1480295   -1.6304868  0.073420408   -3.1480295    1.5175427   437605 
 3183000    1.0101011   -3.1491685   -1.6289513  0.079516774   -3.1491685    1.5202172   437597 
 3184000    1.0103948   -3.1508484   -1.6301614  0.075228528   -3.1508484     1.520687   437589 
 3185000    1.0116396   -3.1511664    -1.628578  0.074617859   -3.1511664    1.5225884   437581 
 3186000    1.0121969   -3.1505111   -1.6270562  0.076337099   -3.1505111    1.5234549   437573 
 3187000    1.0108181   -3.1491136   -1.6277061  0.078880744   -3.1491136    1.5214075   437565 
 3188000    1.0115799   -3.1499883   -1.6274064  0.076681227   -3.1499883    1.5225819   437557 
 3189000    1.0104896   -3.1487037   -1.6277349   0.07635782   -3.1487037    1.5209687   437549 
 3190000    1.0110249   -3.1486379   -1.6268356  0.075246705   -3.1486379    1.5218022   437541 
 3191000    1.0100974   -3.1487233   -1.6282893  0.075698286   -3.1487233     1.520434   437533 
 3192000    1.0089964   -3.1482769   -1.6294723  0.077934551   -3.1482769    1.5188045   437525 
 3193000    1.0090282   -3.1488573   -1.6299771  0.074610634   -3.1488573    1.5188802   437517 
 3194000    1.0101591   -3.1497782   -1.6291678   0.07452494   -3.1497782    1.5206103   437509 
 3195000    1.0091603   -3.1482726   -1.6291381  0.071975687   -3.1482726    1.5191345   437501 
 3196000    1.0095825   -3.1497597   -1.6299618  0.080074451   -3.1497597    1.5197979   437493 
 3197000    1.0109208    -3.151168   -1.6293276  0.072858703    -3.151168    1.5218404   437485 
 3198000    1.0102385   -3.1499469   -1.6291058    0.0767963   -3.1499469    1.5208411   437477 
 3199000    1.0089391   -3.1499272   -1.6310145  0.070282316   -3.1499272    1.5189126   437469 
 3200000    1.0096129   -3.1493041   -1.6293493  0.074116944   -3.1493041    1.5199549   437461 
 3201000    1.0097111   -3.1508496   -1.6307191  0.072737969   -3.1508496    1.5201305   437453 
 3202000    1.0098996    -3.150987   -1.6305449  0.073854898    -3.150987    1.5204421   437445 
 3203000    1.0099848   -3.1505678   -1.6299697  0.071830313   -3.1505678    1.5205981   437437 
 3204000    1.0082553   -3.1492822   -1.6312602  0.071776006   -3.1492822     1.518022   437429 
 3205000    1.0078158   -3.1489755   -1.6315874  0.069622271   -3.1489755    1.5173881   437421 
 3206000    1.0098122   -3.1482822   -1.6278605  0.071314288   -3.1482822    1.5204217   437413 
 3207000    1.0122942   -3.1513003   -1.6271137   0.07657476   -3.1513003    1.5241866   437405 
 3208000    1.0114341   -3.1504734    -1.627554   0.07247802   -3.1504734    1.5229195   437397 
 3209000    1.0119363   -3.1512012   -1.6274978  0.070273754   -3.1512012    1.5237034   437389 
 3210000    1.0106418   -3.1518398   -1.6300577  0.071420121   -3.1518398    1.5217821   437381 
 3211000    1.0091733   -3.1506093   -1.6310107  0.073969576   -3.1506093    1.5195986   437373 
 3212000    1.0094213   -3.1505717   -1.6305717  0.077347381   -3.1505717    1.5199999   437365 
 3213000    1.0116668    -3.153692   -1.6302829  0.072157496    -3.153692    1.5234091   437357 
 3214000    1.0110997   -3.1514572   -1.6288742  0.072793093   -3.1514572     1.522583   437349 
 3215000    1.0103158   -3.1511748   -1.6297444  0.076216044   -3.1511748    1.5214304   437341 
 3216000    1.0101782   -3.1502862   -1.6290351  0.069550195   -3.1502862     1.521251   437333 
 3217000    1.0096451   -3.1516889    -1.631213  0.073600633   -3.1516889    1.5204759   437325 
 3218000    1.0082627   -3.1512133   -1.6327914  0.068992539   -3.1512133    1.5184219   437317 
 3219000    1.0070823   -3.1504772   -1.6338052  0.076243827   -3.1504772     1.516672   437309 
 3220000    1.0087373   -3.1524447   -1.6332524  0.065892724   -3.1524447    1.5191923   437301 
 3221000    1.0076806   -3.1512211   -1.6335925  0.071147003   -3.1512211    1.5176286   437293 
 3222000    1.0071273    -3.152251   -1.6354278  0.075806325    -3.152251    1.5168231   437285 
 3223000    1.0077446   -3.1525018   -1.6347213  0.073298958   -3.1525018    1.5177805   437277 
 3224000    1.0071449   -3.1519183   -1.6350132  0.073049048   -3.1519183    1.5169051   437269 
 3225000    1.0079265   -3.1514135   -1.6333035  0.076014865   -3.1514135    1.5181101   437261 
 3226000    1.0093551   -3.1526711   -1.6323816  0.069058739   -3.1526711    1.5202895   437253 
 3227000    1.0100616   -3.1537045    -1.632323  0.076722893   -3.1537045    1.5213815   437245 
 3228000    1.0094395    -3.152504   -1.6320316  0.077038876    -3.152504    1.5204724   437237 
 3229000    1.0087586   -3.1533691   -1.6338946  0.069588893   -3.1533691    1.5194745   437229 
 3230000    1.0094418   -3.1553419   -1.6348104  0.073711169   -3.1553419    1.5205315   437221 
 3231000    1.0103516   -3.1574858   -1.6355561  0.073909033   -3.1574858    1.5219298   437213 
 3232000    1.0096253   -3.1566205    -1.635757  0.074612601   -3.1566205    1.5208635   437205 
 3233000    1.0090754   -3.1543167   -1.6342538  0.073284266   -3.1543167     1.520063   437197 
 3234000     1.008707   -3.1537842   -1.6342484  0.077255301   -3.1537842    1.5195359   437189 
 3235000    1.0096348   -3.1557543    -1.634793  0.073242408   -3.1557543    1.5209613   437181 
 3236000    1.0085152   -3.1542054   -1.6349029  0.077765294   -3.1542054    1.5193025   437173 
 3237000    1.0086667   -3.1563571   -1.6367986  0.075089058   -3.1563571    1.5195585   437165 
 3238000    1.0080629   -3.1556667   -1.6369899  0.078822062   -3.1556667    1.5186768   437157 
 3239000    1.0079286   -3.1544714   -1.6359692  0.078473003   -3.1544714    1.5185022   437149 
 3240000    1.0084407     -3.15627   -1.6369686  0.073418846     -3.15627    1.5193014   437141 
 3241000    1.0076404   -3.1563926   -1.6382691  0.074259959   -3.1563926    1.5181235   437133 
 3242000    1.0090643   -3.1575186   -1.6372221  0.074077207   -3.1575186    1.5202965   437125 
 3243000     1.009174    -3.158079   -1.6375892   0.07306053    -3.158079    1.5204898   437117 
 3244000    1.0083503   -3.1571004   -1.6378239  0.077180018   -3.1571004    1.5192764   437109 
 3245000    1.0080012   -3.1563765   -1.6375981  0.071237285   -3.1563765    1.5187783   437101 
 3246000    1.0091822   -3.1574158   -1.6368302  0.074846281   -3.1574158    1.5205856   437093 
 3247000    1.0088748   -3.1584901   -1.6383398  0.072007281   -3.1584901    1.5201503   437085 
 3248000    1.0082581   -3.1571068    -1.637858  0.074345005   -3.1571068    1.5192488   437077 
 3249000    1.0079566   -3.1564192   -1.6375968  0.073815593   -3.1564192    1.5188223   437069 
 3250000    1.0091274   -3.1589769   -1.6383625  0.074474338   -3.1589769    1.5206143   437061 
 3251000    1.0091079   -3.1581398   -1.6375271  0.072731947   -3.1581398    1.5206127   437053 
 3252000    1.0093074   -3.1586421   -1.6377008  0.076436175   -3.1586421    1.5209412   437045 
 3253000    1.0085155   -3.1577106   -1.6379348  0.071206883   -3.1577106    1.5197758   437037 
 3254000     1.008512   -3.1569954   -1.6371971   0.07554493   -3.1569954    1.5197983   437029 
 3255000    1.0084058   -3.1556206   -1.6359546  0.075528952   -3.1556206     1.519666   437021 
 3256000    1.0080171   -3.1566315   -1.6375234  0.075709782   -3.1566315    1.5191081   437013 
 3257000    1.0088858   -3.1577218   -1.6372768  0.075394196   -3.1577218     1.520445   437005 
 3258000    1.0104095   -3.1598637   -1.6370945  0.068213555   -3.1598637    1.5227692   436997 
 3259000    1.0080454   -3.1563191    -1.637085  0.071058005   -3.1563191    1.5192341   436989 
 3260000    1.0082826   -3.1564586   -1.6368392  0.074711145   -3.1564586    1.5196195   436981 
 3261000    1.0079859   -3.1557444   -1.6365442  0.073679634   -3.1557444    1.5192001   436973 
 3262000    1.0081204   -3.1551354   -1.6357047  0.076836268   -3.1551354    1.5194306   436965 
 3263000     1.008562    -3.156125   -1.6360009  0.075236327    -3.156125    1.5201241   436957 
 3264000    1.0079235   -3.1543035    -1.635114  0.073366774   -3.1543035    1.5191896   436949 
 3265000    1.0078691   -3.1545844    -1.635449  0.070091854   -3.1545844    1.5191354   436941 
 3266000    1.0086566   -3.1549964   -1.6346463   0.07644748   -3.1549964    1.5203501   436933 
 3267000    1.0092376    -3.156442   -1.6351883  0.078074244    -3.156442    1.5212537   436925 
 3268000    1.0099393   -3.1571667   -1.6348273  0.072776815   -3.1571667    1.5223394   436917 
 3269000    1.0091337   -3.1568458   -1.6356929  0.075674729   -3.1568458    1.5211529   436909 
 3270000    1.0063823   -3.1519917   -1.6349584  0.077819031   -3.1519917    1.5170333   436901 
 3271000    1.0073062   -3.1542583   -1.6358046  0.073882139   -3.1542583    1.5184538   436893 
 3272000    1.0076754   -3.1557393   -1.6367013  0.069982861   -3.1557393     1.519038   436885 
 3273000    1.0072935   -3.1555301   -1.6370399  0.075363942   -3.1555301    1.5184902   436877 
 3274000    1.0071628   -3.1552149    -1.636894  0.073117521   -3.1552149    1.5183209   436869 
 3275000    1.0087378   -3.1562812    -1.635558  0.073078584   -3.1562812    1.5207232   436861 
 3276000    1.0078302   -3.1551413   -1.6357585   0.07343914   -3.1551413    1.5193827   436853 
 3277000     1.007441   -3.1553993   -1.6365755  0.072680244   -3.1553993    1.5188238   436845 
 3278000    1.0077784   -3.1551563    -1.635796  0.071684499   -3.1551563    1.5193603   436837 
 3279000    1.0089886    -3.157689   -1.6364763  0.071361417    -3.157689    1.5212127   436829 
 3280000    1.0072674   -3.1542913   -1.6356459  0.075624234   -3.1542913    1.5186454   436821 
 3281000     1.009123   -3.1580814   -1.6366104  0.070348091   -3.1580814     1.521471   436813 
 3282000    1.0077266   -3.1555048   -1.6361113  0.078692434   -3.1555048    1.5193935   436805 
 3283000    1.0090571   -3.1576873   -1.6362598  0.074599044   -3.1576873    1.5214275   436797 
 3284000    1.0101606    -3.158916   -1.6357968   0.07511824    -3.158916    1.5231191   436789 
 3285000    1.0082658    -3.157492    -1.637202  0.076235473    -3.157492      1.52029   436781 
 3286000     1.007699   -3.1561986   -1.6367355  0.074192969   -3.1561986    1.5194631   436773 
 3287000    1.0072759   -3.1568104   -1.6379575  0.076784445   -3.1568104    1.5188529   436765 
 3288000     1.007215   -3.1577571   -1.6389681  0.072738606   -3.1577571     1.518789   436757 
 3289000    1.0071256   -3.1579714   -1.6392894  0.076713303   -3.1579714     1.518682   436749 
 3290000    1.0082318   -3.1594542   -1.6390762  0.076170938   -3.1594542     1.520378   436741 
 3291000    1.0077114   -3.1589694   -1.6393484  0.075731175   -3.1589694     1.519621   436733 
 3292000    1.0078952   -3.1603687   -1.6404426  0.070820488   -3.1603687    1.5199261   436725 
 3293000    1.0083852   -3.1611623   -1.6404695  0.073723041   -3.1611623    1.5206928   436717 
 3294000    1.0080474    -3.160428   -1.6402167  0.076340157    -3.160428    1.5202113   436709 
 3295000    1.0097539   -3.1622124   -1.6393997  0.072117411   -3.1622124    1.5228127   436701 
 3296000    1.0080957   -3.1588179   -1.6384781  0.079705992   -3.1588179    1.5203398   436693 
 3297000    1.0083746   -3.1590383     -1.63825   0.07484255   -3.1590383    1.5207883   436685 
 3298000    1.0076016   -3.1586026   -1.6389523   0.07976393   -3.1586026    1.5196503   436677 
 3299000     1.008145   -3.1599032   -1.6394055  0.074333198   -3.1599032    1.5204977   436669 
 3300000    1.0067532   -3.1592162   -1.6407898  0.076306058   -3.1592162    1.5184264   436661 
 3301000    1.0072536   -3.1601174   -1.6409085  0.075858685   -3.1601174    1.5192089   436653 
 3302000     1.006899   -3.1591182   -1.6404163  0.077159084   -3.1591182    1.5187019   436645 
 3303000    1.0069486   -3.1578811   -1.6390766   0.07420514   -3.1578811    1.5188046   436637 
 3304000    1.0065783   -3.1582459   -1.6399721   0.07347768   -3.1582459    1.5182738   436629 
 3305000    1.0062902   -3.1568165   -1.6389494  0.075655928   -3.1568165    1.5178672   436621 
 3306000    1.0081667   -3.1595769   -1.6388513  0.073392801   -3.1595769    1.5207255   436613 
 3307000    1.0070481   -3.1582161     -1.63915  0.071950989   -3.1582161     1.519066   436605 
 3308000    1.0064201   -3.1579787   -1.6398322  0.078094066   -3.1579787    1.5181465   436597 
 3309000    1.0051576   -3.1576881   -1.6414183  0.072739116   -3.1576881    1.5162698   436589 
 3310000    1.0047887   -3.1555804   -1.6398393  0.073140559   -3.1555804    1.5157411   436581 
 3311000    1.0070365   -3.1591774   -1.6400176  0.070472819   -3.1591774    1.5191599   436573 
 3312000     1.006144   -3.1578225   -1.6399812  0.076450188   -3.1578225    1.5178413   436565 
 3313000    1.0058006   -3.1580972   -1.6407461  0.071891852   -3.1580972    1.5173511   436557 
 3314000    1.0064348   -3.1586808   -1.6403453  0.074676255   -3.1586808    1.5183356   436549 
 3315000    1.0060021   -3.1582547   -1.6405441   0.07552229   -3.1582547    1.5177106   436541 
 3316000    1.0056509   -3.1596915   -1.6424829  0.072074729   -3.1596915    1.5172086   436533 
 3317000    1.0055349   -3.1593692   -1.6423079   0.07046307   -3.1593692    1.5170613   436525 
 3318000    1.0056799   -3.1584676   -1.6411596  0.068232703   -3.1584676     1.517308   436517 
 3319000    1.0042739   -3.1572453   -1.6420309   0.06933383   -3.1572453    1.5152144   436509 
 3320000    1.0064896   -3.1606121   -1.6420269  0.073594357   -3.1606121    1.5185852   436501 
 3321000    1.0062157   -3.1600858   -1.6418859  0.074679188   -3.1600858    1.5181999   436493 
 3322000    1.0066416   -3.1616047   -1.6427345  0.071855847   -3.1616047    1.5188702   436485 
 3323000    1.0081219   -3.1628189   -1.6416871  0.072289475   -3.1628189    1.5211317   436477 
 3324000    1.0048288   -3.1596186    -1.643428  0.067892905   -3.1596186    1.5161907   436469 
 3325000    1.0060897   -3.1606783   -1.6425572  0.073411021   -3.1606783    1.5181211   436461 
 3326000    1.0062494   -3.1613518    -1.642962  0.067214418   -3.1613518    1.5183898   436453 
 3327000    1.0076233    -3.162982   -1.6424912  0.072650135    -3.162982    1.5204908   436445 
 3328000    1.0070328   -3.1608523   -1.6412246  0.072351976   -3.1608523    1.5196276   436437 
 3329000     1.007101   -3.1612011   -1.6414427  0.076470893   -3.1612011    1.5197584   436429 
 3330000    1.0062959   -3.1594597   -1.6408883  0.077783459   -3.1594597    1.5185714   436421 
 3331000    1.0062765   -3.1602873   -1.6417174   0.08022874   -3.1602873    1.5185699   436413 
 3332000    1.0071751   -3.1615702   -1.6416164  0.073552303   -3.1615702    1.5199539   436405 
 3333000    1.0058755   -3.1603171   -1.6422968  0.073944899   -3.1603171    1.5180203   436397 
 3334000    1.0070776   -3.1614823   -1.6416198  0.071096213   -3.1614823    1.5198624   436389 
 3335000    1.0073952   -3.1612302   -1.6408606  0.077832711   -3.1612302    1.5203696   436381 
 3336000    1.0054355   -3.1596165   -1.6421766  0.075080391   -3.1596165    1.5174399   436373 
 3337000    1.0072314   -3.1608295   -1.6406514  0.075145607   -3.1608295    1.5201782   436365 
 3338000    1.0062814   -3.1595765   -1.6408043   0.07629672   -3.1595765    1.5187722   436357 
 3339000    1.0056822   -3.1599843   -1.6420887  0.072153431   -3.1599843    1.5178956   436349 
 3340000    1.0055918   -3.1594032   -1.6416162  0.072743163   -3.1594032     1.517787   436341 
 3341000    1.0049566   -3.1583269   -1.6414708  0.071175752   -3.1583269    1.5168561   436333 
 3342000    1.0056634   -3.1581153   -1.6401646  0.074214568   -3.1581153    1.5179507   436325 
 3343000    1.0073756   -3.1590606   -1.6384976  0.069588341   -3.1590606    1.5205631   436317 
 3344000    1.0062205   -3.1567536   -1.6379063  0.076784958   -3.1567536    1.5188473   436309 
 3345000    1.0077891   -3.1592034   -1.6379604  0.072621128   -3.1592034     1.521243   436301 
 3346000    1.0070171   -3.1583783   -1.6382728  0.081027629   -3.1583783    1.5201055   436293 
 3347000    1.0064168   -3.1591599   -1.6399328  0.071863406   -3.1591599    1.5192271   436285 
 3348000     1.006863   -3.1601152   -1.6401865  0.069611197   -3.1601152    1.5199287   436277 
 3349000    1.0064041   -3.1593509   -1.6400871  0.074710052   -3.1593509    1.5192638   436269 
 3350000    1.0051404   -3.1579294   -1.6405454  0.073169075   -3.1579294    1.5173839   436261 
 3351000    1.0048391   -3.1574752   -1.6405183  0.064982855   -3.1574752    1.5169569   436253 
 3352000    1.0066936   -3.1594723   -1.6396879  0.069923411   -3.1594723    1.5197844   436245 
 3353000    1.0063837   -3.1586652   -1.6393208  0.071330928   -3.1586652    1.5193444   436237 
 3354000    1.0052196     -3.15754   -1.6399253  0.074077336     -3.15754    1.5176147   436229 
 3355000    1.0054503   -3.1575369    -1.639546  0.069347116   -3.1575369    1.5179909   436221 
 3356000    1.0061616   -3.1590234   -1.6399307  0.070533972   -3.1590234    1.5190927   436213 
 3357000    1.0063949   -3.1592557   -1.6397831  0.072492649   -3.1592557    1.5194727   436205 
 3358000    1.0064899   -3.1586562   -1.6390121  0.074092445   -3.1586562    1.5196441   436197 
 3359000    1.0069182   -3.1603685   -1.6400499  0.074573483   -3.1603685    1.5203186   436189 
 3360000    1.0053734   -3.1588598   -1.6408458  0.074238001   -3.1588598    1.5180139   436181 
 3361000    1.0055567   -3.1596167   -1.6412981  0.069708817   -3.1596167    1.5183186   436173 
 3362000    1.0059603   -3.1602178    -1.641262  0.071642075   -3.1602178    1.5189559   436165 
 3363000    1.0065945   -3.1616449   -1.6417034  0.074425305   -3.1616449    1.5199414   436157 
 3364000    1.0058577   -3.1600754   -1.6412187    0.0731438   -3.1600754    1.5188567   436149 
 3365000    1.0060804   -3.1604732   -1.6412523  0.076380498   -3.1604732    1.5192209   436141 
 3366000    1.0041963   -3.1591353   -1.6427317  0.074903566   -3.1591353    1.5164036   436133 
 3367000    1.0061586   -3.1625957   -1.6432011   0.07240242   -3.1625957    1.5193946   436125 
 3368000    1.0050787   -3.1610794   -1.6432877   0.06707693   -3.1610794    1.5177917   436117 
 3369000    1.0058171   -3.1621256   -1.6431909  0.071784994   -3.1621256    1.5189347   436109 
 3370000    1.0066617   -3.1632016   -1.6429637  0.073488396   -3.1632016     1.520238   436101 
 3371000    1.0061111   -3.1624796   -1.6430452  0.074654086   -3.1624796    1.5194345   436093 
 3372000    1.0058862   -3.1625573   -1.6434347  0.076255496   -3.1625573    1.5191226   436085 
 3373000    1.0046463   -3.1616669    -1.644389    0.0706938   -3.1616669     1.517278   436077 
 3374000    1.0050616   -3.1618584   -1.6439254  0.072307091   -3.1618584     1.517933   436069 
 3375000    1.0056346   -3.1624612   -1.6436349   0.06552677   -3.1624612    1.5188263   436061 
 3376000    1.0034817   -3.1594665   -1.6438639  0.079204082   -3.1594665    1.5156026   436053 
 3377000    1.0071531   -3.1653831   -1.6442077  0.076067479   -3.1653831    1.5211755   436045 
 3378000    1.0041809   -3.1617371   -1.6450229  0.078198433   -3.1617371    1.5167142   436037 
 3379000    1.0048573    -3.162934   -1.6451704  0.070291732    -3.162934    1.5177636   436029 
 3380000    1.0048815   -3.1625322   -1.6447042   0.07105992   -3.1625322     1.517828   436021 
 3381000     1.005063   -3.1619332   -1.6438031  0.076734518   -3.1619332    1.5181301   436013 
 3382000    1.0051135    -3.161609   -1.6433748   0.07076245    -3.161609    1.5182342   436005 
 3383000    1.0052856   -3.1617194   -1.6431974  0.075613058   -3.1617194     1.518522   435997 
 3384000    1.0052758   -3.1619915   -1.6434563  0.074838116   -3.1619915    1.5185351   435989 
 3385000    1.0031549    -3.158938   -1.6435789  0.079204184    -3.158938    1.5153591   435981 
 3386000    1.0040196   -3.1603831   -1.6436899  0.069009895   -3.1603831    1.5166931   435973 
 3387000    1.0052774   -3.1617734   -1.6431524  0.070665888   -3.1617734    1.5186211   435965 
 3388000    1.0036068   -3.1597616   -1.6436363  0.075675606   -3.1597616    1.5161252   435957 
 3389000    1.0044121   -3.1612788   -1.6439091  0.066210967   -3.1612788    1.5173697   435949 
 3390000    1.0033947   -3.1600997   -1.6442393  0.071935919   -3.1600997    1.5158605   435941 
 3391000    1.0050512     -3.16227   -1.6438791  0.069316293     -3.16227    1.5183908   435933 
 3392000    1.0037957   -3.1618437   -1.6453219  0.064979363   -3.1618437    1.5165219   435925 
 3393000    1.0044302   -3.1613095   -1.6438012  0.072535603   -3.1613095    1.5175083   435917 
 3394000    1.0026959   -3.1595435   -1.6446276  0.071562379   -3.1595435    1.5149159   435909 
 3395000    1.0041286   -3.1622346   -1.6451262  0.072029734   -3.1622346    1.5171084   435901 
 3396000    1.0038782   -3.1626783   -1.6459204  0.069207744   -3.1626783    1.5167579   435893 
 3397000    1.0051148   -3.1637527   -1.6450986  0.067142035   -3.1637527    1.5186541   435885 
 3398000    1.0053218   -3.1642036   -1.6452089   0.06755708   -3.1642036    1.5189947   435877 
 3399000     1.004302   -3.1611784   -1.6436966  0.072079165   -3.1611784    1.5174817   435869 
 3400000    1.0047114   -3.1627901   -1.6446619  0.072362108   -3.1627901    1.5181282   435861 
 3401000    1.0036834    -3.161985   -1.6453823  0.073504595    -3.161985    1.5166027   435853 
 3402000    1.0051972   -3.1628073   -1.6438893  0.071542253   -3.1628073     1.518918   435845 
 3403000    1.0034351   -3.1623321   -1.6460489  0.078529837   -3.1623321    1.5162832   435837 
 3404000    1.0041355   -3.1628726   -1.6455032  0.076393367   -3.1628726    1.5173694   435829 
 3405000    1.0053277   -3.1641595   -1.6449607  0.080794018   -3.1641595    1.5191988   435821 
 3406000    1.0047546   -3.1641567    -1.645796  0.080056921   -3.1641567    1.5183607   435813 
 3407000    1.0046751   -3.1624378   -1.6441694  0.080603897   -3.1624378    1.5182684   435805 
 3408000    1.0051027   -3.1617274   -1.6427849  0.071921442   -3.1617274    1.5189425   435797 
 3409000     1.005591   -3.1612802   -1.6415718  0.070167101   -3.1612802    1.5197084   435789 
 3410000    1.0065526   -3.1635876   -1.6423981  0.077789086   -3.1635876    1.5211894   435781 
 3411000    1.0064334   -3.1652223   -1.6441851  0.072264691   -3.1652223    1.5210372   435773 
 3412000    1.0056813   -3.1630386   -1.6431101  0.071777021   -3.1630386    1.5199285   435765 
 3413000    1.0052532   -3.1639869   -1.6446775  0.072099175   -3.1639869    1.5193094   435757 
 3414000    1.0071298   -3.1662901   -1.6441166  0.072479703   -3.1662901    1.5221736   435749 
 3415000    1.0048197   -3.1620274   -1.6433174  0.074858865   -3.1620274    1.5187099   435741 
 3416000    1.0049944   -3.1622438   -1.6432419  0.074926906   -3.1622438    1.5190019   435733 
 3417000    1.0042307   -3.1609665   -1.6430911  0.075790713   -3.1609665    1.5178755   435725 
 3418000    1.0041372   -3.1603838   -1.6426218   0.07112201   -3.1603838     1.517762   435717 
 3419000    1.0045258   -3.1607246   -1.6423473  0.075718844   -3.1607246    1.5183773   435709 
 3420000    1.0053034   -3.1626317   -1.6430511  0.070034865   -3.1626317    1.5195806   435701 
 3421000     1.004056   -3.1609359    -1.643213  0.071355988   -3.1609359    1.5177229   435693 
 3422000    1.0034031   -3.1601232   -1.6433594  0.070794552   -3.1601232    1.5167639   435685 
 3423000    1.0043367   -3.1606906   -1.6424876  0.071203124   -3.1606906    1.5182029   435677 
 3424000    1.0035206   -3.1607096   -1.6437125  0.069432328   -3.1607096    1.5169971   435669 
 3425000    1.0044503   -3.1611758   -1.6427455  0.072880538   -3.1611758    1.5184304   435661 
 3426000    1.0038437   -3.1610787   -1.6435374  0.070507533   -3.1610787    1.5175413   435653 
 3427000    1.0034487   -3.1597544   -1.6427823  0.069083941   -3.1597544    1.5169721   435645 
 3428000    1.0029917   -3.1587793   -1.6424703  0.069012022   -3.1587793     1.516309   435637 
 3429000    1.0023567   -3.1595192   -1.6441424  0.069117885   -3.1595192    1.5153768   435629 
 3430000    1.0027727   -3.1597824   -1.6437488  0.073476728   -3.1597824    1.5160336   435621 
 3431000    1.0034419   -3.1611759   -1.6441027  0.068298467   -3.1611759    1.5170732   435613 
 3432000    1.0026621   -3.1597816   -1.6438596  0.071414446   -3.1597816     1.515922   435605 
 3433000    1.0036205   -3.1617309   -1.6443319  0.071943256   -3.1617309     1.517399   435597 
 3434000    1.0031818   -3.1610796   -1.6443161  0.069458713   -3.1610796    1.5167635   435589 
 3435000    1.0049508   -3.1638758   -1.6444098  0.072085485   -3.1638758     1.519466   435581 
 3436000    1.0044765   -3.1637508   -1.6449739  0.073399026   -3.1637508    1.5187769   435573 
 3437000     1.003324   -3.1634736   -1.6464115  0.069784836   -3.1634736    1.5170621   435565 
 3438000    1.0017825   -3.1622748   -1.6475157  0.072935918   -3.1622748    1.5147591   435557 
 3439000    1.0028722   -3.1635816   -1.6471469  0.073578569   -3.1635816    1.5164347   435549 
 3440000    1.0036526   -3.1650169   -1.6473743  0.072582783   -3.1650169    1.5176426   435541 
 3441000    1.0051128   -3.1656594    -1.645781   0.07253612   -3.1656594    1.5198784   435533 
 3442000    1.0042629   -3.1654138   -1.6467926  0.072466688   -3.1654138    1.5186212   435525 
 3443000    1.0046523   -3.1656004   -1.6463625  0.076667442   -3.1656004    1.5192379   435517 
 3444000    1.0050705   -3.1672232   -1.6473249  0.074748985   -3.1672232    1.5198983   435509 
 3445000    1.0045194   -3.1682242   -1.6491314  0.077528376   -3.1682242    1.5190928   435501 
 3446000    1.0041024   -3.1673042   -1.6488141  0.078910383   -3.1673042    1.5184901   435493 
 3447000    1.0039487    -3.167098   -1.6488125  0.070904119    -3.167098    1.5182855   435485 
 3448000    1.0049048   -3.1676392   -1.6478798  0.074735637   -3.1676392    1.5197594   435477 
 3449000    1.0038747   -3.1654418   -1.6472124  0.078019151   -3.1654418    1.5182295   435469 
 3450000    1.0036517   -3.1658573   -1.6479373  0.075712072   -3.1658573      1.51792   435461 
 3451000    1.0027642   -3.1654507    -1.648845  0.075161299   -3.1654507    1.5166057   435453 
 3452000    1.0040435   -3.1676724    -1.649104  0.068433832   -3.1676724    1.5185683   435445 
 3453000    1.0041126   -3.1666414   -1.6479407   0.07324399   -3.1666414    1.5187008   435437 
 3454000    1.0032613    -3.167346   -1.6499049  0.074907312    -3.167346    1.5174411   435429 
 3455000    1.0025119   -3.1651611   -1.6488257  0.072663048   -3.1651611    1.5163355   435421 
 3456000    1.0031602   -3.1672363   -1.6498923  0.070238059   -3.1672363    1.5173439   435413 
 3457000    1.0022441   -3.1660383   -1.6500522  0.075460918   -3.1660383    1.5159861   435405 
 3458000     1.000819   -3.1643167   -1.6504583  0.068821816   -3.1643167    1.5138584   435397 
 3459000    1.0011185   -3.1633422    -1.649003  0.073730332   -3.1633422    1.5143392   435389 
 3460000    1.0027873   -3.1671599   -1.6502685  0.071993488   -3.1671599    1.5168914   435381 
 3461000   0.99968103   -3.1642229   -1.6520025  0.071864406   -3.1642229    1.5122204   435373 
 3462000    1.0009147   -3.1669998   -1.6528855  0.069188584   -3.1669998    1.5141144   435365 
 3463000    1.0024302   -3.1674364   -1.6510016  0.065773972   -3.1674364    1.5164348   435357 
 3464000    1.0010501   -3.1658739    -1.651499  0.071059388   -3.1658739    1.5143749   435349 
 3465000     1.002208   -3.1678522   -1.6516978  0.062900234   -3.1678522    1.5161543   435341 
 3466000    1.0036058   -3.1683265   -1.6500296  0.072118069   -3.1683265    1.5182969   435333 
 3467000    1.0026081   -3.1666208   -1.6498053  0.066516775   -3.1666208    1.5168155   435325 
 3468000    1.0028326   -3.1664507   -1.6492679  0.072861911   -3.1664507    1.5171829   435317 
 3469000     1.002865    -3.168728   -1.6514683  0.071938989    -3.168728    1.5172598   435309 
 3470000    1.0027379   -3.1679223   -1.6508269  0.070110517   -3.1679223    1.5170954   435301 
 3471000    1.0031953   -3.1672264   -1.6494112   0.07402334   -3.1672264    1.5178153   435293 
 3472000    1.0037942   -3.1682143   -1.6494649  0.073103816   -3.1682143    1.5187494   435285 
 3473000    1.0028467   -3.1670747   -1.6497309  0.071927877   -3.1670747    1.5173438   435277 
 3474000    1.0035638   -3.1686699   -1.6502133  0.070517209   -3.1686699    1.5184566   435269 
 3475000    1.0031403   -3.1681707   -1.6503271  0.072798121   -3.1681707    1.5178436   435261 
 3476000    1.0025463    -3.166619   -1.6496462   0.07845233    -3.166619    1.5169728   435253 
 3477000    1.0040765   -3.1696012   -1.6502851  0.079666746   -3.1696012    1.5193161   435245 
 3478000    1.0039953   -3.1696703   -1.6504491  0.077315013   -3.1696703    1.5192212   435237 
 3479000    1.0051187   -3.1714031    -1.650454  0.076595902   -3.1714031    1.5209491   435229 
 3480000    1.0049943   -3.1710711   -1.6502823  0.078277775   -3.1710711    1.5207888   435221 
 3481000    1.0049495   -3.1702644   -1.6495154  0.074770475   -3.1702644    1.5207489   435213 
 3482000    1.0048839   -3.1697451   -1.6490676   0.07477602   -3.1697451    1.5206776   435205 
 3483000    1.0051393   -3.1698153   -1.6487232  0.074139292   -3.1698153    1.5210921   435197 
 3484000    1.0036153   -3.1679705   -1.6491569  0.070571328   -3.1679705    1.5188136   435189 
 3485000    1.0032946   -3.1681545   -1.6497982  0.074604022   -3.1681545    1.5183562   435181 
 3486000    1.0022907   -3.1677495   -1.6508846  0.068153789   -3.1677495    1.5168649   435173 
 3487000    1.0021417   -3.1673728   -1.6507056  0.073856049   -3.1673728    1.5166672   435165 
 3488000    1.0000985   -3.1656701   -1.6520673  0.073197574   -3.1656701    1.5136028   435157 
 3489000    1.0015503   -3.1676421   -1.6518141   0.07329954   -3.1676421     1.515828   435149 
 3490000    1.0016903   -3.1676329   -1.6515652  0.071450205   -3.1676329    1.5160678   435141 
 3491000    1.0015526   -3.1667321   -1.6508449  0.065021778   -3.1667321    1.5158872   435133 
 3492000    1.0014048   -3.1670875   -1.6513962  0.071759917   -3.1670875    1.5156913   435125 
 3493000    1.0015495   -3.1661451   -1.6502069  0.069274982   -3.1661451    1.5159382   435117 
 3494000    1.0034963   -3.1690887    -1.650176  0.070182529   -3.1690887    1.5189128   435109 
 3495000    1.0025109   -3.1680323   -1.6505831  0.070261334   -3.1680323    1.5174492   435101 
 3496000    1.0019272   -3.1679124   -1.6513188  0.068839761   -3.1679124    1.5165936   435093 
 3497000    1.0024809    -3.168031   -1.6505714  0.074531505    -3.168031    1.5174596   435085 
 3498000    1.0010623     -3.16598   -1.6506399  0.069313436     -3.16598    1.5153401   435077 
 3499000     1.001973   -3.1669392   -1.6501927  0.072206099   -3.1669392    1.5167465   435069 
 3500000    1.0028714   -3.1681744     -1.65004  0.072458216   -3.1681744    1.5181344   435061 
 3501000    1.0026827   -3.1690708   -1.6511942  0.068633258   -3.1690708    1.5178766   435053 
 3502000    1.0019238   -3.1682627   -1.6515069  0.070096755   -3.1682627    1.5167558   435045 
 3503000    1.0006503   -3.1651603   -1.6503047  0.070442064   -3.1651603    1.5148556   435037 
 3504000    1.0032173   -3.1692508   -1.6504811  0.068056501   -3.1692508    1.5187697   435029 
 3505000    1.0012572   -3.1655903   -1.6497601   0.07006878   -3.1655903    1.5158302   435021 
 3506000    1.0002292   -3.1647834   -1.6504817  0.077437328   -3.1647834    1.5143017   435013 
 3507000    1.0023333   -3.1682024   -1.6506872   0.06929204   -3.1682024    1.5175151   435005 
 3508000    1.0025864   -3.1682921   -1.6503657  0.067363205   -3.1682921    1.5179263   434997 
 3509000    1.0020067   -3.1688874   -1.6518109  0.072579225   -3.1688874    1.5170765   434989 
 3510000    1.0017074   -3.1676812     -1.65103  0.069375528   -3.1676812    1.5166512   434981 
 3511000    1.0009815   -3.1683248   -1.6527447  0.068440974   -3.1683248    1.5155801   434973 
 3512000    1.0014664   -3.1694928   -1.6531507  0.066775975   -3.1694928    1.5163421   434965 
 3513000    1.0011536   -3.1688992   -1.6530027  0.071301996   -3.1688992    1.5158964   434957 
 3514000   0.99976147   -3.1673426   -1.6535262  0.070480685   -3.1673426    1.5138164   434949 
 3515000   0.99984311   -3.1671672   -1.6531994  0.074306158   -3.1671672    1.5139678   434941 
 3516000    1.0002363   -3.1683431   -1.6537521  0.070533537   -3.1683431     1.514591   434933 
 3517000    1.0007276   -3.1682253   -1.6528624  0.074106239   -3.1682253    1.5153629   434925 
 3518000    1.0018648   -3.1695648    -1.652452  0.073819014   -3.1695648    1.5171128   434917 
 3519000      1.00413   -3.1732147   -1.6526438  0.068412734   -3.1732147    1.5205708   434909 
 3520000    1.0026805   -3.1723897   -1.6539859  0.072359893   -3.1723897    1.5184038   434901 
 3521000    1.0020253   -3.1707192   -1.6532797  0.074360607   -3.1707192    1.5174395   434893 
 3522000    1.0015599   -3.1709876   -1.6542249  0.072371068   -3.1709876    1.5167627   434885 
 3523000    1.0017184   -3.1725884   -1.6555578  0.070224056   -3.1725884    1.5170307   434877 
 3524000    1.0032067    -3.174013   -1.6547006  0.076239282    -3.174013    1.5193124   434869 
 3525000    1.0025459   -3.1722301   -1.6538905  0.077036471   -3.1722301    1.5183397   434861 
 3526000    1.0015547   -3.1713221   -1.6544558   0.07124667   -3.1713221    1.5168664   434853 
 3527000    1.0013922   -3.1719968   -1.6553486  0.072280036   -3.1719968    1.5166482   434845 
 3528000    1.0009409   -3.1722605    -1.656268  0.074019017   -3.1722605    1.5159926   434837 
 3529000    1.0011665   -3.1732054   -1.6568432  0.070437069   -3.1732054    1.5163622   434829 
 3530000    1.0009228   -3.1729997   -1.6569786  0.073933288   -3.1729997     1.516021   434821 
 3531000    1.0007918   -3.1736663   -1.6578159  0.071562392   -3.1736663    1.5158504   434813 
 3532000    1.0014885   -3.1746869   -1.6577533  0.072275226   -3.1746869    1.5169336   434805 
 3533000    0.9992154   -3.1726622   -1.6591437  0.075321882   -3.1726622    1.5135184   434797 
 3534000   0.99971304   -3.1737651   -1.6594651  0.073507461   -3.1737651    1.5143001   434789 
 3535000   0.99892381   -3.1727336   -1.6596012    0.0720913   -3.1727336    1.5131324   434781 
 3536000    1.0015265   -3.1752653   -1.6581625  0.066724769   -3.1752653    1.5171028   434773 
 3537000    1.0003814   -3.1726224   -1.6572263  0.077152646   -3.1726224    1.5153961   434765 
 3538000    1.0013266   -3.1736245   -1.6567687  0.075772262   -3.1736245    1.5168559   434757 
 3539000    1.0026466   -3.1754268   -1.6565435  0.077390086   -3.1754268    1.5188833   434749 
 3540000    1.0017091   -3.1744793   -1.6569882  0.069044651   -3.1744793    1.5174911   434741 
 3541000    1.0021498   -3.1743955   -1.6562088  0.073529752   -3.1743955    1.5181867   434733 
 3542000    1.0026336   -3.1742166   -1.6552691  0.072868306   -3.1742166    1.5189475   434725 
 3543000    1.0015486   -3.1743109   -1.6569792  0.072581853   -3.1743109    1.5173317   434717 
 3544000    1.0019169   -3.1751713   -1.6572537  0.067322784   -3.1751713    1.5179176   434709 
 3545000    0.9993389   -3.1723464   -1.6583066  0.071663796   -3.1723464    1.5140398   434701 
 3546000   0.99761067   -3.1711188   -1.6596695  0.069849786   -3.1711188    1.5114492   434693 
 3547000   0.99917504   -3.1739028   -1.6600556  0.066614704   -3.1739028    1.5138472   434685 
 3548000   0.99728713   -3.1728746   -1.6618599  0.071831161   -3.1728746    1.5110147   434677 
 3549000   0.99713543   -3.1716334   -1.6608208   0.06755812   -3.1716334    1.5108126   434669 
 3550000   0.99722888   -3.1718897   -1.6609077  0.067588141   -3.1718897     1.510982   434661 
 3551000   0.99875936   -3.1736128    -1.660284  0.065395729   -3.1736128    1.5133289   434653 
 3552000     0.999429   -3.1746303    -1.660259  0.068125697   -3.1746303    1.5143714   434645 
 3553000   0.99993231   -3.1752804   -1.6601185  0.068100987   -3.1752804    1.5151619   434637 
 3554000    1.0006995   -3.1755394   -1.6591871  0.069278917   -3.1755394    1.5163523   434629 
 3555000    1.0020419   -3.1775192   -1.6591049  0.072857092   -3.1775192    1.5184143   434621 
 3556000    1.0016881   -3.1764437   -1.6585375  0.072368086   -3.1764437    1.5179062   434613 
 3557000    1.0014089   -3.1757152   -1.6582042  0.068437256   -3.1757152    1.5175111   434605 
 3558000    1.0016208   -3.1761116   -1.6582515  0.075102626   -3.1761116    1.5178601   434597 
 3559000     1.000686    -3.174692   -1.6582206  0.075124196    -3.174692    1.5164714   434589 
 3560000    1.0000637   -3.1752691   -1.6597128  0.075661905   -3.1752691    1.5155563   434581 
 3561000    1.0012603   -3.1768993   -1.6595018  0.072403175   -3.1768993    1.5173975   434573 
 3562000    1.0004137   -3.1753309   -1.6591884  0.077642057   -3.1753309    1.5161425   434565 
 3563000   0.99869425   -3.1730288   -1.6594643  0.069110746   -3.1730288    1.5135645   434557 
 3564000    1.0000375   -3.1740772   -1.6584491  0.075521069   -3.1740772    1.5156282   434549 
 3565000   0.99987534   -3.1744315   -1.6590212  0.073302068   -3.1744315    1.5154103   434541 
 3566000   0.99982841   -3.1744598   -1.6590927  0.072600843   -3.1744598    1.5153671   434533 
 3567000   0.99984658   -3.1748818   -1.6594593  0.073521209   -3.1748818    1.5154225   434525 
 3568000    1.0001749   -3.1755952   -1.6596472  0.075423699   -3.1755952     1.515948   434517 
 3569000   0.99894585   -3.1735425   -1.6594294  0.073716333   -3.1735425    1.5141131   434509 
 3570000      0.99996   -3.1762799   -1.6606018   0.07126725   -3.1762799    1.5156781   434501 
 3571000   0.99903992   -3.1756803   -1.6613689  0.071764131   -3.1756803    1.5143114   434493 
 3572000   0.99777042   -3.1739742   -1.6615592  0.069292981   -3.1739742     1.512415   434485 
 3573000   0.99744363    -3.173223   -1.6612755  0.074344367    -3.173223    1.5119475   434477 
 3574000   0.99906663   -3.1739733   -1.6595377  0.072551792   -3.1739733    1.5144355   434469 
 3575000   0.99743422   -3.1716514   -1.6596625  0.072335508   -3.1716514    1.5119889   434461 
 3576000   0.99897284   -3.1728489   -1.6584998   0.07192841   -3.1728489    1.5143491   434453 
 3577000   0.99841386   -3.1723306   -1.6588009   0.07055633   -3.1723306    1.5135296   434445 
 3578000   0.99984494   -3.1732483   -1.6575213  0.069690754   -3.1732483     1.515727   434437 
 3579000   0.99830391   -3.1715972   -1.6581785  0.076626351   -3.1715972    1.5134187   434429 
 3580000   0.99996557   -3.1742279   -1.6582622  0.071213928   -3.1742279    1.5159657   434421 
 3581000   0.99821282   -3.1716403    -1.658304  0.071290979   -3.1716403    1.5133363   434413 
 3582000   0.99832117   -3.1716732   -1.6581447  0.067310462   -3.1716732    1.5135285   434405 
 3583000   0.99990612     -3.17296   -1.6570007  0.070050525     -3.17296    1.5159593   434397 
 3584000   0.99890195   -3.1727476   -1.6582828  0.072198415   -3.1727476    1.5144648   434389 
 3585000   0.99799321   -3.1705121   -1.6573973  0.068816449   -3.1705121    1.5131149   434381 
 3586000   0.99822279   -3.1708861   -1.6573952  0.067433727   -3.1708861    1.5134908   434373 
 3587000   0.99913379   -3.1711297   -1.6562297  0.072673859   -3.1711297       1.5149   434365 
 3588000   0.99879383   -3.1711314    -1.656719  0.065906378   -3.1711314    1.5144124   434357 
 3589000   0.99785926   -3.1703265   -1.6573033   0.06967074   -3.1703265    1.5130232   434349 
 3590000   0.99768111   -3.1698387   -1.6570577  0.065707238   -3.1698387     1.512781   434341 
 3591000   0.99879797   -3.1711535   -1.6566511  0.068612426   -3.1711535    1.5145024   434333 
 3592000   0.99750272   -3.1699163   -1.6573501  0.069753644   -3.1699163    1.5125662   434325 
 3593000   0.99776218   -3.1693421   -1.6563546  0.069647575   -3.1693421    1.5129875   434317 
 3594000   0.99985249   -3.1716484   -1.6554632  0.069803143   -3.1716484    1.5161851   434309 
 3595000    0.9991599   -3.1698814   -1.6547186  0.077402912   -3.1698814    1.5151628   434301 
 3596000   0.99832476   -3.1702105   -1.6562862  0.071587867   -3.1702105    1.5139242   434293 
 3597000   0.99766453   -3.1702105   -1.6572596  0.072351299   -3.1702105    1.5129509   434285 
 3598000   0.99822635   -3.1702116   -1.6563808   0.07089097   -3.1702116    1.5138308   434277 
 3599000   0.99910103   -3.1717322    -1.656547  0.071183838   -3.1717322    1.5151852   434269 
 3600000   0.99726832   -3.1702247   -1.6577911  0.069319449   -3.1702247    1.5124336   434261 
 3601000   0.99783531   -3.1721186   -1.6587972   0.07527076   -3.1721186    1.5133214   434253 
 3602000    0.9973683   -3.1717712   -1.6591303  0.071830703   -3.1717712     1.512641   434245 
 3603000   0.99933455   -3.1731414   -1.6574904  0.070298808   -3.1731414     1.515651   434237 
 3604000   0.99751346   -3.1732773   -1.6603604  0.073803694   -3.1732773    1.5129169   434229 
 3605000   0.99668309   -3.1729223    -1.661237  0.070210527   -3.1729223    1.5116853   434221 
 3606000   0.99805482   -3.1744459   -1.6606522  0.065362765   -3.1744459    1.5137937   434213 
 3607000   0.99795822   -3.1739134   -1.6602383  0.068385877   -3.1739134    1.5136751   434205 
 3608000   0.99822698   -3.1728469   -1.6587363  0.071039016   -3.1728469    1.5141107   434197 
 3609000   0.99923982   -3.1767236   -1.6610487  0.076636083   -3.1767236    1.5156749   434189 
 3610000   0.99628808   -3.1722556   -1.6610302  0.072393514   -3.1722556    1.5112254   434181 
 3611000    0.9981847   -3.1756154   -1.6614852  0.070071439   -3.1756154    1.5141302   434173 
 3612000   0.99961851   -3.1765586   -1.6602255  0.073786716   -3.1765586    1.5163331   434165 
 3613000   0.99837514    -3.175178   -1.6607031   0.06839928    -3.175178    1.5144749   434157 
 3614000    0.9990021   -3.1768494   -1.6613955  0.076971986   -3.1768494    1.5154539   434149 
 3615000   0.99810707   -3.1761809   -1.6620569  0.074690835   -3.1761809    1.5141241   434141 
 3616000   0.99781204   -3.1750605   -1.6613561  0.071410174   -3.1750605    1.5137044   434133 
 3617000   0.99925412   -3.1766312   -1.6607112   0.06977339   -3.1766312      1.51592   434125 
 3618000   0.99880895   -3.1756587   -1.6603861  0.072629041   -3.1756587    1.5152726   434117 
 3619000   0.99924147   -3.1752841   -1.6593274  0.072762811   -3.1752841    1.5159567   434109 
 3620000   0.99755941   -3.1728479   -1.6594152  0.070400827   -3.1728479    1.5134327   434101 
 3621000   0.99797028   -3.1740495   -1.6599656  0.071611855   -3.1740495     1.514084   434093 
 3622000   0.99867427   -3.1758557   -1.6606757  0.072048016   -3.1758557      1.51518   434085 
 3623000   0.99899275   -3.1760625   -1.6603714  0.072920026   -3.1760625    1.5156911   434077 
 3624000   0.99759272   -3.1736321   -1.6600373  0.069811105   -3.1736321    1.5135948   434069 
 3625000   0.99867733   -3.1767312   -1.6614628  0.070780856   -3.1767312    1.5152684   434061 
 3626000    0.9976659   -3.1746766    -1.660915  0.069636167   -3.1746766    1.5137616   434053 
 3627000     0.996516   -3.1734787   -1.6614339  0.070165317   -3.1734787    1.5120448   434045 
 3628000   0.99709227   -3.1744151   -1.6614681  0.072119355   -3.1744151    1.5129471   434037 
 3629000   0.99551054   -3.1719268    -1.661352  0.069937844   -3.1719268    1.5105748   434029 
 3630000   0.99592524    -3.172216    -1.660984  0.067640652    -3.172216     1.511232   434021 
 3631000   0.99562533   -3.1725351   -1.6617304  0.066523712   -3.1725351    1.5108047   434013 
 3632000   0.99575217   -3.1727453   -1.6617202  0.070889851   -3.1727453     1.511025   434005 
 3633000   0.99457021   -3.1713536   -1.6620944  0.066823501   -3.1713536    1.5092593   433997 
 3634000    0.9960664   -3.1724566    -1.660899  0.067054687   -3.1724566    1.5115576   433989 
 3635000   0.99643459   -3.1730898   -1.6609456  0.066752822   -3.1730898    1.5121442   433981 
 3636000     0.996001   -3.1723902   -1.6608761  0.071563999   -3.1723902    1.5115141   433973 
 3637000   0.99639945   -3.1728448   -1.6606981  0.064380733   -3.1728448    1.5121466   433965 
 3638000   0.99692754   -3.1728638   -1.6598878   0.07203452   -3.1728638     1.512976   433957 
 3639000    0.9970962   -3.1721041   -1.6588443  0.071582304   -3.1721041    1.5132598   433949 
 3640000   0.99707015   -3.1719763   -1.6587281  0.064593321   -3.1719763    1.5132482   433941 
 3641000   0.99643119   -3.1726498   -1.6603435  0.068373356   -3.1726498    1.5123063   433933 
 3642000   0.99541297   -3.1714335   -1.6606447  0.070469414   -3.1714335    1.5107888   433925 
 3643000   0.99852224   -3.1762741   -1.6607383  0.066366825   -3.1762741    1.5155358   433917 
 3644000   0.99919092   -3.1773621   -1.6607834  0.067943673   -3.1773621    1.5165787   433909 
 3645000   0.99649767   -3.1736583   -1.6611396  0.071324621   -3.1736583    1.5125188   433901 
 3646000    0.9985038   -3.1770843   -1.6614926  0.072922817   -3.1770843    1.5155917   433893 
 3647000    0.9970045   -3.1755404   -1.6621966  0.069915717   -3.1755404    1.5133438   433885 
 3648000    0.9978579   -3.1769504   -1.6622833  0.066799249   -3.1769504    1.5146671   433877 
 3649000   0.99723369   -3.1763717   -1.6626241  0.074013146   -3.1763717    1.5137476   433869 
 3650000   0.99617193   -3.1751373   -1.6629736  0.071041485   -3.1751373    1.5121637   433861 
 3651000   0.99779188   -3.1778164   -1.6631657   0.07194376   -3.1778164    1.5146507   433853 
 3652000   0.99602732   -3.1761434   -1.6641434  0.070832962   -3.1761434        1.512   433845 
 3653000    0.9958949   -3.1774661   -1.6656393  0.065351586   -3.1774661    1.5118268   433837 
 3654000   0.99637318   -3.1769877   -1.6644069  0.072504209   -3.1769877    1.5125808   433829 
 3655000   0.99633694   -3.1772831   -1.6647294  0.072006721   -3.1772831    1.5125537   433821 
 3656000   0.99681778   -3.1765559   -1.6632444  0.072101413   -3.1765559    1.5133116   433813 
 3657000   0.99876803   -3.1791349   -1.6628347  0.070360794   -3.1791349    1.5163003   433805 
 3658000   0.99715693    -3.177076   -1.6631937  0.074227109    -3.177076    1.5138823   433797 
 3659000   0.99864268   -3.1789342   -1.6627684  0.070088083   -3.1789342    1.5161659   433789 
 3660000   0.99786942   -3.1780507   -1.6630309  0.075822964   -3.1780507    1.5150198   433781 
 3661000   0.99897852   -3.1792212   -1.6624895  0.068634857   -3.1792212    1.5167317   433773 
 3662000   0.99854746   -3.1787192    -1.662614   0.07559245   -3.1787192    1.5161052   433765 
 3663000   0.99660428   -3.1762822   -1.6630995  0.073779295   -3.1762822    1.5131828   433757 
 3664000   0.99805283   -3.1780794   -1.6626693  0.066676755   -3.1780794    1.5154101   433749 
 3665000   0.99722142    -3.177142   -1.6629664  0.068312558    -3.177142    1.5141756   433741 
 3666000   0.99614948   -3.1759839    -1.663408  0.065456063   -3.1759839    1.5125759   433733 
 3667000   0.99632443   -3.1760704   -1.6632009  0.065819347   -3.1760704    1.5128695   433725 
 3668000   0.99629457   -3.1749597   -1.6621076  0.071624647   -3.1749597     1.512852   433717 
 3669000   0.99505869   -3.1748326   -1.6638293   0.07137918   -3.1748326    1.5110032   433709 
 3670000   0.99575164   -3.1756953   -1.6636119  0.073517298   -3.1756953    1.5120834   433701 
 3671000   0.99518958   -3.1746666   -1.6634088  0.068879607   -3.1746666    1.5112577   433693 
 3672000    0.9955941    -3.175257   -1.6633571  0.071655766    -3.175257    1.5118999   433685 
 3673000   0.99607854   -3.1765415    -1.663878  0.069194873   -3.1765415    1.5126635   433677 
 3674000    0.9956874   -3.1740819   -1.6619845  0.072478458   -3.1740819    1.5120974   433669 
 3675000   0.99643407   -3.1730301   -1.6597708  0.067557759   -3.1730301    1.5132592   433661 
 3676000   0.99625395   -3.1723487   -1.6593351  0.070801991   -3.1723487    1.5130136   433653 
 3677000   0.99581704   -3.1743032   -1.6619252  0.073214134   -3.1743032     1.512378   433645 
 3678000   0.99440625   -3.1731739   -1.6629106  0.067283919   -3.1731739    1.5102632   433637 
 3679000   0.99424821   -3.1737695   -1.6637185  0.072982863   -3.1737695     1.510051   433629 
 3680000   0.99536643   -3.1758851   -1.6641078   0.06969473   -3.1758851    1.5117773   433621 
 3681000   0.99586955   -3.1760261   -1.6634567  0.071552152   -3.1760261    1.5125693   433613 
 3682000   0.99436755    -3.173092   -1.6627761  0.069872363    -3.173092    1.5103159   433605 
 3683000   0.99530326   -3.1752304   -1.6634654   0.06947701   -3.1752304     1.511765   433597 
 3684000    0.9953716   -3.1762321   -1.6643354  0.064728653   -3.1762321    1.5118967   433589 
 3685000   0.99629505   -3.1779072   -1.6645799  0.065834992   -3.1779072    1.5133273   433581 
 3686000   0.99418004   -3.1757975    -1.665655  0.066211635   -3.1757975    1.5101425   433573 
 3687000   0.99439407   -3.1756722   -1.6651767  0.075679914   -3.1756722    1.5104955   433565 
 3688000   0.99604134   -3.1772675   -1.6642419  0.074845094   -3.1772675    1.5130257   433557 
 3689000   0.99517376   -3.1776171   -1.6658815   0.07004943   -3.1776171    1.5117357   433549 
 3690000   0.99616514   -3.1784931   -1.6652235  0.072355028   -3.1784931    1.5132696   433541 
 3691000   0.99564298   -3.1782909   -1.6657866  0.071379663   -3.1782909    1.5125043   433533 
 3692000     0.995886   -3.1795768   -1.6666754  0.070172829   -3.1795768    1.5129014   433525 
 3693000   0.99603639   -3.1799365   -1.6667787  0.071719435   -3.1799365    1.5131577   433517 
 3694000   0.99734445   -3.1818168   -1.6666439   0.07078748   -3.1818168    1.5151729   433509 
 3695000    0.9953594   -3.1794423   -1.6672572  0.071521107   -3.1794423    1.5121851   433501 
 3696000   0.99619359   -3.1803893   -1.6669089  0.072068222   -3.1803893    1.5134804   433493 
 3697000   0.99596004   -3.1812356   -1.6680822  0.072124837   -3.1812356    1.5131534   433485 
 3698000   0.99414977    -3.178471     -1.66804  0.067221304    -3.178471     1.510431   433477 
 3699000   0.99612834   -3.1817598   -1.6682948  0.068527828   -3.1817598     1.513465   433469 
 3700000   0.99485431   -3.1786684   -1.6671112  0.067622262   -3.1786684    1.5115572   433461 
 3701000   0.99574923   -3.1809164   -1.6679715  0.069388867   -3.1809164    1.5129448   433453 
 3702000   0.99583121   -3.1803398   -1.6672425  0.073365813   -3.1803398    1.5130973   433445 
 3703000   0.99671543   -3.1810089   -1.6665401  0.067253542   -3.1810089    1.5144688   433437 
 3704000    0.9971418    -3.182191   -1.6670464  0.072119005    -3.182191    1.5151446   433429 
 3705000   0.99586441   -3.1807489   -1.6675173  0.073171676   -3.1807489    1.5132316   433421 
 3706000   0.99617882   -3.1816653    -1.667928  0.074265851   -3.1816653    1.5137373   433413 
 3707000   0.99526018    -3.179788   -1.6674188  0.071822942    -3.179788    1.5123693   433405 
 3708000   0.99454121   -3.1786983   -1.6673937  0.068932996   -3.1786983    1.5113046   433397 
 3709000   0.99556714   -3.1802501   -1.6673586  0.070072984   -3.1802501    1.5128916   433389 
 3710000    0.9959392   -3.1802064   -1.6667216  0.070761554   -3.1802064    1.5134849   433381 
 3711000   0.99436894   -3.1760744   -1.6649478  0.074075594   -3.1760744    1.5111265   433373 
 3712000   0.99617215   -3.1796962   -1.6658014  0.071070621   -3.1796962    1.5138948   433365 
 3713000   0.99602107   -3.1783226   -1.6646295  0.075168265   -3.1783226    1.5136931   433357 
 3714000   0.99525741   -3.1770493   -1.6644888  0.074239356   -3.1770493    1.5125605   433349 
 3715000   0.99436754   -3.1745812   -1.6633452  0.074791404   -3.1745812     1.511236   433341 
 3716000   0.99512283   -3.1770285   -1.6646167  0.069122071   -3.1770285    1.5124118   433333 
 3717000   0.99467368   -3.1738402   -1.6620831   0.07379223   -3.1738402    1.5117571   433325 
 3718000   0.99524356   -3.1760952   -1.6634441  0.069174196   -3.1760952    1.5126511   433317 
 3719000   0.99612313   -3.1779025   -1.6638865   0.06869126   -3.1779025    1.5140159   433309 
 3720000   0.99462977   -3.1762585   -1.6644844  0.068478048   -3.1762585    1.5117741   433301 
 3721000   0.99457326   -3.1749479   -1.6632318  0.065292142   -3.1749479    1.5117161   433293 
 3722000   0.99407963   -3.1744403   -1.6634467    0.0672539   -3.1744403    1.5109937   433285 
 3723000   0.99474578   -3.1747025   -1.6626683  0.071473941   -3.1747025    1.5120342   433277 
 3724000   0.99511824   -3.1753108   -1.6626826  0.068562326   -3.1753108    1.5126282   433269 
 3725000   0.99499846   -3.1747819   -1.6623078  0.070123265   -3.1747819    1.5124741   433261 
 3726000   0.99530873   -3.1748756   -1.6619019  0.073390109   -3.1748756    1.5129737   433253 
 3727000   0.99577423   -3.1759933   -1.6622841  0.071736343   -3.1759933    1.5137092   433245 
 3728000   0.99580054   -3.1755428   -1.6617656  0.066373915   -3.1755428    1.5137772   433237 
 3729000   0.99496915   -3.1746605   -1.6621192  0.073430453   -3.1746605    1.5125413   433229 
 3730000   0.99459002   -3.1742263   -1.6622335  0.063225042   -3.1742263    1.5119928   433221 
 3731000    0.9963914   -3.1778976   -1.6631384  0.068319196   -3.1778976    1.5147593   433213 
 3732000   0.99460746   -3.1762127   -1.6641375  0.072676848   -3.1762127    1.5120752   433205 
 3733000   0.99301385   -3.1737189   -1.6640385  0.072403678   -3.1737189    1.5096803   433197 
 3734000   0.99375646   -3.1745673   -1.6637301  0.068298841   -3.1745673    1.5108372   433189 
 3735000   0.99362044   -3.1738348   -1.6631765  0.072104477   -3.1738348    1.5106583   433181 
 3736000   0.99286622   -3.1729911   -1.6634516  0.070885022   -3.1729911    1.5095395   433173 
 3737000   0.99340868    -3.173919   -1.6635269  0.073222242    -3.173919    1.5103922   433165 
 3738000   0.99525448   -3.1770757   -1.6638492  0.071377639   -3.1770757    1.5132265   433157 
 3739000   0.99484199   -3.1769361   -1.6643089   0.06717561   -3.1769361    1.5126273   433149 
 3740000    0.9944151   -3.1763729   -1.6643667  0.074488819   -3.1763729    1.5120061   433141 
 3741000   0.99467425   -3.1762503   -1.6638222  0.072408696   -3.1762503    1.5124281   433133 
 3742000   0.99661892   -3.1780414   -1.6626284  0.073921288   -3.1780414     1.515413   433125 
 3743000    0.9960544   -3.1785008   -1.6639182  0.069021541   -3.1785008    1.5145826   433117 
 3744000   0.99752994   -3.1814874   -1.6646331  0.068955977   -3.1814874    1.5168543   433109 
 3745000   0.99590838   -3.1791671   -1.6647506  0.071826965   -3.1791671    1.5144165   433101 
 3746000   0.99511287   -3.1786369   -1.6654021   0.07582812   -3.1786369    1.5132348   433093 
 3747000   0.99590078    -3.179901   -1.6654401  0.075174401    -3.179901    1.5144609   433085 
 3748000   0.99525712   -3.1804188   -1.6669088  0.068309618   -3.1804188      1.51351   433077 
 3749000   0.99517879   -3.1822699    -1.668851  0.067970565   -3.1822699    1.5134189   433069 
 3750000   0.99497249    -3.181474   -1.6683409  0.066906902    -3.181474    1.5131331   433061 
 3751000   0.99483863   -3.1804614    -1.667504  0.069398136   -3.1804614    1.5129575   433053 
 3752000   0.99491162   -3.1804871   -1.6673907  0.070481225   -3.1804871    1.5130964   433045 
 3753000    0.9949879   -3.1819656   -1.6687252  0.069739166   -3.1819656    1.5132404   433037 
 3754000    0.9950455   -3.1820305   -1.6686746  0.074450853   -3.1820305    1.5133559   433029 
 3755000   0.99574209   -3.1817992   -1.6673559  0.072609302   -3.1817992    1.5144434   433021 
 3756000   0.99747456    -3.183101   -1.6659947  0.075618995    -3.183101    1.5171063   433013 
 3757000   0.99541484   -3.1802518   -1.6662502  0.076684701   -3.1802518    1.5140016   433005 
 3758000   0.99480215   -3.1814196   -1.6683219  0.071331722   -3.1814196    1.5130977   432997 
 3759000   0.99495361   -3.1809686   -1.6676127  0.070897823   -3.1809686     1.513356   432989 
 3760000   0.99434168   -3.1804065   -1.6679533  0.075786652   -3.1804065    1.5124532   432981 
 3761000   0.99551626   -3.1808937   -1.6666259  0.066880014   -3.1808937    1.5142678   432973 
 3762000   0.99514856   -3.1802903   -1.6665538  0.069078368   -3.1802903    1.5137364   432965 
 3763000   0.99396034    -3.178052   -1.6660951  0.074544612    -3.178052    1.5119569   432957 
 3764000   0.99539742   -3.1803688   -1.6661978  0.070178274   -3.1803688    1.5141709   432949 
 3765000   0.99422368   -3.1789519   -1.6665385  0.068532059   -3.1789519    1.5124134   432941 
 3766000   0.99511093    -3.180735    -1.666944  0.070679649    -3.180735    1.5137911   432933 
 3767000   0.99385451   -3.1800093   -1.6681016  0.070808028   -3.1800093    1.5119077   432925 
 3768000   0.99420233   -3.1811213   -1.6686566   0.06889178   -3.1811213    1.5124648   432917 
 3769000   0.99460108    -3.179996   -1.6668966  0.072013815    -3.179996    1.5130993   432909 
 3770000    0.9936534   -3.1787233   -1.6670377  0.073162526   -3.1787233    1.5116856   432901 
 3771000   0.99478694    -3.179922   -1.6664839  0.071187147    -3.179922     1.513438   432893 
 3772000    0.9950066   -3.1803257   -1.6665255  0.073173416   -3.1803257    1.5138002   432885 
 3773000    0.9954369   -3.1802958    -1.665813  0.065876904   -3.1802958    1.5144828   432877 
 3774000   0.99371133   -3.1771214   -1.6652359  0.069478012   -3.1771214    1.5118854   432869 
 3775000   0.99435237   -3.1771636   -1.6642749  0.075243771   -3.1771636    1.5128887   432861 
 3776000   0.99387372   -3.1765517   -1.6643633  0.069175676   -3.1765517    1.5121884   432853 
 3777000    0.9942721   -3.1784433   -1.6656208  0.071762971   -3.1784433    1.5128225   432845 
 3778000   0.99401948   -3.1779164   -1.6654503   0.06762882   -3.1779164    1.5124661   432837 
 3779000   0.99419861   -3.1780307   -1.6652641  0.069155496   -3.1780307    1.5127666   432829 
 3780000   0.99320113   -3.1761433   -1.6648665  0.070080954   -3.1761433    1.5112768   432821 
 3781000   0.99405099   -3.1776621   -1.6650642  0.065183683   -3.1776621    1.5125979   432813 
 3782000   0.99449414   -3.1772323   -1.6639321  0.070969534   -3.1772323    1.5133002   432805 
 3783000   0.99367824   -3.1779478   -1.6658612  0.072924526   -3.1779478    1.5120866   432797 
 3784000   0.99358077   -3.1778725   -1.6659062  0.068350522   -3.1778725    1.5119662   432789 
 3785000   0.99425564   -3.1785416   -1.6655204  0.068714479   -3.1785416    1.5130212   432781 
 3786000   0.99350354     -3.17817   -1.6662654  0.074018257     -3.17817    1.5119046   432773 
 3787000   0.99246362   -3.1762017   -1.6658517  0.066265027   -3.1762017      1.51035   432765 
 3788000   0.99159899   -3.1739122   -1.6648501  0.067823364   -3.1739122    1.5090621   432757 
 3789000   0.99313854   -3.1768531   -1.6654201  0.067670338   -3.1768531     1.511433   432749 
 3790000   0.99389848   -3.1774817   -1.6648642  0.067251935   -3.1774817    1.5126175   432741 
 3791000   0.99444889   -3.1794686   -1.6659855  0.066772595   -3.1794686    1.5134831   432733 
 3792000   0.99264631   -3.1765413   -1.6657737  0.066421357   -3.1765413    1.5107677   432725 
 3793000   0.99300514   -3.1776641   -1.6663224  0.073401566   -3.1776641    1.5113417   432717 
 3794000   0.99665709   -3.1804811   -1.6635531   0.06756054   -3.1804811     1.516928   432709 
 3795000   0.99533996   -3.1793684   -1.6644171  0.071132932   -3.1793684    1.5149513   432701 
 3796000   0.99545555   -3.1804996   -1.6653444  0.070534486   -3.1804996    1.5151552   432693 
 3797000   0.99499323   -3.1800957   -1.6656162  0.068445018   -3.1800957    1.5144796   432685 
 3798000   0.99346089    -3.177314   -1.6651388  0.070403839    -3.177314    1.5121752   432677 
 3799000   0.99410007   -3.1781775   -1.6650014  0.073424113   -3.1781775     1.513176   432669 
 3800000    0.9938352   -3.1778189   -1.6650181  0.068185844   -3.1778189    1.5128008   432661 
 3801000   0.99435336   -3.1799598   -1.6663423  0.068338306   -3.1799598    1.5136176   432653 
 3802000   0.99340662   -3.1782757   -1.6660713  0.072082044   -3.1782757    1.5122044   432645 
 3803000   0.99484561   -3.1802705   -1.6658477  0.069015887   -3.1802705    1.5144229   432637 
 3804000   0.99430214   -3.1784479   -1.6648243   0.07125134   -3.1784479    1.5136236   432629 
 3805000   0.99246871   -3.1764476   -1.6655871  0.067669996   -3.1764476    1.5108605   432621 
 3806000   0.99420349   -3.1779925   -1.6644631  0.070029901   -3.1779925    1.5135294   432613 
 3807000   0.99462881   -3.1799849     -1.66578  0.074161504   -3.1799849    1.5142048   432605 
 3808000   0.99260136   -3.1766314   -1.6654852  0.069179235   -3.1766314    1.5111462   432597 
 3809000   0.99375095   -3.1764652   -1.6635409  0.070150182   -3.1764652    1.5129244   432589 
 3810000   0.99244923   -3.1751193   -1.6641488  0.070291423   -3.1751193    1.5109705   432581 
 3811000   0.99372783   -3.1777021    -1.664757  0.067118166   -3.1777021    1.5129451   432573 
 3812000   0.99180318   -3.1759822   -1.6659394  0.065315708   -3.1759822    1.5100428   432565 
 3813000   0.99152631   -3.1747776   -1.6651285  0.071536275   -3.1747776    1.5096492   432557 
 3814000   0.99124272   -3.1768802   -1.6676349  0.066898964   -3.1768802    1.5092453   432549 
 3815000   0.99085762   -3.1765335   -1.6678466  0.066016237   -3.1765335    1.5086868   432541 
 3816000   0.99230511   -3.1779738   -1.6670551  0.063942665   -3.1779738    1.5109188   432533 
 3817000   0.99238349   -3.1781849   -1.6671189  0.065694239   -3.1781849     1.511066   432525 
 3818000   0.99366458   -3.1806732   -1.6676286  0.063705814   -3.1806732    1.5130447   432517 
 3819000   0.99250475   -3.1795712   -1.6682646  0.068510684   -3.1795712    1.5113066   432509 
 3820000   0.99321985   -3.1796933   -1.6672698  0.066401482   -3.1796933    1.5124235   432501 
 3821000   0.99217835   -3.1780444   -1.6671789  0.069283514   -3.1780444    1.5108655   432493 
 3822000   0.99098916   -3.1770414   -1.6679589  0.066597011   -3.1770414    1.5090825   432485 
 3823000   0.99403855   -3.1808933   -1.6671391  0.072192871   -3.1808933    1.5137541   432477 
 3824000   0.99398469   -3.1802996   -1.6665995  0.070375862   -3.1802996    1.5137001   432469 
 3825000   0.99468113    -3.180888   -1.6660993  0.074205344    -3.180888    1.5147887   432461 
 3826000   0.99436768   -3.1801648   -1.6658254  0.066182298   -3.1801648    1.5143394   432453 
 3827000   0.99445238   -3.1812646   -1.6667682  0.074611168   -3.1812646    1.5144964   432445 
 3828000   0.99545548    -3.181378   -1.6653259  0.068911346    -3.181378    1.5160521   432437 
 3829000   0.99648012   -3.1821219   -1.6644812  0.069096944   -3.1821219    1.5176407   432429 
 3830000   0.99627645   -3.1826452   -1.6652867  0.069009389   -3.1826452    1.5173586   432421 
 3831000   0.99478855   -3.1811515    -1.666031  0.071735041   -3.1811515    1.5151205   432413 
 3832000   0.99362362   -3.1794205   -1.6660462  0.072295137   -3.1794205    1.5133742   432405 
 3833000   0.99429359   -3.1800086   -1.6655859  0.074368803   -3.1800086    1.5144227   432397 
 3834000    0.9927256   -3.1800165   -1.6679541   0.06942792   -3.1800165    1.5120624   432389 
 3835000    0.9909347   -3.1781376   -1.6687751  0.069394807   -3.1781376    1.5093625   432381 
 3836000   0.99167045   -3.1794968   -1.6689856  0.062313015   -3.1794968    1.5105112   432373 
 3837000   0.99171863   -3.1782503   -1.6676378  0.064439849   -3.1782503    1.5106125   432365 
 3838000   0.99034471   -3.1773789   -1.6688313  0.065657894   -3.1773789    1.5085476   432357 
 3839000   0.99182585   -3.1786165   -1.6677848  0.071813211   -3.1786165    1.5108317   432349 
 3840000   0.98991017   -3.1777015     -1.66976  0.071450929   -3.1777015    1.5079415   432341 
 3841000   0.99095062   -3.1781764    -1.668622  0.062798322   -3.1781764    1.5095544   432333 
 3842000   0.99041872   -3.1774518   -1.6686798  0.064711547   -3.1774518     1.508772   432325 
 3843000   0.99035392    -3.177561   -1.6688598  0.065235283    -3.177561    1.5087012   432317 
 3844000   0.99065946   -3.1768022   -1.6676076  0.067729707   -3.1768022    1.5091946   432309 
 3845000   0.99107805   -3.1786237   -1.6687635  0.067547779   -3.1786237    1.5098602   432301 
 3846000   0.99228568   -3.1809984   -1.6692705  0.069186617   -3.1809984     1.511728   432293 
 3847000   0.99185722   -3.1795311   -1.6684279  0.062364177   -3.1795311    1.5111032   432285 
 3848000   0.99221042   -3.1799055   -1.6682363  0.074655547   -3.1799055    1.5116693   432277 
 3849000   0.99173228   -3.1793994   -1.6684306   0.06987257   -3.1793994    1.5109688   432269 
 3850000   0.99128463   -3.1781875   -1.6678728  0.073537884   -3.1781875    1.5103147   432261 
 3851000   0.99124461   -3.1777349   -1.6674533  0.073414201   -3.1777349    1.5102817   432253 
 3852000   0.99075197   -3.1775902   -1.6680311  0.070377895   -3.1775902     1.509559   432245 
 3853000   0.99217493   -3.1796325   -1.6678775  0.072799351   -3.1796325    1.5117551   432237 
 3854000   0.99141829   -3.1796259   -1.6689958  0.077454306   -3.1796259    1.5106302   432229 
 3855000   0.99255676   -3.1810385   -1.6686457  0.070559961   -3.1810385    1.5123929   432221 
 3856000   0.99079766   -3.1789611   -1.6692207   0.07109286   -3.1789611    1.5097404   432213 
 3857000   0.99217318    -3.181317   -1.6694526  0.064237623    -3.181317    1.5118644   432205 
 3858000   0.99312207   -3.1840755   -1.6707372  0.070248813   -3.1840755    1.5133383   432197 
 3859000   0.99227214   -3.1820062   -1.6699351  0.067372625   -3.1820062    1.5120711   432189 
 3860000   0.99165574   -3.1818137   -1.6706539  0.070557276   -3.1818137    1.5111598   432181 
 3861000   0.99142343    -3.182048   -1.6712142   0.07184103    -3.182048    1.5108338   432173 
 3862000   0.99143377   -3.1836025    -1.672725  0.071685563   -3.1836025    1.5108775   432165 
 3863000   0.99262101   -3.1842882   -1.6715734  0.070584109   -3.1842882    1.5127148   432157 
 3864000   0.99166831   -3.1828106   -1.6715197  0.072894366   -3.1828106    1.5112909   432149 
 3865000   0.99238508   -3.1833538   -1.6709426  0.071227415   -3.1833538    1.5124112   432141 
 3866000   0.99201476   -3.1821326   -1.6702578   0.07191364   -3.1821326    1.5118748   432133 
 3867000   0.99369232   -3.1842669   -1.6698074  0.068660042   -3.1842669    1.5144595   432125 
 3868000   0.99284106    -3.183065   -1.6698748   0.07079208    -3.183065    1.5131902   432117 
 3869000   0.99193186   -3.1811239   -1.6692915  0.075607107   -3.1811239    1.5118324   432109 
 3870000   0.99440147   -3.1844424   -1.6688179  0.071766084   -3.1844424    1.5156245   432101 
 3871000    0.9935983   -3.1836175   -1.6691891  0.070828112   -3.1836175    1.5144284   432093 
 3872000   0.99206063   -3.1829476    -1.670835  0.073406087   -3.1829476    1.5121127   432085 
 3873000    0.9931772   -3.1846373   -1.6707947  0.067316324   -3.1846373    1.5138426   432077 
 3874000   0.99195801   -3.1834274   -1.6714151  0.063820899   -3.1834274    1.5120123   432069 
 3875000   0.99050078   -3.1815236   -1.6717046  0.065309767   -3.1815236     1.509819   432061 
 3876000   0.99067031   -3.1812346   -1.6711293  0.069238274   -3.1812346    1.5101054   432053 
 3877000   0.98963624   -3.1816299   -1.6730729  0.068640255   -3.1816299    1.5085571   432045 
 3878000    0.9903642   -3.1817761   -1.6720815  0.062155505   -3.1817761    1.5096947   432037 
 3879000   0.98932201   -3.1815412   -1.6734073  0.066075977   -3.1815412    1.5081339   432029 
 3880000   0.98940004   -3.1826394   -1.6743586  0.065613854   -3.1826394    1.5082808   432021 
 3881000   0.98935823   -3.1831075   -1.6748625  0.069993844   -3.1831075     1.508245   432013 
 3882000   0.98923967   -3.1829297   -1.6748376  0.062311848   -3.1829297    1.5080922   432005 
 3883000   0.98897695   -3.1827804   -1.6750609  0.068110575   -3.1827804    1.5077196   431997 
 3884000   0.99041465   -3.1844562   -1.6745168  0.065708462   -3.1844562    1.5099393   431989 
 3885000   0.98962574    -3.183606   -1.6748415  0.071899382    -3.183606    1.5087645   431981 
 3886000   0.99102241     -3.18612   -1.6751981  0.068362723     -3.18612    1.5109219   431973 
 3887000   0.99054001   -3.1867529   -1.6765385   0.06956757   -3.1867529    1.5102144   431965 
 3888000   0.99045604   -3.1878608   -1.6777465  0.069427159   -3.1878608    1.5101143   431957 
 3889000   0.99162699   -3.1879035   -1.6759759  0.068396961   -3.1879035    1.5119276   431949 
 3890000    0.9917359   -3.1880727   -1.6759511  0.066484725   -3.1880727    1.5121217   431941 
 3891000   0.99035995   -3.1862467    -1.676195   0.07209915   -3.1862467    1.5100517   431933 
 3892000   0.99274206    -3.189375   -1.6756632  0.069381982    -3.189375    1.5137119   431925 
 3893000   0.99072753   -3.1882088   -1.6775407  0.069487008   -3.1882088    1.5106681   431917 
 3894000   0.99247526   -3.1901479   -1.6767868  0.075684357   -3.1901479    1.5133611   431909 
 3895000   0.99388456   -3.1927341    -1.677196  0.073275372   -3.1927341    1.5155381   431901 
 3896000   0.99208278   -3.1896302   -1.6768115  0.073202989   -3.1896302    1.5128187   431893 
 3897000    0.9943688   -3.1933787    -1.677046  0.071607646   -3.1933787    1.5163327   431885 
 3898000   0.99303835   -3.1922617   -1.6779298  0.072857319   -3.1922617    1.5143319   431877 
 3899000   0.99370263   -3.1930541   -1.6776811   0.07482948   -3.1930541     1.515373   431869 
 3900000   0.99236167   -3.1915348   -1.6781787  0.077720936   -3.1915348    1.5133561   431861 
 3901000   0.99214315   -3.1912237   -1.6781728  0.074568197   -3.1912237    1.5130509   431853 
 3902000   0.99225163   -3.1918204    -1.678576  0.071995151   -3.1918204    1.5132443   431845 
 3903000   0.99106949   -3.1907002   -1.6792307  0.069733627   -3.1907002    1.5114695   431837 
 3904000   0.99102589   -3.1903443   -1.6789133  0.066056555   -3.1903443     1.511431   431829 
 3905000    0.9904186   -3.1895309   -1.6789981  0.077095798   -3.1895309    1.5105328   431821 
 3906000   0.99170866   -3.1915338   -1.6790054  0.065664391   -3.1915338    1.5125284   431813 
 3907000   0.99128303   -3.1901565   -1.6782493  0.067186055   -3.1901565    1.5119072   431805 
 3908000   0.99054775   -3.1896559   -1.6788421  0.064430144   -3.1896559    1.5108137   431797 
 3909000   0.99034445    -3.188845   -1.6783134  0.070201913    -3.188845    1.5105316   431789 
 3910000   0.98874698   -3.1866025   -1.6784795  0.068177932   -3.1866025     1.508123   431781 
 3911000    0.9910223   -3.1887862   -1.6771646  0.065937206   -3.1887862    1.5116216   431773 
 3912000   0.99163642   -3.1888296   -1.6762433  0.065734494   -3.1888296    1.5125863   431765 
 3913000   0.99069714   -3.1874965   -1.6763149  0.066958924   -3.1874965    1.5111816   431757 
 3914000   0.99067296   -3.1873588   -1.6761861  0.069368543   -3.1873588    1.5111727   431749 
 3915000   0.99252328   -3.1893711   -1.6753479   0.06515784   -3.1893711    1.5140232   431741 
 3916000   0.99124979   -3.1859929   -1.6738843  0.070748353   -3.1859929    1.5121086   431733 
 3917000    0.9908333   -3.1841082   -1.6726069  0.069263231   -3.1841082    1.5115013   431725 
 3918000   0.99022622   -3.1842847   -1.6736815   0.06903471   -3.1842847    1.5106032   431717 
 3919000   0.99125382   -3.1853076   -1.6731088  0.071216254   -3.1853076    1.5121988   431709 
 3920000   0.98926318   -3.1816745   -1.6724845  0.069478448   -3.1816745      1.50919   431701 
 3921000   0.98940504   -3.1829599   -1.6735255  0.070907614   -3.1829599    1.5094344   431693 
 3922000    0.9926704   -3.1878879   -1.6734438  0.070037834   -3.1878879    1.5144441   431685 
 3923000   0.99171655   -3.1879693   -1.6749523  0.069163934   -3.1879693    1.5130169   431677 
 3924000   0.99042459   -3.1854083   -1.6743345  0.069968557   -3.1854083    1.5110738   431669 
 3925000   0.99080724   -3.1858465   -1.6741608  0.070252192   -3.1858465    1.5116856   431661 
 3926000   0.99043392   -3.1834772   -1.6723331   0.07205076   -3.1834772    1.5111441   431653 
 3927000   0.99070943   -3.1842532   -1.6726608  0.072321746   -3.1842532    1.5115925   431645 
 3928000   0.99092892   -3.1842024    -1.672247  0.066081762   -3.1842024    1.5119554   431637 
 3929000   0.99099519   -3.1837886   -1.6717041  0.069839493   -3.1837886    1.5120845   431629 
 3930000   0.98926374   -3.1819025   -1.6724319  0.072763829   -3.1819025    1.5094706   431621 
 3931000   0.99126514   -3.1853862   -1.6728337  0.070855982   -3.1853862    1.5125525   431613 
 3932000   0.99170619    -3.185963   -1.6727095   0.06770205    -3.185963    1.5132535   431605 
 3933000   0.99006848   -3.1849147   -1.6741322  0.064887199   -3.1849147    1.5107825   431597 
 3934000   0.99035439    -3.184708   -1.6734612  0.068526571    -3.184708    1.5112468   431589 
 3935000   0.99110788   -3.1848076   -1.6723829  0.069039397   -3.1848076    1.5124246   431581 
 3936000     0.992003   -3.1842206   -1.6704019  0.069337851   -3.1842206    1.5138187   431573 
 3937000   0.99158377   -3.1847587   -1.6715517   0.06434399   -3.1847587    1.5132069   431565 
 3938000   0.99193702   -3.1856994   -1.6719253  0.066821616   -3.1856994    1.5137741   431557 
 3939000   0.99059898   -3.1841477   -1.6723876  0.067869255   -3.1841477    1.5117601   431549 
 3940000   0.99066871   -3.1840828   -1.6721882  0.070547217   -3.1840828    1.5118946   431541 
 3941000   0.99096553   -3.1847727    -1.672397  0.067980433   -3.1847727    1.5123756   431533 
 3942000   0.99175416   -3.1863743    -1.672767  0.068143333   -3.1863743    1.5136073   431525 
 3943000   0.99155514   -3.1848879   -1.6715563  0.070388121   -3.1848879    1.5133316   431517 
 3944000   0.99055059   -3.1833516   -1.6715251  0.069831298   -3.1833516    1.5118264   431509 
 3945000   0.99101649   -3.1850544   -1.6724888  0.068619825   -3.1850544    1.5125656   431501 
 3946000    0.9885142   -3.1823906   -1.6736162  0.072841909   -3.1823906    1.5087743   431493 
 3947000   0.99035703   -3.1860143   -1.6743993  0.067285111   -3.1860143    1.5116151   431485 
 3948000   0.98995258   -3.1854726   -1.6744468  0.065127459   -3.1854726    1.5110258   431477 
 3949000   0.98961759   -3.1854896   -1.6749471  0.066674608   -3.1854896    1.5105425   431469 
 3950000   0.98819807   -3.1826568   -1.6742531  0.069033671   -3.1826568    1.5084037   431461 
 3951000   0.98837796   -3.1836081   -1.6749019  0.071077512   -3.1836081    1.5087063   431453 
 3952000    0.9882843   -3.1842304   -1.6756391  0.068373175   -3.1842304    1.5085913   431445 
 3953000   0.98853501   -3.1834566   -1.6744547  0.070824031   -3.1834566    1.5090019   431437 
 3954000   0.98907514   -3.1847153   -1.6748608  0.065247527   -3.1847153    1.5098544   431429 
 3955000   0.98799183   -3.1833863   -1.6751576  0.070023751   -3.1833863    1.5082287   431421 
 3956000   0.99035144   -3.1863232   -1.6744644  0.067749059   -3.1863232    1.5118588   431413 
 3957000   0.99040891   -3.1848669   -1.6728923  0.070273447   -3.1848669    1.5119746   431405 
 3958000   0.99112627   -3.1857619   -1.6726641  0.066413825   -3.1857619    1.5130978   431397 
 3959000    0.9918042   -3.1870289    -1.672868  0.068181573   -3.1870289    1.5141608   431389 
 3960000   0.99049321   -3.1864099   -1.6742225    0.0664787   -3.1864099    1.5121874   431381 
 3961000   0.99055794   -3.1871568   -1.6748425  0.070424718   -3.1871568    1.5123143   431373 
 3962000   0.99225917    -3.189713   -1.6747733  0.066455369    -3.189713    1.5149397   431365 
 3963000   0.99179606   -3.1879603   -1.6736996  0.069230552   -3.1879603    1.5142607   431357 
 3964000   0.98993755   -3.1857936   -1.6743424  0.072889149   -3.1857936    1.5114512   431349 
 3965000   0.98928671   -3.1844937   -1.6740082  0.068893105   -3.1844937    1.5104855   431341 
 3966000   0.99005353     -3.18661   -1.6749256  0.070119625     -3.18661    1.5116844   431333 
 3967000   0.98867999   -3.1870567   -1.6774416  0.066214446   -3.1870567    1.5096151   431325 
 3968000   0.98995313   -3.1879598   -1.6763727  0.064512555   -3.1879598    1.5115871   431317 
 3969000   0.98974444   -3.1865416    -1.675245  0.075856391   -3.1865416    1.5112965   431309 
 3970000   0.99076926   -3.1886015   -1.6757121  0.062420175   -3.1886015    1.5128894   431301 
 3971000   0.98968147   -3.1867323   -1.6754759  0.067737556   -3.1867323    1.5112564   431293 
 3972000   0.99095115   -3.1898253   -1.6766019  0.064440052   -3.1898253    1.5132233   431285 
 3973000   0.98974413   -3.1864382     -1.67503  0.066094624   -3.1864382    1.5114082   431277 
 3974000   0.98990678   -3.1867763   -1.6750917  0.069313539   -3.1867763    1.5116846   431269 
 3975000   0.98782748   -3.1849081   -1.6763708  0.072157887   -3.1849081    1.5085373   431261 
 3976000   0.98881926   -3.1851158   -1.6750359  0.065802685   -3.1851158    1.5100799   431253 
 3977000    0.9904203   -3.1892074   -1.6766544  0.065447582   -3.1892074     1.512553   431245 
 3978000   0.98866478   -3.1858162   -1.6759162  0.070918221   -3.1858162       1.5099   431237 
 3979000   0.98928884   -3.1847037   -1.6738226  0.070335189   -3.1847037    1.5108811   431229 
 3980000   0.98966559    -3.185838   -1.6743535  0.066395424    -3.185838    1.5114845   431221 
 3981000   0.98926123   -3.1860986   -1.6752036  0.064372764   -3.1860986     1.510895   431213 
 3982000     0.989508   -3.1850952   -1.6737953   0.06729446   -3.1850952    1.5112999   431205 
 3983000   0.98856924   -3.1843128   -1.6744186  0.070017114   -3.1843128    1.5098941   431197 
 3984000   0.98904228   -3.1848395   -1.6741948   0.06641475   -3.1848395    1.5106447   431189 
 3985000   0.98942207   -3.1856302   -1.6743775  0.063314317   -3.1856302    1.5112528   431181 
 3986000   0.98963486   -3.1859652   -1.6743594  0.067316521   -3.1859652    1.5116058   431173 
 3987000   0.98873839   -3.1860672   -1.6758026  0.070775324   -3.1860672    1.5102645   431165 
 3988000   0.99003308   -3.1862139   -1.6739437  0.068159458   -3.1862139    1.5122702   431157 
 3989000   0.98872594   -3.1839364   -1.6736348  0.074263802   -3.1839364    1.5103016   431149 
 3990000   0.98929944   -3.1838495   -1.6726438   0.07005177   -3.1838495    1.5112057   431141 
 3991000   0.99115455   -3.1853523   -1.6712847  0.069298242   -3.1853523    1.5140675   431133 
 3992000   0.99001741   -3.1843471   -1.6719886  0.062782435   -3.1843471    1.5123585   431125 
 3993000     0.989985   -3.1834672   -1.6711302  0.070566312   -3.1834672    1.5123371   431117 
 3994000   0.99058839   -3.1846871   -1.6714002  0.066295691   -3.1846871    1.5132869   431109 
 3995000   0.99098363   -3.1840153   -1.6700965  0.070777999   -3.1840153    1.5139188   431101 
 3996000   0.98842997   -3.1815621   -1.6715165  0.070650942   -3.1815621    1.5100456   431093 
 3997000   0.98756793   -3.1825359   -1.6737792  0.066225295   -3.1825359    1.5087567   431085 
 3998000   0.98877511   -3.1835329    -1.672904  0.065758101   -3.1835329     1.510629   431077 
 3999000   0.98971162   -3.1851494   -1.6730616  0.066622876   -3.1851494    1.5120878   431069 
 4000000   0.98672351   -3.1809473   -1.6733968  0.070421738   -3.1809473    1.5075505   431061 
 4001000    0.9879258    -3.181462   -1.6720465  0.069172978    -3.181462    1.5094154   431053 
 4002000   0.98936529   -3.1823915   -1.6707487  0.064984788   -3.1823915    1.5116428   431045 
 4003000   0.98731471   -3.1821243   -1.6735865  0.058676474   -3.1821243    1.5085378   431037 
 4004000   0.98949931   -3.1842681   -1.6723644  0.064401191   -3.1842681    1.5119037   431029 
 4005000   0.98828201   -3.1829522   -1.6728804  0.062278331   -3.1829522    1.5100718   431021 
 4006000   0.98912481   -3.1841224   -1.6727348  0.064754391   -3.1841224    1.5113876   431013 
 4007000   0.98688634   -3.1829706   -1.6749754   0.06647389   -3.1829706    1.5079952   431005 
 4008000   0.98829909   -3.1839836   -1.6738017  0.062604042   -3.1839836     1.510182   430997 
 4009000   0.98902509   -3.1845652   -1.6732458  0.064931308   -3.1845652    1.5113194   430989 
 4010000   0.98875938   -3.1853024    -1.674361  0.072301369   -3.1853024    1.5109414   430981 
 4011000   0.98949511   -3.1855508    -1.673457  0.069073654   -3.1855508    1.5120938   430973 
 4012000    0.9900546   -3.1869678   -1.6739909  0.064611227   -3.1869678    1.5129768   430965 
 4013000   0.98892215   -3.1855628   -1.6742885  0.071337563   -3.1855628    1.5112743   430957 
 4014000   0.98902847   -3.1850093   -1.6735445  0.070875821   -3.1850093    1.5114648   430949 
 4015000   0.98818159   -3.1832078   -1.6730091  0.074047524   -3.1832078    1.5101986   430941 
 4016000   0.98832737   -3.1859851   -1.6755356  0.065407936   -3.1859851    1.5104495   430933 
 4017000   0.98737943   -3.1868078   -1.6777791  0.066317801   -3.1868078    1.5090288   430925 
 4018000   0.98634421   -3.1856524   -1.6781778  0.067627175   -3.1856524    1.5074746   430917 
 4019000   0.98699678   -3.1870708   -1.6785709  0.064211386   -3.1870708       1.5085   430909 
 4020000   0.98758295   -3.1884946   -1.6790707  0.064662728   -3.1884946    1.5094239   430901 
 4021000   0.98775727   -3.1887482   -1.6790299  0.070451194   -3.1887482    1.5097183   430893 
 4022000   0.98812401   -3.1886672   -1.6783603  0.070524793   -3.1886672    1.5103069   430885 
 4023000   0.98994454   -3.1913969   -1.6782793  0.067936547   -3.1913969    1.5131176   430877 
 4024000   0.98859376   -3.1880702   -1.6769892  0.067532836   -3.1880702     1.511081   430869 
 4025000   0.99003299   -3.1889453   -1.6756363   0.07086711   -3.1889453     1.513309   430861 
 4026000   0.98970259   -3.1892055   -1.6763734  0.073194523   -3.1892055    1.5128321   430853 
 4027000   0.98819273   -3.1869431   -1.6763909  0.069529927   -3.1869431    1.5105522   430845 
 4028000   0.98910251    -3.189884   -1.6779131  0.067925396    -3.189884    1.5119709   430837 
 4029000   0.98900598   -3.1894232   -1.6775718  0.073508893   -3.1894232    1.5118515   430829 
 4030000   0.99072376   -3.1926502   -1.6781448  0.068781793   -3.1926502    1.5145055   430821 
 4031000   0.98942881   -3.1920458   -1.6794919  0.069859464   -3.1920458     1.512554   430813 
 4032000   0.98767124   -3.1900892    -1.680194  0.069683876   -3.1900892    1.5098952   430805 
 4033000   0.98575345   -3.1872464    -1.680255   0.06342419   -3.1872464    1.5069914   430797 
 4034000   0.98757401   -3.1896206    -1.679818  0.064505141   -3.1896206    1.5098026   430789 
 4035000   0.98639358   -3.1893757   -1.6813497  0.067619938   -3.1893757     1.508026   430781 
 4036000   0.98706238   -3.1896093   -1.6805327  0.068003325   -3.1896093    1.5090765   430773 
 4037000   0.98586584   -3.1885653   -1.6812901  0.065907777   -3.1885653    1.5072752   430765 
 4038000   0.98790875   -3.1925548   -1.6821282  0.068314626   -3.1925548    1.5104266   430757 
 4039000   0.98782522   -3.1913836   -1.6810566  0.071337103   -3.1913836    1.5103269   430749 
 4040000   0.98821073   -3.1916808   -1.6807364  0.067334059   -3.1916808    1.5109444   430741 
 4041000   0.98880493   -3.1927023   -1.6808213  0.064947873   -3.1927023     1.511881   430733 
 4042000   0.98802946   -3.1908772   -1.6801538  0.068722399   -3.1908772    1.5107234   430725 
 4043000   0.98878736   -3.1915503     -1.67964  0.069803983   -3.1915503    1.5119103   430717 
 4044000   0.98804773   -3.1903016   -1.6794941  0.068657708   -3.1903016    1.5108074   430709 
 4045000   0.98791025   -3.1896468   -1.6790215  0.067499111   -3.1896468    1.5106253   430701 
 4046000   0.98789377   -3.1916472   -1.6810191  0.067959147   -3.1916472    1.5106281   430693 
 4047000   0.98757531   -3.1920977   -1.6819285  0.071490576   -3.1920977    1.5101692   430685 
 4048000   0.98792387   -3.1911514   -1.6804211  0.071042553   -3.1911514    1.5107303   430677 
 4049000   0.98843664   -3.1910576   -1.6795151  0.070940679   -3.1910576    1.5115425   430669 
 4050000   0.98769539   -3.1907134   -1.6802764  0.068896069   -3.1907134     1.510437   430661 
 4051000   0.98799958   -3.1904344   -1.6795041  0.070061599   -3.1904344    1.5109302   430653 
 4052000   0.98809764   -3.1900238   -1.6789155  0.070956582   -3.1900238    1.5111083   430645 
 4053000   0.98746586   -3.1897792   -1.6796091  0.068980043   -3.1897792    1.5101701   430637 
 4054000   0.98758002   -3.1906842   -1.6803114  0.065880789   -3.1906842    1.5103728   430629 
 4055000   0.98745107   -3.1909727    -1.680769  0.072002132   -3.1909727    1.5102036   430621 
 4056000   0.98635251    -3.190782   -1.6822305  0.069275744    -3.190782    1.5085515   430613 
 4057000   0.98719306    -3.191142   -1.6812769  0.069138861    -3.191142    1.5098651   430605 
 4058000   0.98691294   -3.1906821   -1.6812174  0.063626665   -3.1906821    1.5094647   430597 
 4059000   0.98668214   -3.1903741   -1.6812343  0.067268088   -3.1903741    1.5091398   430589 
 4060000   0.98640258   -3.1880106   -1.6792704  0.068202547   -3.1880106    1.5087402   430581 
 4061000   0.98642379   -3.1884173   -1.6796166  0.064473654   -3.1884173    1.5088007   430573 
 4062000   0.98610374   -3.1889814   -1.6806422   0.06587777   -3.1889814    1.5083392   430565 
 4063000   0.98779371   -3.1902249   -1.6792727  0.069604403   -3.1902249    1.5109522   430557 
 4064000   0.98687854   -3.1887251   -1.6791447  0.068075857   -3.1887251    1.5095804   430549 
 4065000   0.98668285      -3.1882   -1.6788909  0.069232402      -3.1882    1.5093091   430541 
 4066000   0.98719931   -3.1905912    -1.680464  0.070344772   -3.1905912    1.5101272   430533 
 4067000   0.98849176    -3.191818   -1.6796856  0.064454657    -3.191818    1.5121324   430525 
 4068000   0.98739429   -3.1917689   -1.6812873  0.063673406   -3.1917689    1.5104816   430517 
 4069000   0.98697641   -3.1914097   -1.6815393  0.067282405   -3.1914097    1.5098704   430509 
 4070000   0.98755613   -3.1924669   -1.6816816  0.066835661   -3.1924669    1.5107853   430501 
 4071000   0.98705879    -3.191311   -1.6812585  0.069617235    -3.191311    1.5100525   430493 
 4072000   0.98756006   -3.1910598   -1.6802124   0.06927925   -3.1910598    1.5108475   430485 
 4073000   0.98704543   -3.1902014   -1.6801132  0.072795709   -3.1902014    1.5100882   430477 
 4074000   0.98751774   -3.1908053   -1.6799664  0.070921044   -3.1908053    1.5108389   430469 
 4075000   0.98760982   -3.1918364   -1.6808285  0.069904053   -3.1918364    1.5110079   430461 
 4076000     0.986509   -3.1902123   -1.6808606  0.067222681   -3.1902123    1.5093517   430453 
 4077000   0.98735755   -3.1919166   -1.6812385  0.069906301   -3.1919166     1.510678   430445 
 4078000   0.98745414   -3.1928105   -1.6819566  0.067024713   -3.1928105    1.5108539   430437 
 4079000   0.98819296   -3.1927789   -1.6807665  0.066734668   -3.1927789    1.5120124   430429 
 4080000   0.98813743   -3.1921228   -1.6801672  0.066314123   -3.1921228    1.5119556   430421 
 4081000   0.98704977   -3.1918812   -1.6815618  0.070972472   -3.1918812    1.5103194   430413 
 4082000    0.9877396   -3.1931132   -1.6817101   0.06854425   -3.1931132     1.511403   430405 
 4083000   0.98641012   -3.1922012   -1.6828044  0.068225097   -3.1922012    1.5093968   430397 
 4084000   0.98451589    -3.190066   -1.6835397  0.069455568    -3.190066    1.5065262   430389 
 4085000   0.98712254   -3.1921916   -1.6816485  0.069840514   -3.1921916    1.5105431   430381 
 4086000   0.98657018   -3.1927687   -1.6830428  0.067521235   -3.1927687    1.5097259   430373 
 4087000   0.98633444   -3.1923389   -1.6829457  0.061655182   -3.1923389    1.5093932   430365 
 4088000   0.98535096   -3.1921286   -1.6842124  0.071024241   -3.1921286    1.5079162   430357 
 4089000   0.98564868   -3.1925581   -1.6841583   0.06419279   -3.1925581    1.5083998   430349 
 4090000   0.98569696   -3.1928618   -1.6843601  0.066509664   -3.1928618    1.5085018   430341 
 4091000   0.98621377    -3.192959   -1.6836383  0.070754771    -3.192959    1.5093208   430333 
 4092000   0.98642357     -3.19327   -1.6836001  0.064804944     -3.19327    1.5096699   430325 
 4093000   0.98641496   -3.1934049   -1.6837201   0.06821953   -3.1934049    1.5096848   430317 
 4094000   0.98696041   -3.1939753   -1.6834276  0.067314003   -3.1939753    1.5105477   430309 
 4095000   0.98618107   -3.1940225   -1.6846396  0.069196476   -3.1940225    1.5093829   430301 
 4096000   0.98757444   -3.1971379   -1.6855942  0.068756811   -3.1971379    1.5115436   430293 
 4097000   0.98719148    -3.195696   -1.6847104  0.066297135    -3.195696    1.5109856   430285 
 4098000   0.98496792   -3.1934981   -1.6858878  0.075436995   -3.1934981    1.5076103   430277 
 4099000   0.98627044   -3.1935505   -1.6839185  0.066779494   -3.1935505     1.509632   430269 
 4100000   0.98658665   -3.1942746   -1.6841305  0.063779313   -3.1942746    1.5101441   430261 
 4101000   0.98668199   -3.1930191    -1.682701  0.074730731   -3.1930191    1.5103181   430253 
 4102000   0.98590263   -3.1929263   -1.6837731  0.071380013   -3.1929263    1.5091532   430245 
 4103000   0.98611005   -3.1929271   -1.6834283  0.071240904   -3.1929271    1.5094988   430237 
 4104000   0.98588852   -3.1930885   -1.6839008  0.074279875   -3.1930885    1.5091877   430229 
 4105000   0.98665351   -3.1953954   -1.6850085  0.070500228   -3.1953954    1.5103868   430221 
 4106000   0.98694818   -3.1961613   -1.6852953  0.070017775   -3.1961613     1.510866   430213 
 4107000   0.98532311   -3.1924688   -1.6840624  0.072598358   -3.1924688    1.5084063   430205 
 4108000   0.98679085   -3.1942591   -1.6835778  0.068250212   -3.1942591    1.5106814   430197 
 4109000   0.98508125   -3.1920312    -1.683939  0.072040393   -3.1920312    1.5080922   430189 
 4110000   0.98443099   -3.1921266   -1.6850019   0.07084863   -3.1921266    1.5071247   430181 
 4111000   0.98430253   -3.1920178   -1.6850618  0.063698345   -3.1920178    1.5069561   430173 
 4112000   0.98558051   -3.1945687    -1.685628  0.068883205   -3.1945687    1.5089407   430165 
 4113000   0.98378846   -3.1924717   -1.6862467   0.06753318   -3.1924717     1.506225   430157 
 4114000   0.98374795   -3.1921998   -1.6860088  0.068049109   -3.1921998     1.506191   430149 
 4115000   0.98468281   -3.1936711   -1.6860207  0.068073709   -3.1936711    1.5076504   430141 
 4116000   0.98589705   -3.1957545   -1.6862169  0.062228414   -3.1957545    1.5095376   430133 
 4117000     0.984853   -3.1942966   -1.6863295  0.067150435   -3.1942966    1.5079671   430125 
 4118000   0.98558542   -3.1949701   -1.6858535  0.067903782   -3.1949701    1.5091166   430117 
 4119000   0.98480937   -3.1930597   -1.6851033  0.071924242   -3.1930597    1.5079564   430109 
 4120000   0.98482073   -3.1937948    -1.685793  0.068516935   -3.1937948    1.5080018   430101 
 4121000   0.98619448   -3.1962866   -1.6861532  0.066231478   -3.1962866    1.5101334   430093 
 4122000   0.98522706   -3.1959169   -1.6872367  0.063326443   -3.1959169    1.5086801   430085 
 4123000   0.98428079   -3.1948138   -1.6875547  0.066442555   -3.1948138    1.5072591   430077 
 4124000   0.98351706   -3.1939973   -1.6878796  0.065602315   -3.1939973    1.5061176   430069 
 4125000   0.98589222   -3.1963424   -1.6865595  0.065581422   -3.1963424    1.5097829   430061 
 4126000   0.98634027   -3.1970601   -1.6865629  0.066949502   -3.1970601    1.5104972   430053 
 4127000   0.98534054    -3.195139   -1.6861448  0.068522597    -3.195139    1.5089942   430045 
 4128000   0.98634314   -3.1979116   -1.6873539  0.066131112   -3.1979116    1.5105578   430037 
 4129000   0.98406888    -3.194989   -1.6878862  0.068257289    -3.194989    1.5071028   430029 
 4130000   0.98611443   -3.1994299   -1.6891662  0.070651474   -3.1994299    1.5102637   430021 
 4131000   0.98422702   -3.1962444   -1.6888433  0.073129193   -3.1962444    1.5074011   430013 
 4132000   0.98527753   -3.1973222   -1.6882842  0.067190322   -3.1973222    1.5090381   430005 
 4133000   0.98383112   -3.1961987   -1.6893479   0.07204554   -3.1961987    1.5068508   429997 
 4134000   0.98542808   -3.1975977   -1.6882729  0.067196421   -3.1975977    1.5093248   429989 
 4135000    0.9850295   -3.1972238   -1.6884814  0.072794892   -3.1972238    1.5087424   429981 
 4136000   0.98521801   -3.1955428   -1.6864836  0.071524686   -3.1955428    1.5090592   429973 
 4137000   0.98698488   -3.1984007    -1.686607   0.06854699   -3.1984007    1.5117937   429965 
 4138000   0.98711791    -3.199651   -1.6876254  0.065070044    -3.199651    1.5120256   429957 
 4139000   0.98466126   -3.1961807     -1.68789  0.067029036   -3.1961807    1.5082906   429949 
 4140000   0.98265606   -3.1948341    -1.689587  0.067996316   -3.1948341    1.5052471   429941 
 4141000   0.98585511   -3.1984851   -1.6883095  0.065813846   -3.1984851    1.5101756   429933 
 4142000   0.98536564    -3.198548   -1.6890941   0.06506708    -3.198548    1.5094539   429925 
 4143000   0.98530977   -3.1976823   -1.6882859  0.067953312   -3.1976823    1.5093964   429917 
 4144000   0.98244459   -3.1942587   -1.6892235  0.070839481   -3.1942587    1.5050352   429909 
 4145000    0.9837841   -3.1960366   -1.6889213  0.068080258   -3.1960366    1.5071153   429901 
 4146000   0.98477834   -3.1963871   -1.6877206   0.06481788   -3.1963871    1.5086665   429893 
 4147000    0.9843273   -3.1952595    -1.687256  0.065692692   -3.1952595    1.5080036   429885 
 4148000   0.98585404   -3.1973162   -1.6869455  0.064515635   -3.1973162    1.5103707   429877 
 4149000    0.9853529   -3.1966751   -1.6870441  0.072529806   -3.1966751     1.509631   429869 
 4150000   0.98315413   -3.1933943   -1.6871039  0.072706443   -3.1933943    1.5062903   429861 
 4151000   0.98551931   -3.1962296   -1.6862874  0.073598133   -3.1962296    1.5099422   429853 
 4152000   0.98582821   -3.1956921   -1.6852486    0.0722599   -3.1956921    1.5104435   429845 
 4153000   0.98627869   -3.1971063   -1.6859444  0.067246058   -3.1971063    1.5111619   429837 
 4154000   0.98549755    -3.196886   -1.6868929    0.0674634    -3.196886    1.5099931   429829 
 4155000   0.98472366   -3.1961436   -1.6873082  0.067145692   -3.1961436    1.5088354   429821 
 4156000    0.9846378    -3.196177    -1.687445  0.067040519    -3.196177     1.508732   429813 
 4157000   0.98482662   -3.1954495   -1.6864002  0.069563848   -3.1954495    1.5090494   429805 
 4158000   0.98548104    -3.196693   -1.6866128  0.075034615    -3.196693    1.5100802   429797 
 4159000   0.98276823   -3.1952717   -1.6893203   0.06593217   -3.1952717    1.5059514   429789 
 4160000   0.98265868   -3.1943855    -1.688574  0.064009048   -3.1943855    1.5058115   429781 
 4161000   0.98304411   -3.1955507   -1.6891205  0.067735336   -3.1955507    1.5064302   429773 
 4162000   0.98252603   -3.1943306   -1.6886663  0.061602222   -3.1943306    1.5056643   429765 
 4163000    0.9819892   -3.1935641   -1.6886944  0.069503493   -3.1935641    1.5048697   429757 
 4164000   0.98217165    -3.194266   -1.6890887  0.067542879    -3.194266    1.5051773   429749 
 4165000   0.98336717   -3.1939809   -1.6869435  0.066680347   -3.1939809    1.5070375   429741 
 4166000   0.98355088   -3.1949122   -1.6875651  0.066996214   -3.1949122    1.5073471   429733 
 4167000   0.98421682   -3.1955886   -1.6871929  0.063960236   -3.1955886    1.5083957   429725 
 4168000   0.98394832    -3.196294   -1.6882817  0.067709286    -3.196294    1.5080123   429717 
 4169000   0.98273869   -3.1936363   -1.6874498  0.064170262   -3.1936363    1.5061865   429709 
 4170000    0.9836552   -3.1949177   -1.6872985  0.068420581   -3.1949177    1.5076192   429701 
 4171000   0.98446694   -3.1962762   -1.6873848  0.067610999   -3.1962762    1.5088914   429693 
 4172000   0.98562505   -3.1975137   -1.6868191  0.066098408   -3.1975137    1.5106946   429685 
 4173000   0.98559551   -3.1968274     -1.68615  0.065669457   -3.1968274    1.5106774   429677 
 4174000   0.98404787   -3.1963059   -1.6879725  0.070045414   -3.1963059    1.5083334   429669 
 4175000    0.9843929   -3.1962715   -1.6873812  0.069737998   -3.1962715    1.5088903   429661 
 4176000    0.9854765   -3.1991915   -1.6886121   0.06669816   -3.1991915    1.5105794   429653 
 4177000   0.98323625   -3.1965248   -1.6893513  0.070791785   -3.1965248    1.5071735   429645 
 4178000   0.98216801   -3.1949318   -1.6893677  0.067216136   -3.1949318    1.5055641   429637 
 4179000   0.98426479   -3.1985778   -1.6897715  0.069466449   -3.1985778    1.5088063   429629 
 4180000   0.98464501   -3.1992494   -1.6898321  0.065853347   -3.1992494    1.5094173   429621 
 4181000   0.98536079   -3.1996695   -1.6891269  0.065358272   -3.1996695    1.5105427   429613 
 4182000    0.9859367   -3.2006027   -1.6891491  0.064587048   -3.2006027    1.5114537   429605 
 4183000   0.98410628   -3.1975536   -1.6888779  0.069750997   -3.1975536    1.5086757   429597 
 4184000   0.98446453   -3.1996862   -1.6904332  0.066449759   -3.1996862     1.509253   429589 
 4185000   0.98276063   -3.1966013   -1.6899324  0.067656555   -3.1966013    1.5066689   429581 
 4186000   0.98377585   -3.1982957   -1.6900423  0.068958402   -3.1982957    1.5082534   429573 
 4187000   0.98548922     -3.20128   -1.6903717  0.067121555     -3.20128    1.5109083   429565 
 4188000   0.98432781   -3.1999531   -1.6907973  0.072902112   -3.1999531    1.5091558   429557 
 4189000   0.98457937   -3.2006736   -1.6911039  0.066420447   -3.2006736    1.5095696   429549 
 4190000    0.9853648   -3.2017968   -1.6909948  0.069598972   -3.2017968     1.510802   429541 
 4191000   0.98388335   -3.1997057    -1.691147  0.067023136   -3.1997057    1.5085587   429533 
 4192000   0.98271572   -3.1980783   -1.6912818  0.066794592   -3.1980783    1.5067965   429525 
 4193000   0.98280765   -3.1981363   -1.6911708  0.067603767   -3.1981363    1.5069655   429517 
 4194000   0.98305228     -3.19772   -1.6903514  0.070342041     -3.19772    1.5073687   429509 
 4195000   0.98325377   -3.1989691   -1.6912635  0.066925597   -3.1989691    1.5077057   429501 
 4196000   0.98417971   -3.2001629   -1.6910093  0.068169273   -3.2001629    1.5091536   429493 
 4197000   0.98310807   -3.1976968   -1.6901584  0.066951369   -3.1976968    1.5075384   429485 
 4198000   0.98330035   -3.1997558   -1.6918944  0.067542069   -3.1997558    1.5078614   429477 
 4199000   0.98243897   -3.1977911   -1.6912226  0.066314181   -3.1977911    1.5065685   429469 
 4200000     0.982956   -3.1979664   -1.6905769  0.068607561   -3.1979664    1.5073895   429461 
 4201000   0.98372956   -3.1996769    -1.691073    0.0603073   -3.1996769    1.5086039   429453 
 4202000   0.98268729   -3.1969301   -1.6898965  0.071907297   -3.1969301    1.5070335   429445 
 4203000   0.98298153   -3.1971603   -1.6896475  0.068087163   -3.1971603    1.5075129   429437 
 4204000   0.98199215   -3.1976703   -1.6916467  0.066982326   -3.1976703    1.5060236   429429 
 4205000   0.98381585   -3.2001026    -1.691254   0.06388419   -3.2001026    1.5088486   429421 
 4206000   0.98246497   -3.1973256   -1.6905207  0.060163759   -3.1973256    1.5068049   429413 
 4207000    0.9822975   -3.1968179   -1.6902418  0.064825026   -3.1968179    1.5065761   429405 
 4208000   0.98268186   -3.1978767   -1.6906831  0.062645818   -3.1978767    1.5071937   429397 
 4209000   0.98179268   -3.1978615   -1.6920036  0.068677443   -3.1978615    1.5058579   429389 
 4210000   0.98369054   -3.1996734   -1.6908764  0.066600792   -3.1996734     1.508797   429381 
 4211000   0.98310472   -3.1979983   -1.6900718  0.064808103   -3.1979983    1.5079265   429373 
 4212000   0.98322976    -3.199453   -1.6913066  0.065997398    -3.199453    1.5081464   429365 
 4213000   0.98309379   -3.1982672   -1.6903013  0.066060659   -3.1982672    1.5079659   429357 
 4214000   0.98311175   -3.1998549   -1.6918333  0.067039119   -3.1998549    1.5080216   429349 
 4215000   0.98304203   -3.1989294   -1.6909866   0.06765933   -3.1989294    1.5079428   429341 
 4216000   0.98343103   -3.1997217   -1.6911541  0.064887763   -3.1997217    1.5085676   429333 
 4217000   0.98404176   -3.2006085   -1.6910759  0.065609328   -3.2006085    1.5095325   429325 
 4218000   0.98266081   -3.1977735   -1.6903312  0.068647571   -3.1977735    1.5074422   429317 
 4219000   0.98423269   -3.2007519   -1.6908702  0.065144016   -3.2007519    1.5098817   429309 
 4220000   0.98266597   -3.1994167   -1.6919104  0.067770481   -3.1994167    1.5075063   429301 
 4221000    0.9825119   -3.1982819   -1.6909838  0.070457203   -3.1982819    1.5072981   429293 
 4222000   0.98423368   -3.2008885   -1.6909208  0.066441398   -3.2008885    1.5099676   429285 
 4223000   0.98385355   -3.2015347   -1.6921221  0.062709793   -3.2015347    1.5094126   429277 
 4224000   0.98294494     -3.20033   -1.6922833  0.069767996     -3.20033    1.5080467   429269 
 4225000   0.98154553   -3.1996942   -1.6937664  0.065833412   -3.1996942    1.5059278   429261 
 4226000   0.98169598   -3.2004352   -1.6942485  0.065755239   -3.2004352    1.5061867   429253 
 4227000   0.98285256   -3.1995295   -1.6915402  0.068433442   -3.1995295    1.5079893   429245 
 4228000   0.98168918   -3.2004468   -1.6942144  0.069039688   -3.2004468    1.5062324   429237 
 4229000   0.98219289   -3.1988599   -1.6918265  0.068845961   -3.1988599    1.5070333   429229 
 4230000   0.98372665   -3.2019972   -1.6925824  0.065463094   -3.2019972    1.5094148   429221 
 4231000   0.98237479   -3.2007206    -1.693352  0.069444574   -3.2007206    1.5073686   429213 
 4232000   0.98222298    -3.198995   -1.6918312  0.067788624    -3.198995    1.5071638   429205 
 4233000   0.98244643   -3.1997809   -1.6922461  0.064611967   -3.1997809    1.5075348   429197 
 4234000   0.98386668   -3.2019249   -1.6921827  0.066087313   -3.2019249    1.5097422   429189 
 4235000   0.98360937   -3.2008981   -1.6915226  0.073323967   -3.2008981    1.5093755   429181 
 4236000   0.98322607   -3.2002816   -1.6914662  0.069001885   -3.2002816    1.5088155   429173 
 4237000   0.98322659   -3.1988486   -1.6900042    0.0695338   -3.1988486    1.5088444   429165 
 4238000   0.98407979    -3.199567   -1.6893852  0.062596612    -3.199567    1.5101818   429157 
 4239000    0.9841109   -3.2009721   -1.6907144  0.067201209   -3.2009721    1.5102577   429149 
 4240000    0.9819401   -3.1983748   -1.6914204  0.069602637   -3.1983748    1.5069544   429141 
 4241000   0.98241256   -3.1998868   -1.6921792  0.066158923   -3.1998868    1.5077076   429133 
 4242000   0.98071851   -3.1979384   -1.6928026  0.062011906   -3.1979384    1.5051358   429125 
 4243000   0.98094286   -3.1987839   -1.6932757   0.06257218   -3.1987839    1.5055082   429117 
 4244000   0.98112571   -3.1990659    -1.693249   0.06453765   -3.1990659    1.5058169   429109 
 4245000   0.98124374   -3.1995805   -1.6935544  0.066231687   -3.1995805    1.5060261   429101 
 4246000   0.98136103   -3.1987774   -1.6925431   0.06799926   -3.1987774    1.5062342   429093 
 4247000   0.98097995   -3.1967631   -1.6910857  0.069548263   -3.1967631    1.5056774   429085 
 4248000   0.98207478   -3.1985221   -1.6911362  0.069770893   -3.1985221    1.5073859   429077 
 4249000    0.9819907   -3.1999674   -1.6926824  0.063677099   -3.1999674     1.507285   429069 
 4250000    0.9817822   -3.1994837   -1.6924907  0.072304471   -3.1994837     1.506993   429061 
 4251000   0.98068018   -3.1983268   -1.6929972  0.062887899   -3.1983268    1.5053296   429053 
 4252000   0.98186848   -3.1980431   -1.6908614  0.063024158   -3.1980431    1.5071817   429045 
 4253000   0.98111816   -3.1981037   -1.6920457  0.068691466   -3.1981037     1.506058   429037 
 4254000   0.98255945   -3.2007773   -1.6924787  0.063220514   -3.2007773    1.5082986   429029 
 4255000   0.98102227    -3.199506    -1.693539  0.062988466    -3.199506     1.505967   429021 
 4256000   0.98170721   -3.1994218   -1.6923753   0.06828315   -3.1994218    1.5070465   429013 
 4257000   0.98265602   -3.2003314   -1.6918002  0.063814936   -3.2003314    1.5085312   429005 
 4258000    0.9816338   -3.1977211   -1.6907311  0.069617805   -3.1977211      1.50699   428997 
 4259000   0.98049731   -3.1985214   -1.6932481  0.065824691   -3.1985214    1.5052734   428989 
 4260000   0.98057675    -3.199547   -1.6941236   0.06701001    -3.199547    1.5054234   428981 
 4261000   0.97913084   -3.1991937   -1.6959621  0.063225085   -3.1991937    1.5032316   428973 
 4262000   0.97967743   -3.2012164   -1.6971175  0.061988059   -3.2012164    1.5040988   428965 
 4263000   0.97943612   -3.2007966   -1.6970402  0.064215149   -3.2007966    1.5037564   428957 
 4264000   0.97969686    -3.200696   -1.6965112  0.060747932    -3.200696    1.5041848   428949 
 4265000   0.98185701   -3.2040384   -1.6965089  0.063191748   -3.2040384    1.5075295   428941 
 4266000   0.98042935   -3.2001183   -1.6947527  0.067330728   -3.2001183    1.5053656   428933 
 4267000   0.98115643    -3.201663    -1.695153  0.069735975    -3.201663      1.50651   428925 
 4268000   0.98081591   -3.2013031   -1.6952878  0.061992578   -3.2013031    1.5060153   428917 
 4269000   0.98091001   -3.2011876   -1.6949998  0.071315494   -3.2011876    1.5061878   428909 
 4270000   0.98265778   -3.2030283   -1.6941286  0.067925037   -3.2030283    1.5088997   428901 
 4271000   0.98309255   -3.2038062   -1.6942108  0.069447255   -3.2038062    1.5095954   428893 
 4272000   0.98321678   -3.2039681   -1.6941537  0.068734959   -3.2039681    1.5098144   428885 
 4273000    0.9819204   -3.2014893   -1.6936375  0.073691893   -3.2014893    1.5078518   428877 
 4274000   0.98309077   -3.2043477   -1.6946705  0.068059661   -3.2043477    1.5096772   428869 
 4275000   0.98307876   -3.2057035   -1.6960166  0.063932699   -3.2057035    1.5096869   428861 
 4276000   0.98264969    -3.206389   -1.6973329  0.067274654    -3.206389    1.5090562   428853 
 4277000   0.98218729   -3.2058382    -1.697464   0.06443853   -3.2058382    1.5083742   428845 
 4278000   0.98035729   -3.2035568    -1.697965  0.066934741   -3.2035568    1.5055919   428837 
 4279000   0.97967669   -3.2044645   -1.6998898  0.065094797   -3.2044645    1.5045747   428829 
 4280000   0.97924151   -3.2038755   -1.6999411  0.066880673   -3.2038755    1.5039344   428821 
 4281000   0.97943332   -3.2036841    -1.699427  0.066220861   -3.2036841    1.5042571   428813 
 4282000   0.97934343   -3.2047659   -1.7006188  0.061065861   -3.2047659    1.5041471   428805 
 4283000   0.98026469   -3.2042246   -1.6986345  0.065620324   -3.2042246    1.5055901   428797 
 4284000    0.9808883    -3.204734   -1.6981579  0.064592784    -3.204734     1.506576   428789 
 4285000   0.97944847   -3.2030518   -1.6986592  0.066250471   -3.2030518    1.5043926   428781 
 4286000   0.98061479    -3.204638   -1.6984259  0.066949086    -3.204638    1.5062121   428773 
 4287000   0.97958611   -3.2023221    -1.697662  0.069161136   -3.2023221    1.5046602   428765 
 4288000   0.98174848   -3.2055474   -1.6975377  0.063187137   -3.2055474    1.5080097   428757 
 4289000   0.98189503   -3.2046035   -1.6963405  0.067133119   -3.2046035     1.508263   428749 
 4290000   0.98168371   -3.2039107   -1.6959441  0.065867781   -3.2039107    1.5079665   428741 
 4291000   0.98176918   -3.2035758   -1.6954499  0.069386364   -3.2035758     1.508126   428733 
 4292000   0.98217982   -3.2040691   -1.6952842  0.061813376   -3.2040691    1.5087849   428725 
 4293000   0.98009629   -3.2004392   -1.6948269  0.067018958   -3.2004392    1.5056124   428717 
 4294000   0.98067058    -3.201182   -1.6946593  0.064733659    -3.201182    1.5065227   428709 
 4295000    0.9813306    -3.202414   -1.6948492  0.064827174    -3.202414    1.5075648   428701 
 4296000   0.98149155   -3.2024452   -1.6946051  0.066289747   -3.2024452    1.5078402   428693 
 4297000   0.98033868   -3.1990928   -1.6929957  0.069225384   -3.1990928    1.5060971   428685 
 4298000   0.97934378    -3.199813   -1.6952163  0.067233002    -3.199813    1.5045968   428677 
 4299000   0.97988491   -3.2012091   -1.6957529  0.064889767   -3.2012091    1.5054562   428669 
 4300000     0.981144   -3.2026458    -1.695227  0.062470302   -3.2026458    1.5074187   428661 
 4301000     0.977241    -3.198234   -1.6967838   0.06715143    -3.198234    1.5014502   428653 
 4302000   0.97817986   -3.1989062   -1.6959854  0.063701519   -3.1989062    1.5029208   428645 
 4303000   0.98146499   -3.2016809   -1.6936846  0.070241815   -3.2016809    1.5079963   428637 
 4304000   0.97846278   -3.1982311   -1.6948195  0.069298785   -3.1982311    1.5034116   428629 
 4305000   0.97920787   -3.1993031   -1.6947186  0.061772648   -3.1993031    1.5045845   428621 
 4306000   0.98068574   -3.2010613   -1.6941779  0.061497018   -3.2010613    1.5068834   428613 
 4307000    0.9811165   -3.2026247   -1.6950512  0.067864515   -3.2026247    1.5075734   428605 
 4308000    0.9801503   -3.2010604   -1.6949435  0.063643606   -3.2010604    1.5061169   428597 
 4309000   0.98077896   -3.2010374   -1.6939263  0.066848466   -3.2010374     1.507111   428589 
 4310000   0.98113913   -3.2023946   -1.6947019  0.067446243   -3.2023946    1.5076926   428581 
 4311000   0.97990063    -3.200319   -1.6945015  0.067596492    -3.200319    1.5058176   428573 
 4312000   0.97962568   -3.1997508   -1.6943276  0.062594003   -3.1997508    1.5054232   428565 
 4313000   0.97928037   -3.1988618   -1.6939412  0.065647908   -3.1988618    1.5049206   428557 
 4314000   0.97908182   -3.2011199   -1.6964763  0.063891342   -3.2011199    1.5046436   428549 
 4315000    0.9786495   -3.2006187   -1.6966114  0.063142594   -3.2006187    1.5040073   428541 
 4316000   0.97817738   -3.1998725   -1.6965627  0.065483963   -3.1998725    1.5033098   428533 
 4317000   0.97914637   -3.2014815   -1.6966545  0.062578855   -3.2014815     1.504827   428525 
 4318000   0.98032906   -3.2039526   -1.6972798  0.063158913   -3.2039526    1.5066728   428517 
 4319000   0.97874795   -3.2017396   -1.6974687  0.068113911   -3.2017396    1.5042709   428509 
 4320000   0.98049533   -3.2054034   -1.6984188  0.066524907   -3.2054034    1.5069846   428501 
 4321000   0.98038732   -3.2049914   -1.6981446  0.064963781   -3.2049914    1.5068468   428493 
 4322000   0.97911014   -3.2031563   -1.6982445  0.069304055   -3.2031563    1.5049118   428485 
 4323000   0.98084597   -3.2047438   -1.6971358  0.063331699   -3.2047438     1.507608   428477 
 4324000   0.98041891   -3.2040405   -1.6970607  0.073881799   -3.2040405    1.5069797   428469 
 4325000   0.98066142   -3.2050249   -1.6976443  0.065978859   -3.2050249    1.5073806   428461 
 4326000   0.97986024   -3.2038724   -1.6976952   0.06901666   -3.2038724    1.5061772   428453 
 4327000   0.97942329    -3.203682   -1.6981483  0.067494456    -3.203682    1.5055337   428445 
 4328000   0.97983803   -3.2052817   -1.6990824  0.066714206   -3.2052817    1.5061994   428437 
 4329000   0.98005655   -3.2065343   -1.6999709  0.065948659   -3.2065343    1.5065634   428429 
 4330000    0.9796102    -3.205281   -1.6993756  0.069797105    -3.205281    1.5059054   428421 
 4331000   0.98003418   -3.2064125   -1.6998272  0.067562883   -3.2064125    1.5065853   428413 
 4332000   0.98069869   -3.2084411   -1.7008062  0.065005625   -3.2084411     1.507635   428405 
 4333000   0.97936441   -3.2063888   -1.7007769  0.066361228   -3.2063888    1.5056119   428397 
 4334000   0.98110134   -3.2078575   -1.6995472  0.065428518   -3.2078575    1.5083103   428389 
 4335000   0.98067231   -3.2069908    -1.699312  0.070117245   -3.2069908    1.5076789   428381 
 4336000   0.97996363   -3.2050086   -1.6983911  0.066757151   -3.2050086    1.5066175   428373 
 4337000   0.97901341     -3.20389   -1.6987053  0.064885727     -3.20389    1.5051847   428365 
 4338000   0.97859921   -3.2036039    -1.699028   0.06540713   -3.2036039     1.504576   428357 
 4339000   0.98045955   -3.2052934    -1.697829  0.069026664   -3.2052934    1.5074644   428349 
 4340000   0.97918379   -3.2043019   -1.6987709  0.067440104   -3.2043019     1.505531   428341 
 4341000   0.98083318   -3.2073496   -1.6992544  0.061764913   -3.2073496    1.5080952   428333 
 4342000   0.97883126   -3.2043305   -1.6992853  0.067742946   -3.2043305    1.5050452   428325 
 4343000   0.97801026   -3.2023976   -1.6985867  0.064438748   -3.2023976    1.5038109   428317 
 4344000   0.97972607    -3.205089   -1.6986117  0.065700213    -3.205089    1.5064773   428309 
 4345000   0.97763414   -3.2031345   -1.6998457  0.062174468   -3.2031345    1.5032887   428301 
 4346000   0.97818814   -3.2047544   -1.7005857  0.065164297   -3.2047544    1.5041687   428293 
 4347000   0.97897769   -3.2057975   -1.7003866  0.060272706   -3.2057975    1.5054109   428285 
 4348000   0.97779104    -3.202915   -1.6993007    0.0653518    -3.202915    1.5036143   428277 
 4349000   0.97839136   -3.2053341   -1.7007686  0.057575889   -3.2053341    1.5045655   428269 
 4350000    0.9779995   -3.2040046   -1.7000136  0.067161537   -3.2040046     1.503991   428261 
 4351000   0.97779181   -3.2032096   -1.6995099   0.06438957   -3.2032096    1.5036997   428253 
 4352000   0.97807625   -3.2036116   -1.6994464  0.068975088   -3.2036116    1.5041652   428245 
 4353000   0.97687357   -3.2026207   -1.7002769   0.06845681   -3.2026207    1.5023437   428237 
 4354000   0.97868479   -3.2053198   -1.7001624  0.061096345   -3.2053198    1.5051573   428229 
 4355000   0.97911916   -3.2057271   -1.6998736  0.068296498   -3.2057271    1.5058535   428221 
 4356000   0.97966428   -3.2059577   -1.6992377  0.066286505   -3.2059577      1.50672   428213 
 4357000   0.97857517   -3.2039889   -1.6989158  0.067953098   -3.2039889    1.5050731   428205 
 4358000   0.97856402   -3.2051384   -1.7000543  0.066977214   -3.2051384    1.5050841   428197 
 4359000   0.97901838   -3.2048848   -1.6990738  0.068927431   -3.2048848     1.505811   428189 
 4360000   0.97928074   -3.2060056   -1.6997629  0.067779329   -3.2060056    1.5062427   428181 
 4361000   0.97873682   -3.2052161   -1.6997818  0.065246144   -3.2052161    1.5054342   428173 
 4362000   0.97750043   -3.2033144   -1.6997539  0.070055738   -3.2033144    1.5035606   428165 
 4363000   0.97878712   -3.2058187   -1.7002508  0.067996525   -3.2058187    1.5055678   428157 
 4364000   0.97980779   -3.2070071   -1.6998411  0.073544068   -3.2070071     1.507166   428149 
 4365000   0.97898027   -3.2047021   -1.6987809  0.066636036   -3.2047021    1.5059212   428141 
 4366000   0.97938972   -3.2045183   -1.6979391  0.072709199   -3.2045183    1.5065792   428133 
 4367000   0.97897842   -3.2038297   -1.6978551  0.069475812   -3.2038297    1.5059747   428125 
 4368000   0.97917297   -3.2036196   -1.6973175  0.065472057   -3.2036196    1.5063021   428117 
 4369000   0.98061726   -3.2055176   -1.6969655  0.068464676   -3.2055176    1.5085521   428109 
 4370000   0.97903128   -3.2026773   -1.6965369  0.069094191   -3.2026773    1.5061404   428101 
 4371000   0.97952723   -3.2045358   -1.6976043  0.067339383   -3.2045358    1.5069315   428093 
 4372000   0.97993469   -3.2042701   -1.6966835  0.068496957   -3.2042701    1.5075865   428085 
 4373000   0.98028293   -3.2056512   -1.6975007  0.070524974   -3.2056512    1.5081505   428077 
 4374000   0.97779297   -3.2016256   -1.6972778  0.070908121   -3.2016256    1.5043478   428069 
 4375000   0.97894032   -3.2039856   -1.6978444  0.064475123   -3.2039856    1.5061412   428061 
 4376000   0.97746278   -3.2009945   -1.6970985     0.066569   -3.2009945     1.503896   428053 
 4377000   0.97920237   -3.2025881   -1.6959874  0.069327062   -3.2025881    1.5066007   428045 
 4378000   0.97800418   -3.2014259   -1.6966406  0.066250969   -3.2014259    1.5047853   428037 
 4379000   0.97762541   -3.2004691   -1.6962385  0.064376632   -3.2004691    1.5042306   428029 
 4380000   0.97807368    -3.202757   -1.6978085  0.062476377    -3.202757    1.5049485   428021 
 4381000   0.97777548   -3.2030952   -1.6985774  0.063555668   -3.2030952    1.5045177   428013 
 4382000   0.97780206   -3.2026492   -1.6980625  0.062054304   -3.2026492    1.5045868   428005 
 4383000   0.97819927   -3.2030239   -1.6977978  0.069404552   -3.2030239    1.5052261   427997 
 4384000   0.98030414   -3.2049008   -1.6964076  0.062201373   -3.2049008    1.5084932   427989 
 4385000   0.97957113   -3.2024427   -1.6950492  0.068053133   -3.2024427    1.5073934   427981 
 4386000    0.9793781   -3.2030663   -1.6959418  0.067215345   -3.2030663    1.5071246   427973 
 4387000   0.97897516   -3.2020591   -1.6955264  0.069358761   -3.2020591    1.5065327   427965 
 4388000   0.97890373   -3.2023568   -1.6959059  0.060088698   -3.2023568    1.5064509   427957 
 4389000   0.97661344   -3.2004812   -1.6975268  0.063385553   -3.2004812    1.5029544   427949 
 4390000   0.97757384   -3.2032853   -1.6988247  0.066559407   -3.2032853    1.5044606   427941 
 4391000   0.97867478   -3.2045042   -1.6983212  0.065552694   -3.2045042     1.506183   427933 
 4392000    0.9767088    -3.202028   -1.6988425   0.06129845    -3.202028    1.5031855   427925 
 4393000   0.97709123   -3.2016752    -1.697873  0.064554878   -3.2016752    1.5038022   427917 
 4394000   0.97700577   -3.2016648   -1.6979661  0.063659049   -3.2016648    1.5036987   427909 
 4395000   0.97989344   -3.2049911   -1.6968198  0.068450127   -3.2049911    1.5081713   427901 
 4396000   0.97939239   -3.2052923    -1.697864  0.058698587   -3.2052923    1.5074283   427893 
 4397000   0.97805971   -3.2023304   -1.6969251  0.069238879   -3.2023304    1.5054053   427885 
 4398000   0.97738852   -3.2027606   -1.6983602   0.06443536   -3.2027606    1.5044003   427877 
 4399000   0.97944294   -3.2039935   -1.6964028  0.065316468   -3.2039935    1.5075907   427869 
 4400000   0.97760629   -3.2019584   -1.6971666   0.07090024   -3.2019584    1.5047918   427861 
 4401000   0.97928882   -3.2045464   -1.6971366  0.064424997   -3.2045464    1.5074098   427853 
 4402000   0.97973705   -3.2040757   -1.6959477  0.071163913   -3.2040757     1.508128   427845 
 4403000   0.97945881   -3.2036786   -1.6959507  0.064472939   -3.2036786    1.5077279   427837 
 4404000   0.97935722    -3.203401   -1.6958013  0.070591937    -3.203401    1.5075997   427829 
 4405000   0.97771537   -3.2027421   -1.6976417  0.068555904   -3.2027421    1.5051004   427821 
 4406000   0.97935372   -3.2039741   -1.6963234  0.068624783   -3.2039741    1.5076507   427813 
 4407000    0.9764351   -3.2002918    -1.697106  0.065737907   -3.2002918    1.5031858   427805 
 4408000   0.97908884   -3.2039414   -1.6966421  0.062445812   -3.2039414    1.5072993   427797 
 4409000   0.97727306   -3.2028798   -1.6983478  0.064542156   -3.2028798    1.5045321   427789 
 4410000   0.97841169   -3.2037599   -1.6974467  0.056301815   -3.2037599    1.5063132   427781 
 4411000   0.97690758   -3.2021967   -1.6981711  0.065965276   -3.2021967    1.5040257   427773 
 4412000   0.97835329   -3.2027469   -1.6964673  0.070178524   -3.2027469    1.5062796   427765 
 4413000   0.97827435    -3.203125   -1.6969387  0.064729321    -3.203125    1.5061862   427757 
 4414000   0.97714338   -3.2026474   -1.6981743  0.068191083   -3.2026474    1.5044731   427749 
 4415000   0.97648599   -3.2006429   -1.6971538  0.063748977   -3.2006429    1.5034891   427741 
 4416000   0.97809805    -3.202181   -1.6961817  0.071067755    -3.202181    1.5059993   427733 
 4417000   0.97985585   -3.2040269   -1.6952929  0.067050127   -3.2040269     1.508734   427725 
 4418000   0.97637776   -3.1988635   -1.6954568  0.068471156   -3.1988635    1.5034068   427717 
 4419000   0.97642318   -3.2017657   -1.6982609  0.071465831   -3.2017657    1.5035048   427709 
 4420000   0.97789807    -3.202919   -1.6971149  0.068669559    -3.202919     1.505804   427701 
 4421000   0.97766892   -3.2042611   -1.6987818  0.062650371   -3.2042611    1.5054793   427693 
 4422000    0.9773981   -3.2032637   -1.6981732  0.067148694   -3.2032637    1.5050905   427685 
 4423000   0.97708625    -3.202493   -1.6978546  0.064455396    -3.202493    1.5046384   427677 
 4424000    0.9773184   -3.2021832   -1.6971592  0.070076795   -3.2021832     1.505024   427669 
 4425000   0.97809631   -3.2047432   -1.6984931  0.065399595   -3.2047432    1.5062502   427661 
 4426000   0.97726517   -3.2038769   -1.6988786  0.062705932   -3.2038769    1.5049984   427653 
 4427000   0.97571103   -3.2021847   -1.6995516  0.065415393   -3.2021847    1.5026331   427645 
 4428000   0.97635897   -3.2020386   -1.6983796  0.065141461   -3.2020386    1.5036591   427637 
 4429000   0.97775834   -3.2034163   -1.6975739  0.068535812   -3.2034163    1.5058424   427629 
 4430000   0.97733351   -3.2028575   -1.6976413  0.065835485   -3.2028575    1.5052162   427621 
 4431000   0.97661141    -3.204223   -1.7000908  0.065241135    -3.204223    1.5041323   427613 
 4432000   0.97754113   -3.2051323     -1.69954  0.065752075   -3.2051323    1.5055923   427605 
 4433000    0.9772458   -3.2052571   -1.7000915  0.065306318   -3.2052571    1.5051656   427597 
 4434000    0.9772624   -3.2043124    -1.699093  0.065868654   -3.2043124    1.5052194   427589 
 4435000   0.97777375   -3.2045633   -1.6985281  0.062635236   -3.2045633    1.5060352   427581 
 4436000   0.97646475   -3.2040198   -1.6999727  0.063550894   -3.2040198    1.5040471   427573 
 4437000   0.97796474   -3.2064146   -1.7000289  0.069701768   -3.2064146    1.5063857   427565 
 4438000   0.97862682   -3.2072113   -1.6997776  0.066457062   -3.2072113    1.5074337   427557 
 4439000   0.97741585   -3.2053334   -1.6997369  0.064683912   -3.2053334    1.5055966   427549 
 4440000   0.97653216   -3.2033617   -1.6990982  0.068237405   -3.2033617    1.5042635   427541 
 4441000   0.97777116   -3.2074029   -1.7012027   0.06443989   -3.2074029    1.5062002   427533 
 4442000   0.97607331   -3.2061404   -1.7025275  0.064216898   -3.2061404    1.5036129   427525 
 4443000   0.97625607   -3.2054804   -1.7015577  0.068102367   -3.2054804    1.5039226   427517 
 4444000    0.9759766   -3.2047444   -1.7012242  0.062634753   -3.2047444    1.5035202   427509 
 4445000   0.97830212   -3.2080758   -1.7009448  0.063259341   -3.2080758     1.507131   427501 
 4446000   0.97670055   -3.2068226   -1.7021308  0.064861352   -3.2068226    1.5046918   427493 
 4447000   0.97631709    -3.205405   -1.7012758   0.07024607    -3.205405    1.5041292   427485 
 4448000   0.97641158   -3.2051121   -1.7008092  0.064903294   -3.2051121    1.5043029   427477 
 4449000   0.97853743   -3.2078712   -1.7002649  0.067578749   -3.2078712    1.5076063   427469 
 4450000   0.97747413   -3.2049744    -1.698978  0.068005364   -3.2049744    1.5059963   427461 
 4451000   0.97496073   -3.2034823   -1.7013303  0.066836835   -3.2034823     1.502152   427453 
 4452000   0.97744275   -3.2054131   -1.6994088  0.063576779   -3.2054131    1.5060043   427445 
 4453000   0.97754161   -3.2060532   -1.6998684  0.065566579   -3.2060532    1.5061848   427437 
 4454000   0.97674734   -3.2039686   -1.6989794  0.068060409   -3.2039686    1.5049892   427429 
 4455000   0.97667071   -3.2026234   -1.6977241  0.067428158   -3.2026234    1.5048993   427421 
 4456000   0.97807526   -3.2042318   -1.6971401  0.066780337   -3.2042318    1.5070917   427413 
 4457000   0.97699569   -3.2030341   -1.6975777  0.066881709   -3.2030341    1.5054564   427405 
 4458000   0.97655778   -3.2018406   -1.6970308  0.067917937   -3.2018406    1.5048098   427397 
 4459000   0.97634987   -3.2026207   -1.6981031  0.067081975   -3.2026207    1.5045176   427389 
 4460000   0.97744387   -3.2025926   -1.6963611  0.060769546   -3.2025926    1.5062316   427381 
 4461000    0.9757027   -3.2016373   -1.6980607  0.065953238   -3.2016373    1.5035766   427373 
 4462000   0.97493246   -3.1999981   -1.6975803  0.065712158   -3.1999981    1.5024178   427365 
 4463000   0.97638239   -3.2016474   -1.6969671  0.067329184   -3.2016474    1.5046803   427357 
 4464000   0.97443695   -3.1989108   -1.6972004  0.063410959   -3.1989108    1.5017104   427349 
 4465000   0.97502839   -3.1991547   -1.6965047  0.062880431   -3.1991547      1.50265   427341 
 4466000   0.97677591   -3.2023186   -1.6969473  0.062449713   -3.2023186    1.5053713   427333 
 4467000   0.97522924   -3.2000262   -1.6970104  0.059967742   -3.2000262    1.5030158   427325 
 4468000   0.97731206   -3.2025204   -1.6962664  0.065453728   -3.2025204     1.506254   427317 
 4469000   0.97671403   -3.2016905     -1.69633  0.061790599   -3.2016905    1.5053605   427309 
 4470000    0.9768395   -3.2013084   -1.6957263  0.066156987   -3.2013084    1.5055821   427301 
 4471000   0.97656123   -3.1996803   -1.6944989  0.064331983   -3.1996803    1.5051814   427293 
 4472000   0.97712899   -3.1993954   -1.6933107  0.062788078   -3.1993954    1.5060846   427285 
 4473000   0.97590753   -3.1998521   -1.6956219  0.066467168   -3.1998521    1.5042301   427277 
 4474000   0.97603688    -3.199389   -1.6949313  0.062858559    -3.199389    1.5044577   427269 
 4475000   0.97567928   -3.1988158   -1.6948812  0.065366343   -3.1988158    1.5039346   427261 
 4476000   0.97531634   -3.1989435   -1.6955401  0.066863647   -3.1989435    1.5034033   427253 
 4477000   0.97577409   -3.1996737   -1.6955366  0.062945277   -3.1996737    1.5041371   427245 
 4478000   0.97620502   -3.2004874   -1.6956578  0.062259453   -3.2004874    1.5048296   427237 
 4479000   0.97664168   -3.2010204   -1.6954895  0.067840048   -3.2010204    1.5055309   427229 
 4480000   0.97636392   -3.2007853   -1.6956544  0.066597554   -3.2007853    1.5051309   427221 
 4481000   0.97756355   -3.2010899   -1.6940815  0.066812667   -3.2010899    1.5070084   427213 
 4482000   0.97688386   -3.2009875   -1.6949987  0.064603616   -3.2009875    1.5059888   427205 
 4483000   0.97908517   -3.2037224   -1.6943118  0.066756025   -3.2037224    1.5094106   427197 
 4484000   0.97728486    -3.200973   -1.6943096  0.066628587    -3.200973    1.5066634   427189 
 4485000   0.97699198   -3.2011795   -1.6949394  0.066789691   -3.2011795    1.5062401   427181 
 4486000   0.97687278   -3.2012066   -1.6951221  0.067332464   -3.2012066    1.5060845   427173 
 4487000   0.97621948   -3.1988602   -1.6937547  0.065942783   -3.1988602    1.5051055   427165 
 4488000   0.97626491   -3.2000122   -1.6948084  0.064415852   -3.2000122    1.5052037   427157 
 4489000   0.97679186   -3.2018758   -1.6958314  0.064080987   -3.2018758    1.5060444   427149 
 4490000   0.97672919   -3.2003818   -1.6944059   0.06818997   -3.2003818     1.505976   427141 
 4491000   0.97709666   -3.2010907   -1.6945199  0.067892072   -3.2010907    1.5065708   427133 
 4492000   0.97644318   -3.2007635   -1.6951721  0.065685737   -3.2007635    1.5055914   427125 
 4493000   0.97727223   -3.2027762   -1.6958783  0.068017167   -3.2027762    1.5068979   427117 
 4494000   0.97459389   -3.1985888   -1.6957926  0.068104388   -3.1985888    1.5027962   427109 
 4495000   0.97658946    -3.200597   -1.6946955  0.063495234    -3.200597    1.5059015   427101 
 4496000    0.9769783   -3.2015884    -1.695059  0.068653254   -3.2015884    1.5065294   427093 
 4497000   0.97726261   -3.2025569   -1.6955609  0.065549099   -3.2025569     1.506996   427085 
 4498000   0.97632739   -3.2018092   -1.6962272  0.067993085   -3.2018092     1.505582   427077 
 4499000   0.97662841   -3.2018686   -1.6957942  0.069863914   -3.2018686    1.5060744   427069 
 4500000   0.97760808   -3.2036552   -1.6960418  0.067662139   -3.2036552    1.5076134   427061 
 4501000   0.97626058   -3.2017114   -1.6961477  0.064128211   -3.2017114    1.5055636   427053 
 4502000   0.97553606   -3.2017464   -1.6972719   0.06999496   -3.2017464    1.5044745   427045 
 4503000   0.97760869   -3.2040992   -1.6964001  0.068729856   -3.2040992    1.5076991   427037 
 4504000   0.97724881   -3.2048433   -1.6976709  0.066217794   -3.2048433    1.5071723   427029 
 4505000   0.97489473    -3.200877   -1.6973071  0.064027199    -3.200877    1.5035699   427021 
 4506000   0.97706724   -3.2022242   -1.6952754  0.065840851   -3.2022242    1.5069488   427013 
 4507000   0.97695286   -3.2046975   -1.6978969  0.064564865   -3.2046975    1.5068006   427005 
 4508000   0.97710028   -3.2046047   -1.6975485  0.066671276   -3.2046047    1.5070562   426997 
 4509000   0.97690568   -3.2037481   -1.6969638  0.067042433   -3.2037481    1.5067843   426989 
 4510000    0.9758234   -3.2036661    -1.698523  0.067667649   -3.2036661    1.5051432   426981 
 4511000   0.97465732   -3.2036325   -1.7002598  0.065902131   -3.2036325    1.5033727   426973 
 4512000   0.97572682   -3.2033034   -1.6982528  0.064619264   -3.2033034    1.5050506   426965 
 4513000   0.97587201   -3.2039246   -1.6986219  0.064501676   -3.2039246    1.5053027   426957 
 4514000   0.97585666   -3.2035022   -1.6981949  0.065483348   -3.2035022    1.5053073   426949 
 4515000   0.97612665   -3.2065199   -1.7007679  0.066324118   -3.2065199     1.505752   426941 
 4516000    0.9756023   -3.2051295   -1.7001581  0.070046816   -3.2051295    1.5049713   426933 
 4517000    0.9739345   -3.2041778   -1.7017511  0.068152094   -3.2041778    1.5024267   426925 
 4518000   0.97600406   -3.2073319   -1.7016844  0.067124493   -3.2073319    1.5056475   426917 
 4519000   0.97529909    -3.204673   -1.7000848  0.072722013    -3.204673    1.5045882   426909 
 4520000   0.97624458   -3.2053651   -1.6992901  0.067133259   -3.2053651     1.506075   426901 
 4521000   0.97782944   -3.2068249   -1.6982766  0.067893501   -3.2068249    1.5085483   426893 
 4522000   0.97615467   -3.2047508   -1.6987581  0.069014496   -3.2047508    1.5059927   426885 
 4523000   0.97762051   -3.2072739   -1.6989915  0.064685024   -3.2072739    1.5082825   426877 
 4524000   0.97732416    -3.207355   -1.6995015  0.069988629    -3.207355    1.5078535   426869 
 4525000   0.97559539   -3.2045216   -1.6993071  0.073635191   -3.2045216    1.5052145   426861 
 4526000   0.97530891   -3.2040859   -1.6992852  0.069507667   -3.2040859    1.5048007   426853 
 4527000   0.97693836   -3.2059793   -1.6986363  0.061507633   -3.2059793     1.507343   426845 
 4528000   0.97626704   -3.2056398   -1.6993044  0.072724636   -3.2056398    1.5063355   426837 
 4529000   0.97671049   -3.2062122   -1.6991643  0.063603876   -3.2062122    1.5070479   426829 
 4530000   0.97732201   -3.2069784   -1.6989587  0.065635397   -3.2069784    1.5080198   426821 
 4531000   0.97639621   -3.2060701   -1.6994506  0.061465219   -3.2060701    1.5066195   426813 
 4532000   0.97715136     -3.20696    -1.699147  0.060626359     -3.20696     1.507813   426805 
 4533000   0.97667225   -3.2063121   -1.6992102  0.065737253   -3.2063121    1.5071019   426797 
 4534000   0.97496667   -3.2030076   -1.6985094  0.067110792   -3.2030076    1.5044982   426789 
 4535000   0.97631622   -3.2055143   -1.6989053  0.066085197   -3.2055143     1.506609   426781 
 4536000   0.97631087   -3.2045074   -1.6978784  0.061756028   -3.2045074     1.506629   426773 
 4537000   0.97547743   -3.2045204   -1.6991493  0.061189907   -3.2045204    1.5053711   426765 
 4538000   0.97525377    -3.204347   -1.6992929  0.062262756    -3.204347    1.5050541   426757 
 4539000   0.97596293   -3.2045214   -1.6983446  0.060377995   -3.2045214    1.5061768   426749 
 4540000   0.97555204   -3.2052987   -1.6997278  0.064029116   -3.2052987    1.5055709   426741 
 4541000   0.97558678   -3.2055598   -1.6999071  0.067417008   -3.2055598    1.5056527   426733 
 4542000   0.97556275   -3.2059015   -1.7002576  0.067385645   -3.2059015    1.5056439   426725 
 4543000   0.97472577   -3.2038588   -1.6994785   0.06308564   -3.2038588    1.5043803   426717 
 4544000   0.97420764   -3.2022695   -1.6986607  0.075172121   -3.2022695    1.5036088   426709 
 4545000   0.97484996   -3.2049409   -1.7003125   0.06565562   -3.2049409    1.5046284   426701 
 4546000   0.97515257   -3.2042402   -1.6991165  0.066089826   -3.2042402    1.5051237   426693 
 4547000   0.97690087   -3.2063145   -1.6984641  0.067463754   -3.2063145    1.5078504   426685 
 4548000   0.97522377   -3.2035702   -1.6982801  0.073547212   -3.2035702      1.50529   426677 
 4549000    0.9756126   -3.2037094   -1.6977909  0.068058946   -3.2037094    1.5059184   426669 
 4550000   0.97771648   -3.2071097   -1.6979156  0.061467143   -3.2071097    1.5091942   426661 
 4551000   0.97623008   -3.2059232   -1.6989952  0.063597281   -3.2059232     1.506928   426653 
 4552000   0.97461717   -3.2042928   -1.6998263   0.06677173   -3.2042928    1.5044665   426645 
 4553000   0.97297634   -3.2005761   -1.6986143   0.06737557   -3.2005761    1.5019618   426637 
 4554000   0.97244119   -3.2006857   -1.6995218  0.064193626   -3.2006857    1.5011639   426629 
 4555000   0.97346322   -3.2018709   -1.6991011  0.064181132   -3.2018709    1.5027698   426621 
 4556000   0.97315206   -3.2011195   -1.6988019  0.063247807   -3.2011195    1.5023176   426613 
 4557000    0.9745161   -3.2035816     -1.69913  0.064457097   -3.2035816    1.5044516   426605 
 4558000   0.97495443   -3.2040186   -1.6988621  0.062377706   -3.2040186    1.5051565   426597 
 4559000   0.97535739   -3.2038002   -1.6979934  0.063967823   -3.2038002    1.5058068   426589 
 4560000   0.97448232   -3.2019479   -1.6974639  0.064419681   -3.2019479     1.504484   426581 
 4561000   0.97533739    -3.202554   -1.6967216  0.064982574    -3.202554    1.5058324   426573 
 4562000   0.97571737   -3.2021835   -1.6957362  0.065019515   -3.2021835    1.5064473   426565 
 4563000   0.97577366    -3.204223   -1.6976605  0.063608596    -3.204223    1.5065625   426557 
 4564000   0.97614287   -3.2044822   -1.6973214   0.06098926   -3.2044822    1.5071608   426549 
 4565000   0.97332674   -3.1991732   -1.6963323  0.067885908   -3.1991732    1.5028409   426541 
 4566000   0.97291632     -3.19924   -1.6970046  0.063270897     -3.19924    1.5022354   426533 
 4567000   0.97427391   -3.2030472   -1.6986874  0.060833323   -3.2030472    1.5043598   426525 
 4568000   0.97406429   -3.2013228   -1.6972585  0.065061378   -3.2013228    1.5040643   426517 
 4569000   0.97525001   -3.2015566   -1.6956331  0.067544088   -3.2015566    1.5059235   426509 
 4570000   0.97407471   -3.2023423   -1.6982055   0.06661584   -3.2023423    1.5041368   426501 
 4571000   0.97579287   -3.2033584   -1.6965401  0.066037461   -3.2033584    1.5068182   426493 
 4572000   0.97550515   -3.2039724   -1.6975702  0.064915063   -3.2039724    1.5064022   426485 
 4573000   0.97541381   -3.2032506   -1.6969613  0.063028357   -3.2032506    1.5062894   426477 
 4574000   0.97373122    -3.203204   -1.6994847  0.064331313    -3.203204    1.5037193   426469 
 4575000     0.972894   -3.2004636    -1.698009   0.06165671   -3.2004636    1.5024545   426461 
 4576000    0.9744354   -3.2028438   -1.6979807    0.0605022   -3.2028438    1.5048632   426453 
 4577000   0.97413606   -3.2026176   -1.6981885  0.063760502   -3.2026176    1.5044291   426445 
 4578000   0.97398129   -3.2030358   -1.6988175  0.061368365   -3.2030358    1.5042183   426437 
 4579000   0.97365657   -3.2021552   -1.6984102  0.064267937   -3.2021552     1.503745   426429 
 4580000   0.97422868   -3.2023879   -1.6977311  0.065550119   -3.2023879    1.5046568   426421 
 4581000   0.97316311   -3.2023168   -1.6992775  0.062584098   -3.2023168    1.5030393   426413 
 4582000   0.97440479    -3.202534   -1.6975487  0.062275097    -3.202534    1.5049853   426405 
 4583000   0.97496358   -3.2042295   -1.6983529  0.064806677   -3.2042295    1.5058766   426397 
 4584000   0.97344288   -3.2032047   -1.6996487  0.066952211   -3.2032047     1.503556   426389 
 4585000   0.97374311   -3.2030243   -1.6989764  0.064041518   -3.2030243     1.504048   426381 
 4586000   0.97507496   -3.2048421   -1.6987087  0.064275517   -3.2048421    1.5061334   426373 
 4587000   0.97454933    -3.205038   -1.6996882   0.06623687    -3.205038    1.5053497   426365 
 4588000   0.97465742   -3.2053017   -1.6997567  0.068303112   -3.2053017    1.5055449   426357 
 4589000   0.97411649   -3.2052021   -1.7004645  0.065067482   -3.2052021    1.5047376   426349 
 4590000   0.97475909   -3.2055332   -1.6997747  0.062787329   -3.2055332    1.5057585   426341 
 4591000   0.97369459   -3.2037427   -1.6996004  0.068792956   -3.2037427    1.5041423   426333 
 4592000   0.97478769   -3.2057174   -1.6998582  0.062253881   -3.2057174    1.5058592   426325 
 4593000   0.97196851   -3.2040498   -1.7025175  0.066922761   -3.2040498    1.5015323   426317 
 4594000   0.97399991    -3.206458   -1.7017592   0.06424152    -3.206458    1.5046987   426309 
 4595000   0.97274012   -3.2043883   -1.7016076  0.064310724   -3.2043883    1.5027807   426301 
 4596000   0.97417136   -3.2067404   -1.7017204   0.06554495   -3.2067404    1.5050201   426293 
 4597000   0.97498656   -3.2064587    -1.700151  0.061745906   -3.2064587    1.5063077   426285 
 4598000   0.97347009   -3.2046568   -1.7006637  0.066046496   -3.2046568    1.5039931   426277 
 4599000   0.97516461   -3.2060845   -1.6994451  0.065862827   -3.2060845    1.5066394   426269 
 4600000   0.97302195   -3.2043744   -1.7010172  0.064909759   -3.2043744    1.5033572   426261 
 4601000   0.97244262   -3.2026971   -1.7002069  0.072182056   -3.2026971    1.5024903   426253 
 4602000   0.97347931   -3.2047469   -1.7006267  0.065027925   -3.2047469    1.5041203   426245 
 4603000   0.97299372   -3.2038279   -1.7004297  0.064004918   -3.2038279    1.5033982   426237 
 4604000   0.97474773    -3.206118   -1.6999814  0.063358298    -3.206118    1.5061366   426229 
 4605000   0.97380194   -3.2056134     -1.70091  0.064684166   -3.2056134    1.5047035   426221 
 4606000   0.97307591   -3.2044899     -1.70088  0.061218115   -3.2044899    1.5036099   426213 
 4607000   0.97452342   -3.2062287   -1.7003539  0.065563796   -3.2062287    1.5058748   426205 
 4608000   0.97352368   -3.2045857   -1.7002275  0.065986355   -3.2045857    1.5043582   426197 
 4609000     0.972994   -3.2044493   -1.7008814  0.066993745   -3.2044493    1.5035679   426189 
 4610000   0.97291472   -3.2025743   -1.6991007  0.060455205   -3.2025743    1.5034737   426181 
 4611000   0.97159549   -3.2016798   -1.7002166  0.066471982   -3.2016798    1.5014632   426173 
 4612000   0.97065704   -3.2001881    -1.700147  0.060497304   -3.2001881    1.5000411   426165 
 4613000   0.97082624   -3.2008726   -1.7005418  0.059601472   -3.2008726    1.5003308   426157 
 4614000   0.97143204    -3.203237   -1.7019418  0.061619156    -3.203237    1.5012952   426149 
 4615000   0.97126693    -3.203024   -1.7019558  0.060301868    -3.203024    1.5010682   426141 
 4616000   0.97277504   -3.2055336   -1.7021065   0.06145398   -3.2055336    1.5034271   426133 
 4617000   0.97020428   -3.2016698   -1.7021877   0.06609697   -3.2016698    1.4994822   426125 
 4618000   0.97049158   -3.2024682   -1.7025139  0.059794123   -3.2024682    1.4999543   426117 
 4619000   0.97124158   -3.2023721   -1.7012303  0.061679201   -3.2023721    1.5011417   426109 
 4620000   0.97220883   -3.2028772   -1.7002123  0.061638041   -3.2028772    1.5026649   426101 
 4621000   0.97375374   -3.2045289   -1.6994479  0.059637744   -3.2045289     1.505081   426093 
 4622000   0.97181253   -3.2028923   -1.7007835  0.064545486   -3.2028923    1.5021088   426085 
 4623000   0.97216708   -3.2034337   -1.7007487  0.063372204   -3.2034337     1.502685   426077 
 4624000   0.97296612   -3.2046142   -1.7006658  0.060582301   -3.2046142    1.5039483   426069 
 4625000   0.97158802   -3.2032158   -1.7013695   0.06413942   -3.2032158    1.5018463   426061 
 4626000   0.97284281   -3.2053103   -1.7014961  0.062899422   -3.2053103    1.5038142   426053 
 4627000    0.9725987   -3.2040155   -1.7005505  0.068169932   -3.2040155    1.5034651   426045 
 4628000   0.97355384   -3.2074261   -1.7024563  0.063609925   -3.2074261    1.5049698   426037 
 4629000   0.97238984   -3.2032117    -1.700013  0.071312402   -3.2032117    1.5031987   426029 
 4630000   0.97322391   -3.2056753   -1.7011591  0.064158735   -3.2056753    1.5045163   426021 
 4631000   0.97297819   -3.2056914   -1.7015267  0.064698427   -3.2056914    1.5041647   426013 
 4632000     0.973183   -3.2066077   -1.7020982  0.065530217   -3.2066077    1.5045096   426005 
 4633000   0.97357618   -3.2059145   -1.7007688  0.067860187   -3.2059145    1.5051457   425997 
 4634000   0.97465093   -3.2071175    -1.700282  0.066540398   -3.2071175    1.5068355   425989 
 4635000   0.97376264   -3.2071244   -1.7016339  0.068970669   -3.2071244    1.5054905   425981 
 4636000   0.97208325   -3.2060531   -1.7031308  0.065050298   -3.2060531    1.5029223   425973 
 4637000   0.97069747   -3.2034134   -1.7026054  0.071721282   -3.2034134    1.5008079   425965 
 4638000   0.97381852    -3.208542   -1.7028803  0.059226891    -3.208542    1.5056617   425957 
 4639000   0.97277015    -3.208384    -1.704315  0.066056237    -3.208384     1.504069   425949 
 4640000   0.97105539   -3.2053653   -1.7039194   0.06499357   -3.2053653    1.5014459   425941 
 4641000   0.97261064   -3.2060928    -1.702214  0.064095707   -3.2060928    1.5038789   425933 
 4642000   0.97125246   -3.2054616   -1.7036545  0.065796673   -3.2054616     1.501807   425925 
 4643000   0.97161003   -3.2057686   -1.7033805  0.066214363   -3.2057686    1.5023881   425917 
 4644000   0.97167765   -3.2064956   -1.7039747  0.060626673   -3.2064956    1.5025209   425909 
 4645000   0.97133097   -3.2071247   -1.7051117  0.062012485   -3.2071247    1.5020131   425901 
 4646000   0.97161196   -3.2074342   -1.7049584   0.06238312   -3.2074342    1.5024758   425893 
 4647000   0.97288329   -3.2079853   -1.7035152  0.069744534   -3.2079853      1.50447   425885 
 4648000   0.97223628   -3.2071733   -1.7036756   0.06829343   -3.2071733    1.5034977   425877 
 4649000   0.97279034   -3.2074687   -1.7030859  0.064750927   -3.2074687    1.5043828   425869 
 4650000   0.97294627   -3.2064645   -1.7018123   0.06303154   -3.2064645    1.5046522   425861 
 4651000   0.97226814   -3.2055766   -1.7019449  0.066561216   -3.2055766    1.5036317   425853 
 4652000   0.97250105   -3.2059941   -1.7019739  0.071946093   -3.2059941    1.5040202   425845 
 4653000   0.97206025   -3.2045773   -1.7012106  0.064624285   -3.2045773    1.5033667   425837 
 4654000   0.97405508   -3.2078059   -1.7013257  0.066662486   -3.2078059    1.5064801   425829 
 4655000   0.97250694   -3.2062004   -1.7020864  0.069257431   -3.2062004     1.504114   425821 
 4656000   0.97276361   -3.2060022   -1.7014629  0.066859927   -3.2060022    1.5045393   425813 
 4657000   0.97301517    -3.207009   -1.7020524  0.066956282    -3.207009    1.5049566   425805 
 4658000   0.97191387   -3.2064183   -1.7031368  0.063715724   -3.2064183    1.5032815   425797 
 4659000   0.97205372   -3.2058172   -1.7022911  0.069438491   -3.2058172    1.5035261   425789 
 4660000     0.971497   -3.2049524   -1.7022592  0.062180875   -3.2049524    1.5026932   425781 
 4661000   0.97196598   -3.2059748   -1.7025279  0.063153239   -3.2059748    1.5034468   425773 
 4662000   0.97214669   -3.2068698   -1.7031152   0.06216119   -3.2068698    1.5037546   425765 
 4663000   0.97009695   -3.2038473   -1.7032351  0.061344032   -3.2038473    1.5006122   425757 
 4664000   0.96918983   -3.2020959   -1.7028588  0.064099694   -3.2020959    1.4992372   425749 
 4665000   0.97079441   -3.2038615    -1.702114  0.060425795   -3.2038615    1.5017475   425741 
 4666000   0.97027183   -3.2033754   -1.7024081  0.059845556   -3.2033754    1.5009673   425733 
 4667000   0.97150178   -3.2046231   -1.7017249  0.062549625   -3.2046231    1.5028982   425725 
 4668000   0.97211204   -3.2048761   -1.7010055  0.060228692   -3.2048761    1.5038706   425717 
 4669000   0.97189674   -3.2047786   -1.7012128   0.06239538   -3.2047786    1.5035658   425709 
 4670000   0.97206583    -3.204821   -1.7009653  0.065935689    -3.204821    1.5038556   425701 
 4671000   0.97269308   -3.2062854   -1.7014311  0.062959055   -3.2062854    1.5048543   425693 
 4672000   0.97194571   -3.2051479   -1.7014216  0.064017819   -3.2051479    1.5037263   425685 
 4673000   0.97119722   -3.2044083   -1.7018118   0.06244205   -3.2044083    1.5025965   425677 
 4674000    0.9729409   -3.2068284   -1.7015059  0.064322507   -3.2068284    1.5053226   425669 
 4675000   0.97189235    -3.205719   -1.7019904  0.060884689    -3.205719    1.5037285   425661 
 4676000   0.97196353   -3.2055793   -1.7017124  0.064811597   -3.2055793    1.5038669   425653 
 4677000    0.9717478    -3.205404   -1.7018426  0.062643192    -3.205404    1.5035614   425645 
 4678000    0.9717765   -3.2043367   -1.7007027  0.064570772   -3.2043367     1.503634   425637 
 4679000   0.97057797   -3.2035846   -1.7017768  0.066081917   -3.2035846    1.5018078   425629 
 4680000   0.97018605   -3.2039332   -1.7027036  0.065362615   -3.2039332    1.5012296   425621 
 4681000   0.97126746   -3.2049598   -1.7020287  0.065143612   -3.2049598    1.5029312   425613 
 4682000   0.97258981   -3.2065059   -1.7015003  0.064643499   -3.2065059    1.5050056   425605 
 4683000   0.97148858    -3.205885   -1.7025552  0.067187218    -3.205885    1.5033298   425597 
 4684000   0.97136373   -3.2051269    -1.701962  0.061267121   -3.2051269    1.5031649   425589 
 4685000   0.97284303   -3.2073314    -1.701849  0.063200483   -3.2073314    1.5054824   425581 
 4686000   0.97217102   -3.2066843   -1.7022136  0.063806256   -3.2066843    1.5044707   425573 
 4687000   0.97069249   -3.2058872   -1.7036763  0.071163506   -3.2058872    1.5022109   425565 
 4688000   0.97037124   -3.2044763   -1.7027343  0.062279007   -3.2044763    1.5017419   425557 
 4689000   0.97048692   -3.2055516   -1.7036024  0.066189817   -3.2055516    1.5019492   425549 
 4690000   0.97267675   -3.2080896   -1.7027231  0.067557262   -3.2080896    1.5053665   425541 
 4691000   0.97070132   -3.2045238   -1.7021863  0.064989518   -3.2045238    1.5023375   425533 
 4692000    0.9703599   -3.2057237   -1.7038864  0.065895631   -3.2057237    1.5018373   425525 
 4693000   0.97051164   -3.2051109   -1.7030105  0.064776799   -3.2051109    1.5021004   425517 
 4694000   0.97093221   -3.2050498   -1.7022702  0.063156991   -3.2050498    1.5027796   425509 
 4695000   0.97262785   -3.2071077   -1.7016754  0.059643387   -3.2071077    1.5054324   425501 
 4696000   0.97205204   -3.2064541   -1.7018847   0.06369079   -3.2064541    1.5045694   425493 
 4697000   0.97142583   -3.2062607   -1.7026323  0.058936822   -3.2062607    1.5036284   425485 
 4698000   0.97258566   -3.2064507   -1.7009987  0.062077411   -3.2064507     1.505452   425477 
 4699000   0.97243578   -3.2055765   -1.7003282  0.070478729   -3.2055765    1.5052483   425469 
 4700000    0.9737565   -3.2070732   -1.6997522  0.067436294   -3.2070732     1.507321   425461 
 4701000   0.97119284   -3.2031361   -1.6997552  0.066579303   -3.2031361    1.5033808   425453 
 4702000   0.97199061   -3.2049425   -1.7002984  0.066588309   -3.2049425    1.5046441   425445 
 4703000   0.97136715   -3.2044013   -1.7006941  0.066011591   -3.2044013    1.5037072   425437 
 4704000   0.97111831   -3.2046762   -1.7013259  0.062599214   -3.2046762    1.5033503   425429 
 4705000   0.97178532   -3.2057825   -1.7013714  0.065279394   -3.2057825    1.5044111   425421 
 4706000   0.97227726    -3.206502   -1.7013009  0.058929429    -3.206502     1.505201   425413 
 4707000    0.9701412   -3.2046256   -1.7027032  0.069983663   -3.2046256    1.5019224   425405 
 4708000   0.97125766   -3.2070398   -1.7033607  0.064095285   -3.2070398    1.5036791   425397 
 4709000   0.97023371   -3.2056328   -1.7035107  0.061905299   -3.2056328    1.5021221   425389 
 4710000   0.97021808   -3.2058976   -1.7037715  0.060541611   -3.2058976    1.5021261   425381 
 4711000   0.97008865   -3.2048001   -1.7028461  0.061845656   -3.2048001     1.501954   425373 
 4712000   0.97016784   -3.2057812   -1.7036764  0.060611209   -3.2057812    1.5021049   425365 
 4713000   0.97060828   -3.2052234   -1.7024083  0.066997869   -3.2052234    1.5028151   425357 
 4714000   0.97062701   -3.2051344   -1.7022621  0.059583492   -3.2051344    1.5028723   425349 
 4715000   0.97155686   -3.2068786   -1.7025383  0.059294834   -3.2068786    1.5043404   425341 
 4716000   0.97143986   -3.2066799   -1.7024925   0.06309771   -3.2066799    1.5041875   425333 
 4717000   0.97072565   -3.2064547   -1.7033449  0.069513077   -3.2064547    1.5031099   425325 
 4718000   0.97027375   -3.2075235   -1.7050851  0.064739719   -3.2075235    1.5024384   425317 
 4719000   0.97135636   -3.2068393   -1.7026963  0.066579325   -3.2068393    1.5041431   425309 
 4720000   0.97093481   -3.2068822   -1.7033637  0.063000552   -3.2068822    1.5035186   425301 
 4721000   0.97185073   -3.2083231   -1.7033578  0.063721148   -3.2083231    1.5049652   425293 
 4722000    0.9706642    -3.206531    -1.703375  0.066792704    -3.206531    1.5031561   425285 
 4723000   0.97221755   -3.2100529    -1.704463  0.057966155   -3.2100529    1.5055899   425277 
 4724000   0.97101476   -3.2073536   -1.7035981  0.062176138   -3.2073536    1.5037555   425269 
 4725000   0.97092566   -3.2077108    -1.704065  0.059297655   -3.2077108    1.5036458   425261 
 4726000    0.9705322   -3.2060845   -1.7030198  0.066977178   -3.2060845    1.5030648   425253 
 4727000   0.97019877    -3.205236   -1.7026593  0.066397971    -3.205236    1.5025766   425245 
 4728000   0.97039899   -3.2063707   -1.7034557  0.064045199   -3.2063707     1.502915   425237 
 4729000   0.97163472    -3.208103   -1.7032458  0.060903165    -3.208103    1.5048572   425229 
 4730000   0.97102318   -3.2069594   -1.7030211  0.065206334   -3.2069594    1.5039383   425221 
 4731000   0.97131928   -3.2087818   -1.7043566  0.058865074   -3.2087818    1.5044252   425213 
 4732000   0.97002754   -3.2079505   -1.7054977  0.065760735   -3.2079505    1.5024528   425205 
 4733000   0.97025618   -3.2076177   -1.7047825  0.061191275   -3.2076177    1.5028352   425197 
 4734000   0.96995032   -3.2061975   -1.7038078  0.067204759   -3.2061975    1.5023897   425189 
 4735000   0.96895176   -3.2046982   -1.7038269  0.060934909   -3.2046982    1.5008713   425181 
 4736000   0.96969342   -3.2057118   -1.7036635  0.061764473   -3.2057118    1.5020483   425173 
 4737000   0.96947843   -3.2059622   -1.7042186  0.061833461   -3.2059622    1.5017436   425165 
 4738000    0.9698363    -3.205899   -1.7035728  0.063406875    -3.205899    1.5023262   425157 
 4739000   0.96945567   -3.2068882   -1.7051234  0.061167116   -3.2068882    1.5017648   425149 
 4740000    0.9703065   -3.2082322   -1.7051211  0.064440524   -3.2082322    1.5031111   425141 
 4741000   0.97054027    -3.206598   -1.7030965  0.065156964    -3.206598    1.5035015   425133 
 4742000   0.97135065   -3.2067393    -1.701954  0.064563642   -3.2067393    1.5047852   425125 
 4743000   0.96987649   -3.2042962   -1.7017664  0.067214032   -3.2042962    1.5025298   425117 
 4744000   0.97049573   -3.2063429   -1.7028255   0.06491057   -3.2063429    1.5035174   425109 
 4745000   0.97085152   -3.2068993   -1.7028024  0.062912996   -3.2068993    1.5040969   425101 
 4746000   0.97075019   -3.2075291   -1.7035609   0.06063681   -3.2075291    1.5039682   425093 
 4747000   0.97032782   -3.2064324   -1.7030903  0.064946422   -3.2064324    1.5033422   425085 
 4748000   0.97124873   -3.2076904   -1.7028931  0.062631521   -3.2076904    1.5047972   425077 
 4749000   0.97226045   -3.2076094   -1.7012163  0.064689419   -3.2076094    1.5063931   425069 
 4750000    0.9717054   -3.2071002   -1.7015388  0.066927802   -3.2071002    1.5055615   425061 
 4751000   0.97103713    -3.207759   -1.7032047  0.064061057    -3.207759    1.5045544   425053 
 4752000   0.97188951   -3.2083487   -1.7024453  0.069007374   -3.2083487    1.5059034   425045 
 4753000   0.97171292   -3.2088237   -1.7031656   0.06636243   -3.2088237    1.5056581   425037 
 4754000   0.96995329   -3.2064973   -1.7035374  0.061648657   -3.2064973    1.5029599   425029 
 4755000   0.96992454   -3.2069628   -1.7040191    0.0619315   -3.2069628    1.5029436   425021 
 4756000   0.97004006    -3.207638   -1.7044871  0.062755881    -3.207638    1.5031509   425013 
 4757000   0.96985779   -3.2072365   -1.7043398  0.065588172   -3.2072365    1.5028968   425005 
 4758000   0.96886266   -3.2074065   -1.7060235  0.063071815   -3.2074065     1.501383   424997 
 4759000   0.97026513   -3.2094541   -1.7058695  0.058212972   -3.2094541    1.5035846   424989 
 4760000   0.97020675   -3.2085545   -1.7050321  0.060948895   -3.2085545    1.5035224   424981 
 4761000   0.96966209    -3.209569   -1.7068624  0.067052892    -3.209569    1.5027066   424973 
 4762000   0.97147538   -3.2104751     -1.70493  0.066041655   -3.2104751    1.5055451   424965 
 4763000   0.96991757   -3.2088763   -1.7057172  0.066825867   -3.2088763    1.5031592   424957 
 4764000   0.96901044   -3.2081593   -1.7063777   0.06148634   -3.2081593    1.5017816   424949 
 4765000   0.96959692   -3.2102219    -1.707503    0.0678138   -3.2102219    1.5027188   424941 
 4766000   0.96967074   -3.2091004   -1.7062389  0.065118327   -3.2091004    1.5028615   424933 
 4767000   0.97088642   -3.2107071   -1.7059331  0.063419256   -3.2107071     1.504774   424925 
 4768000   0.97126442   -3.2111515   -1.7057633  0.062051761   -3.2111515    1.5053882   424917 
 4769000    0.9717872   -3.2108911   -1.7046643  0.062684765   -3.2108911    1.5062268   424909 
 4770000   0.96982959   -3.2084433   -1.7052224  0.067162186   -3.2084433    1.5032209   424901 
 4771000   0.96798495   -3.2072714   -1.7068814  0.064471607   -3.2072714      1.50039   424893 
 4772000   0.96955773    -3.211318   -1.7084619  0.063790552    -3.211318    1.5028561   424885 
 4773000    0.9708548   -3.2119764   -1.7070814  0.063133148   -3.2119764     1.504895   424877 
 4774000   0.96922021   -3.2099999   -1.7076104  0.064397525   -3.2099999    1.5023895   424869 
 4775000   0.96889446   -3.2095632   -1.7076504  0.065117846   -3.2095632    1.5019129   424861 
 4776000   0.97002105   -3.2114006    -1.707713  0.066107667   -3.2114006    1.5036875   424853 
 4777000   0.97081739   -3.2132004     -1.70825  0.062627287   -3.2132004    1.5049503   424845 
 4778000   0.97081865   -3.2120015   -1.7070209  0.066177337   -3.2120015    1.5049806   424837 
 4779000   0.96999676   -3.2098099   -1.7060751  0.062110093   -3.2098099    1.5037348   424829 
 4780000   0.96967238   -3.2090497   -1.7057895  0.067240142   -3.2090497    1.5032603   424821 
 4781000   0.97111632   -3.2116379   -1.7061108   0.06257681   -3.2116379    1.5055271   424813 
 4782000   0.96920903    -3.208913   -1.7063145  0.063137263    -3.208913    1.5025985   424805 
 4783000   0.97056347   -3.2114865   -1.7067598  0.065312778   -3.2114865    1.5047267   424797 
 4784000   0.97012499   -3.2117027   -1.7076275  0.063859369   -3.2117027    1.5040752   424789 
 4785000   0.97005312   -3.2122865   -1.7082944  0.069408306   -3.2122865    1.5039921   424781 
 4786000   0.96908935   -3.2115664   -1.7090402  0.072160565   -3.2115664    1.5025262   424773 
 4787000   0.96993074   -3.2121365   -1.7082774   0.07126072   -3.2121365     1.503859   424765 
 4788000   0.96879005   -3.2116507    -1.709532  0.067669398   -3.2116507    1.5021187   424757 
 4789000   0.97109285   -3.2119382   -1.7062206  0.062466186   -3.2119382    1.5057176   424749 
 4790000    0.9696089   -3.2108948   -1.7074498  0.063086754   -3.2108948     1.503445   424741 
 4791000   0.96994165   -3.2108477   -1.7068585  0.066579234   -3.2108477    1.5039893   424733 
 4792000   0.96914502   -3.2092327   -1.7064504  0.061556719   -3.2092327    1.5027823   424725 
 4793000   0.96970523   -3.2102515   -1.7065722  0.061550436   -3.2102515    1.5036793   424717 
 4794000    0.9707595   -3.2126016   -1.7072591  0.062128011   -3.2126016    1.5053425   424709 
 4795000   0.96966684   -3.2109679   -1.7072915  0.064016438   -3.2109679    1.5036764   424701 
 4796000   0.96850626   -3.2107914   -1.7088864  0.059703211   -3.2107914     1.501905   424693 
 4797000   0.96862768   -3.2094895   -1.7073679  0.063860117   -3.2094895    1.5021216   424685 
 4798000   0.96720648   -3.2069387   -1.7069928  0.064243439   -3.2069387    1.4999459   424677 
 4799000   0.96653948   -3.2064072   -1.7074675  0.059379581   -3.2064072    1.4989397   424669 
 4800000   0.96806188   -3.2077957   -1.7064667  0.065608466   -3.2077957     1.501329   424661 
 4801000   0.96786116   -3.2073052   -1.7062592  0.062245829   -3.2073052     1.501046   424653 
 4802000   0.96828817   -3.2078147   -1.7060782  0.060675097   -3.2078147    1.5017365   424645 
 4803000    0.9686488   -3.2084267   -1.7061026  0.064568996   -3.2084267    1.5023241   424637 
 4804000   0.96852723   -3.2080285   -1.7058647  0.065700256   -3.2080285    1.5021639   424629 
 4805000   0.96851299   -3.2079701      -1.7058  0.060222575   -3.2079701    1.5021701   424621 
 4806000   0.96861517   -3.2084269     -1.70607  0.061153014   -3.2084269    1.5023569   424613 
 4807000    0.9685895   -3.2080415   -1.7056961  0.068457962   -3.2080415    1.5023454   424605 
 4808000   0.96960153     -3.20875   -1.7048065  0.062248548     -3.20875    1.5039434   424597 
 4809000   0.96996333   -3.2097984   -1.7052654   0.06294564   -3.2097984     1.504533   424589 
 4810000    0.9702449     -3.21054   -1.7055419  0.059764404     -3.21054    1.5049981   424581 
 4811000   0.96874521    -3.209208   -1.7065079  0.064967273    -3.209208    1.5027001   424573 
 4812000   0.96964411   -3.2098788    -1.705756  0.067100725   -3.2098788    1.5041228   424565 
 4813000   0.96950346   -3.2087635   -1.7048305  0.061952431   -3.2087635     1.503933   424557 
 4814000   0.96952273   -3.2094007   -1.7054095  0.060357065   -3.2094007    1.5039912   424549 
 4815000   0.96802982   -3.2087915   -1.7070878  0.065082775   -3.2087915    1.5017036   424541 
 4816000   0.96962069   -3.2111074   -1.7069075  0.060427805   -3.2111074    1.5041999   424533 
 4817000   0.96822031   -3.2094628    -1.707407  0.063667516   -3.2094628    1.5020557   424525 
 4818000   0.96864143   -3.2100663   -1.7073289  0.067800837   -3.2100663    1.5027374   424517 
 4819000   0.96872554   -3.2096807   -1.7067845  0.064144038   -3.2096807    1.5028962   424509 
 4820000   0.97129358    -3.212133   -1.7052243   0.06461444    -3.212133    1.5069087   424501 
 4821000   0.96971151   -3.2089779   -1.7044954  0.063304107   -3.2089779    1.5044825   424493 
 4822000   0.96978279   -3.2103947   -1.7057733  0.065577575   -3.2103947    1.5046215   424485 
 4823000   0.96977908   -3.2111481    -1.706504  0.058299326   -3.2111481    1.5046441   424477 
 4824000   0.96937362    -3.210568   -1.7065246  0.067365782    -3.210568    1.5040433   424469 
 4825000   0.96961705   -3.2113406   -1.7068912  0.064652418   -3.2113406    1.5044494   424461 
 4826000   0.96904747   -3.2111573   -1.7075633  0.067587868   -3.2111573     1.503594   424453 
 4827000   0.96888347   -3.2100853   -1.7067175  0.063813507   -3.2100853    1.5033678   424445 
 4828000   0.96926388   -3.2114063   -1.7074198  0.065082886   -3.2114063    1.5039865   424437 
 4829000   0.96779808   -3.2095593    -1.707819  0.061112002   -3.2095593    1.5017403   424429 
 4830000     0.967963   -3.2095249   -1.7075003  0.068717658   -3.2095249    1.5020245   424421 
 4831000   0.96791736   -3.2098363   -1.7078543  0.069760625   -3.2098363     1.501982   424413 
 4832000   0.96886467   -3.2107466   -1.7072662  0.067389013   -3.2107466    1.5034804   424405 
 4833000   0.97092259   -3.2129628   -1.7062605  0.059469752   -3.2129628    1.5067022   424397 
 4834000   0.97014954    -3.211626    -1.706095  0.063370827    -3.211626     1.505531   424389 
 4835000   0.96918091   -3.2108783   -1.7068222  0.061247186   -3.2108783    1.5040562   424381 
 4836000   0.96945492   -3.2114698     -1.70696  0.060278128   -3.2114698    1.5045098   424373 
 4837000     0.969102   -3.2121187   -1.7081283  0.063895713   -3.2121187    1.5039904   424365 
 4838000   0.96991794   -3.2118694   -1.7065844  0.068468212   -3.2118694    1.5052851   424357 
 4839000   0.97002238   -3.2122908   -1.7068153  0.059999038   -3.2122908    1.5054755   424349 
 4840000   0.96959525   -3.2140821   -1.7092411  0.063916876   -3.2140821     1.504841   424341 
 4841000   0.96916075   -3.2118385   -1.7076435  0.062041503   -3.2118385     1.504195   424333 
 4842000    0.9679861   -3.2103802     -1.70798  0.059920219   -3.2103802    1.5024002   424325 
 4843000   0.96610522   -3.2086288   -1.7091197  0.062298553   -3.2086288    1.4995092   424317 
 4844000   0.96610716   -3.2083298   -1.7087894   0.06625342   -3.2083298    1.4995405   424309 
 4845000   0.96703827   -3.2092404   -1.7082265  0.064163256   -3.2092404     1.501014   424301 
 4846000    0.9679045   -3.2104991   -1.7081123  0.061443395   -3.2104991    1.5023868   424293 
 4847000    0.9689889   -3.2123134    -1.708215  0.064146814   -3.2123134    1.5040984   424285 
 4848000   0.96618794   -3.2081471   -1.7083681  0.060676181   -3.2081471    1.4997789   424277 
 4849000    0.9664588    -3.209747   -1.7095193  0.059800189    -3.209747    1.5002277   424269 
 4850000   0.96638101   -3.2101487   -1.7100135  0.066325495   -3.2101487    1.5001352   424261 
 4851000    0.9674533   -3.2102846   -1.7084565  0.061254103   -3.2102846    1.5018281   424253 
 4852000   0.96829417   -3.2118559   -1.7086942  0.067471786   -3.2118559    1.5031618   424245 
 4853000   0.96926229   -3.2132593   -1.7085663  0.063918262   -3.2132593     1.504693   424237 
 4854000   0.96714485   -3.2106612    -1.709227  0.062906231   -3.2106612    1.5014342   424229 
 4855000   0.96780899   -3.2109248   -1.7084312  0.063728663   -3.2109248    1.5024936   424221 
 4856000   0.96742433   -3.2122074   -1.7102827  0.062244017   -3.2122074    1.5019247   424213 
 4857000   0.96734287   -3.2121702   -1.7103436  0.060638411   -3.2121702    1.5018266   424205 
 4858000   0.96641038   -3.2099663   -1.7095591   0.06143027   -3.2099663    1.5004071   424197 
 4859000   0.96751053   -3.2128635     -1.71072  0.060397882   -3.2128635    1.5021435   424189 
 4860000   0.96719627   -3.2116276   -1.7099436  0.061760801   -3.2116276    1.5016839   424181 
 4861000    0.9655315   -3.2088594    -1.709732  0.064326479   -3.2088594    1.4991275   424173 
 4862000   0.96793312   -3.2126924   -1.7098077  0.063463652   -3.2126924    1.5028847   424165 
 4863000   0.96752656    -3.212067   -1.7097852  0.064388824    -3.212067    1.5022817   424157 
 4864000   0.97018726   -3.2162076   -1.7097662  0.063060607   -3.2162076    1.5064414   424149 
 4865000   0.96657413   -3.2119936   -1.7111341  0.066547652   -3.2119936    1.5008595   424141 
 4866000   0.96711781    -3.211573   -1.7098409   0.06643675    -3.211573    1.5017321   424133 
 4867000   0.96732874   -3.2124844   -1.7103965  0.064438667   -3.2124844    1.5020879   424125 
 4868000   0.96859761   -3.2138825   -1.7097959  0.067224443   -3.2138825    1.5040866   424117 
 4869000   0.97032221   -3.2166562   -1.7098631  0.064690051   -3.2166562    1.5067931   424109 
 4870000   0.96956076   -3.2157194   -1.7100804  0.062979376   -3.2157194     1.505639   424101 
 4871000   0.96950112   -3.2156513   -1.7100765  0.059868231   -3.2156513    1.5055748   424093 
 4872000   0.96824463   -3.2149825   -1.7113305  0.068392615   -3.2149825    1.5036519   424085 
 4873000   0.96820899   -3.2148606   -1.7112357  0.061013745   -3.2148606     1.503625   424077 
 4874000   0.96710436   -3.2140324   -1.7120946  0.065797228   -3.2140324    1.5019378   424069 
 4875000    0.9672837   -3.2147836    -1.712539  0.059917576   -3.2147836    1.5022447   424061 
 4876000   0.96588151    -3.213788   -1.7136927  0.065727513    -3.213788    1.5000953   424053 
 4877000   0.96631419   -3.2143695   -1.7135739  0.062843864   -3.2143695    1.5007956   424045 
 4878000   0.96603006   -3.2124682   -1.7120856  0.061140697   -3.2124682    1.5003826   424037 
 4879000   0.96717179   -3.2136047   -1.7114205  0.063446734   -3.2136047    1.5021842   424029 
 4880000   0.96791375   -3.2141952   -1.7108302  0.062835957   -3.2141952     1.503365   424021 
 4881000   0.96754172   -3.2124456   -1.7096302  0.066578985   -3.2124456    1.5028155   424013 
 4882000   0.96782487   -3.2135271   -1.7102435  0.068487695   -3.2135271    1.5032836   424005 
 4883000   0.96961049   -3.2161523   -1.7100667  0.064080691   -3.2161523    1.5060856   423997 
 4884000   0.96915622    -3.213284   -1.7078756  0.064449116    -3.213284    1.5054084   423989 
 4885000   0.96870849   -3.2142899   -1.7095486  0.064629138   -3.2142899    1.5047413   423981 
 4886000   0.96607595   -3.2108511   -1.7101707  0.062361348   -3.2108511    1.5006804   423973 
 4887000   0.96525818   -3.2097731   -1.7103348  0.066181557   -3.2097731    1.4994384   423965 
 4888000   0.96616972   -3.2116773   -1.7107946   0.06539701   -3.2116773    1.5008827   423957 
 4889000   0.96653614   -3.2127804   -1.7113002  0.063337663   -3.2127804    1.5014802   423949 
 4890000   0.96722398   -3.2133088   -1.7107316  0.060212327   -3.2133088    1.5025771   423941 
 4891000   0.96561555   -3.2104751   -1.7103683  0.068568277   -3.2104751    1.5001067   423933 
 4892000   0.96723534   -3.2133942   -1.7107427  0.060586094   -3.2133942    1.5026515   423925 
 4893000    0.9667123   -3.2125984   -1.7107311  0.063872784   -3.2125984    1.5018672   423917 
 4894000    0.9674222   -3.2137385     -1.71074  0.063884866   -3.2137385    1.5029985   423909 
 4895000   0.96622347   -3.2107775    -1.709613    0.0648286   -3.2107775    1.5011645   423901 
 4896000   0.96647237   -3.2118372   -1.7102577    0.0614272   -3.2118372    1.5015795   423893 
 4897000   0.96618442    -3.211238   -1.7100776  0.069880086    -3.211238    1.5011604   423885 
 4898000   0.96674581   -3.2135642   -1.7115032  0.063272185   -3.2135642     1.502061   423877 
 4899000   0.96580559   -3.2109194   -1.7102909  0.062429769   -3.2109194    1.5006285   423869 
 4900000   0.96664883   -3.2124306   -1.7104636   0.06276974   -3.2124306     1.501967   423861 
 4901000   0.96626091   -3.2115849   -1.7101922   0.06480164   -3.2115849    1.5013926   423853 
 4902000   0.96665962   -3.2128962   -1.7108556  0.067733089   -3.2128962    1.5020405   423845 
 4903000    0.9666193   -3.2122909   -1.7102847  0.068552124   -3.2122909    1.5020062   423837 
 4904000   0.96774137   -3.2157175   -1.7119394  0.059446772   -3.2157175    1.5037782   423829 
 4905000   0.96581385   -3.2143957   -1.7135844  0.066298407   -3.2143957    1.5008113   423821 
 4906000   0.96492863    -3.213441    -1.713977   0.05898013    -3.213441     1.499464   423813 
 4907000    0.9651179   -3.2126087   -1.7128223  0.061631055   -3.2126087    1.4997865   423805 
 4908000   0.96637694   -3.2136042   -1.7118329   0.06272029   -3.2136042    1.5017713   423797 
 4909000   0.96712521   -3.2141325     -1.71117   0.06103517   -3.2141325    1.5029625   423789 
 4910000   0.96656761   -3.2127072   -1.7105828  0.064239372   -3.2127072    1.5021244   423781 
 4911000   0.96624054   -3.2135088   -1.7118644  0.064545073   -3.2135088    1.5016444   423773 
 4912000   0.96809438   -3.2169813   -1.7124274  0.063692765   -3.2169813    1.5045539   423765 
 4913000   0.96839325   -3.2163284   -1.7112817  0.064345063   -3.2163284    1.5050468   423757 
 4914000   0.96810163    -3.215985    -1.711363  0.061970011    -3.215985     1.504622   423749 
 4915000   0.96619854   -3.2140633   -1.7123708  0.062960122   -3.2140633    1.5016925   423741 
 4916000   0.96682101   -3.2149648   -1.7122764  0.062584987   -3.2149648    1.5026884   423733 
 4917000   0.96742245   -3.2157226   -1.7120711  0.067621657   -3.2157226    1.5036515   423725 
 4918000   0.96706925   -3.2151922   -1.7120613  0.066474852   -3.2151922    1.5031309   423717 
 4919000   0.96561227   -3.2135438   -1.7126491  0.065792793   -3.2135438    1.5008947   423709 
 4920000   0.96782554   -3.2181397   -1.7137764  0.061570471   -3.2181397    1.5043633   423701 
 4921000   0.96511664   -3.2148077   -1.7146268  0.064973787   -3.2148077    1.5001809   423693 
 4922000   0.96667714   -3.2172894   -1.7146544  0.060170003   -3.2172894     1.502635   423685 
 4923000   0.96476672     -3.21333   -1.7136364  0.063127332     -3.21333    1.4996937   423677 
 4924000   0.96637146   -3.2159362   -1.7137197  0.062048005   -3.2159362    1.5022165   423669 
 4925000   0.96697114   -3.2155563   -1.7123792  0.062049745   -3.2155563    1.5031771   423661 
 4926000   0.96530099   -3.2134211   -1.7128119   0.06797858   -3.2134211    1.5006092   423653 
 4927000   0.96507393    -3.212113   -1.7118285  0.064402399    -3.212113    1.5002845   423645 
 4928000   0.96576114   -3.2135966   -1.7122154  0.066979419   -3.2135966    1.5013812   423637 
 4929000   0.96644131   -3.2140395   -1.7115726  0.065423031   -3.2140395     1.502467   423629 
 4930000    0.9670127   -3.2156891   -1.7123054  0.062697121   -3.2156891    1.5033837   423621 
 4931000   0.96481962    -3.212223   -1.7122205  0.067053387    -3.212223    1.5000025   423613 
 4932000   0.96542961   -3.2125284   -1.7115493  0.066780283   -3.2125284    1.5009792   423605 
 4933000   0.96573373   -3.2138898   -1.7124095  0.064309397   -3.2138898    1.5014804   423597 
 4934000   0.96676455   -3.2146751   -1.7115636  0.067390893   -3.2146751    1.5031114   423589 
 4935000   0.96540125   -3.2136668   -1.7126466  0.063676972   -3.2136668    1.5010201   423581 
 4936000   0.96629208   -3.2151778   -1.7127442  0.068031171   -3.2151778    1.5024336   423573 
 4937000   0.96695845   -3.2160861   -1.7125881   0.06537842   -3.2160861    1.5034981   423565 
 4938000   0.96619979   -3.2150779    -1.712731  0.067100775   -3.2150779    1.5023468   423557 
 4939000   0.96468205   -3.2127775   -1.7127623  0.065384656   -3.2127775    1.5000152   423549 
 4940000   0.96437723   -3.2136064   -1.7140368  0.063565926   -3.2136064    1.4995696   423541 
 4941000   0.96403672   -3.2126441   -1.7135756  0.062133974   -3.2126441    1.4990684   423533 
 4942000    0.9663383   -3.2159898   -1.7133141  0.060757497   -3.2159898    1.5026757   423525 
 4943000   0.96715543   -3.2163134   -1.7123386  0.064927809   -3.2163134    1.5039748   423517 
 4944000   0.96642791   -3.2162393   -1.7133675   0.06313865   -3.2162393    1.5028719   423509 
 4945000   0.96623959   -3.2156431   -1.7130357  0.061526145   -3.2156431    1.5026074   423501 
 4946000   0.96610953   -3.2166935     -1.71426  0.060598124   -3.2166935    1.5024335   423493 
 4947000   0.96593687   -3.2158451   -1.7136517   0.06735553   -3.2158451    1.5021934   423485 
 4948000   0.96702504   -3.2165632   -1.7126491  0.065190417   -3.2165632    1.5039141   423477 
 4949000   0.96479181   -3.2136045   -1.7131352  0.065823204   -3.2136045    1.5004693   423469 
 4950000   0.96652477   -3.2157945   -1.7126016   0.06625759   -3.2157945    1.5031929   423461 
 4951000   0.96450217   -3.2142628   -1.7141873  0.061562854   -3.2142628    1.5000755   423453 
 4952000   0.96518135   -3.2153673   -1.7142071  0.063503202   -3.2153673    1.5011602   423445 
 4953000   0.96616623   -3.2160706   -1.7133502  0.068886724   -3.2160706    1.5027204   423437 
 4954000   0.96727678    -3.219099   -1.7146229  0.069875711    -3.219099    1.5044761   423429 
 4955000   0.96625895   -3.2184534    -1.715532  0.061951468   -3.2184534    1.5029214   423421 
 4956000   0.96754178    -3.218425   -1.7134798  0.069575305    -3.218425    1.5049452   423413 
 4957000   0.96658957   -3.2159958   -1.7125034  0.063153648   -3.2159958    1.5034925   423405 
 4958000   0.96730903   -3.2175343   -1.7128943  0.062488737   -3.2175343      1.50464   423397 
 4959000   0.96550041   -3.2164379   -1.7145828  0.069286384   -3.2164379    1.5018551   423389 
 4960000   0.96848507   -3.2221185   -1.7155923  0.061272617   -3.2221185    1.5065262   423381 
 4961000   0.96672646   -3.2178165   -1.7139974  0.064471578   -3.2178165     1.503819   423373 
 4962000   0.96675705   -3.2172675   -1.7133724  0.064230484   -3.2172675     1.503895   423365 
 4963000   0.96520995   -3.2166639   -1.7151471  0.068246542   -3.2166639    1.5015167   423357 
 4964000   0.96570982   -3.2162093   -1.7138866  0.061483994   -3.2162093    1.5023227   423349 
 4965000   0.96412432    -3.214814   -1.7149295  0.061948601    -3.214814    1.4998846   423341 
 4966000     0.963294   -3.2133285   -1.7147073  0.062424329   -3.2133285    1.4986212   423333 
 4967000   0.96387706   -3.2144848   -1.7149282  0.058641806   -3.2144848    1.4995566   423325 
 4968000   0.96332003    -3.213637   -1.7149187   0.06243763    -3.213637    1.4987183   423317 
 4969000   0.96366531   -3.2150528   -1.7157689  0.063498862   -3.2150528    1.4992838   423309 
 4970000    0.9627481   -3.2131694   -1.7152843  0.062804542   -3.2131694    1.4978851   423301 
 4971000    0.9644189    -3.215307    -1.714794  0.058992857    -3.215307     1.500513   423293 
 4972000   0.96433739   -3.2149362   -1.7145216  0.064641037   -3.2149362    1.5004145   423285 
 4973000   0.96460373    -3.215708   -1.7148507  0.061381253    -3.215708    1.5008573   423277 
 4974000   0.96335338   -3.2137652   -1.7148251   0.06542609   -3.2137652    1.4989402   423269 
 4975000   0.96483902   -3.2147758   -1.7134957   0.06580644   -3.2147758    1.5012801   423261 
 4976000   0.96519084   -3.2145074   -1.7126514  0.064239934   -3.2145074    1.5018559   423253 
 4977000   0.96565016   -3.2159526   -1.7133535  0.064653889   -3.2159526    1.5025991   423245 
 4978000   0.96507359   -3.2143022   -1.7125719  0.067059012   -3.2143022    1.5017303   423237 
 4979000   0.96647781    -3.217574   -1.7136302  0.069016292    -3.217574    1.5039438   423229 
 4980000   0.96627451   -3.2166912   -1.7130353  0.062897423   -3.2166912    1.5036558   423221 
 4981000   0.96502391   -3.2143946   -1.7126564  0.063236517   -3.2143946    1.5017381   423213 
 4982000   0.96520119   -3.2139298   -1.7118874   0.06203973   -3.2139298    1.5020424   423205 
 4983000   0.96605437   -3.2152275    -1.711829  0.063757831   -3.2152275    1.5033985   423197 
 4984000   0.96605545   -3.2167488   -1.7133201  0.064824675   -3.2167488    1.5034286   423189 
 4985000   0.96558298    -3.215404   -1.7126823  0.065966642    -3.215404    1.5027218   423181 
 4986000   0.96491343   -3.2152713   -1.7135631  0.069693861   -3.2152713    1.5017081   423173 
 4987000   0.96575739    -3.216012    -1.712962  0.068065664    -3.216012      1.50305   423165 
 4988000    0.9640865   -3.2150349    -1.714557  0.064270169   -3.2150349    1.5004779   423157 
 4989000   0.96422158   -3.2141312   -1.7134147  0.066426041   -3.2141312    1.5007165   423149 
 4990000   0.96604622   -3.2163952   -1.7128104  0.065405143   -3.2163952    1.5035848   423141 
 4991000   0.96631046   -3.2165279   -1.7125034  0.065291497   -3.2165279    1.5040245   423133 
 4992000   0.96596878   -3.2148191    -1.711298  0.064077417   -3.2148191    1.5035211   423125 
 4993000   0.96516061   -3.2121934   -1.7099018  0.071779846   -3.2121934    1.5022916   423117 
 4994000   0.96563516   -3.2136873   -1.7106286  0.066153241   -3.2136873    1.5030587   423109 
 4995000   0.96578754   -3.2144243      -1.7111  0.063129753   -3.2144243    1.5033243   423101 
 4996000   0.96440842   -3.2128014   -1.7115954  0.064225376   -3.2128014     1.501206   423093 
 4997000    0.9633345   -3.2125116   -1.7129489  0.067823988   -3.2125116    1.4995627   423085 
 4998000   0.96567804   -3.2163647   -1.7131256  0.061863493   -3.2163647    1.5032391   423077 
 4999000   0.96414536    -3.214298   -1.7134163  0.066396779    -3.214298    1.5008816   423069 
 5000000   0.96449534   -3.2152026   -1.7137478  0.065685688   -3.2152026    1.5014548   423061 
 5001000   0.96488332   -3.2153476   -1.7132604   0.06172413   -3.2153476    1.5020872   423053 
 5002000   0.96539255   -3.2167857   -1.7138773   0.06478095   -3.2167857    1.5029084   423045 
 5003000   0.96452137   -3.2152171   -1.7136365  0.068279169   -3.2152171    1.5015805   423037 
 5004000   0.96497484   -3.2150963   -1.7127813  0.068371106   -3.2150963    1.5023149   423029 
 5005000   0.96767294   -3.2192022   -1.7126583  0.057579832   -3.2192022    1.5065439   423021 
 5006000   0.96482382   -3.2141251   -1.7119885  0.068645522   -3.2141251    1.5021366   423013 
 5007000   0.96468941   -3.2155281   -1.7135723  0.063246145   -3.2155281    1.5019558   423005 
 5008000    0.9647876   -3.2161502   -1.7140131  0.063604871   -3.2161502    1.5021371   422997 
 5009000   0.96456173   -3.2159353   -1.7141215  0.064329998   -3.2159353    1.5018138   422989 
 5010000   0.96371525   -3.2149015   -1.7143773  0.066657913   -3.2149015    1.5005242   422981 
 5011000   0.96433668    -3.216953   -1.7154329  0.064211243    -3.216953    1.5015202   422973 
 5012000    0.9643782   -3.2174796   -1.7158663  0.066618789   -3.2174796    1.5016132   422965 
 5013000   0.96608376   -3.2180592   -1.7137618  0.059917196   -3.2180592    1.5042974   422957 
 5014000   0.96470773   -3.2167233   -1.7145402   0.06213472   -3.2167233    1.5021832   422949 
 5015000   0.96597088   -3.2191981   -1.7150196  0.066453697   -3.2191981    1.5041785   422941 
 5016000   0.96456808   -3.2182506   -1.7162281   0.06417459   -3.2182506    1.5020225   422933 
 5017000   0.96521737   -3.2185795   -1.7155174  0.067184163   -3.2185795     1.503062   422925 
 5018000   0.96493054   -3.2174655   -1.7148217  0.070433306   -3.2174655    1.5026438   422917 
 5019000   0.96551065   -3.2183775   -1.7148019  0.065469121   -3.2183775    1.5035756   422909 
 5020000   0.96500022   -3.2170478   -1.7142387  0.066818053   -3.2170478    1.5028092   422901 
 5021000    0.9659489   -3.2186406   -1.7143256  0.068351494   -3.2186406     1.504315   422893 
 5022000   0.96592784   -3.2190594   -1.7147487  0.060153015   -3.2190594    1.5043107   422885 
 5023000   0.96675262   -3.2197711   -1.7141475  0.063926491   -3.2197711    1.5056236   422877 
 5024000   0.96660503   -3.2193905   -1.7139683  0.065437878   -3.2193905    1.5054223   422869 
 5025000   0.96397085   -3.2160226   -1.7146745  0.071411043   -3.2160226    1.5013481   422861 
 5026000   0.96465016   -3.2174839   -1.7150494  0.061638907   -3.2174839    1.5024345   422853 
 5027000   0.96476565   -3.2180115   -1.7153687  0.062507934   -3.2180115    1.5026428   422845 
 5028000   0.96484499   -3.2175697   -1.7147749  0.065077472   -3.2175697    1.5027948   422837 
 5029000   0.96445735   -3.2185554   -1.7163359  0.059990124   -3.2185554    1.5022195   422829 
 5030000   0.96240324   -3.2157028   -1.7166544  0.067761771   -3.2157028    1.4990484   422821 
 5031000   0.96156305   -3.2155322   -1.7177641  0.065443633   -3.2155322    1.4977681   422813 
 5032000   0.96205726   -3.2150941   -1.7165279  0.063001185   -3.2150941    1.4985662   422805 
 5033000   0.96104841   -3.2130713   -1.7160482  0.066167509   -3.2130713    1.4970231   422797 
 5034000   0.96273857   -3.2144539   -1.7147697  0.062588012   -3.2144539    1.4996842   422789 
 5035000   0.96229845    -3.212839    -1.713812   0.06243415    -3.212839     1.499027   422781 
 5036000    0.9626422   -3.2137928   -1.7142019  0.055996851   -3.2137928    1.4995909   422773 
 5037000    0.9632734   -3.2152451   -1.7146425  0.060353419   -3.2152451    1.5006025   422765 
 5038000   0.96376742   -3.2141862   -1.7127857  0.063827896   -3.2141862    1.5014005   422757 
 5039000   0.96555072   -3.2166734   -1.7124663   0.06211985   -3.2166734    1.5042071   422749 
 5040000   0.96469212   -3.2149056   -1.7120076  0.066662346   -3.2149056    1.5028979   422741 
 5041000   0.96460798   -3.2148509   -1.7120556  0.063064346   -3.2148509    1.5027953   422733 
 5042000   0.96482792   -3.2145227   -1.7113563  0.059916666   -3.2145227    1.5031664   422725 
 5043000   0.96372233   -3.2132767   -1.7118043  0.065052079   -3.2132767    1.5014724   422717 
 5044000   0.96238301   -3.2118841     -1.71247  0.062539775   -3.2118841    1.4994141   422709 
 5045000   0.96284369   -3.2123096   -1.7121494  0.069164596   -3.2123096    1.5001602   422701 
 5046000   0.96350299   -3.2154381   -1.7142222  0.060423468   -3.2154381    1.5012159   422693 
 5047000   0.96408143   -3.2170673   -1.7149218  0.061549632   -3.2170673    1.5021456   422685 
 5048000   0.96392758   -3.2186472   -1.7167129   0.05801044   -3.2186472    1.5019343   422677 
 5049000   0.96227794   -3.2161861   -1.7167938   0.06526734   -3.2161861    1.4993923   422669 
 5050000   0.96272352   -3.2155335   -1.7154186  0.056333152   -3.2155335     1.500115   422661 
 5051000   0.96078564   -3.2129102   -1.7157865   0.06026553   -3.2129102    1.4971237   422653 
 5052000    0.9608441   -3.2118835   -1.7146404  0.066390334   -3.2118835    1.4972431   422645 
 5053000   0.96110553   -3.2140842   -1.7164054  0.057261508   -3.2140842    1.4976788   422637 
 5054000   0.96200006   -3.2156711   -1.7165699  0.057556582   -3.2156711    1.4991011   422629 
 5055000    0.9622297   -3.2152126   -1.7157252  0.063915809   -3.2152126    1.4994874   422621 
 5056000    0.9634802   -3.2174829   -1.7160184  0.067651634   -3.2174829    1.5014645   422613 
 5057000   0.96260042   -3.2164626   -1.7163407  0.063911988   -3.2164626    1.5001219   422605 
 5058000    0.9625173   -3.2163995   -1.7163787  0.063006684   -3.2163995    1.5000207   422597 
 5059000   0.96383125   -3.2188405   -1.7167436  0.062151329   -3.2188405    1.5020969   422589 
 5060000   0.96249599   -3.2163205   -1.7162761  0.066400538   -3.2163205    1.5000443   422581 
 5061000   0.96327607   -3.2179036   -1.7166151  0.065036806   -3.2179036    1.5012885   422573 
 5062000   0.96380023    -3.218072   -1.7159382  0.065540306    -3.218072    1.5021339   422565 
 5063000   0.96429824   -3.2193633   -1.7164248  0.063593347   -3.2193633    1.5029385   422557 
 5064000   0.96387819   -3.2186396   -1.7163274  0.069232065   -3.2186396    1.5023122   422549 
 5065000    0.9651777   -3.2207483   -1.7163822  0.067767388   -3.2207483    1.5043662   422541 
 5066000   0.96425561   -3.2205619   -1.7176045  0.068672551   -3.2205619    1.5029574   422533 
 5067000   0.96539821   -3.2216349    -1.716868  0.062756864   -3.2216349    1.5047668   422525 
 5068000   0.96439478     -3.21981   -1.7165787  0.064857944     -3.21981    1.5032312   422517 
 5069000   0.96423647   -3.2192919    -1.716279  0.070704868   -3.2192919     1.503013   422509 
 5070000    0.9648019   -3.2200203   -1.7160975  0.059570268   -3.2200203    1.5039228   422501 
 5071000   0.96520116   -3.2205112   -1.7159376  0.065273749   -3.2205112    1.5045736   422493 
 5072000   0.96406304   -3.2203317   -1.7175037  0.056478831   -3.2203317     1.502828   422485 
 5073000   0.96298574   -3.2192658   -1.7180888  0.057726074   -3.2192658     1.501177   422477 
 5074000    0.9635414   -3.2195181   -1.7174464  0.063984147   -3.2195181    1.5020717   422469 
 5075000   0.96247662   -3.2160235   -1.7155833  0.066082186   -3.2160235    1.5004402   422461 
 5076000   0.96267126   -3.2155185   -1.7147464  0.061327932   -3.2155185    1.5007721   422453 
 5077000   0.96244108   -3.2162767   -1.7158351  0.064411136   -3.2162767    1.5004416   422445 
 5078000    0.9623667   -3.2166335   -1.7162794  0.058794083   -3.2166335    1.5003541   422437 
 5079000    0.9628503   -3.2166187   -1.7154822  0.067642046   -3.2166187    1.5011365   422429 
 5080000   0.96247652     -3.21666   -1.7160778    0.0619587     -3.21666    1.5005822   422421 
 5081000   0.96233471   -3.2168259   -1.7164365  0.060161117   -3.2168259    1.5003895   422413 
 5082000   0.96200978   -3.2157112   -1.7157999   0.06514044   -3.2157112    1.4999113   422405 
 5083000    0.9616351   -3.2150257   -1.7156702  0.058693731   -3.2150257    1.4993555   422397 
 5084000   0.96168767   -3.2153063   -1.7158405  0.059663163   -3.2153063    1.4994659   422389 
 5085000   0.96200461   -3.2154996   -1.7155112   0.05559742   -3.2154996    1.4999884   422381 
 5086000   0.96119973   -3.2139003   -1.7151385  0.066429737   -3.2139003    1.4987618   422373 
 5087000   0.96197922    -3.215321   -1.7153153  0.061791526    -3.215321    1.5000057   422365 
 5088000   0.96131917   -3.2147472   -1.7157423  0.056638775   -3.2147472    1.4990049   422357 
 5089000   0.96183804   -3.2161228   -1.7162805  0.063475983   -3.2161228    1.4998423   422349 
 5090000   0.96202698   -3.2168787   -1.7167133  0.060279456   -3.2168787    1.5001654   422341 
 5091000   0.96145753   -3.2158214   -1.7165156  0.061269267   -3.2158214    1.4993058   422333 
 5092000   0.96161814   -3.2171086   -1.7175239  0.065629326   -3.2171086    1.4995847   422325 
 5093000   0.96130228   -3.2176752   -1.7185547  0.060831384   -3.2176752    1.4991205   422317 
 5094000   0.96132776   -3.2166947   -1.7175061  0.065810581   -3.2166947    1.4991886   422309 
 5095000   0.95986731   -3.2156755   -1.7187361  0.065954431   -3.2156755    1.4969394   422301 
 5096000   0.96150267   -3.2161994   -1.7166811  0.070104026   -3.2161994    1.4995182   422293 
 5097000   0.96082428    -3.216525   -1.7180363  0.066035503    -3.216525    1.4984886   422285 
 5098000   0.96243576   -3.2195332   -1.7185029  0.060087063   -3.2195332    1.5010303   422277 
 5099000   0.96265652   -3.2209038   -1.7195008  0.063052869   -3.2209038     1.501403   422269 
 5100000    0.9624829   -3.2197971   -1.7186364  0.065589083   -3.2197971    1.5011607   422261 
 5101000   0.96111094   -3.2184616   -1.7194123  0.068535787   -3.2184616    1.4990493   422253 
 5102000   0.96341605   -3.2210806   -1.7184076  0.060271661   -3.2210806     1.502673   422245 
 5103000   0.96216912   -3.2191612   -1.7184046  0.066927584   -3.2191612    1.5007566   422237 
 5104000   0.96280322   -3.2207502   -1.7189761  0.064673992   -3.2207502    1.5017741   422229 
 5105000   0.96259007    -3.219089   -1.7176189  0.060350271    -3.219089    1.5014701   422221 
 5106000   0.96382159   -3.2213069   -1.7178874  0.065010509   -3.2213069    1.5034195   422213 
 5107000    0.9634416   -3.2207902   -1.7179349  0.061583471   -3.2207902    1.5028553   422205 
 5108000   0.96240401   -3.2199904   -1.7187252  0.064125197   -3.2199904    1.5012652   422197 
 5109000   0.96257325   -3.2213608   -1.7198031  0.065997241   -3.2213608    1.5015576   422189 
 5110000   0.96201026    -3.219413   -1.7187051  0.064106788    -3.219413    1.5007078   422181 
 5111000   0.96138635   -3.2180936   -1.7183306  0.055485808   -3.2180936     1.499763   422173 
 5112000   0.95960893   -3.2143316    -1.717313  0.064412629   -3.2143316    1.4970186   422165 
 5113000   0.96250619   -3.2185124   -1.7169455  0.063444053   -3.2185124    1.5015668   422157 
 5114000   0.96019778   -3.2168438   -1.7188499  0.067177889   -3.2168438     1.497994   422149 
 5115000   0.96045666   -3.2175137   -1.7190874  0.065441943   -3.2175137    1.4984262   422141 
 5116000   0.96076225   -3.2173992   -1.7184678  0.059104923   -3.2173992    1.4989314   422133 
 5117000   0.96066693   -3.2171507   -1.7183396  0.063885751   -3.2171507    1.4988111   422125 
 5118000   0.96061787   -3.2164792   -1.7177162  0.064977473   -3.2164792     1.498763   422117 
 5119000   0.96200949   -3.2166841   -1.7157215  0.065800088   -3.2166841    1.5009626   422109 
 5120000   0.96199182   -3.2163553   -1.7153918  0.061964061   -3.2163553    1.5009635   422101 
 5121000   0.96103277     -3.21595   -1.7164545  0.062699752     -3.21595    1.4994955   422093 
 5122000   0.96272402   -3.2165838   -1.7144209  0.061322273   -3.2165838    1.5021629   422085 
 5123000    0.9617943   -3.2146483   -1.7139077  0.066897128   -3.2146483    1.5007406   422077 
 5124000   0.96124072    -3.214202   -1.7142967  0.065825439    -3.214202    1.4999053   422069 
 5125000   0.96217375   -3.2142712   -1.7128816  0.061168378   -3.2142712    1.5013896   422061 
 5126000   0.96183949   -3.2152518   -1.7143553  0.060382873   -3.2152518    1.5008965   422053 
 5127000     0.961282   -3.2145284   -1.7144734   0.06060439   -3.2145284     1.500055   422045 
 5128000   0.96083642   -3.2144073   -1.7150192  0.065264067   -3.2144073    1.4993881   422037 
 5129000   0.96255609   -3.2160615   -1.7139614  0.059414973   -3.2160615    1.5021001   422029 
 5130000   0.96205929   -3.2150151   -1.7136618  0.059915769   -3.2150151    1.5013533   422021 
 5131000   0.96186376   -3.2136967     -1.71262  0.065104198   -3.2136967    1.5010766   422013 
 5132000   0.96140401   -3.2129458   -1.7125582  0.062751494   -3.2129458    1.5003876   422005 
 5133000   0.95986303    -3.211722   -1.7137109  0.062211931    -3.211722    1.4980111   421997 
 5134000   0.96071583   -3.2128485    -1.713478   0.05960673   -3.2128485    1.4993704   421989 
 5135000    0.9600494   -3.2114979   -1.7131391  0.063149855   -3.2114979    1.4983588   421981 
 5136000   0.95913655   -3.2098147   -1.7128523  0.062106087   -3.2098147    1.4969625   421973 
 5137000   0.96180055   -3.2133847    -1.712236  0.065520851   -3.2133847    1.5011487   421965 
 5138000   0.96037467   -3.2121875   -1.7132358  0.060747473   -3.2121875    1.4989517   421957 
 5139000   0.96221449    -3.215716   -1.7138642  0.058934277    -3.215716    1.5018517   421949 
 5140000   0.96065562   -3.2133226   -1.7138755  0.064309905   -3.2133226     1.499447   421941 
 5141000   0.96182585   -3.2147461    -1.713444  0.065097942   -3.2147461    1.5013021   421933 
 5142000   0.96023503   -3.2128771   -1.7140297  0.069999819   -3.2128771    1.4988474   421925 
 5143000   0.96137529   -3.2147653   -1.7141096   0.06365424   -3.2147653    1.5006557   421917 
 5144000   0.96304074   -3.2159678   -1.7126839  0.066495664   -3.2159678    1.5032839   421909 
 5145000   0.96335769   -3.2171306   -1.7133234  0.061395307   -3.2171306    1.5038071   421901 
 5146000   0.96136539   -3.2165752   -1.7158496  0.063018261   -3.2165752    1.5007256   421893 
 5147000   0.96126575   -3.2164689   -1.7158703  0.064619841   -3.2164689    1.5005985   421885 
 5148000   0.96221087     -3.21702   -1.7149176  0.062469716     -3.21702    1.5021024   421877 
 5149000   0.96185732   -3.2161267   -1.7145478  0.064647062   -3.2161267    1.5015789   421869 
 5150000   0.96163072   -3.2162858   -1.7150322  0.062488594   -3.2162858    1.5012537   421861 
 5151000   0.96298792   -3.2185541   -1.7151531  0.064219998   -3.2185541     1.503401   421853 
 5152000   0.96142647   -3.2180451   -1.7170534  0.065057953   -3.2180451    1.5009917   421845 
 5153000   0.96307563   -3.2206684   -1.7170734  0.064756716   -3.2206684    1.5035949   421837 
 5154000   0.96334058   -3.2206587   -1.7166216   0.06876681   -3.2206587    1.5040371   421829 
 5155000   0.96222617   -3.2188987    -1.716573  0.069738216   -3.2188987    1.5023257   421821 
 5156000   0.96412443   -3.2212496   -1.7159315  0.064575636   -3.2212496     1.505318   421813 
 5157000   0.96265587   -3.2189241   -1.7158705  0.066920879   -3.2189241    1.5030536   421805 
 5158000   0.96190432   -3.2178533   -1.7159447  0.068203191   -3.2178533    1.5019087   421797 
 5159000   0.96174516   -3.2176969   -1.7160082  0.065387581   -3.2176969    1.5016886   421789 
 5160000    0.9630253   -3.2208819   -1.7171659  0.062709506   -3.2208819     1.503716   421781 
 5161000   0.96239091   -3.2193476   -1.7165937  0.066452665   -3.2193476    1.5027539   421773 
 5162000    0.9617603   -3.2190089   -1.7172111  0.060795889   -3.2190089    1.5017977   421765 
 5163000   0.96167846   -3.2205993   -1.7189008  0.067032502   -3.2205993    1.5016984   421757 
 5164000   0.96047431   -3.2190274   -1.7191809  0.065074042   -3.2190274    1.4998465   421749 
 5165000   0.96161024   -3.2217601   -1.7201112  0.063508384   -3.2217601    1.5016489   421741 
 5166000   0.96045793   -3.2200829    -1.720205  0.061108555   -3.2200829    1.4998779   421733 
 5167000   0.95974254   -3.2198494   -1.7210603   0.05597115   -3.2198494    1.4987891   421725 
 5168000   0.95868624   -3.2169832   -1.7198153  0.062466262   -3.2169832    1.4971679   421717 
 5169000   0.96031301   -3.2189431   -1.7192062  0.059387992   -3.2189431    1.4997369   421709 
 5170000   0.96078688   -3.2190123   -1.7185069  0.063945326   -3.2190123    1.5005054   421701 
 5171000   0.95962902    -3.216971   -1.7182455  0.062261693    -3.216971    1.4987256   421693 
 5172000   0.96054824   -3.2197167   -1.7195271  0.059831288   -3.2197167    1.5001896   421685 
 5173000   0.96141154   -3.2207947   -1.7192283  0.061960493   -3.2207947    1.5015664   421677 
 5174000   0.96040609   -3.2188487   -1.7188242  0.060829643   -3.2188487    1.5000245   421669 
 5175000   0.96006865   -3.2184409   -1.7189149  0.063265473   -3.2184409     1.499526   421661 
 5176000   0.96057821   -3.2188125   -1.7184622   0.05994596   -3.2188125    1.5003503   421653 
 5177000   0.95764628   -3.2162045   -1.7204053  0.061710396   -3.2162045    1.4957992   421645 
 5178000   0.95808147   -3.2163397   -1.7198324  0.062599494   -3.2163397    1.4965074   421637 
 5179000   0.95997999   -3.2193702   -1.7198689  0.060692603   -3.2193702    1.4995013   421629 
 5180000    0.9595674   -3.2167768   -1.7178915  0.062279456   -3.2167768    1.4988852   421621 
 5181000   0.95919876   -3.2164021   -1.7180642  0.064952918   -3.2164021    1.4983378   421613 
 5182000   0.96000097   -3.2164659   -1.7168465  0.062078335   -3.2164659    1.4996194   421605 
 5183000    0.9593463   -3.2176344   -1.7190092  0.063242474   -3.2176344    1.4986252   421597 
 5184000   0.95904484   -3.2174361   -1.7192534  0.058931368   -3.2174361    1.4981827   421589 
 5185000   0.96045087   -3.2188982   -1.7184906  0.059126528   -3.2188982    1.5004076   421581 
 5186000   0.96090572    -3.218277   -1.7171304   0.06167005    -3.218277    1.5011466   421573 
 5187000   0.96083953    -3.217132   -1.7160603  0.064043973    -3.217132    1.5010717   421565 
 5188000   0.96099677   -3.2179092   -1.7165633  0.066177398   -3.2179092    1.5013459   421557 
 5189000   0.96226105   -3.2183198   -1.7149702  0.064402021   -3.2183198    1.5033496   421549 
 5190000   0.96266122   -3.2192559   -1.7152526  0.065436157   -3.2192559    1.5040033   421541 
 5191000   0.96156784   -3.2189737   -1.7166501  0.068687925   -3.2189737    1.5023236   421533 
 5192000   0.96135369   -3.2182603   -1.7162428  0.062489897   -3.2182603    1.5020175   421525 
 5193000   0.95969225   -3.2175991    -1.718149  0.065513052   -3.2175991    1.4994501   421517 
 5194000   0.95893022   -3.2169431   -1.7186551  0.059777607   -3.2169431    1.4982879   421509 
 5195000   0.95977323    -3.217188   -1.7175544   0.06342213    -3.217188    1.4996336   421501 
 5196000   0.95835344   -3.2160745   -1.7186309  0.060109031   -3.2160745    1.4974436   421493 
 5197000   0.95757009   -3.2159232   -1.7196752  0.056926417   -3.2159232     1.496248   421485 
 5198000   0.95783183   -3.2154921   -1.7188067  0.059678898   -3.2154921    1.4966854   421477 
 5199000   0.95895677   -3.2170559   -1.7185843   0.06149554   -3.2170559    1.4984716   421469 
 5200000   0.95834591   -3.2168874   -1.7193419  0.058402007   -3.2168874    1.4975455   421461 
 5201000   0.95908695   -3.2188056   -1.7200736   0.06519395   -3.2188056    1.4987319   421453 
 5202000   0.95921172   -3.2183886   -1.7194332  0.060849087   -3.2183886    1.4989554   421445 
 5203000   0.95954511   -3.2183089    -1.718804  0.058892565   -3.2183089    1.4995048   421437 
 5204000   0.96050642   -3.2182911   -1.7172555  0.060646555   -3.2182911    1.5010356   421429 
 5205000   0.95968042   -3.2175638   -1.7177906  0.060193081   -3.2175638    1.4997732   421421 
 5206000   0.95933293   -3.2178894   -1.7186308  0.059143663   -3.2178894    1.4992586   421413 
 5207000   0.95937224   -3.2184566   -1.7191081    0.0631096   -3.2184566    1.4993485   421405 
 5208000   0.96008772   -3.2195287   -1.7190336  0.061895367   -3.2195287    1.5004952   421397 
 5209000   0.95962426    -3.219246   -1.7194467   0.06234742    -3.219246    1.4997993   421389 
 5210000    0.9616097   -3.2197855   -1.7168546  0.065995574   -3.2197855    1.5029309   421381 
 5211000   0.96003751   -3.2183666   -1.7178644  0.064821028   -3.2183666    1.5005022   421373 
 5212000   0.96052788   -3.2182464   -1.7169493  0.070133344   -3.2182464    1.5012971   421365 
 5213000   0.96105768   -3.2197927    -1.717639  0.062740776   -3.2197927    1.5021537   421357 
 5214000   0.96007233   -3.2185112   -1.7178692  0.065405601   -3.2185112    1.5006421   421349 
 5215000    0.9604239   -3.2191406   -1.7179205  0.065236703   -3.2191406    1.5012201   421341 
 5216000   0.96040969   -3.2197952   -1.7185688  0.062757006   -3.2197952    1.5012264   421333 
 5217000   0.95958485   -3.2181353   -1.7181697  0.061297726   -3.2181353    1.4999655   421325 
 5218000   0.96051952   -3.2210245   -1.7195694  0.066266061   -3.2210245    1.5014551   421317 
 5219000   0.95977989   -3.2187651   -1.7184377  0.062379512   -3.2187651    1.5003274   421309 
 5220000   0.95894588   -3.2184105   -1.7193583  0.065788255   -3.2184105    1.4990521   421301 
 5221000   0.95910178   -3.2184827   -1.7191584  0.067171921   -3.2184827    1.4993243   421293 
 5222000   0.95994839   -3.2188028   -1.7181265  0.063696031   -3.2188028    1.5006763   421285 
 5223000   0.96028464   -3.2199121   -1.7186816  0.062182669   -3.2199121    1.5012305   421277 
 5224000   0.95977062   -3.2195081   -1.7190527  0.058703342   -3.2195081    1.5004554   421269 
 5225000   0.95989488   -3.2186866   -1.7180084  0.062462333   -3.2186866    1.5006781   421261 
 5226000   0.95728826   -3.2147281   -1.7180966  0.059022903   -3.2147281    1.4966314   421253 
 5227000   0.95896154   -3.2171658   -1.7178899  0.061257078   -3.2171658    1.4992759   421245 
 5228000   0.95878069   -3.2169753   -1.7179537   0.06516665   -3.2169753    1.4990216   421237 
 5229000   0.95976827   -3.2188134   -1.7182192  0.058263381   -3.2188134    1.5005942   421229 
 5230000   0.95899818   -3.2178116   -1.7183929  0.063509887   -3.2178116    1.4994186   421221 
 5231000   0.95995252   -3.2187517   -1.7178125  0.062240339   -3.2187517    1.5009393   421213 
 5232000   0.95922517   -3.2177618   -1.7179313  0.055213532   -3.2177618    1.4998305   421205 
 5233000   0.95789049   -3.2160831    -1.718311  0.061498311   -3.2160831    1.4977721   421197 
 5234000    0.9581972   -3.2166459   -1.7183658  0.060789573   -3.2166459    1.4982801   421189 
 5235000   0.95728039   -3.2153671   -1.7184922  0.058326565   -3.2153671     1.496875   421181 
 5236000   0.95635378   -3.2150101   -1.7195557  0.064301131   -3.2150101    1.4954544   421173 
 5237000   0.95652976   -3.2151353   -1.7193773  0.066836009   -3.2151353     1.495758   421165 
 5238000    0.9591966   -3.2184269   -1.7184702  0.057935599   -3.2184269    1.4999568   421157 
 5239000   0.95914289   -3.2179207   -1.7180195  0.064527158   -3.2179207    1.4999013   421149 
 5240000   0.95796227   -3.2166321   -1.7185487  0.062120401   -3.2166321    1.4980835   421141 
 5241000   0.95723566   -3.2171243   -1.7201487  0.062720598   -3.2171243    1.4969756   421133 
 5242000   0.95783207   -3.2179573   -1.7200206  0.064343203   -3.2179573    1.4979368   421125 
 5243000   0.95861218   -3.2188258   -1.7196405   0.06548647   -3.2188258    1.4991853   421117 
 5244000   0.95979418   -3.2208013    -1.719739  0.065346202   -3.2208013    1.5010623   421109 
 5245000   0.95894976   -3.2180018   -1.7182317  0.061494536   -3.2180018    1.4997702   421101 
 5246000   0.95901871   -3.2198658   -1.7199593  0.063056524   -3.2198658    1.4999065   421093 
 5247000   0.95856875   -3.2196366   -1.7204053  0.061036762   -3.2196366    1.4992313   421085 
 5248000    0.9588269   -3.2200279   -1.7203644  0.062885593   -3.2200279    1.4996635   421077 
 5249000   0.95950765   -3.2222107    -1.721454  0.058799877   -3.2222107    1.5007568   421069 
 5250000   0.95673421   -3.2180078   -1.7215605  0.066250782   -3.2180078    1.4964473   421061 
 5251000    0.9574286   -3.2202407   -1.7226789  0.066835702   -3.2202407    1.4975618   421053 
 5252000   0.95875647   -3.2212549   -1.7215876   0.05861739   -3.2212549    1.4996673   421045 
 5253000   0.95834507   -3.2215372    -1.722485  0.061082097   -3.2215372    1.4990523   421037 
 5254000   0.95735903   -3.2209169   -1.7233785  0.064579424   -3.2209169    1.4975384   421029 
 5255000   0.95743529   -3.2211547   -1.7234686  0.063980689   -3.2211547    1.4976861   421021 
 5256000    0.9586143   -3.2207332   -1.7211743  0.060509713   -3.2207332    1.4995589   421013 
 5257000   0.95914454   -3.2211653   -1.7207485  0.067473649   -3.2211653    1.5004169   421005 
 5258000   0.95837025   -3.2199614   -1.7207273  0.058171421   -3.2199614    1.4992341   420997 
 5259000   0.95902016   -3.2218499   -1.7215706  0.062740608   -3.2218499    1.5002793   420989 
 5260000   0.95915959   -3.2211243   -1.7205983  0.060856722   -3.2211243     1.500526   420981 
 5261000   0.95881941   -3.2206781   -1.7206558   0.06627094   -3.2206781    1.5000223   420973 
 5262000    0.9582596   -3.2191625   -1.7199875  0.059770843   -3.2191625     1.499175   420965 
 5263000   0.95761806   -3.2179496   -1.7197498  0.066921779   -3.2179496    1.4981998   420957 
 5264000   0.96012775   -3.2202775   -1.7181228   0.06445007   -3.2202775    1.5021547   420949 
 5265000   0.95907476   -3.2180924   -1.7175566  0.062814916   -3.2180924    1.5005358   420941 
 5266000    0.9603541   -3.2213532   -1.7187872  0.060129148   -3.2213532     1.502566   420933 
 5267000   0.95778531   -3.2162747   -1.7176993  0.063103508   -3.2162747    1.4985753   420925 
 5268000   0.95784453   -3.2163312   -1.7176347  0.062649627   -3.2163312    1.4986965   420917 
 5269000   0.95908758   -3.2170131   -1.7163431  0.062018531   -3.2170131    1.5006699   420909 
 5270000   0.95867991   -3.2176987   -1.7176381   0.05779094   -3.2176987    1.5000606   420901 
 5271000   0.95856763   -3.2173348   -1.7174213  0.064379846   -3.2173348    1.4999134   420893 
 5272000   0.95873598   -3.2180672   -1.7178618  0.059793907   -3.2180672    1.5002054   420885 
 5273000   0.95822835   -3.2160232   -1.7165837  0.064670174   -3.2160232    1.4994395   420877 
 5274000   0.95826007   -3.2181627   -1.7186451  0.058534579   -3.2181627    1.4995177   420869 
 5275000   0.95806313   -3.2158992   -1.7166612  0.059979057   -3.2158992     1.499238   420861 
 5276000   0.95673573    -3.215035   -1.7178457  0.062273998    -3.215035    1.4971892   420853 
 5277000    0.9580758   -3.2163676   -1.7170528  0.055287984   -3.2163676    1.4993148   420845 
 5278000   0.95589075   -3.2129803   -1.7170565  0.059364091   -3.2129803    1.4959238   420837 
 5279000   0.95966454   -3.2178586   -1.7160004  0.057238177   -3.2178586    1.5018582   420829 
 5280000   0.95723577   -3.2155232   -1.7174376  0.071257252   -3.2155232    1.4980857   420821 
 5281000   0.95784399   -3.2159931   -1.7169271  0.058200804   -3.2159931     1.499066   420813 
 5282000   0.95786034   -3.2153157   -1.7161955  0.060882058   -3.2153157    1.4991201   420805 
 5283000    0.9574699   -3.2149983   -1.7164608  0.062343759   -3.2149983    1.4985375   420797 
 5284000   0.95794739   -3.2167573   -1.7174439  0.067963506   -3.2167573    1.4993134   420789 
 5285000   0.95856858   -3.2169363   -1.7166222  0.065595853   -3.2169363    1.5003141   420781 
 5286000   0.95828017   -3.2161691   -1.7162779  0.060935526   -3.2161691    1.4998912   420773 
 5287000   0.95861626   -3.2165415   -1.7160957  0.065290904   -3.2165415    1.5004458   420765 
 5288000   0.95962007   -3.2191728   -1.7171272  0.063177642   -3.2191728    1.5020456   420757 
 5289000   0.95797923   -3.2179376   -1.7184319  0.068988271   -3.2179376    1.4995057   420749 
 5290000   0.95817372    -3.219049   -1.7192103  0.059413924    -3.219049    1.4998387   420741 
 5291000   0.95833811   -3.2194088   -1.7192842  0.065743462   -3.2194088    1.5001245   420733 
 5292000   0.95788837   -3.2170636   -1.7176146  0.067782239   -3.2170636     1.499449   420725 
 5293000   0.95906476   -3.2195985   -1.7182794  0.060841954   -3.2195985    1.5013191   420717 
 5294000   0.96063563   -3.2222417    -1.718435  0.065105755   -3.2222417    1.5038067   420709 
 5295000   0.95784335   -3.2168314   -1.7173673  0.064118222   -3.2168314    1.4994641   420701 
 5296000   0.95909091   -3.2194401   -1.7179945  0.067167461   -3.2194401    1.5014457   420693 
 5297000    0.9582694   -3.2193156   -1.7191275  0.066633083   -3.2193156    1.5001881   420685 
 5298000    0.9588462   -3.2211857    -1.720066  0.063967379   -3.2211857    1.5011197   420677 
 5299000   0.95772468    -3.220502   -1.7211096  0.060667283    -3.220502    1.4993924   420669 
 5300000   0.95622411    -3.219201   -1.7221294  0.064766242    -3.219201    1.4970716   420661 
 5301000   0.95683244   -3.2196259   -1.7215734  0.064515919   -3.2196259    1.4980525   420653 
 5302000   0.95753368   -3.2211269    -1.721948  0.057964129   -3.2211269    1.4991789   420645 
 5303000   0.95721169   -3.2204767   -1.7217734   0.06444032   -3.2204767    1.4987033   420637 
 5304000    0.9561203   -3.2187427   -1.7217197  0.061159858   -3.2187427     1.497023   420629 
 5305000   0.95616994   -3.2188382    -1.721709  0.058385355   -3.2188382    1.4971292   420621 
 5306000   0.95573032   -3.2183853    -1.721916  0.056355238   -3.2183853    1.4964693   420613 
 5307000   0.95657248   -3.2202265   -1.7224101  0.055124505   -3.2202265    1.4978164   420605 
 5308000   0.95605771   -3.2194351   -1.7223963  0.065293054   -3.2194351    1.4970388   420597 
 5309000   0.95724789   -3.2202669   -1.7213359  0.060743363   -3.2202669     1.498931   420589 
 5310000   0.95687592   -3.2196199   -1.7212428    0.0620722   -3.2196199     1.498377   420581 
 5311000   0.95748371   -3.2200401   -1.7206828  0.064202051   -3.2200401    1.4993573   420573 
 5312000   0.95728608   -3.2203502   -1.7212739  0.064601691   -3.2203502    1.4990763   420565 
 5313000   0.95833721   -3.2219603   -1.7212094  0.061749141   -3.2219603    1.5007509   420557 
 5314000   0.95714034    -3.220158   -1.7212528  0.063446462    -3.220158    1.4989051   420549 
 5315000   0.95830692   -3.2221624   -1.7214018  0.063487408   -3.2221624    1.5007606   420541 
 5316000   0.95768984   -3.2201711   -1.7203484  0.062221082   -3.2201711    1.4998227   420533 
 5317000   0.95607377   -3.2188997   -1.7215794    0.0614084   -3.2188997    1.4973203   420525 
 5318000   0.95651082   -3.2192906   -1.7212573  0.057829934   -3.2192906    1.4980333   420517 
 5319000   0.95800001   -3.2223644   -1.7219703  0.064988632   -3.2223644    1.5003941   420509 
 5320000   0.95766206   -3.2191499   -1.7192565  0.065015335   -3.2191499    1.4998934   420501 
 5321000   0.95627419   -3.2192809   -1.7215327  0.064320337   -3.2192809    1.4977482   420493 
 5322000   0.95709477   -3.2210035   -1.7219416  0.062113558   -3.2210035    1.4990619   420485 
 5323000   0.95710461   -3.2207484   -1.7216425    0.0635217   -3.2207484    1.4991058   420477 
 5324000   0.95827754   -3.2227506   -1.7217791  0.065621456   -3.2227506    1.5009716   420469 
 5325000   0.95732306   -3.2218951   -1.7223901   0.06350936   -3.2218951    1.4995051   420461 
 5326000   0.95536809     -3.21995   -1.7234787  0.061799698     -3.21995    1.4964713   420453 
 5327000   0.95527035   -3.2194914   -1.7231447   0.06175406   -3.2194914    1.4963467   420445 
 5328000   0.95515324   -3.2189059   -1.7227141  0.063698586   -3.2189059    1.4961917   420437 
 5329000   0.95603389   -3.2193821   -1.7217823  0.065767191   -3.2193821    1.4975997   420429 
 5330000   0.95635227    -3.220503    -1.722376  0.064039856    -3.220503     1.498127   420421 
 5331000   0.95703935   -3.2204397   -1.7212079  0.063566531   -3.2204397    1.4992318   420413 
 5332000   0.95699861   -3.2215415    -1.722345  0.061230899   -3.2215415    1.4991965   420405 
 5333000   0.95600934   -3.2213389   -1.7236636  0.058701693   -3.2213389    1.4976753   420397 
 5334000   0.95550743   -3.2203698   -1.7234523  0.058679683   -3.2203698    1.4969175   420389 
 5335000   0.95556032   -3.2207318    -1.723703  0.063281195   -3.2207318    1.4970288   420381 
 5336000   0.95604346      -3.2207   -1.7228857  0.059078622      -3.2207    1.4978142   420373 
 5337000   0.95630989   -3.2212332   -1.7229731    0.0614294   -3.2212332    1.4982602   420365 
 5338000   0.95519296   -3.2188582   -1.7223195  0.061225297   -3.2188582    1.4965387   420357 
 5339000   0.95539796   -3.2189578   -1.7220694  0.062730957   -3.2189578    1.4968884   420349 
 5340000   0.95672863    -3.220788   -1.7217862  0.063630069    -3.220788    1.4990018   420341 
 5341000   0.95710755   -3.2202726   -1.7206486  0.064208069   -3.2202726     1.499624   420333 
 5342000   0.95727791   -3.2216269   -1.7217074  0.063251113   -3.2216269    1.4999195   420325 
 5343000   0.95639542   -3.2196743    -1.721109  0.064746279   -3.2196743    1.4985653   420317 
 5344000   0.95690583   -3.2203206   -1.7209271  0.060098218   -3.2203206    1.4993936   420309 
 5345000   0.95566472   -3.2189696   -1.7214923   0.05913854   -3.2189696    1.4974773   420301 
 5346000   0.95664667   -3.2196626    -1.720618  0.061189012   -3.2196626    1.4990445   420293 
 5347000   0.95680008   -3.2216483   -1.7223349  0.065861462   -3.2216483    1.4993135   420285 
 5348000   0.95540458   -3.2178082    -1.720653  0.067938522   -3.2178082    1.4971552   420277 
 5349000   0.95661754   -3.2199092   -1.7208247  0.061889535   -3.2199092    1.4990845   420269 
 5350000   0.95583972   -3.2190664   -1.7211722  0.059992612   -3.2190664    1.4978941   420261 
 5351000    0.9561118    -3.218581    -1.720232  0.057002325    -3.218581     1.498349   420253 
 5352000   0.95642777   -3.2190721   -1.7201994  0.059346386   -3.2190721    1.4988727   420245 
 5353000   0.95621865   -3.2200098   -1.7214363  0.058222551   -3.2200098    1.4985735   420237 
 5354000   0.95626407   -3.2185552   -1.7198819  0.065232402   -3.2185552    1.4986732   420229 
 5355000   0.95629867   -3.2182225   -1.7194665  0.064639394   -3.2182225     1.498756   420221 
 5356000   0.95718433   -3.2199888   -1.7198162  0.060480841   -3.2199888    1.5001726   420213 
 5357000   0.95801706   -3.2201271   -1.7186208  0.066611628   -3.2201271    1.5015063   420205 
 5358000   0.95582467   -3.2178049   -1.7197062  0.056551501   -3.2178049    1.4980987   420197 
 5359000   0.95559214   -3.2174682   -1.7197055  0.057560776   -3.2174682    1.4977627   420189 
 5360000   0.95723882    -3.219017   -1.7186447  0.057595329    -3.219017    1.5003723   420181 
 5361000   0.95706312   -3.2182988   -1.7181734  0.063382276   -3.2182988    1.5001254   420173 
 5362000   0.95684367   -3.2167679   -1.7169579  0.067054143   -3.2167679      1.49981   420165 
 5363000   0.95720666   -3.2179275   -1.7175199  0.060949695   -3.2179275    1.5004075   420157 
 5364000    0.9562301   -3.2158093    -1.716904  0.064299976   -3.2158093    1.4989053   420149 
 5365000   0.95689387   -3.2171201   -1.7171457  0.060306559   -3.2171201    1.4999744   420141 
 5366000   0.95693356   -3.2164711   -1.7164059  0.064536231   -3.2164711    1.5000652   420133 
 5367000   0.95721846   -3.2154289   -1.7148885   0.06618439   -3.2154289    1.5005403   420125 
 5368000   0.95586958   -3.2139807   -1.7155263  0.063646208   -3.2139807    1.4984544   420117 
 5369000   0.95719274   -3.2157641   -1.7152069   0.06204553   -3.2157641    1.5005572   420109 
 5370000   0.95636004    -3.215402   -1.7161217    0.0548308    -3.215402    1.4992803   420101 
 5371000   0.95712498   -3.2144136   -1.7139056  0.060569981   -3.2144136    1.5005081   420093 
 5372000   0.95685298   -3.2133866   -1.7132764  0.062497561   -3.2133866    1.5001102   420085 
 5373000   0.95633514   -3.2128145   -1.7134875  0.061839972   -3.2128145    1.4993269   420077 
 5374000   0.95542535   -3.2123104   -1.7143813  0.061244622   -3.2123104    1.4979291   420069 
 5375000    0.9546988   -3.2120012   -1.7151827  0.058918224   -3.2120012    1.4968185   420061 
 5376000   0.95383231   -3.2105656   -1.7150771  0.063446585   -3.2105656    1.4954885   420053 
 5377000   0.95510122   -3.2117129   -1.7142064  0.060751032   -3.2117129    1.4975065   420045 
 5378000   0.95530643   -3.2138168   -1.7159601  0.058424056   -3.2138168    1.4978568   420037 
 5379000   0.95492229   -3.2133439   -1.7160609  0.062154442   -3.2133439     1.497283   420029 
 5380000    0.9552485   -3.2132412   -1.7154182  0.058639713   -3.2132412     1.497823   420021 
 5381000   0.95425855   -3.2124623   -1.7161631  0.055806554   -3.2124623    1.4962993   420013 
 5382000   0.95459219   -3.2126445   -1.7157936  0.058217225   -3.2126445    1.4968509   420005 
 5383000   0.95482222   -3.2149574   -1.7177172  0.058742798   -3.2149574    1.4972401   419997 
 5384000   0.95297224   -3.2130314   -1.7186637  0.057799597   -3.2130314    1.4943677   419989 
 5385000   0.95352968   -3.2138213    -1.718551  0.056787806   -3.2138213    1.4952703   419981 
 5386000   0.95364967   -3.2133563   -1.7178694  0.057456714   -3.2133563    1.4954869   419973 
 5387000   0.95544712   -3.2151136   -1.7167794  0.061711897   -3.2151136    1.4983342   419965 
 5388000   0.95537764   -3.2149915   -1.7167377  0.060776675   -3.2149915    1.4982538   419957 
 5389000   0.95684829   -3.2164105   -1.7158218  0.065671163   -3.2164105    1.5005887   419949 
 5390000   0.95779853    -3.218909   -1.7168015  0.062559342    -3.218909    1.5021075   419941 
 5391000   0.95685932    -3.217927   -1.7172638  0.065875643    -3.217927    1.5006632   419933 
 5392000   0.95728556   -3.2186175   -1.7172573  0.060506236   -3.2186175    1.5013602   419925 
 5393000   0.95691958   -3.2175534   -1.7167386  0.067900991   -3.2175534    1.5008148   419917 
 5394000   0.95832735   -3.2201296   -1.7170782  0.068968014   -3.2201296    1.5030514   419909 
 5395000   0.95766019   -3.2197741   -1.7177404  0.057764042   -3.2197741    1.5020336   419901 
 5396000   0.95449864   -3.2163787   -1.7192753  0.063442984   -3.2163787    1.4971035   419893 
 5397000   0.95593186   -3.2181854   -1.7188054  0.060397406   -3.2181854      1.49938   419885 
 5398000   0.95534437   -3.2181959   -1.7197089  0.065517744   -3.2181959    1.4984871   419877 
 5399000   0.95738352   -3.2200177   -1.7183036  0.065281411   -3.2200177    1.5017141   419869 
 5400000   0.95740372    -3.220201   -1.7184265  0.066652101    -3.220201    1.5017744   419861 
 5401000   0.95840053   -3.2209945   -1.7176278  0.064515559   -3.2209945    1.5033667   419853 
 5402000   0.95598542   -3.2188092   -1.7192023  0.064550886   -3.2188092    1.4996068   419845 
 5403000   0.95612146   -3.2209158    -1.721067  0.067714278   -3.2209158    1.4998488   419837 
 5404000   0.95543898   -3.2183101   -1.7195033  0.062960893   -3.2183101    1.4988068   419829 
 5405000   0.95383377   -3.2193137   -1.7229965  0.060223392   -3.2193137    1.4963172   419821 
 5406000   0.95332333   -3.2170615   -1.7215166  0.066530186   -3.2170615    1.4955449   419813 
 5407000   0.95513934   -3.2183854    -1.719963  0.061500066   -3.2183854    1.4984224   419805 
 5408000   0.95464709   -3.2178337    -1.720155  0.061838004   -3.2178337    1.4976787   419797 
 5409000   0.95410787   -3.2175485   -1.7206872  0.064813327   -3.2175485    1.4968613   419789 
 5410000   0.95401796   -3.2173739   -1.7206252  0.059279246   -3.2173739    1.4967488   419781 
 5411000   0.95563856   -3.2190171   -1.7196972   0.06212182   -3.2190171    1.4993199   419773 
 5412000   0.95432854   -3.2170924   -1.7197994  0.067181582   -3.2170924    1.4972931   419765 
 5413000   0.95572022   -3.2192254   -1.7197203  0.060224276   -3.2192254    1.4995051   419757 
 5414000   0.95496702   -3.2180674   -1.7197155  0.064835395   -3.2180674    1.4983519   419749 
 5415000   0.95440345   -3.2164709   -1.7189746  0.062372241   -3.2164709    1.4974962   419741 
 5416000   0.95513625   -3.2185148   -1.7198402   0.05988418   -3.2185148    1.4986746   419733 
 5417000   0.95581846   -3.2186938   -1.7189202  0.057871576   -3.2186938    1.4997736   419725 
 5418000    0.9546349    -3.216041    -1.718096  0.063673489    -3.216041     1.497945   419717 
 5419000   0.95606152   -3.2185216   -1.7183094  0.062519676   -3.2185216    1.5002122   419709 
 5420000   0.95558574   -3.2164866   -1.7169924  0.061537218   -3.2164866    1.4994942   419701 
 5421000   0.95425086   -3.2157946   -1.7183665  0.065011092   -3.2157946    1.4974281   419693 
 5422000    0.9544286   -3.2167659   -1.7190304  0.063686057   -3.2167659    1.4977355   419685 
 5423000   0.95461373   -3.2170842   -1.7190297  0.059547751   -3.2170842    1.4980546   419677 
 5424000   0.95445222    -3.218036   -1.7202064   0.05957402    -3.218036    1.4978297   419669 
 5425000   0.95569566   -3.2190645   -1.7192549  0.063076759   -3.2190645    1.4998096   419661 
 5426000   0.95460396   -3.2169659   -1.7188409   0.05744118   -3.2169659    1.4981249   419653 
 5427000   0.95479725   -3.2170851   -1.7186283  0.056375418   -3.2170851    1.4984568   419645 
 5428000   0.95414449   -3.2177674   -1.7203064  0.059030259   -3.2177674    1.4974609   419637 
 5429000     0.954192   -3.2178554   -1.7202913  0.066315059   -3.2178554    1.4975641   419629 
 5430000   0.95336253   -3.2168281   -1.7205373  0.060573612   -3.2168281    1.4962908   419621 
 5431000   0.95485977   -3.2190269   -1.7203576  0.061562006   -3.2190269    1.4986692   419613 
 5432000   0.95486977   -3.2187266   -1.7200131  0.064531162   -3.2187266    1.4987135   419605 
 5433000    0.9549561    -3.219922   -1.7210444   0.06468865    -3.219922    1.4988776   419597 
 5434000    0.9560641    -3.220294   -1.7196487  0.060929413    -3.220294    1.5006453   419589 
 5435000   0.95545671   -3.2189473   -1.7192268  0.064361731   -3.2189473    1.4997205   419581 
 5436000   0.95453716   -3.2189464   -1.7206407  0.065168068   -3.2189464    1.4983057   419573 
 5437000   0.95646007   -3.2210767   -1.7197241  0.072254743   -3.2210767    1.5013527   419565 
 5438000   0.95635216   -3.2210469   -1.7198349  0.063838031   -3.2210469    1.5012119   419557 
 5439000   0.95716638   -3.2230965   -1.7205779  0.066219337   -3.2230965    1.5025187   419549 
 5440000   0.95672233   -3.2203449   -1.7184946  0.062171944   -3.2203449    1.5018503   419541 
 5441000   0.95598243   -3.2207322   -1.7200148  0.062361868   -3.2207322    1.5007174   419533 
 5442000    0.9575258   -3.2243521   -1.7211832  0.060574229   -3.2243521    1.5031689   419525 
 5443000   0.95448954   -3.2193712   -1.7209403  0.065623794   -3.2193712     1.498431   419517 
 5444000   0.95593059   -3.2221845   -1.7214626  0.063772354   -3.2221845    1.5007219   419509 
 5445000   0.95558042   -3.2208326   -1.7206319  0.063422175   -3.2208326    1.5002007   419501 
 5446000   0.95428947   -3.2204982   -1.7222956  0.066046418   -3.2204982    1.4982026   419493 
 5447000   0.95566101   -3.2223408   -1.7219563  0.063369254   -3.2223408    1.5003845   419485 
 5448000   0.95651968   -3.2245374   -1.7227762  0.060972928   -3.2245374    1.5017612   419477 
 5449000   0.95463423   -3.2214487   -1.7226191  0.064572537   -3.2214487    1.4988296   419469 
 5450000   0.95293587   -3.2188887    -1.722697  0.065095177   -3.2188887    1.4961916   419461 
 5451000   0.95430027   -3.2200327   -1.7216702  0.060694965   -3.2200327    1.4983624   419453 
 5452000   0.95319052    -3.218393   -1.7217444  0.060986832    -3.218393    1.4966485   419445 
 5453000   0.95349304   -3.2167573   -1.7196052    0.0622082   -3.2167573    1.4971521   419437 
 5454000   0.95465988   -3.2200528   -1.7210399  0.059930307   -3.2200528    1.4990128   419429 
 5455000   0.95344975    -3.217186   -1.7200448  0.061786934    -3.217186    1.4971412   419421 
 5456000   0.95293069   -3.2172783   -1.7209235  0.063662908   -3.2172783    1.4963547   419413 
 5457000   0.95374382   -3.2178533   -1.7201932  0.060005973   -3.2178533    1.4976601   419405 
 5458000   0.95442178   -3.2188099   -1.7200566  0.060831507   -3.2188099    1.4987533   419397 
 5459000   0.95437666   -3.2192223   -1.7205112  0.062937924   -3.2192223     1.498711   419389 
 5460000   0.95403536   -3.2170818   -1.7188781  0.064358824   -3.2170818    1.4982037   419381 
 5461000   0.95260919   -3.2160134   -1.7200209  0.057385093   -3.2160134    1.4959926   419373 
 5462000   0.95241377   -3.2159047   -1.7201905  0.059318471   -3.2159047    1.4957142   419365 
 5463000   0.95370797   -3.2168996   -1.7191244  0.058322683   -3.2168996    1.4977752   419357 
 5464000   0.95247092   -3.2159071    -1.720046  0.061809439   -3.2159071     1.495861   419349 
 5465000   0.95182807   -3.2154561   -1.7205761   0.05995509   -3.2154561    1.4948799   419341 
 5466000   0.95309306   -3.2182164   -1.7213212  0.054680924   -3.2182164    1.4968952   419333 
 5467000   0.95324483   -3.2176431    -1.720481  0.061851592   -3.2176431    1.4971621   419325 
 5468000   0.95419785   -3.2181113   -1.7194238   0.06108294   -3.2181113    1.4986875   419317 
 5469000   0.95438337   -3.2190498   -1.7200423  0.061193694   -3.2190498    1.4990075   419309 
 5470000   0.95263229   -3.2172802   -1.7209945  0.061129826   -3.2172802    1.4962857   419301 
 5471000   0.95508049    -3.220998   -1.7208383   0.05930991    -3.220998    1.5001597   419293 
 5472000   0.95405178   -3.2206426   -1.7220701  0.052629023   -3.2206426    1.4985725   419285 
 5473000   0.95360209   -3.2193144   -1.7214197  0.061875695   -3.2193144    1.4978947   419277 
 5474000   0.95413925   -3.2207026   -1.7219356  0.059666052   -3.2207026    1.4987671   419269 
 5475000    0.9530673   -3.2199649   -1.7228531  0.062225108   -3.2199649    1.4971118   419261 
 5476000   0.95435308   -3.2215098   -1.7223496  0.058108617   -3.2215098    1.4991602   419253 
 5477000    0.9537673   -3.2204401   -1.7221715  0.058482472   -3.2204401    1.4982686   419245 
 5478000   0.95471606   -3.2210912   -1.7213036  0.062829077   -3.2210912    1.4997876   419237 
 5479000   0.95375602   -3.2201098   -1.7218018  0.060805137   -3.2201098     1.498308   419229 
 5480000   0.95456773   -3.2207908    -1.721179  0.063770775   -3.2207908    1.4996118   419221 
 5481000   0.95497686   -3.2218151   -1.7215319  0.060012972   -3.2218151    1.5002832   419213 
 5482000   0.95446838   -3.2208915   -1.7213786  0.058244899   -3.2208915     1.499513   419205 
 5483000   0.95385974   -3.2205862   -1.7220008  0.066388344   -3.2205862    1.4985854   419197 
 5484000   0.95583769   -3.2223483   -1.7206267  0.065032187   -3.2223483    1.5017215   419189 
 5485000   0.95547493   -3.2224196   -1.7212394  0.063371855   -3.2224196    1.5011802   419181 
 5486000   0.95595941   -3.2229072   -1.7209371  0.063151829   -3.2229072    1.5019701   419173 
 5487000   0.95386442   -3.2210253   -1.7223181  0.067688665   -3.2210253    1.4987071   419165 
 5488000   0.95453784   -3.2221484   -1.7223545  0.065668747   -3.2221484    1.4997938   419157 
 5489000   0.95504844   -3.2230432   -1.7224185   0.06611409   -3.2230432    1.5006247   419149 
 5490000   0.95375569   -3.2216853   -1.7230632  0.068360825   -3.2216853    1.4986221   419141 
 5491000   0.95360097   -3.2214969   -1.7230893  0.060952317   -3.2214969    1.4984076   419133 
 5492000   0.95288238   -3.2199433   -1.7226363  0.062203659   -3.2199433     1.497307   419125 
 5493000   0.95414815   -3.2228043   -1.7234796  0.058994206   -3.2228043    1.4993246   419117 
 5494000   0.95232893   -3.2198129   -1.7233184  0.062577486   -3.2198129    1.4964945   419109 
 5495000   0.95364576   -3.2224821   -1.7238897  0.058858731   -3.2224821    1.4985924   419101 
 5496000   0.95257958   -3.2204914   -1.7235458  0.060622824   -3.2204914    1.4969455   419093 
 5497000   0.95255158   -3.2201575   -1.7232274  0.057744431   -3.2201575    1.4969301   419085 
 5498000   0.95366171   -3.2198748   -1.7211716  0.065944654   -3.2198748    1.4987033   419077 
 5499000   0.95472126   -3.2210233   -1.7206262  0.060849624   -3.2210233     1.500397   419069 
 5500000   0.95380183   -3.2217042   -1.7227235  0.055468898   -3.2217042    1.4989807   419061 
 5501000   0.95346938   -3.2203552   -1.7218684   0.06555372   -3.2203552    1.4984868   419053 
 5502000   0.95406606   -3.2199658   -1.7205126  0.062259871   -3.2199658    1.4994532   419045 
 5503000   0.95256011   -3.2169523   -1.7198373  0.064240301   -3.2169523     1.497115   419037 
 5504000   0.95440279   -3.2196987    -1.719659   0.06050477   -3.2196987    1.5000397   419029 
 5505000   0.95399721   -3.2176923   -1.7182614  0.060511727   -3.2176923    1.4994309   419021 
 5506000   0.95452013   -3.2196663   -1.7193849    0.0600803   -3.2196663    1.5002814   419013 
 5507000   0.95444804   -3.2205506   -1.7203538  0.065054969   -3.2205506    1.5001967   419005 
 5508000   0.95436278   -3.2191158   -1.7190245  0.065389607   -3.2191158    1.5000914   418997 
 5509000   0.95418713   -3.2188792   -1.7190353  0.059705624   -3.2188792    1.4998439   418989 
 5510000   0.95505103   -3.2209789   -1.7197484  0.061218783   -3.2209789    1.5012305   418981 
 5511000   0.95371641   -3.2182114   -1.7190502  0.063573423   -3.2182114    1.4991613   418973 
 5512000    0.9547459   -3.2202475   -1.7194393  0.065780257   -3.2202475    1.5008082   418965 
 5513000   0.95355376   -3.2187161   -1.7197532   0.06085466   -3.2187161    1.4989628   418957 
 5514000   0.95283049   -3.2178372   -1.7199827  0.062237192   -3.2178372    1.4978545   418949 
 5515000   0.95202244   -3.2169507   -1.7203379  0.062067503   -3.2169507    1.4966128   418941 
 5516000   0.95250199   -3.2178656   -1.7204703  0.061334785   -3.2178656    1.4973953   418933 
 5517000   0.95272258   -3.2175349   -1.7197642  0.062841212   -3.2175349    1.4977706   418925 
 5518000   0.95308795   -3.2184211   -1.7200475  0.063112805   -3.2184211    1.4983736   418917 
 5519000    0.9530337   -3.2188436   -1.7205266  0.059922715   -3.2188436     1.498317   418909 
 5520000   0.95306749    -3.217954   -1.7195552  0.064105987    -3.217954    1.4983987   418901 
 5521000   0.95277683   -3.2198831   -1.7219127  0.056649512   -3.2198831    1.4979704   418893 
 5522000   0.95176266   -3.2192592   -1.7228548  0.056582159   -3.2192592    1.4964044   418885 
 5523000    0.9514389   -3.2192537   -1.7233297  0.057225552   -3.2192537     1.495924   418877 
 5524000   0.95284164   -3.2199443   -1.7217863  0.055731696   -3.2199443    1.4981581   418869 
 5525000    0.9532158   -3.2199419   -1.7211669  0.055767701   -3.2199419     1.498775   418861 
 5526000   0.95258654   -3.2187312    -1.720917  0.058734561   -3.2187312    1.4978142   418853 
 5527000   0.95329172   -3.2190816     -1.72013  0.061538829   -3.2190816    1.4989516   418845 
 5528000   0.95286795   -3.2195196   -1.7212057   0.05984647   -3.2195196    1.4983139   418837 
 5529000   0.95120708   -3.2191881   -1.7234572  0.065314093   -3.2191881    1.4957309   418829 
 5530000   0.95273805   -3.2225803   -1.7244134  0.062645236   -3.2225803    1.4981669   418821 
 5531000   0.95297342   -3.2207911   -1.7222255   0.06195015   -3.2207911    1.4985656   418813 
 5532000   0.95494913   -3.2239093   -1.7222082  0.059927046   -3.2239093    1.5017011   418805 
 5533000   0.95416082   -3.2226742    -1.722184  0.069154009   -3.2226742    1.5004902   418797 
 5534000   0.95279505   -3.2208945   -1.7225235  0.070740498   -3.2208945     1.498371   418789 
 5535000   0.95351126   -3.2221473   -1.7226213  0.063741727   -3.2221473     1.499526   418781 
 5536000   0.95381591   -3.2236609   -1.7236272   0.06395945   -3.2236609    1.5000337   418773 
 5537000   0.95373194   -3.2240851   -1.7241548  0.060407813   -3.2240851    1.4999303   418765 
 5538000   0.95383086     -3.22324   -1.7231254  0.064065715     -3.22324    1.5001145   418757 
 5539000   0.95340504   -3.2227858   -1.7233123  0.064034687   -3.2227858    1.4994735   418749 
 5540000   0.95223906   -3.2210688   -1.7234005  0.062893192   -3.2210688    1.4976683   418741 
 5541000    0.9536626   -3.2230724   -1.7231366  0.062231788   -3.2230724    1.4999359   418733 
 5542000   0.95313351   -3.2238986   -1.7247662  0.055771253   -3.2238986    1.4991324   418725 
 5543000   0.95280753   -3.2216867   -1.7230384  0.066684198   -3.2216867    1.4986483   418717 
 5544000   0.95250331   -3.2217877   -1.7235893  0.067771155   -3.2217877    1.4981984   418709 
 5545000   0.95406054   -3.2244581   -1.7237816  0.061370102   -3.2244581    1.5006765   418701 
 5546000   0.95254483   -3.2231093   -1.7247883  0.064325133   -3.2231093     1.498321   418693 
 5547000   0.95273268    -3.223503   -1.7248579  0.064721756    -3.223503    1.4986451   418685 
 5548000   0.95118416    -3.220969   -1.7247312  0.065894838    -3.220969    1.4962379   418677 
 5549000   0.95173582   -3.2215969   -1.7244627   0.05913475   -3.2215969    1.4971342   418669 
 5550000   0.95309099   -3.2234005   -1.7241059  0.056038778   -3.2234005    1.4992947   418661 
 5551000   0.95152145   -3.2202266   -1.7233724  0.061434001   -3.2202266    1.4968542   418653 
 5552000    0.9525389   -3.2199745   -1.7214911  0.059603412   -3.2199745    1.4984834   418645 
 5553000   0.95184085   -3.2187453   -1.7213314  0.064880055   -3.2187453    1.4974139   418637 
 5554000   0.95282114   -3.2190259   -1.7200412  0.059394498   -3.2190259    1.4989847   418629 
 5555000   0.95340883   -3.2193207   -1.7193828  0.057990529   -3.2193207    1.4999379   418621 
 5556000   0.95156929   -3.2174378   -1.7203652  0.063710104   -3.2174378    1.4970725   418613 
 5557000   0.95131832   -3.2179588   -1.7212525  0.060466817   -3.2179588    1.4967063   418605 
 5558000   0.95066235    -3.217567   -1.7218642  0.062005142    -3.217567    1.4957028   418597 
 5559000    0.9507704   -3.2193093   -1.7234079  0.063162864   -3.2193093    1.4959014   418589 
 5560000    0.9517915   -3.2186926    -1.721156   0.05560227   -3.2186926    1.4975366   418581 
 5561000   0.94972954   -3.2152888   -1.7209679  0.058517979   -3.2152888    1.4943209   418573 
 5562000   0.95147722   -3.2191808   -1.7220814  0.051663898   -3.2191808    1.4970993   418565 
 5563000   0.94985258   -3.2153609   -1.7207893  0.060791736   -3.2153609    1.4945716   418557 
 5564000    0.9502708   -3.2156576   -1.7203994  0.058925526   -3.2156576    1.4952583   418549 
 5565000   0.95047836   -3.2160317   -1.7204182  0.054548215   -3.2160317    1.4956134   418541 
 5566000   0.95224337   -3.2174408   -1.7190214  0.062084962   -3.2174408    1.4984194   418533 
 5567000   0.95220856   -3.2168254   -1.7184322  0.059619455   -3.2168254    1.4983932   418525 
 5568000   0.95410934    -3.218622    -1.717209   0.06338116    -3.218622     1.501413   418517 
 5569000    0.9532605   -3.2179234   -1.7178174  0.058137228   -3.2179234    1.5001059   418509 
 5570000    0.9514675   -3.2161446   -1.7188316  0.065062593   -3.2161446     1.497313   418501 
 5571000    0.9524351   -3.2177967   -1.7189323  0.056285288   -3.2177967    1.4988643   418493 
 5572000   0.95105606   -3.2157218    -1.718999   0.06561352   -3.2157218    1.4967227   418485 
 5573000   0.95184555   -3.2159179   -1.7179241  0.062045703   -3.2159179    1.4979938   418477 
 5574000   0.95270959   -3.2184095   -1.7190272  0.058269914   -3.2184095    1.4993823   418469 
 5575000    0.9511035   -3.2166504   -1.7197671  0.058277754   -3.2166504    1.4968832   418461 
 5576000   0.95034221   -3.2156797    -1.719966  0.059848354   -3.2156797    1.4957137   418453 
 5577000   0.95160675   -3.2188302   -1.7210976  0.057892294   -3.2188302    1.4977325   418445 
 5578000   0.95110681   -3.2180246   -1.7210503  0.060922808   -3.2180246    1.4969743   418437 
 5579000   0.95179103   -3.2197433   -1.7216634   0.05878198   -3.2197433    1.4980799   418429 
 5580000   0.95157676   -3.2189715   -1.7212002  0.059781972   -3.2189715    1.4977712   418421 
 5581000   0.95222379   -3.2205014   -1.7216831  0.061643057   -3.2205014    1.4988183   418413 
 5582000   0.95331855   -3.2207996   -1.7202295  0.062061002   -3.2207996    1.5005702   418405 
 5583000   0.95175449    -3.219477   -1.7213401  0.061890342    -3.219477    1.4981369   418397 
 5584000   0.95251251   -3.2199364   -1.7205776  0.061951124   -3.2199364    1.4993588   418389 
 5585000   0.95265948   -3.2200987   -1.7204799  0.063715451   -3.2200987    1.4996188   418381 
 5586000   0.95119522   -3.2177801   -1.7204376  0.063047735   -3.2177801    1.4973425   418373 
 5587000   0.95083082   -3.2188714   -1.7220739  0.062881274   -3.2188714    1.4967975   418365 
 5588000   0.95139808   -3.2199966   -1.7222775  0.061571038   -3.2199966    1.4977191   418357 
 5589000   0.95191088   -3.2223688   -1.7238138  0.063683376   -3.2223688     1.498555   418349 
 5590000   0.95071617     -3.22297   -1.7262671  0.057337172     -3.22297    1.4967028   418341 
 5591000   0.94869157   -3.2200145   -1.7264704  0.062606291   -3.2200145    1.4935441   418333 
 5592000   0.95109714   -3.2222022   -1.7248423  0.060924661   -3.2222022    1.4973599   418325 
 5593000   0.95170676   -3.2213801   -1.7230318  0.059915661   -3.2213801    1.4983483   418317 
 5594000   0.95140653   -3.2205074   -1.7226032  0.061997854   -3.2205074    1.4979043   418309 
 5595000   0.95232702   -3.2222775   -1.7228954  0.065303155   -3.2222775    1.4993821   418301 
 5596000   0.95166434   -3.2216339   -1.7232664  0.063365514   -3.2216339    1.4983675   418293 
 5597000   0.95279327   -3.2241672   -1.7239936  0.063198487   -3.2241672    1.5001736   418285 
 5598000   0.95260324   -3.2236914   -1.7237883  0.070097395   -3.2236914    1.4999031   418277 
 5599000   0.95243851   -3.2228626   -1.7231902  0.065679224   -3.2228626    1.4996724   418269 
 5600000   0.95253964   -3.2223853    -1.722525  0.072530993   -3.2223853    1.4998603   418261 
 5601000   0.95109549    -3.221393    -1.723778  0.068360082    -3.221393     1.497615   418253 
 5602000   0.95211678   -3.2227133   -1.7234614  0.064571409   -3.2227133    1.4992519   418245 
 5603000   0.95363944   -3.2258221   -1.7241439  0.059621813   -3.2258221    1.5016782   418237 
 5604000    0.9518503   -3.2222536    -1.723364   0.06306292   -3.2222536    1.4988896   418229 
 5605000   0.95167003   -3.2247553   -1.7261209   0.05801148   -3.2247553    1.4986344   418221 
 5606000   0.95168841   -3.2243737   -1.7256817  0.061805282   -3.2243737     1.498692   418213 
 5607000    0.9521681    -3.224074    -1.724598  0.066451681    -3.224074    1.4994761   418205 
 5608000   0.95150956   -3.2227517   -1.7242841  0.066826542   -3.2227517    1.4984677   418197 
 5609000   0.95177409   -3.2232535   -1.7243406  0.062955317   -3.2232535    1.4989129   418189 
 5610000   0.95322082   -3.2248845   -1.7236644  0.063488909   -3.2248845    1.5012201   418181 
 5611000   0.95106522   -3.2204521   -1.7225982   0.05970815   -3.2204521    1.4978539   418173 
 5612000   0.95100427   -3.2224381   -1.7246516  0.060467196   -3.2224381    1.4977865   418165 
 5613000   0.95019793   -3.2217966   -1.7252514  0.063622701   -3.2217966    1.4965452   418157 
 5614000   0.95082341   -3.2228732   -1.7253142  0.058957419   -3.2228732     1.497559   418149 
 5615000   0.94939388   -3.2215868   -1.7262507  0.065942776   -3.2215868    1.4953361   418141 
 5616000   0.94999269   -3.2226695   -1.7263616  0.056184483   -3.2226695    1.4963078   418133 
 5617000   0.94936111   -3.2219995   -1.7266578  0.056600695   -3.2219995    1.4953417   418125 
 5618000   0.94967349   -3.2236319   -1.7277696   0.06203284   -3.2236319    1.4958623   418117 
 5619000   0.95010725   -3.2243892    -1.727815  0.058792141   -3.2243892    1.4965742   418109 
 5620000   0.94996893   -3.2221768   -1.7257918  0.059374604   -3.2221768    1.4963849   418101 
 5621000   0.95060594   -3.2233249   -1.7259079  0.060022128   -3.2233249     1.497417   418093 
 5622000   0.95023356   -3.2230362   -1.7261771  0.061829703   -3.2230362    1.4968591   418085 
 5623000   0.95070923   -3.2241082   -1.7264712  0.064737385   -3.2241082     1.497637   418077 
 5624000   0.95017967   -3.2215832   -1.7247518  0.060536463   -3.2215832    1.4968314   418069 
 5625000   0.95099743   -3.2234306   -1.7252823  0.060081553   -3.2234306    1.4981483   418061 
 5626000   0.94996787   -3.2222176   -1.7256625  0.057042437   -3.2222176    1.4965551   418053 
 5627000   0.95252172   -3.2261051    -1.725498  0.057802633   -3.2261051    1.5006071   418045 
 5628000   0.95074843   -3.2236163   -1.7257742  0.061652948   -3.2236163    1.4978421   418037 
 5629000   0.95061522   -3.2235238    -1.725863  0.060391204   -3.2235238    1.4976609   418029 
 5630000    0.9500415   -3.2246339   -1.7278483  0.064854489   -3.2246339    1.4967856   418021 
 5631000   0.95192581   -3.2261771   -1.7263941  0.063059817   -3.2261771    1.4997831   418013 
 5632000   0.95178993    -3.225625   -1.7260273   0.06552346    -3.225625    1.4995977   418005 
 5633000   0.95172009   -3.2244594   -1.7249431  0.072349035   -3.2244594    1.4995163   417997 
 5634000   0.95119935   -3.2242886   -1.7255641   0.06268298   -3.2242886    1.4987246   417989 
 5635000   0.95054965   -3.2234181   -1.7256886  0.067629224   -3.2234181    1.4977295   417981 
 5636000   0.95245648   -3.2251273   -1.7243645  0.062553266   -3.2251273    1.5007628   417973 
 5637000   0.95118764   -3.2228321   -1.7240399  0.060222362   -3.2228321    1.4987922   417965 
 5638000   0.95115763   -3.2228721   -1.7240985  0.058269544   -3.2228721    1.4987736   417957 
 5639000   0.95190633   -3.2243193   -1.7243373  0.065374321   -3.2243193     1.499982   417949 
 5640000   0.94968705   -3.2207267   -1.7242131   0.06282338   -3.2207267    1.4965136   417941 
 5641000   0.95035042   -3.2224185   -1.7248309  0.063800488   -3.2224185    1.4975876   417933 
 5642000   0.95035129   -3.2231734   -1.7255557  0.057488697   -3.2231734    1.4976177   417925 
 5643000   0.94977113   -3.2219556   -1.7252236  0.059044544   -3.2219556     1.496732   417917 
 5644000   0.94912922   -3.2205812   -1.7248321   0.05935496   -3.2205812    1.4957491   417909 
 5645000   0.94980299   -3.2216187   -1.7247791  0.052753693   -3.2216187    1.4968396   417901 
 5646000   0.95004232   -3.2204302   -1.7231848  0.059513966   -3.2204302    1.4972454   417893 
 5647000    0.9498368   -3.2198348   -1.7228846  0.063457748   -3.2198348    1.4969502   417885 
 5648000   0.95009535   -3.2201065   -1.7227201   0.05908175   -3.2201065    1.4973863   417877 
 5649000   0.94958188    -3.218642   -1.7220363  0.056835036    -3.218642    1.4966057   417869 
 5650000   0.94809906   -3.2164935   -1.7221962  0.062898763   -3.2164935    1.4942973   417861 
 5651000     0.948982   -3.2194256   -1.7237081   0.05867656   -3.2194256    1.4957175   417853 
 5652000   0.94931163   -3.2208028   -1.7245371  0.064675683   -3.2208028    1.4962657   417845 
 5653000   0.94855957   -3.2197901   -1.7246812  0.057287783   -3.2197901     1.495109   417837 
 5654000   0.94858093   -3.2194993   -1.7243281  0.060666539   -3.2194993    1.4951713   417829 
 5655000   0.94807651   -3.2196162   -1.7252113  0.058457348   -3.2196162    1.4944048   417821 
 5656000   0.94950376   -3.2218513   -1.7251681  0.060230788   -3.2218513    1.4966832   417813 
 5657000   0.95013907   -3.2223716   -1.7246583  0.058352793   -3.2223716    1.4977133   417805 
 5658000   0.95011285   -3.2225502   -1.7248496  0.056808093   -3.2225502    1.4977006   417797 
 5659000   0.94829652    -3.220928   -1.7260619  0.061158893    -3.220928    1.4948661   417789 
 5660000   0.94897814   -3.2224612    -1.726492  0.057145062   -3.2224612    1.4959692   417781 
 5661000   0.94890335   -3.2219434   -1.7260634  0.060475486   -3.2219434      1.49588   417773 
 5662000   0.94846435   -3.2221065     -1.72689  0.063837718   -3.2221065    1.4952165   417765 
 5663000   0.94933274   -3.2235824   -1.7269682   0.05695274   -3.2235824    1.4966142   417757 
 5664000   0.94859091    -3.223782   -1.7283087  0.058972785    -3.223782    1.4954733   417749 
 5665000    0.9485491   -3.2234911   -1.7280551  0.060751407   -3.2234911    1.4954361   417741 
 5666000   0.94979997   -3.2260224   -1.7285856  0.061076903   -3.2260224    1.4974368   417733 
 5667000    0.9495371   -3.2259963   -1.7289453  0.054058989   -3.2259963     1.497051   417725 
 5668000   0.94917247   -3.2249598    -1.728455   0.06229307   -3.2249598    1.4965048   417717 
 5669000   0.94946899   -3.2260938   -1.7290928  0.055400547   -3.2260938     1.497001   417709 
 5670000   0.94840297   -3.2248524   -1.7295035   0.05893348   -3.2248524    1.4953489   417701 
 5671000   0.95068075    -3.228032    -1.729063   0.06305841    -3.228032    1.4989689   417693 
 5672000   0.95189101   -3.2283872   -1.7274813  0.065483066   -3.2283872    1.5009059   417685 
 5673000   0.94978676   -3.2271103   -1.7294935  0.065769801   -3.2271103    1.4976167   417677 
 5674000   0.95063753   -3.2278712   -1.7288843  0.062639392   -3.2278712    1.4989869   417669 
 5675000   0.95066857   -3.2285961   -1.7295315  0.063227051   -3.2285961    1.4990646   417661 
 5676000   0.94815575   -3.2254666   -1.7303358  0.060224968   -3.2254666    1.4951309   417653 
 5677000   0.94931237   -3.2270596   -1.7300762  0.057191206   -3.2270596    1.4969834   417645 
 5678000   0.94916269   -3.2278954   -1.7311193  0.061022647   -3.2278954     1.496776   417637 
 5679000   0.94937556   -3.2296452   -1.7325048  0.061981551   -3.2296452    1.4971404   417629 
 5680000   0.94909236   -3.2276399   -1.7309174  0.060877025   -3.2276399    1.4967225   417621 
 5681000   0.94803684   -3.2275646   -1.7324781  0.059195989   -3.2275646    1.4950866   417613 
 5682000   0.94927325   -3.2291003   -1.7320352  0.057521111   -3.2291003    1.4970651   417605 
 5683000   0.94959641   -3.2294447   -1.7318412  0.057850732   -3.2294447    1.4976034   417597 
 5684000   0.94955102   -3.2289454   -1.7313848  0.060564864   -3.2289454    1.4975605   417589 
 5685000   0.94821988    -3.227399   -1.7319091  0.058078404    -3.227399    1.4954898   417581 
 5686000   0.94970043   -3.2277423   -1.7298887  0.058614847   -3.2277423    1.4978536   417573 
 5687000    0.9494894   -3.2279409   -1.7303915  0.061660287   -3.2279409    1.4975494   417565 
 5688000   0.95007742   -3.2288409   -1.7303353  0.059990934   -3.2288409    1.4985056   417557 
 5689000   0.94957436   -3.2268006   -1.7290598  0.061080403   -3.2268006    1.4977408   417549 
 5690000   0.94980674   -3.2262468   -1.7281108   0.06478826   -3.2262468     1.498136   417541 
 5691000    0.9486699   -3.2260302   -1.7296586  0.061744479   -3.2260302    1.4963716   417533 
 5692000   0.95031632    -3.228189   -1.7291918  0.062799664    -3.228189    1.4989972   417525 
 5693000   0.94969699   -3.2253718   -1.7273227  0.064776606   -3.2253718     1.498049   417517 
 5694000   0.94928042   -3.2243754   -1.7269548  0.064556762   -3.2243754    1.4974206   417509 
 5695000   0.95108041   -3.2275271   -1.7272383  0.058136737   -3.2275271    1.5002887   417501 
 5696000   0.94943382   -3.2239053   -1.7261853  0.061568521   -3.2239053      1.49772   417493 
 5697000   0.95012812   -3.2251977   -1.7263537  0.059201889   -3.2251977     1.498844   417485 
 5698000   0.94933291   -3.2239389   -1.7263206  0.065834075   -3.2239389    1.4976182   417477 
 5699000   0.94820748   -3.2212256   -1.7253542  0.065585662   -3.2212256    1.4958715   417469 
 5700000   0.95112503   -3.2244581   -1.7239553  0.064284924   -3.2244581    1.5005029   417461 
 5701000   0.94968042   -3.2223244   -1.7240719  0.059457741   -3.2223244    1.4982526   417453 
 5702000   0.94905657   -3.2210369   -1.7237398  0.055375102   -3.2210369     1.497297   417445 
 5703000    0.9484689   -3.2210776   -1.7246791   0.06490725   -3.2210776    1.4963986   417437 
 5704000   0.94772376    -3.219748   -1.7244963  0.059386284    -3.219748    1.4952516   417429 
 5705000    0.9489652    -3.221025    -1.723786  0.061765917    -3.221025     1.497239   417421 
 5706000   0.94818151   -3.2189741   -1.7229429  0.059918663   -3.2189741    1.4960312   417413 
 5707000   0.94895095    -3.218713   -1.7214391  0.059051278    -3.218713    1.4972739   417405 
 5708000   0.94807278   -3.2167484   -1.7208314   0.06130519   -3.2167484     1.495917   417397 
 5709000   0.94850201   -3.2205704   -1.7239475  0.058117195   -3.2205704    1.4966229   417389 
 5710000   0.95084603   -3.2221547   -1.7218045   0.05818375   -3.2221547    1.5003503   417381 
 5711000   0.94958181   -3.2183364   -1.7199523  0.063521185   -3.2183364    1.4983841   417373 
 5712000    0.9485628   -3.2187117   -1.7219068  0.059782048   -3.2187117    1.4968049   417365 
 5713000   0.94874796   -3.2192476   -1.7221218  0.054266097   -3.2192476    1.4971258   417357 
 5714000   0.94940158   -3.2195997   -1.7214138   0.05966775   -3.2195997    1.4981859   417349 
 5715000   0.94904483   -3.2183239   -1.7206722    0.0625811   -3.2183239    1.4976516   417341 
 5716000   0.94736163   -3.2181126   -1.7230885  0.060211484   -3.2181126    1.4950241   417333 
 5717000   0.94628101   -3.2165605   -1.7232131  0.062576413   -3.2165605    1.4933474   417325 
 5718000   0.94826223   -3.2193851   -1.7228824  0.061383608   -3.2193851    1.4965027   417317 
 5719000   0.94846002   -3.2190085    -1.722165  0.064494137   -3.2190085    1.4968435   417309 
 5720000   0.95020308   -3.2215645   -1.7219414  0.058250347   -3.2215645    1.4996232   417301 
 5721000   0.94955456    -3.220751   -1.7221226  0.059597373    -3.220751    1.4986284   417293 
 5722000   0.94768932   -3.2194311   -1.7237178  0.062824324   -3.2194311    1.4957133   417285 
 5723000   0.94863648   -3.2194641   -1.7222273  0.062210045   -3.2194641    1.4972368   417277 
 5724000   0.95021438   -3.2213743   -1.7216182  0.062610438   -3.2213743     1.499756   417269 
 5725000   0.94999148   -3.2219637   -1.7225307  0.063232199   -3.2219637    1.4994329   417261 
 5726000   0.94864613   -3.2191987   -1.7218605  0.059349938   -3.2191987    1.4973382   417253 
 5727000   0.94875362   -3.2205718   -1.7230352  0.064941973   -3.2205718    1.4975366   417245 
 5728000   0.94839083    -3.220934   -1.7239414  0.061489047    -3.220934    1.4969926   417237 
 5729000   0.94977264    -3.224293   -1.7250905  0.060488386    -3.224293    1.4992025   417229 
 5730000   0.94888764   -3.2245978   -1.7267635  0.059500886   -3.2245978    1.4978343   417221 
 5731000   0.94731417    -3.222534   -1.7271548  0.058302405    -3.222534    1.4953792   417213 
 5732000   0.95010933   -3.2242903   -1.7244701  0.058836066   -3.2242903    1.4998202   417205 
 5733000   0.94899974   -3.2222824    -1.724185  0.063358921   -3.2222824    1.4980974   417197 
 5734000   0.94774376    -3.220167   -1.7240236  0.063738948    -3.220167    1.4961434   417189 
 5735000   0.94706504   -3.2201665   -1.7250659  0.059956426   -3.2201665    1.4951006   417181 
 5736000   0.94937424   -3.2235298    -1.724755  0.061678323   -3.2235298    1.4987748   417173 
 5737000   0.94898363    -3.224155   -1.7259681  0.056579825    -3.224155    1.4981869   417165 
 5738000   0.94877459   -3.2245197   -1.7266341  0.062435098   -3.2245197    1.4978856   417157 
 5739000   0.94712407   -3.2215519   -1.7262434  0.056809739   -3.2215519    1.4953085   417149 
 5740000   0.94925992   -3.2230167   -1.7243074  0.063248494   -3.2230167    1.4987093   417141 
 5741000   0.95027699    -3.223904   -1.7235602  0.057901423    -3.223904    1.5003438   417133 
 5742000   0.94855937   -3.2214948   -1.7238341  0.060140225   -3.2214948    1.4976607   417125 
 5743000    0.9481276   -3.2207707    -1.723763  0.061260528   -3.2207707    1.4970077   417117 
 5744000   0.94783289   -3.2194888   -1.7229177  0.065587395   -3.2194888    1.4965711   417109 
 5745000   0.94740159   -3.2196004   -1.7236816  0.058535006   -3.2196004    1.4959188   417101 
 5746000   0.94849717    -3.221003   -1.7233256  0.053768902    -3.221003    1.4976774   417093 
 5747000   0.94760619   -3.2199703   -1.7236711  0.064416867   -3.2199703    1.4962992   417085 
 5748000   0.94854159   -3.2217914   -1.7239864  0.060465552   -3.2217914     1.497805   417077 
 5749000   0.94858053   -3.2213555   -1.7234603  0.059880339   -3.2213555    1.4978952   417069 
 5750000   0.94742667   -3.2192915   -1.7231896  0.056805292   -3.2192915    1.4961018   417061 
 5751000   0.94781429    -3.220289   -1.7235463  0.054829684    -3.220289    1.4967427   417053 
 5752000   0.94706834   -3.2178923    -1.722299  0.065085001   -3.2178923    1.4955934   417045 
 5753000   0.94732579    -3.217338   -1.7213094  0.060039792    -3.217338    1.4960286   417037 
 5754000   0.94713674   -3.2188515   -1.7230927  0.059805555   -3.2188515    1.4957588   417029 
 5755000   0.94652028    -3.217918    -1.723104  0.062369215    -3.217918    1.4948139   417021 
 5756000   0.94758272      -3.2193   -1.7227795  0.057086071      -3.2193    1.4965205   417013 
 5757000   0.94966862   -3.2211848   -1.7213413  0.060510947   -3.2211848    1.4998435   417005 
 5758000   0.94832239   -3.2205714   -1.7228253  0.064711631   -3.2205714    1.4977461   416997 
 5759000   0.94885815   -3.2219688   -1.7233478  0.059113077   -3.2219688     1.498621   416989 
 5760000   0.94813018   -3.2198603   -1.7223603  0.061876855   -3.2198603       1.4975   416981 
 5761000   0.94795195    -3.219107   -1.7218598  0.055527114    -3.219107    1.4972472   416973 
 5762000   0.94712795   -3.2190631   -1.7230886  0.058246379   -3.2190631    1.4959745   416965 
 5763000   0.94746608   -3.2193781   -1.7228409  0.060236643   -3.2193781    1.4965373   416957 
 5764000   0.94798882   -3.2204071   -1.7230154  0.056324553   -3.2204071    1.4973917   416949 
 5765000   0.94579661   -3.2188695   -1.7249119  0.058535855   -3.2188695    1.4939576   416941 
 5766000   0.94638712   -3.2190763   -1.7241572  0.058115755   -3.2190763    1.4949191   416933 
 5767000    0.9487699   -3.2227898   -1.7240781  0.064354501   -3.2227898    1.4987117   416925 
 5768000    0.9472665   -3.2206458   -1.7242802  0.058242114   -3.2206458    1.4963656   416917 
 5769000    0.9485601   -3.2221935   -1.7237557  0.061829402   -3.2221935    1.4984378   416909 
 5770000   0.94729547   -3.2208764   -1.7244076  0.056685478   -3.2208764    1.4964688   416901 
 5771000   0.94752085   -3.2221446    -1.725291  0.060797064   -3.2221446    1.4968535   416893 
 5772000   0.94715124   -3.2233009   -1.7270025  0.061641816   -3.2233009    1.4962983   416885 
 5773000   0.94723082   -3.2226711   -1.7262184  0.057812562   -3.2226711    1.4964528   416877 
 5774000   0.94619993   -3.2205285   -1.7256756   0.06313231   -3.2205285    1.4948528   416869 
 5775000   0.94690901   -3.2221708   -1.7261691  0.063406026   -3.2221708    1.4960018   416861 
 5776000   0.94758143   -3.2232971   -1.7262042  0.060493245   -3.2232971    1.4970929   416853 
 5777000   0.94773179   -3.2225517   -1.7251925  0.064242029   -3.2225517    1.4973592   416845 
 5778000   0.94656121   -3.2226546   -1.7271162  0.063230152   -3.2226546    1.4955384   416837 
 5779000   0.94734802   -3.2242322    -1.727422  0.061319046   -3.2242322    1.4968103   416829 
 5780000   0.94814696   -3.2264139   -1.7283126  0.062438598   -3.2264139    1.4981014   416821 
 5781000   0.94830375   -3.2258155   -1.7274377  0.062703934   -3.2258155    1.4983779   416813 
 5782000   0.94926249   -3.2268094   -1.7268879  0.063525608   -3.2268094    1.4999215   416805 
 5783000   0.94742863     -3.22401   -1.7269574  0.060115214     -3.22401    1.4970526   416797 
 5784000    0.9474537   -3.2255257   -1.7284048  0.065177288   -3.2255257    1.4971209   416789 
 5785000   0.94789321   -3.2264024   -1.7285583  0.069782552   -3.2264024    1.4978442   416781 
 5786000   0.94848124   -3.2278836   -1.7290815  0.062197364   -3.2278836    1.4988021   416773 
 5787000   0.94740257   -3.2269748   -1.7298484  0.060456165   -3.2269748    1.4971263   416765 
 5788000   0.94734153   -3.2265558   -1.7294972  0.062485625   -3.2265558    1.4970586   416757 
 5789000   0.94591829   -3.2242842    -1.729446  0.064448769   -3.2242842    1.4948382   416749 
 5790000   0.94657311    -3.226419   -1.7305173  0.055061256    -3.226419    1.4959017   416741 
 5791000   0.94677357   -3.2257117   -1.7294644  0.059248983   -3.2257117    1.4962472   416733 
 5792000   0.94770866   -3.2261513   -1.7283975  0.061430226   -3.2261513    1.4977538   416725 
 5793000   0.94788563   -3.2255549   -1.7274927  0.061973339   -3.2255549    1.4980622   416717 
 5794000   0.94699373   -3.2241686   -1.7274872  0.061838002   -3.2241686    1.4966814   416709 
 5795000   0.94828512   -3.2257567   -1.7270055  0.060356617   -3.2257567    1.4987511   416701 
 5796000   0.94755653    -3.223952   -1.7263236  0.064358349    -3.223952    1.4976284   416693 
 5797000   0.94589541    -3.222395   -1.7273633  0.062812827    -3.222395    1.4950316   416685 
 5798000   0.94574966   -3.2223869   -1.7275569  0.060588086   -3.2223869      1.49483   416677 
 5799000   0.94627524   -3.2247118   -1.7290224  0.061844193   -3.2247118    1.4956894   416669 
 5800000   0.94658573    -3.224065   -1.7278561  0.060449982    -3.224065    1.4962089   416661 
 5801000   0.94744642   -3.2256124   -1.7280143  0.054854839   -3.2256124    1.4975981   416653 
 5802000    0.9450591   -3.2204338   -1.7265806  0.059595876   -3.2204338    1.4938532   416645 
 5803000     0.945501   -3.2214102   -1.7268298  0.059623057   -3.2214102    1.4945804   416637 
 5804000   0.94500733   -3.2188892   -1.7250604  0.065597555   -3.2188892    1.4938288   416629 
 5805000   0.94629911   -3.2211226   -1.7252231  0.058527814   -3.2211226    1.4958995   416621 
 5806000   0.94749693    -3.223656   -1.7258343  0.056213701    -3.223656    1.4978217   416613 
 5807000    0.9472013   -3.2226614   -1.7252783  0.064048174   -3.2226614    1.4973831   416605 
 5808000   0.94743677   -3.2234755   -1.7256914  0.062611912   -3.2234755    1.4977842   416597 
 5809000   0.94694003   -3.2225183   -1.7254907  0.060169526   -3.2225183    1.4970276   416589 
 5810000   0.94757997    -3.221466   -1.7233979  0.060448189    -3.221466    1.4980681   416581 
 5811000   0.94772065   -3.2216279   -1.7233086  0.061806552   -3.2216279    1.4983192   416573 
 5812000   0.94634186   -3.2202087   -1.7240406  0.056479322   -3.2202087    1.4961681   416565 
 5813000   0.94648187   -3.2190758   -1.7226576  0.062454528   -3.2190758    1.4964182   416557 
 5814000   0.94776264   -3.2198915   -1.7214195  0.056645309   -3.2198915     1.498472   416549 
 5815000   0.94689854   -3.2199673   -1.7228328  0.058830633   -3.2199673    1.4971345   416541 
 5816000   0.94647724   -3.2209901    -1.724493  0.058891063   -3.2209901    1.4964971   416533 
 5817000   0.94682311    -3.221052   -1.7239792  0.061459879    -3.221052    1.4970728   416525 
 5818000   0.94654601   -3.2211434     -1.72448  0.053871304   -3.2211434    1.4966634   416517 
 5819000   0.94529647   -3.2180447   -1.7233284  0.063287736   -3.2180447    1.4947163   416509 
 5820000   0.94652415   -3.2208266   -1.7241403  0.059467748   -3.2208266    1.4966863   416501 
 5821000   0.94816151   -3.2223348   -1.7230307  0.057617758   -3.2223348    1.4993042   416493 
 5822000   0.94584767   -3.2192813   -1.7236073  0.066333529   -3.2192813    1.4956741   416485 
 5823000   0.94586959   -3.2207829   -1.7250454  0.055570194   -3.2207829    1.4957375   416477 
 5824000   0.94495724   -3.2190586   -1.7247352  0.060727521   -3.2190586    1.4943234   416469 
 5825000   0.94653072   -3.2216533   -1.7248128  0.059209885   -3.2216533    1.4968404   416461 
 5826000   0.94523347   -3.2200297    -1.725212  0.060766268   -3.2200297    1.4948177   416453 
 5827000   0.94611038     -3.22047   -1.7242368  0.064133161     -3.22047    1.4962332   416445 
 5828000   0.94663162    -3.220924   -1.7238377  0.053993274    -3.220924    1.4970863   416437 
 5829000   0.94621146   -3.2199449   -1.7234944  0.063173293   -3.2199449    1.4964506   416429 
 5830000   0.94723677   -3.2215946   -1.7234937  0.061545585   -3.2215946    1.4981009   416421 
 5831000   0.94643193   -3.2212375   -1.7243807  0.061172582   -3.2212375    1.4968567   416413 
 5832000   0.94673511   -3.2220762   -1.7247112  0.061697195   -3.2220762     1.497365   416405 
 5833000   0.94666016   -3.2217932    -1.724518  0.061395983   -3.2217932    1.4972752   416397 
 5834000   0.94613117   -3.2199303    -1.723463  0.061933183   -3.2199303    1.4964673   416389 
 5835000   0.94539905   -3.2200793   -1.7247412  0.063965007   -3.2200793    1.4953381   416381 
 5836000   0.94541057   -3.2206286   -1.7252436  0.063261558   -3.2206286     1.495385   416373 
 5837000   0.94649737   -3.2240043   -1.7268714  0.063479655   -3.2240043    1.4971328   416365 
 5838000    0.9472869   -3.2242972   -1.7258867   0.05796871   -3.2242972    1.4984104   416357 
 5839000   0.94624282   -3.2218993   -1.7251117  0.063731308   -3.2218993    1.4967877   416349 
 5840000   0.94605814   -3.2223286   -1.7258043  0.064999788   -3.2223286    1.4965243   416341 
 5841000   0.94675429   -3.2230407   -1.7253864  0.060939194   -3.2230407    1.4976543   416333 
 5842000   0.94583935   -3.2195494   -1.7233136  0.062250566   -3.2195494    1.4962357   416325 
 5843000    0.9465416   -3.2209202   -1.7235448  0.063861688   -3.2209202    1.4973754   416317 
 5844000    0.9459351   -3.2227285   -1.7262838  0.060254221   -3.2227285    1.4964447   416309 
 5845000   0.94753005   -3.2249267   -1.7259301  0.064606641   -3.2249267    1.4989967   416301 
 5846000   0.94727859   -3.2230889   -1.7244613   0.06544199   -3.2230889    1.4986277   416293 
 5847000   0.94699602   -3.2234309   -1.7252215  0.058569144   -3.2234309    1.4982094   416285 
 5848000   0.94606781    -3.222139   -1.7253693  0.065863352    -3.222139    1.4967697   416277 
 5849000   0.94619201   -3.2224215   -1.7254265  0.063268669   -3.2224215     1.496995   416269 
 5850000   0.94533864   -3.2221234   -1.7264498  0.059149307   -3.2221234    1.4956736   416261 
 5851000   0.94611386   -3.2217973   -1.7248685  0.062565563   -3.2217973    1.4969289   416253 
 5852000   0.94586131   -3.2220344   -1.7254764  0.061578392   -3.2220344     1.496558   416245 
 5853000   0.94473615   -3.2213623   -1.7265558  0.061371185   -3.2213623    1.4948065   416237 
 5854000   0.94609158    -3.223786   -1.7268061  0.060909167    -3.223786    1.4969799   416229 
 5855000   0.94583218   -3.2224084   -1.7258101     0.058072   -3.2224084    1.4965982   416221 
 5856000   0.94618683   -3.2216644   -1.7244762  0.056682071   -3.2216644    1.4971882   416213 
 5857000   0.94616413   -3.2207376   -1.7235566  0.061886003   -3.2207376     1.497181   416205 
 5858000   0.94752711   -3.2221121   -1.7227455  0.060614073   -3.2221121    1.4993666   416197 
 5859000   0.94719002   -3.2216978   -1.7228358   0.06246889   -3.2216978     1.498862   416189 
 5860000   0.94647077   -3.2205029   -1.7227503  0.065500199   -3.2205029    1.4977526   416181 
 5861000   0.94623552   -3.2206597   -1.7232506  0.061419119   -3.2206597    1.4974091   416173 
 5862000   0.94712399   -3.2229902   -1.7241462   0.05716413   -3.2229902    1.4988439   416165 
 5863000   0.94739438   -3.2241504   -1.7248497  0.055666266   -3.2241504    1.4993007   416157 
 5864000   0.94663201   -3.2220477   -1.7239247  0.061752892   -3.2220477     1.498123   416149 
 5865000   0.94531064   -3.2195374   -1.7234768  0.062648351   -3.2195374    1.4960606   416141 
 5866000   0.94608361   -3.2206178   -1.7233052  0.061209315   -3.2206178    1.4973126   416133 
 5867000   0.94732656   -3.2224278   -1.7231192  0.059995981   -3.2224278    1.4993086   416125 
 5868000   0.94534034   -3.2183322   -1.7221383  0.057655911   -3.2183322    1.4961939   416117 
 5869000   0.94628679   -3.2199673   -1.7222467  0.063368646   -3.2199673    1.4977206   416109 
 5870000    0.9452459   -3.2192234   -1.7231215  0.058603671   -3.2192234    1.4961019   416101 
 5871000    0.9463101   -3.2209045   -1.7230894  0.062695643   -3.2209045    1.4978151   416093 
 5872000   0.94547223   -3.2193688   -1.7228511  0.061645833   -3.2193688    1.4965177   416085 
 5873000   0.94621211   -3.2213423   -1.7236247  0.056903303   -3.2213423    1.4977176   416077 
 5874000    0.9458574    -3.220902   -1.7237171  0.061175637    -3.220902    1.4971849   416069 
 5875000   0.94580077   -3.2203452   -1.7232212  0.059389665   -3.2203452     1.497124   416061 
 5876000   0.94632288   -3.2209646   -1.7229853  0.058579034   -3.2209646    1.4979793   416053 
 5877000   0.94489067   -3.2205448   -1.7248039  0.061645836   -3.2205448     1.495741   416045 
 5878000   0.94552834   -3.2216061   -1.7248269  0.060311343   -3.2216061    1.4967791   416037 
 5879000   0.94544647    -3.222631   -1.7259527   0.06096752    -3.222631    1.4966783   416029 
 5880000   0.94517042   -3.2217131    -1.725443  0.064450947   -3.2217131    1.4962701   416021 
 5881000   0.94552207   -3.2230196    -1.726164   0.06018618   -3.2230196    1.4968556   416013 
 5882000   0.94591617   -3.2229363    -1.725428  0.062920212   -3.2229363    1.4975083   416005 
 5883000   0.94585661   -3.2229764   -1.7255336   0.06495135   -3.2229764    1.4974428   415997 
 5884000   0.94646861   -3.2234563   -1.7250158  0.064216641   -3.2234563    1.4984405   415989 
 5885000   0.94584723   -3.2229511   -1.7254656  0.061399237   -3.2229511    1.4974855   415981 
 5886000   0.94579577   -3.2232986   -1.7258658  0.061294964   -3.2232986    1.4974328   415973 
 5887000   0.94495006   -3.2203725   -1.7242499  0.067897253   -3.2203725    1.4961227   415965 
 5888000   0.94556526   -3.2222396   -1.7251141  0.059479417   -3.2222396    1.4971255   415957 
 5889000   0.94579263   -3.2227617   -1.7252474  0.059148801   -3.2227617    1.4975143   415949 
 5890000    0.9475664   -3.2233027   -1.7229511  0.061955589   -3.2233027    1.5003516   415941 
 5891000   0.94670621   -3.2239928   -1.7249744   0.06558572   -3.2239928    1.4990184   415933 
 5892000   0.94644953   -3.2238848    -1.725244  0.062893316   -3.2238848    1.4986409   415925 
 5893000   0.94551769   -3.2235135   -1.7263194  0.057056978   -3.2235135    1.4971941   415917 
 5894000   0.94651378   -3.2251664   -1.7263662   0.05883058   -3.2251664    1.4988002   415909 
 5895000   0.94598327   -3.2247171   -1.7267281  0.057603902   -3.2247171     1.497989   415901 
 5896000   0.94599411   -3.2249264   -1.7268914  0.058974704   -3.2249264     1.498035   415893 
 5897000   0.94605267     -3.22509   -1.7269335  0.054931066     -3.22509    1.4981565   415885 
 5898000    0.9451797   -3.2235232   -1.7267202  0.064414681   -3.2235232    1.4968029   415877 
 5899000   0.94540278   -3.2237331   -1.7265481  0.060825854   -3.2237331     1.497185   415869 
 5900000   0.94537426   -3.2244946    -1.727326  0.064024357   -3.2244946    1.4971686   415861 
 5901000   0.94553408   -3.2250451   -1.7275946  0.064770624   -3.2250451    1.4974505   415853 
 5902000   0.94571677   -3.2245162   -1.7267475  0.061180319   -3.2245162    1.4977687   415845 
 5903000   0.94348564   -3.2214795   -1.7272157  0.059646143   -3.2214795    1.4942639   415837 
 5904000   0.94458352   -3.2236016   -1.7275701  0.060197512   -3.2236016    1.4960314   415829 
 5905000   0.94309722   -3.2239183   -1.7302121  0.054526553   -3.2239183    1.4937062   415821 
 5906000   0.94359473   -3.2241851   -1.7296621   0.06276928   -3.2241851    1.4945229   415813 
 5907000   0.94385014   -3.2245375   -1.7295813  0.066634829   -3.2245375    1.4949562   415805 
 5908000   0.94348815   -3.2246457   -1.7302341  0.057399275   -3.2246457    1.4944116   415797 
 5909000   0.94262962   -3.2228193   -1.7297389  0.064617917   -3.2228193    1.4930805   415789 
 5910000    0.9439168   -3.2244397   -1.7292917  0.060479484   -3.2244397    1.4951481   415781 
 5911000   0.94385214   -3.2240083   -1.7289338  0.060490135   -3.2240083    1.4950744   415773 
 5912000   0.94325819    -3.225273   -1.7311106  0.056104556    -3.225273    1.4941624   415765 
 5913000   0.94395003    -3.225395    -1.730108  0.060209102    -3.225395     1.495287   415757 
 5914000   0.94552897    -3.226507     -1.72869  0.061649421    -3.226507     1.497817   415749 
 5915000   0.94574184   -3.2266491    -1.728466  0.062789857   -3.2266491    1.4981831   415741 
 5916000   0.94450912   -3.2262053   -1.7299463  0.061861154   -3.2262053     1.496259   415733 
 5917000   0.94417351   -3.2264193   -1.7306632  0.063352753   -3.2264193    1.4957562   415725 
 5918000   0.94399665    -3.226777   -1.7312723  0.065215901    -3.226777    1.4955048   415717 
 5919000   0.94464376   -3.2270926   -1.7305339  0.058636633   -3.2270926    1.4965587   415709 
 5920000   0.94471268    -3.225542   -1.7288453  0.065583908    -3.225542    1.4966967   415701 
 5921000   0.94554844   -3.2289517   -1.7309021  0.064552704   -3.2289517    1.4980496   415693 
 5922000    0.9453542    -3.228702   -1.7309313  0.064276184    -3.228702    1.4977707   415685 
 5923000   0.94424958   -3.2274751   -1.7314257  0.062075281   -3.2274751    1.4960494   415677 
 5924000   0.94512882   -3.2275598   -1.7300885  0.062223417   -3.2275598    1.4974713   415669 
 5925000   0.94431929     -3.22562   -1.7294026  0.064203857     -3.22562    1.4962174   415661 
 5926000    0.9457518   -3.2272783   -1.7287623  0.062818535   -3.2272783     1.498516   415653 
 5927000   0.94397393   -3.2269926   -1.7312648  0.064321304   -3.2269926    1.4957278   415645 
 5928000    0.9468259   -3.2301204   -1.7298448  0.054969065   -3.2301204    1.5002757   415637 
 5929000   0.94450224   -3.2257525   -1.7291299  0.057757412   -3.2257525    1.4966225   415629 
 5930000   0.94459194   -3.2255549   -1.7287614  0.060606775   -3.2255549    1.4967935   415621 
 5931000   0.94395908    -3.224303   -1.7284836  0.061007988    -3.224303    1.4958194   415613 
 5932000   0.94379935   -3.2249809   -1.7293857  0.058459796   -3.2249809    1.4955951   415605 
 5933000   0.94378689    -3.225025   -1.7294208  0.059152616    -3.225025    1.4956042   415597 
 5934000   0.94105701   -3.2222646   -1.7309577  0.058399238   -3.2222646    1.4913069   415589 
 5935000   0.94280747   -3.2241082   -1.7299986  0.062233764   -3.2241082    1.4941096   415581 
 5936000   0.94378721   -3.2263014   -1.7306103  0.057853175   -3.2263014    1.4956911   415573 
 5937000   0.94300724   -3.2240715   -1.7295878   0.06162652   -3.2240715    1.4944837   415565 
 5938000   0.94184582   -3.2232986   -1.7306268  0.061446394   -3.2232986    1.4926718   415557 
 5939000   0.94220321   -3.2241196   -1.7308526  0.057018472   -3.2241196     1.493267   415549 
 5940000   0.94105003   -3.2219995   -1.7305314  0.058280795   -3.2219995    1.4914681   415541 
 5941000   0.94301335   -3.2250154   -1.7304069  0.058573902   -3.2250154    1.4946085   415533 
 5942000   0.94301183   -3.2242753   -1.7296404  0.056280984   -3.2242753    1.4946349   415525 
 5943000   0.94408887   -3.2267678   -1.7303971  0.064383974   -3.2267678    1.4963708   415517 
 5944000   0.94449164   -3.2252058   -1.7281679    0.0565489   -3.2252058     1.497038   415509 
 5945000   0.94457881   -3.2264825   -1.7292775  0.062172761   -3.2264825     1.497205   415501 
 5946000   0.94554346   -3.2273117   -1.7285489  0.064196208   -3.2273117    1.4987628   415493 
 5947000   0.94442072   -3.2256627   -1.7286506  0.064563166   -3.2256627     1.497012   415485 
 5948000   0.94455358   -3.2246865    -1.727435   0.06205406   -3.2246865    1.4972515   415477 
 5949000   0.94662634   -3.2263988   -1.7258328  0.059199875   -3.2263988     1.500566   415469 
 5950000   0.94558469    -3.226025   -1.7270814  0.063718095    -3.226025    1.4989436   415461 
 5951000   0.94531684    -3.226646   -1.7280981  0.062136261    -3.226646    1.4985479   415453 
 5952000   0.94452692   -3.2247732   -1.7274487  0.061649713   -3.2247732    1.4973245   415445 
 5953000   0.94624082   -3.2263211   -1.7262507  0.068364351   -3.2263211    1.5000704   415437 
 5954000   0.94551163   -3.2262547   -1.7273114  0.060754903   -3.2262547    1.4989433   415429 
 5955000   0.94451483   -3.2259627   -1.7285708  0.062578804   -3.2259627    1.4973919   415421 
 5956000   0.94548418   -3.2272301   -1.7282726  0.057709812   -3.2272301    1.4989575   415413 
 5957000   0.94271298    -3.223171   -1.7285781  0.064441749    -3.223171    1.4945928   415405 
 5958000   0.94376567   -3.2234989   -1.7272083  0.061381013   -3.2234989    1.4962906   415397 
 5959000   0.94219273   -3.2204072   -1.7265816   0.06166602   -3.2204072    1.4938256   415389 
 5960000   0.94290367   -3.2208396    -1.725858  0.056997004   -3.2208396    1.4949815   415381 
 5961000   0.94213438   -3.2191633   -1.7253727  0.061321503   -3.2191633    1.4937906   415373 
 5962000   0.94219256    -3.221415   -1.7275034  0.061886746    -3.221415    1.4939116   415365 
 5963000   0.94075428   -3.2183387   -1.7266789   0.06490201   -3.2183387    1.4916598   415357 
 5964000   0.94147436   -3.2204867   -1.7276564   0.05565939   -3.2204867    1.4928304   415349 
 5965000   0.94128297   -3.2201052   -1.7275495  0.054921134   -3.2201052    1.4925556   415341 
 5966000   0.94335619   -3.2213007   -1.7254288  0.060408809   -3.2213007    1.4958719   415333 
 5967000   0.94216052   -3.2185223   -1.7245176  0.062089526   -3.2185223    1.4940047   415325 
 5968000   0.94169964   -3.2178778   -1.7245752  0.063707866   -3.2178778    1.4933026   415317 
 5969000   0.94202088   -3.2184785   -1.7246376  0.057360818   -3.2184785    1.4938408   415309 
 5970000   0.94273084   -3.2195367   -1.7245413  0.058064079   -3.2195367    1.4949954   415301 
 5971000   0.94372163   -3.2213751   -1.7247796  0.055918137   -3.2213751    1.4965955   415293 
 5972000   0.94235286   -3.2196529   -1.7251993  0.060139446   -3.2196529    1.4944536   415285 
 5973000   0.94245127   -3.2198794   -1.7252409  0.063757498   -3.2198794    1.4946385   415277 
 5974000   0.94236525   -3.2195159   -1.7249851  0.062620439   -3.2195159    1.4945309   415269 
 5975000   0.94355591   -3.2192308   -1.7227828  0.063877534   -3.2192308     1.496448   415261 
 5976000   0.94547497   -3.2224359   -1.7229154  0.061753951   -3.2224359    1.4995204   415253 
 5977000   0.94466189   -3.2224307   -1.7241709   0.06255983   -3.2224307    1.4982598   415245 
 5978000   0.94434919   -3.2215062   -1.7237135  0.065961502   -3.2215062    1.4977927   415237 
 5979000   0.94387911    -3.222787   -1.7257111  0.063878349    -3.222787    1.4970759   415229 
 5980000   0.94293722   -3.2216181   -1.7260072   0.06347839   -3.2216181    1.4956108   415221 
 5981000   0.94358011   -3.2223693   -1.7257099  0.064948961   -3.2223693    1.4966594   415213 
 5982000   0.94283644   -3.2220526    -1.726544   0.05809541   -3.2220526    1.4955086   415205 
 5983000   0.94213847   -3.2225071   -1.7280768  0.061556541   -3.2225071    1.4944303   415197 
 5984000   0.94269945   -3.2229179   -1.7275689  0.060728259   -3.2229179    1.4953489   415189 
 5985000   0.94317112   -3.2232745   -1.7271485  0.063038845   -3.2232745     1.496126   415181 
 5986000   0.94453084   -3.2259149   -1.7276032  0.065344957   -3.2259149    1.4983117   415173 
 5987000   0.94403286   -3.2237831   -1.7262325  0.057210708   -3.2237831    1.4975506   415165 
 5988000   0.94307358   -3.2216315   -1.7255738  0.066797907   -3.2216315    1.4960577   415157 
 5989000   0.94564509   -3.2257033   -1.7255373   0.06453616   -3.2257033     1.500166   415149 
 5990000    0.9450244   -3.2233076   -1.7240974  0.061661858   -3.2233076    1.4992102   415141 
 5991000   0.94444003   -3.2242531   -1.7259411  0.060736343   -3.2242531     1.498312   415133 
 5992000   0.94446083    -3.222927   -1.7245531   0.05942742    -3.222927    1.4983739   415125 
 5993000   0.94315442   -3.2225663   -1.7262362  0.067069173   -3.2225663    1.4963301   415117 
 5994000   0.94441189   -3.2246652   -1.7263112  0.058100015   -3.2246652     1.498354   415109 
 5995000   0.94604847   -3.2257057   -1.7247262  0.059506362   -3.2257057    1.5009794   415101 
 5996000   0.94483702   -3.2258457   -1.7267595  0.055852969   -3.2258457    1.4990863   415093 
 5997000   0.94371924   -3.2246763   -1.7273346   0.05812667   -3.2246763    1.4973416   415085 
 5998000   0.94282902   -3.2223358   -1.7263778  0.059563169   -3.2223358     1.495958   415077 
 5999000    0.9432073   -3.2231462   -1.7265591  0.062091392   -3.2231462    1.4965871   415069 
 6000000   0.94222382   -3.2224558   -1.7274004  0.059755658   -3.2224558    1.4950554   415061 
 6001000    0.9420821   -3.2228965   -1.7280372  0.054687059   -3.2228965    1.4948593   415053 
 6002000   0.94105508   -3.2208323   -1.7275738  0.058246046   -3.2208323    1.4932585   415045 
 6003000   0.94116117   -3.2217468   -1.7282912  0.060975525   -3.2217468    1.4934556   415037 
 6004000   0.94081033   -3.2212846   -1.7283569  0.064992993   -3.2212846    1.4929277   415029 
 6005000   0.94222443   -3.2229456   -1.7277452  0.064491216   -3.2229456    1.4952005   415021 
 6006000   0.94366136   -3.2240212   -1.7265116  0.056756448   -3.2240212    1.4975096   415013 
 6007000   0.94345046   -3.2251759   -1.7279722  0.058053444   -3.2251759    1.4972037   415005 
 6008000   0.94310241   -3.2244533   -1.7277731  0.057316487   -3.2244533    1.4966803   414997 
 6009000   0.94413584   -3.2268868   -1.7285376  0.057381592   -3.2268868    1.4983492   414989 
 6010000   0.94186518   -3.2242693   -1.7294949   0.05412522   -3.2242693    1.4947744   414981 
 6011000   0.94269668   -3.2249905   -1.7288676  0.060946305   -3.2249905    1.4961229   414973 
 6012000   0.94315456   -3.2251343   -1.7282558   0.06253277   -3.2251343    1.4968784   414965 
 6013000   0.94318452   -3.2231987   -1.7262438   0.05804381   -3.2231987    1.4969548   414957 
 6014000   0.94337894   -3.2247123     -1.72742   0.05998104   -3.2247123    1.4972923   414949 
 6015000   0.94289376   -3.2247113   -1.7281602  0.058248217   -3.2247113    1.4965511   414941 
 6016000    0.9406813   -3.2234937   -1.7304254  0.061292461   -3.2234937    1.4930683   414933 
 6017000   0.94035424   -3.2240295   -1.7314516  0.059810061   -3.2240295    1.4925779   414925 
 6018000   0.94075593   -3.2239431   -1.7306988  0.062644286   -3.2239431    1.4932443   414917 
 6019000   0.93959107   -3.2230877   -1.7316636  0.060011254   -3.2230877    1.4914241   414909 
 6020000   0.94191259   -3.2242133   -1.7290753  0.059004161   -3.2242133    1.4951379   414901 
 6021000   0.94086438   -3.2218568    -1.728354  0.066150066   -3.2218568    1.4935028   414893 
 6022000   0.94311478   -3.2256635   -1.7285595  0.059143552   -3.2256635    1.4971039   414885 
 6023000   0.94308374   -3.2254151   -1.7283316  0.061065809   -3.2254151    1.4970835   414877 
 6024000   0.94244891     -3.22554   -1.7294354  0.059596602     -3.22554    1.4961046   414869 
 6025000   0.94234526   -3.2241258   -1.7281569  0.065597805   -3.2241258    1.4959689   414861 
 6026000   0.94170624   -3.2245521   -1.7295687  0.058295942   -3.2245521    1.4949833   414853 
 6027000    0.9420244   -3.2248054   -1.7292881  0.063613648   -3.2248054    1.4955172   414845 
 6028000   0.94265004   -3.2258073    -1.729268    0.0632768   -3.2258073    1.4965393   414837 
 6029000   0.94219753   -3.2238544   -1.7280047   0.06312492   -3.2238544    1.4958498   414829 
 6030000   0.94089864   -3.2221569   -1.7283405  0.062506936   -3.2221569    1.4938165   414821 
 6031000   0.94150628   -3.2237397   -1.7289297  0.060664008   -3.2237397      1.49481   414813 
 6032000    0.9415975   -3.2242828   -1.7292991   0.06657378   -3.2242828    1.4949837   414805 
 6033000   0.94287152   -3.2248991   -1.7278638  0.062407866   -3.2248991    1.4970353   414797 
 6034000   0.94255949    -3.223843   -1.7272743  0.061635723    -3.223843    1.4965687   414789 
 6035000    0.9410876   -3.2221248   -1.7278643  0.063519471   -3.2221248    1.4942606   414781 
 6036000   0.94246032   -3.2233861   -1.7269171  0.066066929   -3.2233861     1.496469   414773 
 6037000   0.94273248   -3.2232846   -1.7263545  0.066183443   -3.2232846      1.49693   414765 
 6038000    0.9443728   -3.2255835   -1.7260199  0.060551195   -3.2255835    1.4995636   414757 
 6039000   0.94251611   -3.2237692    -1.727125   0.06569579   -3.2237692    1.4966442   414749 
 6040000   0.94187093   -3.2230061   -1.7273575  0.062000351   -3.2230061    1.4956486   414741 
 6041000   0.94116059   -3.2213228   -1.7267734   0.06193831   -3.2213228    1.4945494   414733 
 6042000   0.94129507   -3.2212834   -1.7264917  0.061893601   -3.2212834    1.4947918   414725 
 6043000    0.9425327   -3.2209265   -1.7241405  0.062622837   -3.2209265     1.496786   414717 
 6044000   0.94274519   -3.2216183    -1.724466  0.060584291   -3.2216183    1.4971524   414709 
 6045000     0.940743   -3.2186591   -1.7246576  0.061092306   -3.2186591    1.4940015   414701 
 6046000   0.94176317   -3.2218282   -1.7261776  0.055724307   -3.2218282    1.4956505   414693 
 6047000   0.94126639   -3.2207642   -1.7258738  0.059159467   -3.2207642    1.4948904   414685 
 6048000   0.94144622   -3.2220933   -1.7268884  0.054226058   -3.2220933    1.4952049   414677 
 6049000   0.94083681   -3.2213723   -1.7271065  0.054589513   -3.2213723    1.4942658   414669 
 6050000   0.94086083   -3.2213324   -1.7269996  0.056014135   -3.2213324    1.4943328   414661 
 6051000   0.93936046   -3.2188469   -1.7268683  0.055570969   -3.2188469    1.4919786   414653 
 6052000   0.94052695   -3.2214154   -1.7275552  0.051828159   -3.2214154    1.4938602   414645 
 6053000   0.94048385   -3.2201507   -1.7263302  0.053759444   -3.2201507    1.4938205   414637 
 6054000   0.94170175   -3.2205393   -1.7247555  0.052556379   -3.2205393    1.4957838   414629 
 6055000   0.94200202   -3.2197519   -1.7234623  0.057722393   -3.2197519    1.4962896   414621 
 6056000   0.94222899   -3.2209075   -1.7242284  0.058712795   -3.2209075     1.496679   414613 
 6057000   0.94226272   -3.2211153   -1.7243538  0.058137027   -3.2211153    1.4967615   414605 
 6058000   0.94176268   -3.2208255   -1.7248294  0.057051282   -3.2208255    1.4959961   414597 
 6059000   0.94167605    -3.221597   -1.7257097  0.060360286    -3.221597    1.4958873   414589 
 6060000   0.94124578   -3.2214988   -1.7262661  0.060238129   -3.2214988    1.4952327   414581 
 6061000    0.9418363    -3.221759   -1.7255594  0.061564856    -3.221759    1.4961996   414573 
 6062000   0.93933987   -3.2188873   -1.7266247  0.065203123   -3.2188873    1.4922626   414565 
 6063000   0.93856176   -3.2190422    -1.727987  0.054684279   -3.2190422    1.4910552   414557 
 6064000   0.94031806     -3.22211   -1.7282358  0.057189403     -3.22211    1.4938742   414549 
 6065000    0.9393752   -3.2215679   -1.7291628  0.059912856   -3.2215679    1.4924051   414541 
 6066000   0.93938897    -3.221614   -1.7291582  0.063152262    -3.221614    1.4924558   414533 
 6067000   0.94101396   -3.2239971   -1.7289308  0.062939537   -3.2239971    1.4950664   414525 
 6068000   0.94015586   -3.2222962   -1.7285643  0.058128084   -3.2222962    1.4937319   414517 
 6069000   0.94175214    -3.224749    -1.728452  0.060335902    -3.224749    1.4962969   414509 
 6070000   0.94142525     -3.22456   -1.7287536  0.061931388     -3.22456    1.4958064   414501 
 6071000   0.94214745   -3.2251521   -1.7281693  0.062571459   -3.2251521    1.4969828   414493 
 6072000   0.94277805   -3.2269637   -1.7289501  0.063940723   -3.2269637    1.4980137   414485 
 6073000   0.94284009   -3.2276816   -1.7295405  0.060850506   -3.2276816    1.4981412   414477 
 6074000   0.94274753   -3.2270631   -1.7290401  0.066843372   -3.2270631     1.498023   414469 
 6075000   0.94274486   -3.2270433   -1.7289957   0.06707843   -3.2270433    1.4980477   414461 
 6076000     0.942577   -3.2272674   -1.7294576  0.059446675   -3.2272674    1.4978099   414453 
 6077000   0.94047866    -3.224786   -1.7302817  0.064521658    -3.224786    1.4945043   414445 
 6078000   0.94103728   -3.2270457   -1.7316248  0.054548589   -3.2270457    1.4954209   414437 
 6079000    0.9406854   -3.2256247   -1.7307342    0.0658824   -3.2256247    1.4948906   414429 
 6080000   0.94231154   -3.2273645   -1.7298608  0.062078323   -3.2273645    1.4975036   414421 
 6081000   0.94269184   -3.2283015   -1.7301646  0.062046036   -3.2283015    1.4981369   414413 
 6082000   0.94219586    -3.227829   -1.7304514  0.066469179    -3.227829    1.4973776   414405 
 6083000   0.94193451   -3.2271333   -1.7301421  0.063110318   -3.2271333    1.4969912   414397 
 6084000   0.94191057   -3.2274954   -1.7305134  0.056646496   -3.2274954     1.496982   414389 
 6085000   0.94016158   -3.2244227   -1.7301915  0.058337872   -3.2244227    1.4942312   414381 
 6086000   0.94139271   -3.2260711   -1.7298544  0.059240353   -3.2260711    1.4962167   414373 
 6087000   0.94047712   -3.2250773   -1.7302869  0.063099534   -3.2250773    1.4947904   414365 
 6088000    0.9412904   -3.2241639    -1.728052  0.059174567   -3.2241639    1.4961119   414357 
 6089000   0.94097331   -3.2242207   -1.7285839  0.061493848   -3.2242207    1.4956368   414349 
 6090000   0.94072462    -3.223889   -1.7286186  0.055505899    -3.223889    1.4952704   414341 
 6091000   0.93830621   -3.2196334   -1.7281782  0.058908477   -3.2196334    1.4914552   414333 
 6092000   0.94117721   -3.2228319   -1.7267844   0.06004327   -3.2228319    1.4960475   414325 
 6093000   0.94081134   -3.2222597   -1.7267649  0.059910322   -3.2222597    1.4954948   414317 
 6094000    0.9402151   -3.2216981   -1.7271222  0.061364679   -3.2216981    1.4945759   414309 
 6095000   0.93977816   -3.2208226   -1.7269124  0.061857218   -3.2208226    1.4939102   414301 
 6096000   0.93877078   -3.2193953   -1.7270576  0.062193182   -3.2193953    1.4923377   414293 
 6097000   0.93768152   -3.2184881   -1.7278532  0.054983526   -3.2184881    1.4906349   414285 
 6098000   0.93922063   -3.2206293   -1.7275189  0.057861717   -3.2206293    1.4931104   414277 
 6099000   0.93935472   -3.2186618   -1.7253094  0.057548005   -3.2186618    1.4933524   414269 
 6100000   0.93938609   -3.2196868   -1.7262557  0.057459803   -3.2196868    1.4934312   414261 
 6101000   0.94051356   -3.2213354   -1.7260829   0.05566605   -3.2213354    1.4952525   414253 
 6102000   0.94101178   -3.2212634   -1.7251899  0.061664368   -3.2212634    1.4960735   414245 
 6103000   0.94153876   -3.2206788   -1.7237386   0.06517544   -3.2206788    1.4969402   414237 
 6104000   0.94085289   -3.2216385   -1.7257599  0.060830549   -3.2216385    1.4958786   414229 
 6105000   0.94160306   -3.2214672   -1.7243669  0.065148244   -3.2214672    1.4971002   414221 
 6106000   0.94135104     -3.22147   -1.7247415  0.058194838     -3.22147    1.4967284   414213 
 6107000    0.9394268   -3.2189937   -1.7252959  0.055534078   -3.2189937    1.4936978   414205 
 6108000   0.94023242   -3.2196283   -1.7246207  0.055166735   -3.2196283    1.4950076   414197 
 6109000   0.93888338   -3.2186605   -1.7257691  0.057312527   -3.2186605    1.4928914   414189 
 6110000   0.94002246   -3.2204569   -1.7257253  0.059641227   -3.2204569    1.4947315   414181 
 6111000   0.93764606   -3.2207058   -1.7297242  0.058542667   -3.2207058    1.4909816   414173 
 6112000   0.93830185   -3.2228135   -1.7307603  0.058644075   -3.2228135    1.4920532   414165 
 6113000   0.93861446   -3.2224183   -1.7298391  0.057002207   -3.2224183    1.4925791   414157 
 6114000   0.93932667     -3.22288   -1.7291395  0.063066795     -3.22288    1.4937405   414149 
 6115000   0.93945375   -3.2230593   -1.7290878  0.066163519   -3.2230593    1.4939715   414141 
 6116000   0.93967214   -3.2232186   -1.7288709  0.060564943   -3.2232186    1.4943476   414133 
 6117000   0.93969002   -3.2231749   -1.7287699  0.062000619   -3.2231749     1.494405   414125 
 6118000   0.94073587   -3.2252335   -1.7291364  0.059723072   -3.2252335    1.4960971   414117 
 6119000   0.94120153   -3.2256143   -1.7287478  0.061548284   -3.2256143    1.4968666   414109 
 6120000   0.94059382   -3.2247015   -1.7287726  0.060669191   -3.2247015     1.495929   414101 
 6121000   0.94141096   -3.2275009   -1.7302434  0.064503106   -3.2275009    1.4972575   414093 
 6122000   0.94145265   -3.2266986   -1.7293459  0.063453519   -3.2266986    1.4973527   414085 
 6123000   0.93966587   -3.2245546   -1.7300149  0.063495833   -3.2245546    1.4945398   414077 
 6124000   0.94240272   -3.2285489   -1.7296272  0.061086831   -3.2285489    1.4989217   414069 
 6125000   0.93995619   -3.2247168   -1.7296575  0.065357752   -3.2247168    1.4950593   414061 
 6126000   0.93902248   -3.2259291    -1.732326  0.063734224   -3.2259291     1.493603   414053 
 6127000    0.9410561   -3.2289083   -1.7320417  0.059355312   -3.2289083    1.4968666   414045 
 6128000   0.94112693   -3.2289034   -1.7318952  0.060392502   -3.2289034    1.4970082   414037 
 6129000      0.93961   -3.2272311   -1.7326069   0.07288701   -3.2272311    1.4946242   414029 
 6130000   0.94101177   -3.2289862   -1.7321033  0.064796563   -3.2289862    1.4968829   414021 
 6131000   0.94051434   -3.2278603   -1.7317398    0.0572463   -3.2278603    1.4961205   414013 
 6132000   0.93985826   -3.2273005   -1.7321948  0.060240448   -3.2273005    1.4951057   414005 
 6133000   0.94054803   -3.2284282   -1.7321963  0.057120122   -3.2284282    1.4962319   413997 
 6134000   0.94033179   -3.2266863   -1.7307695   0.06172461   -3.2266863    1.4959168   413989 
 6135000   0.93984753   -3.2274636   -1.7322883  0.065503416   -3.2274636    1.4951754   413981 
 6136000   0.93854622   -3.2263418   -1.7332078  0.065153515   -3.2263418     1.493134   413973 
 6137000   0.93924901   -3.2278079   -1.7335269   0.05962432   -3.2278079    1.4942809   413965 
 6138000   0.93952075   -3.2277434   -1.7330013  0.060331718   -3.2277434    1.4947421   413957 
 6139000   0.94015481    -3.227577   -1.7317972  0.058105203    -3.227577    1.4957798   413949 
 6140000   0.93926485   -3.2285361   -1.7341433  0.059256512   -3.2285361    1.4943928   413941 
 6141000   0.93750815   -3.2265731   -1.7349465  0.055377683   -3.2265731    1.4916266   413933 
 6142000   0.93840875   -3.2270662   -1.7339777  0.052914715   -3.2270662    1.4930884   413925 
 6143000   0.93827232    -3.227011   -1.7341108  0.061388856    -3.227011    1.4929002   413917 
 6144000   0.93838311   -3.2259579   -1.7328525   0.06341589   -3.2259579    1.4931053   413909 
 6145000   0.94057992   -3.2302211   -1.7335914   0.06361106   -3.2302211    1.4966297   413901 
 6146000   0.94162723   -3.2302942   -1.7319691  0.055646488   -3.2302942    1.4983251   413893 
 6147000   0.94022496   -3.2303557    -1.734233  0.058133427   -3.2303557    1.4961227   413885 
 6148000   0.94033303   -3.2276231   -1.7312995  0.061210844   -3.2276231    1.4963236   413877 
 6149000   0.94113082   -3.2286147   -1.7309926  0.061096089   -3.2286147    1.4976221   413869 
 6150000   0.94076143   -3.2275132     -1.73045  0.066494112   -3.2275132    1.4970632   413861 
 6151000   0.93962648    -3.226004    -1.730718  0.061803312    -3.226004     1.495286   413853 
 6152000   0.94047302   -3.2278927   -1.7312306  0.061877749   -3.2278927    1.4966621   413845 
 6153000   0.94046397   -3.2269343   -1.7302576  0.062328182   -3.2269343    1.4966766   413837 
 6154000   0.94085325   -3.2294962   -1.7321711   0.05974723   -3.2294962    1.4973251   413829 
 6155000   0.93917526   -3.2256038   -1.7309202  0.065200612   -3.2256038    1.4946835   413821 
 6156000   0.94152917   -3.2294089   -1.7309502  0.059715727   -3.2294089    1.4984587   413813 
 6157000   0.94026455   -3.2282339   -1.7317589    0.0555474   -3.2282339     1.496475   413805 
 6158000   0.93945498   -3.2270551   -1.7318397  0.059844232   -3.2270551    1.4952154   413797 
 6159000   0.93857341   -3.2268042   -1.7329629  0.059979278   -3.2268042    1.4938412   413789 
 6160000   0.93990887    -3.228823   -1.7328274  0.058288286    -3.228823    1.4959957   413781 
 6161000   0.93866899   -3.2270532   -1.7330021  0.064547998   -3.2270532    1.4940511   413773 
 6162000   0.93939158   -3.2273751    -1.732145  0.057634746   -3.2273751    1.4952301   413765 
 6163000   0.93956178   -3.2271995   -1.7316695  0.064098149   -3.2271995      1.49553   413757 
 6164000   0.94034923   -3.2279342   -1.7311219  0.059163761   -3.2279342    1.4968123   413749 
 6165000   0.94007027   -3.2292903   -1.7328931  0.063311161   -3.2292903    1.4963972   413741 
 6166000   0.94018436   -3.2298265   -1.7332188  0.059512744   -3.2298265    1.4966078   413733 
 6167000    0.9395138   -3.2279539   -1.7323846  0.059450637   -3.2279539    1.4955693   413725 
 6168000   0.93950015   -3.2264258   -1.7308493  0.068436027   -3.2264258    1.4955765   413717 
 6169000    0.9403006   -3.2292589   -1.7323793  0.057606324   -3.2292589    1.4968796   413709 
 6170000   0.93990073   -3.2276585   -1.7313865  0.060716019   -3.2276585     1.496272   413701 
 6171000   0.93903275   -3.2261091     -1.73119  0.065653057   -3.2261091    1.4949191   413693 
 6172000   0.94133927   -3.2285344   -1.7299143  0.061768629   -3.2285344      1.49862   413685 
 6173000   0.93952912   -3.2270132    -1.731246  0.058349955   -3.2270132    1.4957672   413677 
 6174000   0.93870904   -3.2254993   -1.7310088    0.0593073   -3.2254993    1.4944905   413669 
 6175000   0.93897561    -3.225179   -1.7302352  0.059801008    -3.225179    1.4949438   413661 
 6176000   0.93861865   -3.2248749   -1.7304705  0.058498996   -3.2248749    1.4944044   413653 
 6177000   0.93939461   -3.2251298    -1.729461  0.059332474   -3.2251298    1.4956687   413645 
 6178000   0.93904496   -3.2244089    -1.729268  0.065032964   -3.2244089     1.495141   413637 
 6179000    0.9383344   -3.2242316   -1.7301931  0.062777407   -3.2242316    1.4940385   413629 
 6180000   0.93875645     -3.22533   -1.7305906  0.057512885     -3.22533    1.4947394   413621 
 6181000   0.93918427    -3.224936   -1.7294864  0.060805433    -3.224936    1.4954495   413613 
 6182000   0.94022901   -3.2266423   -1.7295003   0.05664452   -3.2266423     1.497142   413605 
 6183000   0.93737925    -3.222115   -1.7294819    0.0600239    -3.222115    1.4926332   413597 
 6184000   0.93902528   -3.2245682    -1.729285  0.060040015   -3.2245682    1.4952831   413589 
 6185000   0.93771237   -3.2242155   -1.7309941  0.054299535   -3.2242155    1.4932214   413581 
 6186000   0.93813728   -3.2242874   -1.7303605  0.062579198   -3.2242874    1.4939269   413573 
 6187000   0.93781261   -3.2248749   -1.7314361  0.060225652   -3.2248749    1.4934388   413565 
 6188000   0.93671014   -3.2236485   -1.7319365   0.05732432   -3.2236485     1.491712   413557 
 6189000   0.93720739   -3.2247891   -1.7322564  0.057135037   -3.2247891    1.4925327   413549 
 6190000   0.93842291   -3.2266676   -1.7321702  0.059247749   -3.2266676    1.4944974   413541 
 6191000   0.93903369    -3.226609     -1.73111  0.063385527    -3.226609     1.495499   413533 
 6192000    0.9392056   -3.2267622   -1.7309605  0.062586843   -3.2267622    1.4958017   413525 
 6193000   0.94007277   -3.2273343   -1.7301225  0.060808983   -3.2273343    1.4972118   413517 
 6194000    0.9395512   -3.2267414   -1.7303314  0.063723315   -3.2267414      1.49641   413509 
 6195000   0.93920793   -3.2260532    -1.730161  0.062614209   -3.2260532    1.4958923   413501 
 6196000   0.93844359   -3.2262531   -1.7315493  0.064714412   -3.2262531    1.4947038   413493 
 6197000   0.93667811    -3.225322   -1.7334013  0.062017342    -3.225322    1.4919207   413485 
 6198000   0.93734275   -3.2261999   -1.7331917  0.063200011   -3.2261999    1.4930082   413477 
 6199000   0.94003036   -3.2301207   -1.7328026  0.056862446   -3.2301207     1.497318   413469 
 6200000   0.93886284   -3.2268563    -1.731369  0.062383809   -3.2268563    1.4954873   413461 
 6201000   0.93881036    -3.228605   -1.7331724  0.059505599    -3.228605    1.4954327   413453 
 6202000   0.93910049   -3.2289517   -1.7330279   0.05482167   -3.2289517    1.4959237   413445 
 6203000     0.938899   -3.2292768   -1.7336451  0.058042229   -3.2292768    1.4956317   413437 
 6204000   0.93931807   -3.2295893   -1.7332611  0.064239148   -3.2295893    1.4963282   413429 
 6205000   0.94029546   -3.2323685   -1.7344543  0.059278683   -3.2323685    1.4979142   413421 
 6206000   0.93950437    -3.229771    -1.733088  0.061149305    -3.229771    1.4966829   413413 
 6207000   0.93823708   -3.2289672   -1.7342742  0.064722857   -3.2289672     1.494693   413405 
 6208000   0.93984369   -3.2308625    -1.733581  0.060030388   -3.2308625    1.4972814   413397 
 6209000   0.93782285   -3.2274821   -1.7333912  0.058359305   -3.2274821    1.4940909   413389 
 6210000    0.9374863    -3.227725   -1.7341414  0.058771628    -3.227725    1.4935837   413381 
 6211000   0.93688593   -3.2268991    -1.734243  0.059626468   -3.2268991     1.492656   413373 
 6212000   0.93889901   -3.2294375   -1.7335452  0.057543424   -3.2294375    1.4958923   413365 
 6213000   0.93760777   -3.2263638   -1.7324999  0.060517969   -3.2263638    1.4938639   413357 
 6214000   0.93938672   -3.2284208   -1.7316935  0.059518272   -3.2284208    1.4967272   413349 
 6215000   0.94026095   -3.2292926   -1.7311435  0.062227357   -3.2292926    1.4981491   413341 
 6216000   0.93830293    -3.226869   -1.7318107  0.058033853    -3.226869    1.4950583   413333 
 6217000   0.93800842   -3.2255359    -1.730918  0.062897141   -3.2255359    1.4946179   413325 
 6218000   0.93850567   -3.2262067   -1.7307675   0.06666901   -3.2262067    1.4954392   413317 
 6219000   0.93859067   -3.2270885   -1.7314848  0.060380536   -3.2270885    1.4956036   413309 
 6220000   0.93929549    -3.227593   -1.7308373  0.059154923    -3.227593    1.4967557   413301 
 6221000   0.93941217    -3.227413   -1.7304424  0.057888488    -3.227413    1.4969706   413293 
 6222000   0.93784128   -3.2249574   -1.7304612  0.060953734   -3.2249574    1.4944963   413285 
 6223000   0.93910035   -3.2252606    -1.728729  0.062421039   -3.2252606    1.4965316   413277 
 6224000   0.93887465   -3.2254276   -1.7292267  0.062770217   -3.2254276    1.4962009   413269 
 6225000   0.93860311   -3.2249186   -1.7291215  0.062361827   -3.2249186    1.4957971   413261 
 6226000   0.94033788   -3.2257452   -1.7271544  0.056865222   -3.2257452    1.4985907   413253 
 6227000   0.93876408   -3.2243405   -1.7282289  0.060792697   -3.2243405    1.4961116   413245 
 6228000   0.93808504   -3.2222558   -1.7271975  0.069404966   -3.2222558    1.4950583   413237 
 6229000    0.9379174   -3.2235662   -1.7287461  0.059452979   -3.2235662    1.4948201   413229 
 6230000   0.93855808   -3.2247273   -1.7288571  0.061363504   -3.2247273    1.4958702   413221 
 6231000   0.93926914   -3.2255933   -1.7285608  0.061183145   -3.2255933    1.4970324   413213 
 6232000    0.9373401   -3.2240272   -1.7300404  0.061079917   -3.2240272    1.4939868   413205 
 6233000   0.93744557   -3.2239675   -1.7297837  0.062010623   -3.2239675    1.4941838   413197 
 6234000   0.93789887     -3.22306   -1.7281247  0.058554385     -3.22306    1.4949353   413189 
 6235000   0.93764566    -3.222785   -1.7282244  0.064044319    -3.222785    1.4945606   413181 
 6236000    0.9378645   -3.2246906   -1.7297522  0.059715114   -3.2246906    1.4949384   413173 
 6237000   0.93822578   -3.2241263   -1.7285831     0.060243   -3.2241263    1.4955432   413165 
 6238000   0.93992975   -3.2263742   -1.7280858  0.059224959   -3.2263742    1.4982884   413157 
 6239000    0.9376186   -3.2236618   -1.7290286  0.058516086   -3.2236618    1.4946333   413149 
 6240000   0.93919074   -3.2255007   -1.7283323  0.057890013   -3.2255007    1.4971683   413141 
 6241000   0.93867075   -3.2250597   -1.7286913  0.061885644   -3.2250597    1.4963684   413133 
 6242000   0.93940524   -3.2248754   -1.7273071  0.058715156   -3.2248754    1.4975683   413125 
 6243000   0.93818825   -3.2241358   -1.7284786  0.061597228   -3.2241358    1.4956572   413117 
 6244000   0.93870506   -3.2257857   -1.7292756  0.058698384   -3.2257857      1.49651   413109 
 6245000   0.93750056   -3.2239035   -1.7292848  0.060801846   -3.2239035    1.4946187   413101 
 6246000   0.93889419   -3.2266718   -1.7298022  0.055971581   -3.2266718    1.4968695   413093 
 6247000   0.93792367   -3.2252018   -1.7298506  0.061888422   -3.2252018    1.4953512   413085 
 6248000   0.93842301   -3.2272185   -1.7310422  0.059161296   -3.2272185    1.4961763   413077 
 6249000   0.93751243   -3.2256902   -1.7309368  0.061837881   -3.2256902    1.4947535   413069 
 6250000   0.93788022   -3.2261895   -1.7308207  0.063086429   -3.2261895    1.4953688   413061 
 6251000   0.93712052   -3.2250217   -1.7308352  0.060232154   -3.2250217    1.4941865   413053 
 6252000   0.93698922   -3.2257187   -1.7317127  0.058330733   -3.2257187    1.4940061   413045 
 6253000   0.93850167   -3.2283832   -1.7319366   0.06112316   -3.2283832    1.4964466   413037 
 6254000   0.93749229   -3.2262657   -1.7313996  0.057786628   -3.2262657    1.4948661   413029 
 6255000   0.93720178   -3.2257353   -1.7313035  0.060658703   -3.2257353    1.4944318   413021 
 6256000   0.93977051   -3.2302641   -1.7317073  0.063859705   -3.2302641    1.4985569   413013 
 6257000   0.93913448   -3.2285972   -1.7310256  0.061175128   -3.2285972    1.4975716   413005 
 6258000   0.93905704   -3.2275003   -1.7300231  0.060392036   -3.2275003    1.4974772   412997 
 6259000   0.93940028   -3.2281951   -1.7301416  0.060602845   -3.2281951    1.4980535   412989 
 6260000    0.9401748   -3.2295059   -1.7301882  0.060955839   -3.2295059    1.4993177   412981 
 6261000   0.94056978    -3.230678   -1.7307014  0.063993898    -3.230678    1.4999766   412973 
 6262000   0.93863259   -3.2268276   -1.7299113  0.067266499   -3.2268276    1.4969163   412965 
 6263000   0.94108974   -3.2314954   -1.7306314  0.066435333   -3.2314954     1.500864   412957 
 6264000   0.93852843   -3.2274409   -1.7306327  0.065186343   -3.2274409    1.4968082   412949 
 6265000   0.93980764   -3.2278323   -1.7289549  0.061922619   -3.2278323    1.4988774   412941 
 6266000   0.93810309    -3.227107   -1.7309192   0.06700056    -3.227107    1.4961878   412933 
 6267000   0.93691685   -3.2251003   -1.7307755  0.062607966   -3.2251003    1.4943248   412925 
 6268000    0.9383863   -3.2287846   -1.7320871  0.060360782   -3.2287846    1.4966975   412917 
 6269000    0.9365988    -3.226151   -1.7322756  0.062723043    -3.226151    1.4938754   412909 
 6270000   0.93644195   -3.2263385   -1.7326843  0.062845739   -3.2263385    1.4936542   412901 
 6271000   0.93704303   -3.2266088   -1.7319669  0.056171297   -3.2266088    1.4946419   412893 
 6272000   0.93682767   -3.2256999   -1.7313725  0.059065699   -3.2256999    1.4943273   412885 
 6273000   0.93662424   -3.2251449   -1.7311132  0.058486611   -3.2251449    1.4940318   412877 
 6274000   0.93780491   -3.2267701   -1.7308261  0.059990115   -3.2267701    1.4959441   412869 
 6275000   0.93723402    -3.224554   -1.7294916  0.060002147    -3.224554    1.4950624   412861 
 6276000   0.93745108   -3.2255967   -1.7301591  0.060788885   -3.2255967    1.4954376   412853 
 6277000   0.93681906   -3.2241664    -1.729708  0.060308337   -3.2241664    1.4944584   412845 
 6278000   0.93867888   -3.2251264   -1.7276722  0.065680426   -3.2251264    1.4974543   412837 
 6279000   0.93734693   -3.2234553   -1.7280968  0.063070227   -3.2234553    1.4953584   412829 
 6280000   0.93862986   -3.2254016   -1.7279675  0.063102726   -3.2254016    1.4974341   412821 
 6281000   0.93832596   -3.2254926   -1.7285143  0.062934923   -3.2254926    1.4969783   412813 
 6282000    0.9375894   -3.2261883   -1.7303561  0.060245918   -3.2261883    1.4958322   412805 
 6283000   0.93574042    -3.222609   -1.7296977  0.060992534    -3.222609    1.4929112   412797 
 6284000   0.93583673   -3.2239803   -1.7308865  0.058290053   -3.2239803    1.4930938   412789 
 6285000   0.93518329   -3.2213193   -1.7292391  0.055618752   -3.2213193    1.4920802   412781 
 6286000   0.93434855   -3.2198639   -1.7290866  0.064050633   -3.2198639    1.4907773   412773 
 6287000   0.93518334   -3.2220692   -1.7299311    0.0552787   -3.2220692    1.4921381   412765 
 6288000   0.93499664   -3.2245191   -1.7326499  0.055037901   -3.2245191    1.4918692   412757 
 6289000   0.93479869   -3.2238244   -1.7322422  0.059790616   -3.2238244    1.4915822   412749 
 6290000   0.93720088   -3.2250833   -1.7296392  0.063282136   -3.2250833    1.4954442   412741 
 6291000   0.93731764   -3.2247278   -1.7290683  0.062727935   -3.2247278    1.4956595   412733 
 6292000   0.93692739   -3.2230373   -1.7279716  0.063195487   -3.2230373    1.4950657   412725 
 6293000   0.93806246   -3.2261292   -1.7292232  0.059635189   -3.2261292     1.496906   412717 
 6294000   0.93875663   -3.2249217    -1.726879  0.057402121   -3.2249217    1.4980428   412709 
 6295000   0.93805536   -3.2246634   -1.7277107   0.06255203   -3.2246634    1.4969527   412701 
 6296000    0.9388099   -3.2267474   -1.7285616  0.056964259   -3.2267474    1.4981858   412693 
 6297000   0.93887536    -3.227501   -1.7291816  0.063374713    -3.227501    1.4983194   412685 
 6298000   0.93809832   -3.2265806   -1.7294722  0.065625727   -3.2265806    1.4971083   412677 
 6299000   0.93792993   -3.2270839   -1.7302153  0.061783819   -3.2270839    1.4968686   412669 
 6300000    0.9373122   -3.2255683   -1.7296565   0.06014001   -3.2255683    1.4959118   412661 
 6301000   0.93770765   -3.2272685   -1.7306966  0.058835297   -3.2272685    1.4965719   412653 
 6302000   0.93914249   -3.2281127   -1.7292217  0.063261912   -3.2281127    1.4988909   412645 
 6303000   0.93721851   -3.2273414   -1.7314921  0.063363895   -3.2273414    1.4958492   412637 
 6304000    0.9365096   -3.2259807   -1.7312339  0.060856739   -3.2259807    1.4947468   412629 
 6305000   0.93810124   -3.2288764   -1.7315602  0.061296354   -3.2288764    1.4973162   412621 
 6306000   0.93763163   -3.2291547   -1.7325591  0.061143027   -3.2291547    1.4965956   412613 
 6307000   0.93627707   -3.2281771   -1.7337146  0.061310771   -3.2281771    1.4944625   412605 
 6308000   0.93643983   -3.2278701   -1.7331188  0.063808799   -3.2278701    1.4947513   412597 
 6309000   0.93533779   -3.2281379   -1.7351167  0.059166898   -3.2281379    1.4930212   412589 
 6310000   0.93565686   -3.2265704   -1.7330109  0.058723391   -3.2265704    1.4935595   412581 
 6311000   0.93644137   -3.2280962   -1.7332554  0.059637666   -3.2280962    1.4948407   412573 
 6312000   0.93742184   -3.2303931   -1.7339582  0.061830871   -3.2303931    1.4964349   412565 
 6313000   0.93572027   -3.2253811   -1.7316335  0.061322491   -3.2253811    1.4937476   412557 
 6314000   0.93768534   -3.2291713   -1.7322578  0.065589753   -3.2291713    1.4969135   412549 
 6315000   0.93810324   -3.2299242   -1.7323145  0.060708044   -3.2299242    1.4976097   412541 
 6316000   0.93746841   -3.2280909   -1.7314656  0.062523751   -3.2280909    1.4966253   412533 
 6317000   0.93948686   -3.2309376   -1.7310608  0.063659882   -3.2309376    1.4998767   412525 
 6318000   0.93687277   -3.2285286   -1.7327963  0.064435681   -3.2285286    1.4957324   412517 
 6319000    0.9378177   -3.2299308   -1.7326608  0.065455102   -3.2299308      1.49727   412509 
 6320000   0.93618636   -3.2282315    -1.733537  0.061288515   -3.2282315    1.4946945   412501 
 6321000   0.93593494   -3.2278416   -1.7335196  0.064686097   -3.2278416    1.4943221   412493 
 6322000   0.93767585   -3.2289473   -1.7318167  0.059407256   -3.2289473    1.4971307   412485 
 6323000   0.93758677   -3.2297657   -1.7327483  0.064556941   -3.2297657    1.4970175   412477 
 6324000    0.9371596   -3.2293897   -1.7330253  0.059675115   -3.2293897    1.4963644   412469 
 6325000   0.93766116   -3.2300844   -1.7328901  0.065234136   -3.2300844    1.4971943   412461 
 6326000   0.93799493   -3.2294711   -1.7317148   0.06275817   -3.2294711    1.4977563   412453 
 6327000   0.93887085   -3.2319891   -1.7328051  0.059583017   -3.2319891     1.499184   412445 
 6328000   0.93844385   -3.2313891   -1.7328579  0.057869616   -3.2313891    1.4985313   412437 
 6329000    0.9366975   -3.2296825   -1.7339108  0.060529472   -3.2296825    1.4957717   412429 
 6330000   0.93675734   -3.2308487   -1.7349525  0.062508518   -3.2308487    1.4958962   412421 
 6331000   0.93570819   -3.2299392   -1.7356894  0.057997342   -3.2299392    1.4942498   412413 
 6332000   0.93725207   -3.2306797   -1.7339354  0.055751827   -3.2306797    1.4967443   412405 
 6333000   0.93625723   -3.2312051   -1.7360205  0.058120041   -3.2312051    1.4951846   412397 
 6334000    0.9360777    -3.230907   -1.7359801  0.056306103    -3.230907    1.4949269   412389 
 6335000   0.93514638    -3.228852   -1.7353834  0.056915234    -3.228852    1.4934686   412381 
 6336000   0.93696609   -3.2302107    -1.733807  0.056096434   -3.2302107    1.4964037   412373 
 6337000    0.9369393   -3.2300622   -1.7336722  0.058142606   -3.2300622      1.49639   412365 
 6338000   0.93645326   -3.2286758    -1.733033  0.060782079   -3.2286758    1.4956427   412357 
 6339000   0.93701866   -3.2287094   -1.7321346  0.061761205   -3.2287094    1.4965748   412349 
 6340000   0.93744392   -3.2310997   -1.7338166   0.06224603   -3.2310997    1.4972831   412341 
 6341000   0.93680825   -3.2306219   -1.7343251  0.063563391   -3.2306219    1.4962968   412333 
 6342000   0.93580478   -3.2297889   -1.7350659  0.063302151   -3.2297889     1.494723   412325 
 6343000    0.9376648   -3.2318408   -1.7341178  0.061451153   -3.2318408     1.497723   412317 
 6344000   0.93504153   -3.2280336   -1.7344717  0.060735206   -3.2280336    1.4935619   412309 
 6345000   0.93483309   -3.2282116   -1.7349537  0.057311405   -3.2282116    1.4932579   412301 
 6346000   0.93731586   -3.2316758    -1.734423  0.061032198   -3.2316758    1.4972528   412293 
 6347000   0.93694512   -3.2325889   -1.7358992  0.057838363   -3.2325889    1.4966896   412285 
 6348000    0.9355768   -3.2300188    -1.735486  0.059330789   -3.2300188    1.4945329   412277 
 6349000   0.93559735   -3.2287902   -1.7341955  0.061831032   -3.2287902    1.4945947   412269 
 6350000   0.93492269   -3.2270371   -1.7334912  0.060487146   -3.2270371    1.4935459   412261 
 6351000   0.93502573   -3.2276862   -1.7339467   0.06110968   -3.2276862    1.4937395   412253 
 6352000   0.93556881   -3.2281282   -1.7334921    0.0560049   -3.2281282    1.4946361   412245 
 6353000   0.93611393   -3.2291786   -1.7336426  0.057765776   -3.2291786     1.495536   412237 
 6354000   0.93630686   -3.2285397   -1.7326664  0.059631675   -3.2285397    1.4958732   412229 
 6355000   0.93553952   -3.2264041   -1.7317278  0.059946856   -3.2264041    1.4946763   412221 
 6356000   0.93608315   -3.2268921   -1.7313182  0.057867896   -3.2268921    1.4955739   412213 
 6357000   0.93545389   -3.2272475     -1.73265   0.06234487   -3.2272475    1.4945975   412205 
 6358000   0.93547097   -3.2275549   -1.7329011  0.059815801   -3.2275549    1.4946538   412197 
 6359000   0.93538469   -3.2276037   -1.7330587  0.057762744   -3.2276037     1.494545   412189 
 6360000   0.93380006   -3.2242223   -1.7321803  0.063681434   -3.2242223     1.492042   412181 
 6361000   0.93573139   -3.2276771   -1.7325202  0.058353101   -3.2276771     1.495157   412173 
 6362000     0.934924   -3.2256683   -1.7317724  0.061028078   -3.2256683    1.4938959   412165 
 6363000   0.93409334   -3.2237595   -1.7311619  0.057732206   -3.2237595    1.4925976   412157 
 6364000   0.93466949   -3.2248874   -1.7313403  0.058292614   -3.2248874    1.4935472   412149 
 6365000   0.93577322   -3.2274578   -1.7321179  0.058563909   -3.2274578    1.4953399   412141 
 6366000   0.93613721   -3.2261363   -1.7301857   0.05951933   -3.2261363    1.4959506   412133 
 6367000   0.93718275   -3.2274088   -1.7297584   0.06047364   -3.2274088    1.4976504   412125 
 6368000    0.9369691   -3.2274509   -1.7301128  0.062235808   -3.2274509    1.4973381   412117 
 6369000   0.93670901   -3.2259996   -1.7290481  0.058581642   -3.2259996    1.4969515   412109 
 6370000   0.93544291   -3.2234769   -1.7285198  0.063347582   -3.2234769    1.4949572   412101 
 6371000   0.93623051   -3.2242141   -1.7279692  0.059765823   -3.2242141    1.4962449   412093 
 6372000   0.93549529   -3.2248528   -1.7297539   0.06088516   -3.2248528    1.4950989   412085 
 6373000    0.9355239   -3.2247767    -1.729603  0.060663841   -3.2247767    1.4951737   412077 
 6374000    0.9352535   -3.2238696    -1.729099   0.05924177   -3.2238696    1.4947705   412069 
 6375000   0.93524084   -3.2240544   -1.7292751   0.06563659   -3.2240544    1.4947793   412061 
 6376000   0.93723652   -3.2268476   -1.7288495  0.058128612   -3.2268476    1.4979981   412053 
 6377000   0.93625738   -3.2272343   -1.7307721   0.06198303   -3.2272343    1.4964622   412045 
 6378000   0.93520387   -3.2235951   -1.7287878  0.054190457   -3.2235951    1.4948073   412037 
 6379000   0.93441403   -3.2225622   -1.7289884  0.060142323   -3.2225622    1.4935738   412029 
 6380000   0.93514176   -3.2245806   -1.7298145  0.058798517   -3.2245806    1.4947661   412021 
 6381000   0.93562678   -3.2262744    -1.730704   0.05649661   -3.2262744    1.4955704   412013 
 6382000   0.93455086   -3.2242049   -1.7303253  0.056142247   -3.2242049    1.4938796   412005 
 6383000   0.93428242   -3.2246934    -1.731214  0.056781519   -3.2246934    1.4934795   411997 
 6384000   0.93483053    -3.226037   -1.7316524  0.053382157    -3.226037    1.4943847   411989 
 6385000    0.9353368   -3.2256495   -1.7304265  0.061408628   -3.2256495     1.495223   411981 
 6386000    0.9346947   -3.2270363   -1.7328108  0.057337754   -3.2270363    1.4942255   411973 
 6387000   0.93506078   -3.2268333   -1.7319936  0.053451403   -3.2268333    1.4948398   411965 
 6388000   0.93451754   -3.2261137   -1.7321134  0.058292305   -3.2261137    1.4940004   411957 
 6389000   0.93553588   -3.2274644    -1.731807  0.061231681   -3.2274644    1.4956574   411949 
 6390000   0.93507321   -3.2274757   -1.7325289  0.059538217   -3.2274757    1.4949468   411941 
 6391000   0.93502806   -3.2259055   -1.7310019   0.06102333   -3.2259055    1.4949036   411933 
 6392000   0.93671465   -3.2284401    -1.730811  0.058584486   -3.2284401    1.4976292   411925 
 6393000   0.93552888   -3.2272328   -1.7314704  0.059018098   -3.2272328    1.4957624   411917 
 6394000   0.93660986   -3.2309421   -1.7334223  0.058080186   -3.2309421    1.4975198   411909 
 6395000   0.93581144   -3.2316172   -1.7353449  0.058197953   -3.2316172    1.4962723   411901 
 6396000    0.9350582   -3.2302909   -1.7351939  0.063068607   -3.2302909     1.495097   411893 
 6397000   0.93510263   -3.2311595   -1.7359624  0.058577309   -3.2311595    1.4951971   411885 
 6398000    0.9347951   -3.2301595   -1.7354252  0.057259349   -3.2301595    1.4947344   411877 
 6399000   0.93407831   -3.2288257   -1.7352085  0.060140764   -3.2288257    1.4936172   411869 
 6400000   0.93407295    -3.228447   -1.7348093  0.063026356    -3.228447    1.4936377   411861 
 6401000   0.93523618   -3.2309882   -1.7354614  0.064981301   -3.2309882    1.4955268   411853 
 6402000    0.9349637   -3.2325171    -1.737397  0.061524416   -3.2325171    1.4951201   411845 
 6403000   0.93424093   -3.2317584    -1.737765  0.063382789   -3.2317584    1.4939933   411837 
 6404000    0.9357058   -3.2321234   -1.7357585  0.063086346   -3.2321234     1.496365   411829 
 6405000   0.93544104   -3.2300461   -1.7340755  0.067462322   -3.2300461    1.4959706   411821 
 6406000   0.93624767   -3.2318096   -1.7345199  0.060375984   -3.2318096    1.4972897   411813 
 6407000   0.93602057    -3.230773   -1.7338174   0.06397254    -3.230773    1.4969556   411805 
 6408000   0.93599774    -3.230784   -1.7338359  0.063409029    -3.230784    1.4969481   411797 
 6409000   0.93653467   -3.2306323   -1.7327963   0.06850812   -3.2306323     1.497836   411789 
 6410000   0.93558554   -3.2308108   -1.7344638  0.058089269   -3.2308108     1.496347   411781 
 6411000   0.93404665   -3.2278769   -1.7339621  0.062910062   -3.2278769    1.4939148   411773 
 6412000    0.9359606   -3.2303387   -1.7333337  0.055219412   -3.2303387    1.4970051   411765 
 6413000   0.93370616   -3.2264293    -1.733001  0.059243682   -3.2264293    1.4934283   411757 
 6414000   0.93354681   -3.2260139   -1.7328115  0.059695405   -3.2260139    1.4932024   411749 
 6415000   0.93507609   -3.2282429   -1.7325653  0.058391701   -3.2282429    1.4956775   411741 
 6416000   0.93471471   -3.2277235    -1.732595  0.055811704   -3.2277235    1.4951285   411733 
 6417000   0.93380045   -3.2251562   -1.7314611  0.063328221   -3.2251562    1.4936952   411725 
 6418000   0.93251251   -3.2234934   -1.7318294  0.058018775   -3.2234934     1.491664   411717 
 6419000   0.93335653   -3.2256315   -1.7325884  0.061829639   -3.2256315    1.4930431   411709 
 6420000    0.9349373   -3.2245774   -1.7289765  0.059676063   -3.2245774    1.4956008   411701 
 6421000   0.93458162   -3.2239497   -1.7288888  0.061484811   -3.2239497    1.4950609   411693 
 6422000    0.9339182   -3.2236829   -1.7296542  0.057991031   -3.2236829    1.4940287   411685 
 6423000   0.93419066   -3.2240902   -1.7295966  0.060787075   -3.2240902    1.4944936   411677 
 6424000   0.93453471   -3.2235297   -1.7284567  0.055305242   -3.2235297     1.495073   411669 
 6425000   0.93453523   -3.2216028   -1.7264999  0.058241249   -3.2216028    1.4951029   411661 
 6426000   0.93577202   -3.2219626   -1.7248519  0.058285326   -3.2219626    1.4971107   411653 
 6427000   0.93403172   -3.2208331   -1.7264776   0.06211897   -3.2208331    1.4943555   411645 
 6428000   0.93508713   -3.2217905   -1.7257174  0.059097146   -3.2217905    1.4960731   411637 
 6429000   0.93541582   -3.2219833   -1.7253552  0.062309467   -3.2219833     1.496628   411629 
 6430000   0.93508549   -3.2207496    -1.724621  0.063387686   -3.2207496    1.4961286   411621 
 6431000   0.93590881   -3.2219845   -1.7245095  0.058562974   -3.2219845     1.497475   411613 
 6432000   0.93476695    -3.221123   -1.7254459  0.059000473    -3.221123    1.4956771   411605 
 6433000   0.93453306   -3.2222857   -1.7269537  0.059376814   -3.2222857    1.4953319   411597 
 6434000   0.93390217   -3.2213715     -1.72702  0.061651421   -3.2213715    1.4943515   411589 
 6435000    0.9331492   -3.2205435   -1.7273678  0.060997467   -3.2205435    1.4931757   411581 
 6436000    0.9328376   -3.2207831    -1.728077  0.054561595   -3.2207831    1.4927061   411573 
 6437000   0.93433161   -3.2232855   -1.7281597  0.055987622   -3.2232855    1.4951258   411565 
 6438000   0.93166761   -3.2199348    -1.729043  0.053202973   -3.2199348    1.4908918   411557 
 6439000   0.93305868    -3.222462    -1.729315  0.054239675    -3.222462    1.4931469   411549 
 6440000   0.93148192   -3.2193474   -1.7286947  0.061966831   -3.2193474    1.4906526   411541 
 6441000   0.93301431   -3.2220107   -1.7288767  0.056880219   -3.2220107     1.493134   411533 
 6442000   0.93454423   -3.2241434    -1.728532  0.057096987   -3.2241434    1.4956114   411525 
 6443000   0.93280707   -3.2215032   -1.7286429  0.056307643   -3.2215032    1.4928603   411517 
 6444000   0.93353024   -3.2217724   -1.7277256  0.058702319   -3.2217724    1.4940467   411509 
 6445000   0.93515274   -3.2263021   -1.7296296  0.055037799   -3.2263021    1.4966725   411501 
 6446000   0.93460186   -3.2249367   -1.7291168  0.058190769   -3.2249367      1.49582   411493 
 6447000   0.93483908   -3.2242202   -1.7279915  0.059101639   -3.2242202    1.4962287   411485 
 6448000   0.93576649   -3.2263141   -1.7285719  0.062118057   -3.2263141    1.4977422   411477 
 6449000   0.93641406    -3.227218   -1.7284103  0.061493464    -3.227218    1.4988078   411469 
 6450000   0.93665332   -3.2292587   -1.7300388  0.058535275   -3.2292587    1.4992199   411461 
 6451000   0.93514764   -3.2260872   -1.7292482   0.06137224   -3.2260872     1.496839   411453 
 6452000   0.93556836   -3.2274853   -1.7299438  0.059671037   -3.2274853    1.4975415   411445 
 6453000   0.93411514   -3.2248659   -1.7296214  0.062581316   -3.2248659    1.4952444   411437 
 6454000   0.93316886   -3.2252898    -1.731531  0.063875216   -3.2252898    1.4937588   411429 
 6455000   0.93417413   -3.2275383   -1.7321413  0.060936154   -3.2275383     1.495397   411421 
 6456000   0.93483582    -3.229469   -1.7329837   0.05576247    -3.229469    1.4964853   411413 
 6457000   0.93412052   -3.2286657   -1.7332963  0.057430936   -3.2286657    1.4953694   411405 
 6458000   0.93340344   -3.2255157   -1.7312652  0.060500972   -3.2255157    1.4942505   411397 
 6459000   0.93232787   -3.2250435   -1.7324858  0.056232237   -3.2250435    1.4925577   411389 
 6460000   0.93448382   -3.2275243   -1.7314861   0.05984863   -3.2275243    1.4960382   411381 
 6461000   0.93299409   -3.2254404   -1.7317581  0.059388751   -3.2254404    1.4936823   411373 
 6462000   0.93365583    -3.227144   -1.7323732  0.054970422    -3.227144    1.4947708   411365 
 6463000   0.93173116   -3.2238102   -1.7320917  0.058937572   -3.2238102    1.4917185   411357 
 6464000   0.93242099   -3.2248226   -1.7319707  0.061645699   -3.2248226    1.4928519   411349 
 6465000   0.93314122    -3.227072   -1.7330379  0.058383175    -3.227072    1.4940341   411341 
 6466000   0.93251084   -3.2260733   -1.7330195  0.059548211   -3.2260733    1.4930538   411333 
 6467000   0.93361179   -3.2247706   -1.7299249  0.059219241   -3.2247706    1.4948457   411325 
 6468000   0.93493889   -3.2265756    -1.729576  0.059086402   -3.2265756    1.4969996   411317 
 6469000    0.9345122   -3.2270462   -1.7307007  0.058498301   -3.2270462    1.4963455   411309 
 6470000   0.93277564   -3.2256508   -1.7320568  0.057322388   -3.2256508     1.493594   411301 
 6471000   0.93250765   -3.2239548   -1.7307609  0.054483033   -3.2239548    1.4931939   411293 
 6472000   0.93338978   -3.2260188   -1.7313833  0.057349069   -3.2260188    1.4946355   411285 
 6473000   0.93213258   -3.2237236   -1.7310722  0.055506596   -3.2237236    1.4926514   411277 
 6474000   0.93258756   -3.2236868   -1.7302777  0.055373856   -3.2236868     1.493409   411269 
 6475000   0.93285298   -3.2243575   -1.7304944  0.058020179   -3.2243575    1.4938631   411261 
 6476000   0.93229412    -3.225403   -1.7324058  0.060840568    -3.225403    1.4929972   411253 
 6477000    0.9319379   -3.2259484   -1.7334926  0.060093757   -3.2259484    1.4924558   411245 
 6478000   0.93223072   -3.2270239   -1.7340701  0.056698062   -3.2270239    1.4929538   411237 
 6479000   0.93228571   -3.2267346   -1.7336637  0.057421519   -3.2267346    1.4930709   411229 
 6480000   0.93139517   -3.2254009   -1.7337272  0.064321477   -3.2254009    1.4916737   411221 
 6481000   0.93286998    -3.225711   -1.7316462  0.059388426    -3.225711    1.4940647   411213 
 6482000   0.93225467   -3.2255943    -1.732486  0.058774331   -3.2255943    1.4931083   411205 
 6483000   0.93277184   -3.2264538   -1.7324881  0.060932721   -3.2264538    1.4939657   411197 
 6484000   0.93375814   -3.2290265    -1.733452  0.061021715   -3.2290265    1.4955745   411189 
 6485000   0.93445487   -3.2289763   -1.7322568  0.061482101   -3.2289763    1.4967195   411181 
 6486000   0.93351694   -3.2270012   -1.7317549  0.057626593   -3.2270012    1.4952463   411173 
 6487000   0.93260213   -3.2264965   -1.7326864  0.064718664   -3.2264965    1.4938101   411165 
 6488000   0.93394965   -3.2281685   -1.7321709  0.063294048   -3.2281685    1.4959976   411157 
 6489000   0.93550967   -3.2294647   -1.7309391  0.059583396   -3.2294647    1.4985256   411149 
 6490000   0.93368337   -3.2269762   -1.7313469  0.063123966   -3.2269762    1.4956293   411141 
 6491000   0.93486162    -3.228651   -1.7311052  0.067569911    -3.228651    1.4975458   411133 
 6492000   0.93375507   -3.2280098   -1.7322074  0.065115627   -3.2280098    1.4958024   411125 
 6493000   0.93337853   -3.2269197   -1.7316914  0.065210541   -3.2269197    1.4952283   411117 
 6494000   0.93400049   -3.2270448    -1.730791  0.059321745   -3.2270448    1.4962538   411109 
 6495000   0.93476642   -3.2293182   -1.7318083  0.060806101   -3.2293182    1.4975099   411101 
 6496000   0.93313197   -3.2274308   -1.7325102  0.061104431   -3.2274308    1.4949206   411093 
 6497000   0.93279324   -3.2259807   -1.7315737  0.063315858   -3.2259807     1.494407   411085 
 6498000   0.93273799   -3.2269783   -1.7326307  0.054926891   -3.2269783    1.4943476   411077 
 6499000   0.93211349   -3.2252467   -1.7318706  0.058767477   -3.2252467    1.4933761   411069 
 6500000   0.93199856   -3.2248761   -1.7316551  0.056935374   -3.2248761     1.493221   411061 
 6501000   0.93199671   -3.2252481   -1.7320009  0.054278662   -3.2252481    1.4932471   411053 
 6502000   0.93197407    -3.224211   -1.7309711  0.060468596    -3.224211    1.4932399   411045 
 6503000   0.93173084    -3.224512   -1.7316327  0.056072111    -3.224512    1.4928793   411037 
 6504000    0.9308764    -3.223796   -1.7322568  0.053967572    -3.223796    1.4915393   411029 
 6505000   0.93163212   -3.2256849   -1.7329057  0.056638501   -3.2256849    1.4927792   411021 
 6506000    0.9323827   -3.2256956   -1.7316846  0.059599159   -3.2256956    1.4940109   411013 
 6507000   0.93168247    -3.224187    -1.731269  0.058063362    -3.224187     1.492918   411005 
 6508000   0.93347281   -3.2266444   -1.7308285  0.063458549   -3.2266444    1.4958159   410997 
 6509000   0.93373713   -3.2263395   -1.7300709  0.055808933   -3.2263395    1.4962686   410989 
 6510000   0.93363542   -3.2256913   -1.7295565  0.057683937   -3.2256913    1.4961347   410981 
 6511000   0.93336104   -3.2253304   -1.7296062  0.057417474   -3.2253304    1.4957242   410973 
 6512000   0.93314337   -3.2248803   -1.7294759  0.063154331   -3.2248803    1.4954045   410965 
 6513000    0.9343652   -3.2272555   -1.7298638  0.060204004   -3.2272555    1.4973916   410957 
 6514000   0.93463102   -3.2260734   -1.7282266  0.062772966   -3.2260734    1.4978468   410949 
 6515000   0.93443786   -3.2272282   -1.7296618  0.059698057   -3.2272282    1.4975664   410941 
 6516000    0.9317542   -3.2225681   -1.7292736  0.059798523   -3.2225681    1.4932945   410933 
 6517000   0.93089308   -3.2225246   -1.7305811  0.061262475   -3.2225246    1.4919435   410925 
 6518000   0.93160735   -3.2231388   -1.7300215  0.056170579   -3.2231388    1.4931173   410917 
 6519000   0.93264488    -3.227963   -1.7331537  0.060363541    -3.227963    1.4948093   410909 
 6520000   0.93364449   -3.2285495    -1.732109  0.056981286   -3.2285495    1.4964406   410901 
 6521000   0.93100132   -3.2240495   -1.7318164  0.065383196   -3.2240495    1.4922332   410893 
 6522000   0.93264684   -3.2272731   -1.7323734  0.061659376   -3.2272731    1.4948997   410885 
 6523000   0.93376939   -3.2285335   -1.7318053  0.057816013   -3.2285335    1.4967282   410877 
 6524000   0.93297065   -3.2280725   -1.7325955   0.05720278   -3.2280725     1.495477   410869 
 6525000   0.93276399    -3.228721   -1.7335461  0.053815479    -3.228721    1.4951749   410861 
 6526000   0.93317372   -3.2294326   -1.7335719  0.058085085   -3.2294326    1.4958608   410853 
 6527000   0.93150201   -3.2276185   -1.7344084  0.056800711   -3.2276185    1.4932101   410845 
 6528000   0.93307959   -3.2292524   -1.7334842  0.055760977   -3.2292524    1.4957681   410837 
 6529000   0.93466783   -3.2302122   -1.7318689  0.058543158   -3.2302122    1.4983433   410829 
 6530000   0.93269112    -3.227143   -1.7319393  0.065069211    -3.227143    1.4952036   410821 
 6531000   0.93372091   -3.2295373   -1.7326536  0.062443867   -3.2295373    1.4968836   410813 
 6532000   0.93369414   -3.2291129    -1.732243  0.059919061   -3.2291129    1.4968699   410805 
 6533000   0.93264315   -3.2288931   -1.7336791  0.062399548   -3.2288931    1.4952141   410797 
 6534000   0.93248888   -3.2285162   -1.7335204  0.062998045   -3.2285162    1.4949958   410789 
 6535000   0.93331818   -3.2296863   -1.7333317  0.066554926   -3.2296863    1.4963546   410781 
 6536000   0.93219474   -3.2292537   -1.7346712  0.056739552   -3.2292537    1.4945825   410773 
 6537000   0.93046649   -3.2276909   -1.7358503  0.061076611   -3.2276909    1.4918407   410765 
 6538000   0.93137641   -3.2289403   -1.7356117  0.063327567   -3.2289403    1.4933286   410757 
 6539000   0.93183537   -3.2291611   -1.7350675  0.058934104   -3.2291611    1.4940936   410749 
 6540000   0.93046658   -3.2266226   -1.7346947  0.064570551   -3.2266226     1.491928   410741 
 6541000   0.93104732   -3.2271067   -1.7342185  0.058948292   -3.2271067    1.4928882   410733 
 6542000   0.93181746   -3.2275616   -1.7334094  0.060398525   -3.2275616    1.4941522   410725 
 6543000   0.93280342    -3.228187   -1.7324247  0.061771613    -3.228187    1.4957623   410717 
 6544000   0.93098646   -3.2260071   -1.7331292  0.062007908   -3.2260071    1.4928779   410709 
 6545000   0.93029044   -3.2255147   -1.7337239   0.05943299   -3.2255147    1.4917908   410701 
 6546000   0.93021488   -3.2246394   -1.7329407  0.059806683   -3.2246394    1.4916987   410693 
 6547000   0.93088248   -3.2250515   -1.7322531  0.064630517   -3.2250515    1.4927984   410685 
 6548000   0.93249523   -3.2271205   -1.7317067  0.054501398   -3.2271205    1.4954137   410677 
 6549000   0.93160169   -3.2255893   -1.7315794  0.062879978   -3.2255893    1.4940099   410669 
 6550000   0.93091104   -3.2243248   -1.7313934   0.05957776   -3.2243248    1.4929314   410661 
 6551000   0.93214841   -3.2290396   -1.7340946  0.057550947   -3.2290396    1.4949449   410653 
 6552000   0.93245323   -3.2284927   -1.7330298  0.059321899   -3.2284927    1.4954629   410645 
 6553000   0.93135289   -3.2241269   -1.7303996  0.060950061   -3.2241269    1.4937273   410637 
 6554000   0.93018531   -3.2240981   -1.7322143  0.053941385   -3.2240981    1.4918838   410629 
 6555000   0.92960419   -3.2224054   -1.7314246  0.061108515   -3.2224054    1.4909808   410621 
 6556000   0.93149195   -3.2259036   -1.7318659  0.058828069   -3.2259036    1.4940377   410613 
 6557000    0.9304783   -3.2240839    -1.731643  0.059867979   -3.2240839    1.4924409   410605 
 6558000   0.93223869   -3.2262199   -1.7309263  0.060321537   -3.2262199    1.4952936   410597 
 6559000   0.93069525   -3.2242801   -1.7314331  0.064168726   -3.2242801    1.4928471   410589 
 6560000   0.93234423   -3.2270213   -1.7315002   0.06530797   -3.2270213    1.4955212   410581 
 6561000   0.93334495   -3.2286612   -1.7315056  0.060993326   -3.2286612    1.4971556   410573 
 6562000   0.93329475   -3.2283056   -1.7312014  0.063248793   -3.2283056    1.4971042   410565 
 6563000   0.93232568   -3.2277495   -1.7321707  0.065086972   -3.2277495    1.4955789   410557 
 6564000   0.93287064   -3.2282606   -1.7317784  0.058178534   -3.2282606    1.4964822   410549 
 6565000   0.93192595    -3.228144   -1.7331481  0.060872421    -3.228144    1.4949959   410541 
 6566000   0.93191453   -3.2278024   -1.7327957  0.058816406   -3.2278024    1.4950067   410533 
 6567000   0.93166816   -3.2271794   -1.7325388  0.061397516   -3.2271794    1.4946406   410525 
 6568000   0.92999811   -3.2272582   -1.7352677  0.062232015   -3.2272582    1.4919905   410517 
 6569000   0.93087316   -3.2280763   -1.7346529  0.057429614   -3.2280763    1.4934234   410509 
 6570000   0.93208714    -3.228808   -1.7334078    0.0558229    -3.228808    1.4954002   410501 
 6571000   0.93063146   -3.2275867   -1.7344928  0.060715822   -3.2275867    1.4930938   410493 
 6572000   0.93242437   -3.2289897   -1.7329902  0.062500025   -3.2289897    1.4959995   410485 
 6573000   0.93139548   -3.2287232   -1.7343453  0.057300853   -3.2287232    1.4943779   410477 
 6574000   0.93129884   -3.2288771   -1.7346251    0.0618444   -3.2288771    1.4942519   410469 
 6575000    0.9324492    -3.229856   -1.7337291  0.066595859    -3.229856    1.4961268   410461 
 6576000   0.93221628   -3.2298769   -1.7340947  0.058672239   -3.2298769    1.4957823   410453 
 6577000   0.93129337   -3.2292378   -1.7349073  0.062141039   -3.2292378    1.4943305   410445 
 6578000   0.93035517   -3.2266793   -1.7338251  0.066769795   -3.2266793    1.4928542   410437 
 6579000   0.93109857   -3.2286257   -1.7345495  0.065095371   -3.2286257    1.4940762   410429 
 6580000   0.93093979   -3.2297182   -1.7358676  0.060057512   -3.2297182    1.4938506   410421 
 6581000   0.92911983   -3.2279783   -1.7370191   0.05971691   -3.2279783    1.4909592   410413 
 6582000   0.93074996   -3.2292323   -1.7356281  0.059691784   -3.2292323    1.4936042   410405 
 6583000   0.93027153   -3.2283592   -1.7354937  0.066345958   -3.2283592    1.4928655   410397 
 6584000   0.93173417   -3.2296711   -1.7344293  0.062865305   -3.2296711    1.4952419   410389 
 6585000   0.93226192   -3.2309683   -1.7348504  0.059659066   -3.2309683    1.4961179   410381 
 6586000   0.93267873    -3.230654    -1.733838  0.061285251    -3.230654     1.496816   410373 
 6587000   0.93236026   -3.2311121    -1.734778  0.057164896   -3.2311121    1.4963341   410365 
 6588000   0.93180115   -3.2305093   -1.7350433  0.058558188   -3.2305093    1.4954659   410357 
 6589000   0.93174983   -3.2303919   -1.7349791  0.060100779   -3.2303919    1.4954127   410349 
 6590000   0.93068164   -3.2303784   -1.7366509  0.063355851   -3.2303784    1.4937275   410341 
 6591000   0.93010681   -3.2294192   -1.7365853  0.059308651   -3.2294192     1.492834   410333 
 6592000   0.93097878   -3.2307846    -1.736522  0.058488228   -3.2307846    1.4942626   410325 
 6593000   0.93155011   -3.2317677   -1.7365589  0.064637715   -3.2317677    1.4952088   410317 
 6594000   0.93218679   -3.2330671   -1.7368072  0.059872041   -3.2330671    1.4962599   410309 
 6595000   0.93162864   -3.2320799   -1.7366867  0.061925751   -3.2320799    1.4953932   410301 
 6596000   0.93278499   -3.2340708   -1.7367923  0.059618675   -3.2340708    1.4972785   410293 
 6597000   0.93133961   -3.2324864   -1.7374988  0.058106543   -3.2324864    1.4949875   410285 
 6598000   0.93011695   -3.2296762   -1.7366222  0.062187223   -3.2296762     1.493054   410277 
 6599000   0.93110235   -3.2305102   -1.7358452  0.061434437   -3.2305102     1.494665   410269 
 6600000   0.93194007   -3.2324417   -1.7364028  0.060584367   -3.2324417    1.4960389   410261 
 6601000   0.93179304   -3.2323252   -1.7364931  0.060284154   -3.2323252     1.495832   410253 
 6602000   0.93152932     -3.23226   -1.7368222  0.063830425     -3.23226    1.4954378   410245 
 6603000   0.93062248   -3.2310622   -1.7370511  0.065056867   -3.2310622    1.4940112   410237 
 6604000   0.92957256   -3.2299066   -1.7375518  0.063922542   -3.2299066    1.4923547   410229 
 6605000   0.93172644   -3.2320912   -1.7362494  0.063970928   -3.2320912    1.4958418   410221 
 6606000   0.93175725   -3.2321255   -1.7362051  0.060644886   -3.2321255    1.4959204   410213 
 6607000   0.93229367    -3.233014   -1.7362031  0.060834191    -3.233014    1.4968108   410205 
 6608000   0.93068872   -3.2295363   -1.7352731  0.065670779   -3.2295363    1.4942632   410197 
 6609000   0.93158956   -3.2306375   -1.7348988  0.064715494   -3.2306375    1.4957387   410189 
 6610000   0.93060058   -3.2296612   -1.7354812  0.060950121   -3.2296612      1.49418   410181 
 6611000   0.92881586   -3.2276422   -1.7362987  0.058210496   -3.2276422    1.4913435   410173 
 6612000   0.93103665   -3.2299249   -1.7349865  0.058439386   -3.2299249    1.4949384   410165 
 6613000   0.93091436   -3.2291146   -1.7343434  0.059984179   -3.2291146    1.4947712   410157 
 6614000   0.93076291   -3.2300002    -1.735443  0.059035291   -3.2300002    1.4945572   410149 
 6615000   0.93082881   -3.2300187   -1.7353266  0.065118487   -3.2300187    1.4946922   410141 
 6616000   0.93019731   -3.2284692   -1.7347619  0.057075196   -3.2284692    1.4937073   410133 
 6617000   0.92939803   -3.2278688   -1.7354159  0.061854593   -3.2278688    1.4924529   410125 
 6618000   0.93005585   -3.2272367   -1.7336983  0.062997804   -3.2272367    1.4935384   410117 
 6619000   0.92856089   -3.2263073   -1.7351405  0.059546355   -3.2263073    1.4911668   410109 
 6620000   0.92917352   -3.2282103   -1.7360306  0.059350181   -3.2282103    1.4921797   410101 
 6621000   0.92901077   -3.2274407   -1.7354933  0.057846917   -3.2274407    1.4919474   410093 
 6622000   0.92887185   -3.2265698   -1.7348164  0.059175591   -3.2265698    1.4917534   410085 
 6623000   0.93014872   -3.2279601   -1.7341268  0.058646556   -3.2279601    1.4938332   410077 
 6624000   0.92967242   -3.2259811   -1.7328837  0.058947678   -3.2259811    1.4930974   410069 
 6625000   0.93060727   -3.2272823   -1.7326543   0.06671317   -3.2272823     1.494628   410061 
 6626000   0.93012409   -3.2261644   -1.7322833  0.058249226   -3.2261644    1.4938811   410053 
 6627000   0.93144501   -3.2292577   -1.7332259  0.062528565   -3.2292577    1.4960318   410045 
 6628000   0.93011595   -3.2274547   -1.7335284  0.063368583   -3.2274547    1.4939263   410037 
 6629000   0.92917402   -3.2270708   -1.7346283  0.059214641   -3.2270708    1.4924425   410029 
 6630000    0.9300032   -3.2277584   -1.7339549   0.05456933   -3.2277584    1.4938035   410021 
 6631000   0.93008752   -3.2291936   -1.7352255  0.059167075   -3.2291936    1.4939681   410013 
 6632000   0.92956689    -3.227167    -1.734006   0.06087863    -3.227167     1.493161   410005 
 6633000   0.92962502   -3.2273364    -1.734053  0.060322535   -3.2273364    1.4932835   409997 
 6634000    0.9298139   -3.2274707   -1.7338546  0.057244112   -3.2274707     1.493616   409989 
 6635000   0.92990427    -3.228265   -1.7344746    0.0625162    -3.228265    1.4937903   409981 
 6636000   0.93131377   -3.2302209   -1.7341371  0.060180742   -3.2302209    1.4960837   409973 
 6637000   0.93126006   -3.2285048   -1.7324782  0.059746607   -3.2285048    1.4960266   409965 
 6638000   0.92916234   -3.2278081   -1.7351222  0.058909048   -3.2278081    1.4926859   409957 
 6639000   0.92862627   -3.2271744   -1.7353206  0.057671704   -3.2271744    1.4918538   409949 
 6640000   0.92967592   -3.2280251   -1.7344558  0.055091576   -3.2280251    1.4935692   409941 
 6641000   0.92928771   -3.2277884   -1.7348137  0.061101242   -3.2277884    1.4929747   409933 
 6642000   0.93046428   -3.2283476   -1.7334534  0.058971386   -3.2283476    1.4948941   409925 
 6643000   0.93058948   -3.2284386   -1.7333142  0.060523857   -3.2284386    1.4951244   409917 
 6644000   0.93150005   -3.2292512   -1.7326346  0.063643549   -3.2292512    1.4966166   409909 
 6645000   0.92966606   -3.2269528   -1.7332536  0.061266797   -3.2269528    1.4936991   409901 
 6646000   0.93132803   -3.2293786     -1.73298  0.064492111   -3.2293786    1.4963986   409893 
 6647000   0.93186022    -3.230736   -1.7334531  0.065293573    -3.230736    1.4972829   409885 
 6648000   0.93056678   -3.2295902   -1.7343563  0.056433943   -3.2295902    1.4952339   409877 
 6649000   0.93128173   -3.2294825   -1.7330706  0.059908204   -3.2294825    1.4964119   409869 
 6650000    0.9295489   -3.2268543   -1.7331977  0.061635197   -3.2268543    1.4936567   409861 
 6651000   0.92892225   -3.2272983   -1.7346194  0.061590775   -3.2272983    1.4926788   409853 
 6652000   0.93036486   -3.2289213   -1.7338952  0.058391087   -3.2289213    1.4950261   409845 
 6653000   0.93089738   -3.2285698   -1.7326588  0.060947636   -3.2285698    1.4959111   409837 
 6654000    0.9299284   -3.2280758   -1.7336927  0.062195908   -3.2280758    1.4943831   409829 
 6655000   0.93078408    -3.229183   -1.7333956  0.054189425    -3.229183    1.4957874   409821 
 6656000   0.92989036   -3.2294729   -1.7350925  0.050925324   -3.2294729    1.4943803   409813 
 6657000    0.9285428   -3.2272445   -1.7350007  0.056453822   -3.2272445    1.4922439   409805 
 6658000   0.92886591   -3.2286924   -1.7359001  0.059540731   -3.2286924    1.4927923   409797 
 6659000   0.92919823   -3.2273873   -1.7340317  0.057407363   -3.2273873    1.4933555   409789 
 6660000   0.92989152   -3.2277796   -1.7332807  0.057308159   -3.2277796    1.4944989   409781 
 6661000   0.92867409   -3.2267581   -1.7341867  0.065318281   -3.2267581    1.4925714   409773 
 6662000   0.92891218    -3.226395   -1.7334118   0.06270968    -3.226395    1.4929832   409765 
 6663000   0.92891599   -3.2283908   -1.7353723  0.055727337   -3.2283908    1.4930185   409757 
 6664000   0.92839666   -3.2280901   -1.7358772  0.056772374   -3.2280901    1.4922129   409749 
 6665000   0.92861022   -3.2254213    -1.732836   0.06396153   -3.2254213    1.4925853   409741 
 6666000   0.92871867   -3.2264573   -1.7336685  0.060388725   -3.2264573    1.4927888   409733 
 6667000   0.93016182   -3.2295535   -1.7344159  0.060906549   -3.2295535    1.4951377   409725 
 6668000   0.93045805   -3.2293392   -1.7336962  0.058880494   -3.2293392     1.495643   409717 
 6669000   0.93057614   -3.2287744   -1.7329124  0.065816908   -3.2287744     1.495862   409709 
 6670000   0.92923048   -3.2279673   -1.7342392  0.062676034   -3.2279673    1.4937281   409701 
 6671000   0.92951837   -3.2277241    -1.733504  0.059538771   -3.2277241    1.4942201   409693 
 6672000   0.93017563   -3.2287561   -1.7334503  0.065105514   -3.2287561    1.4953058   409685 
 6673000    0.9305429   -3.2282604    -1.732335  0.056909054   -3.2282604    1.4959254   409677 
 6674000   0.92942056   -3.2275254    -1.733375  0.058313775   -3.2275254    1.4941504   409669 
 6675000   0.92872411    -3.226889   -1.7338291  0.057606555    -3.226889    1.4930599   409661 
 6676000    0.9267826    -3.225308   -1.7353402  0.062448509    -3.225308    1.4899677   409653 
 6677000   0.92908941    -3.229763   -1.7360575  0.060226797    -3.229763    1.4937055   409645 
 6678000   0.92809773   -3.2281017   -1.7359614  0.056553834   -3.2281017    1.4921403   409637 
 6679000   0.92797524   -3.2263769   -1.7344044  0.059548311   -3.2263769    1.4919725   409629 
 6680000   0.92844449   -3.2270291   -1.7342729  0.058724582   -3.2270291    1.4927561   409621 
 6681000   0.92902133   -3.2294715   -1.7357587  0.052912451   -3.2294715    1.4937127   409613 
 6682000   0.92702476   -3.2267031   -1.7361714  0.056197758   -3.2267031    1.4905317   409605 
 6683000   0.92626796   -3.2264659   -1.7371219  0.055549236   -3.2264659     1.489344   409597 
 6684000   0.92744898   -3.2287004   -1.7374283  0.056283825   -3.2287004     1.491272   409589 
 6685000   0.92683586   -3.2262956   -1.7359803  0.059034949   -3.2262956    1.4903153   409581 
 6686000   0.92830571   -3.2292713   -1.7365634  0.058959074   -3.2292713    1.4927079   409573 
 6687000    0.9277725   -3.2298386    -1.737959  0.055460488   -3.2298386    1.4918797   409565 
 6688000   0.92810088   -3.2295455   -1.7371086  0.058964571   -3.2295455    1.4924369   409557 
 6689000   0.92792976   -3.2287194   -1.7365286  0.061391866   -3.2287194    1.4921908   409549 
 6690000   0.92942262    -3.231142   -1.7365213  0.061257557    -3.231142    1.4946207   409541 
 6691000   0.92964648   -3.2312371   -1.7362273  0.058539577   -3.2312371    1.4950099   409533 
 6692000   0.93077496   -3.2322117   -1.7353578  0.063514321   -3.2322117    1.4968539   409525 
 6693000   0.92989582   -3.2302631   -1.7347938  0.064078036   -3.2302631    1.4954693   409517 
 6694000   0.93165562   -3.2326601   -1.7343314  0.058036796   -3.2326601    1.4983287   409509 
 6695000   0.93038986   -3.2315967   -1.7352745  0.063594305   -3.2315967    1.4963223   409501 
 6696000   0.92860424   -3.2298703   -1.7363906  0.055792982   -3.2298703    1.4934797   409493 
 6697000   0.92768475   -3.2297229   -1.7376929  0.062426238   -3.2297229      1.49203   409485 
 6698000   0.92729779   -3.2289658   -1.7375291  0.057226465   -3.2289658    1.4914368   409477 
 6699000   0.92816484   -3.2301304     -1.73727  0.056580216   -3.2301304    1.4928605   409469 
 6700000   0.92776956   -3.2290711   -1.7368172  0.057205937   -3.2290711    1.4922539   409461 
 6701000   0.92858748   -3.2308572   -1.7372586  0.058033237   -3.2308572    1.4935986   409453 
 6702000   0.92885457   -3.2308828   -1.7368254  0.060835177   -3.2308828    1.4940574   409445 
 6703000   0.92841025   -3.2302114   -1.7368395  0.060643434   -3.2302114    1.4933719   409437 
 6704000   0.92985916   -3.2298425   -1.7341108  0.061248287   -3.2298425    1.4957317   409429 
 6705000   0.92955418    -3.228775   -1.7335046  0.064893955    -3.228775    1.4952704   409421 
 6706000   0.92887545   -3.2285942   -1.7343864  0.058223874   -3.2285942    1.4942078   409413 
 6707000   0.92892747   -3.2298501   -1.7355294  0.057016336   -3.2298501    1.4943206   409405 
 6708000   0.92711823    -3.225252   -1.7338126  0.057186461    -3.225252    1.4914393   409397 
 6709000   0.92561126   -3.2241411   -1.7350969  0.062394798   -3.2241411    1.4890442   409389 
 6710000   0.92695749   -3.2262672   -1.7350282  0.054084894   -3.2262672     1.491239   409381 
 6711000   0.92747908   -3.2263238   -1.7342165  0.062119788   -3.2263238    1.4921073   409373 
 6712000   0.92867765   -3.2259221   -1.7318574  0.058754451   -3.2259221    1.4940648   409365 
 6713000   0.92756039   -3.2251443   -1.7328479  0.055485272   -3.2251443    1.4922964   409357 
 6714000   0.92566314   -3.2233058   -1.7340326  0.059606914   -3.2233058    1.4892732   409349 
 6715000    0.9294272   -3.2305369   -1.7351786  0.056129181   -3.2305369    1.4953583   409341 
 6716000   0.92804737   -3.2276431   -1.7344756  0.059127625   -3.2276431    1.4931675   409333 
 6717000   0.92731692   -3.2263808   -1.7343594  0.064616276   -3.2263808    1.4920214   409325 
 6718000   0.92840789   -3.2266617   -1.7328558  0.063086795   -3.2266617    1.4938059   409317 
 6719000   0.92900004   -3.2272592   -1.7324713   0.05950713   -3.2272592    1.4947879   409309 
 6720000   0.92864581   -3.2270599   -1.7328128  0.060943005   -3.2270599    1.4942471   409301 
 6721000   0.92909755   -3.2287042    -1.733701  0.062921891   -3.2287042    1.4950032   409293 
 6722000   0.92789344    -3.226038   -1.7329431  0.059290926    -3.226038    1.4930949   409285 
 6723000    0.9305115   -3.2312313   -1.7338944  0.061877159   -3.2312313    1.4973369   409277 
 6724000    0.9280823    -3.227759   -1.7343019  0.064388232    -3.227759    1.4934572   409269 
 6725000   0.92804593   -3.2270469    -1.733619  0.058519115   -3.2270469    1.4934278   409261 
 6726000    0.9276181    -3.228474   -1.7357055  0.060054486    -3.228474    1.4927685   409253 
 6727000   0.92801759   -3.2295025   -1.7360619   0.05885461   -3.2295025    1.4934406   409245 
 6728000   0.92794019    -3.229333   -1.7359878   0.06135096    -3.229333    1.4933452   409237 
 6729000   0.92817344   -3.2312124   -1.7374626  0.057133556   -3.2312124    1.4937498   409229 
 6730000   0.92670458   -3.2287654   -1.7373503  0.058675127   -3.2287654    1.4914151   409221 
 6731000   0.92687513   -3.2286783   -1.7369596  0.057635871   -3.2286783    1.4917187   409213 
 6732000   0.92726309    -3.229417   -1.7370448  0.054371238    -3.229417    1.4923723   409205 
 6733000   0.92846734   -3.2308288   -1.7364891  0.057797546   -3.2308288    1.4943397   409197 
 6734000   0.92937947   -3.2321035   -1.7362665   0.05834013   -3.2321035     1.495837   409189 
 6735000   0.92822098   -3.2308848   -1.7368833  0.061157901   -3.2308848    1.4940016   409181 
 6736000   0.92766776    -3.228561   -1.7354207   0.06719671    -3.228561    1.4931403   409173 
 6737000   0.92931612   -3.2312506   -1.7354278  0.062576966   -3.2312506    1.4958227   409165 
 6738000   0.92839743   -3.2308102    -1.736437  0.060998056   -3.2308102    1.4943732   409157 
 6739000   0.92779986   -3.2297039   -1.7362634  0.056609359   -3.2297039    1.4934406   409149 
 6740000   0.92776667   -3.2294033    -1.735987  0.062974876   -3.2294033    1.4934163   409141 
 6741000   0.92882841   -3.2310432   -1.7358886  0.061022607   -3.2310432    1.4951546   409133 
 6742000   0.92831499   -3.2296295   -1.7352722  0.066614134   -3.2296295    1.4943574   409125 
 6743000   0.92835276   -3.2298485   -1.7354011  0.059458318   -3.2298485    1.4944474   409117 
 6744000   0.92769859   -3.2284047   -1.7349812  0.063068331   -3.2284047    1.4934236   409109 
 6745000   0.92949006    -3.231243   -1.7349062  0.065494385    -3.231243    1.4963367   409101 
 6746000    0.9276894   -3.2282069   -1.7347398  0.065550743   -3.2282069    1.4934672   409093 
 6747000   0.92795839   -3.2295951   -1.7356657  0.060483083   -3.2295951    1.4939294   409085 
 6748000    0.9269228   -3.2289404    -1.736649  0.060002407   -3.2289404    1.4922914   409077 
 6749000   0.92659049   -3.2282329   -1.7364473  0.057836252   -3.2282329    1.4917856   409069 
 6750000   0.92488754   -3.2250127   -1.7359397  0.059740908   -3.2250127     1.489073   409061 
 6751000   0.92679132   -3.2275539   -1.7353866  0.054899291   -3.2275539    1.4921673   409053 
 6752000   0.92771272   -3.2280792   -1.7343993  0.053830826   -3.2280792      1.49368   409045 
 6753000   0.92766799   -3.2266111    -1.732974  0.057467336   -3.2266111    1.4936372   409037 
 6754000   0.92774958   -3.2259201   -1.7321224  0.061745632   -3.2259201    1.4937977   409029 
 6755000   0.92779781   -3.2269749   -1.7330703    0.0639765   -3.2269749    1.4939046   409021 
 6756000    0.9292505   -3.2291722   -1.7328993  0.060208939   -3.2291722    1.4962729   409013 
 6757000   0.92883112   -3.2273143   -1.7316873   0.06646655   -3.2273143    1.4956269   409005 
 6758000   0.92880428    -3.227017   -1.7314041  0.063534653    -3.227017     1.495613   408997 
 6759000   0.92931493    -3.227321   -1.7308565   0.06082418    -3.227321    1.4964645   408989 
 6760000   0.92782656   -3.2253818   -1.7312848  0.058019458   -3.2253818     1.494097   408981 
 6761000   0.92926025   -3.2276079   -1.7311729  0.059582443   -3.2276079     1.496435   408973 
 6762000   0.92716046   -3.2269131   -1.7338303  0.056277001   -3.2269131    1.4930828   408965 
 6763000   0.92730106   -3.2271939   -1.7338555  0.060548773   -3.2271939    1.4933384   408957 
 6764000    0.9271896   -3.2260988   -1.7329107  0.057670718   -3.2260988    1.4931881   408949 
 6765000   0.92775316   -3.2269102   -1.7327852  0.060420106   -3.2269102     1.494125   408941 
 6766000   0.92736969   -3.2265523   -1.7330157  0.054464729   -3.2265523    1.4935366   408933 
 6767000   0.92773394   -3.2280518   -1.7338994  0.054474216   -3.2280518    1.4941525   408925 
 6768000   0.92773276   -3.2280206   -1.7338408  0.058797541   -3.2280206    1.4941798   408917 
 6769000   0.92828759   -3.2276575   -1.7325549  0.059543609   -3.2276575    1.4951026   408909 
 6770000   0.92604615   -3.2257164   -1.7341946  0.063556967   -3.2257164    1.4915217   408901 
 6771000   0.92791631   -3.2275108   -1.7329477   0.05687521   -3.2275108    1.4945631   408893 
 6772000    0.9284603   -3.2280711   -1.7326025  0.058588338   -3.2280711    1.4954686   408885 
 6773000   0.92825036    -3.227747   -1.7325873   0.06113798    -3.227747    1.4951597   408877 
 6774000   0.92814765   -3.2271408   -1.7321173  0.061444876   -3.2271408    1.4950235   408869 
 6775000   0.92606141   -3.2248324   -1.7331402  0.062132688   -3.2248324    1.4916922   408861 
 6776000   0.92860922   -3.2288535    -1.733028  0.056340621   -3.2288535    1.4958255   408853 
 6777000    0.9276599   -3.2273077   -1.7329821  0.063668815   -3.2273077    1.4943256   408845 
 6778000   0.92679029   -3.2274281   -1.7344742  0.066022523   -3.2274281     1.492954   408837 
 6779000   0.92722575   -3.2292731   -1.7355884  0.057414811   -3.2292731    1.4936847   408829 
 6780000   0.92687182   -3.2292444   -1.7361007  0.056059565   -3.2292444    1.4931437   408821 
 6781000   0.92710084   -3.2288501   -1.7353082  0.058055072   -3.2288501    1.4935419   408813 
 6782000   0.92675812   -3.2271162   -1.7340972  0.061407943   -3.2271162     1.493019   408805 
 6783000   0.92776699   -3.2276477   -1.7329741  0.062362125   -3.2276477    1.4946735   408797 
 6784000   0.92788504   -3.2285758   -1.7336829  0.062985209   -3.2285758     1.494893   408789 
 6785000    0.9281446   -3.2282811   -1.7329407  0.063400788   -3.2282811    1.4953404   408781 
 6786000   0.92866481    -3.227213   -1.7310052  0.063880056    -3.227213    1.4962078   408773 
 6787000   0.92998672   -3.2302916   -1.7319247  0.061769263   -3.2302916    1.4983669   408765 
 6788000   0.92990566   -3.2305036   -1.7322379  0.063089696   -3.2305036    1.4982656   408757 
 6789000   0.92812863   -3.2284297    -1.732998  0.060705764   -3.2284297    1.4954318   408749 
 6790000   0.92834951   -3.2279913   -1.7321743  0.060310526   -3.2279913    1.4958169   408741 
 6791000   0.92738896   -3.2259391   -1.7316406   0.06552054   -3.2259391    1.4942985   408733 
 6792000   0.92752684   -3.2247865   -1.7302366  0.057609965   -3.2247865    1.4945499   408725 
 6793000   0.92573126   -3.2219572   -1.7302714  0.065415125   -3.2219572    1.4916858   408717 
 6794000   0.92751607   -3.2254777   -1.7308866   0.06414405   -3.2254777     1.494591   408709 
 6795000   0.92826565   -3.2266412    -1.730813  0.059924623   -3.2266412    1.4958282   408701 
 6796000   0.92566729   -3.2235561   -1.7318858  0.064695804   -3.2235561    1.4916703   408693 
 6797000   0.92862317   -3.2275535   -1.7310906  0.052660618   -3.2275535    1.4964629   408685 
 6798000   0.92726025   -3.2253505   -1.7310547  0.061135797   -3.2253505    1.4942958   408677 
 6799000   0.92546964   -3.2236424    -1.732203  0.056785489   -3.2236424    1.4914394   408669 
 6800000   0.92555346   -3.2230572   -1.7314536  0.057160266   -3.2230572    1.4916037   408661 
 6801000   0.92484574   -3.2237878   -1.7332955  0.054503794   -3.2237878    1.4904923   408653 
 6802000    0.9251424   -3.2240038   -1.7330042  0.054522926   -3.2240038    1.4909996   408645 
 6803000   0.92727218   -3.2270601   -1.7325988  0.059701155   -3.2270601    1.4944613   408637 
 6804000   0.92602521   -3.2244468    -1.731966  0.055104931   -3.2244468    1.4924808   408629 
 6805000   0.92701222    -3.225105   -1.7310041  0.059566549    -3.225105    1.4941008   408621 
 6806000   0.92604183   -3.2229586   -1.7303926  0.057672066   -3.2229586     1.492566   408613 
 6807000   0.92707728    -3.224625   -1.7303608  0.063843814    -3.224625    1.4942642   408605 
 6808000   0.92798697   -3.2256036   -1.7298439  0.060408635   -3.2256036    1.4957597   408597 
 6809000   0.92983631   -3.2268773   -1.7281074  0.059375767   -3.2268773    1.4987699   408589 
 6810000   0.92860301   -3.2265425   -1.7297312  0.066050089   -3.2265425    1.4968113   408581 
 6811000   0.92825566   -3.2276081   -1.7313274  0.062056341   -3.2276081    1.4962807   408573 
 6812000   0.92882894   -3.2265371    -1.729303  0.059678883   -3.2265371    1.4972341   408565 
 6813000   0.92813581   -3.2259325   -1.7297864  0.062258304   -3.2259325    1.4961461   408557 
 6814000   0.92799375   -3.2270834    -1.731137  0.055597233   -3.2270834    1.4959464   408549 
 6815000   0.92955192   -3.2297769   -1.7312894  0.055918679   -3.2297769    1.4984875   408541 
 6816000   0.92715068   -3.2266211   -1.7319752  0.059617198   -3.2266211    1.4946459   408533 
 6817000   0.92641578   -3.2266041   -1.7331137   0.06212172   -3.2266041    1.4934904   408525 
 6818000   0.92740056   -3.2279758   -1.7328685  0.058855179   -3.2279758    1.4951073   408517 
 6819000   0.92655441   -3.2265027   -1.7327303  0.060149574   -3.2265027    1.4937724   408509 
 6820000   0.92608352   -3.2247248   -1.7316823  0.062951279   -3.2247248    1.4930425   408501 
 6821000   0.92687431   -3.2261501   -1.7318034  0.063364648   -3.2261501    1.4943467   408493 
 6822000   0.92738803   -3.2266469   -1.7314427  0.062506931   -3.2266469    1.4952042   408485 
 6823000    0.9262522   -3.2249962    -1.731594  0.057714282   -3.2249962    1.4934022   408477 
 6824000    0.9250464   -3.2237433   -1.7322561  0.066549508   -3.2237433    1.4914873   408469 
 6825000   0.92795679   -3.2275376   -1.7313285  0.060382111   -3.2275376    1.4962091   408461 
 6826000   0.92780979   -3.2262724   -1.7302711  0.061951041   -3.2262724    1.4960014   408453 
 6827000   0.92787728   -3.2255092   -1.7293697  0.063131081   -3.2255092    1.4961395   408445 
 6828000     0.929015   -3.2277505   -1.7297471  0.060580247   -3.2277505    1.4980033   408437 
 6829000    0.9294486   -3.2272082   -1.7284764  0.062205075   -3.2272082    1.4987318   408429 
 6830000    0.9282563    -3.227542   -1.7307034  0.061516882    -3.227542    1.4968386   408421 
 6831000   0.92884021   -3.2265228   -1.7287133  0.059549307   -3.2265228    1.4978095   408413 
 6832000   0.92755548   -3.2248119   -1.7290448  0.061902349   -3.2248119    1.4957671   408405 
 6833000   0.92646373   -3.2231842   -1.7291484  0.058346487   -3.2231842    1.4940358   408397 
 6834000   0.92662605   -3.2256667   -1.7313398  0.059290645   -3.2256667    1.4943269   408389 
 6835000   0.92705399   -3.2251059   -1.7300596  0.060712478   -3.2251059    1.4950463   408381 
 6836000   0.92711726   -3.2254981   -1.7303205  0.061220043   -3.2254981    1.4951776   408373 
 6837000   0.92605566   -3.2237435   -1.7302487  0.056921223   -3.2237435    1.4934948   408365 
 6838000   0.92606806   -3.2236389   -1.7300948  0.060323521   -3.2236389     1.493544   408357 
 6839000   0.92682101    -3.224157   -1.7293693  0.061153127    -3.224157    1.4947877   408349 
 6840000   0.92524288   -3.2221615   -1.7298899  0.058311878   -3.2221615    1.4922717   408341 
 6841000   0.92506766   -3.2211442   -1.7291259  0.057493988   -3.2211442    1.4920183   408333 
 6842000   0.92709616   -3.2244566   -1.7291373  0.060056411   -3.2244566    1.4953193   408325 
 6843000   0.92617783   -3.2237315    -1.729864   0.05772944   -3.2237315    1.4938674   408317 
 6844000   0.92642588    -3.224488   -1.7301913  0.059484875    -3.224488    1.4942968   408309 
 6845000   0.92638154   -3.2253655   -1.7311109  0.061159529   -3.2253655    1.4942545   408301 
 6846000   0.92547598   -3.2243151    -1.731492  0.059357925   -3.2243151    1.4928231   408293 
 6847000   0.92615612   -3.2246372   -1.7306877  0.060433731   -3.2246372    1.4939495   408285 
 6848000   0.92563893   -3.2260742   -1.7329297  0.057317543   -3.2260742    1.4931445   408277 
 6849000   0.92532796   -3.2250953   -1.7324232  0.055927018   -3.2250953    1.4926721   408269 
 6850000   0.92667512   -3.2252404   -1.7303659  0.060889306   -3.2252404    1.4948745   408261 
 6851000   0.92535327     -3.22596   -1.7331886  0.062061616     -3.22596    1.4927714   408253 
 6852000   0.92476785   -3.2256693   -1.7338131  0.060407653   -3.2256693    1.4918563   408245 
 6853000    0.9261031    -3.228743   -1.7347034  0.059713874    -3.228743    1.4940396   408237 
 6854000   0.92613313   -3.2300522   -1.7359349  0.055740827   -3.2300522    1.4941173   408229 
 6855000   0.92732601   -3.2304076   -1.7343365  0.060268572   -3.2304076    1.4960711   408221 
 6856000   0.92578963   -3.2275596   -1.7339379  0.060569455   -3.2275596    1.4936217   408213 
 6857000   0.92725121   -3.2302662   -1.7342572  0.057422089   -3.2302662     1.496009   408205 
 6858000   0.92502639   -3.2273963   -1.7349475  0.062541992   -3.2273963    1.4924488   408197 
 6859000    0.9264058   -3.2295399   -1.7348363  0.058786043   -3.2295399    1.4947037   408189 
 6860000   0.92627824   -3.2306565   -1.7361293  0.054784754   -3.2306565    1.4945271   408181 
 6861000   0.92701736   -3.2311969   -1.7354478  0.060129577   -3.2311969     1.495749   408173 
 6862000   0.92755042    -3.231029   -1.7343906  0.063534528    -3.231029    1.4966384   408165 
 6863000   0.92714152   -3.2302937   -1.7342857   0.06423386   -3.2302937     1.496008   408157 
 6864000   0.92749291   -3.2297715   -1.7331672  0.063123931   -3.2297715    1.4966043   408149 
 6865000   0.92775671   -3.2296269   -1.7325675   0.06119834   -3.2296269    1.4970593   408141 
 6866000   0.92587583   -3.2274885   -1.7334349  0.064325445   -3.2274885    1.4940536   408133 
 6867000   0.92661715   -3.2289519   -1.7336728  0.062782708   -3.2289519    1.4952791   408125 
 6868000    0.9265729   -3.2275588   -1.7323218  0.066771922   -3.2275588     1.495237   408117 
 6869000   0.92577818   -3.2259635   -1.7319797  0.060751352   -3.2259635    1.4939838   408109 
 6870000    0.9263822   -3.2276728   -1.7326849  0.058288712   -3.2276728    1.4949879   408101 
 6871000   0.92652456   -3.2267975   -1.7315506   0.06272205   -3.2267975    1.4952469   408093 
 6872000   0.92678129   -3.2260103   -1.7303197  0.060408872   -3.2260103    1.4956906   408085 
 6873000   0.92576629   -3.2250899   -1.7310081  0.063149305   -3.2250899    1.4940818   408077 
 6874000    0.9262877   -3.2251474   -1.7301948  0.066371527   -3.2251474    1.4949526   408069 
 6875000   0.92530141   -3.2247975   -1.7314074  0.066701155   -3.2247975    1.4933901   408061 
 6876000   0.92676088   -3.2259374   -1.7301625   0.05940619   -3.2259374    1.4957749   408053 
 6877000   0.92563567    -3.222283   -1.7282949  0.064650428    -3.222283    1.4939882   408045 
 6878000   0.92483279   -3.2209243   -1.7282027  0.062088706   -3.2209243    1.4927216   408037 
 6879000   0.92607108   -3.2232307   -1.7284811  0.057420908   -3.2232307    1.4947495   408029 
 6880000   0.92447336    -3.221205   -1.7290051  0.057910273    -3.221205    1.4921999   408021 
 6881000   0.92587269   -3.2245394   -1.7300515  0.061779872   -3.2245394    1.4944879   408013 
 6882000   0.92462747   -3.2229772     -1.73047  0.056940693   -3.2229772    1.4925072   408005 
 6883000   0.92433692   -3.2210479   -1.7289804  0.057062994   -3.2210479    1.4920675   407997 
 6884000   0.92384699   -3.2203378   -1.7290319  0.053243649   -3.2203378    1.4913059   407989 
 6885000   0.92485922   -3.2224584   -1.7294893  0.056639655   -3.2224584    1.4929691   407981 
 6886000   0.92731719   -3.2259185   -1.7289522  0.050439874   -3.2259185    1.4969663   407973 
 6887000   0.92434607   -3.2225507   -1.7303514  0.059614422   -3.2225507    1.4921993   407965 
 6888000   0.92482787   -3.2229443    -1.729938  0.054606573   -3.2229443    1.4930063   407957 
 6889000    0.9254675   -3.2233195   -1.7292513  0.063329214   -3.2233195    1.4940682   407949 
 6890000   0.92509042   -3.2230327    -1.729544  0.060638023   -3.2230327    1.4934888   407941 
 6891000   0.92454345   -3.2218292   -1.7291942  0.059893075   -3.2218292     1.492635   407933 
 6892000   0.92572081   -3.2229622   -1.7283971  0.055291446   -3.2229622    1.4945651   407925 
 6893000   0.92651761   -3.2248824   -1.7290015  0.055963244   -3.2248824    1.4958809   407917 
 6894000   0.92614378   -3.2239537   -1.7286471  0.060479442   -3.2239537    1.4953066   407909 
 6895000   0.92524519   -3.2235227   -1.7296376  0.059881411   -3.2235227    1.4938851   407901 
 6896000   0.92443228   -3.2231901   -1.7305883  0.060002871   -3.2231901    1.4926019   407893 
 6897000   0.92561016   -3.2270285   -1.7324955  0.053454661   -3.2270285     1.494533   407885 
 6898000    0.9253308   -3.2260211   -1.7319098  0.057333078   -3.2260211    1.4941112   407877 
 6899000   0.92437507    -3.223512   -1.7309147  0.063148534    -3.223512    1.4925973   407869 
 6900000   0.92626854   -3.2266708   -1.7309867  0.061557664   -3.2266708    1.4956841   407861 
 6901000   0.92638434   -3.2273966   -1.7314962  0.060455825   -3.2273966    1.4959004   407853 
 6902000   0.92564018   -3.2271947   -1.7324666  0.059754067   -3.2271947    1.4947281   407845 
 6903000   0.92517543   -3.2267291   -1.7327222  0.062895519   -3.2267291    1.4940069   407837 
 6904000    0.9253205   -3.2271684   -1.7328979  0.062054324   -3.2271684    1.4942705   407829 
 6905000   0.92482701   -3.2261593   -1.7326565  0.062421846   -3.2261593    1.4935028   407821 
 6906000   0.92494097   -3.2267927   -1.7330766  0.063459191   -3.2267927    1.4937162   407813 
 6907000   0.92576465   -3.2297088   -1.7346332  0.058275318   -3.2297088    1.4950757   407805 
 6908000   0.92455015   -3.2278392   -1.7346956  0.059365939   -3.2278392    1.4931436   407797 
 6909000   0.92616329   -3.2301758   -1.7343977  0.062429953   -3.2301758    1.4957782   407789 
 6910000   0.92611784   -3.2305449   -1.7348108  0.061662652   -3.2305449    1.4957341   407781 
 6911000   0.92542728   -3.2309633   -1.7363152  0.058707793   -3.2309633    1.4946481   407773 
 6912000    0.9259647    -3.230812   -1.7352665  0.058103036    -3.230812    1.4955454   407765 
 6913000   0.92609467   -3.2319426   -1.7361578  0.057556222   -3.2319426    1.4957847   407757 
 6914000   0.92426409   -3.2303038   -1.7374464  0.061152936   -3.2303038    1.4928573   407749 
 6915000   0.92419441   -3.2292794   -1.7365053  0.058680701   -3.2292794    1.4927741   407741 
 6916000   0.92603268   -3.2315455   -1.7357728  0.061395211   -3.2315455    1.4957726   407733 
 6917000   0.92516023   -3.2309023   -1.7365096  0.057553063   -3.2309023    1.4943927   407725 
 6918000   0.92458365   -3.2295424   -1.7360517  0.060436292   -3.2295424    1.4934907   407717 
 6919000   0.92445346   -3.2303305   -1.7370208  0.054805319   -3.2303305    1.4933097   407709 
 6920000   0.92571356   -3.2314045     -1.73603  0.061665047   -3.2314045    1.4953745   407701 
 6921000   0.92510719   -3.2300497   -1.7356254  0.060741963   -3.2300497    1.4944243   407693 
 6922000   0.92577321   -3.2322942   -1.7367646  0.059231731   -3.2322942    1.4955296   407685 
 6923000   0.92590128   -3.2322852   -1.7365193   0.05867051   -3.2322852    1.4957658   407677 
 6924000   0.92416105    -3.231101   -1.7381172   0.05995939    -3.231101    1.4929838   407669 
 6925000   0.92479378   -3.2308382   -1.7368029  0.060688878   -3.2308382    1.4940353   407661 
 6926000   0.92442592   -3.2297361   -1.7362658  0.056650897   -3.2297361    1.4934703   407653 
 6927000   0.92365152    -3.229433   -1.7371845  0.063109298    -3.229433    1.4922485   407645 
 6928000    0.9240735   -3.2300207   -1.7370611  0.061671181   -3.2300207    1.4929596   407637 
 6929000   0.92476301   -3.2319869    -1.737884  0.059976979   -3.2319869    1.4941029   407629 
 6930000   0.92229422   -3.2286584    -1.738515  0.060628679   -3.2286584    1.4901434   407621 
 6931000    0.9233387   -3.2317259   -1.7398656  0.058451428   -3.2317259    1.4918603   407613 
 6932000   0.92389508   -3.2303818   -1.7375933  0.063651118   -3.2303818    1.4927885   407605 
 6933000   0.92395289   -3.2308012     -1.73789  0.062140662   -3.2308012    1.4929112   407597 
 6934000   0.92342091   -3.2301284   -1.7380474  0.063949001   -3.2301284    1.4920809   407589 
 6935000   0.92425273   -3.2313549   -1.7379006    0.0621058   -3.2313549    1.4934543   407581 
 6936000   0.92341059   -3.2299077   -1.7377849   0.05863136   -3.2299077    1.4921228   407573 
 6937000   0.92404164   -3.2303397   -1.7371678  0.059860068   -3.2303397    1.4931719   407565 
 6938000   0.92391569   -3.2314261   -1.7384285  0.062352965   -3.2314261    1.4929976   407557 
 6939000   0.92335919   -3.2306167   -1.7384891  0.063839203   -3.2306167    1.4921276   407549 
 6940000    0.9243106   -3.2313988   -1.7377044  0.061451842   -3.2313988    1.4936944   407541 
 6941000   0.92394848   -3.2293287   -1.7361902  0.061632525   -3.2293287    1.4931385   407533 
 6942000   0.92475373   -3.2320575   -1.7375883   0.05743356   -3.2320575    1.4944692   407525 
 6943000    0.9248928   -3.2313328   -1.7366096  0.061859671   -3.2313328    1.4947233   407517 
 6944000   0.92538413   -3.2314888   -1.7359421  0.060987561   -3.2314888    1.4955467   407509 
 6945000   0.92446052   -3.2314627   -1.7373793  0.057235269   -3.2314627    1.4940833   407501 
 6946000   0.92421241   -3.2309504   -1.7372387  0.058686829   -3.2309504    1.4937117   407493 
 6947000   0.92409828   -3.2299597   -1.7364032  0.060911828   -3.2299597    1.4935565   407485 
 6948000   0.92405196   -3.2296673   -1.7361563  0.062096901   -3.2296673     1.493511   407477 
 6949000   0.92406055   -3.2295558   -1.7360016  0.060758354   -3.2295558    1.4935542   407469 
 6950000   0.92478221   -3.2302804   -1.7355305  0.061984133   -3.2302804      1.49475   407461 
 6951000   0.92308937   -3.2293132   -1.7372701  0.061303861   -3.2293132    1.4920431   407453 
 6952000   0.92440861   -3.2323285   -1.7381237  0.054402569   -3.2323285    1.4942048   407445 
 6953000   0.92391766   -3.2300892   -1.7366487  0.062212628   -3.2300892    1.4934405   407437 
 6954000   0.92395619   -3.2296416   -1.7361095  0.064160908   -3.2296416    1.4935321   407429 
 6955000   0.92534855   -3.2320625   -1.7362503  0.059051581   -3.2320625    1.4958122   407421 
 6956000   0.92299817   -3.2286774   -1.7366353  0.066083836   -3.2286774    1.4920421   407413 
 6957000   0.92551846   -3.2309096    -1.734764  0.061950947   -3.2309096    1.4961456   407405 
 6958000   0.92261923   -3.2287917   -1.7373036  0.057780097   -3.2287917    1.4914881   407397 
 6959000   0.92314286    -3.228685   -1.7363211  0.062078207    -3.228685    1.4923639   407389 
 6960000   0.92416444     -3.22943   -1.7353852  0.056639857     -3.22943    1.4940448   407381 
 6961000   0.92381352   -3.2279021   -1.7343953   0.05672256   -3.2279021    1.4935068   407373 
 6962000   0.92358697     -3.22667   -1.7335001  0.058456585     -3.22667    1.4931699   407365 
 6963000   0.92437244   -3.2268605   -1.7323914  0.058277051   -3.2268605    1.4944691   407357 
 6964000   0.92407876   -3.2258634   -1.7318398  0.059826044   -3.2258634    1.4940236   407349 
 6965000   0.92330181   -3.2248659   -1.7320691  0.061356117   -3.2248659    1.4927968   407341 
 6966000   0.92476679   -3.2271477    -1.731953  0.059899328   -3.2271477    1.4951947   407333 
 6967000   0.92572838     -3.22721   -1.7304311  0.062032706     -3.22721    1.4967789   407325 
 6968000   0.92456091   -3.2260395   -1.7311189  0.061675179   -3.2260395    1.4949206   407317 
 6969000   0.92291955   -3.2233498   -1.7310538  0.061821412   -3.2233498     1.492296   407309 
 6970000     0.923425   -3.2234628   -1.7303202  0.058110467   -3.2234628    1.4931426   407301 
 6971000   0.92152689   -3.2214719   -1.7313692  0.058416353   -3.2214719    1.4901027   407293 
 6972000   0.92201971   -3.2218944   -1.7309655   0.05810658   -3.2218944    1.4909289   407285 
 6973000   0.92242863   -3.2218742   -1.7302548  0.059798934   -3.2218742    1.4916194   407277 
 6974000   0.92299093   -3.2224344   -1.7298764  0.061311569   -3.2224344     1.492558   407269 
 6975000   0.92149805   -3.2214325   -1.7312594  0.056510685   -3.2214325    1.4901731   407261 
 6976000   0.92236961   -3.2226304   -1.7310186  0.058663136   -3.2226304    1.4916118   407253 
 6977000   0.92457969   -3.2244416   -1.7292264  0.058211089   -3.2244416    1.4952153   407245 
 6978000   0.92446758   -3.2248754   -1.7298121  0.057200718   -3.2248754    1.4950633   407237 
 6979000   0.92188646   -3.2215252   -1.7306068  0.059241539   -3.2215252    1.4909184   407229 
 6980000   0.92326529    -3.223221   -1.7300434  0.060296278    -3.223221    1.4931776   407221 
 6981000   0.92322065   -3.2233823   -1.7302476   0.06434847   -3.2233823    1.4931348   407213 
 6982000   0.92261777    -3.222577    -1.730388  0.059882616    -3.222577     1.492189   407205 
 6983000   0.92407955   -3.2245032   -1.7299206  0.059756813   -3.2245032    1.4945826   407197 
 6984000   0.92236784   -3.2236124    -1.731769  0.059345668   -3.2236124    1.4918434   407189 
 6985000   0.92278867   -3.2242782   -1.7317248  0.057064309   -3.2242782    1.4925534   407181 
 6986000   0.92267112   -3.2249204   -1.7325277  0.058749914   -3.2249204    1.4923926   407173 
 6987000   0.92190686   -3.2244217    -1.733236  0.057975956   -3.2244217    1.4911857   407165 
 6988000   0.92120607     -3.22302   -1.7329385  0.057299481     -3.22302    1.4900815   407157 
 6989000   0.92355437   -3.2259863   -1.7320771  0.061713383   -3.2259863    1.4939093   407149 
 6990000   0.92137794   -3.2252726   -1.7348545   0.06127195   -3.2252726    1.4904181   407141 
 6991000   0.92154441   -3.2258643   -1.7351477  0.058831291   -3.2258643    1.4907166   407133 
 6992000   0.92123293   -3.2260994   -1.7358574  0.056373594   -3.2260994     1.490242   407125 
 6993000   0.92157261   -3.2262043   -1.7353835  0.056160048   -3.2262043    1.4908208   407117 
 6994000   0.92240693   -3.2270519    -1.734852  0.055422977   -3.2270519    1.4921998   407109 
 6995000   0.92352507   -3.2291483   -1.7351102  0.065844331   -3.2291483     1.494038   407101 
 6996000   0.92468712   -3.2296395   -1.7336922  0.060796447   -3.2296395    1.4959473   407093 
 6997000   0.92492729   -3.2302961   -1.7339308  0.057751171   -3.2302961    1.4963653   407085 
 6998000   0.92425346   -3.2309526   -1.7356481  0.063959445   -3.2309526    1.4953045   407077 
 6999000   0.92350975   -3.2289908   -1.7348602  0.061893184   -3.2289908    1.4941307   407069 
 7000000   0.92458887   -3.2308393   -1.7349334  0.060035518   -3.2308393     1.495906   407061 
 7001000   0.92258974   -3.2272187   -1.7345178  0.067167301   -3.2272187    1.4927009   407053 
 7002000    0.9222626   -3.2269409     -1.73474  0.065810994   -3.2269409    1.4922009   407045 
 7003000   0.92376588   -3.2296753   -1.7350127  0.063426209   -3.2296753    1.4946626   407037 
 7004000   0.92275687   -3.2282906   -1.7352312    0.0654476   -3.2282906    1.4930593   407029 
 7005000   0.92365558   -3.2310221   -1.7364793  0.056060934   -3.2310221    1.4945429   407021 
 7006000   0.92348054   -3.2302951   -1.7360061  0.066894857   -3.2302951     1.494289   407013 
 7007000   0.92348978   -3.2313351   -1.7370018  0.064579575   -3.2313351    1.4943333   407005 
 7008000   0.92403266   -3.2315531   -1.7363119   0.06041834   -3.2315531    1.4952412   406997 
 7009000   0.92282954   -3.2298616   -1.7365379  0.059109929   -3.2298616    1.4933237   406989 
 7010000   0.92199161   -3.2277286   -1.7357316  0.062563692   -3.2277286    1.4919971   406981 
 7011000   0.92279084    -3.227902   -1.7345822  0.063661726    -3.227902    1.4933197   406973 
 7012000   0.92040634   -3.2244956   -1.7350053  0.059637061   -3.2244956    1.4894903   406965 
 7013000   0.92301688   -3.2276384   -1.7338942  0.055338635   -3.2276384    1.4937443   406957 
 7014000    0.9226698   -3.2279851   -1.7347731  0.057776114   -3.2279851    1.4932119   406949 
 7015000   0.92182843    -3.226109   -1.7342294  0.059886291    -3.226109    1.4918796   406941 
 7016000   0.92024515   -3.2241187   -1.7347722  0.060554554   -3.2241187    1.4893465   406933 
 7017000   0.91993813   -3.2230603   -1.7341814  0.056446328   -3.2230603    1.4888789   406925 
 7018000   0.92061637   -3.2227378   -1.7327319  0.055528635   -3.2227378    1.4900059   406917 
 7019000   0.92074695   -3.2236831   -1.7334365  0.055059428   -3.2236831    1.4902465   406909 
 7020000   0.92063624   -3.2229864   -1.7328898  0.055646617   -3.2229864    1.4900967   406901 
 7021000   0.92142597   -3.2252658   -1.7338616  0.057378606   -3.2252658    1.4914042   406893 
 7022000   0.92088644   -3.2241633   -1.7336031  0.056240012   -3.2241633    1.4905602   406885 
 7023000   0.92261593   -3.2260906   -1.7327017  0.054248051   -3.2260906     1.493389   406877 
 7024000   0.92187464   -3.2245406   -1.7323222  0.051838153   -3.2245406    1.4922184   406869 
 7025000   0.92287554   -3.2248567   -1.7309888  0.059302589   -3.2248567    1.4938679   406861 
 7026000   0.92217891   -3.2241241   -1.7313544  0.060517539   -3.2241241    1.4927696   406853 
 7027000   0.92209238   -3.2240711   -1.7314121  0.058392171   -3.2240711    1.4926589   406845 
 7028000   0.92278932   -3.2252055    -1.731389  0.051885702   -3.2252055    1.4938165   406837 
 7029000   0.92136223   -3.2236224   -1.7320867  0.059477006   -3.2236224    1.4915356   406829 
 7030000   0.92111272   -3.2228119   -1.7316509   0.06080136   -3.2228119     1.491161   406821 
 7031000   0.92323461   -3.2269311   -1.7323056  0.057651655   -3.2269311    1.4946255   406813 
 7032000   0.92066329   -3.2233587   -1.7328666  0.057493464   -3.2233587    1.4904921   406805 
 7033000    0.9206828   -3.2227702   -1.7322172  0.059734714   -3.2227702     1.490553   406797 
 7034000    0.9201117   -3.2218278   -1.7321701  0.057323089   -3.2218278    1.4896577   406789 
 7035000   0.92084675   -3.2232567   -1.7323796  0.059792368   -3.2232567    1.4908771   406781 
 7036000   0.92118952   -3.2237043    -1.732243  0.059615811   -3.2237043    1.4914613   406773 
 7037000   0.92106089   -3.2237637   -1.7324813  0.059933257   -3.2237637    1.4912824   406765 
 7038000   0.92185249   -3.2240592   -1.7314658  0.060310713   -3.2240592    1.4925934   406757 
 7039000   0.92219468   -3.2252078    -1.732031  0.061941816   -3.2252078    1.4931769   406749 
 7040000   0.92246642   -3.2262387   -1.7325924  0.061011414   -3.2262387    1.4936462   406741 
 7041000   0.92346334   -3.2266954   -1.7314056   0.06419025   -3.2266954    1.4952898   406733 
 7042000   0.92307458   -3.2270625   -1.7323728  0.060996661   -3.2270625    1.4946897   406725 
 7043000   0.92302996   -3.2261659    -1.731519  0.060959285   -3.2261659    1.4946469   406717 
 7044000   0.92219284   -3.2241871   -1.7308663  0.063686131   -3.2241871    1.4933207   406709 
 7045000   0.92148543   -3.2238081   -1.7316035  0.057095807   -3.2238081    1.4922046   406701 
 7046000   0.92190625   -3.2260411   -1.7331257  0.057313906   -3.2260411    1.4929154   406693 
 7047000   0.92017141   -3.2248857   -1.7347503  0.060903364   -3.2248857    1.4901353   406685 
 7048000   0.92101319   -3.2256949   -1.7341671  0.058348086   -3.2256949    1.4915279   406677 
 7049000   0.92121797   -3.2252452   -1.7333564  0.055795012   -3.2252452    1.4918888   406669 
 7050000   0.92321329   -3.2274673   -1.7323177  0.061271578   -3.2274673    1.4951496   406661 
 7051000   0.92133755   -3.2254902    -1.733349  0.056779317   -3.2254902    1.4921412   406653 
 7052000   0.92154206   -3.2256978    -1.733196  0.060745846   -3.2256978    1.4925018   406645 
 7053000   0.92067694   -3.2234121   -1.7322821  0.061521639   -3.2234121      1.49113   406637 
 7054000   0.92186876   -3.2237484   -1.7306587  0.056919356   -3.2237484    1.4930896   406629 
 7055000   0.92201676   -3.2238102   -1.7304515  0.057555103   -3.2238102    1.4933587   406621 
 7056000    0.9225898   -3.2247025   -1.7303862  0.062604236   -3.2247025    1.4943163   406613 
 7057000   0.92261646   -3.2253437   -1.7309549    0.0557401   -3.2253437    1.4943888   406605 
 7058000   0.92217052   -3.2238122   -1.7301162  0.060634833   -3.2238122    1.4936959   406597 
 7059000   0.92143025   -3.2236835   -1.7311573  0.055690261   -3.2236835    1.4925262   406589 
 7060000   0.92231453   -3.2247725   -1.7307846  0.055136274   -3.2247725     1.493988   406581 
 7061000    0.9208738   -3.2235773   -1.7318937  0.059184049   -3.2235773    1.4916836   406573 
 7062000   0.92064014   -3.2239297   -1.7325952  0.057039622   -3.2239297    1.4913345   406565 
 7063000   0.92088342   -3.2231004   -1.7313426  0.057696863   -3.2231004    1.4917579   406557 
 7064000    0.9214047   -3.2229316   -1.7302999  0.062173709   -3.2229316    1.4926317   406549 
 7065000   0.92117427   -3.2233252   -1.7310375   0.05881747   -3.2233252    1.4922878   406541 
 7066000   0.92184263   -3.2237283   -1.7303284  0.057911018   -3.2237283    1.4933999   406533 
 7067000   0.92216423   -3.2232965   -1.7293462  0.061112728   -3.2232965    1.4939503   406525 
 7068000   0.92036717   -3.2229512   -1.7318829  0.057528916   -3.2229512    1.4910683   406517 
 7069000   0.92112439   -3.2240422   -1.7317178  0.060635746   -3.2240422    1.4923244   406509 
 7070000   0.92196458   -3.2242433   -1.7305282  0.057417999   -3.2242433     1.493715   406501 
 7071000   0.92110685   -3.2244734   -1.7321187  0.056835956   -3.2244734    1.4923548   406493 
 7072000   0.92083488   -3.2233573   -1.7314138  0.054042356   -3.2233573    1.4919435   406485 
 7073000    0.9211897   -3.2235909   -1.7310431  0.056278318   -3.2235909    1.4925477   406477 
 7074000   0.92087362   -3.2215864   -1.7295214  0.061827123   -3.2215864     1.492065   406469 
 7075000   0.92091951   -3.2236428   -1.7314741  0.060906643   -3.2236428    1.4921687   406461 
 7076000   0.92131061     -3.22376   -1.7309282  0.065452061     -3.22376    1.4928318   406453 
 7077000   0.92202953   -3.2255502   -1.7315241  0.058053353   -3.2255502    1.4940261   406445 
 7078000      0.92121   -3.2244577   -1.7317302  0.061654653   -3.2244577    1.4927275   406437 
 7079000   0.92090784   -3.2252342   -1.7329669  0.054095668   -3.2252342    1.4922673   406429 
 7080000   0.92195293   -3.2265384   -1.7325482  0.058274412   -3.2265384    1.4939902   406421 
 7081000   0.92298503   -3.2271315   -1.7314394  0.057271309   -3.2271315    1.4956921   406413 
 7082000   0.92117628   -3.2252605   -1.7324701  0.058075547   -3.2252605    1.4927904   406405 
 7083000   0.92123953   -3.2260934   -1.7331711  0.061669578   -3.2260934    1.4929223   406397 
 7084000   0.92307532    -3.229001   -1.7330743  0.056556901    -3.229001    1.4959267   406389 
 7085000   0.92153208   -3.2264454   -1.7329902  0.057080239   -3.2264454    1.4934552   406381 
 7086000   0.92211459   -3.2273745   -1.7329458  0.061895484   -3.2273745    1.4944286   406373 
 7087000   0.92240641   -3.2271407   -1.7322097  0.062471022   -3.2271407     1.494931   406365 
 7088000   0.92224818   -3.2289732   -1.7342692  0.062662338   -3.2289732     1.494704   406357 
 7089000   0.92141828   -3.2274206   -1.7340322  0.060878873   -3.2274206    1.4933884   406349 
 7090000    0.9214243    -3.227495   -1.7340675  0.061879529    -3.227495    1.4934275   406341 
 7091000   0.92190839   -3.2280273   -1.7337857  0.057998012   -3.2280273    1.4942415   406333 
 7092000   0.92035256   -3.2254364   -1.7336872  0.057603656   -3.2254364    1.4917492   406325 
 7093000   0.92099436    -3.226469   -1.7336501  0.055963424    -3.226469    1.4928188   406317 
 7094000   0.92108976   -3.2277461   -1.7347433  0.058467376   -3.2277461    1.4930029   406309 
 7095000   0.92131351   -3.2279495   -1.7345545   0.06361621   -3.2279495     1.493395   406301 
 7096000   0.92149555   -3.2272845    -1.733565  0.063942782   -3.2272845    1.4937194   406293 
 7097000   0.92133932   -3.2267235   -1.7332279  0.058064004   -3.2267235    1.4934956   406285 
 7098000   0.92075972   -3.2263396   -1.7337541  0.060490459   -3.2263396    1.4925855   406277 
 7099000   0.92088038   -3.2255351   -1.7327247  0.055928493   -3.2255351    1.4928104   406269 
 7100000   0.92060849   -3.2255701    -1.733171  0.056905079   -3.2255701    1.4923991   406261 
 7101000   0.92117281   -3.2265607   -1.7332174  0.056735859   -3.2265607    1.4933433   406253 
 7102000   0.91972015    -3.225321   -1.7343033    0.0626983    -3.225321    1.4910177   406245 
 7103000   0.91996905   -3.2247475   -1.7332969  0.061881724   -3.2247475    1.4914506   406237 
 7104000   0.92128668   -3.2258119   -1.7321957  0.056933295   -3.2258119    1.4936161   406229 
 7105000   0.91993142     -3.22463   -1.7331816  0.058085994     -3.22463    1.4914483   406221 
 7106000   0.92056849   -3.2244893   -1.7319787  0.056453938   -3.2244893    1.4925106   406213 
 7107000   0.92056344   -3.2243027   -1.7317709  0.059646268   -3.2243027    1.4925318   406205 
 7108000    0.9214352   -3.2255873   -1.7316127  0.055544108   -3.2255873    1.4939746   406197 
 7109000   0.92224233   -3.2256609   -1.7303482  0.061483124   -3.2256609    1.4953127   406189 
 7110000   0.92212083   -3.2263959   -1.7312507  0.059518106   -3.2263959    1.4951452   406181 
 7111000   0.92195923   -3.2252747   -1.7303621  0.063224763   -3.2252747    1.4949126   406173 
 7112000   0.92194902   -3.2258136   -1.7308882   0.06412498   -3.2258136    1.4949255   406165 
 7113000   0.92063156   -3.2234362   -1.7306176  0.056083689   -3.2234362    1.4928186   406157 
 7114000   0.92126424   -3.2243544   -1.7304804  0.059053516   -3.2243544     1.493874   406149 
 7115000   0.92075909    -3.223982   -1.7308978  0.062952564    -3.223982    1.4930842   406141 
 7116000   0.92091242   -3.2242686   -1.7309063    0.0584713   -3.2242686    1.4933623   406133 
 7117000   0.92098232    -3.225589   -1.7320839   0.06427053    -3.225589    1.4935051   406125 
 7118000   0.92059872   -3.2242518   -1.7313394  0.057848628   -3.2242518    1.4929124   406117 
 7119000   0.92029867   -3.2238285   -1.7313733  0.060254559   -3.2238285    1.4924552   406109 
 7120000   0.92013529   -3.2239458   -1.7317262  0.058887361   -3.2239458    1.4922197   406101 
 7121000   0.91987742   -3.2236283   -1.7317974  0.058637598   -3.2236283    1.4918309   406093 
 7122000   0.91927725   -3.2224973   -1.7316105  0.060385838   -3.2224973    1.4908869   406085 
 7123000    0.9197634   -3.2238696   -1.7321649  0.056466004   -3.2238696    1.4917047   406077 
 7124000   0.91918574   -3.2232356   -1.7324384  0.057050711   -3.2232356    1.4907972   406069 
 7125000   0.92090555   -3.2249758   -1.7313599  0.058093143   -3.2249758    1.4936159   406061 
 7126000   0.92186116   -3.2286665   -1.7334712  0.055537526   -3.2286665    1.4951953   406053 
 7127000   0.91969454   -3.2252815   -1.7335709  0.060051016   -3.2252815    1.4917106   406045 
 7128000    0.9207419   -3.2253416   -1.7319028  0.058230687   -3.2253416    1.4934388   406037 
 7129000    0.9188509   -3.2243709   -1.7339699  0.054834544   -3.2243709     1.490401   406029 
 7130000   0.91971163    -3.224603   -1.7327765  0.055147328    -3.224603    1.4918265   406021 
 7131000   0.91952081   -3.2245681   -1.7330217  0.059225496   -3.2245681    1.4915464   406013 
 7132000   0.92056216    -3.227502   -1.7342371  0.056965599    -3.227502    1.4932649   406005 
 7133000   0.91914343   -3.2272302   -1.7362373  0.056829015   -3.2272302     1.490993   405997 
 7134000   0.91717758   -3.2254001   -1.7375668  0.059541812   -3.2254001    1.4878334   405989 
 7135000   0.91934971   -3.2273772   -1.7359909  0.058650802   -3.2273772    1.4913864   405981 
 7136000   0.91916606   -3.2262748    -1.735157  0.059094124   -3.2262748    1.4911178   405973 
 7137000   0.92089272   -3.2285213   -1.7345729  0.059774129   -3.2285213    1.4939483   405965 
 7138000   0.92123702   -3.2302336   -1.7356972  0.057451285   -3.2302336    1.4945363   405957 
 7139000   0.91978776   -3.2282244   -1.7360098   0.06387361   -3.2282244    1.4922146   405949 
 7140000   0.91959496   -3.2281529   -1.7362216  0.060033768   -3.2281529    1.4919312   405941 
 7141000   0.92029525    -3.228474   -1.7353772    0.0598516    -3.228474    1.4930968   405933 
 7142000    0.9202827   -3.2293461   -1.7362402  0.057948675   -3.2293461    1.4931058   405925 
 7143000   0.92118181   -3.2302092   -1.7356152  0.063403622   -3.2302092     1.494594   405917 
 7144000   0.92055947   -3.2301767   -1.7365629  0.057471584   -3.2301767    1.4936137   405909 
 7145000    0.9209669   -3.2317276   -1.7374234  0.062223067   -3.2317276    1.4943043   405901 
 7146000   0.92036006    -3.230757   -1.7374079  0.064461537    -3.230757    1.4933491   405893 
 7147000    0.9202822   -3.2298629   -1.7366108  0.061152505   -3.2298629    1.4932522   405885 
 7148000   0.91979257   -3.2288827   -1.7363956  0.065630052   -3.2288827    1.4924871   405877 
 7149000   0.91976791    -3.229542   -1.7370655  0.059385805    -3.229542    1.4924765   405869 
 7150000   0.91967614   -3.2285095   -1.7361525  0.058951056   -3.2285095     1.492357   405861 
 7151000   0.92005066   -3.2290852    -1.736091  0.061006315   -3.2290852    1.4929942   405853 
 7152000   0.92059951   -3.2295063   -1.7355921  0.064929379   -3.2295063    1.4939142   405845 
 7153000   0.92069808   -3.2299039   -1.7358002  0.065008672   -3.2299039    1.4941037   405837 
 7154000    0.9213463   -3.2312096   -1.7360245   0.05991321   -3.2312096    1.4951851   405829 
 7155000    0.9188282   -3.2281126   -1.7369845  0.056912913   -3.2281126     1.491128   405821 
 7156000   0.91860998   -3.2281297   -1.7373264  0.059844485   -3.2281297    1.4908033   405813 
 7157000   0.91775757   -3.2244043    -1.734955   0.06395047   -3.2244043    1.4894493   405805 
 7158000   0.92004772    -3.227657   -1.7344616   0.05657264    -3.227657    1.4931954   405797 
 7159000   0.91899383    -3.226725   -1.7352105  0.057709188    -3.226725    1.4915144   405789 
 7160000   0.91884305   -3.2274971    -1.736198  0.059123037   -3.2274971    1.4912991   405781 
 7161000    0.9197584   -3.2274214   -1.7346072   0.05504908   -3.2274214    1.4928142   405773 
 7162000   0.91855331   -3.2259815   -1.7350939  0.056940957   -3.2259815    1.4908876   405765 
 7163000   0.92021967   -3.2283052   -1.7346835   0.05959806   -3.2283052    1.4936217   405757 
 7164000    0.9206478   -3.2273899   -1.7330438  0.064019155   -3.2273899    1.4943461   405749 
 7165000   0.92109587   -3.2290166   -1.7339138  0.059837468   -3.2290166    1.4951029   405741 
 7166000   0.91847578   -3.2244836   -1.7336042  0.065816294   -3.2244836    1.4908794   405733 
 7167000   0.91984293   -3.2267113   -1.7335833  0.063341988   -3.2267113     1.493128   405725 
 7168000   0.91831042   -3.2232608    -1.732591  0.065332637   -3.2232608    1.4906697   405717 
 7169000   0.91985743   -3.2265106   -1.7333002  0.053692405   -3.2265106    1.4932104   405709 
 7170000   0.91919257   -3.2255672   -1.7334067  0.060366395   -3.2255672    1.4921606   405701 
 7171000    0.9209165   -3.2284685   -1.7334799  0.055787291   -3.2284685    1.4949886   405693 
 7172000   0.91972411   -3.2253118   -1.7322295  0.065287453   -3.2253118    1.4930823   405685 
 7173000   0.92084995   -3.2258489   -1.7309094  0.058744877   -3.2258489    1.4949395   405677 
 7174000   0.91970043    -3.225956   -1.7328533  0.061170039    -3.225956    1.4931028   405669 
 7175000   0.92159682   -3.2279367   -1.7317257  0.060382052   -3.2279367     1.496211   405661 
 7176000   0.91884449   -3.2247851   -1.7330131  0.060092861   -3.2247851     1.491772   405653 
 7177000   0.91860302    -3.225148   -1.7337386  0.063509678    -3.225148    1.4914094   405645 
 7178000   0.91957899   -3.2266615   -1.7336381  0.058103177   -3.2266615    1.4930234   405637 
 7179000   0.91941354    -3.226089   -1.7333048  0.057555082    -3.226089    1.4927842   405629 
 7180000   0.91786018   -3.2237519   -1.7334604  0.059150792   -3.2237519    1.4902915   405621 
 7181000   0.91779684   -3.2244078   -1.7341897  0.055581935   -3.2244078    1.4902181   405613 
 7182000   0.91726726   -3.2252565   -1.7358689   0.05303431   -3.2252565    1.4893876   405605 
 7183000   0.91810917   -3.2256848   -1.7349008  0.056253636   -3.2256848     1.490784   405597 
 7184000   0.91809172   -3.2257968   -1.7350117  0.057268983   -3.2257968    1.4907851   405589 
 7185000    0.9190689   -3.2267511   -1.7343499  0.058286547   -3.2267511    1.4924012   405581 
 7186000   0.91903112   -3.2267385   -1.7343692  0.064446999   -3.2267385    1.4923693   405573 
 7187000   0.91923248   -3.2263801   -1.7336543  0.058945361   -3.2263801    1.4927258   405565 
 7188000    0.9187933   -3.2263934   -1.7343514  0.062869452   -3.2263934     1.492042   405557 
 7189000   0.91845769   -3.2265963   -1.7350699  0.058957305   -3.2265963    1.4915264   405549 
 7190000   0.91908805   -3.2277777   -1.7351982  0.062272167   -3.2277777    1.4925795   405541 
 7191000   0.91990165   -3.2272312   -1.7333009  0.064195334   -3.2272312    1.4939303   405533 
 7192000   0.91777304   -3.2252764   -1.7347736  0.059047168   -3.2252764    1.4905028   405525 
 7193000   0.91791278   -3.2262899   -1.7355308  0.059354817   -3.2262899    1.4907591   405517 
 7194000   0.91965303   -3.2286958   -1.7350809  0.058103911   -3.2286958    1.4936149   405509 
 7195000   0.91754505   -3.2273417    -1.737121  0.064330196   -3.2273417    1.4902207   405501 
 7196000   0.91874998   -3.2267685   -1.7345614  0.058598166   -3.2267685    1.4922071   405493 
 7197000   0.91782442   -3.2265017   -1.7357684  0.059945151   -3.2265017    1.4907333   405485 
 7198000   0.91769065    -3.224668   -1.7341226  0.063316436    -3.224668    1.4905454   405477 
 7199000   0.91863224   -3.2265527   -1.7344485  0.059764804   -3.2265527    1.4921042   405469 
 7200000   0.91930346   -3.2276477   -1.7344237  0.057844037   -3.2276477    1.4932239   405461 
 7201000    0.9195244   -3.2276671   -1.7340548  0.059684201   -3.2276671    1.4936123   405453 
 7202000    0.9203946   -3.2279864   -1.7329311  0.060903489   -3.2279864    1.4950553   405445 
 7203000   0.92166736   -3.2301315   -1.7329793  0.058327536   -3.2301315    1.4971522   405437 
 7204000   0.92020886   -3.2279669   -1.7331544  0.058644344   -3.2279669    1.4948125   405429 
 7205000   0.91931108   -3.2276826    -1.734299  0.060444662   -3.2276826    1.4933836   405421 
 7206000   0.91898214   -3.2273351   -1.7344564  0.064052098   -3.2273351    1.4928787   405413 
 7207000   0.91825691    -3.225745    -1.734015  0.060302882    -3.225745      1.49173   405405 
 7208000   0.91832593   -3.2250359   -1.7331643  0.063418855   -3.2250359    1.4918716   405397 
 7209000   0.91935125   -3.2286227    -1.735056   0.05960613   -3.2286227    1.4935668   405389 
 7210000   0.91822862   -3.2269032   -1.7351308  0.064616814   -3.2269032    1.4917724   405381 
 7211000   0.91808101    -3.226876    -1.735314  0.061444686    -3.226876     1.491562   405373 
 7212000   0.91741311   -3.2248805   -1.7343741  0.059384411   -3.2248805    1.4905063   405365 
 7213000   0.91658075   -3.2232645   -1.7340811  0.054299952   -3.2232645    1.4891834   405357 
 7214000   0.91750438   -3.2241011   -1.7333877  0.057076677   -3.2241011    1.4907135   405349 
 7215000   0.91808063   -3.2243542   -1.7326751  0.059720158   -3.2243542    1.4916792   405341 
 7216000     0.919552   -3.2275417   -1.7334425  0.055067528   -3.2275417    1.4940993   405333 
 7217000   0.91753582   -3.2245844   -1.7337316  0.056296006   -3.2245844    1.4908528   405325 
 7218000   0.91748997   -3.2240076   -1.7331998  0.058781506   -3.2240076    1.4908077   405317 
 7219000   0.91944431   -3.2254496   -1.7314368  0.055657274   -3.2254496    1.4940128   405309 
 7220000    0.9186409   -3.2240985   -1.7313617  0.058330855   -3.2240985    1.4927368   405301 
 7221000   0.91780076   -3.2249714   -1.7335703  0.061657283   -3.2249714     1.491401   405293 
 7222000   0.91874922   -3.2261681   -1.7331964  0.055575746   -3.2261681    1.4929717   405285 
 7223000   0.91939947   -3.2269246   -1.7328667  0.060144419   -3.2269246    1.4940579   405277 
 7224000   0.91958803   -3.2262618    -1.731868  0.060123606   -3.2262618    1.4943938   405269 
 7225000   0.91900473   -3.2259997   -1.7325243  0.060854582   -3.2259997    1.4934754   405261 
 7226000   0.91807993   -3.2242449    -1.732243  0.060822744   -3.2242449    1.4920019   405253 
 7227000   0.91936424    -3.225959   -1.7318404  0.053821632    -3.225959    1.4941186   405245 
 7228000   0.91902028   -3.2238976   -1.7303085  0.062191976   -3.2238976    1.4935891   405237 
 7229000   0.91945855   -3.2246159    -1.730285  0.062914275   -3.2246159    1.4943309   405229 
 7230000   0.92009966    -3.224111   -1.7287086  0.058254493    -3.224111    1.4954023   405221 
 7231000   0.91920253   -3.2265618    -1.732588  0.056742715   -3.2265618    1.4939738   405213 
 7232000   0.91981259   -3.2267078    -1.731713  0.059023436   -3.2267078    1.4949948   405205 
 7233000    0.9179636   -3.2243928   -1.7323738  0.060609167   -3.2243928    1.4920191   405197 
 7234000   0.91823643   -3.2235155   -1.7310235  0.056604374   -3.2235155     1.492492   405189 
 7235000    0.9192942   -3.2254295   -1.7311888    0.0565925   -3.2254295    1.4942408   405181 
 7236000   0.91775025   -3.2231107     -1.73135  0.057579422   -3.2231107    1.4917607   405173 
 7237000   0.91721091     -3.22284   -1.7319266  0.058835025     -3.22284    1.4909134   405165 
 7238000   0.91751862   -3.2222017   -1.7307587  0.059547881   -3.2222017     1.491443   405157 
 7239000   0.91815577    -3.222985   -1.7304768  0.062492093    -3.222985    1.4925082   405149 
 7240000    0.9170839   -3.2220688   -1.7312736  0.062232634   -3.2220688    1.4907953   405141 
 7241000   0.91856588   -3.2247837   -1.7315499  0.058500714   -3.2247837    1.4932338   405133 
 7242000   0.91867631   -3.2257732   -1.7323304  0.058291407   -3.2257732    1.4934428   405125 
 7243000   0.91830021   -3.2241483   -1.7312874   0.05670725   -3.2241483    1.4928609   405117 
 7244000   0.91883303   -3.2253856    -1.731629  0.054847585   -3.2253856    1.4937566   405109 
 7245000    0.9188301   -3.2241071   -1.7303258  0.059537927   -3.2241071    1.4937813   405101 
 7246000   0.91842762   -3.2249648   -1.7318083  0.057924844   -3.2249648    1.4931565   405093 
 7247000   0.91861579   -3.2236889   -1.7301969  0.059927044   -3.2236889    1.4934919   405085 
 7248000   0.91906677    -3.226301   -1.7320464  0.055730576    -3.226301    1.4942546   405077 
 7249000   0.91739534   -3.2242266     -1.73266   0.06251403   -3.2242266    1.4915666   405069 
 7250000   0.91762768   -3.2238832   -1.7319094  0.062287711   -3.2238832    1.4919738   405061 
 7251000   0.91658941   -3.2239402   -1.7336251  0.056271386   -3.2239402    1.4903151   405053 
 7252000   0.91881134   -3.2267459   -1.7327886  0.057557159   -3.2267459    1.4939574   405045 
 7253000   0.91862652   -3.2255042   -1.7318179  0.064245566   -3.2255042    1.4936864   405037 
 7254000   0.91849741   -3.2250834   -1.7315774  0.061635853   -3.2250834    1.4935059   405029 
 7255000   0.91876493   -3.2262043   -1.7322338  0.058969798   -3.2262043    1.4939704   405021 
 7256000   0.91824848    -3.227402   -1.7342419  0.059596954    -3.227402    1.4931601   405013 
 7257000    0.9189243   -3.2283393   -1.7340507  0.060162804   -3.2283393    1.4942886   405005 
 7258000   0.91797196   -3.2264574   -1.7336879  0.054746356   -3.2264574    1.4927695   404997 
 7259000   0.91771996   -3.2263725   -1.7339833  0.057197028   -3.2263725    1.4923892   404989 
 7260000    0.9172117   -3.2263281    -1.734736   0.05779168   -3.2263281    1.4915921   404981 
 7261000   0.91745851   -3.2277838   -1.7357609  0.057226523   -3.2277838    1.4920229   404973 
 7262000    0.9166618   -3.2265227    -1.735766  0.061387554   -3.2265227    1.4907567   404965 
 7263000   0.91743056    -3.226565   -1.7345286  0.058320289    -3.226565    1.4920364   404957 
 7264000   0.91739208   -3.2279996   -1.7359963  0.055213522   -3.2279996    1.4920033   404949 
 7265000   0.91795912   -3.2285263   -1.7355713  0.059666051   -3.2285263     1.492955   404941 
 7266000   0.91816062   -3.2287981   -1.7354859   0.05900594   -3.2287981    1.4933122   404933 
 7267000   0.91993649    -3.231222   -1.7349919  0.059264805    -3.231222    1.4962301   404925 
 7268000   0.91738082   -3.2255223   -1.7334194  0.064466675   -3.2255223    1.4921029   404917 
 7269000   0.91882467   -3.2296558    -1.735175  0.060589982   -3.2296558    1.4944808   404909 
 7270000   0.91866303   -3.2284749   -1.7342275  0.062635058   -3.2284749    1.4942474   404901 
 7271000   0.91786985   -3.2276116   -1.7346248  0.060949556   -3.2276116    1.4929868   404893 
 7272000   0.91836228    -3.229281   -1.7354637  0.056722266    -3.229281    1.4938173   404885 
 7273000   0.91766848   -3.2279635   -1.7352453   0.06092888   -3.2279635    1.4927182   404877 
 7274000    0.9174455   -3.2282571   -1.7358721  0.060404608   -3.2282571     1.492385   404869 
 7275000   0.91734025   -3.2282441   -1.7360008  0.061449044   -3.2282441    1.4922433   404861 
 7276000   0.91737149   -3.2285726    -1.736249  0.061152246   -3.2285726    1.4923236   404853 
 7277000   0.91809624   -3.2287105   -1.7351784  0.062722072   -3.2287105    1.4935321   404845 
 7278000    0.9173834   -3.2269883   -1.7345864  0.056302946   -3.2269883     1.492402   404837 
 7279000   0.91770343   -3.2267023   -1.7337502  0.062060085   -3.2267023    1.4929521   404829 
 7280000   0.91857884   -3.2276123   -1.7332065  0.059608718   -3.2276123    1.4944058   404821 
 7281000   0.91675138   -3.2246435   -1.7331813  0.059110153   -3.2246435    1.4914622   404813 
 7282000   0.91788279   -3.2258544    -1.732522  0.054358493   -3.2258544    1.4933324   404805 
 7283000   0.91795776   -3.2251678   -1.7316839    0.0651352   -3.2251678    1.4934839   404797 
 7284000   0.91791664   -3.2256592   -1.7322127   0.06032616   -3.2256592    1.4934465   404789 
 7285000   0.91637085   -3.2249776   -1.7340166  0.060830723   -3.2249776     1.490961   404781 
 7286000    0.9170639    -3.225971   -1.7338529   0.06247816    -3.225971    1.4921181   404773 
 7287000   0.91708231   -3.2258152   -1.7336377  0.054954134   -3.2258152    1.4921775   404765 
 7288000   0.91686971   -3.2245181    -1.732657  0.055230858   -3.2245181    1.4918611   404757 
 7289000   0.91560188   -3.2229854   -1.7331578  0.059653706   -3.2229854    1.4898276   404749 
 7290000   0.91433407   -3.2222795   -1.7344854  0.056326659   -3.2222795    1.4877941   404741 
 7291000   0.91654173   -3.2241332   -1.7327173  0.056794917   -3.2241332    1.4914159   404733 
 7292000   0.91427024   -3.2215651   -1.7338161  0.054844429   -3.2215651    1.4877491   404725 
 7293000   0.91574087   -3.2228684   -1.7326968   0.05538543   -3.2228684    1.4901716   404717 
 7294000   0.91699888   -3.2247971   -1.7325489  0.056167321   -3.2247971    1.4922482   404709 
 7295000   0.91725165   -3.2251292   -1.7324401  0.060145317   -3.2251292    1.4926891   404701 
 7296000   0.91729757   -3.2244599   -1.7316666  0.057798511   -3.2244599    1.4927933   404693 
 7297000   0.91673862   -3.2248897   -1.7329765  0.060065589   -3.2248897    1.4919132   404685 
 7298000   0.91606755   -3.2232474   -1.7323968  0.057022269   -3.2232474    1.4908506   404677 
 7299000   0.91684365   -3.2250807   -1.7329376  0.051329898   -3.2250807    1.4921431   404669 
 7300000   0.91741868   -3.2255032   -1.7323947  0.057069925   -3.2255032    1.4931085   404661 
 7301000   0.91683824   -3.2242059   -1.7320126  0.056613717   -3.2242059    1.4921933   404653 
 7302000   0.91602361   -3.2243709   -1.7334739  0.056501502   -3.2243709    1.4908969   404645 
 7303000   0.91707556   -3.2268318   -1.7341932  0.059003967   -3.2268318    1.4926386   404637 
 7304000   0.91600842   -3.2242601    -1.733329  0.061876805   -3.2242601    1.4909312   404629 
 7305000   0.91942099   -3.2293154   -1.7328002  0.058348922   -3.2293154    1.4965152   404621 
 7306000   0.91749501   -3.2289131   -1.7355033  0.057404398   -3.2289131    1.4934098   404613 
 7307000   0.91795465   -3.2294577   -1.7352701  0.063153604   -3.2294577    1.4941875   404605 
 7308000   0.91844891   -3.2310596    -1.736038  0.063229134   -3.2310596    1.4950216   404597 
 7309000   0.91960806   -3.2315337   -1.7345956  0.059704151   -3.2315337    1.4969381   404589 
 7310000   0.91761055    -3.229987    -1.736271  0.059956226    -3.229987     1.493716   404581 
 7311000   0.91578757   -3.2270811    -1.736303  0.064609837   -3.2270811     1.490778   404573 
 7312000   0.91841943   -3.2319702   -1.7368783  0.064900327   -3.2319702    1.4950919   404565 
 7313000   0.91792653   -3.2302388   -1.7359198  0.063939863   -3.2302388    1.4943191   404557 
 7314000   0.91850317   -3.2306605   -1.7353732  0.059259373   -3.2306605    1.4952873   404549 
 7315000   0.91763254   -3.2291071   -1.7352076  0.065619176   -3.2291071    1.4938995   404541 
 7316000   0.91785727   -3.2296307   -1.7353358  0.062097232   -3.2296307     1.494295   404533 
 7317000   0.91825578   -3.2290599   -1.7340866  0.064806427   -3.2290599    1.4949733   404525 
 7318000   0.91758392   -3.2287345   -1.7348255  0.068614852   -3.2287345     1.493909   404517 
 7319000   0.91872543   -3.2291138   -1.7333167  0.061115684   -3.2291138    1.4957971   404509 
 7320000   0.91750301   -3.2283309   -1.7344946  0.062914515   -3.2283309    1.4938364   404501 
 7321000   0.91906916   -3.2302442   -1.7338283  0.058340597   -3.2302442    1.4964159   404493 
 7322000   0.91851518   -3.2283257   -1.7327822  0.062824958   -3.2283257    1.4955435   404485 
 7323000   0.91721257   -3.2277001    -1.734248  0.056357466   -3.2277001    1.4934521   404477 
 7324000   0.91450401   -3.2242501   -1.7351787  0.058686626   -3.2242501    1.4890713   404469 
 7325000   0.91530358   -3.2265143   -1.7361116  0.057525044   -3.2265143    1.4904028   404461 
 7326000   0.91550099   -3.2271095   -1.7363558  0.061793226   -3.2271095    1.4907537   404453 
 7327000    0.9141913   -3.2248719   -1.7362214  0.056996479   -3.2248719    1.4886505   404445 
 7328000   0.91475396   -3.2243285   -1.7347323  0.059242349   -3.2243285    1.4895962   404437 
 7329000   0.91548335   -3.2254857   -1.7346723   0.05582001   -3.2254857    1.4908134   404429 
 7330000   0.91494379   -3.2237421   -1.7337778  0.055968421   -3.2237421    1.4899642   404421 
 7331000   0.91299026   -3.2220304    -1.735218  0.058282775   -3.2220304    1.4868124   404413 
 7332000   0.91516124   -3.2245727   -1.7341954  0.057905063   -3.2245727    1.4903773   404405 
 7333000   0.91517386   -3.2242084   -1.7337811  0.059185771   -3.2242084    1.4904274   404397 
 7334000   0.91497177   -3.2235333   -1.7334056  0.058872812   -3.2235333    1.4901277   404389 
 7335000   0.91680154   -3.2270604   -1.7339231  0.055537546   -3.2270604    1.4931372   404381 
 7336000   0.91670675    -3.226019   -1.7330066   0.05281587    -3.226019    1.4930124   404373 
 7337000   0.91493903   -3.2215479   -1.7313851  0.058414244   -3.2215479    1.4901628   404365 
 7338000    0.9162746   -3.2224871   -1.7301195   0.05814394   -3.2224871    1.4923676   404357 
 7339000   0.91764038   -3.2244922   -1.7298706  0.058817733   -3.2244922    1.4946217   404349 
 7340000   0.91779492   -3.2252954   -1.7303924  0.056183955   -3.2252954     1.494903   404341 
 7341000   0.91872361   -3.2277332    -1.731288  0.058381996   -3.2277332    1.4964452   404333 
 7342000   0.91809848   -3.2267912   -1.7313347  0.060399423   -3.2267912    1.4954566   404325 
 7343000   0.91670583   -3.2239266   -1.7307089  0.060711818   -3.2239266    1.4932177   404317 
 7344000   0.91733803   -3.2237268   -1.7294498   0.06282024   -3.2237268     1.494277   404309 
 7345000   0.91724184    -3.223888   -1.7297381  0.059451464    -3.223888    1.4941499   404301 
 7346000   0.91712335   -3.2246784   -1.7306919  0.060359838   -3.2246784    1.4939865   404293 
 7347000   0.91670463   -3.2238319   -1.7304979  0.056661899   -3.2238319    1.4933339   404285 
 7348000   0.91380758    -3.220567    -1.731923   0.05706806    -3.220567     1.488644   404277 
 7349000   0.91569328    -3.223256   -1.7315106  0.057001401    -3.223256    1.4917454   404269 
 7350000   0.91664672   -3.2241338   -1.7308056  0.061565748   -3.2241338    1.4933282   404261 
 7351000   0.91700915   -3.2230617   -1.7291135  0.060694407   -3.2230617    1.4939482   404253 
 7352000   0.91652026   -3.2228158   -1.7296345  0.059594231   -3.2228158    1.4931813   404245 
 7353000    0.9159177    -3.221112   -1.7288829  0.058852892    -3.221112    1.4922292   404237 
 7354000   0.91552643   -3.2209161   -1.7292949  0.057136662   -3.2209161    1.4916212   404229 
 7355000   0.91589381   -3.2208644   -1.7286151  0.061275642   -3.2208644    1.4922493   404221 
 7356000   0.91693523   -3.2233962   -1.7294205  0.057988609   -3.2233962    1.4939756   404213 
 7357000   0.91660122   -3.2226475   -1.7291865  0.063715879   -3.2226475     1.493461   404205 
 7358000   0.91690413   -3.2218902   -1.7279061  0.056501957   -3.2218902    1.4939841   404197 
 7359000   0.91532935   -3.2209166   -1.7294689  0.057783187   -3.2209166    1.4914477   404189 
 7360000   0.91640386   -3.2200296   -1.7268016  0.058827328   -3.2200296    1.4932281   404181 
 7361000   0.91515208   -3.2212306   -1.7300127  0.057094199   -3.2212306    1.4912179   404173 
 7362000   0.91495351    -3.219642   -1.7287182  0.058452717    -3.219642    1.4909238   404165 
 7363000   0.91450585   -3.2204977   -1.7302738  0.053070467   -3.2204977    1.4902239   404157 
 7364000   0.91435918   -3.2207718   -1.7307575  0.053789614   -3.2207718    1.4900144   404149 
 7365000   0.91313762   -3.2177246   -1.7296714  0.054556261   -3.2177246    1.4880532   404141 
 7366000   0.91410104   -3.2192123   -1.7295596  0.053367273   -3.2192123    1.4896527   404133 
 7367000   0.91558258   -3.2217778   -1.7296812  0.053165647   -3.2217778    1.4920966   404125 
 7368000   0.91615202   -3.2227221    -1.729668  0.056590258   -3.2227221    1.4930541   404117 
 7369000   0.91565517    -3.220842   -1.7285681  0.057538318    -3.220842     1.492274   404109 
 7370000    0.9159219   -3.2230535   -1.7303152  0.059143812   -3.2230535    1.4927382   404101 
 7371000   0.91708656   -3.2233398   -1.7286738  0.061495801   -3.2233398    1.4946659   404093 
 7372000   0.91691105   -3.2227995     -1.72839  0.058248066   -3.2227995    1.4944095   404085 
 7373000   0.91693955   -3.2220041   -1.7275186  0.063769417   -3.2220041    1.4944855   404077 
 7374000   0.91716028   -3.2235044   -1.7286295  0.063155449   -3.2235044    1.4948749   404069 
 7375000   0.91825893   -3.2258397   -1.7291445  0.058135167   -3.2258397    1.4966952   404061 
 7376000   0.91524156   -3.2223702   -1.7305635  0.059300029   -3.2223702    1.4918066   404053 
 7377000   0.91641349   -3.2229937   -1.7292473  0.059174813   -3.2229937    1.4937464   404045 
 7378000   0.91634383   -3.2226512   -1.7289888  0.065464427   -3.2226512    1.4936624   404037 
 7379000    0.9166068   -3.2229676    -1.728847  0.060423053   -3.2229676    1.4941206   404029 
 7380000   0.91788197   -3.2238281   -1.7275992  0.062943466   -3.2238281    1.4962289   404021 
 7381000   0.91628831   -3.2219381   -1.7282775   0.06420304   -3.2219381    1.4936606   404013 
 7382000   0.91768436   -3.2235629   -1.7275969  0.056454515   -3.2235629     1.495966   404005 
 7383000   0.91704926   -3.2238128   -1.7288525   0.06582483   -3.2238128    1.4949603   403997 
 7384000   0.91639975    -3.221842   -1.7279109  0.063684531    -3.221842    1.4939311   403989 
 7385000   0.91874143   -3.2249588   -1.7271806  0.056213381   -3.2249588    1.4977782   403981 
 7386000   0.91568416   -3.2216617   -1.7288381  0.058666887   -3.2216617    1.4928236   403973 
 7387000   0.91427991   -3.2223732   -1.7318094  0.053539324   -3.2223732    1.4905638   403965 
 7388000   0.91430941   -3.2224814     -1.73184  0.054884515   -3.2224814    1.4906414   403957 
 7389000   0.91382689   -3.2203345   -1.7304502   0.06288502   -3.2203345    1.4898842   403949 
 7390000   0.91527278   -3.2222512   -1.7299801  0.056236149   -3.2222512    1.4922712   403941 
 7391000   0.91594828   -3.2233107   -1.7299086   0.05585381   -3.2233107    1.4934021   403933 
 7392000   0.91512972   -3.2215575   -1.7294605  0.061410204   -3.2215575     1.492097   403925 
 7393000   0.91482712   -3.2207306   -1.7290974  0.060016819   -3.2207306    1.4916332   403917 
 7394000   0.91640532   -3.2215242   -1.7272881  0.056859541   -3.2215242     1.494236   403909 
 7395000   0.91661386   -3.2211193   -1.7265136  0.064228846   -3.2211193    1.4946057   403901 
 7396000   0.91654226   -3.2214762   -1.7269576  0.057057933   -3.2214762    1.4945185   403893 
 7397000   0.91735737   -3.2238281   -1.7279508  0.060322344   -3.2238281    1.4958773   403885 
 7398000   0.91611135   -3.2232572   -1.7293822  0.059887693   -3.2232572    1.4938751   403877 
 7399000   0.91565671   -3.2221467   -1.7289834  0.057364346   -3.2221467    1.4931633   403869 
 7400000   0.91582932   -3.2227048   -1.7292304  0.057378276   -3.2227048    1.4934743   403861 
 7401000   0.91575302   -3.2216101   -1.7282306  0.059952078   -3.2216101    1.4933795   403853 
 7402000   0.91469138   -3.2207265   -1.7290488  0.062416004   -3.2207265    1.4916777   403845 
 7403000   0.91384456   -3.2208878   -1.7305615  0.060198263   -3.2208878    1.4903263   403837 
 7404000   0.91552199   -3.2231812   -1.7300898  0.057099728   -3.2231812    1.4930914   403829 
 7405000   0.91530402   -3.2218195    -1.729054  0.062788499   -3.2218195    1.4927655   403821 
 7406000   0.91568461   -3.2227278    -1.729312  0.053489518   -3.2227278    1.4934158   403813 
 7407000   0.91514763   -3.2211694   -1.7285997  0.059563195   -3.2211694    1.4925696   403805 
 7408000   0.91564907   -3.2225078   -1.7290908   0.06492342   -3.2225078     1.493417   403797 
 7409000   0.91558064   -3.2216535   -1.7283185  0.059405967   -3.2216535     1.493335   403789 
 7410000    0.9170227   -3.2238298   -1.7281132   0.06135634   -3.2238298    1.4957167   403781 
 7411000   0.91616347   -3.2213472   -1.7270023   0.06203891   -3.2213472    1.4943448   403773 
 7412000   0.91431898   -3.2201419    -1.728776   0.05994691   -3.2201419    1.4913659   403765 
 7413000   0.91540139   -3.2201521   -1.7269911  0.065958563   -3.2201521     1.493161   403757 
 7414000    0.9161743   -3.2219029   -1.7274516   0.05410547   -3.2219029    1.4944513   403749 
 7415000    0.9146784   -3.2200609   -1.7280201  0.063889236   -3.2200609    1.4920408   403741 
 7416000   0.91459301   -3.2220803   -1.7301492  0.055270566   -3.2220803    1.4919311   403733 
 7417000   0.91534948   -3.2224915   -1.7292968  0.056100366   -3.2224915    1.4931947   403725 
 7418000    0.9140443   -3.2214161    -1.730321  0.060345114   -3.2214161    1.4910951   403717 
 7419000   0.91581567   -3.2225227   -1.7285084  0.056762551   -3.2225227    1.4940144   403709 
 7420000   0.91390988   -3.2205988   -1.7296639   0.05992307   -3.2205988    1.4909349   403701 
 7421000   0.91403632   -3.2212633   -1.7300926  0.058640145   -3.2212633    1.4911707   403693 
 7422000   0.91508524   -3.2221641   -1.7292526  0.054678888   -3.2221641    1.4929115   403685 
 7423000   0.91640628   -3.2234492   -1.7283529  0.059787632   -3.2234492    1.4950964   403677 
 7424000   0.91673207   -3.2241529   -1.7284953  0.058780047   -3.2241529    1.4956575   403669 
 7425000   0.91543413   -3.2205331   -1.7269636  0.060390448   -3.2205331    1.4935695   403661 
 7426000   0.91577617   -3.2215066   -1.7273494  0.061109917   -3.2215066    1.4941572   403653 
 7427000   0.91587444    -3.221309   -1.7269618  0.056522542    -3.221309    1.4943471   403645 
 7428000   0.91546936   -3.2211792   -1.7274634  0.059892957   -3.2211792    1.4937158   403637 
 7429000   0.91578445   -3.2207417   -1.7264822  0.060247466   -3.2207417    1.4942595   403629 
 7430000   0.91621391   -3.2224148   -1.7274249  0.060882004   -3.2224148    1.4949899   403621 
 7431000   0.91710021   -3.2236002   -1.7271345  0.059812064   -3.2236002    1.4964657   403613 
 7432000   0.91704362    -3.223108    -1.726705  0.058500692    -3.223108    1.4964031   403605 
 7433000   0.91481385   -3.2200835   -1.7272893  0.060409181   -3.2200835    1.4927942   403597 
 7434000   0.91573978    -3.221348   -1.7270132  0.054654205    -3.221348    1.4943347   403589 
 7435000   0.91456044   -3.2200255   -1.7275856  0.055854374   -3.2200255    1.4924398   403581 
 7436000   0.91347624   -3.2186989   -1.7279988  0.059836392   -3.2186989    1.4907001   403573 
 7437000   0.91330522   -3.2182008   -1.7277502  0.059135645   -3.2182008    1.4904506   403565 
 7438000   0.91275019   -3.2177175   -1.7281431  0.055961165   -3.2177175    1.4895743   403557 
 7439000   0.91313662   -3.2188003   -1.7285658  0.057369491   -3.2188003    1.4902345   403549 
 7440000   0.91372017   -3.2190912   -1.7278747  0.057967353   -3.2190912    1.4912164   403541 
 7441000   0.91466821   -3.2202063    -1.727413   0.05874101   -3.2202063    1.4927932   403533 
 7442000   0.91276518   -3.2178842   -1.7281673  0.062771526   -3.2178842    1.4897169   403525 
 7443000     0.914451   -3.2210728   -1.7285749  0.054151383   -3.2210728    1.4924979   403517 
 7444000   0.91517777   -3.2222746   -1.7285609  0.059204763   -3.2222746    1.4937137   403509 
 7445000   0.91434832   -3.2226484   -1.7302589  0.057212924   -3.2226484    1.4923895   403501 
 7446000   0.91422662   -3.2229706   -1.7307501  0.056372938   -3.2229706    1.4922205   403493 
 7447000   0.91265209   -3.2203677   -1.7306877  0.056653015   -3.2203677      1.48968   403485 
 7448000   0.91288331   -3.2205257   -1.7304388  0.059081309   -3.2205257     1.490087   403477 
 7449000   0.91378391   -3.2218595    -1.730273  0.061564752   -3.2218595    1.4915866   403469 
 7450000   0.91501269   -3.2241748   -1.7305528  0.056021569   -3.2241748     1.493622   403461 
 7451000   0.91503252   -3.2260025   -1.7323185  0.060962967   -3.2260025    1.4936839   403453 
 7452000   0.91572571   -3.2253722    -1.730527  0.058891196   -3.2253722    1.4948451   403445 
 7453000   0.91575309   -3.2253512   -1.7304317  0.062354312   -3.2253512    1.4949195   403437 
 7454000   0.91626315   -3.2255579   -1.7297761  0.061507847   -3.2255579    1.4957818   403429 
 7455000   0.91520779   -3.2263774   -1.7322889  0.062311607   -3.2263774    1.4940886   403421 
 7456000   0.91524037   -3.2274018   -1.7332304  0.059597333   -3.2274018    1.4941714   403413 
 7457000   0.91520868   -3.2274368   -1.7332876   0.06082368   -3.2274368    1.4941493   403405 
 7458000    0.9133005   -3.2250922   -1.7340286   0.06182738   -3.2250922    1.4910636   403397 
 7459000    0.9136109   -3.2264548   -1.7348549  0.064385616   -3.2264548    1.4915999   403389 
 7460000   0.91280855   -3.2249843   -1.7346648  0.056782015   -3.2249843    1.4903195   403381 
 7461000   0.91329627   -3.2268181   -1.7356727  0.055551337   -3.2268181    1.4911454   403373 
 7462000   0.91259376   -3.2270986   -1.7370706  0.064315656   -3.2270986     1.490028   403365 
 7463000   0.91441177   -3.2295975   -1.7365716  0.059597479   -3.2295975    1.4930259   403357 
 7464000    0.9145809   -3.2295945   -1.7362629  0.063577843   -3.2295945    1.4933317   403349 
 7465000   0.91383312   -3.2287725   -1.7366322  0.062382215   -3.2287725    1.4921403   403341 
 7466000   0.91294055    -3.226905   -1.7361926  0.057465497    -3.226905    1.4907124   403333 
 7467000   0.91321334   -3.2277498   -1.7365624  0.062210304   -3.2277498    1.4911874   403325 
 7468000   0.91516915   -3.2291696   -1.7347588  0.056012139   -3.2291696    1.4944107   403317 
 7469000   0.91564733   -3.2304312   -1.7352099  0.054683502   -3.2304312    1.4952212   403309 
 7470000   0.91529298   -3.2309072   -1.7362349  0.060160387   -3.2309072    1.4946722   403301 
 7471000   0.91272739   -3.2282735   -1.7377613  0.055039373   -3.2282735    1.4905122   403293 
 7472000   0.91300576   -3.2289536   -1.7379572  0.057179522   -3.2289536    1.4909964   403285 
 7473000   0.91269511   -3.2281991   -1.7376804  0.062697577   -3.2281991    1.4905186   403277 
 7474000   0.91293509   -3.2279242   -1.7369841  0.056008923   -3.2279242    1.4909401   403269 
 7475000   0.91434908   -3.2288966   -1.7356177  0.058007959   -3.2288966    1.4932789   403261 
 7476000   0.91578478   -3.2291518   -1.7334985  0.059313383   -3.2291518    1.4956533   403253 
 7477000   0.91455429   -3.2302002   -1.7365269  0.061538235   -3.2302002    1.4936733   403245 
 7478000   0.91512912   -3.2308146   -1.7361728  0.057244988   -3.2308146    1.4946418   403237 
 7479000   0.91503598   -3.2307321   -1.7362128  0.059309244   -3.2307321    1.4945194   403229 
 7480000   0.91423995    -3.230047   -1.7367982  0.060397052    -3.230047    1.4932488   403221 
 7481000   0.91470583   -3.2286658   -1.7346264  0.062752646   -3.2286658    1.4940394   403213 
 7482000    0.9133985   -3.2260085   -1.7340748   0.06143621   -3.2260085    1.4919337   403205 
 7483000   0.91333899   -3.2250727   -1.7332066  0.057646343   -3.2250727    1.4918661   403197 
 7484000   0.91258483   -3.2242579   -1.7335941  0.059251091   -3.2242579    1.4906638   403189 
 7485000    0.9133211   -3.2250735   -1.7331774  0.063737565   -3.2250735    1.4918961   403181 
 7486000   0.91316508   -3.2239545   -1.7322837  0.059101958   -3.2239545    1.4916708   403173 
 7487000   0.91443961   -3.2267852   -1.7330028  0.063006304   -3.2267852    1.4937824   403165 
 7488000   0.91302697   -3.2252556   -1.7337512     0.060179   -3.2252556    1.4915044   403157 
 7489000   0.91312477   -3.2249826   -1.7332889  0.052155014   -3.2249826    1.4916937   403149 
 7490000   0.91246305   -3.2236485   -1.7330061   0.05388584   -3.2236485    1.4906423   403141 
 7491000   0.91248086   -3.2218852   -1.7311842    0.0629629   -3.2218852     1.490701   403133 
 7492000   0.91275226   -3.2231933   -1.7320193  0.060311809   -3.2231933     1.491174   403125 
 7493000   0.91245283   -3.2220819   -1.7313675  0.058811089   -3.2220819    1.4907144   403117 
 7494000   0.91333493   -3.2228704   -1.7306853   0.05813157   -3.2228704    1.4921851   403109 
 7495000   0.91316544   -3.2242098    -1.732272  0.056823987   -3.2242098    1.4919378   403101 
 7496000   0.91140039   -3.2221138   -1.7330301  0.056728041   -3.2221138    1.4890836   403093 
 7497000   0.90940461   -3.2212127   -1.7353604   0.05303004   -3.2212127    1.4858523   403085 
 7498000   0.91089692   -3.2235585   -1.7352384  0.058446279   -3.2235585    1.4883201   403077 
 7499000   0.91027295   -3.2220267   -1.7346966  0.054166593   -3.2220267    1.4873301   403069 
 7500000   0.91161147   -3.2230024   -1.7334556  0.050980686   -3.2230024    1.4895467   403061 
 7501000    0.9126268   -3.2237914   -1.7325561  0.052529064   -3.2237914    1.4912354   403053 
 7502000   0.91298723   -3.2247472   -1.7328932  0.052861295   -3.2247472    1.4918539   403045 
 7503000    0.9131235   -3.2253751   -1.7332689  0.056747028   -3.2253751    1.4921062   403037 
 7504000   0.91295934    -3.225988   -1.7341204  0.059094905    -3.225988    1.4918676   403029 
 7505000   0.91583131   -3.2301889   -1.7335986  0.060952091   -3.2301889    1.4965904   403021 
 7506000   0.91324588   -3.2264272   -1.7340321  0.062054299   -3.2264272     1.492395   403013 
 7507000   0.91445032   -3.2287572   -1.7343643  0.059878015   -3.2287572     1.494393   403005 
 7508000   0.91459544   -3.2277022   -1.7330424  0.058614254   -3.2277022    1.4946598   402997 
 7509000   0.91479974   -3.2286325   -1.7336092  0.064675261   -3.2286325    1.4950233   402989 
 7510000   0.91549906   -3.2291617   -1.7329658  0.060602724   -3.2291617    1.4961959   402981 
 7511000   0.91469324   -3.2284765   -1.7335678  0.061155383   -3.2284765    1.4949086   402973 
 7512000   0.91214319   -3.2256306   -1.7348599  0.064884246   -3.2256306    1.4907706   402965 
 7513000   0.91560378   -3.2299829   -1.7335267  0.062080667   -3.2299829    1.4964562   402957 
 7514000   0.91389757   -3.2290726   -1.7353754  0.062910166   -3.2290726    1.4936972   402949 
 7515000    0.9127434   -3.2282906   -1.7364502  0.061721732   -3.2282906    1.4918404   402941 
 7516000   0.91371424   -3.2292297   -1.7357728   0.06095757   -3.2292297    1.4934569   402933 
 7517000   0.91280943   -3.2287085   -1.7367009  0.060485767   -3.2287085    1.4920076   402925 
 7518000   0.91223481   -3.2281937   -1.7370957  0.060491365   -3.2281937     1.491098   402917 
 7519000   0.91335011     -3.22999   -1.7370394  0.063808089     -3.22999    1.4929506   402909 
 7520000   0.91190763   -3.2275987   -1.7369763  0.063315244   -3.2275987    1.4906224   402901 
 7521000   0.91317064      -3.2289   -1.7361834  0.064224112      -3.2289    1.4927166   402893 
 7522000   0.91329343   -3.2289283   -1.7359814  0.057921203   -3.2289283    1.4929469   402885 
 7523000   0.91354878   -3.2284952   -1.7351013  0.061209389   -3.2284952     1.493394   402877 
 7524000   0.91214486   -3.2264954   -1.7353668  0.056584156   -3.2264954    1.4911286   402869 
 7525000   0.91141909   -3.2273007    -1.737329  0.053802543   -3.2273007    1.4899717   402861 
 7526000   0.91092959   -3.2269046   -1.7377035   0.05635984   -3.2269046    1.4892011   402853 
 7527000   0.91076409   -3.2258007   -1.7368406  0.055931384   -3.2258007    1.4889601   402845 
 7528000   0.91229788   -3.2279511   -1.7364539   0.05330972   -3.2279511    1.4914972   402837 
 7529000   0.91012616   -3.2229897   -1.7350134  0.058053324   -3.2229897    1.4879763   402829 
 7530000   0.91001735   -3.2226057   -1.7347778   0.05863701   -3.2226057    1.4878279   402821 
 7531000   0.91108536   -3.2254502   -1.7358466  0.057077861   -3.2254502    1.4896036   402813 
 7532000   0.91313215   -3.2277229   -1.7347432  0.057250943   -3.2277229    1.4929797   402805 
 7533000   0.91299549     -3.22668    -1.733894  0.059887335     -3.22668    1.4927859   402797 
 7534000   0.91222423   -3.2258598   -1.7343053  0.058972711   -3.2258598    1.4915545   402789 
 7535000   0.91212439   -3.2247865   -1.7333656  0.055047273   -3.2247865    1.4914209   402781 
 7536000   0.91215821   -3.2244483   -1.7329425  0.061024836   -3.2244483    1.4915058   402773 
 7537000   0.91122553   -3.2237957   -1.7337853  0.060535425   -3.2237957    1.4900104   402765 
 7538000   0.91398845   -3.2290148   -1.7344569  0.060418205   -3.2290148    1.4945579   402757 
 7539000   0.91316456   -3.2273699   -1.7341296  0.054861454   -3.2273699    1.4932403   402749 
 7540000   0.91156353   -3.2249019     -1.73425  0.056471605   -3.2249019    1.4906519   402741 
 7541000    0.9111974   -3.2251791   -1.7350964  0.057113915   -3.2251791    1.4900827   402733 
 7542000   0.91165441   -3.2263254   -1.7354657  0.057516498   -3.2263254    1.4908597   402725 
 7543000   0.91168652   -3.2274067   -1.7364648   0.05614835   -3.2274067    1.4909418   402717 
 7544000   0.91162878      -3.2271    -1.736223  0.058854456      -3.2271     1.490877   402709 
 7545000   0.91375756   -3.2287234   -1.7343352  0.060579194   -3.2287234    1.4943881   402701 
 7546000   0.91133177   -3.2248331   -1.7343826  0.063096366   -3.2248331    1.4904505   402693 
 7547000   0.91384938   -3.2286392   -1.7340416  0.060518374   -3.2286392    1.4945977   402685 
 7548000   0.91203221   -3.2272905   -1.7356351  0.067768767   -3.2272905    1.4916553   402677 
 7549000   0.91410509   -3.2302634   -1.7351881  0.064820952   -3.2302634    1.4950753   402669 
 7550000   0.91431355   -3.2315626   -1.7361166  0.055856849   -3.2315626     1.495446   402661 
 7551000   0.91317681    -3.228342   -1.7347256  0.057072306    -3.228342    1.4936164   402653 
 7552000   0.91281466   -3.2283932   -1.7353395  0.062582916   -3.2283932    1.4930537   402645 
 7553000    0.9109885   -3.2263263     -1.73623  0.055488605   -3.2263263    1.4900963   402637 
 7554000   0.91157213   -3.2261364   -1.7350558  0.061887875   -3.2261364    1.4910806   402629 
 7555000   0.91238423   -3.2274693   -1.7350307   0.06694016   -3.2274693    1.4924386   402621 
 7556000   0.91349762   -3.2298997   -1.7356101  0.055566574   -3.2298997    1.4942896   402613 
 7557000   0.91209711   -3.2272276   -1.7351994  0.060137858   -3.2272276    1.4920283   402605 
 7558000   0.91151289   -3.2248861   -1.7337839  0.062628415   -3.2248861    1.4911022   402597 
 7559000    0.9125082   -3.2267774   -1.7340173  0.055921136   -3.2267774    1.4927601   402589 
 7560000   0.91281525    -3.226735    -1.733443  0.057771454    -3.226735     1.493292   402581 
 7561000   0.91211316   -3.2240553   -1.7318822  0.059421178   -3.2240553    1.4921731   402573 
 7562000   0.91239838   -3.2243338   -1.7316644  0.062311694   -3.2243338    1.4926694   402565 
 7563000   0.91380927   -3.2263953    -1.731388  0.057096835   -3.2263953    1.4950073   402557 
 7564000   0.91157505   -3.2229551   -1.7315734  0.059522015   -3.2229551    1.4913817   402549 
 7565000   0.90979232   -3.2206428   -1.7321482  0.056600306   -3.2206428    1.4884946   402541 
 7566000   0.91114528    -3.221396   -1.7306582   0.06031417    -3.221396    1.4907378   402533 
 7567000   0.91090758    -3.221658   -1.7312795  0.054380264    -3.221658    1.4903785   402525 
 7568000   0.91078139   -3.2216227    -1.731421  0.052349481   -3.2216227    1.4902017   402517 
 7569000   0.91346838   -3.2236117   -1.7289839   0.05849351   -3.2236117    1.4946278   402509 
 7570000   0.91156299   -3.2206473   -1.7291075  0.061780985   -3.2206473    1.4915398   402501 
 7571000    0.9127316   -3.2208194   -1.7273378  0.065841622   -3.2208194    1.4934816   402493 
 7572000   0.91201129   -3.2205941   -1.7282614  0.059631415   -3.2205941    1.4923327   402485 
 7573000   0.91205412   -3.2194801   -1.7270477  0.061537921   -3.2194801    1.4924324   402477 
 7574000   0.91378187   -3.2206529   -1.7253635   0.05501111   -3.2206529    1.4952893   402469 
 7575000   0.91328757   -3.2206536   -1.7261434  0.055674301   -3.2206536    1.4945102   402461 
 7576000   0.91215387   -3.2186695   -1.7259849  0.056192048   -3.2186695    1.4926846   402453 
 7577000   0.91034195   -3.2185518   -1.7288027  0.053823717   -3.2185518    1.4897492   402445 
 7578000   0.91072541    -3.220103   -1.7296966  0.053378997    -3.220103    1.4904063   402437 
 7579000   0.90825558   -3.2152904   -1.7288964  0.056776968   -3.2152904     1.486394   402429 
 7580000   0.90894425   -3.2172332   -1.7296826  0.056663153   -3.2172332    1.4875506   402421 
 7581000   0.91008077   -3.2191338   -1.7296936  0.055520533   -3.2191338    1.4894402   402413 
 7582000   0.91120188   -3.2201364   -1.7288318  0.056426807   -3.2201364    1.4913046   402405 
 7583000   0.91143815   -3.2216904   -1.7299694  0.055350757   -3.2216904     1.491721   402397 
 7584000   0.91061847   -3.2185278   -1.7281187  0.054414988   -3.2185278    1.4904091   402389 
 7585000   0.91160834   -3.2187179    -1.726659  0.054804851   -3.2187179    1.4920589   402381 
 7586000   0.91051218   -3.2176158   -1.7273215  0.056539504   -3.2176158    1.4902944   402373 
 7587000   0.91175795    -3.220107   -1.7277439  0.061173708    -3.220107    1.4923631   402365 
 7588000   0.91112417   -3.2186471   -1.7272917  0.060552925   -3.2186471    1.4913554   402357 
 7589000   0.91378232    -3.221996     -1.72626  0.059644601    -3.221996     1.495736   402349 
 7590000   0.91421869   -3.2220623   -1.7255822  0.062271572   -3.2220623    1.4964801   402341 
 7591000   0.91359776   -3.2227874    -1.727294  0.061691572   -3.2227874    1.4954934   402333 
 7592000   0.91456166   -3.2239435   -1.7268425  0.060878602   -3.2239435     1.497101   402325 
 7593000   0.91204563   -3.2203247   -1.7273127  0.062439076   -3.2203247    1.4930121   402317 
 7594000   0.91254608   -3.2212253   -1.7273643  0.060087296   -3.2212253     1.493861   402309 
 7595000   0.91261779   -3.2211662   -1.7271581  0.058830518   -3.2211662    1.4940081   402301 
 7596000   0.91215961   -3.2220013   -1.7287136  0.060069181   -3.2220013    1.4932877   402293 
 7597000   0.91239311   -3.2215394   -1.7278397  0.064086679   -3.2215394    1.4936997   402285 
 7598000   0.91217161    -3.222181   -1.7288143  0.061127385    -3.222181    1.4933668   402277 
 7599000   0.91217094   -3.2216585   -1.7282631   0.06355132   -3.2216585    1.4933954   402269 
 7600000   0.91047806   -3.2208638   -1.7302103  0.059656646   -3.2208638    1.4906534   402261 
 7601000   0.91045996   -3.2197917   -1.7291382  0.053326133   -3.2197917    1.4906535   402253 
 7602000   0.91101607   -3.2205395   -1.7289459  0.053819231   -3.2205395    1.4915936   402245 
 7603000   0.91083887   -3.2197284   -1.7283953  0.056065182   -3.2197284    1.4913332   402237 
 7604000   0.90916962   -3.2179998   -1.7293701  0.055789045   -3.2179998    1.4886297   402229 
 7605000   0.91162034   -3.2209497   -1.7282777  0.057091346   -3.2209497     1.492672   402221 
 7606000   0.90982811   -3.2203248   -1.7305577    0.0560311   -3.2203248    1.4897671   402213 
 7607000   0.91034806   -3.2197708   -1.7291226  0.061137363   -3.2197708    1.4906481   402205 
 7608000   0.91068755   -3.2209635   -1.7297298  0.056385577   -3.2209635    1.4912337   402197 
 7609000   0.91085095   -3.2208989    -1.729368   0.05688597   -3.2208989    1.4915309   402189 
 7610000   0.91001704   -3.2198869   -1.7296919  0.060588445   -3.2198869     1.490195   402181 
 7611000   0.91221938   -3.2228144   -1.7289832  0.057099864   -3.2228144    1.4938312   402173 
 7612000   0.91173728   -3.2211957   -1.7281243  0.060644958   -3.2211957    1.4930714   402165 
 7613000   0.90966205   -3.2192609   -1.7295583  0.061436027   -3.2192609    1.4897026   402157 
 7614000   0.91183913   -3.2229885   -1.7296909  0.056154064   -3.2229885    1.4932976   402149 
 7615000    0.9126538   -3.2235019   -1.7288404  0.062836567   -3.2235019    1.4946615   402141 
 7616000   0.91002521   -3.2203025   -1.7299162  0.057856867   -3.2203025    1.4903863   402133 
 7617000   0.91068281    -3.220746    -1.729253  0.062114434    -3.220746    1.4914929   402125 
 7618000   0.91224183   -3.2236515   -1.7295755  0.057546546   -3.2236515     1.494076   402117 
 7619000   0.90972904    -3.220283   -1.7302929  0.054116449    -3.220283    1.4899901   402109 
 7620000   0.90963025   -3.2208827   -1.7310247  0.057079669   -3.2208827     1.489858   402101 
 7621000   0.91055768   -3.2218566     -1.73045  0.057924709   -3.2218566    1.4914067   402093 
 7622000   0.91052085    -3.221255    -1.729879  0.060981565    -3.221255     1.491376   402085 
 7623000   0.91115352   -3.2224959    -1.730054  0.060056224   -3.2224959     1.492442   402077 
 7624000    0.9105037   -3.2216446   -1.7302374  0.062052357   -3.2216446    1.4914073   402069 
 7625000   0.91064741    -3.220995   -1.7293226  0.062103262    -3.220995    1.4916724   402061 
 7626000   0.91164434   -3.2226657   -1.7293306  0.062208189   -3.2226657    1.4933351   402053 
 7627000     0.912027   -3.2234175   -1.7294258  0.057072219   -3.2234175    1.4939916   402045 
 7628000      0.91187   -3.2214726   -1.7277084  0.061886478   -3.2214726    1.4937642   402037 
 7629000   0.91250483    -3.222877   -1.7280432  0.062507048    -3.222877    1.4948338   402029 
 7630000    0.9131799   -3.2247764   -1.7288069  0.056716781   -3.2247764    1.4959695   402021 
 7631000   0.91060498   -3.2219686   -1.7301876  0.058930598   -3.2219686     1.491781   402013 
 7632000   0.90969321   -3.2220073   -1.7316904  0.056623702   -3.2220073    1.4903169   402005 
 7633000    0.9093029   -3.2208644   -1.7311573   0.05943772   -3.2208644    1.4897071   401997 
 7634000   0.90941007   -3.2212169   -1.7313046  0.056200173   -3.2212169    1.4899124   401989 
 7635000   0.90994851   -3.2238294   -1.7330052  0.056995124   -3.2238294    1.4908242   401981 
 7636000    0.9097733   -3.2228564   -1.7322896   0.05731063   -3.2228564    1.4905668   401973 
 7637000   0.91038072   -3.2232845   -1.7316929  0.058211183   -3.2232845    1.4915917   401965 
 7638000   0.91145818   -3.2246924   -1.7313057  0.056807279   -3.2246924    1.4933867   401957 
 7639000   0.90951297    -3.222066   -1.7318368   0.05820573    -3.222066    1.4902292   401949 
 7640000   0.91053431   -3.2235552   -1.7316229  0.058074833   -3.2235552    1.4919324   401941 
 7641000   0.90956515   -3.2222664   -1.7318924  0.058233522   -3.2222664     1.490374   401933 
 7642000    0.9113638   -3.2249127   -1.7315618  0.056802653   -3.2249127     1.493351   401925 
 7643000    0.9103979    -3.221716   -1.7299181  0.060605308    -3.221716    1.4917979   401917 
 7644000   0.91147019    -3.223736   -1.7301513  0.061867638    -3.223736    1.4935847   401909 
 7645000   0.91121204   -3.2222683   -1.7290769  0.055924398   -3.2222683    1.4931914   401901 
 7646000   0.91114424   -3.2221422   -1.7290321  0.057935859   -3.2221422    1.4931101   401893 
 7647000   0.91153942   -3.2230767   -1.7292893  0.058286601   -3.2230767    1.4937874   401885 
 7648000   0.91046723   -3.2216947   -1.7296347  0.064201328   -3.2216947      1.49206   401877 
 7649000   0.91239854   -3.2248231   -1.7295683  0.061069226   -3.2248231    1.4952548   401869 
 7650000   0.91033407   -3.2222537   -1.7303525  0.061204359   -3.2222537    1.4919012   401861 
 7651000   0.91086219   -3.2217366   -1.7289401  0.058431772   -3.2217366    1.4927964   401853 
 7652000   0.91063947   -3.2218002    -1.729339  0.061077639   -3.2218002    1.4924612   401845 
 7653000     0.911992   -3.2232548   -1.7285472  0.055016719   -3.2232548    1.4947076   401837 
 7654000   0.91056866   -3.2219115    -1.729507  0.061181226   -3.2219115    1.4924045   401829 
 7655000    0.9116717   -3.2246146   -1.7303724  0.059868626   -3.2246146    1.4942421   401821 
 7656000   0.91089038     -3.22367   -1.7306788   0.05637248     -3.22367    1.4929913   401813 
 7657000   0.90894596   -3.2216244   -1.7317904  0.060033668   -3.2216244    1.4898339   401805 
 7658000   0.90770973   -3.2200975   -1.7322602  0.061511211   -3.2200975    1.4878373   401797 
 7659000    0.9093199   -3.2235833   -1.7330771  0.057656391   -3.2235833    1.4905062   401789 
 7660000   0.91041135    -3.223713   -1.7313881  0.060332125    -3.223713    1.4923249   401781 
 7661000     0.910325   -3.2248891    -1.732676  0.053948513   -3.2248891    1.4922131   401773 
 7662000   0.90892737   -3.2243084   -1.7343567   0.06086454   -3.2243084    1.4899518   401765 
 7663000   0.91024639   -3.2251737   -1.7330301   0.05891913   -3.2251737    1.4921437   401757 
 7664000   0.91099889   -3.2263163   -1.7329093  0.063557922   -3.2263163     1.493407   401749 
 7665000    0.9103981   -3.2259688    -1.733517  0.061875426   -3.2259688    1.4924518   401741 
 7666000    0.9111808    -3.226877   -1.7331123  0.060478559    -3.226877    1.4937647   401733 
 7667000   0.91072622   -3.2262491      -1.7332  0.058572062   -3.2262491    1.4930492   401725 
 7668000   0.91204951   -3.2268603    -1.731612  0.058569895   -3.2268603    1.4952484   401717 
 7669000   0.91152998   -3.2267649   -1.7323386  0.061802023   -3.2267649    1.4944264   401709 
 7670000   0.91264032   -3.2281786   -1.7319021   0.06234687   -3.2281786    1.4962766   401701 
 7671000   0.91309761   -3.2297306   -1.7326745  0.065267808   -3.2297306    1.4970561   401693 
 7672000   0.91047113   -3.2267417   -1.7339621  0.062001961   -3.2267417    1.4927796   401685 
 7673000    0.9131898   -3.2302195   -1.7329526   0.06129886   -3.2302195    1.4972669   401677 
 7674000   0.91065911   -3.2257797   -1.7326324  0.060172384   -3.2257797    1.4931473   401669 
 7675000   0.91039363   -3.2266483   -1.7339065  0.062712041   -3.2266483    1.4927417   401661 
 7676000   0.91185195   -3.2282431   -1.7330804  0.058724208   -3.2282431    1.4951627   401653 
 7677000   0.91055999   -3.2269439   -1.7338699  0.062708292   -3.2269439     1.493074   401645 
 7678000   0.91030329   -3.2264944   -1.7338116   0.06507457   -3.2264944    1.4926828   401637 
 7679000   0.90977957   -3.2248716   -1.7330178  0.063241768   -3.2248716    1.4918537   401629 
 7680000   0.90952815   -3.2234311   -1.7319599  0.061876884   -3.2234311    1.4914712   401621 
 7681000   0.91041918   -3.2255534   -1.7325914  0.055544873   -3.2255534    1.4929621   401613 
 7682000   0.90992698   -3.2255537   -1.7333691  0.059224603   -3.2255537    1.4921846   401605 
 7683000   0.90972152   -3.2249204   -1.7330429  0.055172273   -3.2249204    1.4918774   401597 
 7684000   0.91001359   -3.2231656   -1.7307795  0.054931307   -3.2231656    1.4923861   401589 
 7685000   0.91084778   -3.2225391   -1.7287552   0.06658099   -3.2225391    1.4937839   401581 
 7686000   0.91031731   -3.2220881   -1.7291444  0.057895283   -3.2220881    1.4929437   401573 
 7687000   0.90908039    -3.222152   -1.7312071  0.059554151    -3.222152    1.4909448   401565 
 7688000   0.90851589   -3.2209407    -1.730892  0.058500424   -3.2209407    1.4900487   401557 
 7689000   0.90751345   -3.2200594   -1.7316251  0.061294824   -3.2200594    1.4884343   401549 
 7690000   0.90884473   -3.2206579   -1.7300105  0.059245323   -3.2206579    1.4906474   401541 
 7691000   0.90801707   -3.2192978   -1.7299782  0.054916815   -3.2192978    1.4893196   401533 
 7692000   0.90948304   -3.2223958    -1.730642  0.058621873   -3.2223958    1.4917538   401525 
 7693000   0.90953565   -3.2224676   -1.7305978  0.056672427   -3.2224676    1.4918698   401517 
 7694000   0.90911284   -3.2207269    -1.729521  0.060580008   -3.2207269     1.491206   401509 
 7695000     0.908854    -3.220614   -1.7298029  0.063864239    -3.220614    1.4908111   401501 
 7696000   0.90954079   -3.2221792   -1.7302118  0.061720911   -3.2221792    1.4919674   401493 
 7697000     0.908815   -3.2205721   -1.7297655   0.05735258   -3.2205721    1.4908066   401485 
 7698000   0.90964696   -3.2224068   -1.7302057  0.056051221   -3.2224068     1.492201   401477 
 7699000   0.90892612   -3.2209716   -1.7299233  0.055587421   -3.2209716    1.4910483   401469 
 7700000   0.90986234   -3.2216216   -1.7290078  0.062675611   -3.2216216    1.4926138   401461 
 7701000   0.91078127   -3.2226461    -1.728495  0.060404821   -3.2226461    1.4941511   401453 
 7702000   0.90930583   -3.2206588   -1.7288984  0.067238483   -3.2206588    1.4917603   401445 
 7703000   0.91008203   -3.2234218   -1.7303583  0.060317725   -3.2234218    1.4930635   401437 
 7704000    0.9103576    -3.222779   -1.7292337  0.060596809    -3.222779    1.4935453   401429 
 7705000    0.9104223   -3.2233851   -1.7297039  0.059096095   -3.2233851    1.4936812   401421 
 7706000   0.91213529   -3.2257117   -1.7291902  0.061486992   -3.2257117    1.4965215   401413 
 7707000   0.91307669   -3.2269671   -1.7288712  0.058001105   -3.2269671    1.4980959   401405 
 7708000   0.91035084    -3.223436   -1.7297826  0.057200467    -3.223436    1.4936533   401397 
 7709000   0.90936677   -3.2218447   -1.7297763  0.058217399   -3.2218447    1.4920684   401389 
 7710000   0.90899239    -3.221394   -1.7299101  0.056764565    -3.221394    1.4914839   401381 
 7711000   0.90971959   -3.2230122   -1.7303053  0.058981987   -3.2230122    1.4927068   401373 
 7712000   0.90887937   -3.2219131   -1.7305552  0.059022608   -3.2219131    1.4913579   401365 
 7713000   0.90949765   -3.2226089   -1.7302067  0.057857717   -3.2226089    1.4924022   401357 
 7714000   0.90915066   -3.2240311   -1.7321685   0.05603492   -3.2240311    1.4918625   401349 
 7715000   0.90942269   -3.2246755   -1.7323369  0.054949267   -3.2246755    1.4923387   401341 
 7716000   0.90854246   -3.2231851   -1.7322611  0.059695681   -3.2231851     1.490924   401333 
 7717000   0.90906696   -3.2228925   -1.7310781  0.059334341   -3.2228925    1.4918144   401325 
 7718000   0.90784232   -3.2220477   -1.7322133  0.056872287   -3.2220477    1.4898344   401317 
 7719000    0.9087703   -3.2225739   -1.7311869  0.058102333   -3.2225739     1.491387   401309 
 7720000   0.90749072   -3.2210623   -1.7317455  0.058426212   -3.2210623    1.4893168   401301 
 7721000   0.90919319   -3.2239919   -1.7318514  0.061967999   -3.2239919    1.4921405   401293 
 7722000   0.90893916   -3.2222396   -1.7304863  0.060935394   -3.2222396    1.4917533   401285 
 7723000   0.90981902   -3.2228393   -1.7296121  0.061094934   -3.2228393    1.4932272   401277 
 7724000   0.91086283   -3.2246095   -1.7296394  0.062395712   -3.2246095    1.4949701   401269 
 7725000    0.9094896   -3.2216298   -1.7288838  0.062541405   -3.2216298     1.492746   401261 
 7726000   0.90989109   -3.2228318   -1.7293971   0.05577489   -3.2228318    1.4934348   401253 
 7727000   0.90864029   -3.2204652   -1.7290537  0.063557921   -3.2204652    1.4914115   401245 
 7728000   0.90878378   -3.2217878    -1.730111  0.060762677   -3.2217878    1.4916768   401237 
 7729000   0.90996768   -3.2241095   -1.7304597  0.059745246   -3.2241095    1.4936498   401229 
 7730000   0.91084088   -3.2235946   -1.7284817  0.062383057   -3.2235946    1.4951129   401221 
 7731000   0.91046124   -3.2219043   -1.7273848  0.062284774   -3.2219043    1.4945195   401213 
 7732000     0.909157   -3.2215739   -1.7291655  0.060197575   -3.2215739    1.4924084   401205 
 7733000   0.90774638   -3.2198911   -1.7297686  0.062853587   -3.2198911    1.4901225   401197 
 7734000   0.91054304   -3.2241241   -1.7293809   0.05844681   -3.2241241    1.4947432   401189 
 7735000   0.91058725    -3.222818   -1.7279724  0.060570095    -3.222818    1.4948456   401181 
 7736000   0.90935644   -3.2211253   -1.7282705  0.064606408   -3.2211253    1.4928549   401173 
 7737000   0.90993301   -3.2219204   -1.7280892   0.05979489   -3.2219204    1.4938312   401165 
 7738000   0.90962433   -3.2195953   -1.7262411  0.059426624   -3.2195953    1.4933542   401157 
 7739000   0.90947198    -3.219227   -1.7260931  0.061826394    -3.219227    1.4931338   401149 
 7740000   0.90855401   -3.2194564   -1.7277999  0.059201777   -3.2194564    1.4916565   401141 
 7741000    0.9076529   -3.2170336   -1.7268268   0.05658972   -3.2170336    1.4902068   401133 
 7742000   0.90813496   -3.2180541   -1.7270261  0.056172062   -3.2180541     1.491028   401125 
 7743000   0.90957875   -3.2194493    -1.726021  0.056698779   -3.2194493    1.4934283   401117 
 7744000   0.90660272   -3.2165093   -1.7279377  0.059362024   -3.2165093    1.4885716   401109 
 7745000   0.90814135   -3.2188665   -1.7277388  0.056490889   -3.2188665    1.4911277   401101 
 7746000    0.9083432   -3.2189498   -1.7274609  0.061584962   -3.2189498    1.4914889   401093 
 7747000   0.90842566   -3.2189064   -1.7272524  0.051026241   -3.2189064     1.491654   401085 
 7748000   0.90829451    -3.219153   -1.7276845  0.054081093    -3.219153    1.4914684   401077 
 7749000   0.90818002   -3.2174653   -1.7261551  0.056377567   -3.2174653    1.4913102   401069 
 7750000   0.90798571   -3.2201889   -1.7291681  0.055621046   -3.2201889    1.4910208   401061 
 7751000    0.9083131   -3.2186881   -1.7270999  0.062328945   -3.2186881    1.4915882   401053 
 7752000   0.90862715    -3.219923   -1.7277893  0.058012509    -3.219923    1.4921337   401045 
 7753000   0.90732171   -3.2186084   -1.7285888  0.055899896   -3.2186084    1.4900196   401037 
 7754000   0.90923483   -3.2198104   -1.7266192  0.053599182   -3.2198104    1.4931912   401029 
 7755000   0.90886799   -3.2197822   -1.7271637  0.063279937   -3.2197822    1.4926185   401021 
 7756000   0.90964625   -3.2202447   -1.7263182  0.061026901   -3.2202447    1.4939264   401013 
 7757000   0.91049217   -3.2212456   -1.7259001  0.054145195   -3.2212456    1.4953455   401005 
 7758000   0.91024307    -3.219112   -1.7241458  0.063964667    -3.219112    1.4949663   400997 
 7759000   0.91076986   -3.2207609   -1.7248996  0.061235543   -3.2207609    1.4958613   400989 
 7760000   0.90996479   -3.2192506   -1.7246817  0.062073592   -3.2192506    1.4945688   400981 
 7761000   0.90807402   -3.2182941    -1.726801  0.056425338   -3.2182941    1.4914931   400973 
 7762000   0.90807042   -3.2206285   -1.7291116   0.05941932   -3.2206285     1.491517   400965 
 7763000   0.90817816     -3.22069   -1.7289663  0.054942519     -3.22069    1.4917237   400957 
 7764000   0.90748553   -3.2177603   -1.7271446   0.06543295   -3.2177603    1.4906157   400949 
 7765000   0.90952267   -3.2213537    -1.727362  0.058540911   -3.2213537    1.4939917   400941 
 7766000    0.9094759   -3.2196147   -1.7256699  0.061240316   -3.2196147    1.4939447   400933 
 7767000   0.90742669   -3.2199185   -1.7293102  0.062082054   -3.2199185    1.4906083   400925 
 7768000   0.90746247   -3.2203961   -1.7296993  0.058028854   -3.2203961    1.4906968   400917 
 7769000   0.90815313   -3.2197646   -1.7279034  0.060467374   -3.2197646    1.4918612   400909 
 7770000   0.90773913    -3.221176   -1.7299652   0.05988923    -3.221176    1.4912108   400901 
 7771000   0.90786286   -3.2204422   -1.7289983  0.056282655   -3.2204422    1.4914438   400893 
 7772000   0.90726533   -3.2188355   -1.7283436  0.057964136   -3.2188355     1.490492   400885 
 7773000   0.90632982   -3.2177223   -1.7287375  0.060818449   -3.2177223    1.4889848   400877 
 7774000   0.90742045   -3.2197867   -1.7289804  0.060936036   -3.2197867    1.4908063   400869 
 7775000   0.90976785   -3.2221914   -1.7274987  0.056996863   -3.2221914    1.4946927   400861 
 7776000   0.90896102   -3.2213503   -1.7279534    0.0620979   -3.2213503    1.4933969   400853 
 7777000   0.90808888   -3.2201057   -1.7281119  0.059096195   -3.2201057    1.4919938   400845 
 7778000   0.90824426   -3.2205565   -1.7282776  0.061972577   -3.2205565    1.4922789   400837 
 7779000   0.90952175   -3.2220174   -1.7276098  0.060968283   -3.2220174    1.4944077   400829 
 7780000   0.90858318   -3.2195004   -1.7266051  0.063789061   -3.2195004    1.4928953   400821 
 7781000   0.90745202   -3.2208603   -1.7297938  0.059531674   -3.2208603    1.4910665   400813 
 7782000   0.90803734   -3.2201695   -1.7281115  0.061044938   -3.2201695     1.492058   400805 
 7783000    0.9073006   -3.2192422    -1.728365  0.064409962   -3.2192422    1.4908772   400797 
 7784000   0.90791995    -3.220078   -1.7281534  0.058014994    -3.220078    1.4919247   400789 
 7785000   0.90782345   -3.2207184   -1.7289225  0.057988699   -3.2207184    1.4917959   400781 
 7786000   0.90775275   -3.2197085    -1.727999  0.062860855   -3.2197085    1.4917095   400773 
 7787000    0.9080362   -3.2203415   -1.7281364   0.05845029   -3.2203415    1.4922051   400765 
 7788000    0.9092682   -3.2230148   -1.7287553   0.05844615   -3.2230148    1.4942595   400757 
 7789000   0.90705249   -3.2188761   -1.7282281  0.057104739   -3.2188761     1.490648   400749 
 7790000   0.90784106   -3.2217348    -1.729761  0.059235582   -3.2217348    1.4919737   400741 
 7791000   0.90836032   -3.2214984   -1.7286416  0.057102536   -3.2214984    1.4928569   400733 
 7792000   0.90821698   -3.2198421    -1.727191  0.055939706   -3.2198421    1.4926511   400725 
 7793000   0.90639654   -3.2195801   -1.7298911  0.057645672   -3.2195801     1.489689   400717 
 7794000   0.90646911    -3.220051    -1.730213  0.056266097    -3.220051     1.489838   400709 
 7795000   0.90745047   -3.2204219   -1.7289412  0.059138523   -3.2204219    1.4914807   400701 
 7796000   0.90766713   -3.2213525   -1.7294859  0.057078394   -3.2213525    1.4918666   400693 
 7797000   0.90890442   -3.2225394   -1.7286093  0.056418306   -3.2225394    1.4939301   400685 
 7798000   0.90752583   -3.2225919    -1.730898  0.055176751   -3.2225919    1.4916939   400677 
 7799000   0.90782236   -3.2232081    -1.730997  0.057108841   -3.2232081    1.4922111   400669 
 7800000     0.907417    -3.224039   -1.7324644  0.061081919    -3.224039    1.4915746   400661 
 7801000   0.90886933   -3.2257147    -1.731723  0.059795615   -3.2257147    1.4939917   400653 
 7802000   0.90708665   -3.2243581    -1.733267   0.06290354   -3.2243581    1.4910911   400645 
 7803000   0.90818448   -3.2248759   -1.7319503  0.056554102   -3.2248759    1.4929256   400637 
 7804000   0.90824482   -3.2264518   -1.7333972  0.056117266   -3.2264518    1.4930546   400629 
 7805000   0.90836853   -3.2259493   -1.7326615  0.055419864   -3.2259493    1.4932878   400621 
 7806000   0.90799684    -3.224845   -1.7321385  0.057996501    -3.224845    1.4927065   400613 
 7807000    0.9079904   -3.2244349   -1.7317092  0.063668259   -3.2244349    1.4927258   400605 
 7808000   0.90808438   -3.2263773   -1.7334672  0.059230556   -3.2263773    1.4929101   400597 
 7809000   0.90849634   -3.2258474   -1.7322302   0.05902955   -3.2258474    1.4936172   400589 
 7810000   0.91051353   -3.2280953   -1.7311319    0.0621554   -3.2280953    1.4969634   400581 
 7811000   0.91069516   -3.2278748   -1.7305828  0.062901802   -3.2278748    1.4972919   400573 
 7812000   0.90972205   -3.2257521   -1.7300302  0.064447255   -3.2257521    1.4957219   400565 
 7813000    0.9090706   -3.2273464   -1.7326657  0.061190483   -3.2273464    1.4946807   400557 
 7814000   0.90820857   -3.2265472   -1.7332541  0.062628542   -3.2265472    1.4932932   400549 
 7815000   0.90924634   -3.2277969   -1.7327676  0.062026138   -3.2277969    1.4950293   400541 
 7816000    0.9089573   -3.2272344   -1.7326505  0.055722448   -3.2272344    1.4945839   400533 
 7817000    0.9076668   -3.2246586   -1.7321668  0.064896277   -3.2246586    1.4924918   400525 
 7818000   0.90663269   -3.2246219   -1.7338007  0.058295995   -3.2246219    1.4908212   400517 
 7819000   0.90719549   -3.2243893   -1.7326129  0.060972674   -3.2243893    1.4917764   400509 
 7820000   0.90521092   -3.2204061   -1.7318633  0.060647021   -3.2204061    1.4885428   400501 
 7821000   0.90722179   -3.2244231   -1.7325439  0.060037512   -3.2244231    1.4918793   400493 
 7822000   0.90763385   -3.2253193   -1.7327326  0.057688581   -3.2253193    1.4925867   400485 
 7823000   0.90811988   -3.2262216   -1.7328058  0.061345414   -3.2262216    1.4934158   400477 
 7824000   0.90725357   -3.2243314   -1.7323105  0.062294321   -3.2243314    1.4920209   400469 
 7825000   0.90678042    -3.224092   -1.7328194  0.056601597    -3.224092    1.4912726   400461 
 7826000   0.90570198     -3.22239   -1.7328612  0.058772216     -3.22239    1.4895288   400453 
 7827000   0.90613155   -3.2230887   -1.7328237  0.059130623   -3.2230887     1.490265   400445 
 7828000   0.90612108   -3.2222159   -1.7319383   0.05992528   -3.2222159    1.4902776   400437 
 7829000    0.9069229   -3.2222678   -1.7306417  0.054745469   -3.2222678    1.4916261   400429 
 7830000   0.90631759   -3.2219813    -1.731321  0.057400858   -3.2219813    1.4906603   400421 
 7831000   0.90744198   -3.2243585    -1.731819  0.055357536   -3.2243585    1.4925395   400413 
 7832000    0.9054158   -3.2210796    -1.731843  0.060038071   -3.2210796    1.4892366   400405 
 7833000   0.90634246   -3.2228584   -1.7320678  0.059707778   -3.2228584    1.4907906   400397 
 7834000   0.90695528   -3.2232642   -1.7314358  0.057391619   -3.2232642    1.4918284   400389 
 7835000   0.90703804   -3.2221625   -1.7301681  0.061812782   -3.2221625    1.4919943   400381 
 7836000   0.90742139   -3.2232844   -1.7306296  0.057986652   -3.2232844    1.4926547   400373 
 7837000   0.90779698   -3.2239124     -1.73061  0.062728629   -3.2239124    1.4933024   400365 
 7838000   0.90730343   -3.2219614    -1.729441   0.06773498   -3.2219614    1.4925203   400357 
 7839000   0.90941211   -3.2251399   -1.7291209  0.066231588   -3.2251399     1.496019   400349 
 7840000   0.90855272   -3.2239897   -1.7293545  0.067297909   -3.2239897    1.4946352   400341 
 7841000   0.90827376   -3.2235091    -1.729303  0.059913434   -3.2235091    1.4942061   400333 
 7842000   0.90772939   -3.2226046   -1.7292642  0.063883244   -3.2226046    1.4933404   400325 
 7843000    0.9062224   -3.2205941   -1.7297031  0.061259496   -3.2205941     1.490891   400317 
 7844000   0.90693338   -3.2228429   -1.7307524  0.061924422   -3.2228429    1.4920905   400309 
 7845000   0.90630786   -3.2227902    -1.731699  0.062722457   -3.2227902    1.4910912   400301 
 7846000   0.90642716   -3.2229185   -1.7316012  0.058765306   -3.2229185    1.4913173   400293 
 7847000   0.90761378   -3.2235577   -1.7302583  0.059655383   -3.2235577    1.4932994   400285 
 7848000   0.90538299   -3.2208883   -1.7312294  0.059602972   -3.2208883    1.4896589   400277 
 7849000   0.90684362    -3.222711   -1.7306191  0.058485656    -3.222711    1.4920919   400269 
 7850000   0.90757562   -3.2211137   -1.7277875  0.056789772   -3.2211137    1.4933262   400261 
 7851000   0.90796646    -3.220825   -1.7268259  0.059309966    -3.220825    1.4939991   400253 
 7852000   0.90751865   -3.2201418   -1.7268497  0.061492175   -3.2201418    1.4932921   400245 
 7853000   0.90824946   -3.2216087   -1.7270842  0.059960922   -3.2216087    1.4945245   400237 
 7854000    0.9077845   -3.2211996   -1.7274103  0.063903467   -3.2211996    1.4937893   400229 
 7855000   0.90604637   -3.2176859    -1.726727    0.0641033   -3.2176859    1.4909589   400221 
 7856000   0.90817249   -3.2203632   -1.7258757  0.062125333   -3.2203632    1.4944875   400213 
 7857000   0.90714902   -3.2196536   -1.7268205  0.057517372   -3.2196536    1.4928331   400205 
 7858000   0.90547803   -3.2172621    -1.727149  0.060176481   -3.2172621    1.4901131   400197 
 7859000   0.90541132   -3.2164877   -1.7264546  0.059040451   -3.2164877    1.4900331   400189 
 7860000   0.90622025   -3.2200251   -1.7286309  0.051191045   -3.2200251    1.4913941   400181 
 7861000   0.90599872   -3.2209368   -1.7298774   0.05457941   -3.2209368    1.4910594   400173 
 7862000   0.90583002    -3.218801   -1.7279895  0.056540718    -3.218801    1.4908115   400165 
 7863000   0.90654427   -3.2202607   -1.7282439  0.056472293   -3.2202607    1.4920169   400157 
 7864000   0.90538476   -3.2181748   -1.7280365  0.058946111   -3.2181748    1.4901383   400149 
 7865000   0.90575045   -3.2181445   -1.7273745  0.062571014   -3.2181445      1.49077   400141 
 7866000   0.90551496   -3.2184476   -1.7280355   0.05299484   -3.2184476    1.4904122   400133 
 7867000   0.90744191   -3.2214714   -1.7278577  0.056501426   -3.2214714    1.4936137   400125 
 7868000     0.907418   -3.2193925   -1.7257883   0.05897984   -3.2193925    1.4936042   400117 
 7869000   0.90514761   -3.2163429    -1.726446  0.056916806   -3.2163429    1.4898969   400109 
 7870000   0.90760347   -3.2194898   -1.7255206  0.062910727   -3.2194898    1.4939692   400101 
 7871000   0.90703254   -3.2193554   -1.7262961   0.05247421   -3.2193554    1.4930593   400093 
 7872000   0.90735609   -3.2198438   -1.7262221  0.061681143   -3.2198438    1.4936217   400085 
 7873000   0.90651771   -3.2202765    -1.728005  0.062964279   -3.2202765    1.4922715   400077 
 7874000   0.90806032   -3.2213366   -1.7264958  0.061165137   -3.2213366    1.4948408   400069 
 7875000   0.90801486    -3.221887   -1.7270912   0.05742796    -3.221887    1.4947958   400061 
 7876000   0.90665688   -3.2208719   -1.7282817  0.058771518   -3.2208719    1.4925901   400053 
 7877000   0.90632003   -3.2211174    -1.729052  0.059472367   -3.2211174    1.4920654   400045 
 7878000   0.90539826   -3.2182201   -1.7276423  0.063031811   -3.2182201    1.4905777   400037 
 7879000   0.90702895    -3.219937   -1.7266448  0.059339918    -3.219937    1.4932922   400029 
 7880000   0.90731929   -3.2208587   -1.7270586  0.054924773   -3.2208587    1.4938001   400021 
 7881000   0.90617425   -3.2194072   -1.7274624  0.060407507   -3.2194072    1.4919448   400013 
 7882000   0.90546627   -3.2190687   -1.7282598  0.060642376   -3.2190687    1.4908089   400005 
 7883000   0.90629773   -3.2201091   -1.7279013  0.061248825   -3.2201091    1.4922078   399997 
 7884000   0.90629333   -3.2219783   -1.7297479  0.059038327   -3.2219783    1.4922304   399989 
 7885000   0.90515956    -3.220507   -1.7301137   0.05670233    -3.220507    1.4903934   399981 
 7886000   0.90558733   -3.2230557   -1.7319282  0.055544739   -3.2230557    1.4911276   399973 
 7887000   0.90578879   -3.2218411    -1.730352    0.0555519   -3.2218411    1.4914891   399965 
 7888000    0.9059661   -3.2213955   -1.7295846   0.05701847   -3.2213955    1.4918109   399957 
 7889000   0.90586554   -3.2198985   -1.7282234  0.060883852   -3.2198985    1.4916751   399949 
 7890000    0.9047539   -3.2194213   -1.7295469  0.060985937   -3.2194213    1.4898744   399941 
 7891000   0.90636693   -3.2222543   -1.7296938  0.057686662   -3.2222543    1.4925605   399933 
 7892000   0.90568114   -3.2211277   -1.7296667  0.061967343   -3.2211277     1.491461   399925 
 7893000   0.90552409   -3.2206016   -1.7293694  0.062523188   -3.2206016    1.4912322   399917 
 7894000   0.90525115   -3.2211863   -1.7303738  0.061322023   -3.2211863    1.4908125   399909 
 7895000    0.9055934   -3.2216352   -1.7302292  0.060439901   -3.2216352     1.491406   399901 
 7896000   0.90530287   -3.2215702   -1.7306128  0.058700089   -3.2215702    1.4909574   399893 
 7897000   0.90543276   -3.2207693   -1.7295682  0.060578515   -3.2207693    1.4912011   399885 
 7898000   0.90564454   -3.2218787    -1.730299  0.061768057   -3.2218787    1.4915798   399877 
 7899000   0.90572392   -3.2220007   -1.7302604   0.05589009   -3.2220007    1.4917403   399869 
 7900000   0.90483578   -3.2201328   -1.7298255  0.061163997   -3.2201328    1.4903074   399861 
 7901000   0.90483482   -3.2206571   -1.7303215  0.057467788   -3.2206571    1.4903356   399853 
 7902000   0.90608828   -3.2222251   -1.7297951  0.055630814   -3.2222251      1.49243   399845 
 7903000   0.90638107   -3.2232098   -1.7302677  0.056565576   -3.2232098    1.4929421   399837 
 7904000   0.90620927   -3.2221682   -1.7294791   0.05670631   -3.2221682     1.492689   399829 
 7905000   0.90615017    -3.222112   -1.7294904    0.0620889    -3.222112    1.4926216   399821 
 7906000   0.90804391   -3.2251476   -1.7293767  0.061016491   -3.2251476    1.4957709   399813 
 7907000   0.90661265   -3.2228657   -1.7294225   0.06124723   -3.2228657    1.4934431   399805 
 7908000   0.90650816   -3.2226828   -1.7293819  0.061291665   -3.2226828    1.4933009   399797 
 7909000   0.90606013   -3.2215738   -1.7289811  0.058201314   -3.2215738    1.4925927   399789 
 7910000   0.90620158   -3.2212848   -1.7284292  0.059732657   -3.2212848    1.4928556   399781 
 7911000   0.90549032   -3.2210243   -1.7293106   0.05837696   -3.2210243    1.4917137   399773 
 7912000   0.90469829   -3.2204593   -1.7300206  0.058059177   -3.2204593    1.4904387   399765 
 7913000   0.90491116    -3.222178   -1.7313587  0.063150772    -3.222178    1.4908193   399757 
 7914000   0.90470625   -3.2211011   -1.7305896  0.056581405   -3.2211011    1.4905115   399749 
 7915000   0.90511313   -3.2214899   -1.7302782  0.056441837   -3.2214899    1.4912117   399741 
 7916000   0.90371271   -3.2184252   -1.7294909  0.053167912   -3.2184252    1.4889343   399733 
 7917000   0.90506563   -3.2196101   -1.7284169  0.058410475   -3.2196101    1.4911931   399725 
 7918000   0.90417361   -3.2181076   -1.7283543  0.060822665   -3.2181076    1.4897532   399717 
 7919000    0.9062684   -3.2199305   -1.7266959  0.057325871   -3.2199305    1.4932346   399709 
 7920000   0.90572993   -3.2179508   -1.7255736  0.058857229   -3.2179508    1.4923772   399701 
 7921000   0.90536051   -3.2186379   -1.7268395  0.060097441   -3.2186379    1.4917984   399693 
 7922000   0.90495507   -3.2189957   -1.7278355  0.060799225   -3.2189957    1.4911602   399685 
 7923000   0.90645682   -3.2222611   -1.7285965  0.055704789   -3.2222611    1.4936646   399677 
 7924000   0.90578678   -3.2212503   -1.7286598  0.057877364   -3.2212503    1.4925904   399669 
 7925000   0.90700489   -3.2229781   -1.7283505  0.055933306   -3.2229781    1.4946276   399661 
 7926000   0.90540055   -3.2206952   -1.7286815   0.05549296   -3.2206952    1.4920137   399653 
 7927000   0.90487179   -3.2194636   -1.7282914  0.055660884   -3.2194636    1.4911722   399645 
 7928000   0.90446593    -3.219221   -1.7286878  0.061131651    -3.219221    1.4905332   399637 
 7929000   0.90582748    -3.220411   -1.7276041   0.06142019    -3.220411    1.4928069   399629 
 7930000   0.90581879   -3.2215546   -1.7287321  0.059616752   -3.2215546    1.4928224   399621 
 7931000    0.9061416   -3.2219744   -1.7285901  0.060978298   -3.2219744    1.4933843   399613 
 7932000   0.90636767   -3.2229201   -1.7291333  0.062085345   -3.2229201    1.4937868   399605 
 7933000   0.90703154   -3.2225071   -1.7275962  0.059860592   -3.2225071    1.4949109   399597 
 7934000   0.90706841   -3.2227829   -1.7277814  0.059510776   -3.2227829    1.4950016   399589 
 7935000     0.905787   -3.2216379   -1.7287184  0.060714563   -3.2216379    1.4929195   399581 
 7936000   0.90774577   -3.2232871   -1.7271092   0.05985359   -3.2232871    1.4961779   399573 
 7937000   0.90527726   -3.2227318   -1.7305927  0.062027804   -3.2227318    1.4921391   399565 
 7938000   0.90444251   -3.2221793   -1.7313863  0.058830481   -3.2221793     1.490793   399557 
 7939000   0.90579372   -3.2228961    -1.729846   0.05549505   -3.2228961    1.4930501   399549 
 7940000   0.90550323   -3.2230892    -1.730488  0.062205912   -3.2230892    1.4926012   399541 
 7941000   0.90578192   -3.2239724    -1.730882  0.060930646   -3.2239724    1.4930905   399533 
 7942000   0.90626519   -3.2235408   -1.7296238  0.054997306   -3.2235408     1.493917   399525 
 7943000   0.90676519   -3.2235787   -1.7288075  0.061703657   -3.2235787    1.4947712   399517 
 7944000   0.90564151   -3.2237031   -1.7307544  0.057665006   -3.2237031    1.4929487   399509 
 7945000   0.90577638   -3.2242855   -1.7310846  0.062147936   -3.2242855    1.4932009   399501 
 7946000   0.90616176   -3.2237984   -1.7299322  0.063549549   -3.2237984    1.4938662   399493 
 7947000   0.90706499   -3.2258382   -1.7304531  0.059351223   -3.2258382    1.4953851   399485 
 7948000   0.90655775   -3.2239073   -1.7293284  0.062380597   -3.2239073    1.4945788   399477 
 7949000   0.90561269   -3.2241553   -1.7311047  0.060923372   -3.2241553    1.4930507   399469 
 7950000   0.90614097   -3.2243459   -1.7303943  0.059020569   -3.2243459    1.4939516   399461 
 7951000   0.90475203   -3.2219523   -1.7302608  0.062425171   -3.2219523    1.4916915   399453 
 7952000   0.90614519   -3.2237151   -1.7296968  0.062077981   -3.2237151    1.4940183   399445 
 7953000   0.90560552   -3.2232341   -1.7300756  0.057140678   -3.2232341    1.4931585   399437 
 7954000   0.90577471   -3.2234798   -1.7300125  0.058821348   -3.2234798    1.4934673   399429 
 7955000   0.90643173   -3.2232771   -1.7286965  0.057983409   -3.2232771    1.4945806   399421 
 7956000   0.90446808   -3.2221204   -1.7307477  0.055067647   -3.2221204    1.4913727   399413 
 7957000   0.90460452   -3.2232031   -1.7315756  0.056807354   -3.2232031    1.4916275   399405 
 7958000   0.90466115   -3.2253493   -1.7335985  0.060337705   -3.2253493    1.4917508   399397 
 7959000   0.90469462   -3.2237174   -1.7318815  0.063308878   -3.2237174    1.4918359   399389 
 7960000   0.90433173   -3.2238919   -1.7326245  0.057019644   -3.2238919    1.4912673   399381 
 7961000   0.90215379   -3.2207047    -1.732999   0.05925976   -3.2207047    1.4877056   399373 
 7962000   0.90295198   -3.2207972   -1.7317454  0.059542961   -3.2207972    1.4890517   399365 
 7963000   0.90422187   -3.2226153   -1.7314395  0.056023555   -3.2226153    1.4911758   399357 
 7964000   0.90535261   -3.2247319   -1.7316615  0.055915035   -3.2247319    1.4930704   399349 
 7965000   0.90484762   -3.2238556   -1.7315881   0.06219671   -3.2238556    1.4922675   399341 
 7966000   0.90407288   -3.2209139   -1.7298943  0.066521474   -3.2209139    1.4910197   399333 
 7967000   0.90511077   -3.2217636   -1.7290023  0.060378605   -3.2217636    1.4927613   399325 
 7968000   0.90541131    -3.221844   -1.7285572  0.063026127    -3.221844    1.4932869   399317 
 7969000   0.90621821   -3.2234442   -1.7287966  0.059850537   -3.2234442    1.4946476   399309 
 7970000   0.90588716   -3.2224882   -1.7283566  0.053846852   -3.2224882    1.4941316   399301 
 7971000   0.90588417   -3.2230226   -1.7288661  0.059886855   -3.2230226    1.4941566   399293 
 7972000   0.90457188   -3.2217573   -1.7297353  0.060357717   -3.2217573     1.492022   399285 
 7973000   0.90556429   -3.2214758    -1.727787  0.060881643   -3.2214758    1.4936888   399277 
 7974000   0.90481135   -3.2212259   -1.7287492  0.061972284   -3.2212259    1.4924768   399269 
 7975000   0.90502641   -3.2221293   -1.7292679   0.05961576   -3.2221293    1.4928614   399261 
 7976000   0.90393327   -3.2203593   -1.7292711  0.061254271   -3.2203593    1.4910881   399253 
 7977000    0.9030553   -3.2194095   -1.7297398  0.060664747   -3.2194095    1.4896697   399245 
 7978000   0.90398587   -3.2219342   -1.7306995  0.057163365   -3.2219342    1.4912347   399237 
 7979000   0.90395758   -3.2207658   -1.7295479  0.061308773   -3.2207658    1.4912179   399229 
 7980000   0.90313039   -3.2187187   -1.7288356  0.058789324   -3.2187187    1.4898832   399221 
 7981000   0.90325523    -3.219081   -1.7289621  0.054101717    -3.219081     1.490119   399213 
 7982000   0.90397753   -3.2203421   -1.7290017  0.061033354   -3.2203421    1.4913404   399205 
 7983000   0.90373333    -3.219091   -1.7281236  0.056574257    -3.219091    1.4909675   399197 
 7984000   0.90421085   -3.2172059   -1.7254208  0.058859891   -3.2172059    1.4917852   399189 
 7985000   0.90485741   -3.2173369   -1.7244551  0.063438156   -3.2173369    1.4928818   399181 
 7986000   0.90440557   -3.2184035   -1.7262373  0.063817047   -3.2184035    1.4921662   399173 
 7987000   0.90546027   -3.2206352   -1.7266989  0.059672335   -3.2206352    1.4939363   399165 
 7988000   0.90535535   -3.2190214   -1.7252283  0.062819233   -3.2190214    1.4937931   399157 
 7989000   0.90463153   -3.2184568    -1.725828  0.060633883   -3.2184568    1.4926288   399149 
 7990000   0.90349075   -3.2163367   -1.7255604  0.062705255   -3.2163367    1.4907764   399141 
 7991000   0.90491591   -3.2185807   -1.7254228  0.058857063   -3.2185807    1.4931578   399133 
 7992000   0.90394844   -3.2175112   -1.7259198  0.058275529   -3.2175112    1.4915914   399125 
 7993000   0.90362975   -3.2158269   -1.7247315  0.057444769   -3.2158269    1.4910954   399117 
 7994000   0.90422469   -3.2167032   -1.7245962  0.059374443   -3.2167032     1.492107   399109 
 7995000   0.90442065   -3.2173587   -1.7248984   0.05816006   -3.2173587    1.4924603   399101 
 7996000   0.90474602   -3.2180587   -1.7250315  0.057653834   -3.2180587    1.4930271   399093 
 7997000   0.90409777   -3.2178534   -1.7258661  0.057838518   -3.2178534    1.4919873   399085 
 7998000   0.90287668    -3.215584   -1.7255819  0.056163133    -3.215584    1.4900021   399077 
 7999000   0.90254246    -3.213872   -1.7243916  0.056053051    -3.213872    1.4894804   399069 
 8000000   0.90282823   -3.2147149   -1.7247331  0.057013609   -3.2147149    1.4899818   399061 
Loop time of 7192.44 on 192 procs for 5000000 steps with 399061 atoms

Performance: 300315.236 tau/day, 695.174 timesteps/s
99.1% CPU use with 192 MPI tasks x 1 OpenMP threads

MPI task timing breakdown:
Section |  min time  |  avg time  |  max time  |%varavg|  %CPU | %total
-----------------------------------------------------------------------
Pair    | 1416.9     | 3025       | 3303.2     |1071.7 |  99.0 | 42.06
Bond    | 3.2265     | 3.3998     | 3.5265     |   3.0 | 100.0 |  0.05
Neigh   | 943.53     | 1536.7     | 1673       | 548.1 |  99.5 | 21.37
Comm    | 1273.7     | 1967.8     | 4206.4     |1866.2 |  98.9 | 27.36
Output  | 285.3      | 286.21     | 286.23     |   0.4 |  98.7 |  3.98
Modify  | 164.78     | 249.38     | 647.45     | 979.0 |  99.1 |  3.47
Other   |            | 123.9      |            |       |       |  1.72

Nlocal:        2078.44 ave        2512 max        1592 min
Histogram: 2 0 3 3 39 129 11 0 2 3
Nghost:        3201.80 ave        3508 max        2262 min
Histogram: 3 7 24 10 3 0 1 3 41 100
Neighs:        55860.2 ave       65418 max       10769 min
Histogram: 2 10 5 3 4 0 0 0 64 104

Total # of neighbors = 10725153
Ave neighs/atom = 26.875974
Ave special neighs/atom = 0.0000000
Neighbor list builds = 520000
Dangerous builds = 480000

write_restart   restart_write.dat
System init for write_restart ...
write_data	data.write
System init for write_data ...
WARNING: Not all mixed pair coeffs generated from mixing. Use write_data with 'pair ij' option to store all pair coeffs. (src/write_data.cpp:312)

Total wall time: 1:59:56
