LAMMPS (24 Dec 2020)
OMP_NUM_THREADS environment is not set. Defaulting to 1 thread. (src/comm.cpp:94)
  using 1 OpenMP thread(s) per MPI task
#Read the equilibrated lj fluid and add nanocubes

units           lj
atom_style      full
atom_modify     map array first cubes
dimension       3
boundary        p p f
pair_style      lj/smooth/linear 2.0

variable        sigma           equal 1.0
variable        epsilon         equal 1.0
read_restart	restart.dat.5000000
Reading restart file ...
  restart file = 24 Dec 2020, LAMMPS = 24 Dec 2020
WARNING: Restart file used different # of processors: 192 vs. 288 (src/read_restart.cpp:697)
  restoring atom style full from restart
  orthogonal box = (0.0000000 0.0000000 0.0000000) to (80.000000 80.000000 160.00000)
  6 by 4 by 12 MPI processor grid
  restoring pair style lj/smooth/linear from restart
  439061 atoms
Finding 1-2 1-3 1-4 neighbors ...
  special bond factors lj:    0        0        0       
  special bond factors coul:  0        0        0       
     0 = max # of 1-2 neighbors
     0 = max # of 1-3 neighbors
     0 = max # of 1-4 neighbors
     1 = max # of special neighbors
  special bonds CPU = 2.418 seconds
  read_restart CPU = 2.839 seconds

group		solvent type 1
439061 atoms in group solvent

read_data	data_64.cubes group cubes add append
Reading data file ...
  orthogonal box = (0.0000000 0.0000000 0.0000000) to (80.000000 80.000000 160.00000)
  6 by 4 by 12 MPI processor grid
WARNING: Pair style in data file differs from currently defined pair style (src/read_data.cpp:588)
  reading atoms ...
  85184 atoms
  reading velocities ...
  85184 velocities
Finding 1-2 1-3 1-4 neighbors ...
  special bond factors lj:    0        0        0       
  special bond factors coul:  0        0        0       
     0 = max # of 1-2 neighbors
     0 = max # of 1-3 neighbors
     0 = max # of 1-4 neighbors
     1 = max # of special neighbors
  special bonds CPU = 0.031 seconds
  read_data CPU = 0.256 seconds

group 		hull  type 2
38528 atoms in group hull
group 		dummy type 3
46656 atoms in group dummy

neighbor      0.4 bin
neigh_modify  exclude molecule/intra cubes


pair_modify   shift yes

pair_coeff    1 1 1.0 1.0 #solvent
pair_coeff    2 2 1.0 1.0 1.12 #np
pair_coeff    3 3 0.0 0.0 0.0 #dummy
pair_coeff    2 3 0.0 0.0 0.0 #np dummy
pair_coeff    1 2 ${eps} ${sig} ${nscut} #np solvent
pair_coeff    1 2 2.0 ${sig} ${nscut} 
pair_coeff    1 2 2.0 2.0 ${nscut} 
pair_coeff    1 2 2.0 2.0 4.0 
pair_coeff    1 3 0.0 0.0 2.5 #dummy solvent

# delete solvent where the cubes are
delete_atoms  overlap 2.0 solvent cubes
System init for delete_atoms ...
Neighbor list info ...
  update every 1 steps, delay 10 steps, check yes
  max neighbors/atom: 2000, page size: 100000
  master list distance cutoff = 4.4
  ghost atom cutoff = 4.4
  binsize = 2.2, bins = 37 37 73
  2 neighbor lists, perpetual/occasional/extra = 1 1 0
  (1) command delete_atoms, occasional
      attributes: full, newton on
      pair build: full/bin
      stencil: full/bin/3d
      bin: standard
  (2) pair lj/smooth/linear, perpetual
      attributes: half, newton on
      pair build: half/bin/newton
      stencil: half/bin/3d/newton
      bin: standard
WARNING: Delete_atoms cutoff > minimum neighbor cutoff (src/delete_atoms.cpp:307)
WARNING: Ignoring 'compress yes' for molecular system (src/delete_atoms.cpp:125)
Deleted 99694 atoms, new total = 424551



pair_coeff    1 1 1.0 1.0 #solvent
pair_coeff    2 2 1.0 1.0 1.12 #np
pair_coeff    3 3 0.0 0.0 0.0 #dummy
pair_coeff    2 3 0.0 0.0 0.0 #np dummy
pair_coeff    1 2 ${eps} ${sig} ${nscut} #np solvent
pair_coeff    1 2 2.0 ${sig} ${nscut} 
pair_coeff    1 2 2.0 2.0 ${nscut} 
pair_coeff    1 2 2.0 2.0 4.0 
pair_coeff    1 3 0.0 0.0 0.0 #dummy solvent


comm_modify   mode multi cutoff/multi 1 2.0 cutoff/multi 2 2.0 cutoff/multi 3 8.67

reset_timestep 	0

balance 	1.05 shift z 10 1.05
Balancing ...
Neighbor list info ...
  update every 1 steps, delay 10 steps, check yes
  max neighbors/atom: 2000, page size: 100000
  master list distance cutoff = 4.4
  ghost atom cutoff = 8.67
  binsize = 2.2, bins = 37 37 73
  1 neighbor lists, perpetual/occasional/extra = 1 0 0
  (1) pair lj/smooth/linear, perpetual
      attributes: half, newton on
      pair build: half/bin/newton
      stencil: half/bin/3d/newton
      bin: standard
 rebalancing time: 0.004 seconds
  iteration count = 4
  initial/final maximal load/proc = 2235.0000 2121.0000
  initial/final imbalance factor  = 1.5161429 1.4388095
  x cuts: 0.0000000 0.16666667 0.33333333 0.50000000 0.66666667 0.83333333 1.0000000
  y cuts: 0.0000000 0.25000000 0.50000000 0.75000000 1.0000000
  z cuts: 0.0000000 0.057291667 0.11979167 0.17187500 0.23958333 0.28125000 0.34375000 0.41145833 0.46354167 0.51562500 0.59895833 0.64583333 1.0000000

####################### WALLS ###########################

variable       epsilonWall equal 2*${epsilon}
variable       epsilonWall equal 2*1
variable       repulsive   equal   0.7147*${sigma}
variable       repulsive   equal   0.7147*1
variable       full	   equal   3*${sigma}
variable       full	   equal   3*1
region         lowWall block EDGE EDGE EDGE EDGE EDGE 2

fix            topWall all wall/lj93 zhi EDGE 	       ${epsilonWall} ${sigma} ${repulsive} units box
fix            topWall all wall/lj93 zhi EDGE 	       2 ${sigma} ${repulsive} units box
fix            topWall all wall/lj93 zhi EDGE 	       2 1 ${repulsive} units box
fix            topWall all wall/lj93 zhi EDGE 	       2 1 0.7147 units box
fix            lowSol solvent wall/lj93 zlo EDGE                ${epsilonWall} ${sigma} ${full} units box
fix            lowSol solvent wall/lj93 zlo EDGE                2 ${sigma} ${full} units box
fix            lowSol solvent wall/lj93 zlo EDGE                2 1 ${full} units box
fix            lowSol solvent wall/lj93 zlo EDGE                2 1 3 units box
fix 	       lowCub cubes wall/lj93 zlo EDGE                ${epsilonWall} ${sigma} ${repulsive} units box
fix 	       lowCub cubes wall/lj93 zlo EDGE                2 ${sigma} ${repulsive} units box
fix 	       lowCub cubes wall/lj93 zlo EDGE                2 1 ${repulsive} units box
fix 	       lowCub cubes wall/lj93 zlo EDGE                2 1 0.7147 units box


###################### COMPUTES ##########################

compute        bin1 solvent chunk/atom bin/1d z lower 1.0 units box


######################  FIXES ############################


fix             peclet solvent ave/chunk 10 10 10000 bin1 density/number norm                  none ave one file density.profile

fix              temp solvent ave/chunk 10 10 10000 bin1 temp norm                  none ave one file temp.profile

fix             1 cubes rigid/nve/small molecule
  create bodies CPU = 0.025 seconds
  64 rigid bodies with 85184 atoms
  8.6602540 = max distance from body owner to body atom

fix             2 solvent nve# temp ${temp} ${temp} 10


## Thermostat
region          regthermo block EDGE EDGE EDGE EDGE 0 15
group           thermo dynamic solvent region regthermo every 1000
dynamic group thermo defined
fix             3 thermo langevin ${temp} ${temp} 10 156453
fix             3 thermo langevin 0.6 ${temp} 10 156453
fix             3 thermo langevin 0.6 0.6 10 156453


#### Load balancing

fix             bal all balance 1000 1.05 shift z 10 1.05

############### Diagnostics and computes ###################

compute        	com cubes          rigid/local   1 mol x y z
compute        	quat cubes         rigid/local   1 mol quatw quati quatj quatk

compute 	cc2 cubes 	   chunk/atom 	 molecule
compute 	msd cubes 	   msd/chunk 	 cc2

fix 		msd all ave/time  1 1 10000 c_msd[*] file dump.msd ave one mode vector

dump            1 all custom 500000 dump.lammpstrj id mol type x y z
dump		cubetrj hull custom 500000 cubes.lammpstrj id mol type x y z
dump            com cubes local 10000 dump.*.xyz c_com[*]
dump	        xyz hull xyz 100000 cubes.xyz
dump            quat cubes      local 10000 dump.*.quat c_quat[*]
#dump		mol cubes molfile 10000 mol.xyz xyz


dump            2 all image 10000 image.*.png type type zoom 1.5 size 1280 720
dump_modify     2 pad 8
dump		image cubes image 10000 image_cubes.*.png type type zoom 1.5 size 1280 720
dump_modify	image pad 8
dump            3 all movie 5000 movie.avi type type zoom 1.5 size 1280 720
dump		4 cubes movie 5000 movie_cubes.avi type type size 1280 720


thermo          1000
thermo_style    custom step temp epair evdwl etotal press pe ke atoms

restart         1000000 restart.dat
timestep        0.005
timer           full
New timer settings: style=full  mode=nosync  timeout=off

run 		5000000
Per MPI rank memory allocation (min/avg/max) = 14.07 | 19.99 | 23.03 Mbytes
Step Temp E_pair E_vdwl TotEng Press PotEng KinEng Atoms 
       0    0.6081211   -2.4262578   -2.4262578   -1.6968279   -1.1586407   -2.4262578    0.7294299   424551 
    1000    1.0349275   -2.9821304   -2.9821304   -1.7407541   0.37525052   -2.9821304    1.2413763   424551 
    2000    1.0510019   -3.0424287   -3.0424287   -1.7817715   0.41238348   -3.0424287    1.2606572   424551 
    3000    1.0415507   -3.0677466   -3.0677466    -1.818426   0.37392565   -3.0677466    1.2493206   424551 
    4000    1.0240097   -3.0835586   -3.0835586    -1.855278   0.35680255   -3.0835586    1.2282806   424551 
    5000    1.0062048   -3.0976239   -3.0976239      -1.8907   0.32325635   -3.0976239    1.2069239   424551 
    6000   0.98902233   -3.1074193   -3.1074193   -1.9211055   0.29421237   -3.1074193    1.1863138   424551 
    7000   0.97487352   -3.1132846   -3.1132846    -1.943942   0.25804701   -3.1132846    1.1693426   424551 
    8000    0.9625401   -3.1159334   -3.1159334   -1.9613845   0.23833182   -3.1159334    1.1545489   424551 
    9000   0.95259884   -3.1170672   -3.1170672   -1.9744426    0.2086705   -3.1170672    1.1426245   424551 
   10000   0.94595213   -3.1184674   -3.1184674   -1.9838155   0.20822763   -3.1184674    1.1346519   424551 
   11000   0.94292213    -3.121189    -3.121189   -1.9901716   0.19375616    -3.121189    1.1310175   424551 
   12000   0.94284217   -3.1274442   -3.1274442   -1.9965226   0.17336431   -3.1274442    1.1309216   424551 
   13000   0.94453911   -3.1351648   -3.1351648   -2.0022078   0.19993407   -3.1351648     1.132957   424551 
   14000   0.94352829   -3.1385275   -3.1385275    -2.006783   0.20756505   -3.1385275    1.1317446   424551 
   15000   0.94221461   -3.1403909   -3.1403909    -2.010222   0.22692403   -3.1403909    1.1301688   424551 
   16000   0.94429506   -3.1458974   -3.1458974   -2.0132331   0.21986269   -3.1458974    1.1326643   424551 
   17000   0.94387124   -3.1485474   -3.1485474   -2.0163914   0.22085419   -3.1485474    1.1321559   424551 
   18000   0.94411296   -3.1518821   -3.1518821   -2.0194363   0.22664375   -3.1518821    1.1324459   424551 
   19000   0.94421987   -3.1542011   -3.1542011    -2.021627   0.22663302   -3.1542011    1.1325741   424551 
   20000   0.94124834   -3.1528909   -3.1528909   -2.0238811   0.22357776   -3.1528909    1.1290098   424551 
   21000   0.93700579   -3.1496949   -3.1496949   -2.0257739   0.22823031   -3.1496949     1.123921   424551 
   22000   0.93514165    -3.150082    -3.150082   -2.0283971   0.22991765    -3.150082     1.121685   424551 
   23000   0.93201858   -3.1468404   -3.1468404   -2.0289015   0.22010015   -3.1468404    1.1179389   424551 
   24000   0.92903241   -3.1456359   -3.1456359   -2.0312789   0.20839244   -3.1456359     1.114357   424551 
   25000   0.92454938   -3.1419824   -3.1419824   -2.0330026   0.21478094   -3.1419824    1.1089797   424551 
   26000   0.92145612   -3.1396886   -3.1396886   -2.0344191   0.21918354   -3.1396886    1.1052694   424551 
   27000   0.92044079   -3.1396301   -3.1396301   -2.0355786   0.20630438   -3.1396301    1.1040515   424551 
   28000   0.91717175   -3.1369537   -3.1369537   -2.0368233   0.19626914   -3.1369537    1.1001304   424551 
   29000   0.91521688   -3.1362428   -3.1362428   -2.0384573   0.21206635   -3.1362428    1.0977856   424551 
   30000   0.91438601    -3.137555    -3.137555    -2.040766   0.20360516    -3.137555    1.0967889   424551 
   31000   0.91506047   -3.1416462   -3.1416462   -2.0440482   0.20375351   -3.1416462     1.097598   424551 
   32000   0.91723351   -3.1496631   -3.1496631   -2.0494586   0.22907339   -3.1496631    1.1002045   424551 
   33000   0.91572536   -3.1547617   -3.1547617   -2.0563662   0.23922969   -3.1547617    1.0983955   424551 
   34000   0.91551298   -3.1623265   -3.1623265   -2.0641858   0.24096652   -3.1623265    1.0981407   424551 
   35000   0.91496001   -3.1701334   -3.1701334    -2.072656   0.23769768   -3.1701334    1.0974775   424551 
   36000     0.912949   -3.1749502   -3.1749502   -2.0798849   0.24870969   -3.1749502    1.0950653   424551 
   37000   0.91155275   -3.1800194   -3.1800194   -2.0866288   0.25163807   -3.1800194    1.0933905   424551 
   38000   0.90873113   -3.1837787   -3.1837787   -2.0937726   0.24493215   -3.1837787     1.090006   424551 
   39000   0.90548939   -3.1861797   -3.1861797   -2.1000621   0.25099129   -3.1861797    1.0861176   424551 
   40000   0.90215786   -3.1877556   -3.1877556   -2.1056341   0.24240418   -3.1877556    1.0821215   424551 
   41000   0.89801074   -3.1865588   -3.1865588   -2.1094117   0.24150705   -3.1865588    1.0771471   424551 
   42000   0.89594263    -3.188624    -3.188624   -2.1139575   0.24588727    -3.188624    1.0746665   424551 
   43000   0.89338511    -3.189919    -3.189919   -2.1183202   0.21635196    -3.189919    1.0715988   424551 
   44000   0.89114504   -3.1909736   -3.1909736   -2.1220618   0.22512223   -3.1909736    1.0689118   424551 
   45000   0.88898792     -3.19243     -3.19243   -2.1261056   0.22613073     -3.19243    1.0663244   424551 
   46000   0.88546603   -3.1914453   -3.1914453   -2.1293453   0.22303981   -3.1914453       1.0621   424551 
   47000   0.88323423   -3.1914247   -3.1914247   -2.1320017   0.20784292   -3.1914247     1.059423   424551 
   48000   0.88174562   -3.1938387   -3.1938387   -2.1362013   0.19549679   -3.1938387    1.0576374   424551 
   49000   0.87851141   -3.1918885   -3.1918885   -2.1381304   0.20137039   -3.1918885     1.053758   424551 
   50000   0.87634455   -3.1927885   -3.1927885   -2.1416296    0.1985118   -3.1927885    1.0511589   424551 
   51000   0.87537048   -3.1938637   -3.1938637   -2.1438732   0.19731345   -3.1938637    1.0499906   424551 
   52000   0.87343146   -3.1935807   -3.1935807    -2.145916   0.21183353   -3.1935807    1.0476647   424551 
   53000   0.87480346   -3.1978207   -3.1978207   -2.1485103   0.20233015   -3.1978207    1.0493104   424551 
   54000   0.87371981   -3.1993698   -3.1993698   -2.1513592   0.17186926   -3.1993698    1.0480106   424551 
   55000   0.87251801   -3.2004678   -3.2004678   -2.1538987   0.19527973   -3.2004678    1.0465691   424551 
   56000   0.87351092   -3.2024187   -3.2024187   -2.1546586   0.19588103   -3.2024187      1.04776   424551 
   57000   0.87298606   -3.2032617   -3.2032617   -2.1561312   0.18192412   -3.2032617    1.0471305   424551 
   58000   0.87315524   -3.2049316   -3.2049316   -2.1575982   0.19783458   -3.2049316    1.0473334   424551 
   59000   0.87161226   -3.2047071   -3.2047071   -2.1592245    0.2010085   -3.2047071    1.0454826   424551 
   60000   0.87063005   -3.2052723   -3.2052723   -2.1609678    0.1828062   -3.2052723    1.0443045   424551 
   61000   0.86924978   -3.2048064   -3.2048064   -2.1621576   0.18681665   -3.2048064    1.0426489   424551 
   62000   0.87056836    -3.206501    -3.206501   -2.1622705   0.18220557    -3.206501    1.0442305   424551 
   63000   0.86824076   -3.2055512   -3.2055512   -2.1641127   0.19393917   -3.2055512    1.0414386   424551 
   64000   0.86764568    -3.206717    -3.206717   -2.1659922   0.18029157    -3.206717    1.0407248   424551 
   65000   0.86681462   -3.2071108   -3.2071108   -2.1673828   0.17180222   -3.2071108     1.039728   424551 
   66000   0.86534111   -3.2070594   -3.2070594   -2.1690989   0.17210237   -3.2070594    1.0379605   424551 
   67000   0.86567706   -3.2087573   -3.2087573   -2.1703938   0.17566333   -3.2087573    1.0383635   424551 
   68000   0.86545591   -3.2106875   -3.2106875   -2.1725893   0.19360816   -3.2106875    1.0380982   424551 
   69000   0.86517552   -3.2119968   -3.2119968   -2.1742349   0.18631285   -3.2119968    1.0377619   424551 
   70000   0.86476151   -3.2127566   -3.2127566   -2.1754913   0.19868446   -3.2127566    1.0372653   424551 
   71000   0.86518347   -3.2164774   -3.2164774    -2.178706    0.2014978   -3.2164774    1.0377714   424551 
   72000   0.86624425   -3.2191075   -3.2191075   -2.1800637   0.19306858   -3.2191075    1.0390438   424551 
   73000   0.86741363   -3.2232369   -3.2232369   -2.1827905   0.20301431   -3.2232369    1.0404465   424551 
   74000   0.86483578   -3.2228234   -3.2228234    -2.185469   0.21280913   -3.2228234    1.0373544   424551 
   75000   0.86716959   -3.2290979   -3.2290979   -2.1889442   0.19186034   -3.2290979    1.0401537   424551 
   76000   0.86423601   -3.2286616   -3.2286616   -2.1920267   0.19058882   -3.2286616     1.036635   424551 
   77000   0.86609824   -3.2339122   -3.2339122   -2.1950436   0.20544593   -3.2339122    1.0388687   424551 
   78000   0.86304383   -3.2340491   -3.2340491   -2.1988441   0.20357529   -3.2340491     1.035205   424551 
   79000   0.86189265   -3.2357377   -3.2357377   -2.2019135   0.20166681   -3.2357377    1.0338241   424551 
   80000   0.86169128     -3.23836     -3.23836   -2.2047774   0.20021048     -3.23836    1.0335826   424551 
   81000   0.85939336   -3.2390983   -3.2390983    -2.208272   0.20272205   -3.2390983    1.0308263   424551 
   82000   0.85943438   -3.2410204   -3.2410204   -2.2101449   0.20720727   -3.2410204    1.0308755   424551 
   83000   0.85887623   -3.2437815   -3.2437815   -2.2135754   0.19705869   -3.2437815     1.030206   424551 
   84000     0.855411    -3.241686    -3.241686   -2.2156365   0.19283294    -3.241686    1.0260495   424551 
   85000   0.85531054    -3.243792    -3.243792    -2.217863   0.18745966    -3.243792     1.025929   424551 
   86000    0.8545277   -3.2454837   -3.2454837   -2.2204937   0.19327657   -3.2454837      1.02499   424551 
   87000   0.85303382   -3.2461616   -3.2461616   -2.2229635    0.1892575   -3.2461616    1.0231981   424551 
   88000   0.85298587   -3.2482051   -3.2482051   -2.2250644   0.18355943   -3.2482051    1.0231406   424551 
   89000   0.85247448   -3.2496884   -3.2496884   -2.2271612   0.20672176   -3.2496884    1.0225272   424551 
   90000   0.85056076   -3.2492883   -3.2492883   -2.2290566    0.1896591   -3.2492883    1.0202318   424551 
   91000   0.85071589   -3.2506209   -3.2506209   -2.2302031   0.19056954   -3.2506209    1.0204178   424551 
   92000   0.84850793    -3.250966    -3.250966   -2.2331966   0.17748831    -3.250966    1.0177694   424551 
   93000   0.84672197    -3.250439    -3.250439   -2.2348118   0.19337319    -3.250439    1.0156272   424551 
   94000   0.84608101   -3.2516406   -3.2516406   -2.2367822    0.1851625   -3.2516406    1.0148584   424551 
   95000   0.84520979   -3.2527233   -3.2527233   -2.2389099   0.18017021   -3.2527233    1.0138134   424551 
   96000    0.8434703   -3.2516871   -3.2516871   -2.2399602   0.17819122   -3.2516871    1.0117269   424551 
   97000   0.84453146   -3.2534134   -3.2534134   -2.2404136   0.17366611   -3.2534134    1.0129997   424551 
   98000   0.84456737   -3.2548899   -3.2548899   -2.2418471   0.17678231   -3.2548899    1.0130428   424551 
   99000   0.84423884   -3.2568991   -3.2568991   -2.2442503    0.1678537   -3.2568991    1.0126487   424551 
  100000   0.84400122     -3.25878     -3.25878   -2.2464163   0.18287083     -3.25878    1.0123637   424551 
  101000   0.84227038   -3.2585584   -3.2585584   -2.2482708   0.16764659   -3.2585584    1.0102876   424551 
  102000   0.84298508   -3.2609628   -3.2609628    -2.249818   0.17246374   -3.2609628    1.0111449   424551 
  103000   0.84017869   -3.2585714   -3.2585714   -2.2507928    0.1712478   -3.2585714    1.0077787   424551 
  104000    0.8411579   -3.2606321   -3.2606321   -2.2516788   0.16565264   -3.2606321    1.0089532   424551 
  105000   0.83828079   -3.2593458   -3.2593458   -2.2538436    0.1796991   -3.2593458    1.0055022   424551 
  106000   0.83912026   -3.2617127   -3.2617127   -2.2552036   0.16746353   -3.2617127    1.0065091   424551 
  107000    0.8396605    -3.263628    -3.263628   -2.2564709   0.16745612    -3.263628    1.0071571   424551 
  108000   0.83759811   -3.2623921   -3.2623921   -2.2577088   0.16170837   -3.2623921    1.0046833   424551 
  109000   0.83693696   -3.2625014   -3.2625014   -2.2586111    0.1639378   -3.2625014    1.0038903   424551 
  110000   0.83746785   -3.2648858   -3.2648858   -2.2603588   0.17149429   -3.2648858    1.0045271   424551 
  111000   0.83661708   -3.2657283   -3.2657283   -2.2622217   0.18712869   -3.2657283    1.0035066   424551 
  112000   0.83470717   -3.2661859   -3.2661859   -2.2649703   0.17265384   -3.2661859    1.0012157   424551 
  113000   0.83675748   -3.2710772   -3.2710772   -2.2674022   0.17171543   -3.2710772     1.003675   424551 
  114000    0.8361102   -3.2729131   -3.2729131   -2.2700145   0.19264241   -3.2729131    1.0028986   424551 
  115000   0.83793611   -3.2771434   -3.2771434   -2.2720547   0.16288573   -3.2771434    1.0050887   424551 
  116000    0.8365227   -3.2779223   -3.2779223   -2.2745289   0.18435957   -3.2779223    1.0033934   424551 
  117000   0.83666558   -3.2802066   -3.2802066   -2.2766419   0.18850491   -3.2802066    1.0035647   424551 
  118000   0.83585129   -3.2816199   -3.2816199   -2.2790319   0.16583716   -3.2816199     1.002588   424551 
  119000   0.83569436   -3.2838051   -3.2838051   -2.2814053   0.17725994   -3.2838051    1.0023998   424551 
  120000   0.83339381   -3.2829761   -3.2829761   -2.2833358   0.17401744   -3.2829761   0.99964032   424551 
  121000   0.83477019    -3.286091    -3.286091   -2.2847997   0.19740044    -3.286091    1.0012913   424551 
  122000   0.83285895   -3.2855793   -3.2855793   -2.2865805    0.1753731   -3.2855793   0.99899876   424551 
  123000   0.83273648   -3.2874736   -3.2874736   -2.2886218   0.17506959   -3.2874736   0.99885186   424551 
  124000   0.83330055   -3.2899028   -3.2899028   -2.2903744   0.19268344   -3.2899028   0.99952845   424551 
  125000   0.83131105   -3.2888469   -3.2888469   -2.2917048   0.18103129   -3.2888469   0.99714209   424551 
  126000   0.83033961   -3.2887183   -3.2887183   -2.2927414   0.17610886   -3.2887183   0.99597686   424551 
  127000   0.83127104   -3.2912828   -3.2912828   -2.2941887   0.18943781   -3.2912828    0.9970941   424551 
  128000   0.82848673   -3.2901179   -3.2901179   -2.2963636   0.17984861   -3.2901179   0.99375437   424551 
  129000   0.82946524    -3.293543    -3.293543   -2.2986149   0.17544255    -3.293543   0.99492807   424551 
  130000   0.82788248   -3.2935997   -3.2935997   -2.3005701   0.17334091   -3.2935997   0.99302958   424551 
  131000   0.82777707   -3.2952849   -3.2952849   -2.3023818   0.16952976   -3.2952849   0.99290314   424551 
  132000   0.82636624   -3.2954044   -3.2954044   -2.3041935   0.15413786   -3.2954044   0.99121088   424551 
  133000   0.82552026    -3.295596    -3.295596   -2.3053999   0.18538377    -3.295596   0.99019615   424551 
  134000    0.8246965   -3.2950844   -3.2950844   -2.3058763   0.17315868   -3.2950844   0.98920806   424551 
  135000    0.8244861   -3.2960557   -3.2960557      -2.3071    0.1653489   -3.2960557   0.98895568   424551 
  136000   0.82443654   -3.2972966   -3.2972966   -2.3084003   0.17400453   -3.2972966   0.98889624   424551 
  137000   0.82503739   -3.2997195   -3.2997195   -2.3101025   0.16406552   -3.2997195   0.98961695   424551 
  138000   0.82441142   -3.2996732   -3.2996732   -2.3108071   0.16845767   -3.2996732    0.9888661   424551 
  139000   0.82304741   -3.2998513   -3.2998513   -2.3126213   0.17057611   -3.2998513   0.98723001   424551 
  140000   0.82287995   -3.3012201   -3.3012201   -2.3141909   0.15849284   -3.3012201   0.98702914   424551 
  141000   0.82109393   -3.2996405   -3.2996405   -2.3147536   0.16426532   -3.2996405   0.98488684   424551 
  142000   0.82075985   -3.3018096   -3.3018096   -2.3173235   0.15810659   -3.3018096   0.98448612   424551 
  143000   0.81992525   -3.3024327   -3.3024327   -2.3189477   0.17575284   -3.3024327   0.98348503   424551 
  144000   0.82075503   -3.3048417   -3.3048417   -2.3203614   0.17787497   -3.3048417   0.98448034   424551 
  145000   0.82029527   -3.3049639   -3.3049639    -2.321035   0.16498503   -3.3049639   0.98392886   424551 
  146000   0.81829519   -3.3036024   -3.3036024   -2.3220726   0.17527751   -3.3036024   0.98152981   424551 
  147000    0.8188046   -3.3053364   -3.3053364   -2.3231955   0.17637303   -3.3053364   0.98214083   424551 
  148000   0.81949391   -3.3078476   -3.3078476   -2.3248799   0.14601875   -3.3078476   0.98296764   424551 
  149000   0.81694195   -3.3060094   -3.3060094   -2.3261028   0.16585035   -3.3060094   0.97990662   424551 
  150000   0.81801515   -3.3094979   -3.3094979    -2.328304   0.16855751   -3.3094979    0.9811939   424551 
  151000   0.81750226   -3.3105651   -3.3105651   -2.3299864   0.16116895   -3.3105651    0.9805787   424551 
  152000     0.817554   -3.3113219   -3.3113219   -2.3306812   0.16643791   -3.3113219   0.98064077   424551 
  153000   0.81769175   -3.3128919   -3.3128919   -2.3320859   0.16677953   -3.3128919   0.98080599   424551 
  154000   0.81770332   -3.3145885   -3.3145885   -2.3337686   0.17414485   -3.3145885   0.98081987   424551 
  155000   0.81503708   -3.3125012   -3.3125012   -2.3348794   0.17085164   -3.3125012   0.97762177   424551 
  156000   0.81655325   -3.3155291   -3.3155291   -2.3360887   0.16248486   -3.3155291   0.97944038   424551 
  157000   0.81645367    -3.316439    -3.316439    -2.337118   0.15669958    -3.316439   0.97932093   424551 
  158000   0.81538004   -3.3174775   -3.3174775   -2.3394444   0.17425154   -3.3174775   0.97803314   424551 
  159000   0.81514509   -3.3187404   -3.3187404   -2.3409891   0.15757901   -3.3187404   0.97775132   424551 
  160000   0.81383444   -3.3183988   -3.3183988   -2.3422195   0.17269798   -3.3183988   0.97617922   424551 
  161000   0.81430941   -3.3202615   -3.3202615   -2.3435126    0.1629369   -3.3202615   0.97674894   424551 
  162000   0.81260464   -3.3199749   -3.3199749   -2.3452708   0.17793298   -3.3199749    0.9747041   424551 
  163000   0.81200563   -3.3218413   -3.3218413   -2.3478557   0.16372141   -3.3218413    0.9739856   424551 
  164000   0.81098002   -3.3214132   -3.3214132   -2.3486578   0.17806581   -3.3214132    0.9727554   424551 
  165000   0.81301167   -3.3244953   -3.3244953    -2.349303   0.17367388   -3.3244953   0.97519233   424551 
  166000   0.81109472   -3.3238741   -3.3238741   -2.3509812   0.16749739   -3.3238741   0.97289297   424551 
  167000   0.81071869   -3.3252364   -3.3252364   -2.3527945   0.15310709   -3.3252364   0.97244194   424551 
  168000   0.81049521     -3.32658     -3.32658   -2.3544061   0.16291315     -3.32658   0.97217387   424551 
  169000   0.81047931    -3.327823    -3.327823   -2.3556682     0.185636    -3.327823   0.97215481   424551 
  170000   0.81039558   -3.3292304   -3.3292304   -2.3571761   0.15582204   -3.3292304   0.97205437   424551 
  171000   0.80894155   -3.3285575   -3.3285575   -2.3582472   0.16639564   -3.3285575   0.97031028   424551 
  172000    0.8097007   -3.3315197   -3.3315197   -2.3602989   0.15157843   -3.3315197   0.97122087   424551 
  173000   0.80895656   -3.3328217   -3.3328217   -2.3624934   0.15472824   -3.3328217    0.9703283   424551 
  174000   0.80732316   -3.3331544   -3.3331544   -2.3647853   0.17423293   -3.3331544   0.96836906   424551 
  175000   0.80710605   -3.3338585   -3.3338585   -2.3657499   0.15803841   -3.3338585   0.96810865   424551 
  176000   0.80680853    -3.335024    -3.335024   -2.3672723   0.15262819    -3.335024   0.96775177   424551 
  177000   0.80602225   -3.3349118   -3.3349118   -2.3681032   0.17053134   -3.3349118   0.96680865   424551 
  178000   0.80618379   -3.3355669   -3.3355669   -2.3685644   0.14822055   -3.3355669    0.9670024   424551 
  179000   0.80495279   -3.3355196   -3.3355196   -2.3699937   0.14463039   -3.3355196   0.96552585   424551 
  180000   0.80521656   -3.3373034   -3.3373034   -2.3714612   0.15463696   -3.3373034   0.96584223   424551 
  181000   0.80543619   -3.3391868   -3.3391868   -2.3730811   0.16670543   -3.3391868   0.96610568   424551 
  182000   0.80385696   -3.3382901   -3.3382901   -2.3740787   0.16310548   -3.3382901   0.96421142   424551 
  183000   0.80437564   -3.3408295   -3.3408295   -2.3759959   0.15768836   -3.3408295   0.96483356   424551 
  184000   0.80429868   -3.3416065   -3.3416065   -2.3768653   0.15947096   -3.3416065   0.96474125   424551 
  185000   0.80356648   -3.3425928   -3.3425928   -2.3787298   0.13720997   -3.3425928     0.963863   424551 
  186000   0.80250722   -3.3426281   -3.3426281   -2.3800357   0.14168927   -3.3426281   0.96259243   424551 
  187000   0.80072203   -3.3414382   -3.3414382   -2.3809871   0.15852641   -3.3414382   0.96045113   424551 
  188000    0.8010623   -3.3424648   -3.3424648   -2.3816055   0.16488466   -3.3424648   0.96085928   424551 
  189000   0.79944981   -3.3419641   -3.3419641    -2.383039   0.15793055   -3.3419641   0.95892512   424551 
  190000   0.80089317   -3.3453801   -3.3453801   -2.3847237   0.16593734   -3.3453801   0.96065641   424551 
  191000    0.8011332   -3.3464799   -3.3464799   -2.3855356   0.16938677   -3.3464799   0.96094433   424551 
  192000   0.80116556    -3.348393    -3.348393   -2.3874099   0.14802661    -3.348393   0.96098313   424551 
  193000   0.80067031   -3.3491091   -3.3491091     -2.38872   0.16254727   -3.3491091    0.9603891   424551 
  194000   0.80001046   -3.3496602   -3.3496602   -2.3900626   0.16151991   -3.3496602   0.95959762   424551 
  195000   0.79797321   -3.3485495   -3.3485495   -2.3913955   0.15710376   -3.3485495   0.95715397   424551 
  196000   0.79882672   -3.3507736   -3.3507736   -2.3925958   0.15927102   -3.3507736   0.95817774   424551 
  197000   0.79782662   -3.3508831   -3.3508831   -2.3939049    0.1537515   -3.3508831   0.95697814   424551 
  198000     0.798349   -3.3517618   -3.3517618   -2.3941571   0.17398193   -3.3517618   0.95760472   424551 
  199000   0.79742798   -3.3518821   -3.3518821   -2.3953821   0.14816804   -3.3518821   0.95649997   424551 
  200000    0.7968187     -3.35249     -3.35249   -2.3967208   0.15588484     -3.35249   0.95576916   424551 
  201000   0.79681351   -3.3538542   -3.3538542   -2.3980913    0.1426185   -3.3538542   0.95576293   424551 
  202000   0.79584811   -3.3535045   -3.3535045   -2.3988996   0.16211284   -3.3535045   0.95460495   424551 
  203000   0.79523976   -3.3543024   -3.3543024   -2.4004272   0.14693654   -3.3543024   0.95387525   424551 
  204000    0.7956413   -3.3555707   -3.3555707   -2.4012138   0.14907638   -3.3555707   0.95435689   424551 
  205000   0.79715197   -3.3587168   -3.3587168   -2.4025479   0.14759338   -3.3587168   0.95616891   424551 
  206000   0.79557195   -3.3587819   -3.3587819   -2.4045082   0.15417072   -3.3587819    0.9542737   424551 
  207000   0.79520327    -3.359012    -3.359012   -2.4051805    0.1631579    -3.359012   0.95383148   424551 
  208000   0.79464112   -3.3595464   -3.3595464   -2.4063892   0.15666552   -3.3595464   0.95315719   424551 
  209000   0.79370471   -3.3602259   -3.3602259   -2.4081919   0.15517754   -3.3602259   0.95203399   424551 
  210000   0.79286883   -3.3604685   -3.3604685   -2.4094372   0.15884235   -3.3604685   0.95103136   424551 
  211000    0.7936001   -3.3625395   -3.3625395    -2.410631   0.15005959   -3.3625395   0.95190851   424551 
  212000   0.79285359   -3.3623782   -3.3623782   -2.4113651   0.14700212   -3.3623782   0.95101308   424551 
  213000   0.79290612    -3.363805    -3.363805   -2.4127289   0.14989726    -3.363805   0.95107609   424551 
  214000   0.79193017   -3.3636852   -3.3636852   -2.4137797   0.16507458   -3.3636852   0.94990546   424551 
  215000   0.79053723   -3.3635099   -3.3635099   -2.4152753   0.14807062   -3.3635099   0.94823465   424551 
  216000   0.79115046    -3.365821    -3.365821   -2.4168507   0.14720625    -3.365821   0.94897022   424551 
  217000   0.79133293   -3.3666815   -3.3666815   -2.4174925     0.143834   -3.3666815   0.94918908   424551 
  218000   0.78931304   -3.3653113   -3.3653113   -2.4185451   0.16832817   -3.3653113   0.94676626   424551 
  219000   0.78861231   -3.3661171   -3.3661171   -2.4201913   0.14781926   -3.3661171   0.94592574   424551 
  220000   0.78934081   -3.3676607   -3.3676607   -2.4208611   0.14309085   -3.3676607   0.94679957   424551 
  221000   0.78880829   -3.3679918   -3.3679918    -2.421831   0.14616751   -3.3679918   0.94616082   424551 
  222000    0.7874575   -3.3673606   -3.3673606   -2.4228201   0.15415848   -3.3673606   0.94454057   424551 
  223000   0.78871551   -3.3702685   -3.3702685    -2.424219   0.17039543   -3.3702685   0.94604954   424551 
  224000   0.78776691   -3.3704008   -3.3704008   -2.4254891    0.1504025   -3.3704008   0.94491171   424551 
  225000   0.78779849   -3.3716983   -3.3716983   -2.4267487   0.15050479   -3.3716983   0.94494958   424551 
  226000   0.78958716   -3.3746723   -3.3746723   -2.4275773   0.15075013   -3.3746723   0.94709506   424551 
  227000   0.78885856   -3.3750919   -3.3750919   -2.4288708   0.14876293   -3.3750919   0.94622111   424551 
  228000   0.78709816   -3.3743103   -3.3743103   -2.4302007   0.15256398   -3.3743103   0.94410956   424551 
  229000   0.78650106   -3.3744818   -3.3744818   -2.4310884   0.15955562   -3.3744818   0.94339334   424551 
  230000   0.78651664   -3.3759213   -3.3759213   -2.4325093   0.14783926   -3.3759213   0.94341203   424551 
  231000    0.7853128    -3.376038    -3.376038     -2.43407   0.15625628    -3.376038   0.94196805   424551 
  232000   0.78441699   -3.3761969   -3.3761969   -2.4353034   0.14801681   -3.3761969   0.94089353   424551 
  233000   0.78436429   -3.3768162   -3.3768162   -2.4359859    0.1463555   -3.3768162   0.94083033   424551 
  234000   0.78449598   -3.3777617   -3.3777617   -2.4367734    0.1386485   -3.3777617   0.94098829   424551 
  235000   0.78350857   -3.3783321   -3.3783321   -2.4385282   0.13569754   -3.3783321   0.93980391   424551 
  236000   0.78406411   -3.3796209   -3.3796209   -2.4391507    0.1511081   -3.3796209   0.94047027   424551 
  237000   0.78262333   -3.3792016   -3.3792016   -2.4404595   0.15838114   -3.3792016   0.93874207   424551 
  238000   0.78425205   -3.3814111   -3.3814111   -2.4407154    0.1504134   -3.3814111   0.94069569   424551 
  239000   0.78371676   -3.3824669   -3.3824669   -2.4424133   0.14306609   -3.3824669   0.94005362   424551 
  240000   0.78282241   -3.3823854   -3.3823854   -2.4434046   0.14904446   -3.3823854   0.93898087   424551 
  241000   0.78298776   -3.3834395   -3.3834395   -2.4442603   0.14651878   -3.3834395   0.93917921   424551 
  242000   0.78079812   -3.3822017   -3.3822017   -2.4456489   0.13355015   -3.3822017   0.93655277   424551 
  243000   0.78116326   -3.3833787   -3.3833787    -2.446388   0.14344831   -3.3833787   0.93699075   424551 
  244000    0.7818762   -3.3855808   -3.3855808   -2.4477349   0.14250552   -3.3855808   0.93784591   424551 
  245000   0.78084903   -3.3853384   -3.3853384   -2.4487245    0.1373873   -3.3853384   0.93661384   424551 
  246000    0.7817203   -3.3872554   -3.3872554   -2.4495965   0.15375514   -3.3872554   0.93765891   424551 
  247000    0.7799676   -3.3875245   -3.3875245    -2.451968   0.14479976   -3.3875245   0.93555658   424551 
  248000   0.77992512   -3.3880797   -3.3880797   -2.4525741   0.15718923   -3.3880797   0.93550563   424551 
  249000   0.77950987   -3.3885957   -3.3885957   -2.4535882   0.15374239   -3.3885957   0.93500754   424551 
  250000   0.77935698   -3.3893474   -3.3893474   -2.4545233   0.14805317   -3.3893474   0.93482415   424551 
  251000   0.77929536   -3.3912404   -3.3912404   -2.4564901   0.14742141   -3.3912404   0.93475024   424551 
  252000    0.7780007   -3.3909259   -3.3909259   -2.4577285   0.15378337   -3.3909259   0.93319732   424551 
  253000   0.77790596   -3.3916557   -3.3916557    -2.458572   0.14901819   -3.3916557   0.93308367   424551 
  254000   0.77745688   -3.3918496   -3.3918496   -2.4593046   0.14057556   -3.3918496   0.93254502   424551 
  255000   0.77791418   -3.3923841   -3.3923841   -2.4592906   0.14804309   -3.3923841   0.93309354   424551 
  256000   0.77738685   -3.3936261   -3.3936261   -2.4611651   0.12992754   -3.3936261   0.93246102   424551 
  257000   0.77648808   -3.3929119   -3.3929119   -2.4615289   0.14128216   -3.3929119   0.93138296   424551 
  258000   0.77589805   -3.3931262   -3.3931262    -2.462451   0.15079937   -3.3931262   0.93067523   424551 
  259000   0.77706342   -3.3946931   -3.3946931   -2.4626201   0.14269784   -3.3946931   0.93207306   424551 
  260000   0.77599615   -3.3944067   -3.3944067   -2.4636138   0.14775732   -3.3944067   0.93079289   424551 
  261000   0.77479388   -3.3943993   -3.3943993   -2.4650485     0.153821   -3.3943993    0.9293508   424551 
  262000   0.77541911   -3.3959336   -3.3959336   -2.4658329   0.14440859   -3.3959336   0.93010075   424551 
  263000   0.77608384   -3.3975395   -3.3975395   -2.4666414   0.13950057   -3.3975395   0.93089808   424551 
  264000   0.77428564    -3.396749    -3.396749   -2.4680078   0.13485922    -3.396749   0.92874118   424551 
  265000   0.77458441   -3.3985014   -3.3985014   -2.4694019   0.13310552   -3.3985014   0.92909954   424551 
  266000   0.77321388   -3.3980126   -3.3980126    -2.470557   0.12934326   -3.3980126   0.92745562   424551 
  267000   0.77325361   -3.3994822   -3.3994822   -2.4719789   0.12520242   -3.3994822   0.92750327   424551 
  268000    0.7728492   -3.4001528   -3.4001528   -2.4731346   0.14221892   -3.4001528    0.9270182   424551 
  269000   0.77204881   -3.3999937   -3.3999937   -2.4739356   0.14652109   -3.3999937   0.92605813   424551 
  270000   0.77179981   -3.4004328   -3.4004328   -2.4746733   0.13708749   -3.4004328   0.92575947   424551 
  271000    0.7730279   -3.4031537   -3.4031537   -2.4759212   0.14151411   -3.4031537   0.92723253   424551 
  272000   0.77250649   -3.4043872   -3.4043872   -2.4777801   0.14032536   -3.4043872   0.92660712   424551 
  273000   0.77169426   -3.4044555   -3.4044555   -2.4788226    0.1505027   -3.4044555   0.92563286   424551 
  274000   0.77213329   -3.4060349   -3.4060349   -2.4798754   0.13759665   -3.4060349   0.92615947   424551 
  275000   0.76986014   -3.4042713   -3.4042713   -2.4808385   0.14928761   -3.4042713   0.92343287   424551 
  276000   0.77115501   -3.4061345   -3.4061345   -2.4811485   0.14205295   -3.4061345   0.92498604   424551 
  277000   0.77025807   -3.4057143   -3.4057143   -2.4818041   0.13332118   -3.4057143   0.92391017   424551 
  278000   0.77064251   -3.4066625   -3.4066625   -2.4822912   0.12442213   -3.4066625   0.92437131   424551 
  279000    0.7681516   -3.4056509   -3.4056509   -2.4842674   0.13709551   -3.4056509   0.92138351   424551 
  280000   0.76853477   -3.4080574   -3.4080574   -2.4862143   0.13811652   -3.4080574   0.92184311   424551 
  281000   0.76984906    -3.410746    -3.410746   -2.4873264   0.14415907    -3.410746   0.92341957   424551 
  282000   0.76877644   -3.4098993   -3.4098993   -2.4877663   0.14460601   -3.4098993   0.92213299   424551 
  283000   0.76848098   -3.4111784   -3.4111784   -2.4893998   0.14702548   -3.4111784   0.92177859   424551 
  284000   0.76971518   -3.4126649   -3.4126649   -2.4894059   0.13175426   -3.4126649   0.92325899   424551 
  285000   0.76832294   -3.4119277   -3.4119277   -2.4903387   0.14006547   -3.4119277   0.92158902   424551 
  286000   0.76841554   -3.4122637   -3.4122637   -2.4905636   0.13537747   -3.4122637   0.92170009   424551 
  287000   0.76826611    -3.413252    -3.413252   -2.4917311   0.13663669    -3.413252   0.92152086   424551 
  288000   0.76856032   -3.4140163   -3.4140163   -2.4921426    0.1470119   -3.4140163   0.92187375   424551 
  289000   0.76742466   -3.4137124   -3.4137124   -2.4932009   0.13797606   -3.4137124   0.92051155   424551 
  290000   0.76716705   -3.4147578   -3.4147578   -2.4945553   0.13028443   -3.4147578   0.92020256   424551 
  291000    0.7666788   -3.4158352   -3.4158352   -2.4962183   0.13020879   -3.4158352   0.91961691   424551 
  292000   0.76728091   -3.4171829   -3.4171829   -2.4968438   0.12855089   -3.4171829   0.92033913   424551 
  293000   0.76644661   -3.4163162   -3.4163162   -2.4969778   0.13714779   -3.4163162    0.9193384   424551 
  294000   0.76554297   -3.4171067   -3.4171067   -2.4988522   0.13951864   -3.4171067    0.9182545   424551 
  295000   0.76594501   -3.4187774   -3.4187774   -2.5000407   0.14901542   -3.4187774   0.91873674   424551 
  296000   0.76618875   -3.4203709   -3.4203709   -2.5013418   0.15277989   -3.4203709   0.91902911   424551 
  297000   0.76543431   -3.4201647   -3.4201647   -2.5020405    0.1380735   -3.4201647   0.91812417   424551 
  298000   0.76469148    -3.419708    -3.419708   -2.5024749   0.13337891    -3.419708   0.91723316   424551 
  299000    0.7637306   -3.4196545   -3.4196545   -2.5035739   0.13503182   -3.4196545    0.9160806   424551 
  300000   0.76347244   -3.4204738   -3.4204738   -2.5047029   0.14468267   -3.4204738   0.91577094   424551 
  301000   0.76319762   -3.4199331   -3.4199331   -2.5044918   0.13885353   -3.4199331   0.91544129   424551 
  302000   0.76347221   -3.4214572   -3.4214572   -2.5056865   0.11696538   -3.4214572   0.91577066   424551 
  303000   0.76292245   -3.4222599   -3.4222599   -2.5071487   0.13514127   -3.4222599   0.91511124   424551 
  304000    0.7628536   -3.4231508   -3.4231508   -2.5081221   0.13676014   -3.4231508   0.91502865   424551 
  305000   0.76219968   -3.4231526   -3.4231526   -2.5089083   0.12598071   -3.4231526   0.91424429   424551 
  306000   0.76269666   -3.4249389   -3.4249389   -2.5100985   0.13813399   -3.4249389   0.91484041   424551 
  307000   0.76146337   -3.4240836   -3.4240836   -2.5107225   0.13148338   -3.4240836    0.9133611   424551 
  308000   0.76117072   -3.4243172   -3.4243172   -2.5113071   0.14424008   -3.4243172   0.91301008   424551 
  309000    0.7612846   -3.4257984   -3.4257984   -2.5126518    0.1171156   -3.4257984   0.91314666   424551 
  310000   0.76091671   -3.4264238   -3.4264238   -2.5137184   0.13615999   -3.4264238    0.9127054   424551 
  311000   0.75980313   -3.4255115   -3.4255115   -2.5141419    0.1265419   -3.4255115   0.91136968   424551 
  312000   0.76110108   -3.4277466   -3.4277466   -2.5148201   0.13596944   -3.4277466   0.91292654   424551 
  313000   0.75906537   -3.4264428   -3.4264428   -2.5159581   0.13243365   -3.4264428   0.91048474   424551 
  314000   0.76001862   -3.4285878   -3.4285878   -2.5169597   0.14305355   -3.4285878   0.91162815   424551 
  315000   0.75889302   -3.4283288   -3.4283288   -2.5180507    0.1263998   -3.4283288   0.91027802   424551 
  316000   0.75900468   -3.4290689   -3.4290689    -2.518657   0.12336044   -3.4290689   0.91041194   424551 
  317000   0.76002095   -3.4306175   -3.4306175   -2.5189866   0.14201775   -3.4306175   0.91163095   424551 
  318000    0.7582594   -3.4287367   -3.4287367   -2.5192187   0.13522532   -3.4287367     0.909518   424551 
  319000   0.75930386     -3.43116     -3.43116   -2.5203892   0.13268317     -3.43116   0.91077081   424551 
  320000     0.758939   -3.4313905   -3.4313905   -2.5210574     0.124312   -3.4313905   0.91033317   424551 
  321000   0.75788417   -3.4310064   -3.4310064   -2.5219385   0.14097371   -3.4310064   0.90906792   424551 
  322000   0.75742498   -3.4312845   -3.4312845   -2.5227674   0.14203802   -3.4312845   0.90851713   424551 
  323000    0.7580899   -3.4331775   -3.4331775   -2.5238628   0.12307926   -3.4331775   0.90931469   424551 
  324000   0.75710476   -3.4328237   -3.4328237   -2.5246906   0.13453411   -3.4328237   0.90813302   424551 
  325000    0.7578011   -3.4348291   -3.4348291   -2.5258608   0.11751997   -3.4348291   0.90896828   424551 
  326000   0.75777182   -3.4360143   -3.4360143   -2.5270811   0.12693723   -3.4360143   0.90893315   424551 
  327000   0.75773423   -3.4368217   -3.4368217   -2.5279336   0.13937048   -3.4368217   0.90888807   424551 
  328000   0.75525529   -3.4350979   -3.4350979   -2.5291833   0.13222141   -3.4350979   0.90591462   424551 
  329000   0.75451983   -3.4353137   -3.4353137   -2.5302812   0.12101617   -3.4353137   0.90503245   424551 
  330000   0.75579054    -3.437654    -3.437654   -2.5310973   0.13289993    -3.437654   0.90655665   424551 
  331000   0.75592011   -3.4389809   -3.4389809   -2.5322688   0.12907025   -3.4389809   0.90671206   424551 
  332000   0.75479403   -3.4375358   -3.4375358   -2.5321745   0.12023206   -3.4375358   0.90536135   424551 
  333000   0.75441114   -3.4383002   -3.4383002   -2.5333981   0.14159496   -3.4383002   0.90490208   424551 
  334000   0.75554402   -3.4401775   -3.4401775   -2.5339166    0.1182234   -3.4401775   0.90626095   424551 
  335000   0.75370645   -3.4391776   -3.4391776   -2.5351208   0.12766583   -3.4391776   0.90405682   424551 
  336000   0.75391504    -3.440568    -3.440568    -2.536261   0.13193699    -3.440568   0.90430701   424551 
  337000   0.75264176   -3.4394777   -3.4394777   -2.5366979   0.12795296   -3.4394777   0.90277974   424551 
  338000   0.75384981   -3.4415932   -3.4415932   -2.5373645   0.13506723   -3.4415932   0.90422877   424551 
  339000   0.75391367   -3.4421217   -3.4421217   -2.5378163   0.12189726   -3.4421217   0.90430538   424551 
  340000   0.75207339   -3.4415147   -3.4415147   -2.5394168   0.11883918   -3.4415147     0.902098   424551 
  341000    0.7528319   -3.4420866   -3.4420866   -2.5390787   0.11623371   -3.4420866   0.90300782   424551 
  342000   0.75237729   -3.4425163   -3.4425163   -2.5400538   0.13587432   -3.4425163   0.90246252   424551 
  343000   0.75045209   -3.4409166   -3.4409166   -2.5407633   0.13795681   -3.4409166   0.90015327   424551 
  344000   0.75101899   -3.4432791   -3.4432791   -2.5424458    0.1143804   -3.4432791   0.90083327   424551 
  345000   0.75063681   -3.4426662   -3.4426662   -2.5422913   0.12700667   -3.4426662   0.90037484   424551 
  346000   0.75115446   -3.4440719   -3.4440719   -2.5430762   0.12589553   -3.4440719   0.90099575   424551 
  347000   0.75139683   -3.4447882   -3.4447882   -2.5435017   0.13168043   -3.4447882   0.90128648   424551 
  348000   0.75224896   -3.4470689   -3.4470689   -2.5447603   0.12621569   -3.4470689   0.90230859   424551 
  349000   0.75107395   -3.4467308   -3.4467308   -2.5458317    0.1354773   -3.4467308   0.90089919   424551 
  350000   0.75178783    -3.448559    -3.448559   -2.5468035   0.13930731    -3.448559   0.90175547   424551 
  351000   0.75181911   -3.4495297   -3.4495297   -2.5477367   0.13253988   -3.4495297   0.90179298   424551 
  352000   0.75021244   -3.4481243   -3.4481243   -2.5482585    0.1332972   -3.4481243   0.89986582   424551 
  353000   0.75205215   -3.4505337   -3.4505337   -2.5484612   0.12637523   -3.4505337   0.90207252   424551 
  354000   0.74939445   -3.4494925   -3.4494925   -2.5506079   0.13114518   -3.4494925   0.89888466   424551 
  355000   0.74988259   -3.4504617   -3.4504617   -2.5509915   0.12234462   -3.4504617   0.89947017   424551 
  356000   0.74901138   -3.4513575   -3.4513575   -2.5529323   0.12115331   -3.4513575   0.89842517   424551 
  357000   0.74809103   -3.4508445   -3.4508445   -2.5535232   0.11859824   -3.4508445   0.89732123   424551 
  358000   0.74839607   -3.4507476   -3.4507476   -2.5530605   0.14267466   -3.4507476   0.89768711   424551 
  359000   0.74829445   -3.4527353   -3.4527353   -2.5551701   0.11958289   -3.4527353   0.89756523   424551 
  360000   0.74880116   -3.4532119   -3.4532119   -2.5550389   0.11727267   -3.4532119   0.89817302   424551 
  361000   0.74882258   -3.4536551   -3.4536551   -2.5554564   0.11979475   -3.4536551    0.8981987   424551 
  362000   0.74738738   -3.4525966   -3.4525966   -2.5561194   0.11507493   -3.4525966   0.89647721   424551 
  363000    0.7498952   -3.4554695   -3.4554695   -2.5559842   0.11397854   -3.4554695    0.8994853   424551 
  364000   0.74789771   -3.4537951   -3.4537951   -2.5567058   0.12336346   -3.4537951   0.89708934   424551 
  365000   0.74583355   -3.4525461   -3.4525461   -2.5579327   0.12653636   -3.4525461   0.89461342   424551 
  366000   0.74662028   -3.4546174   -3.4546174   -2.5590603   0.12738842   -3.4546174   0.89555709   424551 
  367000   0.74670268   -3.4551892   -3.4551892   -2.5595333   0.13454446   -3.4551892   0.89565593   424551 
  368000   0.74712312   -3.4564024   -3.4564024   -2.5602422   0.12809853   -3.4564024   0.89616024   424551 
  369000    0.7468001   -3.4576286   -3.4576286   -2.5618558   0.12953346   -3.4576286   0.89577278   424551 
  370000   0.74609414   -3.4571908   -3.4571908   -2.5622648   0.13082877   -3.4571908   0.89492599   424551 
  371000   0.74791628    -3.460134    -3.460134   -2.5630224   0.12055449    -3.460134   0.89711162   424551 
  372000   0.74533561   -3.4573673   -3.4573673   -2.5633512   0.12492379   -3.4573673   0.89401616   424551 
  373000   0.74506886   -3.4582621   -3.4582621   -2.5645659    0.1255231   -3.4582621   0.89369619   424551 
  374000   0.74494358   -3.4582975   -3.4582975   -2.5647516   0.12428269   -3.4582975   0.89354591   424551 
  375000   0.74640159   -3.4606761   -3.4606761   -2.5653814    0.1322802   -3.4606761   0.89529478   424551 
  376000    0.7449342   -3.4608823   -3.4608823   -2.5673476   0.11645128   -3.4608823   0.89353467   424551 
  377000     0.744488   -3.4605809   -3.4605809   -2.5675814   0.12771302   -3.4605809   0.89299946   424551 
  378000   0.74524187   -3.4621042   -3.4621042   -2.5682005   0.12933096   -3.4621042   0.89390371   424551 
  379000   0.74369442   -3.4611568   -3.4611568   -2.5691092   0.13296929   -3.4611568   0.89204757   424551 
  380000   0.74546156   -3.4628083   -3.4628083   -2.5686411   0.12504898   -3.4628083   0.89416723   424551 
  381000   0.74489607   -3.4626056   -3.4626056   -2.5691167   0.10546729   -3.4626056   0.89348893   424551 
  382000   0.74403574   -3.4621968   -3.4621968   -2.5697398   0.11837276   -3.4621968   0.89245698   424551 
  383000   0.74504351   -3.4640543   -3.4640543   -2.5703885   0.12575891   -3.4640543   0.89366578   424551 
  384000   0.74430942    -3.464314    -3.464314   -2.5715288   0.13336122    -3.464314   0.89278526   424551 
  385000   0.74357451   -3.4643387   -3.4643387   -2.5724349   0.13179047   -3.4643387   0.89190375   424551 
  386000   0.74289274   -3.4637702   -3.4637702   -2.5726842   0.13465476   -3.4637702   0.89108598   424551 
  387000   0.74308292   -3.4647816   -3.4647816   -2.5734675   0.11960372   -3.4647816   0.89131409   424551 
  388000   0.74331192   -3.4659674   -3.4659674   -2.5743787    0.1246647   -3.4659674   0.89158877   424551 
  389000   0.74455347   -3.4681142   -3.4681142   -2.5750362   0.12444626   -3.4681142   0.89307799   424551 
  390000   0.74326691   -3.4666639   -3.4666639   -2.5751291    0.1177765   -3.4666639   0.89153478   424551 
  391000   0.74282617   -3.4672634   -3.4672634   -2.5762573   0.12055934   -3.4672634   0.89100613   424551 
  392000   0.74295677    -3.467511    -3.467511   -2.5763483   0.13179009    -3.467511   0.89116277   424551 
  393000   0.74189488   -3.4669725   -3.4669725   -2.5770835   0.11520649   -3.4669725   0.88988906   424551 
  394000   0.73978308   -3.4655574   -3.4655574   -2.5782015    0.1234013   -3.4655574   0.88735599   424551 
  395000    0.7415908   -3.4684269   -3.4684269   -2.5789026   0.11616891   -3.4684269   0.88952432   424551 
  396000   0.74040388   -3.4674282   -3.4674282   -2.5793276   0.12211557   -3.4674282   0.88810064   424551 
  397000   0.74206109   -3.4690879   -3.4690879   -2.5789994   0.10988021   -3.4690879   0.89008843   424551 
  398000   0.74070746   -3.4684086   -3.4684086   -2.5799438   0.13976039   -3.4684086   0.88846477   424551 
  399000   0.74058125   -3.4691188   -3.4691188   -2.5808054   0.10056276   -3.4691188   0.88831339   424551 
  400000   0.74114716   -3.4709306   -3.4709306   -2.5819384   0.10310528   -3.4709306   0.88899218   424551 
  401000   0.73991631   -3.4705815   -3.4705815   -2.5830657   0.11136771   -3.4705815    0.8875158   424551 
  402000   0.73969536   -3.4716632   -3.4716632   -2.5844125   0.11988664   -3.4716632   0.88725077   424551 
  403000   0.74168636   -3.4741206   -3.4741206   -2.5844816   0.11267197   -3.4741206   0.88963894   424551 
  404000   0.73920266   -3.4715631   -3.4715631   -2.5849033   0.11327649   -3.4715631    0.8866598   424551 
  405000   0.74185845   -3.4755666   -3.4755666   -2.5857212   0.10953042   -3.4755666   0.88984536   424551 
  406000   0.73876595   -3.4732982   -3.4732982   -2.5871622   0.11858344   -3.4732982   0.88613597   424551 
  407000   0.73841131   -3.4741891   -3.4741891   -2.5884785   0.11381081   -3.4741891   0.88571059   424551 
  408000   0.73877493   -3.4750023   -3.4750023   -2.5888555   0.12513966   -3.4750023   0.88614674   424551 
  409000   0.73774439   -3.4746372   -3.4746372   -2.5897265   0.11136013   -3.4746372   0.88491063   424551 
  410000   0.73833896    -3.475616    -3.475616   -2.5899922   0.11465151    -3.475616    0.8856238   424551 
  411000   0.73723443   -3.4754145   -3.4754145   -2.5911156   0.12426537   -3.4754145   0.88429893   424551 
  412000   0.73653781   -3.4755019   -3.4755019   -2.5920385   0.12553392   -3.4755019   0.88346335   424551 
  413000   0.73660689   -3.4755431   -3.4755431   -2.5919969   0.11030679   -3.4755431   0.88354622   424551 
  414000   0.73609199     -3.47637     -3.47637   -2.5934414   0.13003139     -3.47637    0.8829286   424551 
  415000   0.73533152   -3.4768805   -3.4768805   -2.5948641   0.12010113   -3.4768805   0.88201643   424551 
  416000   0.73724729   -3.4792983   -3.4792983    -2.594984   0.11003203   -3.4792983   0.88431437   424551 
  417000   0.73574985   -3.4786451   -3.4786451   -2.5961268   0.12523096   -3.4786451   0.88251821   424551 
  418000   0.73612927   -3.4795428   -3.4795428   -2.5965695   0.13154181   -3.4795428   0.88297332   424551 
  419000   0.73400671   -3.4772826   -3.4772826   -2.5968553   0.12016875   -3.4772826   0.88042734   424551 
  420000    0.7341689   -3.4783903   -3.4783903   -2.5977684   0.11603485   -3.4783903    0.8806219   424551 
  421000   0.73566918   -3.4810635   -3.4810635    -2.598642   0.11309896   -3.4810635   0.88242144   424551 
  422000   0.73496505   -3.4804307   -3.4804307   -2.5988538   0.11004461   -3.4804307   0.88157686   424551 
  423000   0.73530027    -3.481413    -3.481413    -2.599434   0.11486349    -3.481413   0.88197894   424551 
  424000   0.73530143   -3.4819583   -3.4819583   -2.5999779   0.12069396   -3.4819583   0.88198034   424551 
  425000   0.73390278   -3.4808413   -3.4808413   -2.6005386   0.11249361   -3.4808413   0.88030269   424551 
  426000    0.7352747   -3.4828773   -3.4828773    -2.600929   0.10928775   -3.4828773   0.88194827   424551 
  427000   0.73399981   -3.4819524   -3.4819524   -2.6015333    0.1203744   -3.4819524   0.88041907   424551 
  428000   0.73464604   -3.4833684   -3.4833684   -2.6021742   0.12174556   -3.4833684   0.88119421   424551 
  429000   0.73372027   -3.4828514   -3.4828514   -2.6027676    0.1224823   -3.4828514   0.88008377   424551 
  430000   0.73335879   -3.4838607   -3.4838607   -2.6042105   0.11311994   -3.4838607   0.87965018   424551 
  431000   0.73231223    -3.483802    -3.483802   -2.6054072   0.11519265    -3.483802   0.87839485   424551 
  432000   0.73410992   -3.4859356   -3.4859356   -2.6053844   0.12397293   -3.4859356   0.88055114   424551 
  433000   0.73376487   -3.4861636   -3.4861636   -2.6060264   0.11359412   -3.4861636   0.88013726   424551 
  434000   0.73244429   -3.4857227   -3.4857227   -2.6071694   0.12281218   -3.4857227   0.87855325   424551 
  435000   0.73272089   -3.4870542   -3.4870542   -2.6081692   0.11383671   -3.4870542   0.87888503   424551 
  436000   0.73237306   -3.4870738   -3.4870738    -2.608606  0.099868087   -3.4870738   0.87846781   424551 
  437000    0.7329339   -3.4881547   -3.4881547   -2.6090142   0.11463403   -3.4881547   0.87914053   424551 
  438000    0.7311376    -3.486673    -3.486673   -2.6096871   0.12201279    -3.486673    0.8769859   424551 
  439000   0.73241106   -3.4883883   -3.4883883   -2.6098749   0.11705159   -3.4883883   0.87851339   424551 
  440000   0.73273022   -3.4902696   -3.4902696   -2.6113734    0.1248973   -3.4902696   0.87889623   424551 
  441000   0.73059386   -3.4875598   -3.4875598   -2.6112261   0.12189672   -3.4875598   0.87633369   424551 
  442000   0.73253387   -3.4905143   -3.4905143   -2.6118536   0.11837851   -3.4905143   0.87866071   424551 
  443000   0.73079216    -3.489694    -3.489694   -2.6131224   0.11931072    -3.489694   0.87657156   424551 
  444000   0.72943407   -3.4895588   -3.4895588   -2.6146162   0.10737184   -3.4895588   0.87494255   424551 
  445000   0.73006571   -3.4909124   -3.4909124   -2.6152122   0.12645534   -3.4909124   0.87570019   424551 
  446000   0.73067935    -3.492191    -3.492191   -2.6157547   0.11783646    -3.492191   0.87643624   424551 
  447000   0.72991474   -3.4907874   -3.4907874   -2.6152683   0.11578187   -3.4907874    0.8755191   424551 
  448000   0.72845332   -3.4902023   -3.4902023   -2.6164362   0.13453414   -3.4902023   0.87376616   424551 
  449000   0.72933448   -3.4919271   -3.4919271    -2.617104   0.11284346   -3.4919271    0.8748231   424551 
  450000   0.72953199    -3.493254    -3.493254    -2.618194   0.11372065    -3.493254   0.87506001   424551 
  451000   0.73000622   -3.4944759   -3.4944759    -2.618847   0.12708273   -3.4944759   0.87562884   424551 
  452000   0.72949809   -3.4943771   -3.4943771   -2.6193577   0.12092024   -3.4943771   0.87501934   424551 
  453000   0.72899722   -3.4951116   -3.4951116    -2.620693   0.12065264   -3.4951116   0.87441856   424551 
  454000   0.72950403    -3.496234    -3.496234   -2.6212076   0.11032776    -3.496234   0.87502646   424551 
  455000    0.7279158   -3.4951558   -3.4951558   -2.6220343   0.11348232   -3.4951558   0.87312141   424551 
  456000   0.72825121   -3.4960812   -3.4960812   -2.6225575   0.11019069   -3.4960812   0.87352373   424551 
  457000   0.72795796    -3.497287    -3.497287    -2.624115   0.11683514    -3.497287   0.87317199   424551 
  458000   0.72800107   -3.4980089   -3.4980089   -2.6247852   0.10554603   -3.4980089   0.87322369   424551 
  459000   0.72660854   -3.4963818   -3.4963818   -2.6248285  0.099242101   -3.4963818   0.87155338   424551 
  460000   0.72711485   -3.4979152   -3.4979152   -2.6257546   0.10645263   -3.4979152    0.8721607   424551 
  461000   0.72865741   -3.4996609   -3.4996609     -2.62565   0.12021032   -3.4996609   0.87401096   424551 
  462000   0.72565025   -3.4972411   -3.4972411   -2.6268372   0.10226095   -3.4972411   0.87040393   424551 
  463000    0.7265901   -3.4981997   -3.4981997   -2.6266684   0.11822434   -3.4981997   0.87153127   424551 
  464000   0.72519758   -3.4972697   -3.4972697   -2.6274088   0.11431387   -3.4972697   0.86986096   424551 
  465000   0.72668045   -3.4988119   -3.4988119   -2.6271723   0.11242361   -3.4988119   0.87163964   424551 
  466000    0.7270182   -3.4994985   -3.4994985   -2.6274537   0.11522322   -3.4994985   0.87204476   424551 
  467000   0.72655897   -3.4997298   -3.4997298   -2.6282359   0.13110491   -3.4997298   0.87149392   424551 
  468000   0.72545102   -3.4994404   -3.4994404   -2.6292755   0.10680618   -3.4994404   0.87016496   424551 
  469000   0.72618219    -3.501325    -3.501325    -2.630283   0.11888115    -3.501325   0.87104198   424551 
  470000   0.72512292   -3.5014322   -3.5014322   -2.6316608   0.10406076   -3.5014322   0.86977141   424551 
  471000   0.72543765   -3.5032585   -3.5032585   -2.6331096   0.10764332   -3.5032585   0.87014893   424551 
  472000   0.72568085   -3.5032797   -3.5032797    -2.632839   0.12973531   -3.5032797   0.87044063   424551 
  473000   0.72514428   -3.5034496   -3.5034496   -2.6336525   0.10231528   -3.5034496   0.86979702   424551 
  474000    0.7267108   -3.5046786   -3.5046786   -2.6330026   0.12756081   -3.5046786   0.87167605   424551 
  475000   0.72530526   -3.5037689   -3.5037689   -2.6337788   0.10993722   -3.5037689   0.86999013   424551 
  476000   0.72520809   -3.5046762   -3.5046762   -2.6348026   0.10158997   -3.5046762   0.86987357   424551 
  477000   0.72388414     -3.50416     -3.50416   -2.6358745   0.11308486     -3.50416   0.86828552   424551 
  478000   0.72415674   -3.5055253   -3.5055253   -2.6369128  0.096102427   -3.5055253    0.8686125   424551 
  479000    0.7240908    -3.505961    -3.505961   -2.6374276  0.098724128    -3.505961    0.8685334   424551 
  480000    0.7240374   -3.5059702   -3.5059702   -2.6375008   0.10740805   -3.5059702   0.86846935   424551 
  481000   0.72439276   -3.5069452   -3.5069452   -2.6380496   0.12204895   -3.5069452    0.8688956   424551 
  482000   0.72336564   -3.5059191   -3.5059191   -2.6382555   0.12344579   -3.5059191   0.86766358   424551 
  483000   0.72361033   -3.5067405   -3.5067405   -2.6387834   0.11250599   -3.5067405   0.86795709   424551 
  484000   0.72236397   -3.5059085   -3.5059085   -2.6394464   0.10531888   -3.5059085    0.8664621   424551 
  485000   0.72281368   -3.5064543   -3.5064543   -2.6394528    0.1133167   -3.5064543   0.86700152   424551 
  486000   0.72192109   -3.5062317   -3.5062317   -2.6403008   0.11582023   -3.5062317   0.86593087   424551 
  487000    0.7218945   -3.5079298   -3.5079298   -2.6420308   0.10226548   -3.5079298   0.86589897   424551 
  488000   0.72322751   -3.5097041   -3.5097041   -2.6422062   0.11662381   -3.5097041   0.86749789   424551 
  489000   0.72151771   -3.5077891   -3.5077891   -2.6423421   0.10695416   -3.5077891   0.86544702   424551 
  490000   0.72106014   -3.5075694   -3.5075694   -2.6426712   0.10866613   -3.5075694   0.86489818   424551 
  491000   0.72146404   -3.5083702   -3.5083702   -2.6429876   0.10914184   -3.5083702   0.86538265   424551 
  492000   0.72237519   -3.5095337   -3.5095337   -2.6430581   0.10401439   -3.5095337   0.86647555   424551 
  493000   0.72123635   -3.5085508   -3.5085508   -2.6434413   0.10967676   -3.5085508   0.86510954   424551 
  494000   0.72189784   -3.5105057   -3.5105057   -2.6446028   0.11665859   -3.5105057   0.86590298   424551 
  495000   0.72234679   -3.5122874   -3.5122874   -2.6458459   0.11900739   -3.5122874    0.8664415   424551 
  496000    0.7219357   -3.5128189   -3.5128189   -2.6468705   0.10819398   -3.5128189   0.86594839   424551 
  497000   0.72072496   -3.5126805   -3.5126805   -2.6481843   0.11100068   -3.5126805   0.86449614   424551 
  498000   0.72052936   -3.5122838   -3.5122838   -2.6480223   0.10259576   -3.5122838   0.86426152   424551 
  499000   0.72121171    -3.513299    -3.513299    -2.648219   0.11573402    -3.513299   0.86507998   424551 
  500000   0.71937102   -3.5124796   -3.5124796   -2.6496075   0.10933109   -3.5124796   0.86287212   424551 
  501000   0.72075433   -3.5142686   -3.5142686   -2.6497372  0.097691855   -3.5142686   0.86453136   424551 
  502000   0.71804971   -3.5126186   -3.5126186   -2.6513314   0.10941228   -3.5126186   0.86128723   424551 
  503000   0.72020784    -3.514925    -3.514925   -2.6510492  0.099753785    -3.514925   0.86387586   424551 
  504000   0.72016648   -3.5151586   -3.5151586   -2.6513323     0.113909   -3.5151586   0.86382625   424551 
  505000   0.71922627   -3.5144891   -3.5144891   -2.6517906   0.10156395   -3.5144891   0.86269848   424551 
  506000   0.71937455   -3.5158741   -3.5158741   -2.6529977  0.094600123   -3.5158741   0.86287635   424551 
  507000    0.7183784   -3.5146598   -3.5146598   -2.6529784   0.10276408   -3.5146598   0.86168148   424551 
  508000   0.71797174   -3.5150864   -3.5150864   -2.6538927   0.11495215   -3.5150864   0.86119371   424551 
  509000    0.7178976   -3.5157719   -3.5157719   -2.6546671   0.10331604   -3.5157719   0.86110477   424551 
  510000   0.71805771   -3.5163446   -3.5163446   -2.6550478   0.11703249   -3.5163446   0.86129682   424551 
  511000   0.71836929   -3.5177807   -3.5177807   -2.6561102   0.11202961   -3.5177807   0.86167055   424551 
  512000   0.71791036   -3.5170989   -3.5170989   -2.6559788   0.10739446   -3.5170989   0.86112008   424551 
  513000   0.71869979   -3.5190237   -3.5190237   -2.6569567    0.1073416   -3.5190237   0.86206699   424551 
  514000   0.71928022     -3.52005     -3.52005   -2.6572868   0.11557161     -3.52005    0.8627632   424551 
  515000    0.7171729   -3.5183142   -3.5183142   -2.6580786   0.10603278   -3.5183142   0.86023551   424551 
  516000   0.71635942   -3.5183377   -3.5183377   -2.6590779   0.12477572   -3.5183377   0.85925975   424551 
  517000   0.71612922   -3.5178717   -3.5178717    -2.658888   0.10524558   -3.5178717   0.85898363   424551 
  518000   0.71662346   -3.5188708   -3.5188708   -2.6592943    0.1042149   -3.5188708   0.85957647   424551 
  519000   0.71742994   -3.5205124   -3.5205124   -2.6599685   0.10227315   -3.5205124   0.86054382   424551 
  520000   0.71534049   -3.5184791   -3.5184791   -2.6604416   0.11495627   -3.5184791   0.85803757   424551 
  521000   0.71786924   -3.5217398   -3.5217398   -2.6606691   0.12020952   -3.5217398   0.86107075   424551 
  522000   0.71642552   -3.5194022   -3.5194022   -2.6600631   0.11003577   -3.5194022   0.85933904   424551 
  523000   0.71719112   -3.5208846   -3.5208846   -2.6606273   0.11626521   -3.5208846   0.86025737   424551 
  524000   0.71674541   -3.5208188   -3.5208188    -2.661096   0.10231251   -3.5208188   0.85972275   424551 
  525000   0.71725861   -3.5220761   -3.5220761   -2.6617378   0.11602484   -3.5220761   0.86033831   424551 
  526000   0.71740717   -3.5228898   -3.5228898   -2.6623733    0.1065409   -3.5228898    0.8605165   424551 
  527000    0.7156895   -3.5214219   -3.5214219   -2.6629657   0.10260152   -3.5214219   0.85845619   424551 
  528000   0.71511973   -3.5212255   -3.5212255   -2.6634528   0.10245819   -3.5212255   0.85777277   424551 
  529000   0.71732228   -3.5252384   -3.5252384   -2.6648237   0.10241346   -3.5252384   0.86041469   424551 
  530000   0.71557352   -3.5240459   -3.5240459   -2.6657288   0.10609547   -3.5240459   0.85831708   424551 
  531000   0.71563757   -3.5250703   -3.5250703   -2.6666763   0.10331191   -3.5250703   0.85839391   424551 
  532000   0.71496512   -3.5246667   -3.5246667   -2.6670794  0.096092696   -3.5246667   0.85758732   424551 
  533000   0.71548958   -3.5256444   -3.5256444    -2.667428   0.10879638   -3.5256444   0.85821639   424551 
  534000   0.71524127   -3.5259001   -3.5259001   -2.6679815   0.10184122   -3.5259001   0.85791855   424551 
  535000   0.71459538   -3.5258262   -3.5258262   -2.6686824   0.11459897   -3.5258262   0.85714382   424551 
  536000   0.71500971    -3.525858    -3.525858   -2.6682172   0.10994882    -3.525858    0.8576408   424551 
  537000   0.71405527   -3.5268942   -3.5268942   -2.6703982   0.11124549   -3.5268942   0.85649596   424551 
  538000    0.7149372   -3.5279234   -3.5279234   -2.6703695   0.10423882   -3.5279234   0.85755383   424551 
  539000   0.71289392     -3.52635     -3.52635    -2.671247   0.10414076     -3.52635   0.85510295   424551 
  540000    0.7141187   -3.5283474   -3.5283474   -2.6717754   0.10748769   -3.5283474   0.85657205   424551 
  541000   0.71389699   -3.5286553   -3.5286553   -2.6723492   0.11291355   -3.5286553   0.85630611   424551 
  542000   0.71415321   -3.5300959   -3.5300959   -2.6734825  0.090783458   -3.5300959   0.85661345   424551 
  543000   0.71318086   -3.5293935   -3.5293935   -2.6739463   0.11165216   -3.5293935   0.85544713   424551 
  544000   0.71367359    -3.529651    -3.529651   -2.6736129   0.10014511    -3.529651   0.85603815   424551 
  545000   0.71207365   -3.5283707   -3.5283707   -2.6742517   0.10288594   -3.5283707   0.85411905   424551 
  546000   0.71268835   -3.5298317   -3.5298317   -2.6749753  0.097923244   -3.5298317   0.85485637   424551 
  547000    0.7113881   -3.5288443   -3.5288443   -2.6755476   0.10684092   -3.5288443   0.85329674   424551 
  548000   0.71201447   -3.5303449   -3.5303449   -2.6762969   0.10542801   -3.5303449   0.85404807   424551 
  549000   0.71111444   -3.5303524   -3.5303524   -2.6773839  0.087080879   -3.5303524    0.8529685   424551 
  550000   0.71127591   -3.5310595   -3.5310595   -2.6778973   0.10830567   -3.5310595   0.85316218   424551 
  551000   0.71285826   -3.5331717   -3.5331717   -2.6781115   0.10208414   -3.5331717   0.85506017   424551 
  552000   0.71228564   -3.5335386   -3.5335386   -2.6791653   0.11520185   -3.5335386   0.85437333   424551 
  553000   0.71081115   -3.5322643   -3.5322643   -2.6796596  0.096495639   -3.5322643   0.85260471   424551 
  554000    0.7122034    -3.533678    -3.533678   -2.6794033    0.1072466    -3.533678   0.85427469   424551 
  555000   0.71179386    -3.533664    -3.533664   -2.6798805  0.099481432    -3.533664   0.85378345   424551 
  556000   0.71098281   -3.5332874   -3.5332874   -2.6804768   0.10246835   -3.5332874   0.85281062   424551 
  557000   0.71052559   -3.5334084   -3.5334084   -2.6811463   0.10355502   -3.5334084   0.85226219   424551 
  558000   0.71022182    -3.533102    -3.533102   -2.6812041   0.10094947    -3.533102   0.85189781   424551 
  559000   0.71061405   -3.5335719   -3.5335719   -2.6812036   0.10052171   -3.5335719   0.85236829   424551 
  560000   0.71027445   -3.5339411   -3.5339411   -2.6819801  0.092554058   -3.5339411   0.85196095   424551 
  561000   0.71070071   -3.5338546   -3.5338546   -2.6813823  0.093695702   -3.5338546   0.85247223   424551 
  562000   0.71094142    -3.534905    -3.534905    -2.682144   0.10172852    -3.534905   0.85276097   424551 
  563000   0.71000002   -3.5345812   -3.5345812   -2.6829494   0.10316584   -3.5345812   0.85163177   424551 
  564000   0.71049872    -3.536302    -3.536302    -2.684072  0.098506183    -3.536302   0.85222995   424551 
  565000   0.71046932   -3.5363142   -3.5363142   -2.6841195   0.10580621   -3.5363142   0.85219469   424551 
  566000    0.7101083   -3.5359999   -3.5359999   -2.6842382  0.097698075   -3.5359999   0.85176166   424551 
  567000    0.7105656   -3.5376135   -3.5376135   -2.6853033  0.094072707   -3.5376135   0.85231017   424551 
  568000   0.71110092   -3.5385174   -3.5385174   -2.6855651   0.10007534   -3.5385174   0.85295228   424551 
  569000     0.710614   -3.5380509   -3.5380509   -2.6856827  0.094033774   -3.5380509   0.85236823   424551 
  570000    0.7097509   -3.5376639   -3.5376639   -2.6863309    0.1229542   -3.5376639   0.85133296   424551 
  571000   0.70935126   -3.5377708   -3.5377708   -2.6869172   0.10830761   -3.5377708    0.8508536   424551 
  572000    0.7087742   -3.5381192   -3.5381192   -2.6879578  0.099219257   -3.5381192   0.85016142   424551 
  573000    0.7091567   -3.5395865   -3.5395865   -2.6889663   0.10370908   -3.5395865   0.85062022   424551 
  574000   0.70862055   -3.5391442   -3.5391442   -2.6891671   0.10300898   -3.5391442   0.84997713   424551 
  575000    0.7075554   -3.5386108   -3.5386108   -2.6899113  0.097370584   -3.5386108    0.8486995   424551 
  576000    0.7085514   -3.5411299   -3.5411299   -2.6912357   0.10392586   -3.5411299   0.84989418   424551 
  577000   0.70783755   -3.5399044   -3.5399044   -2.6908665  0.097656558   -3.5399044   0.84903793   424551 
  578000   0.70806736   -3.5405598   -3.5405598   -2.6912462   0.10585686   -3.5405598   0.84931359   424551 
  579000   0.70772148   -3.5414613   -3.5414613   -2.6925626  0.096261423   -3.5414613   0.84889871   424551 
  580000   0.70856296   -3.5421668   -3.5421668   -2.6922587   0.10384929   -3.5421668   0.84990804   424551 
  581000   0.70774201   -3.5419583   -3.5419583    -2.693035   0.09447286   -3.5419583   0.84892333   424551 
  582000   0.70763528   -3.5416247   -3.5416247   -2.6928293   0.10863695   -3.5416247   0.84879531   424551 
  583000   0.70891991   -3.5430108   -3.5430108   -2.6926746  0.089969987   -3.5430108    0.8503362   424551 
  584000   0.70804508   -3.5421134   -3.5421134   -2.6928266   0.10182305   -3.5421134   0.84928686   424551 
  585000   0.70760106    -3.542646    -3.542646   -2.6938918  0.087432779    -3.542646   0.84875426   424551 
  586000   0.70763797   -3.5432086   -3.5432086   -2.6944101   0.10058731   -3.5432086   0.84879853   424551 
  587000   0.70840704   -3.5446223   -3.5446223   -2.6949013  0.095766205   -3.5446223   0.84972102   424551 
  588000   0.70797055   -3.5455687   -3.5455687   -2.6963712  0.096849666   -3.5455687   0.84919746   424551 
  589000   0.70679855   -3.5442156   -3.5442156   -2.6964239   0.10873987   -3.5442156   0.84779167   424551 
  590000   0.70903157   -3.5466546   -3.5466546   -2.6961845  0.095312036   -3.5466546   0.85047014   424551 
  591000   0.70733669   -3.5449823   -3.5449823   -2.6965452   0.10293018   -3.5449823   0.84843715   424551 
  592000   0.70740704   -3.5462489   -3.5462489   -2.6977273    0.1056576   -3.5462489   0.84852154   424551 
  593000   0.70576899   -3.5447441   -3.5447441   -2.6981874   0.10481335   -3.5447441   0.84655673   424551 
  594000   0.70660203   -3.5463382   -3.5463382   -2.6987823    0.1024891   -3.5463382   0.84755595   424551 
  595000   0.70600015   -3.5467769   -3.5467769   -2.6999429  0.095824205   -3.5467769     0.846834   424551 
  596000   0.70554539   -3.5467022   -3.5467022   -2.7004137   0.10083417   -3.5467022   0.84628852   424551 
  597000   0.70400919   -3.5452875   -3.5452875   -2.7008416  0.092457464   -3.5452875   0.84444589   424551 
  598000   0.70377996   -3.5450189   -3.5450189   -2.7008479   0.11167982   -3.5450189   0.84417093   424551 
  599000   0.70372985   -3.5466829   -3.5466829    -2.702572   0.10387319   -3.5466829   0.84411082   424551 
  600000   0.70398844   -3.5467124   -3.5467124   -2.7022914  0.099263176   -3.5467124   0.84442099   424551 
  601000   0.70371504   -3.5468556   -3.5468556   -2.7027625  0.088587802   -3.5468556   0.84409305   424551 
  602000   0.70358598   -3.5463753   -3.5463753   -2.7024371  0.094622323   -3.5463753   0.84393825   424551 
  603000   0.70473863   -3.5476542   -3.5476542   -2.7023334   0.10821483   -3.5476542   0.84532083   424551 
  604000    0.7054664   -3.5489336   -3.5489336   -2.7027398  0.093704922   -3.5489336   0.84619378   424551 
  605000   0.70564322   -3.5496615   -3.5496615   -2.7032556   0.09532691   -3.5496615   0.84640587   424551 
  606000   0.70551587   -3.5507294   -3.5507294   -2.7044763  0.094922436   -3.5507294   0.84625312   424551 
  607000   0.70382049   -3.5488582   -3.5488582   -2.7046386  0.093758789   -3.5488582   0.84421954   424551 
  608000   0.70444638   -3.5497892   -3.5497892   -2.7048189  0.092067541   -3.5497892   0.84497029   424551 
  609000   0.70498153   -3.5504573   -3.5504573   -2.7048452   0.10726301   -3.5504573   0.84561218   424551 
  610000    0.7029861   -3.5496058   -3.5496058   -2.7063871  0.082673132   -3.5496058   0.84321871   424551 
  611000   0.70325315   -3.5500315   -3.5500315   -2.7064925  0.098629545   -3.5500315   0.84353902   424551 
  612000   0.70437585   -3.5519259   -3.5519259   -2.7070402  0.097515514   -3.5519259   0.84488569   424551 
  613000   0.70377944   -3.5520484   -3.5520484   -2.7078781   0.09767889   -3.5520484    0.8441703   424551 
  614000   0.70382639   -3.5533406   -3.5533406   -2.7091139  0.083970962   -3.5533406   0.84422661   424551 
  615000   0.70341442   -3.5520521   -3.5520521   -2.7083196   0.10583454   -3.5520521   0.84373246   424551 
  616000   0.70385772   -3.5537708   -3.5537708   -2.7095066  0.075261708   -3.5537708    0.8442642   424551 
  617000   0.70434242   -3.5546992   -3.5546992   -2.7098537    0.1022354   -3.5546992   0.84484558   424551 
  618000   0.70259179   -3.5532682   -3.5532682   -2.7105225  0.094278901   -3.5532682   0.84274574   424551 
  619000   0.70263725   -3.5534799   -3.5534799   -2.7106797  0.092234458   -3.5534799   0.84280026   424551 
  620000   0.70306106    -3.554479    -3.554479   -2.7111703  0.099007178    -3.554479   0.84330861   424551 
  621000   0.70248333   -3.5539118   -3.5539118   -2.7112961  0.087196471   -3.5539118   0.84261564   424551 
  622000   0.70209886   -3.5539254   -3.5539254   -2.7117709  0.095642904   -3.5539254   0.84215448   424551 
  623000   0.70198835   -3.5539423   -3.5539423   -2.7119204   0.09216296   -3.5539423   0.84202193   424551 
  624000   0.70341364   -3.5561314   -3.5561314   -2.7123999   0.10084855   -3.5561314   0.84373153   424551 
  625000   0.70132349   -3.5543214   -3.5543214    -2.713097  0.094675822   -3.5543214   0.84122444   424551 
  626000   0.70091581     -3.55516     -3.55516   -2.7144246   0.10357203     -3.55516   0.84073543   424551 
  627000   0.70124513   -3.5563639   -3.5563639   -2.7152335   0.10556853   -3.5563639   0.84113044   424551 
  628000   0.70003396   -3.5557433   -3.5557433   -2.7160656   0.09780703   -3.5557433   0.83967766   424551 
  629000   0.70101542    -3.557096    -3.557096   -2.7162411   0.10306586    -3.557096   0.84085492   424551 
  630000    0.7007384   -3.5569665   -3.5569665   -2.7164438   0.10529434   -3.5569665   0.84052264   424551 
  631000   0.70101244   -3.5577091   -3.5577091   -2.7168578  0.094168299   -3.5577091   0.84085134   424551 
  632000   0.70106401   -3.5576403   -3.5576403   -2.7167271  0.095663282   -3.5576403   0.84091319   424551 
  633000   0.70029009   -3.5577632   -3.5577632   -2.7177783    0.1029128   -3.5577632   0.83998489   424551 
  634000   0.70015027   -3.5578118   -3.5578118   -2.7179947   0.08932889   -3.5578118   0.83981718   424551 
  635000   0.69982749   -3.5580249   -3.5580249   -2.7185949  0.095151543   -3.5580249   0.83943001   424551 
  636000   0.70068509   -3.5596172   -3.5596172   -2.7191585   0.08270401   -3.5596172   0.84045869   424551 
  637000   0.70012008   -3.5599047   -3.5599047   -2.7201237   0.09431612   -3.5599047   0.83978097   424551 
  638000   0.70062688   -3.5610158   -3.5610158   -2.7206269  0.085382811   -3.5610158   0.84038887   424551 
  639000   0.70036881   -3.5611866   -3.5611866   -2.7211073  0.095713693   -3.5611866   0.84007931   424551 
  640000   0.70032118   -3.5618404   -3.5618404   -2.7218182  0.086210682   -3.5618404   0.84002219   424551 
  641000   0.70023581   -3.5617825   -3.5617825   -2.7218627  0.094748991   -3.5617825   0.83991978   424551 
  642000   0.69872264   -3.5605699   -3.5605699   -2.7224651  0.091399076   -3.5605699   0.83810477   424551 
  643000    0.6974042   -3.5597992   -3.5597992   -2.7232759  0.096566982   -3.5597992   0.83652333   424551 
  644000   0.69878436   -3.5616796   -3.5616796   -2.7235008  0.090860279   -3.5616796    0.8381788   424551 
  645000   0.69874562   -3.5629136   -3.5629136   -2.7247813  0.091960544   -3.5629136   0.83813233   424551 
  646000    0.6972367   -3.5615279   -3.5615279   -2.7252055  0.091673266   -3.5615279   0.83632241   424551 
  647000   0.69717439   -3.5618132   -3.5618132   -2.7255655   0.10040154   -3.5618132   0.83624767   424551 
  648000   0.69872925   -3.5640716   -3.5640716   -2.7259589  0.099621129   -3.5640716   0.83811269   424551 
  649000   0.69757145   -3.5622001   -3.5622001   -2.7254762  0.094433712   -3.5622001   0.83672394   424551 
  650000   0.69825265   -3.5639556   -3.5639556   -2.7264146   0.10297935   -3.5639556   0.83754102   424551 
  651000   0.69775115   -3.5636774   -3.5636774   -2.7267379  0.088772543   -3.5636774   0.83693948   424551 
  652000   0.69699255   -3.5627139   -3.5627139   -2.7266843  0.088361507   -3.5627139   0.83602955   424551 
  653000   0.69736255   -3.5639725   -3.5639725   -2.7274991  0.093003158   -3.5639725   0.83647336   424551 
  654000   0.69701507   -3.5639169   -3.5639169   -2.7278603   0.09316032   -3.5639169   0.83605656   424551 
  655000   0.69800663   -3.5656495   -3.5656495   -2.7284036  0.098795103   -3.5656495   0.83724593   424551 
  656000   0.69793311   -3.5657508   -3.5657508    -2.728593  0.087839432   -3.5657508   0.83715774   424551 
  657000   0.69675166   -3.5644057   -3.5644057   -2.7286651  0.098251906   -3.5644057   0.83574061   424551 
  658000   0.69810197   -3.5666151   -3.5666151   -2.7292549   0.09109626   -3.5666151   0.83736028   424551 
  659000   0.69770056   -3.5664621   -3.5664621   -2.7295833   0.10908791   -3.5664621    0.8368788   424551 
  660000   0.69729878   -3.5661943   -3.5661943   -2.7297974  0.098614753   -3.5661943   0.83639687   424551 
  661000   0.69784992   -3.5666325   -3.5666325   -2.7295746  0.088150992   -3.5666325   0.83705796   424551 
  662000    0.6968918    -3.566463    -3.566463   -2.7305543   0.10034397    -3.566463   0.83590871   424551 
  663000   0.69647539    -3.566603    -3.566603   -2.7311937   0.10160055    -3.566603   0.83540924   424551 
  664000   0.69630667   -3.5669757   -3.5669757   -2.7317688  0.093684432   -3.5669757   0.83520685   424551 
  665000   0.69638766   -3.5669384   -3.5669384   -2.7316344  0.095720214   -3.5669384     0.835304   424551 
  666000   0.69679362   -3.5677013   -3.5677013   -2.7319103  0.094936364   -3.5677013   0.83579094   424551 
  667000   0.69572309   -3.5666476   -3.5666476   -2.7321408  0.094442497   -3.5666476   0.83450686   424551 
  668000    0.6956875   -3.5672344   -3.5672344   -2.7327702  0.095637676   -3.5672344   0.83446418   424551 
  669000   0.69617479   -3.5686805   -3.5686805   -2.7336319  0.090635552   -3.5686805   0.83504867   424551 
  670000   0.69584264   -3.5691309   -3.5691309   -2.7344806  0.095368368   -3.5691309   0.83465026   424551 
  671000   0.69630078   -3.5697836   -3.5697836   -2.7345838  0.092668317   -3.5697836   0.83519979   424551 
  672000   0.69452226   -3.5681447   -3.5681447   -2.7350782  0.096218312   -3.5681447   0.83306649   424551 
  673000   0.69532679   -3.5693313   -3.5693313   -2.7352998  0.097716458   -3.5693313    0.8340315   424551 
  674000   0.69546095   -3.5699876   -3.5699876   -2.7357951  0.097881009   -3.5699876   0.83419243   424551 
  675000   0.69398052   -3.5690904   -3.5690904   -2.7366737  0.093511201   -3.5690904   0.83241668   424551 
  676000   0.69609849   -3.5715866   -3.5715866   -2.7366294  0.097122922   -3.5715866   0.83495715   424551 
  677000   0.69396424   -3.5697441   -3.5697441   -2.7373469  0.095490343   -3.5697441   0.83239715   424551 
  678000   0.69388006   -3.5707059   -3.5707059   -2.7384098   0.08998706   -3.5707059   0.83229619   424551 
  679000   0.69446095   -3.5717223   -3.5717223   -2.7387294   0.10863426   -3.5717223   0.83299295   424551 
  680000   0.69300744   -3.5706137   -3.5706137   -2.7393642   0.10459305   -3.5706137   0.83124949   424551 
  681000   0.69483039   -3.5728226   -3.5728226   -2.7393865  0.087586725   -3.5728226   0.83343608   424551 
  682000   0.69214194   -3.5708995   -3.5708995   -2.7406882  0.090915975   -3.5708995   0.83021133   424551 
  683000   0.69231431   -3.5718661   -3.5718661    -2.741448   0.09757384   -3.5718661   0.83041809   424551 
  684000   0.69309454   -3.5732741   -3.5732741   -2.7419202  0.089725065   -3.5732741   0.83135396   424551 
  685000   0.69252661    -3.573179    -3.573179   -2.7425063   0.09238906    -3.573179   0.83067274   424551 
  686000    0.6922964   -3.5737935   -3.5737935   -2.7433968  0.092746374   -3.5737935   0.83039661   424551 
  687000   0.69321027   -3.5749057   -3.5749057   -2.7434129  0.091875452   -3.5749057   0.83149278   424551 
  688000   0.69309461   -3.5751734   -3.5751734   -2.7438193  0.083809602   -3.5751734   0.83135404   424551 
  689000   0.69401703   -3.5760983   -3.5760983   -2.7436378   0.10484776   -3.5760983   0.83246048   424551 
  690000   0.69203262   -3.5747148   -3.5747148   -2.7446346    0.0925324   -3.5747148   0.83008021   424551 
  691000   0.69364982    -3.577032    -3.577032    -2.745012  0.086902844    -3.577032   0.83202001   424551 
  692000   0.69284813    -3.576495    -3.576495   -2.7454366  0.089270182    -3.576495    0.8310584   424551 
  693000   0.69172904   -3.5750144   -3.5750144   -2.7452984  0.088245631   -3.5750144   0.82971607   424551 
  694000    0.6939078   -3.5784521   -3.5784521   -2.7461226   0.09999561   -3.5784521   0.83232945   424551 
  695000   0.69141824   -3.5760176   -3.5760176   -2.7466743  0.081368196   -3.5760176   0.82934327   424551 
  696000     0.692159   -3.5775915   -3.5775915   -2.7473596  0.089410502   -3.5775915    0.8302318   424551 
  697000    0.6917464    -3.577574    -3.577574   -2.7478371  0.094295898    -3.577574    0.8297369   424551 
  698000   0.69257586   -3.5785414   -3.5785414   -2.7478095  0.085016951   -3.5785414   0.83073182   424551 
  699000   0.69126985   -3.5771554   -3.5771554   -2.7479901  0.092427178   -3.5771554   0.82916528   424551 
  700000   0.69008715   -3.5771432   -3.5771432   -2.7493966  0.092126552   -3.5771432   0.82774666   424551 
  701000   0.69176781   -3.5797571   -3.5797571   -2.7499945  0.094808862   -3.5797571   0.82976257   424551 
  702000    0.6904842   -3.5788658   -3.5788658   -2.7506429  0.094547192   -3.5788658   0.82822291   424551 
  703000   0.69028617   -3.5794451   -3.5794451   -2.7514597  0.087574213   -3.5794451   0.82798538   424551 
  704000   0.69103248    -3.580699    -3.580699   -2.7518184   0.10535436    -3.580699   0.82888056   424551 
  705000   0.69091117   -3.5813036   -3.5813036   -2.7525685  0.088443027   -3.5813036   0.82873506   424551 
  706000   0.68999192   -3.5807019   -3.5807019   -2.7530695  0.084703881   -3.5807019   0.82763243   424551 
  707000   0.68912567   -3.5811919   -3.5811919   -2.7545985  0.082423163   -3.5811919   0.82659338   424551 
  708000   0.69069762   -3.5833541   -3.5833541   -2.7548752  0.089246349   -3.5833541   0.82847891   424551 
  709000   0.69073502   -3.5837286   -3.5837286   -2.7552049  0.089079448   -3.5837286   0.82852376   424551 
  710000   0.68973999   -3.5831659   -3.5831659   -2.7558356  0.087770411   -3.5831659   0.82733025   424551 
  711000   0.68879509   -3.5820212   -3.5820212   -2.7558244  0.088363563   -3.5820212   0.82619686   424551 
  712000   0.69128143    -3.585133    -3.585133   -2.7559538  0.091669997    -3.585133   0.82917917   424551 
  713000   0.68895388   -3.5821828   -3.5821828   -2.7557955   0.08620571   -3.5821828   0.82638732   424551 
  714000   0.68979949   -3.5838768   -3.5838768   -2.7564752  0.097992704   -3.5838768   0.82740161   424551 
  715000   0.69031364   -3.5849113   -3.5849113   -2.7568929  0.095807701   -3.5849113   0.82801832   424551 
  716000   0.69063408   -3.5851237   -3.5851237    -2.756721  0.098132698   -3.5851237   0.82840268   424551 
  717000   0.69032561   -3.5862319   -3.5862319   -2.7581992   0.09557156   -3.5862319   0.82803269   424551 
  718000   0.69045484   -3.5870795   -3.5870795   -2.7588918  0.084548746   -3.5870795   0.82818769   424551 
  719000   0.69029483   -3.5866863   -3.5866863   -2.7586905  0.099108412   -3.5866863   0.82799576   424551 
  720000   0.68956943   -3.5859401   -3.5859401   -2.7588145  0.069856878   -3.5859401   0.82712566   424551 
  721000   0.68945245   -3.5863743   -3.5863743    -2.759389  0.095365326   -3.5863743   0.82698534   424551 
  722000   0.68831376    -3.585712    -3.585712   -2.7600925  0.085466412    -3.585712   0.82561951   424551 
  723000   0.68848321   -3.5864033   -3.5864033   -2.7605805  0.091350895   -3.5864033   0.82582276   424551 
  724000   0.68883223   -3.5872889   -3.5872889   -2.7610475   0.06430696   -3.5872889    0.8262414   424551 
  725000   0.68796217   -3.5865917   -3.5865917   -2.7613939  0.089793514   -3.5865917   0.82519778   424551 
  726000   0.68800896   -3.5870774   -3.5870774   -2.7618234  0.086134754   -3.5870774   0.82525391   424551 
  727000   0.68892607   -3.5881998   -3.5881998   -2.7618458  0.081335163   -3.5881998   0.82635396   424551 
  728000    0.6872741   -3.5869605   -3.5869605    -2.762588    0.0829932   -3.5869605   0.82437246   424551 
  729000   0.68770042   -3.5879995   -3.5879995   -2.7631157  0.088305118   -3.5879995   0.82488381   424551 
  730000     0.687183    -3.587368    -3.587368   -2.7631048  0.094735168    -3.587368   0.82426318   424551 
  731000   0.68869257   -3.5892548   -3.5892548   -2.7631809    0.0866356   -3.5892548   0.82607389   424551 
  732000   0.68718086   -3.5881361   -3.5881361   -2.7638755  0.081164858   -3.5881361   0.82426061   424551 
  733000   0.68679844   -3.5878639   -3.5878639    -2.764062  0.097444883   -3.5878639   0.82380191   424551 
  734000   0.68691945   -3.5878853   -3.5878853   -2.7639382  0.092684877   -3.5878853   0.82394706   424551 
  735000   0.68632129   -3.5878421   -3.5878421   -2.7646125  0.094928582   -3.5878421   0.82322958   424551 
  736000   0.68685121   -3.5886837   -3.5886837   -2.7648185  0.083551478   -3.5886837    0.8238652   424551 
  737000   0.68711914   -3.5897527   -3.5897527   -2.7655661  0.079421198   -3.5897527   0.82418658   424551 
  738000   0.68757781   -3.5906522   -3.5906522   -2.7659154  0.096995893   -3.5906522   0.82473675   424551 
  739000   0.68748377   -3.5903605   -3.5903605   -2.7657365  0.097191822   -3.5903605   0.82462395   424551 
  740000   0.68637207   -3.5896173   -3.5896173   -2.7663268  0.093513686   -3.5896173   0.82329049   424551 
  741000   0.68599807   -3.5900082   -3.5900082   -2.7671663  0.084336224   -3.5900082   0.82284189   424551 
  742000   0.68636877   -3.5905562   -3.5905562   -2.7672697  0.075496693   -3.5905562   0.82328653   424551 
  743000   0.68586065   -3.5903193   -3.5903193   -2.7676423  0.091534528   -3.5903193   0.82267705   424551 
  744000   0.68726536   -3.5927173   -3.5927173   -2.7683553  0.078082919   -3.5927173   0.82436198   424551 
  745000   0.68616848   -3.5915159   -3.5915159   -2.7684696  0.081973135   -3.5915159   0.82304628   424551 
  746000   0.68565768   -3.5918364   -3.5918364   -2.7694028  0.081614061   -3.5918364   0.82243359   424551 
  747000   0.68585648   -3.5920331   -3.5920331   -2.7693611  0.082668953   -3.5920331   0.82267204   424551 
  748000    0.6856135   -3.5923237   -3.5923237   -2.7699431  0.074091186   -3.5923237   0.82238059   424551 
  749000   0.68540326   -3.5930982   -3.5930982   -2.7709698  0.094244496   -3.5930982   0.82212841   424551 
  750000   0.68544543   -3.5930484   -3.5930484   -2.7708694  0.094346903   -3.5930484     0.822179   424551 
  751000    0.6861208   -3.5939613   -3.5939613   -2.7709722  0.090033241   -3.5939613   0.82298909   424551 
  752000   0.68708912   -3.5955723   -3.5955723   -2.7714217  0.096553465   -3.5955723   0.82415058   424551 
  753000   0.68415172   -3.5936658   -3.5936658   -2.7730386  0.097568614   -3.5936658   0.82062722   424551 
  754000   0.68542931   -3.5952661   -3.5952661   -2.7731064  0.075216597   -3.5952661   0.82215967   424551 
  755000   0.68586229    -3.596643    -3.596643    -2.773964  0.076898686    -3.596643   0.82267902   424551 
  756000    0.6850416   -3.5965654   -3.5965654   -2.7748708  0.089259932   -3.5965654   0.82169462   424551 
  757000   0.68407098   -3.5960339   -3.5960339   -2.7755036  0.073389573   -3.5960339   0.82053037   424551 
  758000   0.68609852   -3.5982494   -3.5982494    -2.775287  0.091254436   -3.5982494   0.82296236   424551 
  759000   0.68391632   -3.5954711   -3.5954711   -2.7751263  0.080926976   -3.5954711   0.82034486   424551 
  760000   0.68411398   -3.5959312   -3.5959312   -2.7753492  0.083493483   -3.5959312   0.82058194   424551 
  761000   0.68313498    -3.594805    -3.594805   -2.7753973  0.084907763    -3.594805   0.81940766   424551 
  762000   0.68636771   -3.5983429   -3.5983429   -2.7750576  0.085205797   -3.5983429   0.82328526   424551 
  763000    0.6834397   -3.5958151   -3.5958151    -2.776042  0.079269984   -3.5958151   0.81977316   424551 
  764000   0.68372849   -3.5964559   -3.5964559   -2.7763363  0.083417293   -3.5964559   0.82011956   424551 
  765000   0.68371044   -3.5970804   -3.5970804   -2.7769825  0.085476302   -3.5970804   0.82009791   424551 
  766000   0.68414113   -3.5977152   -3.5977152   -2.7771006  0.080095205   -3.5977152   0.82061452   424551 
  767000   0.68301821   -3.5969294   -3.5969294   -2.7776618   0.08367529   -3.5969294   0.81926759   424551 
  768000   0.68442972   -3.5991707   -3.5991707     -2.77821  0.096381548   -3.5991707   0.82096067   424551 
  769000   0.68237195   -3.5964775   -3.5964775   -2.7779851   0.07904424   -3.5964775   0.81849242   424551 
  770000   0.68225845   -3.5973697   -3.5973697   -2.7790135  0.084519527   -3.5973697   0.81835628   424551 
  771000   0.68221906   -3.5972653   -3.5972653   -2.7789563  0.071496197   -3.5972653   0.81830903   424551 
  772000   0.68234473   -3.5983588   -3.5983588    -2.779899  0.071200646   -3.5983588   0.81845976   424551 
  773000   0.68187338   -3.5979666   -3.5979666   -2.7800722    0.0852925   -3.5979666   0.81789439   424551 
  774000   0.68190464   -3.5975637   -3.5975637   -2.7796319  0.096307644   -3.5975637   0.81793189   424551 
  775000   0.68211498   -3.5977299   -3.5977299   -2.7795457  0.090190304   -3.5977299   0.81818418   424551 
  776000   0.68249694   -3.5992802   -3.5992802   -2.7806379  0.086210807   -3.5992802   0.81864233   424551 
  777000   0.68289699   -3.6001052   -3.6001052    -2.780983  0.081916334   -3.6001052   0.81912219   424551 
  778000   0.68307933   -3.6010792   -3.6010792   -2.7817383  0.087351495   -3.6010792   0.81934091   424551 
  779000   0.68339628   -3.6026188   -3.6026188   -2.7828978  0.084745571   -3.6026188   0.81972108   424551 
  780000   0.68146237   -3.6007881   -3.6007881   -2.7833867  0.081555286   -3.6007881   0.81740139   424551 
  781000   0.68230253   -3.6026001   -3.6026001   -2.7841909  0.076925278   -3.6026001   0.81840915   424551 
  782000   0.68158907   -3.6022279   -3.6022279   -2.7846745  0.092200979   -3.6022279   0.81755337   424551 
  783000   0.68277525   -3.6041418   -3.6041418   -2.7851657  0.092071974   -3.6041418   0.81897616   424551 
  784000   0.68041768   -3.6022232   -3.6022232   -2.7860749  0.079736931   -3.6022232   0.81614831   424551 
  785000   0.68033054   -3.6027379   -3.6027379   -2.7866942  0.087323871   -3.6027379   0.81604379   424551 
  786000   0.68094059   -3.6037471   -3.6037471   -2.7869715    0.0813435   -3.6037471   0.81677553   424551 
  787000   0.68106488   -3.6039775   -3.6039775   -2.7870529   0.07944398   -3.6039775   0.81692461   424551 
  788000   0.68073997   -3.6054594   -3.6054594   -2.7889245  0.074289574   -3.6054594   0.81653489   424551 
  789000   0.68060494   -3.6054898   -3.6054898   -2.7891169  0.088609438   -3.6054898   0.81637292   424551 
  790000   0.67953947   -3.6036713   -3.6036713   -2.7885764  0.086486045   -3.6036713    0.8150949   424551 
  791000   0.67940058   -3.6039989   -3.6039989   -2.7890706  0.078475533   -3.6039989   0.81492832   424551 
  792000   0.68035235   -3.6052222   -3.6052222   -2.7891522  0.091842447   -3.6052222   0.81606995   424551 
  793000   0.68133519    -3.606663    -3.606663   -2.7894141  0.085073531    -3.606663   0.81724885   424551 
  794000   0.68028244   -3.6057333   -3.6057333   -2.7897472  0.075513119   -3.6057333   0.81598609   424551 
  795000   0.67954151    -3.605418    -3.605418   -2.7903206  0.092218739    -3.605418   0.81509736   424551 
  796000   0.68046612   -3.6070421   -3.6070421   -2.7908357  0.082869566   -3.6070421   0.81620641   424551 
  797000   0.67974978   -3.6065474   -3.6065474   -2.7912002  0.082859019   -3.6065474   0.81534717   424551 
  798000   0.67955627   -3.6065996   -3.6065996   -2.7914845  0.096217858   -3.6065996   0.81511506   424551 
  799000    0.6799977   -3.6071013   -3.6071013   -2.7914568  0.081121628   -3.6071013   0.81564455   424551 
  800000    0.6801895   -3.6079223   -3.6079223   -2.7920477  0.086188665   -3.6079223   0.81587461   424551 
  801000   0.67988574    -3.607455    -3.607455   -2.7919447  0.082567082    -3.607455   0.81551026   424551 
  802000   0.67895139   -3.6066615   -3.6066615    -2.792272  0.082604131   -3.6066615   0.81438952   424551 
  803000   0.67831938    -3.606546    -3.606546   -2.7929146   0.08724375    -3.606546   0.81363144   424551 
  804000   0.67922804   -3.6070394   -3.6070394   -2.7923181  0.088577697   -3.6070394   0.81472135   424551 
  805000    0.6798338   -3.6079347   -3.6079347   -2.7924867   0.07281649   -3.6079347   0.81544795   424551 
  806000   0.67871959   -3.6061076   -3.6061076   -2.7919962  0.080447143   -3.6061076   0.81411148   424551 
  807000   0.67925043   -3.6075098   -3.6075098   -2.7927616  0.083566043   -3.6075098   0.81474821   424551 
  808000    0.6796147   -3.6080317   -3.6080317   -2.7928465  0.084025907   -3.6080317   0.81518515   424551 
  809000   0.67939678   -3.6080094   -3.6080094   -2.7930856  0.069840882   -3.6080094   0.81492375   424551 
  810000    0.6795855   -3.6091983   -3.6091983   -2.7940482  0.083382589   -3.6091983   0.81515013   424551 
  811000     0.679661   -3.6102147   -3.6102147   -2.7949741  0.076912585   -3.6102147   0.81524068   424551 
  812000   0.67918823   -3.6094098   -3.6094098   -2.7947362  0.079491335   -3.6094098   0.81467361   424551 
  813000   0.67957647   -3.6113452   -3.6113452   -2.7962059  0.082204247   -3.6113452   0.81513929   424551 
  814000   0.67895254   -3.6115023   -3.6115023   -2.7971114  0.075030801   -3.6115023    0.8143909   424551 
  815000   0.67807146   -3.6105958   -3.6105958   -2.7972618  0.077009666   -3.6105958   0.81333406   424551 
  816000   0.67747654   -3.6104821   -3.6104821   -2.7978616  0.086116836   -3.6104821   0.81262046   424551 
  817000   0.67889423   -3.6125017   -3.6125017   -2.7981808  0.082929272   -3.6125017   0.81432096   424551 
  818000   0.67737781   -3.6120941   -3.6120941    -2.799592  0.080734547   -3.6120941   0.81250204   424551 
  819000   0.67744026    -3.612254    -3.612254   -2.7996771  0.083568062    -3.612254   0.81257695   424551 
  820000   0.67732007   -3.6121742   -3.6121742   -2.7997414  0.087392229   -3.6121742   0.81243278   424551 
  821000   0.67585469   -3.6109129   -3.6109129   -2.8002378  0.095403875   -3.6109129   0.81067508   424551 
  822000   0.67678698   -3.6124974   -3.6124974   -2.8007041  0.082599349   -3.6124974   0.81179335   424551 
  823000   0.67706004    -3.612035    -3.612035   -2.7999142   0.06781363    -3.612035   0.81212088   424551 
  824000   0.67613468   -3.6113011   -3.6113011   -2.8002901  0.069805549   -3.6113011   0.81101093   424551 
  825000   0.67730007   -3.6129947   -3.6129947   -2.8005859  0.087079771   -3.6129947   0.81240879   424551 
  826000   0.67659273   -3.6137569   -3.6137569   -2.8021966  0.069788929   -3.6137569   0.81156035   424551 
  827000   0.67714018   -3.6146426   -3.6146426   -2.8024256  0.075009729   -3.6146426     0.812217   424551 
  828000   0.67662013   -3.6140785   -3.6140785   -2.8024853  0.082488527   -3.6140785   0.81159322   424551 
  829000   0.67524534   -3.6130255   -3.6130255   -2.8030813  0.093929011   -3.6130255   0.80994418   424551 
  830000   0.67705645   -3.6157193   -3.6157193   -2.8036027  0.072472229   -3.6157193   0.81211657   424551 
  831000   0.67644341   -3.6151678   -3.6151678   -2.8037865  0.079418435   -3.6151678   0.81138125   424551 
  832000   0.67475928   -3.6133395   -3.6133395   -2.8039784  0.078528622   -3.6133395   0.80936117   424551 
  833000   0.67702372   -3.6167472   -3.6167472   -2.8046699  0.081060589   -3.6167472   0.81207732   424551 
  834000   0.67503011    -3.615246    -3.615246     -2.80556  0.075371182    -3.615246   0.80968602   424551 
  835000   0.67488064   -3.6157675   -3.6157675   -2.8062608  0.079262988   -3.6157675   0.80950673   424551 
  836000   0.67501457   -3.6175252   -3.6175252   -2.8078578  0.085468694   -3.6175252   0.80966738   424551 
  837000   0.67490389   -3.6168786   -3.6168786    -2.807344  0.075375761   -3.6168786   0.80953462   424551 
  838000   0.67583718   -3.6183863   -3.6183863   -2.8077323  0.073346845   -3.6183863   0.81065408   424551 
  839000    0.6751001   -3.6185887   -3.6185887   -2.8088187  0.076850258   -3.6185887   0.80976997   424551 
  840000   0.67518033   -3.6182653   -3.6182653   -2.8083991  0.065460721   -3.6182653    0.8098662   424551 
  841000   0.67566744   -3.6189255   -3.6189255    -2.808475  0.077340845   -3.6189255   0.81045048   424551 
  842000   0.67587818   -3.6187129   -3.6187129   -2.8080096  0.068995653   -3.6187129   0.81070327   424551 
  843000   0.67588108   -3.6178872   -3.6178872   -2.8071804  0.094110872   -3.6178872   0.81070674   424551 
  844000   0.67607466   -3.6189414   -3.6189414   -2.8080025  0.082919323   -3.6189414   0.81093894   424551 
  845000   0.67415357   -3.6181847   -3.6181847   -2.8095501  0.075017179   -3.6181847   0.80863462   424551 
  846000   0.67397738   -3.6177856   -3.6177856   -2.8093623  0.080477029   -3.6177856   0.80842329   424551 
  847000   0.67469826    -3.618582    -3.618582   -2.8092941  0.084488217    -3.618582   0.80928797   424551 
  848000   0.67476353   -3.6197385   -3.6197385   -2.8103722  0.089833485   -3.6197385   0.80936626   424551 
  849000     0.674431   -3.6199896   -3.6199896   -2.8110222  0.079084427   -3.6199896    0.8089674   424551 
  850000   0.67358517   -3.6192881   -3.6192881   -2.8113352  0.090540003   -3.6192881   0.80795284   424551 
  851000   0.67494807   -3.6206084   -3.6206084   -2.8110207  0.081138834   -3.6206084   0.80958761   424551 
  852000   0.67430694   -3.6203402   -3.6203402   -2.8115216  0.092543726   -3.6203402   0.80881859   424551 
  853000   0.67451332    -3.620469    -3.620469   -2.8114029  0.085896945    -3.620469   0.80906613   424551 
  854000   0.67295106   -3.6191831   -3.6191831   -2.8119909  0.074940239   -3.6191831   0.80719223   424551 
  855000   0.67462675   -3.6206519   -3.6206519   -2.8114497  0.083207534   -3.6206519   0.80920219   424551 
  856000   0.67313589   -3.6195995   -3.6195995   -2.8121856  0.083286143   -3.6195995   0.80741394   424551 
  857000   0.67512229   -3.6220575   -3.6220575   -2.8122609  0.076660861   -3.6220575   0.80979658   424551 
  858000   0.67455807   -3.6211867   -3.6211867   -2.8120668  0.084724612   -3.6211867   0.80911982   424551 
  859000   0.67299887   -3.6203264   -3.6203264   -2.8130769   0.07755453   -3.6203264   0.80724958   424551 
  860000   0.67430509   -3.6219099   -3.6219099   -2.8130935  0.088477533   -3.6219099   0.80881637   424551 
  861000   0.67331311   -3.6219117   -3.6219117   -2.8142852  0.075767441   -3.6219117   0.80762651   424551 
  862000   0.67312065   -3.6221169   -3.6221169   -2.8147212  0.078421256   -3.6221169   0.80739566   424551 
  863000   0.67332049   -3.6235743   -3.6235743    -2.815939  0.093514556   -3.6235743   0.80763536   424551 
  864000   0.67344397   -3.6239775   -3.6239775    -2.816194  0.083337101   -3.6239775   0.80778347   424551 
  865000   0.67402146   -3.6242316   -3.6242316   -2.8157554  0.073994726   -3.6242316   0.80847615   424551 
  866000   0.67381356   -3.6250374   -3.6250374   -2.8168106   0.08027547   -3.6250374   0.80822679   424551 
  867000   0.67343259   -3.6248992   -3.6248992   -2.8171294  0.069252501   -3.6248992   0.80776982   424551 
  868000   0.67313444   -3.6245409   -3.6245409   -2.8171287    0.0807179   -3.6245409   0.80741219   424551 
  869000   0.67242153   -3.6244536   -3.6244536   -2.8178965  0.075893422   -3.6244536   0.80655707   424551 
  870000   0.67270002   -3.6247621   -3.6247621    -2.817871  0.072546243   -3.6247621   0.80689112   424551 
  871000   0.67355786   -3.6254207   -3.6254207   -2.8175006  0.079878033   -3.6254207   0.80792008   424551 
  872000   0.67213744   -3.6243993   -3.6243993    -2.818183  0.078641825   -3.6243993   0.80621631   424551 
  873000   0.67265592   -3.6251952   -3.6251952    -2.818357  0.076743474   -3.6251952   0.80683822   424551 
  874000   0.67283092   -3.6256811   -3.6256811    -2.818633  0.077840988   -3.6256811   0.80704813   424551 
  875000    0.6710987    -3.624014    -3.624014   -2.8190437  0.070754693    -3.624014   0.80497036   424551 
  876000   0.67056247     -3.62427     -3.62427   -2.8199428   0.08281233     -3.62427   0.80432717   424551 
  877000   0.67228145   -3.6263779   -3.6263779   -2.8199888  0.079573028   -3.6263779   0.80638905   424551 
  878000   0.67091907   -3.6252779   -3.6252779    -2.820523  0.095656543   -3.6252779    0.8047549   424551 
  879000   0.67192971   -3.6260404   -3.6260404   -2.8200733  0.071432953   -3.6260404   0.80596715   424551 
  880000   0.67282406   -3.6267141   -3.6267141   -2.8196742  0.098432043   -3.6267141    0.8070399   424551 
  881000   0.67088371   -3.6255084   -3.6255084   -2.8207959  0.071731548   -3.6255084   0.80471249   424551 
  882000   0.67233604   -3.6278646   -3.6278646     -2.82141  0.084601496   -3.6278646   0.80645454   424551 
  883000    0.6722333   -3.6281488   -3.6281488   -2.8218175  0.074992582   -3.6281488    0.8063313   424551 
  884000   0.67161648   -3.6275925   -3.6275925   -2.8220011  0.070522338   -3.6275925   0.80559143   424551 
  885000   0.66986326   -3.6265591   -3.6265591   -2.8230706  0.084173567   -3.6265591   0.80348848   424551 
  886000   0.67106631   -3.6290127   -3.6290127   -2.8240812  0.078616956   -3.6290127   0.80493151   424551 
  887000   0.67146305   -3.6296515   -3.6296515   -2.8242441  0.060065812   -3.6296515    0.8054074   424551 
  888000   0.66983352   -3.6275053   -3.6275053   -2.8240525  0.076618815   -3.6275053    0.8034528   424551 
  889000   0.67025597   -3.6282819   -3.6282819   -2.8243224  0.075547598   -3.6282819   0.80395953   424551 
  890000   0.67020866   -3.6273411   -3.6273411   -2.8234383  0.082956999   -3.6273411   0.80390278   424551 
  891000   0.67001956   -3.6270509   -3.6270509   -2.8233749  0.076826058   -3.6270509   0.80367596   424551 
  892000   0.66963109    -3.628054    -3.628054    -2.824844  0.071649421    -3.628054      0.80321   424551 
  893000   0.66798051   -3.6259847   -3.6259847   -2.8247545  0.085784436   -3.6259847   0.80123016   424551 
  894000   0.66980832   -3.6284048   -3.6284048   -2.8249822  0.062992435   -3.6284048   0.80342258   424551 
  895000   0.67015693   -3.6291653   -3.6291653   -2.8253245  0.071467496   -3.6291653   0.80384073   424551 
  896000   0.66994311   -3.6288145   -3.6288145   -2.8252302  0.078815271   -3.6288145   0.80358426   424551 
  897000   0.66922279   -3.6282055   -3.6282055   -2.8254852  0.080221117   -3.6282055   0.80272024   424551 
  898000   0.67034781   -3.6305208   -3.6305208   -2.8264512  0.068276736   -3.6305208   0.80406969   424551 
  899000   0.67045564   -3.6316347   -3.6316347   -2.8274357  0.076355384   -3.6316347   0.80419902   424551 
  900000   0.66978693   -3.6313339   -3.6313339   -2.8279369  0.093293913   -3.6313339   0.80339693   424551 
  901000   0.66924266   -3.6309471   -3.6309471    -2.828203  0.085554281   -3.6309471   0.80274408   424551 
  902000   0.67038764   -3.6332453   -3.6332453   -2.8291278  0.073395131   -3.6332453   0.80411746   424551 
  903000   0.67085809    -3.634188    -3.634188   -2.8295062  0.069174926    -3.634188   0.80468175   424551 
  904000    0.6691358   -3.6325852   -3.6325852   -2.8299693  0.082574639   -3.6325852    0.8026159   424551 
  905000   0.66886226   -3.6331123   -3.6331123   -2.8308245    0.0703924   -3.6331123    0.8022878   424551 
  906000   0.67040091   -3.6343241   -3.6343241   -2.8301907  0.077918362   -3.6343241   0.80413338   424551 
  907000   0.66967401   -3.6342759   -3.6342759   -2.8310144  0.088398318   -3.6342759   0.80326148   424551 
  908000   0.66894038   -3.6331453   -3.6331453   -2.8307638  0.090999904   -3.6331453    0.8023815   424551 
  909000   0.67024895   -3.6347139   -3.6347139   -2.8307628  0.059891819   -3.6347139   0.80395111   424551 
  910000   0.66919958   -3.6336583   -3.6336583   -2.8309659  0.076248339   -3.6336583   0.80269241   424551 
  911000   0.66879078   -3.6336348   -3.6336348   -2.8314327  0.083105251   -3.6336348   0.80220206   424551 
  912000   0.66770696   -3.6327237   -3.6327237   -2.8318216  0.076104741   -3.6327237   0.80090204   424551 
  913000   0.66730911   -3.6321633   -3.6321633   -2.8317384  0.075774677   -3.6321633   0.80042483   424551 
  914000   0.66732876   -3.6333751   -3.6333751   -2.8329267  0.071560693   -3.6333751   0.80044839   424551 
  915000   0.66695045   -3.6326008   -3.6326008   -2.8326062  0.073377175   -3.6326008   0.79999461   424551 
  916000    0.6664691   -3.6319728   -3.6319728   -2.8325556  0.067811134   -3.6319728   0.79941725   424551 
  917000   0.66636024   -3.6322454   -3.6322454   -2.8329588  0.065023529   -3.6322454   0.79928667   424551 
  918000   0.66696793   -3.6333226   -3.6333226    -2.833307  0.073030743   -3.6333226   0.80001558   424551 
  919000   0.66578922   -3.6319855   -3.6319855   -2.8333838  0.080205401   -3.6319855   0.79860175   424551 
  920000   0.66673714   -3.6337166   -3.6337166   -2.8339778    0.0727762   -3.6337166   0.79973875   424551 
  921000   0.66721699   -3.6348079   -3.6348079   -2.8344936  0.064502385   -3.6348079   0.80031432   424551 
  922000   0.66660843   -3.6347623   -3.6347623   -2.8351779   0.07151545   -3.6347623   0.79958437   424551 
  923000   0.66641092   -3.6351917   -3.6351917   -2.8358442  0.071062442   -3.6351917   0.79934746   424551 
  924000   0.66726389   -3.6367507   -3.6367507   -2.8363801  0.073242323   -3.6367507   0.80037058   424551 
  925000   0.66772951   -3.6378177   -3.6378177   -2.8368886  0.064855072   -3.6378177   0.80092909   424551 
  926000    0.6673862   -3.6371542   -3.6371542   -2.8366369  0.063538306   -3.6371542    0.8005173   424551 
  927000   0.66707456   -3.6367748   -3.6367748   -2.8366313  0.077845544   -3.6367748   0.80014349   424551 
  928000   0.66770511   -3.6373288   -3.6373288    -2.836429  0.073820112   -3.6373288   0.80089982   424551 
  929000   0.66667796   -3.6365548   -3.6365548    -2.836887  0.076049595   -3.6365548   0.79966777   424551 
  930000   0.66718061   -3.6370495   -3.6370495   -2.8367788  0.086960765   -3.6370495   0.80027069   424551 
  931000   0.66705978   -3.6379251   -3.6379251   -2.8377994  0.068490275   -3.6379251   0.80012575   424551 
  932000   0.66819501    -3.639301    -3.639301   -2.8378136     0.074326    -3.639301   0.80148744   424551 
  933000   0.66653082   -3.6388174   -3.6388174   -2.8393261  0.062661422   -3.6388174   0.79949128   424551 
  934000   0.66598978   -3.6387169   -3.6387169   -2.8398746  0.077032868   -3.6387169   0.79884231   424551 
  935000   0.66556797   -3.6388744   -3.6388744    -2.840538  0.074748025   -3.6388744   0.79833636   424551 
  936000   0.66476557   -3.6382787   -3.6382787   -2.8409048  0.071230346   -3.6382787   0.79737389   424551 
  937000   0.66603285   -3.6395987   -3.6395987   -2.8407047  0.076204058   -3.6395987   0.79889397   424551 
  938000   0.66592999   -3.6389997   -3.6389997   -2.8402291  0.069981188   -3.6389997    0.7987706   424551 
  939000   0.66579268   -3.6390947   -3.6390947   -2.8404888  0.074152477   -3.6390947   0.79860589   424551 
  940000   0.66621855   -3.6390869   -3.6390869   -2.8399701  0.088320459   -3.6390869   0.79911671   424551 
  941000   0.66639747   -3.6400201   -3.6400201   -2.8406888  0.065738422   -3.6400201   0.79933132   424551 
  942000   0.66573512   -3.6405512   -3.6405512   -2.8420144  0.066445519   -3.6405512   0.79853685   424551 
  943000   0.66520502   -3.6392945   -3.6392945   -2.8413934  0.069295499   -3.6392945     0.797901   424551 
  944000   0.66502913   -3.6391103   -3.6391103   -2.8414202  0.052733922   -3.6391103   0.79769003   424551 
  945000   0.66501782   -3.6389396   -3.6389396   -2.8412631  0.082900713   -3.6389396   0.79767646   424551 
  946000   0.66580126   -3.6404805   -3.6404805   -2.8418643  0.075572381   -3.6404805   0.79861618   424551 
  947000   0.66489589   -3.6396699   -3.6396699   -2.8421397  0.059041814   -3.6396699    0.7975302   424551 
  948000   0.66575691   -3.6411136   -3.6411136   -2.8425506  0.059284032   -3.6411136   0.79856299   424551 
  949000   0.66579959   -3.6415208   -3.6415208   -2.8429066  0.073870215   -3.6415208   0.79861418   424551 
  950000   0.66588909   -3.6428096   -3.6428096   -2.8440881  0.079382191   -3.6428096   0.79872154   424551 
  951000   0.66588792   -3.6431313   -3.6431313   -2.8444112  0.071145219   -3.6431313   0.79872013   424551 
  952000   0.66389684   -3.6414105   -3.6414105   -2.8450786  0.071485219   -3.6414105   0.79633187   424551 
  953000   0.66492407   -3.6424238   -3.6424238   -2.8448598  0.075725431   -3.6424238   0.79756401   424551 
  954000   0.66331149   -3.6413538   -3.6413538   -2.8457241  0.069933288   -3.6413538   0.79562975   424551 
  955000   0.66443433   -3.6436485   -3.6436485   -2.8466719  0.069938836   -3.6436485   0.79697657   424551 
  956000   0.66496646   -3.6439006   -3.6439006   -2.8462858  0.068595171   -3.6439006   0.79761486   424551 
  957000   0.66445011   -3.6439064   -3.6439064   -2.8469109  0.059029946   -3.6439064   0.79699551   424551 
  958000   0.66472945   -3.6443931   -3.6443931   -2.8470625  0.074301122   -3.6443931   0.79733057   424551 
  959000   0.66494562     -3.64442     -3.64442   -2.8468301  0.086851411     -3.64442   0.79758986   424551 
  960000   0.66482058   -3.6455541   -3.6455541   -2.8481143  0.066499719   -3.6455541   0.79743987   424551 
  961000   0.66406057   -3.6448002   -3.6448002   -2.8482719  0.078697261   -3.6448002   0.79652826   424551 
  962000    0.6643406   -3.6448886   -3.6448886   -2.8480245   0.06491216   -3.6448886   0.79686415   424551 
  963000    0.6633559    -3.643929    -3.643929    -2.848246  0.068219319    -3.643929   0.79568302   424551 
  964000   0.66342305   -3.6444361   -3.6444361   -2.8486725  0.069063774   -3.6444361   0.79576356   424551 
  965000   0.66485428   -3.6452589   -3.6452589   -2.8477786  0.071892017   -3.6452589   0.79748029   424551 
  966000   0.66471349   -3.6455245   -3.6455245   -2.8482131  0.067980797   -3.6455245   0.79731143   424551 
  967000   0.66436009   -3.6450124   -3.6450124   -2.8481249  0.077636184   -3.6450124   0.79688752   424551 
  968000   0.66498808   -3.6459069   -3.6459069   -2.8482661    0.0771451   -3.6459069   0.79764079   424551 
  969000   0.66320332   -3.6454448   -3.6454448   -2.8499448  0.062158997   -3.6454448   0.79550001   424551 
  970000   0.66323709   -3.6458548   -3.6458548   -2.8503143  0.061433858   -3.6458548   0.79554051   424551 
  971000   0.66327767    -3.645849    -3.645849   -2.8502598  0.072745899    -3.645849   0.79558919   424551 
  972000   0.66230073   -3.6453067   -3.6453067   -2.8508894  0.070565773   -3.6453067   0.79441736   424551 
  973000   0.66316306   -3.6468895   -3.6468895   -2.8514378  0.063294731   -3.6468895   0.79545171   424551 
  974000   0.66357593   -3.6472218   -3.6472218   -2.8512749  0.067782432   -3.6472218   0.79594694   424551 
  975000   0.66558668    -3.649508    -3.649508   -2.8511492   0.05475488    -3.649508    0.7983588   424551 
  976000   0.66361673   -3.6483549   -3.6483549    -2.852359  0.075665976   -3.6483549   0.79599588   424551 
  977000    0.6630425   -3.6484459   -3.6484459   -2.8531388  0.065904023   -3.6484459   0.79530711   424551 
  978000    0.6634316   -3.6497496   -3.6497496   -2.8539757  0.085282734   -3.6497496   0.79577382   424551 
  979000   0.66463834   -3.6511612   -3.6511612   -2.8539399  0.060918927   -3.6511612   0.79722128   424551 
  980000   0.66242777   -3.6481859   -3.6481859   -2.8536162  0.067858233   -3.6481859   0.79456975   424551 
  981000   0.66351716   -3.6497157   -3.6497157   -2.8538392  0.063260613   -3.6497157   0.79587645   424551 
  982000   0.66345658   -3.6502036   -3.6502036   -2.8543998  0.072361063   -3.6502036   0.79580378   424551 
  983000   0.66188603   -3.6497518   -3.6497518   -2.8558319  0.061311471   -3.6497518   0.79391994   424551 
  984000   0.66295141   -3.6505228   -3.6505228    -2.855325  0.063748992   -3.6505228   0.79519784   424551 
  985000    0.6622583   -3.6508534   -3.6508534   -2.8564869  0.076651068   -3.6508534   0.79436647   424551 
  986000   0.66254542   -3.6511277   -3.6511277   -2.8564169  0.068483559   -3.6511277   0.79471086   424551 
  987000   0.66159024    -3.650426    -3.650426   -2.8568608  0.069459914    -3.650426   0.79356515   424551 
  988000   0.66261828   -3.6516391   -3.6516391   -2.8568409  0.058572549   -3.6516391   0.79479826   424551 
  989000   0.66134078   -3.6493373   -3.6493373   -2.8560714  0.073264735   -3.6493373   0.79326592   424551 
  990000    0.6616218   -3.6504988   -3.6504988   -2.8568958  0.070676299   -3.6504988   0.79360299   424551 
  991000   0.66220876   -3.6515906   -3.6515906   -2.8572836  0.054197012   -3.6515906   0.79430705   424551 
  992000   0.66191656   -3.6512272   -3.6512272   -2.8572707  0.067623692   -3.6512272   0.79395656   424551 
  993000   0.66302724   -3.6531752   -3.6531752   -2.8578864  0.063627837   -3.6531752   0.79528879   424551 
  994000   0.66168126   -3.6515668   -3.6515668   -2.8578925  0.068636365   -3.6515668   0.79367433   424551 
  995000   0.66035768   -3.6509164   -3.6509164   -2.8588297  0.072080302   -3.6509164   0.79208671   424551 
  996000   0.66114157   -3.6515184   -3.6515184   -2.8584915  0.080012515   -3.6515184   0.79302697   424551 
  997000   0.66134868   -3.6523812   -3.6523812   -2.8591058  0.092304318   -3.6523812    0.7932754   424551 
  998000   0.66273937   -3.6540213   -3.6540213   -2.8590778  0.059608174   -3.6540213   0.79494351   424551 
  999000   0.66304035   -3.6547803   -3.6547803   -2.8594758  0.076922004   -3.6547803   0.79530452   424551 
 1000000   0.66103121   -3.6522947   -3.6522947   -2.8594001   0.06292346   -3.6522947    0.7928946   424551 
 1001000   0.66173052   -3.6526707   -3.6526707   -2.8589373   0.06523692   -3.6526707   0.79373341   424551 
 1002000   0.66179195   -3.6538961   -3.6538961    -2.860089  0.069021317   -3.6538961   0.79380709   424551 
 1003000   0.66222455   -3.6550411   -3.6550411   -2.8607152  0.077430642   -3.6550411   0.79432599   424551 
 1004000   0.66094227   -3.6531576   -3.6531576   -2.8603697  0.061633816   -3.6531576   0.79278792   424551 
 1005000   0.66049839   -3.6531797   -3.6531797   -2.8609242  0.066495516   -3.6531797   0.79225549   424551 
 1006000   0.65943426   -3.6523169   -3.6523169   -2.8613378  0.068251276   -3.6523169   0.79097908   424551 
 1007000   0.66129346   -3.6544503   -3.6544503   -2.8612411  0.082737063   -3.6544503   0.79320916   424551 
 1008000   0.66161189   -3.6550028   -3.6550028   -2.8614117  0.073407524   -3.6550028   0.79359111   424551 
 1009000    0.6605298   -3.6537763   -3.6537763   -2.8614831  0.070065529   -3.6537763   0.79229316   424551 
 1010000   0.66003125   -3.6544299   -3.6544299   -2.8627347  0.079106973   -3.6544299   0.79169517   424551 
 1011000   0.66028698   -3.6545602   -3.6545602   -2.8625583  0.071435929   -3.6545602   0.79200191   424551 
 1012000   0.65978877   -3.6537613   -3.6537613    -2.862357  0.067775541   -3.6537613   0.79140432   424551 
 1013000   0.66041678   -3.6548925   -3.6548925   -2.8627349  0.068517303   -3.6548925    0.7921576   424551 
 1014000    0.6609922   -3.6549657   -3.6549657   -2.8621179  0.068067575   -3.6549657   0.79284781   424551 
 1015000   0.66115975    -3.655132    -3.655132   -2.8620832  0.063112305    -3.655132   0.79304878   424551 
 1016000   0.65959788   -3.6540686   -3.6540686   -2.8628932  0.069877805   -3.6540686   0.79117534   424551 
 1017000   0.65952679   -3.6541036   -3.6541036   -2.8630135  0.059174848   -3.6541036   0.79109008   424551 
 1018000   0.65960976   -3.6542793   -3.6542793   -2.8630897  0.082773088   -3.6542793    0.7911896   424551 
 1019000   0.65876691   -3.6533451   -3.6533451   -2.8631665  0.068830377   -3.6533451   0.79017862   424551 
 1020000    0.6592506   -3.6548486   -3.6548486   -2.8640898  0.063146337   -3.6548486   0.79075879   424551 
 1021000    0.6586753   -3.6536775   -3.6536775   -2.8636087  0.069758285   -3.6536775   0.79006873   424551 
 1022000   0.65994484   -3.6558763   -3.6558763   -2.8642848  0.071102221   -3.6558763   0.79159152   424551 
 1023000   0.65831226    -3.654253    -3.654253   -2.8646197  0.068915702    -3.654253   0.78963327   424551 
 1024000   0.65913028   -3.6559124   -3.6559124   -2.8652979  0.074290006   -3.6559124   0.79061447   424551 
 1025000   0.65909032   -3.6564678   -3.6564678   -2.8659013  0.078630281   -3.6564678   0.79056653   424551 
 1026000   0.66054262   -3.6580634   -3.6580634   -2.8657549  0.059982694   -3.6580634   0.79230854   424551 
 1027000   0.66031275   -3.6591232   -3.6591232   -2.8670904  0.067488611   -3.6591232   0.79203281   424551 
 1028000   0.65872487   -3.6574744   -3.6574744   -2.8673462  0.078824916   -3.6574744   0.79012818   424551 
 1029000   0.65921196   -3.6584921   -3.6584921   -2.8677797  0.062563516   -3.6584921   0.79071245   424551 
 1030000   0.65953134   -3.6598287   -3.6598287   -2.8687332  0.058278219   -3.6598287   0.79109553   424551 
 1031000   0.65920419   -3.6598936   -3.6598936   -2.8691904  0.066834212   -3.6598936   0.79070312   424551 
 1032000    0.6587953   -3.6603426   -3.6603426   -2.8701299  0.058187757   -3.6603426   0.79021266   424551 
 1033000   0.65879562   -3.6607691   -3.6607691    -2.870556  0.056127255   -3.6607691   0.79021305   424551 
 1034000     0.658701    -3.660983    -3.660983   -2.8708834  0.063930314    -3.660983   0.79009956   424551 
 1035000   0.65850285   -3.6611234   -3.6611234   -2.8712615  0.074045726   -3.6611234   0.78986188   424551 
 1036000   0.65946323   -3.6629999   -3.6629999   -2.8719861   0.06016252   -3.6629999   0.79101383   424551 
 1037000   0.65773963   -3.6614858   -3.6614858   -2.8725394  0.058373685   -3.6614858   0.78894641   424551 
 1038000   0.65832521   -3.6619939   -3.6619939   -2.8723451   0.07211495   -3.6619939    0.7896488   424551 
 1039000    0.6590339   -3.6623702   -3.6623702   -2.8718714  0.076080823   -3.6623702   0.79049887   424551 
 1040000   0.65779171   -3.6604831   -3.6604831   -2.8714742  0.066611601   -3.6604831   0.78900887   424551 
 1041000   0.65861997   -3.6617697   -3.6617697   -2.8717674  0.076519586   -3.6617697   0.79000236   424551 
 1042000   0.65894293   -3.6631087   -3.6631087    -2.872719   0.07433964   -3.6631087   0.79038975   424551 
 1043000   0.65832181   -3.6619851   -3.6619851   -2.8723404  0.068131259   -3.6619851   0.78964472   424551 
 1044000   0.65826604   -3.6622065   -3.6622065   -2.8726287  0.086194838   -3.6622065   0.78957783   424551 
 1045000   0.65791328   -3.6629921   -3.6629921   -2.8738374  0.068891859   -3.6629921    0.7891547   424551 
 1046000   0.65892912   -3.6634933   -3.6634933   -2.8731201  0.078401549   -3.6634933   0.79037318   424551 
 1047000   0.65790983   -3.6631961   -3.6631961   -2.8740456  0.068086413   -3.6631961   0.78915056   424551 
 1048000   0.65833674   -3.6638247   -3.6638247   -2.8741621  0.068764198   -3.6638247   0.78966264   424551 
 1049000   0.65788183   -3.6636237   -3.6636237   -2.8745067  0.049289105   -3.6636237   0.78911698   424551 
 1050000   0.65717097   -3.6638473   -3.6638473    -2.875583  0.064085693   -3.6638473   0.78826432   424551 
 1051000    0.6570961   -3.6640007   -3.6640007   -2.8758262  0.071526847   -3.6640007   0.78817451   424551 
 1052000   0.65720007   -3.6646189   -3.6646189   -2.8763197  0.058462678   -3.6646189   0.78829922   424551 
 1053000   0.65806137   -3.6652986   -3.6652986   -2.8759663  0.071501546   -3.6652986   0.78933233   424551 
 1054000   0.65620363   -3.6633139   -3.6633139   -2.8762098  0.065162831   -3.6633139     0.787104   424551 
 1055000   0.65684003   -3.6645331   -3.6645331   -2.8766658  0.067629884   -3.6645331   0.78786735   424551 
 1056000   0.65648979   -3.6642974   -3.6642974   -2.8768501  0.064373132   -3.6642974   0.78744725   424551 
 1057000   0.65671851   -3.6639417   -3.6639417   -2.8762201  0.070893483   -3.6639417   0.78772159   424551 
 1058000   0.65606908   -3.6636072   -3.6636072   -2.8766645  0.064142183   -3.6636072   0.78694261   424551 
 1059000   0.65513306   -3.6631508   -3.6631508   -2.8773309  0.056471239   -3.6631508   0.78581988   424551 
 1060000   0.65611151   -3.6652998   -3.6652998   -2.8783063  0.065334642   -3.6652998   0.78699351   424551 
 1061000   0.65525256   -3.6646745   -3.6646745   -2.8787113  0.086850923   -3.6646745   0.78596321   424551 
 1062000   0.65616632   -3.6659733   -3.6659733   -2.8789141  0.065056606   -3.6659733   0.78705925   424551 
 1063000    0.6558001   -3.6662119   -3.6662119   -2.8795919  0.068514404   -3.6662119   0.78661998   424551 
 1064000   0.65616771   -3.6671124   -3.6671124   -2.8800515  0.070677808   -3.6671124   0.78706092   424551 
 1065000   0.65769842   -3.6689706   -3.6689706   -2.8800737  0.061760451   -3.6689706   0.78889697   424551 
 1066000   0.65582236    -3.667317    -3.667317   -2.8806704  0.081045445    -3.667317   0.78664668   424551 
 1067000   0.65594259   -3.6683271   -3.6683271   -2.8815362   0.06704968   -3.6683271   0.78679089   424551 
 1068000    0.6555724   -3.6680348   -3.6680348   -2.8816879  0.058313759   -3.6680348   0.78634685   424551 
 1069000   0.65627745   -3.6694261   -3.6694261   -2.8822335  0.078375656   -3.6694261   0.78719255   424551 
 1070000   0.65450719   -3.6685054   -3.6685054   -2.8834362  0.065861638   -3.6685054   0.78506916   424551 
 1071000   0.65605566   -3.6696252   -3.6696252   -2.8826987  0.072860153   -3.6696252   0.78692652   424551 
 1072000   0.65725704    -3.670389    -3.670389   -2.8820215  0.054392263    -3.670389   0.78836755   424551 
 1073000   0.65583374   -3.6696932   -3.6696932   -2.8830328  0.064320193   -3.6696932   0.78666033   424551 
 1074000   0.65661806   -3.6707327   -3.6707327   -2.8831316  0.078883441   -3.6707327    0.7876011   424551 
 1075000   0.65598302   -3.6708727   -3.6708727   -2.8840334  0.058531834   -3.6708727   0.78683939   424551 
 1076000   0.65504199    -3.669709    -3.669709   -2.8839984   0.06097308    -3.669709   0.78571065   424551 
 1077000   0.65530873   -3.6701272   -3.6701272   -2.8840966  0.053858912   -3.6701272   0.78603059   424551 
 1078000   0.65586834   -3.6714598   -3.6714598    -2.884758  0.073634755   -3.6714598   0.78670183   424551 
 1079000   0.65426168   -3.6697456   -3.6697456   -2.8849709  0.078513769   -3.6697456   0.78477467   424551 
 1080000   0.65462391   -3.6699745   -3.6699745   -2.8847653  0.070324046   -3.6699745   0.78520916   424551 
 1081000   0.65612492   -3.6715104   -3.6715104   -2.8845008  0.066181827   -3.6715104    0.7870096   424551 
 1082000   0.65479212   -3.6697929   -3.6697929    -2.884382  0.070934481   -3.6697929   0.78541092   424551 
 1083000   0.65446018    -3.670032    -3.670032   -2.8850192  0.076103912    -3.670032   0.78501277   424551 
 1084000    0.6548809   -3.6706236   -3.6706236   -2.8851061  0.068657011   -3.6706236   0.78551742   424551 
 1085000   0.65502883   -3.6708767   -3.6708767   -2.8851819  0.050530533   -3.6708767   0.78569486   424551 
 1086000   0.65380162   -3.6700409   -3.6700409    -2.885818  0.057223083   -3.6700409   0.78422284   424551 
 1087000   0.65467181   -3.6719047   -3.6719047   -2.8866381   0.05874694   -3.6719047   0.78526662   424551 
 1088000   0.65520495   -3.6724066   -3.6724066   -2.8865005  0.060913164   -3.6724066   0.78590611   424551 
 1089000   0.65593027   -3.6732977   -3.6732977   -2.8865216  0.073593882   -3.6732977   0.78677612   424551 
 1090000   0.65504842   -3.6724453   -3.6724453   -2.8867269   0.06498151   -3.6724453   0.78571836   424551 
 1091000   0.65555933   -3.6745308   -3.6745308   -2.8881996  0.065763242   -3.6745308   0.78633118   424551 
 1092000   0.65451489   -3.6748104   -3.6748104    -2.889732  0.067707455   -3.6748104    0.7850784   424551 
 1093000   0.65384467   -3.6745238   -3.6745238   -2.8902493  0.068553372   -3.6745238   0.78427447   424551 
 1094000   0.65453935   -3.6755897   -3.6755897    -2.890482  0.076540013   -3.6755897   0.78510773   424551 
 1095000   0.65404124    -3.674592    -3.674592   -2.8900817  0.069801352    -3.674592   0.78451027   424551 
 1096000   0.65372743    -3.673904    -3.673904   -2.8897701  0.074067038    -3.673904   0.78413385   424551 
 1097000   0.65468701   -3.6754105   -3.6754105   -2.8901256  0.059139982   -3.6754105   0.78528485   424551 
 1098000   0.65449615   -3.6761116   -3.6761116   -2.8910557  0.065384665   -3.6761116   0.78505592   424551 
 1099000   0.65373521   -3.6753661   -3.6753661   -2.8912229  0.057349161   -3.6753661   0.78414318   424551 
 1100000   0.65307242   -3.6750802   -3.6750802   -2.8917321  0.066680669   -3.6750802   0.78334817   424551 
 1101000   0.65481374   -3.6765995   -3.6765995   -2.8911626   0.06437619   -3.6765995   0.78543686   424551 
 1102000   0.65406133   -3.6766112   -3.6766112   -2.8920768  0.065180531   -3.6766112   0.78453436   424551 
 1103000    0.6543375   -3.6771705   -3.6771705   -2.8923049  0.056193096   -3.6771705   0.78486562   424551 
 1104000   0.65306212   -3.6761974   -3.6761974   -2.8928616  0.050235914   -3.6761974   0.78333582   424551 
 1105000   0.65369341   -3.6765387   -3.6765387   -2.8924457  0.069868613   -3.6765387   0.78409305   424551 
 1106000   0.65324501   -3.6758198   -3.6758198   -2.8922646  0.056874267   -3.6758198    0.7835552   424551 
 1107000   0.65360508   -3.6760846   -3.6760846   -2.8920975  0.056764866   -3.6760846   0.78398709   424551 
 1108000   0.65589337   -3.6779754   -3.6779754   -2.8912435  0.069897834   -3.6779754   0.78673185   424551 
 1109000   0.65283378   -3.6750223   -3.6750223   -2.8919603  0.050120447   -3.6750223   0.78306194   424551 
 1110000   0.65449754   -3.6772771   -3.6772771   -2.8922195  0.069754741   -3.6772771   0.78505759   424551 
 1111000   0.65306668   -3.6768005   -3.6768005   -2.8934592  0.060034829   -3.6768005   0.78334129   424551 
 1112000    0.6548368   -3.6787822   -3.6787822   -2.8933177  0.057786505   -3.6787822   0.78546452   424551 
 1113000   0.65380505   -3.6771231   -3.6771231   -2.8928962  0.070124838   -3.6771231   0.78422696   424551 
 1114000   0.65465856   -3.6774455   -3.6774455   -2.8921947  0.063461263   -3.6774455   0.78525073   424551 
 1115000    0.6541187   -3.6777386   -3.6777386   -2.8931355  0.077014816   -3.6777386   0.78460318   424551 
 1116000   0.65505104   -3.6792013   -3.6792013   -2.8934798  0.067350207   -3.6792013    0.7857215   424551 
 1117000   0.65357753   -3.6781548   -3.6781548   -2.8942008  0.080439873   -3.6781548   0.78395404   424551 
 1118000   0.65303657   -3.6779324   -3.6779324   -2.8946272  0.072377566   -3.6779324   0.78330518   424551 
 1119000   0.65266459   -3.6785758   -3.6785758   -2.8957168  0.052648174   -3.6785758     0.782859   424551 
 1120000   0.65175175    -3.676983    -3.676983    -2.895219  0.053118064    -3.676983   0.78176406   424551 
 1121000   0.65252032   -3.6778481   -3.6778481   -2.8951622  0.061447069   -3.6778481   0.78268594   424551 
 1122000   0.65166902    -3.677134    -3.677134   -2.8954692  0.067308614    -3.677134   0.78166482   424551 
 1123000   0.65102037   -3.6764962   -3.6764962   -2.8956094  0.056085366   -3.6764962   0.78088679   424551 
 1124000   0.65247315   -3.6777559   -3.6777559   -2.8951265  0.055463346   -3.6777559   0.78262936   424551 
 1125000   0.65225244   -3.6781225   -3.6781225   -2.8957579    0.0642058   -3.6781225   0.78236463   424551 
 1126000   0.65306458   -3.6790064   -3.6790064   -2.8956676  0.055846627   -3.6790064   0.78333878   424551 
 1127000   0.65236536   -3.6788471   -3.6788471    -2.896347  0.078012182   -3.6788471   0.78250007   424551 
 1128000   0.65301727   -3.6796813   -3.6796813   -2.8963992  0.071531593   -3.6796813   0.78328202   424551 
 1129000    0.6519799   -3.6789805   -3.6789805   -2.8969428  0.046700806   -3.6789805   0.78203772   424551 
 1130000   0.65154092   -3.6787629   -3.6787629   -2.8972517  0.066668678   -3.6787629   0.78151117   424551 
 1131000   0.65229988   -3.6799912   -3.6799912   -2.8975696  0.062339887   -3.6799912   0.78242154   424551 
 1132000   0.65125132   -3.6785746   -3.6785746   -2.8974108  0.060587743   -3.6785746   0.78116381   424551 
 1133000   0.65229103    -3.680694    -3.680694   -2.8982831  0.052265146    -3.680694   0.78241092   424551 
 1134000   0.65152418     -3.67969     -3.67969   -2.8981989  0.064972033     -3.67969    0.7814911   424551 
 1135000   0.65358558   -3.6824215   -3.6824215   -2.8984578  0.053300844   -3.6824215   0.78396371   424551 
 1136000   0.65278793   -3.6824842   -3.6824842   -2.8994773  0.060185658   -3.6824842   0.78300694   424551 
 1137000   0.65129498   -3.6801147   -3.6801147   -2.8988985  0.057910621   -3.6801147   0.78121617   424551 
 1138000   0.65290365    -3.682742    -3.682742   -2.8995963  0.066506409    -3.682742   0.78314574   424551 
 1139000   0.65349059   -3.6841295   -3.6841295   -2.9002797  0.077228507   -3.6841295   0.78384977   424551 
 1140000   0.65229144   -3.6832952   -3.6832952   -2.9008838  0.073539615   -3.6832952   0.78241141   424551 
 1141000   0.65233218   -3.6840114   -3.6840114   -2.9015511  0.058634517   -3.6840114   0.78246028   424551 
 1142000   0.65218992   -3.6838693   -3.6838693   -2.9015797  0.063320479   -3.6838693   0.78228963   424551 
 1143000    0.6517785   -3.6833756   -3.6833756   -2.9015794  0.062998603   -3.6833756   0.78179615   424551 
 1144000   0.65133226   -3.6831465   -3.6831465   -2.9018857  0.074269708   -3.6831465   0.78126089   424551 
 1145000   0.65219383    -3.684031    -3.684031   -2.9017367  0.065523371    -3.684031   0.78229432   424551 
 1146000   0.65169096   -3.6828844   -3.6828844   -2.9011932  0.070608873   -3.6828844   0.78169115   424551 
 1147000   0.65199383   -3.6838462   -3.6838462   -2.9017917  0.059059842   -3.6838462   0.78205443   424551 
 1148000    0.6525963   -3.6845256   -3.6845256   -2.9017485   0.05334185   -3.6845256   0.78277708   424551 
 1149000    0.6508646   -3.6830452   -3.6830452   -2.9023452  0.072387235   -3.6830452   0.78069994   424551 
 1150000   0.65088286   -3.6826987   -3.6826987   -2.9019768  0.072706736   -3.6826987   0.78072184   424551 
 1151000   0.65033193   -3.6833705   -3.6833705   -2.9033095  0.048419908   -3.6833705   0.78006101   424551 
 1152000   0.65114615   -3.6843377   -3.6843377      -2.9033   0.06478524   -3.6843377   0.78103765   424551 
 1153000   0.65048596   -3.6834356   -3.6834356   -2.9031898  0.067316355   -3.6834356   0.78024576   424551 
 1154000   0.64931643   -3.6832354   -3.6832354   -2.9043925  0.056591017   -3.6832354   0.77884294   424551 
 1155000    0.6497016   -3.6837367   -3.6837367   -2.9044317  0.067613747   -3.6837367   0.77930494   424551 
 1156000   0.64999076   -3.6839487   -3.6839487   -2.9042969  0.056316615   -3.6839487   0.77965178   424551 
 1157000   0.65129766   -3.6857897   -3.6857897   -2.9045703  0.054872107   -3.6857897   0.78121939   424551 
 1158000   0.65134336   -3.6862879   -3.6862879   -2.9050137  0.057828747   -3.6862879    0.7812742   424551 
 1159000   0.65079919   -3.6857574   -3.6857574   -2.9051359  0.058574383   -3.6857574   0.78062148   424551 
 1160000    0.6505897   -3.6856214   -3.6856214   -2.9052512  0.074395485   -3.6856214    0.7803702   424551 
 1161000   0.65098834   -3.6867921   -3.6867921   -2.9059437  0.067409348   -3.6867921   0.78084836   424551 
 1162000   0.65030989   -3.6865112   -3.6865112   -2.9064766    0.0660075   -3.6865112   0.78003457   424551 
 1163000    0.6500152    -3.687258    -3.687258   -2.9075769   0.06259123    -3.687258    0.7796811   424551 
 1164000   0.65058392   -3.6873952   -3.6873952   -2.9070319  0.052182058   -3.6873952   0.78036327   424551 
 1165000   0.65014421   -3.6869626   -3.6869626   -2.9071267  0.063042065   -3.6869626   0.77983584   424551 
 1166000   0.65073312    -3.687111    -3.687111   -2.9065688  0.073518255    -3.687111   0.78054223   424551 
 1167000   0.64972065   -3.6864875   -3.6864875   -2.9071597  0.071067509   -3.6864875    0.7793278   424551 
 1168000   0.65023318   -3.6868242   -3.6868242   -2.9068816  0.075126886   -3.6868242   0.77994257   424551 
 1169000    0.6503371   -3.6875115   -3.6875115   -2.9074443   0.05117834   -3.6875115   0.78006721   424551 
 1170000   0.65040757   -3.6881061   -3.6881061   -2.9079544  0.052529188   -3.6881061   0.78015173   424551 
 1171000   0.64933214   -3.6872798   -3.6872798    -2.908418  0.057808963   -3.6872798   0.77886179   424551 
 1172000   0.64810661   -3.6858504   -3.6858504   -2.9084586  0.050922296   -3.6858504   0.77739179   424551 
 1173000   0.64791693   -3.6859506   -3.6859506   -2.9087863  0.074796547   -3.6859506   0.77716426   424551 
 1174000   0.64963033   -3.6892666   -3.6892666   -2.9100471  0.063554539   -3.6892666   0.77921946   424551 
 1175000   0.65003342    -3.689463    -3.689463     -2.90976  0.059345813    -3.689463   0.77970296   424551 
 1176000   0.64809442   -3.6874529   -3.6874529   -2.9100758  0.052854135   -3.6874529   0.77737716   424551 
 1177000   0.64826306   -3.6880025   -3.6880025   -2.9104231  0.076820114   -3.6880025   0.77757945   424551 
 1178000   0.64856106   -3.6881004   -3.6881004   -2.9101635  0.065919726   -3.6881004   0.77793689   424551 
 1179000   0.64727208   -3.6881074   -3.6881074   -2.9117166  0.058628447   -3.6881074   0.77639078   424551 
 1180000   0.64887473   -3.6895854   -3.6895854   -2.9112723  0.065722797   -3.6895854   0.77831313   424551 
 1181000   0.64984042    -3.691045    -3.691045   -2.9115735  0.065787836    -3.691045   0.77947145   424551 
 1182000   0.64912505   -3.6905029   -3.6905029   -2.9118895  0.062288622   -3.6905029   0.77861338   424551 
 1183000   0.64988923   -3.6918907   -3.6918907   -2.9123607  0.072616821   -3.6918907      0.77953   424551 
 1184000   0.64820463   -3.6909472   -3.6909472   -2.9134379  0.071198463   -3.6909472   0.77750936   424551 
 1185000   0.64958944   -3.6920578   -3.6920578   -2.9128874   0.06269888   -3.6920578   0.77917041   424551 
 1186000   0.64775323   -3.6901932   -3.6901932   -2.9132253  0.061301165   -3.6901932   0.77696791   424551 
 1187000   0.64839203   -3.6909772   -3.6909772    -2.913243  0.069552352   -3.6909772   0.77773414   424551 
 1188000   0.64973104   -3.6930748   -3.6930748   -2.9137346  0.064989974   -3.6930748   0.77934026   424551 
 1189000   0.64794478   -3.6913927   -3.6913927    -2.914195  0.059019282   -3.6913927   0.77719767   424551 
 1190000   0.64817498   -3.6921482   -3.6921482   -2.9146744  0.059717875   -3.6921482   0.77747379   424551 
 1191000   0.64808855   -3.6926259   -3.6926259   -2.9152558  0.060311002   -3.6926259   0.77737012   424551 
 1192000   0.64833493   -3.6933295   -3.6933295   -2.9156639  0.063245027   -3.6933295   0.77766565   424551 
 1193000   0.64776865   -3.6929212   -3.6929212   -2.9159348  0.044647362   -3.6929212    0.7769864   424551 
 1194000   0.64874612   -3.6944377   -3.6944377   -2.9162789  0.078488508   -3.6944377   0.77815886   424551 
 1195000   0.64810025   -3.6939832   -3.6939832   -2.9165991  0.070371607   -3.6939832   0.77738416   424551 
 1196000   0.64793442   -3.6942871   -3.6942871   -2.9171019  0.077440205   -3.6942871   0.77718524   424551 
 1197000   0.64821745   -3.6939607   -3.6939607    -2.916436  0.055710703   -3.6939607   0.77752474   424551 
 1198000   0.64979189   -3.6960504   -3.6960504   -2.9166372  0.055798202   -3.6960504   0.77941324   424551 
 1199000   0.64867645   -3.6941683   -3.6941683    -2.916093  0.059257219   -3.6941683   0.77807529   424551 
 1200000   0.64918299   -3.6947028   -3.6947028     -2.91602  0.058472709   -3.6947028   0.77868288   424551 
 1201000   0.64787196   -3.6940556   -3.6940556   -2.9169452  0.057430383   -3.6940556   0.77711032   424551 
 1202000   0.64800293   -3.6946946   -3.6946946   -2.9174272    0.0511532   -3.6946946   0.77726742   424551 
 1203000    0.6481297   -3.6960726   -3.6960726   -2.9186531  0.067115438   -3.6960726   0.77741948   424551 
 1204000   0.64712268   -3.6949742   -3.6949742   -2.9187626  0.067010266   -3.6949742   0.77621157   424551 
 1205000   0.64742285   -3.6956921   -3.6956921   -2.9191205  0.059393635   -3.6956921   0.77657163   424551 
 1206000    0.6481259   -3.6966803   -3.6966803   -2.9192654  0.069992358   -3.6966803   0.77741492   424551 
 1207000   0.64741116   -3.6954831   -3.6954831   -2.9189255  0.058334378   -3.6954831    0.7765576   424551 
 1208000   0.64735016    -3.696082    -3.696082   -2.9195975  0.064417826    -3.696082   0.77648443   424551 
 1209000   0.64852584   -3.6973107   -3.6973107   -2.9194161  0.050931854   -3.6973107   0.77789464   424551 
 1210000   0.64684455   -3.6948948   -3.6948948   -2.9190168  0.050385186   -3.6948948   0.77587796   424551 
 1211000   0.64704548   -3.6951756   -3.6951756   -2.9190567  0.063554285   -3.6951756   0.77611897   424551 
 1212000   0.64824767   -3.6967792   -3.6967792   -2.9192183  0.068984334   -3.6967792   0.77756098   424551 
 1213000   0.64910236   -3.6979149   -3.6979149   -2.9193287  0.057880286   -3.6979149   0.77858617   424551 
 1214000   0.64887069   -3.6975134   -3.6975134   -2.9192051  0.062546595   -3.6975134   0.77830828   424551 
 1215000   0.64657894   -3.6947934   -3.6947934    -2.919234  0.066686283   -3.6947934   0.77555937   424551 
 1216000   0.64780886   -3.6964694   -3.6964694   -2.9194348  0.058570545   -3.6964694   0.77703464   424551 
 1217000   0.64794975   -3.6970769   -3.6970769   -2.9198733  0.058464936   -3.6970769   0.77720363   424551 
 1218000   0.64584695   -3.6954545   -3.6954545   -2.9207731  0.068881197   -3.6954545   0.77468136   424551 
 1219000    0.6468741   -3.6961569   -3.6961569   -2.9202435   0.06354439   -3.6961569    0.7759134   424551 
 1220000    0.6486064   -3.6989167   -3.6989167   -2.9209254  0.066478011   -3.6989167   0.77799127   424551 
 1221000   0.64781118   -3.6979093   -3.6979093   -2.9208718  0.071545737   -3.6979093   0.77703742   424551 
 1222000   0.64697133   -3.6973626   -3.6973626   -2.9213325   0.07268096   -3.6973626   0.77603003   424551 
 1223000   0.64685815     -3.69728     -3.69728   -2.9213857  0.069319303     -3.69728   0.77589427   424551 
 1224000   0.64684561   -3.6973633   -3.6973633   -2.9214841  0.069398551   -3.6973633   0.77587923   424551 
 1225000   0.64752102   -3.6993879   -3.6993879   -2.9226985  0.048107965   -3.6993879   0.77668937   424551 
 1226000   0.64578418    -3.697397    -3.697397    -2.922791  0.056513376    -3.697397   0.77460607   424551 
 1227000     0.645982   -3.6974225   -3.6974225   -2.9225791  0.059500358   -3.6974225   0.77484336   424551 
 1228000   0.64643051   -3.6981779   -3.6981779   -2.9227965  0.068833138   -3.6981779   0.77538133   424551 
 1229000   0.64754327   -3.7000473   -3.7000473   -2.9233313  0.061232766   -3.7000473   0.77671607   424551 
 1230000   0.64710373   -3.6997692   -3.6997692   -2.9235804    0.0522831   -3.6997692   0.77618884   424551 
 1231000   0.64611157   -3.6985606   -3.6985606   -2.9235618  0.059473828   -3.6985606   0.77499876   424551 
 1232000   0.64631425   -3.6989242   -3.6989242   -2.9236823  0.063653085   -3.6989242   0.77524188   424551 
 1233000     0.646743   -3.6992959   -3.6992959   -2.9235398  0.064854778   -3.6992959   0.77575616   424551 
 1234000   0.64616352   -3.6988081   -3.6988081    -2.923747  0.043886327   -3.6988081   0.77506109   424551 
 1235000   0.64587034   -3.6990962   -3.6990962   -2.9243868  0.061334374   -3.6990962   0.77470942   424551 
 1236000   0.64619168   -3.6998282   -3.6998282   -2.9247334   0.06430154   -3.6998282   0.77509485   424551 
 1237000   0.64641009   -3.6996663   -3.6996663   -2.9243094  0.070402773   -3.6996663   0.77535683   424551 
 1238000   0.64719997   -3.7008953   -3.7008953    -2.924591  0.057121348   -3.7008953   0.77630429   424551 
 1239000   0.64713767   -3.7024214   -3.7024214   -2.9261919  0.062376104   -3.7024214   0.77622956   424551 
 1240000   0.64680503   -3.7016668   -3.7016668   -2.9258362  0.054186551   -3.7016668   0.77583056   424551 
 1241000   0.64606979   -3.7011458   -3.7011458   -2.9261972  0.071488724   -3.7011458   0.77494865   424551 
 1242000   0.64790878   -3.7038714   -3.7038714    -2.926717  0.047035556   -3.7038714   0.77715448   424551 
 1243000    0.6462779   -3.7023878   -3.7023878   -2.9271896  0.062273285   -3.7023878   0.77519828   424551 
 1244000   0.64586468   -3.7016303   -3.7016303   -2.9269277   0.05027382   -3.7016303   0.77470262   424551 
 1245000   0.64666873   -3.7027582   -3.7027582   -2.9270911  0.058656447   -3.7027582   0.77566708   424551 
 1246000   0.64484421   -3.7012365   -3.7012365   -2.9277579  0.073914572   -3.7012365   0.77347859   424551 
 1247000   0.64565425   -3.7019166   -3.7019166   -2.9274664  0.063381643   -3.7019166   0.77445022   424551 
 1248000   0.64474124   -3.7002683   -3.7002683   -2.9269132  0.060281668   -3.7002683   0.77335508   424551 
 1249000   0.64509896   -3.7010503   -3.7010503   -2.9272662  0.052298807   -3.7010503   0.77378416   424551 
 1250000    0.6469425   -3.7032362   -3.7032362   -2.9272408  0.066678073   -3.7032362   0.77599546   424551 
 1251000   0.64506542   -3.7009185   -3.7009185   -2.9271746  0.064853169   -3.7009185   0.77374393   424551 
 1252000   0.64508362   -3.7013351   -3.7013351   -2.9275693  0.063170834   -3.7013351   0.77376576   424551 
 1253000   0.64542517   -3.7015834   -3.7015834    -2.927408  0.065899085   -3.7015834   0.77417544   424551 
 1254000   0.64483491   -3.7008213   -3.7008213   -2.9273539  0.066747011   -3.7008213   0.77346744   424551 
 1255000   0.64550268   -3.7025337   -3.7025337   -2.9282653  0.060815369   -3.7025337   0.77426841   424551 
 1256000    0.6454574   -3.7033661   -3.7033661    -2.929152  0.050752915   -3.7033661   0.77421411   424551 
 1257000   0.64542138   -3.7036868   -3.7036868   -2.9295159  0.048266285   -3.7036868    0.7741709   424551 
 1258000   0.64546292   -3.7040436   -3.7040436   -2.9298229   0.05321646   -3.7040436   0.77422072   424551 
 1259000   0.64350646   -3.7021379   -3.7021379   -2.9302639  0.060677939   -3.7021379   0.77187399   424551 
 1260000   0.64552603   -3.7041629   -3.7041629   -2.9298665  0.067624326   -3.7041629   0.77429643   424551 
 1261000   0.64468925   -3.7027484   -3.7027484   -2.9294557  0.056285359   -3.7027484   0.77329272   424551 
 1262000   0.64581186   -3.7045365   -3.7045365   -2.9298972  0.052674242   -3.7045365   0.77463927   424551 
 1263000   0.64458212    -3.703543    -3.703543   -2.9303788  0.052489663    -3.703543   0.77316422   424551 
 1264000   0.64471636   -3.7046692   -3.7046692    -2.931344  0.058792118   -3.7046692   0.77332524   424551 
 1265000   0.64449895   -3.7051413   -3.7051413   -2.9320768  0.067135206   -3.7051413   0.77306447   424551 
 1266000   0.64582363   -3.7068622   -3.7068622   -2.9322088   0.05849454   -3.7068622   0.77465339   424551 
 1267000    0.6457127   -3.7061258   -3.7061258   -2.9316054  0.055104729   -3.7061258   0.77452033   424551 
 1268000   0.64662041    -3.707713    -3.707713   -2.9321039  0.068478141    -3.707713   0.77560911   424551 
 1269000    0.6458466   -3.7066954   -3.7066954   -2.9320144  0.068632214   -3.7066954   0.77468094   424551 
 1270000   0.64633355    -3.707757    -3.707757    -2.932492  0.070985896    -3.707757   0.77526503   424551 
 1271000    0.6458898   -3.7078124   -3.7078124   -2.9330796  0.058577449   -3.7078124   0.77473276   424551 
 1272000   0.64539537   -3.7072694   -3.7072694   -2.9331297  0.062957336   -3.7072694    0.7741397   424551 
 1273000   0.64507568   -3.7079858   -3.7079858   -2.9342295  0.053728296   -3.7079858   0.77375624   424551 
 1274000   0.64430371    -3.707082    -3.707082   -2.9342517  0.064281447    -3.707082   0.77283028   424551 
 1275000   0.64387177   -3.7071115   -3.7071115   -2.9347993  0.055392345   -3.7071115   0.77231217   424551 
 1276000   0.64394748   -3.7063611   -3.7063611   -2.9339581  0.060871632   -3.7063611   0.77240299   424551 
 1277000   0.64497027    -3.707008    -3.707008   -2.9333782  0.070135965    -3.707008    0.7736298   424551 
 1278000   0.64448708   -3.7064391   -3.7064391   -2.9333889  0.064057218   -3.7064391   0.77305022   424551 
 1279000   0.64526853   -3.7079892   -3.7079892   -2.9340016  0.065131084   -3.7079892   0.77398755   424551 
 1280000   0.64495007   -3.7071602   -3.7071602   -2.9335546  0.058225498   -3.7071602   0.77360556   424551 
 1281000    0.6453351   -3.7076928   -3.7076928   -2.9336254  0.059089679   -3.7076928   0.77406741   424551 
 1282000   0.64404342   -3.7075641   -3.7075641   -2.9350461  0.056111463   -3.7075641   0.77251806   424551 
 1283000   0.64427056   -3.7075203   -3.7075203   -2.9347298  0.055002359   -3.7075203   0.77279052   424551 
 1284000   0.64366356   -3.7065546   -3.7065546   -2.9344922   0.05356975   -3.7065546   0.77206242   424551 
 1285000   0.64328272   -3.7064082   -3.7064082   -2.9348026   0.07050265   -3.7064082   0.77160561   424551 
 1286000   0.64403567   -3.7083823   -3.7083823   -2.9358735   0.05176403   -3.7083823   0.77250877   424551 
 1287000   0.64307663   -3.7074317   -3.7074317   -2.9360733  0.056663616   -3.7074317   0.77135842   424551 
 1288000   0.64351597   -3.7088206   -3.7088206   -2.9369352   0.04883925   -3.7088206    0.7718854   424551 
 1289000   0.64406682   -3.7097925   -3.7097925   -2.9372464  0.057886923   -3.7097925   0.77254613   424551 
 1290000   0.64507775   -3.7105449   -3.7105449   -2.9367862  0.061487106   -3.7105449   0.77375872   424551 
 1291000   0.64444423   -3.7098467   -3.7098467   -2.9368479  0.062090926   -3.7098467   0.77299882   424551 
 1292000   0.64304043   -3.7081875   -3.7081875   -2.9368725  0.061916517   -3.7081875   0.77131499   424551 
 1293000    0.6448844   -3.7106734   -3.7106734   -2.9371466  0.057340022   -3.7106734   0.77352681   424551 
 1294000   0.64459206   -3.7102927   -3.7102927   -2.9371166  0.054028922   -3.7102927   0.77317614   424551 
 1295000   0.64348544   -3.7090998   -3.7090998    -2.937251  0.066383412   -3.7090998   0.77184878   424551 
 1296000   0.64370635   -3.7098194   -3.7098194   -2.9377057  0.057981462   -3.7098194   0.77211375   424551 
 1297000   0.64448248   -3.7105615   -3.7105615   -2.9375168  0.074716829   -3.7105615    0.7730447   424551 
 1298000   0.64320682   -3.7102018   -3.7102018   -2.9386872  0.059784966   -3.7102018   0.77151458   424551 
 1299000   0.64391652   -3.7111564   -3.7111564   -2.9387906  0.072546078   -3.7111564   0.77236584   424551 
 1300000   0.64405012   -3.7115899   -3.7115899   -2.9390638  0.058622887   -3.7115899   0.77252609   424551 
 1301000   0.64341203   -3.7111999   -3.7111999   -2.9394392  0.065671233   -3.7111999   0.77176071   424551 
 1302000   0.64379792   -3.7123344   -3.7123344   -2.9401108  0.060396131   -3.7123344   0.77222358   424551 
 1303000    0.6439554   -3.7124685   -3.7124685    -2.940056  0.061492581   -3.7124685   0.77241248   424551 
 1304000   0.64387994   -3.7119825   -3.7119825   -2.9396605  0.074180219   -3.7119825   0.77232197   424551 
 1305000   0.64354993   -3.7122465   -3.7122465   -2.9403203   0.05828852   -3.7122465   0.77192613   424551 
 1306000   0.64336489   -3.7126557   -3.7126557   -2.9409516  0.043214542   -3.7126557   0.77170418   424551 
 1307000   0.64287651   -3.7130923   -3.7130923    -2.941974   0.06126307   -3.7130923   0.77111837   424551 
 1308000   0.64211289   -3.7119291   -3.7119291   -2.9417267  0.058020695   -3.7119291   0.77020243   424551 
 1309000   0.64250991   -3.7128724   -3.7128724   -2.9421937  0.055009149   -3.7128724   0.77067865   424551 
 1310000   0.64203038   -3.7123927   -3.7123927   -2.9422892  0.057371746   -3.7123927   0.77010346   424551 
 1311000   0.64229995   -3.7119398   -3.7119398    -2.941513  0.039765816   -3.7119398   0.77042681   424551 
 1312000   0.64331198   -3.7132514   -3.7132514   -2.9416107  0.051262174   -3.7132514   0.77164072   424551 
 1313000   0.64396997   -3.7147905   -3.7147905   -2.9423606   0.05306803   -3.7147905   0.77242996   424551 
 1314000    0.6425482   -3.7127025   -3.7127025    -2.941978   0.07209004   -3.7127025   0.77072457   424551 
 1315000   0.64289803    -3.713194    -3.713194   -2.9420498  0.052990758    -3.713194   0.77114418   424551 
 1316000   0.64439373   -3.7150406   -3.7150406   -2.9421023  0.064868489   -3.7150406   0.77293826   424551 
 1317000   0.64463139   -3.7150206   -3.7150206   -2.9417973   0.05367286   -3.7150206   0.77322332   424551 
 1318000   0.64522233   -3.7159151   -3.7159151    -2.941983   0.06416624   -3.7159151   0.77393214   424551 
 1319000   0.64400208   -3.7146243   -3.7146243   -2.9421558  0.044616242   -3.7146243   0.77246847   424551 
 1320000   0.64434275   -3.7152038   -3.7152038   -2.9423267  0.048845012   -3.7152038    0.7728771   424551 
 1321000   0.64336823    -3.713883    -3.713883   -2.9421749  0.055963278    -3.713883   0.77170818   424551 
 1322000   0.64271931   -3.7143188   -3.7143188   -2.9433889  0.061673758   -3.7143188   0.77092982   424551 
 1323000   0.64268855   -3.7143585   -3.7143585   -2.9434656  0.072637536   -3.7143585   0.77089292   424551 
 1324000   0.64312184   -3.7146505   -3.7146505   -2.9432378  0.066740626   -3.7146505   0.77141264   424551 
 1325000   0.64259637   -3.7146246   -3.7146246   -2.9438423  0.057237402   -3.7146246   0.77078235   424551 
 1326000   0.64309843   -3.7147742   -3.7147742   -2.9433896  0.052609721   -3.7147742   0.77138456   424551 
 1327000   0.64246058   -3.7146814   -3.7146814   -2.9440619  0.050879318   -3.7146814   0.77061948   424551 
 1328000   0.64235812   -3.7144381   -3.7144381   -2.9439415  0.070124804   -3.7144381   0.77049657   424551 
 1329000   0.64217531   -3.7145835   -3.7145835   -2.9443063  0.058940438   -3.7145835   0.77027729   424551 
 1330000   0.64319652   -3.7156375   -3.7156375   -2.9441353  0.047160434   -3.7156375   0.77150222   424551 
 1331000   0.64194809   -3.7147851   -3.7147851   -2.9447803  0.056113478   -3.7147851   0.77000476   424551 
 1332000   0.64253111   -3.7153494   -3.7153494   -2.9446453  0.070536534   -3.7153494   0.77070407   424551 
 1333000   0.64308174   -3.7160632   -3.7160632   -2.9446986  0.057492883   -3.7160632   0.77136454   424551 
 1334000   0.64285104   -3.7158293   -3.7158293   -2.9447415  0.064835693   -3.7158293   0.77108782   424551 
 1335000   0.64276233   -3.7168925   -3.7168925   -2.9459111  0.053354503   -3.7168925   0.77098142   424551 
 1336000   0.64262862   -3.7175833   -3.7175833   -2.9467622    0.0501724   -3.7175833   0.77082104   424551 
 1337000   0.64203671   -3.7168861   -3.7168861   -2.9467751  0.057753121   -3.7168861   0.77011105   424551 
 1338000   0.64289287   -3.7179598   -3.7179598   -2.9468218   0.06681916   -3.7179598     0.771138   424551 
 1339000   0.64111583   -3.7156736   -3.7156736   -2.9466672   0.05685729   -3.7156736   0.76900647   424551 
 1340000   0.64299017   -3.7188994   -3.7188994   -2.9476447  0.075397767   -3.7188994    0.7712547   424551 
 1341000    0.6415376   -3.7176827   -3.7176827   -2.9481704   0.04785402   -3.7176827   0.76951238   424551 
 1342000   0.64152095   -3.7174312   -3.7174312   -2.9479388  0.054357424   -3.7174312    0.7694924   424551 
 1343000   0.64129442   -3.7178149   -3.7178149   -2.9485942  0.060323484   -3.7178149   0.76922068   424551 
 1344000   0.64133023   -3.7172161   -3.7172161   -2.9479524  0.064249592   -3.7172161   0.76926365   424551 
 1345000   0.64141627   -3.7174151   -3.7174151   -2.9480483  0.053910388   -3.7174151   0.76936684   424551 
 1346000    0.6416512   -3.7176414   -3.7176414   -2.9479928  0.069293461   -3.7176414   0.76964864   424551 
 1347000   0.64160459   -3.7184149   -3.7184149   -2.9488222   0.05518729   -3.7184149   0.76959273   424551 
 1348000   0.64220712   -3.7189611   -3.7189611   -2.9486457   0.05492065   -3.7189611   0.77031545   424551 
 1349000   0.64100774   -3.7182752   -3.7182752   -2.9493984  0.068420959   -3.7182752   0.76887682   424551 
 1350000   0.64165174   -3.7186504   -3.7186504   -2.9490011  0.071276514   -3.7186504   0.76964929   424551 
 1351000   0.64111631   -3.7175438   -3.7175438   -2.9485367  0.060706531   -3.7175438   0.76900705   424551 
 1352000   0.64222566   -3.7190991   -3.7190991   -2.9487614  0.060493827   -3.7190991   0.77033769   424551 
 1353000   0.64113445   -3.7187328   -3.7187328    -2.949704  0.050842675   -3.7187328   0.76902881   424551 
 1354000   0.64130131    -3.719002    -3.719002   -2.9497731  0.055922264    -3.719002   0.76922895   424551 
 1355000   0.64151858   -3.7199818   -3.7199818   -2.9504923  0.070388198   -3.7199818   0.76948957   424551 
 1356000   0.63965707   -3.7183468   -3.7183468   -2.9510901  0.067096915   -3.7183468   0.76725671   424551 
 1357000   0.64056166   -3.7187959   -3.7187959   -2.9504541  0.049081599   -3.7187959   0.76834176   424551 
 1358000   0.64208203   -3.7210088   -3.7210088   -2.9508434  0.052623816   -3.7210088   0.77016541   424551 
 1359000   0.64088734   -3.7191094   -3.7191094    -2.950377  0.052396649   -3.7191094    0.7687324   424551 
 1360000   0.64052842   -3.7195227   -3.7195227   -2.9512208   0.04284142   -3.7195227   0.76830188   424551 
 1361000   0.64145465    -3.720964    -3.720964   -2.9515511  0.070799454    -3.720964   0.76941288   424551 
 1362000   0.64161492   -3.7207254   -3.7207254   -2.9511203  0.045269066   -3.7207254   0.76960511   424551 
 1363000   0.64089748   -3.7202417   -3.7202417   -2.9514971   0.05451567   -3.7202417   0.76874456   424551 
 1364000   0.64204487   -3.7224869   -3.7224869   -2.9523661  0.055459034   -3.7224869   0.77012083   424551 
 1365000   0.64172235   -3.7214179   -3.7214179    -2.951684  0.061592829   -3.7214179   0.76973398   424551 
 1366000    0.6403271   -3.7203767   -3.7203767   -2.9523163  0.058974645   -3.7203767   0.76806041   424551 
 1367000   0.64072844   -3.7218406   -3.7218406   -2.9532988  0.058992871   -3.7218406    0.7685418   424551 
 1368000   0.64142582   -3.7224049   -3.7224049   -2.9530266  0.054019637   -3.7224049    0.7693783   424551 
 1369000   0.64035235   -3.7220306   -3.7220306   -2.9539399  0.057742721   -3.7220306   0.76809069   424551 
 1370000   0.64169298   -3.7241439   -3.7241439   -2.9544451  0.046086556   -3.7241439   0.76969875   424551 
 1371000   0.64006149    -3.721821    -3.721821   -2.9540792   0.06762643    -3.721821   0.76774181   424551 
 1372000   0.64141758   -3.7239512   -3.7239512   -2.9545828  0.052997879   -3.7239512   0.76936841   424551 
 1373000   0.64120739   -3.7235525   -3.7235525   -2.9544362  0.048891881   -3.7235525    0.7691163   424551 
 1374000   0.63987282   -3.7230066   -3.7230066   -2.9554911  0.058731993   -3.7230066   0.76751551   424551 
 1375000   0.63894738      -3.7222      -3.7222   -2.9557946   0.04951234      -3.7222   0.76640546   424551 
 1376000   0.63989598   -3.7233442   -3.7233442   -2.9558009  0.053896694   -3.7233442   0.76754328   424551 
 1377000   0.64024868   -3.7237304   -3.7237304    -2.955764  0.052720344   -3.7237304   0.76796634   424551 
 1378000   0.64036676   -3.7239322   -3.7239322   -2.9558242  0.074567141   -3.7239322   0.76810798   424551 
 1379000   0.64031751   -3.7241371   -3.7241371   -2.9560882   0.04101873   -3.7241371    0.7680489   424551 
 1380000   0.64068893   -3.7248529   -3.7248529   -2.9563585  0.052333219   -3.7248529   0.76849441   424551 
 1381000   0.64020693   -3.7251857   -3.7251857   -2.9572694  0.051961372   -3.7251857   0.76791627   424551 
 1382000   0.64079414   -3.7256692   -3.7256692   -2.9570486  0.044865618   -3.7256692   0.76862061   424551 
 1383000   0.63972693   -3.7248998   -3.7248998   -2.9575593  0.057941838   -3.7248998   0.76734052   424551 
 1384000   0.64153697   -3.7262206   -3.7262206   -2.9567089  0.047866442   -3.7262206   0.76951162   424551 
 1385000   0.64086932   -3.7261554   -3.7261554   -2.9574446  0.064208966   -3.7261554   0.76871079   424551 
 1386000   0.64156109      -3.7265      -3.7265   -2.9569595  0.049870963      -3.7265   0.76954055   424551 
 1387000   0.64109788   -3.7263205   -3.7263205   -2.9573355  0.062249213   -3.7263205   0.76898494   424551 
 1388000    0.6401714   -3.7262883   -3.7262883   -2.9584147  0.070297485   -3.7262883   0.76787364   424551 
 1389000   0.64093822   -3.7268519   -3.7268519   -2.9580585  0.056404695   -3.7268519   0.76879343   424551 
 1390000   0.64054656   -3.7277808   -3.7277808   -2.9594571  0.059292507   -3.7277808   0.76832364   424551 
 1391000   0.63992109   -3.7271471   -3.7271471   -2.9595737  0.065912817   -3.7271471   0.76757341   424551 
 1392000   0.64059097   -3.7282072   -3.7282072   -2.9598303  0.056021996   -3.7282072   0.76837691   424551 
 1393000   0.63891236   -3.7262661   -3.7262661   -2.9599027  0.047709043   -3.7262661   0.76636345   424551 
 1394000   0.64077045   -3.7285006   -3.7285006   -2.9599084  0.056287455   -3.7285006    0.7685922   424551 
 1395000   0.63923358   -3.7267167   -3.7267167    -2.959968  0.050507288   -3.7267167   0.76674875   424551 
 1396000    0.6393706   -3.7264415   -3.7264415   -2.9595284  0.039540414   -3.7264415    0.7669131   424551 
 1397000   0.64034327   -3.7274703   -3.7274703   -2.9593905  0.060595433   -3.7274703    0.7680798   424551 
 1398000   0.63902188    -3.726271    -3.726271   -2.9597762  0.047512777    -3.726271   0.76649481   424551 
 1399000    0.6404255   -3.7283299   -3.7283299   -2.9601515  0.055725854   -3.7283299   0.76817843   424551 
 1400000   0.63830026   -3.7262241   -3.7262241   -2.9605948  0.072193694   -3.7262241   0.76562925   424551 
 1401000   0.64047669   -3.7283431   -3.7283431   -2.9601033  0.044319375   -3.7283431   0.76823983   424551 
 1402000   0.63951243   -3.7281569   -3.7281569   -2.9610737  0.060233554   -3.7281569   0.76708322   424551 
 1403000   0.64087805   -3.7305917   -3.7305917   -2.9618704  0.055151679   -3.7305917   0.76872126   424551 
 1404000   0.64011999   -3.7298759   -3.7298759   -2.9620639  0.063857202   -3.7298759   0.76781198   424551 
 1405000   0.63927851   -3.7288725   -3.7288725   -2.9620699  0.058953949   -3.7288725   0.76680263   424551 
 1406000   0.63828209    -3.728623    -3.728623   -2.9630155  0.049164405    -3.728623   0.76560746   424551 
 1407000   0.63981347   -3.7292988   -3.7292988   -2.9618545  0.060256134   -3.7292988   0.76744432   424551 
 1408000   0.63954599   -3.7289161   -3.7289161   -2.9617926  0.058269445   -3.7289161   0.76712348   424551 
 1409000   0.64085581   -3.7307721   -3.7307721   -2.9620775  0.051710532   -3.7307721   0.76869458   424551 
 1410000   0.63831509   -3.7289968   -3.7289968   -2.9633497  0.065636635   -3.7289968   0.76564703   424551 
 1411000   0.64021065   -3.7318792   -3.7318792   -2.9639585  0.054276872   -3.7318792   0.76792073   424551 
 1412000   0.63772467   -3.7284809   -3.7284809   -2.9635421  0.054389105   -3.7284809   0.76493884   424551 
 1413000   0.63999216   -3.7309716   -3.7309716    -2.963313  0.062545293   -3.7309716   0.76765865   424551 
 1414000   0.63952407   -3.7309798   -3.7309798   -2.9638826  0.056102887   -3.7309798   0.76709718   424551 
 1415000   0.63873073    -3.730486    -3.730486   -2.9643404  0.058364863    -3.730486   0.76614559   424551 
 1416000   0.63935205   -3.7315384   -3.7315384   -2.9646476  0.057017919   -3.7315384   0.76689085   424551 
 1417000   0.64034867   -3.7314289   -3.7314289   -2.9633426  0.055416499   -3.7314289   0.76808627   424551 
 1418000   0.63958731   -3.7312393   -3.7312393   -2.9640663  0.058306949   -3.7312393   0.76717303   424551 
 1419000   0.63996763   -3.7317951   -3.7317951   -2.9641659  0.058608817   -3.7317951   0.76762922   424551 
 1420000   0.63828445   -3.7304431   -3.7304431   -2.9648329  0.058895505   -3.7304431   0.76561029   424551 
 1421000   0.63810059   -3.7311317   -3.7311317    -2.965742  0.045820727   -3.7311317   0.76538975   424551 
 1422000   0.63884928   -3.7320112   -3.7320112   -2.9657234  0.059710141   -3.7320112   0.76628779   424551 
 1423000   0.63700736   -3.7297395   -3.7297395   -2.9656611  0.043616709   -3.7297395   0.76407843   424551 
 1424000   0.63734484   -3.7309421   -3.7309421   -2.9664589  0.043488108   -3.7309421   0.76448324   424551 
 1425000   0.64051869   -3.7340758   -3.7340758   -2.9657856  0.062793551   -3.7340758   0.76829021   424551 
 1426000   0.63819682   -3.7314029   -3.7314029   -2.9658977  0.063726437   -3.7314029   0.76550518   424551 
 1427000   0.63801159   -3.7317307   -3.7317307   -2.9664477  0.060721044   -3.7317307   0.76528299   424551 
 1428000   0.63751725    -3.731979    -3.731979   -2.9672889  0.050609625    -3.731979   0.76469005   424551 
 1429000   0.63723798   -3.7321666   -3.7321666   -2.9678116  0.062986076   -3.7321666   0.76435506   424551 
 1430000   0.63894263   -3.7350454   -3.7350454   -2.9686456  0.055364001   -3.7350454   0.76639976   424551 
 1431000   0.63845027    -3.733883    -3.733883   -2.9680738  0.048437907    -3.733883   0.76580918   424551 
 1432000   0.63800433    -3.734245    -3.734245   -2.9689707  0.049762304    -3.734245   0.76527428   424551 
 1433000   0.63817723   -3.7346283   -3.7346283   -2.9691466  0.057691657   -3.7346283   0.76548168   424551 
 1434000   0.63879792    -3.735457    -3.735457   -2.9692308  0.050540149    -3.735457   0.76622618   424551 
 1435000   0.63862193   -3.7350355   -3.7350355   -2.9690204  0.047253907   -3.7350355   0.76601509   424551 
 1436000   0.63925613   -3.7363265   -3.7363265   -2.9695507  0.066678765   -3.7363265    0.7667758   424551 
 1437000   0.63862958   -3.7358827   -3.7358827   -2.9698584   0.05760964   -3.7358827   0.76602427   424551 
 1438000   0.63758665   -3.7340793   -3.7340793    -2.969306  0.061919398   -3.7340793   0.76477329   424551 
 1439000   0.63806813    -3.735532    -3.735532   -2.9701812  0.040491527    -3.735532   0.76535081   424551 
 1440000   0.63795323   -3.7351061   -3.7351061   -2.9698931  0.039919044   -3.7351061     0.765213   424551 
 1441000   0.63782564    -3.735146    -3.735146    -2.970086  0.047814127    -3.735146   0.76505995   424551 
 1442000   0.63739102   -3.7353198   -3.7353198   -2.9707812   0.06015856   -3.7353198   0.76453863   424551 
 1443000    0.6375613   -3.7358534   -3.7358534   -2.9711105  0.061038989   -3.7358534   0.76474288   424551 
 1444000   0.63808828   -3.7365928   -3.7365928   -2.9712178  0.050705902   -3.7365928   0.76537498   424551 
 1445000   0.63783218   -3.7370507   -3.7370507   -2.9719829  0.053874902   -3.7370507    0.7650678   424551 
 1446000   0.63781176   -3.7368078   -3.7368078   -2.9717645  0.059882436   -3.7368078    0.7650433   424551 
 1447000   0.63860441   -3.7377718   -3.7377718   -2.9717777  0.063725024   -3.7377718   0.76599408   424551 
 1448000   0.63780689   -3.7371843   -3.7371843   -2.9721469  0.058322041   -3.7371843   0.76503746   424551 
 1449000   0.63719771   -3.7359473   -3.7359473   -2.9716405  0.060621896   -3.7359473   0.76430676   424551 
 1450000   0.63806321   -3.7371385   -3.7371385   -2.9717936  0.055385926   -3.7371385   0.76534491   424551 
 1451000   0.63648484   -3.7358045   -3.7358045   -2.9723528  0.059544275   -3.7358045   0.76345168   424551 
 1452000   0.63779789   -3.7369855   -3.7369855   -2.9719588  0.057784784   -3.7369855   0.76502666   424551 
 1453000   0.63758976   -3.7363261   -3.7363261    -2.971549  0.064000937   -3.7363261   0.76477701   424551 
 1454000    0.6387943   -3.7378942   -3.7378942   -2.9716724  0.070158158   -3.7378942   0.76622184   424551 
 1455000   0.63846762   -3.7374558   -3.7374558   -2.9716258  0.061165832   -3.7374558   0.76582999   424551 
 1456000    0.6377059   -3.7373726   -3.7373726   -2.9724563   0.05395636   -3.7373726   0.76491632   424551 
 1457000   0.63825301    -3.737703    -3.737703   -2.9721304   0.06297765    -3.737703   0.76557257   424551 
 1458000   0.63700895   -3.7372892   -3.7372892   -2.9732088  0.058921643   -3.7372892   0.76408035   424551 
 1459000   0.63643137   -3.7366298   -3.7366298   -2.9732422  0.068059332   -3.7366298   0.76338754   424551 
 1460000   0.63644234   -3.7368083   -3.7368083   -2.9734076  0.045351906   -3.7368083   0.76340071   424551 
 1461000   0.63742128    -3.738117    -3.738117    -2.973542  0.059427905    -3.738117   0.76457492   424551 
 1462000   0.63734138   -3.7387675   -3.7387675   -2.9742885  0.056259053   -3.7387675   0.76447908   424551 
 1463000   0.63766667   -3.7388409   -3.7388409   -2.9739716  0.065964814   -3.7388409   0.76486926   424551 
 1464000   0.63823844   -3.7404658   -3.7404658   -2.9749107  0.045360805   -3.7404658    0.7655551   424551 
 1465000   0.63780139   -3.7398186   -3.7398186   -2.9747878  0.066657165   -3.7398186   0.76503087   424551 
 1466000   0.63746492   -3.7400751   -3.7400751   -2.9754478  0.072656043   -3.7400751   0.76462727   424551 
 1467000   0.63664945   -3.7393302   -3.7393302    -2.975681  0.061421254   -3.7393302   0.76364914   424551 
 1468000   0.63702641   -3.7393755   -3.7393755   -2.9752742  0.047326324   -3.7393755   0.76410128   424551 
 1469000   0.63698692   -3.7399371   -3.7399371   -2.9758832  0.055968459   -3.7399371   0.76405392   424551 
 1470000   0.63696756   -3.7398795   -3.7398795   -2.9758488  0.062110305   -3.7398795    0.7640307   424551 
 1471000   0.63640517   -3.7392668   -3.7392668   -2.9759107  0.055844499   -3.7392668   0.76335612   424551 
 1472000    0.6376335   -3.7407495   -3.7407495     -2.97592  0.056975913   -3.7407495   0.76482948   424551 
 1473000   0.63751509   -3.7409608   -3.7409608   -2.9762733   0.03752521   -3.7409608   0.76468745   424551 
 1474000    0.6369868   -3.7408714   -3.7408714   -2.9768176  0.042134411   -3.7408714   0.76405378   424551 
 1475000   0.63656654   -3.7398512   -3.7398512   -2.9763016   0.04991054   -3.7398512   0.76354968   424551 
 1476000   0.63742436   -3.7412054   -3.7412054   -2.9766268    0.0527039   -3.7412054   0.76457862   424551 
 1477000   0.63643678   -3.7401414   -3.7401414   -2.9767474  0.065294867   -3.7401414   0.76339404   424551 
 1478000   0.63584147   -3.7404746   -3.7404746   -2.9777946  0.054377669   -3.7404746   0.76267997   424551 
 1479000   0.63586442   -3.7409199   -3.7409199   -2.9782124  0.057062574   -3.7409199   0.76270751   424551 
 1480000   0.63604915   -3.7407267   -3.7407267   -2.9777976  0.062859054   -3.7407267   0.76292908   424551 
 1481000   0.63620021   -3.7409547   -3.7409547   -2.9778444  0.052924068   -3.7409547   0.76311027   424551 
 1482000     0.635803   -3.7399903   -3.7399903   -2.9773564  0.060091457   -3.7399903   0.76263383   424551 
 1483000   0.63555937   -3.7402922   -3.7402922   -2.9779506  0.056637133   -3.7402922    0.7623416   424551 
 1484000   0.63560285   -3.7402435   -3.7402435   -2.9778498  0.050173042   -3.7402435   0.76239376   424551 
 1485000   0.63646564   -3.7407956   -3.7407956    -2.977367  0.034205398   -3.7407956   0.76342866   424551 
 1486000   0.63671954   -3.7416484   -3.7416484   -2.9779152  0.063424409   -3.7416484   0.76373321   424551 
 1487000   0.63639161   -3.7417177   -3.7417177   -2.9783778  0.056704288   -3.7417177   0.76333986   424551 
 1488000   0.63613975   -3.7413043   -3.7413043   -2.9782665  0.053262396   -3.7413043   0.76303775   424551 
 1489000   0.63716428   -3.7430244   -3.7430244   -2.9787578  0.059196157   -3.7430244   0.76426666   424551 
 1490000   0.63737352   -3.7432943   -3.7432943   -2.9787767  0.049468347   -3.7432943   0.76451764   424551 
 1491000   0.63654319   -3.7428837   -3.7428837    -2.979362  0.057275999   -3.7428837   0.76352167   424551 
 1492000   0.63706271   -3.7431012   -3.7431012   -2.9789564  0.057171384   -3.7431012   0.76414483   424551 
 1493000   0.63746569   -3.7432448   -3.7432448   -2.9786166  0.049211241   -3.7432448    0.7646282   424551 
 1494000    0.6370182     -3.74316     -3.74316   -2.9790686  0.055499737     -3.74316   0.76409144   424551 
 1495000    0.6368995   -3.7441797   -3.7441797   -2.9802306   0.05761805   -3.7441797   0.76394907   424551 
 1496000   0.63623964   -3.7423497   -3.7423497   -2.9791921  0.046724914   -3.7423497   0.76315757   424551 
 1497000   0.63752658   -3.7435544   -3.7435544   -2.9788532  0.050316651   -3.7435544   0.76470124   424551 
 1498000   0.63704657   -3.7430571   -3.7430571   -2.9789316  0.031875388   -3.7430571   0.76412547   424551 
 1499000   0.63566821   -3.7423775   -3.7423775   -2.9799054  0.046835162   -3.7423775   0.76247215   424551 
 1500000   0.63738073   -3.7450068   -3.7450068   -2.9804805  0.047907584   -3.7450068   0.76452629   424551 
 1501000   0.63756283   -3.7446188   -3.7446188   -2.9798741   0.05555984   -3.7446188   0.76474472   424551 
 1502000   0.63737337   -3.7448067   -3.7448067   -2.9802893   0.04564124   -3.7448067   0.76451746   424551 
 1503000   0.63463843   -3.7420813   -3.7420813   -2.9808443  0.045893077   -3.7420813   0.76123696   424551 
 1504000   0.63559871   -3.7431841   -3.7431841   -2.9807953   0.06133587   -3.7431841   0.76238879   424551 
 1505000   0.63693074   -3.7444476   -3.7444476   -2.9804611  0.056370984   -3.7444476   0.76398654   424551 
 1506000    0.6354982   -3.7433267   -3.7433267   -2.9810584  0.058758086   -3.7433267   0.76226823   424551 
 1507000   0.63714105   -3.7453885   -3.7453885   -2.9811497  0.056488329   -3.7453885    0.7642388   424551 
 1508000    0.6371054   -3.7455254   -3.7455254   -2.9813293  0.057255991   -3.7455254   0.76419604   424551 
 1509000    0.6374834   -3.7459745   -3.7459745    -2.981325  0.055162905   -3.7459745   0.76464944   424551 
 1510000   0.63618489     -3.74496     -3.74496   -2.9818681  0.068647558     -3.74496   0.76309191   424551 
 1511000   0.63542114   -3.7436061   -3.7436061   -2.9814303  0.056475427   -3.7436061    0.7621758   424551 
 1512000   0.63597746   -3.7450351   -3.7450351   -2.9821921  0.057675887   -3.7450351   0.76284309   424551 
 1513000   0.63588109   -3.7444798   -3.7444798   -2.9817523  0.045752589   -3.7444798   0.76272749   424551 
 1514000   0.63595884   -3.7449327   -3.7449327   -2.9821119  0.041109618   -3.7449327   0.76282075   424551 
 1515000   0.63603557   -3.7454535   -3.7454535   -2.9825407  0.062310605   -3.7454535    0.7629128   424551 
 1516000   0.63610246   -3.7460059   -3.7460059   -2.9830128  0.055228407   -3.7460059   0.76299303   424551 
 1517000   0.63652162   -3.7465961   -3.7465961   -2.9831003  0.054466216   -3.7465961    0.7634958   424551 
 1518000   0.63569229    -3.746102    -3.746102   -2.9836009  0.047372592    -3.746102   0.76250104   424551 
 1519000   0.63483257   -3.7452216   -3.7452216   -2.9837517  0.055991391   -3.7452216   0.76146982   424551 
 1520000   0.63551414   -3.7467341   -3.7467341   -2.9844468  0.042021518   -3.7467341   0.76228735   424551 
 1521000   0.63423006   -3.7455849   -3.7455849   -2.9848377  0.045189476   -3.7455849   0.76074712   424551 
 1522000   0.63398368   -3.7460342   -3.7460342   -2.9855826  0.059377717   -3.7460342   0.76045159   424551 
 1523000   0.63540827   -3.7470302   -3.7470302   -2.9848699  0.050037607   -3.7470302   0.76216036   424551 
 1524000   0.63512714   -3.7476963   -3.7476963   -2.9858731   0.05148238   -3.7476963   0.76182315   424551 
 1525000   0.63586721   -3.7487661   -3.7487661   -2.9860552  0.051740078   -3.7487661   0.76271085   424551 
 1526000   0.63613102   -3.7498076   -3.7498076   -2.9867803  0.055519203   -3.7498076   0.76302728   424551 
 1527000   0.63544261   -3.7496299   -3.7496299   -2.9874283  0.058566473   -3.7496299   0.76220155   424551 
 1528000   0.63436178   -3.7482029   -3.7482029   -2.9872978  0.065418177   -3.7482029   0.76090511   424551 
 1529000   0.63514932   -3.7491176   -3.7491176   -2.9872679  0.052725785   -3.7491176   0.76184975   424551 
 1530000   0.63574531   -3.7495777   -3.7495777   -2.9870131  0.061883207   -3.7495777   0.76256463   424551 
 1531000   0.63584255   -3.7502835   -3.7502835   -2.9876022  0.056033736   -3.7502835   0.76268127   424551 
 1532000   0.63578673   -3.7501813   -3.7501813    -2.987567  0.071006132   -3.7501813   0.76261431   424551 
 1533000   0.63454005   -3.7495795   -3.7495795   -2.9884605  0.064120129   -3.7495795   0.76111895   424551 
 1534000   0.63355687   -3.7488225   -3.7488225   -2.9888829  0.050650222   -3.7488225   0.75993964   424551 
 1535000   0.63503832   -3.7504854   -3.7504854   -2.9887688   0.05045713   -3.7504854   0.76171661   424551 
 1536000   0.63341594   -3.7483651   -3.7483651   -2.9885945  0.050143552   -3.7483651    0.7597706   424551 
 1537000   0.63413947    -3.750373    -3.750373   -2.9897345  0.043236449    -3.750373   0.76063846   424551 
 1538000   0.63403212   -3.7505999   -3.7505999   -2.9900902  0.063750703   -3.7505999   0.76050969   424551 
 1539000   0.63417384    -3.750482    -3.750482   -2.9898024  0.068568359    -3.750482   0.76067969   424551 
 1540000   0.63548937   -3.7521726   -3.7521726   -2.9899149  0.056235043   -3.7521726   0.76225764   424551 
 1541000   0.63569791   -3.7527686   -3.7527686   -2.9902608  0.063945955   -3.7527686   0.76250778   424551 
 1542000   0.63450038   -3.7520632   -3.7520632   -2.9909919  0.055453282   -3.7520632   0.76107136   424551 
 1543000   0.63500744    -3.752139    -3.752139   -2.9904595  0.038206637    -3.752139   0.76167957   424551 
 1544000   0.63502321   -3.7508895   -3.7508895   -2.9891911   0.05250657   -3.7508895   0.76169848   424551 
 1545000    0.6371622   -3.7533889   -3.7533889   -2.9891247   0.05352666   -3.7533889   0.76426417   424551 
 1546000    0.6356731   -3.7515996   -3.7515996   -2.9891216  0.061895913   -3.7515996   0.76247802   424551 
 1547000   0.63539987   -3.7523868   -3.7523868   -2.9902365  0.053723601   -3.7523868   0.76215029   424551 
 1548000   0.63428766   -3.7506835   -3.7506835   -2.9898673   0.05744362   -3.7506835    0.7608162   424551 
 1549000   0.63451482   -3.7508698   -3.7508698   -2.9897811     0.045646   -3.7508698   0.76108869   424551 
 1550000   0.63550529   -3.7523127   -3.7523127    -2.990036  0.039471638   -3.7523127   0.76227673   424551 
 1551000   0.63482888   -3.7507528   -3.7507528   -2.9892874   0.05269689   -3.7507528   0.76146539   424551 
 1552000   0.63533999   -3.7508024   -3.7508024   -2.9887239  0.047994822   -3.7508024   0.76207846   424551 
 1553000    0.6330524   -3.7490587   -3.7490587   -2.9897242  0.058257394   -3.7490587   0.75933454   424551 
 1554000   0.63568513   -3.7526878   -3.7526878   -2.9901954  0.055648765   -3.7526878   0.76249245   424551 
 1555000   0.63463163   -3.7519393   -3.7519393   -2.9907105  0.045336662   -3.7519393   0.76122879   424551 
 1556000   0.63480208   -3.7517122   -3.7517122    -2.990279  0.047635839   -3.7517122   0.76143325   424551 
 1557000   0.63507085   -3.7522069   -3.7522069   -2.9904513  0.057871293   -3.7522069   0.76175562   424551 
 1558000   0.63465908   -3.7521511   -3.7521511   -2.9908894  0.060126163   -3.7521511   0.76126172   424551 
 1559000   0.63506109   -3.7521232   -3.7521232   -2.9903793  0.043053694   -3.7521232   0.76174392   424551 
 1560000   0.63464243   -3.7519694   -3.7519694   -2.9907276  0.055778489   -3.7519694   0.76124175   424551 
 1561000    0.6339913   -3.7514284   -3.7514284   -2.9909677  0.064353207   -3.7514284   0.76046073   424551 
 1562000   0.63373805   -3.7511725   -3.7511725   -2.9910156  0.065189164   -3.7511725   0.76015696   424551 
 1563000   0.63306456   -3.7507502   -3.7507502   -2.9914011  0.056268179   -3.7507502   0.75934912   424551 
 1564000   0.63376675    -3.751334    -3.751334   -2.9911426   0.06353834    -3.751334   0.76019139   424551 
 1565000   0.63585252   -3.7542878   -3.7542878   -2.9915946  0.044216289   -3.7542878   0.76269323   424551 
 1566000   0.63408012    -3.752747    -3.752747   -2.9921797  0.046776907    -3.752747   0.76056727   424551 
 1567000   0.63487213   -3.7537994   -3.7537994   -2.9922821  0.060006302   -3.7537994   0.76151728   424551 
 1568000   0.63288193   -3.7512144   -3.7512144   -2.9920844  0.049415852   -3.7512144   0.75913006   424551 
 1569000   0.63357498   -3.7526305   -3.7526305   -2.9926692  0.060269505   -3.7526305   0.75996136   424551 
 1570000   0.63345534   -3.7532249   -3.7532249   -2.9934071  0.060237094   -3.7532249   0.75981785   424551 
 1571000   0.63388536   -3.7535655   -3.7535655   -2.9932318  0.054335585   -3.7535655   0.76033365   424551 
 1572000   0.63429859   -3.7542077   -3.7542077   -2.9933783  0.051543684   -3.7542077   0.76082932   424551 
 1573000   0.63323004   -3.7528547   -3.7528547    -2.993307   0.04805576   -3.7528547   0.75954762   424551 
 1574000    0.6337549   -3.7536159   -3.7536159   -2.9934387   0.05137015   -3.7536159   0.76017717   424551 
 1575000   0.63377967   -3.7544478   -3.7544478   -2.9942409  0.059136967   -3.7544478   0.76020688   424551 
 1576000   0.63276676   -3.7546096   -3.7546096   -2.9956177  0.044454423   -3.7546096   0.75899192   424551 
 1577000   0.63384659   -3.7548256   -3.7548256   -2.9945385  0.052315805   -3.7548256   0.76028715   424551 
 1578000   0.63375078   -3.7551652   -3.7551652   -2.9949929   0.05728492   -3.7551652   0.76017223   424551 
 1579000   0.63380297   -3.7557902   -3.7557902   -2.9955554  0.050870612   -3.7557902   0.76023484   424551 
 1580000   0.63280196   -3.7547317   -3.7547317   -2.9956975  0.051723274   -3.7547317   0.75903414   424551 
 1581000   0.63363745   -3.7571011   -3.7571011   -2.9970648  0.057956796   -3.7571011   0.76003629   424551 
 1582000   0.63372261   -3.7567677   -3.7567677   -2.9966293  0.070057505   -3.7567677   0.76013844   424551 
 1583000   0.63367969   -3.7569737   -3.7569737   -2.9968867  0.050471933   -3.7569737   0.76008696   424551 
 1584000   0.63248403   -3.7565304   -3.7565304   -2.9978776  0.057302657   -3.7565304   0.75865279   424551 
 1585000   0.63278655   -3.7567715   -3.7567715   -2.9977558  0.046015182   -3.7567715   0.75901565   424551 
 1586000   0.63218513   -3.7565363   -3.7565363   -2.9982421  0.045323486   -3.7565363   0.75829426   424551 
 1587000   0.63284626   -3.7577178   -3.7577178   -2.9986305  0.055577849   -3.7577178   0.75908728   424551 
 1588000   0.63210725   -3.7563616   -3.7563616   -2.9981608  0.055886871   -3.7563616   0.75820085   424551 
 1589000   0.63240828   -3.7569852   -3.7569852   -2.9984233  0.050062034   -3.7569852   0.75856193   424551 
 1590000   0.63374893   -3.7585472   -3.7585472   -2.9983771  0.046569106   -3.7585472   0.76017002   424551 
 1591000   0.63334451   -3.7577467   -3.7577467   -2.9980618  0.049704672   -3.7577467   0.75968491   424551 
 1592000   0.63173675   -3.7562286   -3.7562286   -2.9984722  0.067003577   -3.7562286   0.75775644   424551 
 1593000   0.63284869   -3.7569844   -3.7569844   -2.9978942  0.048648428   -3.7569844    0.7590902   424551 
 1594000   0.63212835   -3.7569633   -3.7569633   -2.9987372   0.06586484   -3.7569633   0.75822616   424551 
 1595000    0.6338269   -3.7584181   -3.7584181   -2.9981546  0.059179755   -3.7584181   0.76026353   424551 
 1596000   0.63525158   -3.7601549   -3.7601549   -2.9981825  0.046552639   -3.7601549   0.76197241   424551 
 1597000     0.635224   -3.7605154   -3.7605154   -2.9985761  0.042313696   -3.7605154   0.76193933   424551 
 1598000   0.63277571   -3.7576625   -3.7576625   -2.9986598  0.048901745   -3.7576625   0.75900266   424551 
 1599000   0.63454445   -3.7596715   -3.7596715   -2.9985473  0.062840353   -3.7596715   0.76112423   424551 
 1600000   0.63234428   -3.7578492   -3.7578492   -2.9993641  0.048739273   -3.7578492   0.75848516   424551 
 1601000   0.63423542   -3.7602627   -3.7602627   -2.9995092  0.059236061   -3.7602627   0.76075355   424551 
 1602000   0.63263362   -3.7584272   -3.7584272    -2.999595  0.043642563   -3.7584272   0.75883222   424551 
 1603000    0.6320457   -3.7586317   -3.7586317   -3.0005047    0.0518879   -3.7586317   0.75812702   424551 
 1604000   0.63241997   -3.7592173   -3.7592173   -3.0006414  0.033759976   -3.7592173   0.75857595   424551 
 1605000   0.63171085   -3.7583194   -3.7583194   -3.0005941  0.055592234   -3.7583194   0.75772537   424551 
 1606000   0.63340106   -3.7596695   -3.7596695   -2.9999168  0.053459502   -3.7596695   0.75975274   424551 
 1607000   0.63289729   -3.7600623   -3.7600623   -3.0009138  0.038556869   -3.7600623   0.75914848   424551 
 1608000   0.63289303   -3.7605371   -3.7605371   -3.0013938  0.043747096   -3.7605371   0.75914337   424551 
 1609000   0.63328588   -3.7607516   -3.7607516    -3.001137  0.055299605   -3.7607516    0.7596146   424551 
 1610000   0.63322679   -3.7610293   -3.7610293   -3.0014856  0.046077053   -3.7610293   0.75954371   424551 
 1611000   0.63341961   -3.7621703   -3.7621703   -3.0023953  0.044862486   -3.7621703     0.759775   424551 
 1612000   0.63283407   -3.7613314   -3.7613314   -3.0022588  0.063934279   -3.7613314   0.75907266   424551 
 1613000    0.6311093     -3.75899     -3.75899   -3.0019861  0.052316412     -3.75899   0.75700383   424551 
 1614000   0.63108575   -3.7591838   -3.7591838   -3.0022082  0.068789024   -3.7591838   0.75697558   424551 
 1615000   0.63244459   -3.7598911   -3.7598911   -3.0012856  0.068483223   -3.7598911   0.75860549   424551 
 1616000   0.63360514   -3.7621757   -3.7621757   -3.0021782   0.05694557   -3.7621757   0.75999754   424551 
 1617000   0.63176028   -3.7607088   -3.7607088   -3.0029241  0.062772073   -3.7607088   0.75778466   424551 
 1618000   0.63212139   -3.7617558   -3.7617558    -3.003538  0.041452602   -3.7617558   0.75821781   424551 
 1619000   0.63143951    -3.760662    -3.760662   -3.0032621  0.055563295    -3.760662   0.75739991   424551 
 1620000   0.63217102   -3.7615927   -3.7615927   -3.0033154  0.049872712   -3.7615927   0.75827734   424551 
 1621000   0.63192222    -3.760966    -3.760966   -3.0029871  0.045494114    -3.760966   0.75797891   424551 
 1622000   0.63198956   -3.7611293   -3.7611293   -3.0030696   0.04400116   -3.7611293   0.75805968   424551 
 1623000     0.630791   -3.7597633   -3.7597633   -3.0031413  0.047498639   -3.7597633   0.75662204   424551 
 1624000    0.6304916   -3.7594002   -3.7594002   -3.0031373   0.04561111   -3.7594002   0.75626291   424551 
 1625000   0.63164601   -3.7608803   -3.7608803   -3.0032327  0.045515403   -3.7608803    0.7576476   424551 
 1626000   0.63168295   -3.7610542   -3.7610542   -3.0033623    0.0543195   -3.7610542   0.75769191   424551 
 1627000   0.63168737   -3.7614018   -3.7614018   -3.0037046  0.041578516   -3.7614018   0.75769721   424551 
 1628000   0.63073355   -3.7597392   -3.7597392    -3.003186  0.060104329   -3.7597392   0.75655312   424551 
 1629000   0.63223122   -3.7620501   -3.7620501   -3.0037005  0.048562049   -3.7620501   0.75834955   424551 
 1630000   0.63217097   -3.7620128   -3.7620128   -3.0037356  0.042560392   -3.7620128   0.75827728   424551 
 1631000   0.63306474   -3.7636268   -3.7636268   -3.0042774   0.04958345   -3.7636268   0.75934933   424551 
 1632000   0.63068005   -3.7609748   -3.7609748   -3.0044858  0.057583866   -3.7609748   0.75648895   424551 
 1633000    0.6328229   -3.7638726   -3.7638726   -3.0048133  0.039979982   -3.7638726   0.75905925   424551 
 1634000   0.63263118   -3.7637347   -3.7637347   -3.0049054  0.043924783   -3.7637347    0.7588293   424551 
 1635000   0.63262967   -3.7638425   -3.7638425   -3.0050151  0.039405248   -3.7638425   0.75882749   424551 
 1636000    0.6318115   -3.7625694   -3.7625694   -3.0047233  0.068852289   -3.7625694    0.7578461   424551 
 1637000   0.63228645   -3.7631877   -3.7631877   -3.0047719  0.046870752   -3.7631877   0.75841579   424551 
 1638000   0.63135344   -3.7631595   -3.7631595   -3.0058629  0.046807662   -3.7631595   0.75729666   424551 
 1639000   0.63255824    -3.764129    -3.764129   -3.0053872  0.064985952    -3.764129    0.7587418   424551 
 1640000   0.63202743   -3.7632695   -3.7632695   -3.0051643  0.058908012   -3.7632695   0.75810511   424551 
 1641000   0.63293288   -3.7646666   -3.7646666   -3.0054755  0.041647573   -3.7646666   0.75919117   424551 
 1642000   0.63280732   -3.7641492   -3.7641492   -3.0051087  0.058956555   -3.7641492   0.75904057   424551 
 1643000   0.63202113   -3.7633383   -3.7633383   -3.0052408  0.047950275   -3.7633383   0.75809755   424551 
 1644000   0.63153554   -3.7632742   -3.7632742   -3.0057591  0.062513638   -3.7632742   0.75751509   424551 
 1645000   0.63309137   -3.7652628   -3.7652628   -3.0058815  0.058059541   -3.7652628   0.75938129   424551 
 1646000   0.63210471     -3.76417     -3.76417   -3.0059722  0.044879872     -3.76417    0.7581978   424551 
 1647000   0.63187333   -3.7637036   -3.7637036   -3.0057834  0.050530069   -3.7637036   0.75792027   424551 
 1648000    0.6326582   -3.7645614   -3.7645614   -3.0056997   0.05187899   -3.7645614    0.7588617   424551 
 1649000   0.63215266    -3.764817    -3.764817   -3.0065617   0.05470804    -3.764817   0.75825532   424551 
 1650000   0.63184653   -3.7650425   -3.7650425   -3.0071543  0.056696986   -3.7650425   0.75788812   424551 
 1651000   0.63164976   -3.7647473   -3.7647473   -3.0070952  0.056219966   -3.7647473    0.7576521   424551 
 1652000   0.63193585   -3.7654456   -3.7654456   -3.0074504  0.051820521   -3.7654456   0.75799526   424551 
 1653000   0.63087899   -3.7636653   -3.7636653   -3.0069377   0.06083948   -3.7636653   0.75672758   424551 
 1654000   0.63075697   -3.7642051   -3.7642051   -3.0076239  0.050390092   -3.7642051   0.75658121   424551 
 1655000   0.63069424    -3.764916    -3.764916     -3.00841    0.0492842    -3.764916   0.75650597   424551 
 1656000   0.63176172   -3.7657764   -3.7657764     -3.00799  0.049718297   -3.7657764   0.75778639   424551 
 1657000   0.63047271   -3.7652478   -3.7652478   -3.0090076  0.049293248   -3.7652478   0.75624025   424551 
 1658000    0.6313146   -3.7658941   -3.7658941    -3.008644  0.056727642   -3.7658941   0.75725007   424551 
 1659000   0.63049405   -3.7650353   -3.7650353   -3.0087695  0.037140439   -3.7650353   0.75626585   424551 
 1660000   0.63140989    -3.766635    -3.766635   -3.0092706  0.046059295    -3.766635   0.75736438   424551 
 1661000   0.63240664   -3.7677271   -3.7677271   -3.0091671  0.046905079   -3.7677271   0.75855996   424551 
 1662000   0.63193431    -3.766969    -3.766969   -3.0089756  0.056948807    -3.766969   0.75799341   424551 
 1663000   0.63166554   -3.7670411   -3.7670411     -3.00937    0.0388696   -3.7670411   0.75767102   424551 
 1664000   0.63182816     -3.76766     -3.76766   -3.0097939  0.058366625     -3.76766   0.75786608   424551 
 1665000   0.63110487   -3.7671049   -3.7671049   -3.0101064  0.068731766   -3.7671049   0.75699851   424551 
 1666000   0.63070837   -3.7674979   -3.7674979    -3.010975  0.048901572   -3.7674979   0.75652292   424551 
 1667000   0.63120165   -3.7685931   -3.7685931   -3.0114785  0.048919298   -3.7685931   0.75711459   424551 
 1668000   0.62966003   -3.7670922   -3.7670922   -3.0118268  0.054384791   -3.7670922   0.75526545   424551 
 1669000    0.6302121   -3.7674621   -3.7674621   -3.0115344  0.054643439   -3.7674621   0.75592765   424551 
 1670000   0.63013615   -3.7661062   -3.7661062   -3.0102697  0.035953542   -3.7661062   0.75583655   424551 
 1671000   0.63136089    -3.767638    -3.767638   -3.0103324  0.065098581    -3.767638    0.7573056   424551 
 1672000   0.63046465   -3.7660812   -3.7660812   -3.0098506   0.04769742   -3.7660812   0.75623058   424551 
 1673000   0.63217264   -3.7683397   -3.7683397   -3.0100604  0.042114085   -3.7683397   0.75827928   424551 
 1674000   0.63050377   -3.7672865   -3.7672865    -3.011009  0.047514099   -3.7672865    0.7562775   424551 
 1675000   0.63076467   -3.7678116   -3.7678116   -3.0112211  0.052912621   -3.7678116   0.75659045   424551 
 1676000   0.63111256   -3.7680792   -3.7680792   -3.0110715  0.046004191   -3.7680792   0.75700773   424551 
 1677000   0.63082967   -3.7683862   -3.7683862   -3.0117178  0.066389803   -3.7683862   0.75666841   424551 
 1678000   0.62945862   -3.7667701   -3.7667701   -3.0117462  0.061301047   -3.7667701   0.75502387   424551 
 1679000    0.6299819   -3.7675692   -3.7675692   -3.0119177  0.050027743   -3.7675692   0.75565153   424551 
 1680000   0.63105162   -3.7690307   -3.7690307    -3.012096  0.050138241   -3.7690307   0.75693464   424551 
 1681000   0.63010533    -3.767195    -3.767195   -3.0113955  0.043507397    -3.767195   0.75579958   424551 
 1682000   0.62998323   -3.7675387   -3.7675387   -3.0118856  0.040360932   -3.7675387   0.75565312   424551 
 1683000   0.63041402    -3.768014    -3.768014   -3.0118442  0.050558188    -3.768014   0.75616985   424551 
 1684000   0.63036796    -3.767551    -3.767551   -3.0114364  0.050585162    -3.767551    0.7561146   424551 
 1685000   0.62994331   -3.7686773   -3.7686773    -3.013072  0.047791499   -3.7686773   0.75560524   424551 
 1686000   0.62972668   -3.7678275   -3.7678275   -3.0124821   0.04685328   -3.7678275    0.7553454   424551 
 1687000   0.63107111   -3.7699236   -3.7699236   -3.0129656  0.046837147   -3.7699236   0.75695801   424551 
 1688000   0.63169648   -3.7703718   -3.7703718   -3.0126636   0.04866766   -3.7703718   0.75770814   424551 
 1689000   0.63035602   -3.7697668   -3.7697668   -3.0136665  0.049387323   -3.7697668   0.75610028   424551 
 1690000   0.62961039   -3.7687038   -3.7687038   -3.0134979  0.045485541   -3.7687038   0.75520591   424551 
 1691000   0.63129973   -3.7707467   -3.7707467   -3.0135144   0.06057832   -3.7707467   0.75723224   424551 
 1692000   0.63077437   -3.7705447   -3.7705447   -3.0139426  0.064575817   -3.7705447   0.75660208   424551 
 1693000   0.63066308   -3.7709986   -3.7709986     -3.01453  0.063430566   -3.7709986   0.75646859   424551 
 1694000   0.62979151   -3.7709129   -3.7709129   -3.0154897  0.052437015   -3.7709129   0.75542316   424551 
 1695000   0.62980786   -3.7709304   -3.7709304   -3.0154877  0.039355484   -3.7709304   0.75544277   424551 
 1696000   0.62939666   -3.7705871   -3.7705871   -3.0156375  0.040266816   -3.7705871   0.75494955   424551 
 1697000    0.6309055   -3.7722794   -3.7722794     -3.01552  0.042956999   -3.7722794   0.75675938   424551 
 1698000   0.63118057   -3.7732538   -3.7732538   -3.0161645  0.045478767   -3.7732538   0.75708931   424551 
 1699000    0.6292213   -3.7710389   -3.7710389   -3.0162997  0.050314171   -3.7710389   0.75473921   424551 
 1700000   0.62989153   -3.7722382   -3.7722382   -3.0166951  0.037985191   -3.7722382   0.75554313   424551 
 1701000   0.62991957   -3.7713675   -3.7713675   -3.0157907  0.054851349   -3.7713675   0.75557676   424551 
 1702000   0.63118932   -3.7730798   -3.7730798     -3.01598  0.052582647   -3.7730798   0.75709981   424551 
 1703000   0.63054113   -3.7724653   -3.7724653    -3.016143  0.053761316   -3.7724653   0.75632231   424551 
 1704000   0.63126725   -3.7737232   -3.7737232     -3.01653  0.046506046   -3.7737232   0.75719328   424551 
 1705000   0.63262428    -3.775413    -3.775413    -3.016592  0.048507897    -3.775413   0.75882101   424551 
 1706000    0.6314818   -3.7734231   -3.7734231   -3.0159725  0.047124169   -3.7734231   0.75745063   424551 
 1707000   0.63118763   -3.7733443   -3.7733443   -3.0162465  0.060806152   -3.7733443   0.75709778   424551 
 1708000   0.63074348    -3.773478    -3.773478   -3.0169129  0.047767048    -3.773478   0.75656504   424551 
 1709000   0.63066912   -3.7732226   -3.7732226   -3.0167468  0.051267647   -3.7732226   0.75647584   424551 
 1710000   0.62985042   -3.7721141   -3.7721141   -3.0166203  0.059191315   -3.7721141   0.75549382   424551 
 1711000   0.62963045   -3.7713222   -3.7713222   -3.0160922  0.050091472   -3.7713222   0.75522997   424551 
 1712000   0.62935403   -3.7713105   -3.7713105    -3.016412  0.057826096   -3.7713105   0.75489842   424551 
 1713000    0.6283372   -3.7710554   -3.7710554   -3.0173767  0.044523705   -3.7710554   0.75367874   424551 
 1714000   0.62877878   -3.7710844   -3.7710844    -3.016876   0.05417908   -3.7710844   0.75420841   424551 
 1715000    0.6296334   -3.7734255   -3.7734255    -3.018192  0.038489711   -3.7734255   0.75523352   424551 
 1716000   0.62885263   -3.7724861   -3.7724861   -3.0181891  0.042505886   -3.7724861   0.75429699   424551 
 1717000   0.62979966   -3.7725683   -3.7725683   -3.0171354  0.040620845   -3.7725683   0.75543294   424551 
 1718000   0.62904599   -3.7725678   -3.7725678   -3.0180388  0.046765576   -3.7725678   0.75452892   424551 
 1719000    0.6290353   -3.7723492   -3.7723492   -3.0178331  0.052237065   -3.7723492   0.75451611   424551 
 1720000   0.62933553    -3.772109    -3.772109   -3.0172327  0.051886295    -3.772109   0.75487622   424551 
 1721000   0.63062563   -3.7742756   -3.7742756   -3.0178519  0.043390947   -3.7742756   0.75642367   424551 
 1722000     0.629476   -3.7738664   -3.7738664   -3.0188217  0.053095067   -3.7738664   0.75504471   424551 
 1723000   0.63031497   -3.7748636   -3.7748636   -3.0188126  0.050861847   -3.7748636   0.75605105   424551 
 1724000   0.62966146   -3.7739838   -3.7739838   -3.0187166  0.036748974   -3.7739838   0.75526717   424551 
 1725000   0.63125384   -3.7757019   -3.7757019   -3.0185247  0.041784471   -3.7757019    0.7571772   424551 
 1726000   0.62863288   -3.7727204   -3.7727204    -3.018687  0.037381081   -3.7727204   0.75403341   424551 
 1727000   0.62941938   -3.7737507   -3.7737507   -3.0187739  0.043452557   -3.7737507    0.7549768   424551 
 1728000   0.63099884   -3.7752863   -3.7752863   -3.0184149   0.05068705   -3.7752863   0.75687132   424551 
 1729000   0.62927201   -3.7729955   -3.7729955   -3.0181954  0.042147928   -3.7729955   0.75480003   424551 
 1730000   0.62980725   -3.7741562   -3.7741562   -3.0187142  0.059937981   -3.7741562   0.75544205   424551 
 1731000   0.62939163   -3.7739585   -3.7739585    -3.019015  0.048833389   -3.7739585   0.75494352   424551 
 1732000   0.62745141   -3.7722817   -3.7722817   -3.0196654  0.042429863   -3.7722817   0.75261626   424551 
 1733000   0.62952066    -3.774816    -3.774816   -3.0197178  0.047226086    -3.774816   0.75509828   424551 
 1734000   0.62987107   -3.7745213   -3.7745213   -3.0190027  0.060858508   -3.7745213   0.75551859   424551 
 1735000   0.62892233   -3.7739822   -3.7739822   -3.0196016  0.058540042   -3.7739822    0.7543806   424551 
 1736000   0.62996921   -3.7759975   -3.7759975   -3.0203612  0.051900833   -3.7759975   0.75563631   424551 
 1737000   0.62808677   -3.7738266   -3.7738266   -3.0204483  0.040923432   -3.7738266   0.75337836   424551 
 1738000   0.62862919   -3.7731522   -3.7731522   -3.0191232  0.041287483   -3.7731522   0.75402898   424551 
 1739000   0.63004023   -3.7752978   -3.7752978   -3.0195763  0.041841152   -3.7752978   0.75572149   424551 
 1740000   0.62916948   -3.7748039   -3.7748039   -3.0201268   0.04358908   -3.7748039   0.75467704   424551 
 1741000   0.62983057   -3.7760082   -3.7760082   -3.0205382  0.055662214   -3.7760082   0.75547001   424551 
 1742000   0.63008884   -3.7769424   -3.7769424   -3.0211626  0.055634322   -3.7769424   0.75577981   424551 
 1743000    0.6292388   -3.7755398   -3.7755398   -3.0207796  0.059199794   -3.7755398    0.7547602   424551 
 1744000   0.63058478   -3.7775139   -3.7775139   -3.0211392  0.045725173   -3.7775139   0.75637467   424551 
 1745000   0.62999341   -3.7765136   -3.7765136   -3.0208482   0.05290472   -3.7765136   0.75566533   424551 
 1746000   0.63075801   -3.7772636   -3.7772636   -3.0206812  0.056827591   -3.7772636   0.75658246   424551 
 1747000   0.62952662   -3.7759108   -3.7759108   -3.0208053  0.055924838   -3.7759108   0.75510543   424551 
 1748000   0.62936985   -3.7752281   -3.7752281   -3.0203107    0.0425413   -3.7752281   0.75491739   424551 
 1749000   0.63006665   -3.7754869   -3.7754869   -3.0197337  0.056477416   -3.7754869   0.75575319   424551 
 1750000   0.62968246   -3.7756666   -3.7756666   -3.0203743  0.057180834   -3.7756666   0.75529235   424551 
 1751000   0.62957601   -3.7759992   -3.7759992   -3.0208345  0.055065473   -3.7759992   0.75516468   424551 
 1752000   0.63049176   -3.7777571   -3.7777571    -3.021494  0.049793773   -3.7777571    0.7562631   424551 
 1753000   0.62779469   -3.7740683   -3.7740683   -3.0210403  0.057057191   -3.7740683   0.75302801   424551 
 1754000   0.62752458    -3.774356    -3.774356    -3.021652  0.048379331    -3.774356   0.75270402   424551 
 1755000   0.62867018   -3.7764791   -3.7764791   -3.0224009  0.040745452   -3.7764791   0.75407814   424551 
 1756000   0.62943919   -3.7776588   -3.7776588   -3.0226582  0.048138345   -3.7776588   0.75500056   424551 
 1757000   0.62803097   -3.7755798   -3.7755798   -3.0222684  0.056259385   -3.7755798   0.75331142   424551 
 1758000    0.6289697   -3.7767266   -3.7767266   -3.0222892  0.051953752   -3.7767266   0.75443742   424551 
 1759000   0.62922273   -3.7775733   -3.7775733   -3.0228324  0.046637514   -3.7775733   0.75474092   424551 
 1760000   0.62941044   -3.7774901   -3.7774901    -3.022524  0.053248234   -3.7774901   0.75496607   424551 
 1761000   0.62997582   -3.7776675   -3.7776675   -3.0220233  0.058472229   -3.7776675   0.75564423   424551 
 1762000   0.62878704   -3.7765994   -3.7765994   -3.0223811  0.060983826   -3.7765994   0.75421832   424551 
 1763000    0.6284538   -3.7767777   -3.7767777   -3.0229591  0.049621727   -3.7767777    0.7538186   424551 
 1764000   0.62959064    -3.777906    -3.777906   -3.0227238  0.042487632    -3.777906   0.75518222   424551 
 1765000   0.62941795   -3.7779677   -3.7779677   -3.0229926  0.054404418   -3.7779677   0.75497508   424551 
 1766000   0.62928468   -3.7770301   -3.7770301   -3.0222149  0.054318732   -3.7770301   0.75481523   424551 
 1767000   0.62874056   -3.7765952   -3.7765952   -3.0224326  0.045857095   -3.7765952   0.75416256   424551 
 1768000   0.62984273   -3.7779339   -3.7779339   -3.0224493  0.049240826   -3.7779339    0.7554846   424551 
 1769000   0.62922975   -3.7780064   -3.7780064    -3.023257  0.048416648   -3.7780064   0.75474935   424551 
 1770000   0.62803173   -3.7773187   -3.7773187   -3.0240064  0.030066615   -3.7773187   0.75331234   424551 
 1771000   0.62849427   -3.7782311   -3.7782311   -3.0243639  0.049801938   -3.7782311   0.75386715   424551 
 1772000   0.62920457   -3.7790588   -3.7790588   -3.0243397  0.050168633   -3.7790588   0.75471914   424551 
 1773000   0.62804287   -3.7781055   -3.7781055   -3.0247798  0.057412235   -3.7781055    0.7533257   424551 
 1774000   0.62861314   -3.7785268   -3.7785268    -3.024517  0.053828025   -3.7785268   0.75400973   424551 
 1775000    0.6293616   -3.7804056   -3.7804056   -3.0254981  0.055284651   -3.7804056   0.75490749   424551 
 1776000   0.62848317    -3.778966    -3.778966   -3.0251121  0.044443747    -3.778966   0.75385383   424551 
 1777000   0.62927752   -3.7799653   -3.7799653   -3.0251587  0.046600948   -3.7799653   0.75480664   424551 
 1778000   0.62922616   -3.7804204   -3.7804204   -3.0256753  0.034677431   -3.7804204   0.75474504   424551 
 1779000   0.62916424   -3.7802524   -3.7802524   -3.0255817  0.051043458   -3.7802524   0.75467076   424551 
 1780000   0.62868309   -3.7798146   -3.7798146   -3.0257209  0.063340951   -3.7798146   0.75409363   424551 
 1781000   0.62829864   -3.7796911   -3.7796911   -3.0260586  0.042837695   -3.7796911   0.75363249   424551 
 1782000    0.6286833   -3.7794043   -3.7794043   -3.0253104  0.053579898   -3.7794043   0.75409388   424551 
 1783000   0.62828253   -3.7789613   -3.7789613   -3.0253481  0.055010283   -3.7789613   0.75361316   424551 
 1784000   0.62724602   -3.7790094   -3.7790094   -3.0266395  0.051554436   -3.7790094   0.75236989   424551 
 1785000   0.62888672   -3.7808649   -3.7808649    -3.026527  0.035733957   -3.7808649   0.75433788   424551 
 1786000   0.62870188   -3.7807003   -3.7807003   -3.0265841   0.04535817   -3.7807003   0.75411616   424551 
 1787000   0.62814484   -3.7801097   -3.7801097   -3.0266617   0.02716278   -3.7801097   0.75344801   424551 
 1788000   0.62848571     -3.78119     -3.78119   -3.0273331  0.050180824     -3.78119   0.75385688   424551 
 1789000    0.6293758   -3.7819682   -3.7819682   -3.0270437  0.033671397   -3.7819682   0.75492452   424551 
 1790000   0.62869665   -3.7816221   -3.7816221   -3.0275122  0.042329213   -3.7816221    0.7541099   424551 
 1791000   0.62901998    -3.782251    -3.782251   -3.0277533  0.044255098    -3.782251   0.75449772   424551 
 1792000   0.62993786   -3.7835434   -3.7835434   -3.0279447  0.037965609   -3.7835434   0.75559871   424551 
 1793000   0.62753626   -3.7816656   -3.7816656   -3.0289476  0.051768031   -3.7816656   0.75271803   424551 
 1794000    0.6287204   -3.7828836   -3.7828836   -3.0287452  0.040440851   -3.7828836   0.75413838   424551 
 1795000   0.62732782    -3.780996    -3.780996    -3.028528  0.043961797    -3.780996   0.75246801   424551 
 1796000   0.62759919   -3.7809079   -3.7809079   -3.0281144  0.055168616   -3.7809079   0.75279351   424551 
 1797000   0.62807879   -3.7821965   -3.7821965   -3.0288277  0.035625008   -3.7821965   0.75336878   424551 
 1798000   0.62888152   -3.7825776   -3.7825776    -3.028246  0.048078994   -3.7825776   0.75433164   424551 
 1799000   0.62850779   -3.7831141   -3.7831141   -3.0292307   0.05155072   -3.7831141   0.75388337   424551 
 1800000   0.62805702   -3.7830773   -3.7830773   -3.0297347  0.063532042   -3.7830773   0.75334267   424551 
 1801000   0.62848498   -3.7837438   -3.7837438   -3.0298878  0.043055315   -3.7837438   0.75385601   424551 
 1802000   0.62777919   -3.7835809   -3.7835809   -3.0305715  0.044033282   -3.7835809   0.75300942   424551 
 1803000   0.62715708   -3.7831384   -3.7831384   -3.0308752  0.048832707   -3.7831384   0.75226321   424551 
 1804000   0.62653624   -3.7817671   -3.7817671   -3.0302486   0.04648476   -3.7817671   0.75151853   424551 
 1805000   0.62665227   -3.7814722   -3.7814722   -3.0298145   0.04678349   -3.7814722    0.7516577   424551 
 1806000   0.62786818   -3.7832731   -3.7832731   -3.0301569  0.046620571   -3.7832731   0.75311616   424551 
 1807000   0.62785498   -3.7831493   -3.7831493   -3.0300489  0.050309999   -3.7831493   0.75310034   424551 
 1808000   0.62671621   -3.7820146   -3.7820146   -3.0302802  0.041543694   -3.7820146    0.7517344   424551 
 1809000   0.62695074   -3.7825029   -3.7825029   -3.0304872  0.040001585   -3.7825029   0.75201571   424551 
 1810000   0.62809449     -3.78276     -3.78276   -3.0293724  0.064015519     -3.78276   0.75338762   424551 
 1811000   0.62708952    -3.782276    -3.782276   -3.0300938  0.059616814    -3.782276   0.75218218   424551 
 1812000   0.62835551   -3.7835954   -3.7835954   -3.0298947  0.059396836   -3.7835954   0.75370071   424551 
 1813000   0.62857166   -3.7834824   -3.7834824   -3.0295224  0.048323488   -3.7834824   0.75395997   424551 
 1814000   0.62734769   -3.7824568   -3.7824568    -3.029965  0.046579342   -3.7824568   0.75249185   424551 
 1815000   0.62788622   -3.7834611   -3.7834611   -3.0303233  0.055606505   -3.7834611   0.75313781   424551 
 1816000   0.62639157   -3.7812666   -3.7812666   -3.0299216  0.058822645   -3.7812666   0.75134499   424551 
 1817000   0.62865377   -3.7845555   -3.7845555   -3.0304971  0.044937274   -3.7845555   0.75405846   424551 
 1818000   0.62737887    -3.783636    -3.783636   -3.0311067  0.044358349    -3.783636   0.75252925   424551 
 1819000   0.62965026    -3.786596    -3.786596   -3.0313423  0.033026443    -3.786596   0.75525373   424551 
 1820000   0.62831574   -3.7849959   -3.7849959   -3.0313429  0.053092669   -3.7849959     0.753653   424551 
 1821000   0.62676887   -3.7841066   -3.7841066   -3.0323091  0.055258954   -3.7841066   0.75179756   424551 
 1822000   0.62797104    -3.786294    -3.786294   -3.0330545  0.052841657    -3.786294   0.75323954   424551 
 1823000   0.62828394   -3.7870148   -3.7870148   -3.0333999  0.037718799   -3.7870148   0.75361485   424551 
 1824000   0.62762403   -3.7862349   -3.7862349   -3.0334115  0.049128212   -3.7862349   0.75282331   424551 
 1825000    0.6278414     -3.78598     -3.78598    -3.032896  0.046921866     -3.78598   0.75308404   424551 
 1826000   0.62846595   -3.7871474   -3.7871474   -3.0333143  0.035690452   -3.7871474   0.75383318   424551 
 1827000   0.62669999   -3.7859146   -3.7859146   -3.0341997  0.050433916   -3.7859146   0.75171494   424551 
 1828000   0.62715526   -3.7866507   -3.7866507   -3.0343897  0.052052483   -3.7866507   0.75226103   424551 
 1829000   0.62794735   -3.7874391   -3.7874391   -3.0342279  0.049295856   -3.7874391   0.75321113   424551 
 1830000   0.62845453   -3.7884637   -3.7884637   -3.0346443  0.049283208   -3.7884637   0.75381948   424551 
 1831000    0.6281052   -3.7886201   -3.7886201   -3.0352196  0.060780294   -3.7886201   0.75340046   424551 
 1832000   0.62730201   -3.7883476   -3.7883476   -3.0359106  0.036244754   -3.7883476   0.75243705   424551 
 1833000   0.62688653   -3.7877383   -3.7877383   -3.0357996  0.053120908   -3.7877383   0.75193869   424551 
 1834000   0.62589967   -3.7870141   -3.7870141   -3.0362591  0.039657273   -3.7870141   0.75075497   424551 
 1835000   0.62693961   -3.7892738   -3.7892738   -3.0372714  0.043495049   -3.7892738   0.75200236   424551 
 1836000   0.62607421   -3.7883247   -3.7883247   -3.0373604  0.058925069   -3.7883247   0.75096432   424551 
 1837000   0.62573001   -3.7880153   -3.7880153   -3.0374639  0.048798466   -3.7880153   0.75055146   424551 
 1838000    0.6267754   -3.7892257   -3.7892257   -3.0374203  0.044894051   -3.7892257   0.75180539   424551 
 1839000   0.62616711   -3.7881467   -3.7881467   -3.0370709  0.046580466   -3.7881467   0.75107576   424551 
 1840000   0.62541789   -3.7873428   -3.7873428   -3.0371657  0.038776092   -3.7873428   0.75017709   424551 
 1841000   0.62742907   -3.7900185   -3.7900185   -3.0374291  0.054695355   -3.7900185   0.75258946   424551 
 1842000   0.62632704   -3.7888115   -3.7888115   -3.0375439  0.046028023   -3.7888115   0.75126759   424551 
 1843000   0.62609482   -3.7881749   -3.7881749   -3.0371859   0.04540724   -3.7881749   0.75098905   424551 
 1844000   0.62599368   -3.7877231   -3.7877231   -3.0368554  0.043781382   -3.7877231   0.75086774   424551 
 1845000    0.6263197   -3.7882909   -3.7882909   -3.0370321  0.045872228   -3.7882909   0.75125879   424551 
 1846000   0.62679969   -3.7883816   -3.7883816    -3.036547  0.041915381   -3.7883816   0.75183453   424551 
 1847000   0.62566594   -3.7870555   -3.7870555   -3.0365809  0.037013604   -3.7870555   0.75047462   424551 
 1848000   0.62572243   -3.7877569   -3.7877569   -3.0372145  0.044330971   -3.7877569   0.75054237   424551 
 1849000   0.62613673   -3.7886913   -3.7886913    -3.037652   0.05233507   -3.7886913   0.75103932   424551 
 1850000   0.62533744   -3.7883848   -3.7883848   -3.0383043  0.045674942   -3.7883848   0.75008058   424551 
 1851000   0.62584925   -3.7890222   -3.7890222   -3.0383277  0.035470498   -3.7890222   0.75069449   424551 
 1852000   0.62490072   -3.7880999   -3.7880999   -3.0385432  0.053063543   -3.7880999   0.74955675   424551 
 1853000    0.6254362   -3.7890865   -3.7890865   -3.0388874  0.051255597   -3.7890865   0.75019904   424551 
 1854000   0.62612079   -3.7896427   -3.7896427   -3.0386225  0.038815477   -3.7896427    0.7510202   424551 
 1855000   0.62843825   -3.7919059   -3.7919059    -3.038106  0.052956824   -3.7919059   0.75379995   424551 
 1856000   0.62610817   -3.7893905   -3.7893905   -3.0383855  0.040220071   -3.7893905   0.75100507   424551 
 1857000   0.62787926   -3.7917485   -3.7917485   -3.0386191  0.045568493   -3.7917485   0.75312946   424551 
 1858000   0.62750663   -3.7910867   -3.7910867   -3.0384042   0.04363877   -3.7910867   0.75268249   424551 
 1859000   0.62717121   -3.7915478   -3.7915478   -3.0392676  0.041674947   -3.7915478   0.75228016   424551 
 1860000   0.62692577   -3.7921391   -3.7921391   -3.0401533  0.049730896   -3.7921391   0.75198575   424551 
 1861000   0.62667029   -3.7913131   -3.7913131   -3.0396338  0.048626709   -3.7913131   0.75167932   424551 
 1862000   0.62642122   -3.7911311   -3.7911311   -3.0397505  0.061082685   -3.7911311   0.75138056   424551 
 1863000   0.62671182   -3.7916878   -3.7916878   -3.0399587  0.038252767   -3.7916878   0.75172913   424551 
 1864000   0.62615926   -3.7915818   -3.7915818   -3.0405155  0.048018852   -3.7915818   0.75106635   424551 
 1865000   0.62593997    -3.790959    -3.790959   -3.0401557  0.047777194    -3.790959   0.75080331   424551 
 1866000   0.62584507   -3.7914002   -3.7914002   -3.0407107  0.048263197   -3.7914002   0.75068948   424551 
 1867000   0.62500493   -3.7901862   -3.7901862   -3.0405044   0.05487591   -3.7901862   0.74968174   424551 
 1868000   0.62543249   -3.7908941   -3.7908941   -3.0406995  0.053305201   -3.7908941   0.75019459   424551 
 1869000    0.6274618   -3.7931841   -3.7931841   -3.0405554  0.039986074   -3.7931841   0.75262871   424551 
 1870000   0.62741028   -3.7933673   -3.7933673   -3.0408003  0.053765115   -3.7933673   0.75256692   424551 
 1871000   0.62666396    -3.793323    -3.793323   -3.0416513   0.04307733    -3.793323   0.75167173   424551 
 1872000   0.62746798   -3.7939496   -3.7939496   -3.0413135  0.046234678   -3.7939496   0.75263613   424551 
 1873000   0.62639632   -3.7927597   -3.7927597    -3.041409  0.042626375   -3.7927597   0.75135069   424551 
 1874000   0.62691769   -3.7941277   -3.7941277   -3.0421517  0.050829686   -3.7941277   0.75197607   424551 
 1875000   0.62669042   -3.7936356   -3.7936356   -3.0419321  0.050860413   -3.7936356   0.75170346   424551 
 1876000   0.62675392   -3.7945719   -3.7945719   -3.0427923  0.049238462   -3.7945719   0.75177963   424551 
 1877000   0.62685065    -3.794469    -3.794469   -3.0425733   0.04572255    -3.794469   0.75189565   424551 
 1878000    0.6262839   -3.7942609   -3.7942609   -3.0430451  0.046131935   -3.7942609   0.75121585   424551 
 1879000   0.62567594    -3.793838    -3.793838   -3.0433514  0.058359799    -3.793838   0.75048661   424551 
 1880000   0.62595208   -3.7933919   -3.7933919    -3.042574  0.054129685   -3.7933919   0.75081784   424551 
 1881000   0.62673175    -3.793927    -3.793927    -3.042174  0.048747713    -3.793927   0.75175304   424551 
 1882000   0.62609263   -3.7933839   -3.7933839   -3.0423975  0.049965096   -3.7933839   0.75098642   424551 
 1883000   0.62526846   -3.7923334   -3.7923334   -3.0423355  0.052998686   -3.7923334   0.74999785   424551 
 1884000   0.62519119   -3.7919629   -3.7919629   -3.0420577  0.052909574   -3.7919629   0.74990516   424551 
 1885000   0.62438293    -3.792037    -3.792037   -3.0431014  0.061027983    -3.792037   0.74893567   424551 
 1886000   0.62468685   -3.7918537   -3.7918537   -3.0425535  0.035853554   -3.7918537   0.74930022   424551 
 1887000    0.6259706   -3.7936483   -3.7936483   -3.0428083  0.043581062   -3.7936483   0.75084005   424551 
 1888000   0.62544613   -3.7927987   -3.7927987   -3.0425877   0.04850504   -3.7927987   0.75021096   424551 
 1889000   0.62588489   -3.7942509   -3.7942509   -3.0435136  0.043726233   -3.7942509   0.75073724   424551 
 1890000   0.62575372   -3.7945713   -3.7945713   -3.0439914  0.055641917   -3.7945713    0.7505799   424551 
 1891000   0.62467253   -3.7934393   -3.7934393   -3.0441563  0.046644276   -3.7934393   0.74928304   424551 
 1892000   0.62542792    -3.794731    -3.794731   -3.0445419  0.043833766    -3.794731   0.75018912   424551 
 1893000   0.62557543   -3.7952469   -3.7952469   -3.0448809  0.049118804   -3.7952469   0.75036605   424551 
 1894000   0.62586137   -3.7958476   -3.7958476   -3.0451386  0.051233689   -3.7958476   0.75070903   424551 
 1895000   0.62653274   -3.7956673   -3.7956673   -3.0441529  0.036229192   -3.7956673   0.75151433   424551 
 1896000   0.62469413   -3.7938233   -3.7938233   -3.0445143  0.047830326   -3.7938233   0.74930895   424551 
 1897000    0.6257504    -3.794584    -3.794584    -3.044008  0.050375958    -3.794584   0.75057593   424551 
 1898000   0.62600968   -3.7945887   -3.7945887   -3.0437018  0.067063522   -3.7945887   0.75088692   424551 
 1899000   0.62671188   -3.7962121   -3.7962121   -3.0444829  0.048585421   -3.7962121    0.7517292   424551 
 1900000   0.62569444   -3.7950161   -3.7950161   -3.0445073   0.04101972   -3.7950161    0.7505088   424551 
 1901000   0.62532715   -3.7945615   -3.7945615   -3.0444932  0.043012685   -3.7945615   0.75006825   424551 
 1902000   0.62578867   -3.7960951   -3.7960951   -3.0454733  0.055099186   -3.7960951   0.75062183   424551 
 1903000   0.62628388   -3.7969178   -3.7969178    -3.045702  0.043979524   -3.7969178   0.75121582   424551 
 1904000   0.62549629   -3.7958118   -3.7958118   -3.0455407  0.055550861   -3.7958118   0.75027113   424551 
 1905000   0.62647094   -3.7965624   -3.7965624   -3.0451222  0.042073215   -3.7965624    0.7514402   424551 
 1906000   0.62458928   -3.7953545   -3.7953545   -3.0461713  0.045301465   -3.7953545   0.74918318   424551 
 1907000   0.62583713   -3.7970979   -3.7970979   -3.0464179  0.049339201   -3.7970979   0.75067995   424551 
 1908000   0.62581813   -3.7971825   -3.7971825   -3.0465253  0.026242963   -3.7971825   0.75065717   424551 
 1909000    0.6251402   -3.7966607   -3.7966607   -3.0468167  0.034487546   -3.7966607     0.749844   424551 
 1910000   0.62493287   -3.7965947   -3.7965947   -3.0469993  0.064009113   -3.7965947   0.74959532   424551 
 1911000   0.62668522   -3.7986709   -3.7986709   -3.0469737  0.044886046   -3.7986709   0.75169722   424551 
 1912000   0.62551217   -3.7987139   -3.7987139   -3.0484237  0.055560804   -3.7987139   0.75029017   424551 
 1913000   0.62525155   -3.7973824   -3.7973824   -3.0474048  0.037582018   -3.7973824   0.74997757   424551 
 1914000   0.62534785   -3.7973418   -3.7973418   -3.0472487   0.05012445   -3.7973418   0.75009307   424551 
 1915000   0.62587945   -3.7983236   -3.7983236   -3.0475929  0.044835816   -3.7983236   0.75073072   424551 
 1916000   0.62552892    -3.798337    -3.798337   -3.0480267  0.058043765    -3.798337   0.75031027   424551 
 1917000   0.62431082   -3.7966848   -3.7966848   -3.0478356  0.049529453   -3.7966848   0.74884917   424551 
 1918000   0.62527608   -3.7972028   -3.7972028   -3.0471958  0.050029961   -3.7972028   0.75000699   424551 
 1919000   0.62431289    -3.795886    -3.795886   -3.0470343  0.039254632    -3.795886   0.74885166   424551 
 1920000   0.62624388   -3.7984227   -3.7984227   -3.0472548  0.052269092   -3.7984227   0.75116784   424551 
 1921000   0.62582236   -3.7985594   -3.7985594   -3.0478971  0.035764771   -3.7985594   0.75066223   424551 
 1922000   0.62501216   -3.7976136   -3.7976136   -3.0479232  0.042059396   -3.7976136   0.74969042   424551 
 1923000   0.62596987   -3.7994716   -3.7994716   -3.0486325  0.044212299   -3.7994716   0.75083918   424551 
 1924000   0.62569412   -3.7996349   -3.7996349   -3.0491265  0.048324953   -3.7996349   0.75050842   424551 
 1925000   0.62634382   -3.8001724   -3.8001724   -3.0488846  0.056058741   -3.8001724   0.75128772   424551 
 1926000   0.62482247   -3.7989257   -3.7989257   -3.0494628  0.047950044   -3.7989257   0.74946289   424551 
 1927000   0.62522462    -3.798805    -3.798805   -3.0488597  0.042144681    -3.798805   0.74994527   424551 
 1928000   0.62610333   -3.7999693   -3.7999693   -3.0489701  0.037927018   -3.7999693   0.75099925   424551 
 1929000   0.62604385    -3.799912    -3.799912   -3.0489841  0.060077102    -3.799912   0.75092791   424551 
 1930000   0.62453193   -3.7982352   -3.7982352   -3.0491208  0.042522582   -3.7982352   0.74911439   424551 
 1931000   0.62339118   -3.7967569   -3.7967569   -3.0490108  0.050672847   -3.7967569   0.74774608   424551 
 1932000   0.62542378   -3.7991001   -3.7991001   -3.0489159  0.047491808   -3.7991001   0.75018415   424551 
 1933000   0.62384335   -3.7976523   -3.7976523   -3.0493638  0.039743489   -3.7976523   0.74828845   424551 
 1934000   0.62407392     -3.79878     -3.79878   -3.0502149  0.050468601     -3.79878   0.74856501   424551 
 1935000   0.62531534   -3.8005961   -3.8005961    -3.050542  0.050637418   -3.8005961   0.75005408   424551 
 1936000   0.62452519   -3.7998309   -3.7998309   -3.0507246   0.05235795   -3.7998309   0.74910631   424551 
 1937000   0.62389466   -3.7995414   -3.7995414   -3.0511914  0.052349529   -3.7995414      0.74835   424551 
 1938000   0.62580481   -3.8010115   -3.8010115   -3.0503703  0.044023257   -3.8010115   0.75064119   424551 
 1939000   0.62540837   -3.8018904   -3.8018904   -3.0517248  0.057461829   -3.8018904   0.75016566   424551 
 1940000   0.62488164   -3.8004415   -3.8004415   -3.0509076  0.041456765   -3.8004415   0.74953387   424551 
 1941000   0.62666654   -3.8030362   -3.8030362   -3.0513614  0.044040211   -3.8030362   0.75167481   424551 
 1942000    0.6252236   -3.8017451   -3.8017451    -3.051801  0.050287767   -3.8017451   0.74994404   424551 
 1943000    0.6251285   -3.8014278   -3.8014278   -3.0515978  0.039993279   -3.8014278   0.74982997   424551 
 1944000   0.62460998   -3.8012668   -3.8012668   -3.0520588  0.031456229   -3.8012668   0.74920801   424551 
 1945000   0.62503619   -3.8010446   -3.8010446   -3.0513253  0.043693836   -3.8010446   0.74971924   424551 
 1946000   0.62484453   -3.8008603   -3.8008603    -3.051371  0.050377156   -3.8008603   0.74948935   424551 
 1947000   0.62460618    -3.800171    -3.800171   -3.0509675  0.053944073    -3.800171   0.74920346   424551 
 1948000   0.62423581   -3.7997841   -3.7997841   -3.0510249  0.042153718   -3.7997841    0.7487592   424551 
 1949000   0.62496281    -3.801347    -3.801347   -3.0517158  0.044273702    -3.801347   0.74963122   424551 
 1950000   0.62548329   -3.8017019   -3.8017019   -3.0514464  0.038353435   -3.8017019   0.75025553   424551 
 1951000   0.62459924   -3.8017422   -3.8017422   -3.0525471  0.049568732   -3.8017422   0.74919513   424551 
 1952000   0.62400432   -3.8016491   -3.8016491   -3.0531676  0.060619603   -3.8016491   0.74848154   424551 
 1953000   0.62514185   -3.8023277   -3.8023277   -3.0524817  0.045402255   -3.8023277   0.74984598   424551 
 1954000   0.62342835   -3.8006361   -3.8006361   -3.0528455  0.041944615   -3.8006361   0.74779067   424551 
 1955000   0.62434515   -3.8019336   -3.8019336   -3.0530432  0.032953681   -3.8019336   0.74889036   424551 
 1956000   0.62375784   -3.8016683   -3.8016683   -3.0534824  0.047524605   -3.8016683   0.74818589   424551 
 1957000   0.62427281   -3.8032321   -3.8032321   -3.0544286  0.057697215   -3.8032321   0.74880358   424551 
 1958000   0.62377727   -3.8033755   -3.8033755   -3.0551663  0.054892715   -3.8033755   0.74820919   424551 
 1959000   0.62366122   -3.8038375   -3.8038375   -3.0557675  0.042132286   -3.8038375   0.74806999   424551 
 1960000   0.62490617   -3.8053494   -3.8053494   -3.0557861  0.044188907   -3.8053494   0.74956329   424551 
 1961000   0.62386872   -3.8047302   -3.8047302   -3.0564114  0.046052718   -3.8047302   0.74831889   424551 
 1962000   0.62423764   -3.8051841   -3.8051841   -3.0564227  0.055903215   -3.8051841    0.7487614   424551 
 1963000   0.62471457   -3.8063107   -3.8063107   -3.0569772  0.043812553   -3.8063107   0.74933347   424551 
 1964000   0.62425004   -3.8059333   -3.8059333    -3.057157  0.053378209   -3.8059333   0.74877627   424551 
 1965000   0.62424909   -3.8051485   -3.8051485   -3.0563733   0.04345102   -3.8051485   0.74877514   424551 
 1966000   0.62388969   -3.8051952   -3.8051952   -3.0568512  0.039731182   -3.8051952   0.74834404   424551 
 1967000   0.62477613   -3.8061675   -3.8061675   -3.0567602  0.044532257   -3.8061675   0.74940731   424551 
 1968000   0.62379095    -3.804481    -3.804481   -3.0562554  0.037576782    -3.804481    0.7482256   424551 
 1969000   0.62500391   -3.8051172   -3.8051172   -3.0554366  0.056306579   -3.8051172   0.74968053   424551 
 1970000   0.62509512   -3.8050625   -3.8050625   -3.0552725  0.040598723   -3.8050625   0.74978993   424551 
 1971000   0.62399589   -3.8038976   -3.8038976   -3.0554261  0.060194068   -3.8038976   0.74847143   424551 
 1972000   0.62428509    -3.804713    -3.804713   -3.0558947  0.043462994    -3.804713   0.74881831   424551 
 1973000   0.62348729   -3.8032731   -3.8032731   -3.0554117  0.056443137   -3.8032731   0.74786137   424551 
 1974000   0.62446774   -3.8045844   -3.8045844    -3.055547  0.041552361   -3.8045844    0.7490374   424551 
 1975000   0.62466197   -3.8044834   -3.8044834   -3.0552131  0.053741074   -3.8044834   0.74927037   424551 
 1976000    0.6234026   -3.8035022   -3.8035022   -3.0557425  0.040259328   -3.8035022   0.74775978   424551 
 1977000   0.62397306   -3.8046826   -3.8046826   -3.0562385   0.04622524   -3.8046826   0.74844404   424551 
 1978000   0.62415865   -3.8045801   -3.8045801   -3.0559135  0.037408423   -3.8045801   0.74866665   424551 
 1979000   0.62429175   -3.8052181   -3.8052181   -3.0563918  0.049661092   -3.8052181    0.7488263   424551 
 1980000   0.62398626   -3.8049667   -3.8049667   -3.0565069  0.055857382   -3.8049667   0.74845987   424551 
 1981000   0.62351747   -3.8048535   -3.8048535   -3.0569559  0.043187249   -3.8048535   0.74789756   424551 
 1982000   0.62460973   -3.8062433   -3.8062433   -3.0570356  0.031854099   -3.8062433   0.74920771   424551 
 1983000   0.62346655   -3.8061957   -3.8061957   -3.0583592  0.044730487   -3.8061957   0.74783649   424551 
 1984000   0.62403756   -3.8068791   -3.8068791   -3.0583577  0.050164047   -3.8068791    0.7485214   424551 
 1985000   0.62213349   -3.8048193   -3.8048193   -3.0585818  0.048198848   -3.8048193    0.7462375   424551 
 1986000    0.6230042   -3.8064934   -3.8064934   -3.0592115  0.054177336   -3.8064934   0.74728191   424551 
 1987000   0.62305779   -3.8059331   -3.8059331   -3.0585869  0.044558054   -3.8059331   0.74734619   424551 
 1988000   0.62321384   -3.8049535   -3.8049535   -3.0574201  0.039845577   -3.8049535   0.74753336   424551 
 1989000   0.62483504   -3.8074644   -3.8074644   -3.0579864  0.039318012   -3.8074644   0.74947797   424551 
 1990000    0.6240157   -3.8074667   -3.8074667   -3.0589716  0.041816567   -3.8074667   0.74849519   424551 
 1991000   0.62270407   -3.8062196   -3.8062196   -3.0592977  0.056385767   -3.8062196   0.74692191   424551 
 1992000   0.62229365   -3.8059764   -3.8059764   -3.0595468  0.064027536   -3.8059764   0.74642962   424551 
 1993000   0.62288369   -3.8076322   -3.8076322   -3.0604949  0.050722714   -3.8076322   0.74713736   424551 
 1994000   0.62496193   -3.8094274   -3.8094274   -3.0597972  0.047031427   -3.8094274   0.74963017   424551 
 1995000      0.62447   -3.8080817   -3.8080817   -3.0590415  0.058759739   -3.8080817   0.74904011   424551 
 1996000    0.6242166   -3.8084321   -3.8084321   -3.0596959   0.05837661   -3.8084321   0.74873616   424551 
 1997000   0.62388265   -3.8077271   -3.8077271   -3.0593915   0.04003667   -3.8077271   0.74833559   424551 
 1998000   0.62310188   -3.8078686   -3.8078686   -3.0604695  0.047571632   -3.8078686   0.74739907   424551 
 1999000   0.62346633   -3.8089213   -3.8089213   -3.0610851  0.054826254   -3.8089213   0.74783623   424551 
 2000000   0.62493025   -3.8102869   -3.8102869   -3.0606947  0.042954574   -3.8102869   0.74959217   424551 
 2001000   0.62290079   -3.8077729   -3.8077729    -3.060615  0.046051328   -3.8077729   0.74715787   424551 
 2002000   0.62320173   -3.8081988   -3.8081988     -3.06068   0.05917271   -3.8081988   0.74751884   424551 
 2003000   0.62367331   -3.8093621   -3.8093621   -3.0612776  0.047845953   -3.8093621    0.7480845   424551 
 2004000   0.62396865   -3.8094241   -3.8094241   -3.0609853  0.043487499   -3.8094241   0.74843875   424551 
 2005000   0.62324823    -3.809016    -3.809016   -3.0614414   0.04363058    -3.809016   0.74757461   424551 
 2006000   0.62288025   -3.8094175   -3.8094175   -3.0622842  0.039537611   -3.8094175   0.74713323   424551 
 2007000    0.6229163   -3.8090523   -3.8090523   -3.0618759  0.052460735   -3.8090523   0.74717647   424551 
 2008000   0.62334971   -3.8103616   -3.8103616   -3.0626652  0.030557467   -3.8103616   0.74769634   424551 
 2009000   0.62263221   -3.8089898   -3.8089898    -3.062154  0.042343731   -3.8089898   0.74683572   424551 
 2010000    0.6228054    -3.808416    -3.808416   -3.0613725  0.043187785    -3.808416   0.74704346   424551 
 2011000    0.6222251   -3.8074747   -3.8074747   -3.0611273  0.043668691   -3.8074747    0.7463474   424551 
 2012000    0.6226591   -3.8085846   -3.8085846   -3.0617166  0.057243001   -3.8085846   0.74686796   424551 
 2013000   0.62340186   -3.8095247   -3.8095247   -3.0617658  0.052030076   -3.8095247    0.7477589   424551 
 2014000   0.62258075   -3.8090895   -3.8090895   -3.0623155   0.05574334   -3.8090895   0.74677399   424551 
 2015000   0.62239506   -3.8097476   -3.8097476   -3.0631963  0.058666332   -3.8097476   0.74655125   424551 
 2016000   0.62227706   -3.8103776   -3.8103776   -3.0639679  0.041188709   -3.8103776   0.74640972   424551 
 2017000   0.62358233   -3.8111575   -3.8111575   -3.0631821  0.040563718   -3.8111575   0.74797536   424551 
 2018000    0.6235198   -3.8107928   -3.8107928   -3.0628925  0.049796069   -3.8107928   0.74790037   424551 
 2019000   0.62322478   -3.8106571   -3.8106571   -3.0631106  0.046895955   -3.8106571   0.74754649   424551 
 2020000   0.62352368   -3.8121872   -3.8121872   -3.0642821  0.033078356   -3.8121872   0.74790502   424551 
 2021000   0.62224699   -3.8104696   -3.8104696    -3.064096  0.052800208   -3.8104696   0.74637365   424551 
 2022000   0.62316172   -3.8118422   -3.8118422   -3.0643713  0.045295868   -3.8118422   0.74747085   424551 
 2023000   0.62335895   -3.8122061   -3.8122061   -3.0644987  0.049316615   -3.8122061   0.74770743   424551 
 2024000   0.62425157   -3.8134633   -3.8134633   -3.0646852  0.063613187   -3.8134633   0.74877811   424551 
 2025000   0.62291521   -3.8115884   -3.8115884   -3.0644133  0.049029055   -3.8115884   0.74717516   424551 
 2026000    0.6221255   -3.8102707   -3.8102707   -3.0640427  0.035761013   -3.8102707   0.74622793   424551 
 2027000   0.62369342   -3.8120268   -3.8120268   -3.0639182  0.046464291   -3.8120268   0.74810861   424551 
 2028000   0.62366056   -3.8118623   -3.8118623   -3.0637931  0.032444733   -3.8118623   0.74806921   424551 
 2029000   0.62313117   -3.8120603   -3.8120603   -3.0646261  0.048369502   -3.8120603    0.7474342   424551 
 2030000    0.6230226    -3.811908    -3.811908   -3.0646041  0.052502045    -3.811908   0.74730398   424551 
 2031000   0.62236188   -3.8113676   -3.8113676   -3.0648562  0.059129138   -3.8113676   0.74651146   424551 
 2032000   0.62283312   -3.8119442   -3.8119442   -3.0648674  0.053575094   -3.8119442    0.7470767   424551 
 2033000   0.62252883   -3.8116935   -3.8116935   -3.0649818   0.03789646   -3.8116935   0.74671172   424551 
 2034000   0.62287996   -3.8122172   -3.8122172   -3.0650843  0.035897957   -3.8122172   0.74713288   424551 
 2035000   0.62265038   -3.8122845   -3.8122845    -3.065427  0.044652848   -3.8122845   0.74685751   424551 
 2036000   0.62239695   -3.8118409   -3.8118409   -3.0652874  0.035395915   -3.8118409   0.74655352   424551 
 2037000   0.62272398   -3.8126133   -3.8126133   -3.0656675  0.043003901   -3.8126133    0.7469458   424551 
 2038000   0.62261761   -3.8127896   -3.8127896   -3.0659714  0.042560016   -3.8127896    0.7468182   424551 
 2039000   0.62194868   -3.8118689   -3.8118689    -3.065853  0.040156218   -3.8118689   0.74601584   424551 
 2040000   0.62166518    -3.812119    -3.812119   -3.0664432  0.053662264    -3.812119   0.74567578   424551 
 2041000   0.62221082   -3.8128294   -3.8128294   -3.0664992  0.043454842   -3.8128294   0.74633027   424551 
 2042000   0.62171086   -3.8115599   -3.8115599   -3.0658293  0.047910936   -3.8115599   0.74573057   424551 
 2043000   0.62134449   -3.8122446   -3.8122446   -3.0669535  0.039414377   -3.8122446   0.74529112   424551 
 2044000   0.62282343   -3.8135858   -3.8135858   -3.0665207  0.029811025   -3.8135858   0.74706508   424551 
 2045000   0.62252318   -3.8130493   -3.8130493   -3.0663444   0.03424803   -3.8130493   0.74670493   424551 
 2046000   0.62182897    -3.811847    -3.811847   -3.0659747  0.037854682    -3.811847   0.74587224   424551 
 2047000   0.62212307   -3.8118963   -3.8118963   -3.0656713   0.04774197   -3.8118963   0.74622501   424551 
 2048000   0.62229375   -3.8120845   -3.8120845   -3.0656547  0.052532751   -3.8120845   0.74642974   424551 
 2049000   0.62223956   -3.8127897   -3.8127897    -3.066425  0.038019225   -3.8127897   0.74636473   424551 
 2050000   0.62262639   -3.8125949   -3.8125949   -3.0657662  0.028184949   -3.8125949   0.74682874   424551 
 2051000   0.62158111   -3.8116453   -3.8116453   -3.0660703  0.050722057   -3.8116453   0.74557494   424551 
 2052000    0.6235888   -3.8140194   -3.8140194   -3.0660362  0.040020115   -3.8140194   0.74798312   424551 
 2053000   0.62165031   -3.8127452   -3.8127452   -3.0670872  0.045046693   -3.8127452   0.74565794   424551 
 2054000   0.62244702   -3.8137248   -3.8137248   -3.0671113  0.057404348   -3.8137248   0.74661359   424551 
 2055000   0.62134602   -3.8124295   -3.8124295   -3.0671366   0.04886281   -3.8124295   0.74529295   424551 
 2056000    0.6209936   -3.8127292   -3.8127292    -3.067859  0.047269475   -3.8127292   0.74487023   424551 
 2057000   0.62178306   -3.8135001   -3.8135001   -3.0676829  0.049754808   -3.8135001   0.74581717   424551 
 2058000    0.6220488    -3.814111    -3.814111   -3.0679751  0.047917161    -3.814111   0.74613592   424551 
 2059000   0.62147017   -3.8137108   -3.8137108   -3.0682689  0.046939285   -3.8137108   0.74544187   424551 
 2060000    0.6225735   -3.8146291   -3.8146291   -3.0678638  0.048909803   -3.8146291   0.74676529   424551 
 2061000   0.62187504   -3.8143992   -3.8143992   -3.0684717  0.055347868   -3.8143992   0.74592751   424551 
 2062000   0.62163978   -3.8143708   -3.8143708   -3.0687255  0.062151224   -3.8143708   0.74564531   424551 
 2063000   0.62092563   -3.8140337   -3.8140337    -3.069245  0.060701079   -3.8140337    0.7447887   424551 
 2064000   0.62200613   -3.8155961   -3.8155961   -3.0695113  0.035417833   -3.8155961   0.74608475   424551 
 2065000   0.62171594   -3.8150718   -3.8150718   -3.0693351  0.037355264   -3.8150718   0.74573667   424551 
 2066000   0.62305052   -3.8156513   -3.8156513   -3.0683138  0.042066138   -3.8156513   0.74733747   424551 
 2067000   0.62308254   -3.8166197   -3.8166197   -3.0692438  0.049580954   -3.8166197   0.74737587   424551 
 2068000   0.62300877   -3.8165057   -3.8165057   -3.0692184  0.048560127   -3.8165057   0.74728739   424551 
 2069000    0.6220834   -3.8160134   -3.8160134    -3.069836  0.038614874   -3.8160134   0.74617743   424551 
 2070000   0.62185085   -3.8157925   -3.8157925   -3.0698941  0.037977288   -3.8157925   0.74589848   424551 
 2071000   0.62193995   -3.8160664   -3.8160664   -3.0700611  0.049043664   -3.8160664   0.74600536   424551 
 2072000   0.62196011   -3.8154278   -3.8154278   -3.0693983  0.054434678   -3.8154278   0.74602954   424551 
 2073000   0.62342295   -3.8176722   -3.8176722    -3.069888  0.033692655   -3.8176722   0.74778419   424551 
 2074000    0.6218734    -3.816655    -3.816655   -3.0707294  0.046787172    -3.816655   0.74592554   424551 
 2075000   0.62186497   -3.8165054   -3.8165054     -3.07059   0.05063021   -3.8165054   0.74591543   424551 
 2076000   0.62134131   -3.8165702   -3.8165702   -3.0712829  0.039184216   -3.8165702    0.7452873   424551 
 2077000   0.62153338   -3.8176813   -3.8176813   -3.0721636  0.033161452   -3.8176813   0.74551769   424551 
 2078000   0.62105934   -3.8162622   -3.8162622   -3.0713131  0.043061766   -3.8162622   0.74494909   424551 
 2079000   0.62121624   -3.8166863   -3.8166863    -3.071549  0.041314093   -3.8166863   0.74513729   424551 
 2080000   0.62150694   -3.8160776   -3.8160776   -3.0705916  0.053515016   -3.8160776   0.74548598   424551 
 2081000   0.62078155   -3.8160023   -3.8160023   -3.0713864  0.032871309   -3.8160023   0.74461589   424551 
 2082000   0.62137431   -3.8165644   -3.8165644   -3.0712375  0.040820148   -3.8165644   0.74532689   424551 
 2083000    0.6224008   -3.8178488   -3.8178488   -3.0712906  0.048158856   -3.8178488   0.74655814   424551 
 2084000    0.6210131   -3.8167733   -3.8167733   -3.0718797  0.041845213   -3.8167733   0.74489362   424551 
 2085000   0.62062056     -3.81597     -3.81597   -3.0715472  0.040239181     -3.81597   0.74442278   424551 
 2086000   0.62042147   -3.8158075   -3.8158075   -3.0716235  0.040068668   -3.8158075   0.74418397   424551 
 2087000   0.62110678   -3.8170548   -3.8170548   -3.0720488  0.037405591   -3.8170548   0.74500599   424551 
 2088000   0.62090651   -3.8163128   -3.8163128    -3.071547  0.050675157   -3.8163128   0.74476577   424551 
 2089000   0.61913153   -3.8148731   -3.8148731   -3.0722364  0.040290276   -3.8148731   0.74263671   424551 
 2090000   0.62037733   -3.8165126   -3.8165126   -3.0723816  0.041939729   -3.8165126   0.74413103   424551 
 2091000     0.620311   -3.8164694   -3.8164694    -3.072418    0.0485547   -3.8164694   0.74405146   424551 
 2092000   0.61855374   -3.8151545   -3.8151545   -3.0732108  0.037704638   -3.8151545   0.74194366   424551 
 2093000   0.61961048   -3.8166127   -3.8166127   -3.0734015   0.04583322   -3.8166127    0.7432112   424551 
 2094000   0.61992489    -3.816906    -3.816906   -3.0733176  0.056639576    -3.816906   0.74358833   424551 
 2095000   0.62074508   -3.8184014   -3.8184014   -3.0738292  0.023433506   -3.8184014   0.74457214   424551 
 2096000   0.61999585   -3.8180298   -3.8180298   -3.0743563  0.050409728   -3.8180298   0.74367345   424551 
 2097000   0.62148817   -3.8187493   -3.8187493   -3.0732859  0.044906195   -3.8187493   0.74546346   424551 
 2098000   0.62137672   -3.8186097   -3.8186097   -3.0732799  0.042659039   -3.8186097   0.74532978   424551 
 2099000   0.62295327   -3.8205706   -3.8205706   -3.0733497   0.04667081   -3.8205706   0.74722082   424551 
 2100000   0.62037871   -3.8180506   -3.8180506   -3.0739179  0.040807181   -3.8180506   0.74413269   424551 
 2101000   0.62153219   -3.8186242   -3.8186242   -3.0731079  0.042033254   -3.8186242   0.74551626   424551 
 2102000   0.62145722   -3.8184737   -3.8184737   -3.0730473  0.058227839   -3.8184737   0.74542634   424551 
 2103000   0.62083962   -3.8178503   -3.8178503   -3.0731648  0.055954913   -3.8178503   0.74468554   424551 
 2104000   0.62127244   -3.8183455   -3.8183455   -3.0731408  0.050146221   -3.8183455    0.7452047   424551 
 2105000   0.62156343   -3.8188749   -3.8188749   -3.0733212  0.036553061   -3.8188749   0.74555373   424551 
 2106000   0.62157084   -3.8190609   -3.8190609   -3.0734983  0.037977464   -3.8190609   0.74556262   424551 
 2107000   0.62049633   -3.8177794   -3.8177794   -3.0735056  0.041943109   -3.8177794   0.74427377   424551 
 2108000   0.62053229   -3.8182543   -3.8182543   -3.0739374  0.055636732   -3.8182543    0.7443169   424551 
 2109000   0.62064305   -3.8177895   -3.8177895   -3.0733397  0.038323775   -3.8177895   0.74444975   424551 
 2110000   0.62013335   -3.8178226   -3.8178226   -3.0739842  0.041283726   -3.8178226   0.74383837   424551 
 2111000   0.62017122   -3.8180039   -3.8180039   -3.0741201  0.046495981   -3.8180039   0.74388381   424551 
 2112000   0.62073766   -3.8189205   -3.8189205   -3.0743573  0.037657036   -3.8189205   0.74456323   424551 
 2113000   0.62137615   -3.8210467   -3.8210467   -3.0757176   0.05117945   -3.8210467   0.74532909   424551 
 2114000   0.62039235   -3.8203562   -3.8203562   -3.0762072  0.041975919   -3.8203562   0.74414905   424551 
 2115000    0.6204254   -3.8194566   -3.8194566   -3.0752679  0.032481926   -3.8194566   0.74418868   424551 
 2116000   0.61990578    -3.819689    -3.819689   -3.0761235  0.047038474    -3.819689   0.74356541   424551 
 2117000    0.6200589   -3.8188744   -3.8188744   -3.0751253  0.038494294   -3.8188744   0.74374907   424551 
 2118000   0.61956137   -3.8185177   -3.8185177   -3.0753654  0.044183051   -3.8185177   0.74315229   424551 
 2119000   0.61999681   -3.8181616   -3.8181616   -3.0744871  0.049131341   -3.8181616    0.7436746   424551 
 2120000    0.6209327     -3.81883     -3.81883   -3.0740328  0.046069612     -3.81883   0.74479718   424551 
 2121000    0.6215975   -3.8192784   -3.8192784   -3.0736838  0.036780125   -3.8192784   0.74559459   424551 
 2122000   0.61950429   -3.8162465   -3.8162465   -3.0731627  0.053866317   -3.8162465   0.74308383   424551 
 2123000   0.62060867   -3.8177426   -3.8177426   -3.0733341  0.055381282   -3.8177426   0.74440852   424551 
 2124000   0.62147556   -3.8185683   -3.8185683     -3.07312  0.039101033   -3.8185683   0.74544833   424551 
 2125000   0.62131507   -3.8194016   -3.8194016   -3.0741458  0.033861787   -3.8194016   0.74525583   424551 
 2126000   0.61964137   -3.8172862   -3.8172862   -3.0740379  0.047736758   -3.8172862   0.74324826   424551 
 2127000   0.62052886   -3.8183986   -3.8183986   -3.0740858  0.038451074   -3.8183986   0.74431278   424551 
 2128000   0.61878779   -3.8170835   -3.8170835   -3.0748591  0.028584136   -3.8170835    0.7422244   424551 
 2129000    0.6197185   -3.8184256   -3.8184256   -3.0750849  0.039945335   -3.8184256   0.74334077   424551 
 2130000   0.62062306    -3.819257    -3.819257   -3.0748313  0.049565591    -3.819257   0.74442577   424551 
 2131000   0.62099151    -3.819517    -3.819517   -3.0746493  0.050620092    -3.819517   0.74486773   424551 
 2132000   0.61984481   -3.8189141   -3.8189141   -3.0754218  0.046595321   -3.8189141   0.74349229   424551 
 2133000   0.62084143   -3.8200956   -3.8200956   -3.0754078  0.044087765   -3.8200956   0.74468771   424551 
 2134000   0.61986569   -3.8190593   -3.8190593    -3.075542   0.04688627   -3.8190593   0.74351732   424551 
 2135000   0.62034433   -3.8192702   -3.8192702   -3.0751788  0.051175906   -3.8192702   0.74409144   424551 
 2136000    0.6201732   -3.8193878   -3.8193878   -3.0755016  0.033040106   -3.8193878   0.74388617   424551 
 2137000   0.62115941   -3.8213739   -3.8213739   -3.0763048  0.048040902   -3.8213739   0.74506912   424551 
 2138000   0.62093921   -3.8213766   -3.8213766   -3.0765716  0.038554527   -3.8213766     0.744805   424551 
 2139000   0.62092569   -3.8211137   -3.8211137    -3.076325  0.044444937   -3.8211137   0.74478877   424551 
 2140000   0.62069317    -3.820798    -3.820798   -3.0762882   0.04480358    -3.820798   0.74450987   424551 
 2141000   0.62220612   -3.8217334   -3.8217334   -3.0754088  0.038467361   -3.8217334   0.74632462   424551 
 2142000   0.62069822   -3.8202599   -3.8202599   -3.0757439   0.03854479   -3.8202599   0.74451593   424551 
 2143000   0.62017518   -3.8202711   -3.8202711   -3.0763826  0.037881211   -3.8202711   0.74388855   424551 
 2144000   0.61972237   -3.8203382   -3.8203382   -3.0769928  0.037686983   -3.8203382   0.74334541   424551 
 2145000   0.61926945   -3.8194916   -3.8194916   -3.0766894  0.055817591   -3.8194916   0.74280214   424551 
 2146000   0.62060818   -3.8209108   -3.8209108   -3.0765029   0.04720955   -3.8209108   0.74440793   424551 
 2147000     0.621498   -3.8221785   -3.8221785   -3.0767033  0.040533197   -3.8221785   0.74547525   424551 
 2148000   0.61972036   -3.8203572   -3.8203572   -3.0770142  0.055996253   -3.8203572   0.74334301   424551 
 2149000   0.62066894   -3.8217682   -3.8217682   -3.0772874  0.056679965   -3.8217682    0.7444808   424551 
 2150000   0.62082884   -3.8226112   -3.8226112   -3.0779386  0.049729471   -3.8226112    0.7446726   424551 
 2151000   0.62022549    -3.822229    -3.822229   -3.0782801   0.04984558    -3.822229   0.74394889   424551 
 2152000    0.6213193   -3.8239247   -3.8239247   -3.0786638  0.039544538   -3.8239247    0.7452609   424551 
 2153000   0.62160281   -3.8235876   -3.8235876   -3.0779867  0.041595126   -3.8235876   0.74560096   424551 
 2154000   0.61985915   -3.8217323   -3.8217323   -3.0782228  0.047866554   -3.8217323   0.74350948   424551 
 2155000   0.62069299   -3.8223078   -3.8223078   -3.0777981  0.054881613   -3.8223078   0.74450966   424551 
 2156000   0.62122964   -3.8220446   -3.8220446   -3.0768912  0.043670488   -3.8220446   0.74515335   424551 
 2157000   0.61998919   -3.8214043   -3.8214043   -3.0777389  0.043620301   -3.8214043   0.74366546   424551 
 2158000   0.62068539   -3.8226996   -3.8226996    -3.078199  0.025751545   -3.8226996   0.74450054   424551 
 2159000   0.62028216   -3.8216245   -3.8216245   -3.0776076  0.043776609   -3.8216245   0.74401688   424551 
 2160000   0.61939127   -3.8201841   -3.8201841   -3.0772359  0.047323897   -3.8201841   0.74294826   424551 
 2161000   0.62001499   -3.8215101   -3.8215101   -3.0778137  0.053148958   -3.8215101    0.7436964   424551 
 2162000    0.6218626   -3.8237332   -3.8237332   -3.0778206  0.050775627   -3.8237332   0.74591258   424551 
 2163000     0.621092   -3.8229761   -3.8229761   -3.0779878  0.047888417   -3.8229761   0.74498826   424551 
 2164000   0.62004558   -3.8211922   -3.8211922   -3.0774591   0.02625796   -3.8211922    0.7437331   424551 
 2165000   0.61957148   -3.8205938   -3.8205938   -3.0774294  0.039301054   -3.8205938   0.74316443   424551 
 2166000   0.62003769   -3.8215666   -3.8215666    -3.077843  0.047700269   -3.8215666   0.74372364   424551 
 2167000   0.62136602    -3.822864    -3.822864   -3.0775471  0.043877163    -3.822864   0.74531694   424551 
 2168000   0.62131071   -3.8235924   -3.8235924   -3.0783418  0.026715334   -3.8235924    0.7452506   424551 
 2169000   0.62104213   -3.8224073   -3.8224073   -3.0774788   0.05039001   -3.8224073   0.74492845   424551 
 2170000   0.61986114   -3.8216398   -3.8216398   -3.0781279  0.040186743   -3.8216398   0.74351187   424551 
 2171000   0.61918432    -3.821485    -3.821485    -3.078785  0.046031822    -3.821485   0.74270004   424551 
 2172000   0.62076992   -3.8236618   -3.8236618   -3.0790599   0.03553995   -3.8236618   0.74460193   424551 
 2173000   0.62061517   -3.8232933   -3.8232933    -3.078877   0.04983016   -3.8232933   0.74441632   424551 
 2174000   0.61964824   -3.8226111   -3.8226111   -3.0793546  0.058773403   -3.8226111   0.74325649   424551 
 2175000     0.620466   -3.8245052   -3.8245052   -3.0802678  0.047743584   -3.8245052   0.74423739   424551 
 2176000   0.62058691   -3.8243838   -3.8243838   -3.0800014  0.045363921   -3.8243838   0.74438242   424551 
 2177000   0.62019662   -3.8232353   -3.8232353    -3.079321  0.043208521   -3.8232353   0.74391427   424551 
 2178000   0.62081875   -3.8241423   -3.8241423   -3.0794818  0.040557159   -3.8241423    0.7446605   424551 
 2179000   0.62040355   -3.8239088   -3.8239088   -3.0797464  0.048206211   -3.8239088   0.74416248   424551 
 2180000   0.62037805   -3.8241533   -3.8241533   -3.0800214  0.052677435   -3.8241533   0.74413189   424551 
 2181000   0.61999157   -3.8243545   -3.8243545   -3.0806862  0.035934481   -3.8243545   0.74366831   424551 
 2182000   0.61948275   -3.8237042   -3.8237042   -3.0806462  0.043181804   -3.8237042   0.74305799   424551 
 2183000    0.6203542   -3.8246874   -3.8246874   -3.0805842  0.049123116   -3.8246874   0.74410328   424551 
 2184000   0.62053175   -3.8246152   -3.8246152   -3.0802989   0.04510778   -3.8246152   0.74431625   424551 
 2185000   0.62154652   -3.8254586   -3.8254586   -3.0799251  0.043242564   -3.8254586   0.74553345   424551 
 2186000   0.62054483    -3.825184    -3.825184    -3.080852  0.041994869    -3.825184   0.74433194   424551 
 2187000   0.61916429   -3.8236417   -3.8236417   -3.0809657  0.054322381   -3.8236417     0.742676   424551 
 2188000   0.61939086   -3.8246021   -3.8246021   -3.0816543  0.033465129   -3.8246021   0.74294777   424551 
 2189000   0.61995376   -3.8247927   -3.8247927   -3.0811697  0.035220856   -3.8247927   0.74362296   424551 
 2190000   0.62063921   -3.8255392   -3.8255392    -3.081094  0.037745752   -3.8255392   0.74444515   424551 
 2191000   0.62014656   -3.8249514   -3.8249514   -3.0810972  0.045406897   -3.8249514   0.74385422   424551 
 2192000   0.62098558   -3.8261164   -3.8261164   -3.0812558  0.044849295   -3.8261164   0.74486061   424551 
 2193000   0.61917984   -3.8240684   -3.8240684   -3.0813737  0.052089838   -3.8240684   0.74269466   424551 
 2194000   0.61940897   -3.8247398   -3.8247398   -3.0817703  0.038502464   -3.8247398    0.7429695   424551 
 2195000   0.62030763   -3.8255934   -3.8255934    -3.081546  0.040105063   -3.8255934   0.74404743   424551 
 2196000   0.62027009   -3.8255721   -3.8255721   -3.0815697  0.045233033   -3.8255721    0.7440024   424551 
 2197000   0.62177284   -3.8272672   -3.8272672   -3.0814623  0.027715234   -3.8272672   0.74580491   424551 
 2198000   0.62030425   -3.8264908   -3.8264908   -3.0824474  0.047171172   -3.8264908   0.74404336   424551 
 2199000   0.62000581   -3.8261975   -3.8261975   -3.0825121  0.040879113   -3.8261975    0.7436854   424551 
 2200000   0.62185296   -3.8284041   -3.8284041    -3.082503  0.047247545   -3.8284041   0.74590102   424551 
 2201000   0.62107163   -3.8273967   -3.8273967   -3.0824329  0.037167584   -3.8273967   0.74496382   424551 
 2202000    0.6202381   -3.8272747   -3.8272747   -3.0833107  0.033535321   -3.8272747   0.74396403   424551 
 2203000   0.61975855   -3.8265514   -3.8265514   -3.0831626  0.051290373   -3.8265514   0.74338881   424551 
 2204000   0.61950618   -3.8265651   -3.8265651    -3.083479  0.054493423   -3.8265651    0.7430861   424551 
 2205000   0.61925512   -3.8256284   -3.8256284   -3.0828435  0.039133881   -3.8256284   0.74278496   424551 
 2206000   0.62018582   -3.8266707   -3.8266707   -3.0827694  0.044008681   -3.8266707   0.74390132   424551 
 2207000   0.62008161   -3.8267217   -3.8267217   -3.0829454  0.038666871   -3.8267217   0.74377632   424551 
 2208000   0.61756313   -3.8230476   -3.8230476   -3.0822922  0.043943026   -3.8230476   0.74075544   424551 
 2209000   0.62012016   -3.8270391   -3.8270391   -3.0832166  0.047088267   -3.8270391   0.74382256   424551 
 2210000   0.61884685   -3.8262878   -3.8262878   -3.0839925  0.037605549   -3.8262878   0.74229525   424551 
 2211000   0.62037447   -3.8277694   -3.8277694   -3.0836418  0.041207599   -3.8277694    0.7441276   424551 
 2212000   0.61885614   -3.8257724   -3.8257724    -3.083466  0.054530587   -3.8257724   0.74230639   424551 
 2213000   0.61953283   -3.8265493   -3.8265493   -3.0834313  0.035454074   -3.8265493   0.74311806   424551 
 2214000   0.61906412    -3.826635    -3.826635   -3.0840792  0.035205854    -3.826635   0.74255586   424551 
 2215000   0.61850632   -3.8268219   -3.8268219   -3.0849352  0.038952401   -3.8268219   0.74188679   424551 
 2216000    0.6194107   -3.8281904   -3.8281904   -3.0852189  0.051180701   -3.8281904   0.74297158   424551 
 2217000   0.61848787   -3.8272602   -3.8272602   -3.0853956  0.045770525   -3.8272602   0.74186465   424551 
 2218000   0.61768203   -3.8273064   -3.8273064   -3.0864084  0.036598623   -3.8273064   0.74089807   424551 
 2219000    0.6193199   -3.8294462   -3.8294462   -3.0865836  0.033465354   -3.8294462   0.74286266   424551 
 2220000   0.61885218   -3.8288393   -3.8288393   -3.0865376   0.05406788   -3.8288393   0.74230163   424551 
 2221000   0.62054105   -3.8303511   -3.8303511   -3.0860237  0.035809848   -3.8303511   0.74432741   424551 
 2222000   0.62027189   -3.8302918   -3.8302918   -3.0862872  0.052844046   -3.8302918   0.74400456   424551 
 2223000   0.61949168   -3.8288599   -3.8288599   -3.0857912  0.053666291   -3.8288599    0.7430687   424551 
 2224000   0.61913897   -3.8282598   -3.8282598   -3.0856142  0.043368211   -3.8282598   0.74264564   424551 
 2225000   0.62021475   -3.8301787   -3.8301787   -3.0862427  0.045305375   -3.8301787   0.74393601   424551 
 2226000   0.62001908    -3.830357    -3.830357   -3.0866557  0.050194403    -3.830357   0.74370131   424551 
 2227000   0.61897709   -3.8291892   -3.8291892   -3.0867377  0.037288289   -3.8291892   0.74245147   424551 
 2228000   0.61881376   -3.8304231   -3.8304231   -3.0881676  0.037745698   -3.8304231   0.74225556   424551 
 2229000   0.61890187   -3.8304337   -3.8304337   -3.0880725  0.042001734   -3.8304337   0.74236124   424551 
 2230000   0.61876471   -3.8294567   -3.8294567     -3.08726  0.043021496   -3.8294567   0.74219672   424551 
 2231000   0.61877644   -3.8298356   -3.8298356   -3.0876248  0.047388168   -3.8298356   0.74221079   424551 
 2232000    0.6193133   -3.8307512   -3.8307512   -3.0878965  0.028188426   -3.8307512   0.74285474   424551 
 2233000   0.61938737   -3.8307961   -3.8307961   -3.0878525  0.051370498   -3.8307961   0.74294359   424551 
 2234000   0.61921449   -3.8305044   -3.8305044   -3.0877682  0.053808973   -3.8305044   0.74273623   424551 
 2235000   0.61956845   -3.8308581   -3.8308581   -3.0876973  0.047645803   -3.8308581   0.74316079   424551 
 2236000   0.61981105   -3.8313436   -3.8313436   -3.0878918  0.035103964   -3.8313436   0.74345179   424551 
 2237000    0.6191071   -3.8300616   -3.8300616   -3.0874542  0.052835122   -3.8300616   0.74260741   424551 
 2238000   0.62026036   -3.8313808   -3.8313808   -3.0873901  0.050147596   -3.8313808   0.74399072   424551 
 2239000   0.61940877   -3.8301627   -3.8301627   -3.0871934  0.044861864   -3.8301627   0.74296926   424551 
 2240000   0.62028098   -3.8314126   -3.8314126   -3.0873971  0.039124755   -3.8314126   0.74401545   424551 
 2241000   0.61893057   -3.8306368   -3.8306368   -3.0882411  0.036063792   -3.8306368   0.74239566   424551 
 2242000   0.61993227   -3.8313112   -3.8313112    -3.087714  0.036018326   -3.8313112   0.74359719   424551 
 2243000   0.62008982   -3.8322821   -3.8322821   -3.0884959  0.047327558   -3.8322821   0.74378616   424551 
 2244000   0.61880902   -3.8315451   -3.8315451   -3.0892952  0.058989676   -3.8315451   0.74224987   424551 
 2245000   0.61999111   -3.8329671   -3.8329671   -3.0892993  0.050684239   -3.8329671   0.74366776   424551 
 2246000   0.61843146   -3.8297033   -3.8297033   -3.0879063  0.038897165   -3.8297033   0.74179699   424551 
 2247000   0.61966119   -3.8313092   -3.8313092   -3.0880372  0.034068228   -3.8313092   0.74327204   424551 
 2248000   0.61911058   -3.8308435   -3.8308435   -3.0882319  0.031185338   -3.8308435   0.74261159   424551 
 2249000   0.62017178   -3.8318916   -3.8318916   -3.0880071  0.050883584   -3.8318916   0.74388447   424551 
 2250000   0.62057621   -3.8319341   -3.8319341   -3.0875646  0.041070653   -3.8319341   0.74436958   424551 
 2251000   0.61935637   -3.8308682   -3.8308682   -3.0879618  0.049772121   -3.8308682   0.74290641   424551 
 2252000   0.61922666    -3.829817    -3.829817   -3.0870662  0.034480239    -3.829817   0.74275082   424551 
 2253000   0.61962799   -3.8306073   -3.8306073   -3.0873751   0.03856899   -3.8306073    0.7432322   424551 
 2254000   0.61965487   -3.8308614   -3.8308614   -3.0875969  0.039368261   -3.8308614   0.74326445   424551 
 2255000   0.61907184   -3.8299479   -3.8299479   -3.0873828   0.04231454   -3.8299479   0.74256512   424551 
 2256000   0.61929864   -3.8296599   -3.8296599   -3.0868228   0.04968171   -3.8296599   0.74283716   424551 
 2257000   0.62026453   -3.8313376   -3.8313376   -3.0873418  0.051022493   -3.8313376   0.74399573   424551 
 2258000    0.6190718   -3.8305839   -3.8305839   -3.0880189   0.03549537   -3.8305839   0.74256507   424551 
 2259000   0.61883388   -3.8304153   -3.8304153   -3.0881356  0.043460326   -3.8304153   0.74227968   424551 
 2260000   0.61913278   -3.8306439   -3.8306439   -3.0880056  0.048415222   -3.8306439   0.74263821   424551 
 2261000   0.61884263   -3.8303316   -3.8303316   -3.0880414  0.031265378   -3.8303316   0.74229018   424551 
 2262000   0.61956676   -3.8311238   -3.8311238    -3.087965  0.045840915   -3.8311238   0.74315876   424551 
 2263000   0.61867838   -3.8302516   -3.8302516   -3.0881585    0.0505903   -3.8302516   0.74209316   424551 
 2264000   0.62064909   -3.8327224   -3.8327224   -3.0882654  0.037199953   -3.8327224     0.744457   424551 
 2265000   0.61939023   -3.8330489   -3.8330489   -3.0901019  0.048019571   -3.8330489   0.74294702   424551 
 2266000   0.62018917   -3.8341366   -3.8341366   -3.0902312   0.04829702   -3.8341366   0.74390533   424551 
 2267000   0.61964163   -3.8339973   -3.8339973   -3.0907487  0.034685632   -3.8339973   0.74324857   424551 
 2268000   0.61904337    -3.834075    -3.834075    -3.091544  0.044928493    -3.834075   0.74253097   424551 
 2269000    0.6187175   -3.8332597   -3.8332597   -3.0911196  0.034365597   -3.8332597    0.7421401   424551 
 2270000   0.61815083   -3.8316669   -3.8316669   -3.0902065  0.037478215   -3.8316669   0.74146038   424551 
 2271000   0.61758441   -3.8307243   -3.8307243   -3.0899433  0.033952551   -3.8307243   0.74078098   424551 
 2272000   0.61817311   -3.8309723   -3.8309723   -3.0894852  0.036545082   -3.8309723   0.74148711   424551 
 2273000   0.61888881   -3.8321894   -3.8321894   -3.0898438  0.049139377   -3.8321894   0.74234557   424551 
 2274000   0.61891724   -3.8327134   -3.8327134   -3.0903338  0.040938619   -3.8327134   0.74237968   424551 
 2275000   0.61969084   -3.8330566   -3.8330566    -3.089749  0.049958289   -3.8330566    0.7433076   424551 
 2276000   0.61926942   -3.8330593   -3.8330593   -3.0902572  0.045663318   -3.8330593   0.74280211   424551 
 2277000   0.61890116   -3.8320405   -3.8320405   -3.0896801  0.037466359   -3.8320405   0.74236039   424551 
 2278000   0.61936446   -3.8321192   -3.8321192   -3.0892031  0.038409765   -3.8321192   0.74291611   424551 
 2279000   0.62024621   -3.8329907   -3.8329907    -3.089017  0.043051537   -3.8329907   0.74397376   424551 
 2280000    0.6203246   -3.8335997   -3.8335997   -3.0895319  0.034782793   -3.8335997   0.74406778   424551 
 2281000   0.62028748   -3.8341343   -3.8341343    -3.090111  0.021222717   -3.8341343   0.74402325   424551 
 2282000   0.61971265   -3.8335077   -3.8335077    -3.090174  0.031771057   -3.8335077   0.74333375   424551 
 2283000   0.61920558    -3.833469    -3.833469   -3.0907435  0.040371297    -3.833469   0.74272553   424551 
 2284000   0.61851485   -3.8330993   -3.8330993   -3.0912023  0.039096735   -3.8330993   0.74189701   424551 
 2285000   0.61942102   -3.8342553   -3.8342553   -3.0912714  0.048377032   -3.8342553   0.74298395   424551 
 2286000   0.61747574   -3.8322822   -3.8322822   -3.0916315  0.045295821   -3.8322822   0.74065063   424551 
 2287000   0.61903725   -3.8339503   -3.8339503   -3.0914267  0.046133512   -3.8339503   0.74252363   424551 
 2288000   0.61879639   -3.8342106   -3.8342106   -3.0919758  0.047610031   -3.8342106   0.74223472   424551 
 2289000   0.61794379   -3.8328287   -3.8328287   -3.0916167  0.040459696   -3.8328287   0.74121205   424551 
 2290000   0.61888924   -3.8337257   -3.8337257   -3.0913796  0.041349178   -3.8337257   0.74234609   424551 
 2291000    0.6191108   -3.8336256   -3.8336256   -3.0910138  0.046145503   -3.8336256   0.74261185   424551 
 2292000   0.61906999   -3.8328837   -3.8328837   -3.0903208  0.045015004   -3.8328837   0.74256289   424551 
 2293000   0.61868078   -3.8334261   -3.8334261     -3.09133  0.045667795   -3.8334261   0.74209605   424551 
 2294000   0.61926302   -3.8343162   -3.8343162   -3.0915217  0.037108742   -3.8343162   0.74279443   424551 
 2295000   0.61861801   -3.8336235   -3.8336235   -3.0916027  0.051479064   -3.8336235   0.74202076   424551 
 2296000   0.61943205   -3.8346875   -3.8346875   -3.0916903  0.056054167   -3.8346875   0.74299718   424551 
 2297000   0.61832745   -3.8333092   -3.8333092    -3.091637  0.055790387   -3.8333092   0.74167224   424551 
 2298000   0.61947335   -3.8349023   -3.8349023   -3.0918556  0.048163383   -3.8349023   0.74304672   424551 
 2299000   0.61850549   -3.8343613   -3.8343613   -3.0924755  0.043745485   -3.8343613   0.74188579   424551 
 2300000   0.61922811   -3.8353345   -3.8353345   -3.0925819  0.047514892   -3.8353345   0.74275256   424551 
 2301000   0.61898279   -3.8349007   -3.8349007   -3.0924424  0.038405961   -3.8349007   0.74245831   424551 
 2302000   0.61884932   -3.8344229   -3.8344229   -3.0921247  0.046903796   -3.8344229   0.74229821   424551 
 2303000   0.61877392   -3.8340524   -3.8340524   -3.0918446  0.037883692   -3.8340524   0.74220777   424551 
 2304000   0.61927959   -3.8345863   -3.8345863    -3.091772  0.041434627   -3.8345863    0.7428143   424551 
 2305000   0.61857011   -3.8340227   -3.8340227   -3.0920595  0.033534418   -3.8340227    0.7419633   424551 
 2306000    0.6198099   -3.8364563   -3.8364563   -3.0930059  0.044919727   -3.8364563   0.74345041   424551 
 2307000   0.61841404   -3.8339959   -3.8339959   -3.0922198  0.048074585   -3.8339959   0.74177609   424551 
 2308000   0.61879405   -3.8345038   -3.8345038   -3.0922718  0.038902435   -3.8345038   0.74223192   424551 
 2309000   0.61839717   -3.8342709   -3.8342709   -3.0925151  0.031849865   -3.8342709   0.74175586   424551 
 2310000   0.61937731   -3.8349598   -3.8349598   -3.0920283  0.033017904   -3.8349598   0.74293153   424551 
 2311000   0.61829107   -3.8340117   -3.8340117   -3.0923831  0.042911632   -3.8340117    0.7416286   424551 
 2312000    0.6187309   -3.8351053   -3.8351053   -3.0929491  0.038576147   -3.8351053   0.74215616   424551 
 2313000   0.61909453   -3.8358761   -3.8358761   -3.0932837   0.05094924   -3.8358761   0.74259233   424551 
 2314000   0.61985346    -3.836171    -3.836171   -3.0926683  0.048630259    -3.836171   0.74350265   424551 
 2315000   0.61951609   -3.8353594   -3.8353594   -3.0922614   0.05301752   -3.8353594   0.74309799   424551 
 2316000   0.61880763   -3.8354314   -3.8354314   -3.0931832  0.052033392   -3.8354314    0.7422482   424551 
 2317000   0.62024063   -3.8367469   -3.8367469   -3.0927799  0.033281777   -3.8367469   0.74396706   424551 
 2318000    0.6201055   -3.8358024   -3.8358024   -3.0919974  0.050313777   -3.8358024   0.74380498   424551 
 2319000   0.62031139   -3.8360672   -3.8360672   -3.0920152   0.05459023   -3.8360672   0.74405194   424551 
 2320000   0.61992899   -3.8357967   -3.8357967   -3.0922035  0.037935951   -3.8357967   0.74359325   424551 
 2321000   0.62010357   -3.8358435   -3.8358435   -3.0920409  0.037074019   -3.8358435   0.74380266   424551 
 2322000   0.61952867   -3.8348206   -3.8348206   -3.0917075  0.049466947   -3.8348206   0.74311307   424551 
 2323000   0.61810071   -3.8337406   -3.8337406   -3.0923404  0.041753847   -3.8337406   0.74140026   424551 
 2324000   0.61933294   -3.8361791   -3.8361791   -3.0933008   0.03650133   -3.8361791   0.74287831   424551 
 2325000    0.6181514     -3.83519     -3.83519   -3.0937289  0.046044913     -3.83519   0.74146107   424551 
 2326000   0.61920464   -3.8368669   -3.8368669   -3.0941425  0.043141358   -3.8368669   0.74272441   424551 
 2327000   0.62032408   -3.8373645   -3.8373645   -3.0932974  0.055815689   -3.8373645   0.74406716   424551 
 2328000   0.61893791   -3.8360705   -3.8360705    -3.093666  0.048230159   -3.8360705   0.74240447   424551 
 2329000   0.61885412    -3.836727    -3.836727    -3.094423  0.036226814    -3.836727   0.74230396   424551 
 2330000   0.61985316   -3.8386411   -3.8386411   -3.0951388  0.045736519   -3.8386411    0.7435023   424551 
 2331000   0.62008742   -3.8388815   -3.8388815   -3.0950982  0.041908917   -3.8388815   0.74378328   424551 
 2332000   0.61995439    -3.839494    -3.839494   -3.0958703  0.053326499    -3.839494   0.74362372   424551 
 2333000   0.61907915   -3.8381499   -3.8381499   -3.0955761  0.050291843   -3.8381499   0.74257388   424551 
 2334000    0.6186905   -3.8378491   -3.8378491   -3.0957414  0.037380976   -3.8378491   0.74210771   424551 
 2335000    0.6186752   -3.8375714   -3.8375714   -3.0954821  0.040911636   -3.8375714   0.74208936   424551 
 2336000   0.61954817   -3.8383434   -3.8383434   -3.0952069  0.034126788   -3.8383434   0.74313646   424551 
 2337000   0.61958282   -3.8385168   -3.8385168   -3.0953388  0.044813815   -3.8385168   0.74317802   424551 
 2338000   0.61816826   -3.8372006   -3.8372006   -3.0957193  0.036758065   -3.8372006   0.74148129   424551 
 2339000   0.61822721   -3.8367026   -3.8367026   -3.0951506  0.044906999   -3.8367026     0.741552   424551 
 2340000   0.61844478   -3.8369512   -3.8369512   -3.0951382  0.050759116   -3.8369512   0.74181298   424551 
 2341000   0.61828195   -3.8378819   -3.8378819   -3.0962643  0.035625578   -3.8378819   0.74161765   424551 
 2342000   0.61835348   -3.8374968   -3.8374968   -3.0957934  0.035879406   -3.8374968   0.74170345   424551 
 2343000   0.61827978   -3.8383981   -3.8383981    -3.096783  0.041437194   -3.8383981   0.74161506   424551 
 2344000   0.61923169   -3.8392638   -3.8392638   -3.0965069  0.028171987   -3.8392638   0.74275685   424551 
 2345000   0.61874511   -3.8385763   -3.8385763   -3.0964031  0.052171977   -3.8385763   0.74217321   424551 
 2346000   0.61909629   -3.8388997   -3.8388997   -3.0963052  0.040283086   -3.8388997   0.74259445   424551 
 2347000   0.61931818   -3.8393654   -3.8393654   -3.0965048  0.044959745   -3.8393654   0.74286059   424551 
 2348000   0.61833244   -3.8386334   -3.8386334   -3.0969552  0.037970575   -3.8386334   0.74167822   424551 
 2349000   0.61903351   -3.8395167   -3.8395167   -3.0969975  0.040020437   -3.8395167   0.74251914   424551 
 2350000    0.6193946   -3.8397913   -3.8397913    -3.096839  0.056132993   -3.8397913   0.74295227   424551 
 2351000   0.61700453   -3.8375472   -3.8375472   -3.0974618   0.03283761   -3.8375472   0.74008541   424551 
 2352000   0.61856176   -3.8390171   -3.8390171   -3.0970639  0.044968135   -3.8390171   0.74195329   424551 
 2353000   0.61780529   -3.8378398   -3.8378398   -3.0967939  0.038094248   -3.8378398   0.74104591   424551 
 2354000   0.61903676   -3.8387931   -3.8387931   -3.0962701  0.037196836   -3.8387931   0.74252304   424551 
 2355000   0.61761544   -3.8374366   -3.8374366   -3.0966184  0.036356043   -3.8374366   0.74081819   424551 
 2356000   0.61737075   -3.8365145   -3.8365145   -3.0959898  0.041241812   -3.8365145   0.74052469   424551 
 2357000   0.61966396   -3.8392233   -3.8392233   -3.0959479  0.034652437   -3.8392233   0.74327535   424551 
 2358000   0.61789248   -3.8382461   -3.8382461   -3.0970956  0.035858446   -3.8382461   0.74115049   424551 
 2359000   0.61768104   -3.8383469   -3.8383469     -3.09745  0.045683947   -3.8383469   0.74089688   424551 
 2360000   0.61928894   -3.8403412   -3.8403412   -3.0975157  0.043548349   -3.8403412   0.74282553   424551 
 2361000   0.61861787   -3.8392771   -3.8392771   -3.0972565  0.043685218   -3.8392771   0.74202059   424551 
 2362000   0.61817738   -3.8381634   -3.8381634   -3.0966711  0.048420677   -3.8381634   0.74149223   424551 
 2363000   0.61827731   -3.8383265   -3.8383265   -3.0967144  0.047871073   -3.8383265   0.74161209   424551 
 2364000   0.61805973   -3.8380823   -3.8380823   -3.0967312  0.048175177   -3.8380823   0.74135111   424551 
 2365000   0.61908891   -3.8396607   -3.8396607   -3.0970751  0.032172022   -3.8396607   0.74258559   424551 
 2366000   0.61821824   -3.8401402   -3.8401402   -3.0985989  0.046069267   -3.8401402   0.74154124   424551 
 2367000   0.61740165   -3.8391562   -3.8391562   -3.0985944  0.040805194   -3.8391562   0.74056176   424551 
 2368000   0.61679074   -3.8381975   -3.8381975   -3.0983685   0.05326074   -3.8381975   0.73982898   424551 
 2369000   0.61860602   -3.8406257   -3.8406257   -3.0986193  0.056235685   -3.8406257   0.74200637   424551 
 2370000   0.61823185   -3.8402731   -3.8402731   -3.0987155  0.042147932   -3.8402731   0.74155756   424551 
 2371000   0.61772527   -3.8391501   -3.8391501   -3.0982002  0.034974638   -3.8391501   0.74094993   424551 
 2372000   0.61621522   -3.8369187   -3.8369187   -3.0977801  0.037165495   -3.8369187   0.73913866   424551 
 2373000   0.61714461   -3.8395356   -3.8395356   -3.0992822  0.046538301   -3.8395356   0.74025344   424551 
 2374000   0.61703866    -3.840037    -3.840037   -3.0999106  0.051958436    -3.840037   0.74012636   424551 
 2375000   0.61722896   -3.8407402   -3.8407402   -3.1003856  0.040518733   -3.8407402   0.74035462   424551 
 2376000   0.61777872    -3.840882    -3.840882    -3.099868  0.034698015    -3.840882   0.74101404   424551 
 2377000   0.61800397   -3.8402005   -3.8402005   -3.0989163   0.03664519   -3.8402005   0.74128422   424551 
 2378000    0.6168332   -3.8402518   -3.8402518   -3.1003718  0.047687776   -3.8402518   0.73987991   424551 
 2379000   0.61783232   -3.8420152   -3.8420152   -3.1009368  0.034067503   -3.8420152   0.74107834   424551 
 2380000   0.61696374   -3.8411391   -3.8411391   -3.1011027  0.046007226   -3.8411391   0.74003649   424551 
 2381000   0.61787151   -3.8415324   -3.8415324   -3.1004071  0.032017998   -3.8415324   0.74112534   424551 
 2382000   0.61715058   -3.8409816   -3.8409816    -3.100721  0.042903541   -3.8409816    0.7402606   424551 
 2383000    0.6186024   -3.8430776   -3.8430776   -3.1010756  0.049926456   -3.8430776   0.74200203   424551 
 2384000   0.61815049   -3.8414843   -3.8414843   -3.1000244  0.046467255   -3.8414843   0.74145997   424551 
 2385000    0.6188314   -3.8430265   -3.8430265   -3.1007498  0.045620437   -3.8430265   0.74227671   424551 
 2386000   0.61822121   -3.8423565   -3.8423565   -3.1008117   0.04731339   -3.8423565    0.7415448   424551 
 2387000    0.6182947   -3.8429009   -3.8429009    -3.101268  0.046340376   -3.8429009   0.74163295   424551 
 2388000   0.61822985   -3.8431085   -3.8431085   -3.1015534  0.035146229   -3.8431085   0.74155517   424551 
 2389000   0.61730039   -3.8422812   -3.8422812   -3.1018409  0.051895217   -3.8422812    0.7404403   424551 
 2390000   0.61691764      -3.8417      -3.8417   -3.1017188  0.036991242      -3.8417    0.7399812   424551 
 2391000   0.61685929   -3.8417887   -3.8417887   -3.1018775  0.043737822   -3.8417887    0.7399112   424551 
 2392000   0.61641711   -3.8417078   -3.8417078    -3.102327  0.032477859   -3.8417078   0.73938082   424551 
 2393000   0.61709478   -3.8415941   -3.8415941   -3.1014004  0.035665287   -3.8415941   0.74019367   424551 
 2394000   0.61713641   -3.8414159   -3.8414159   -3.1011723  0.034104185   -3.8414159   0.74024361   424551 
 2395000   0.61849578   -3.8434878   -3.8434878   -3.1016137  0.044988105   -3.8434878   0.74187415   424551 
 2396000   0.61925764    -3.844568    -3.844568     -3.10178  0.043394106    -3.844568   0.74278798   424551 
 2397000   0.61732954   -3.8429786   -3.8429786   -3.1025033  0.038968176   -3.8429786   0.74047526   424551 
 2398000   0.61770504   -3.8439259   -3.8439259   -3.1030003  0.039745799   -3.8439259   0.74092567   424551 
 2399000   0.61783351    -3.843536    -3.843536   -3.1024562  0.035505474    -3.843536   0.74107976   424551 
 2400000   0.61904418   -3.8453503   -3.8453503   -3.1028183  0.043559978   -3.8453503   0.74253193   424551 
 2401000   0.61908498   -3.8452362   -3.8452362   -3.1026553  0.047188545   -3.8452362   0.74258087   424551 
 2402000     0.618781   -3.8459538   -3.8459538   -3.1037376  0.049023976   -3.8459538   0.74221626   424551 
 2403000   0.61873161   -3.8457147   -3.8457147   -3.1035577  0.038893189   -3.8457147   0.74215702   424551 
 2404000   0.61793252   -3.8442563   -3.8442563   -3.1030578  0.042470814   -3.8442563   0.74119853   424551 
 2405000   0.61846369   -3.8446481   -3.8446481   -3.1028125  0.033668594   -3.8446481   0.74183566   424551 
 2406000   0.61878278   -3.8447042   -3.8447042   -3.1024858  0.043583808   -3.8447042    0.7422184   424551 
 2407000   0.61790346   -3.8438703   -3.8438703   -3.1027066   0.05282025   -3.8438703   0.74116367   424551 
 2408000   0.61819706   -3.8437181   -3.8437181   -3.1022023  0.037084626   -3.8437181   0.74151583   424551 
 2409000   0.61848919   -3.8445623   -3.8445623    -3.102696  0.042872913   -3.8445623   0.74186624   424551 
 2410000   0.61832754   -3.8441711   -3.8441711   -3.1024987  0.040404316   -3.8441711   0.74167234   424551 
 2411000   0.61716429   -3.8434376   -3.8434376   -3.1031606  0.046122474   -3.8434376   0.74027704   424551 
 2412000   0.61793079   -3.8438592   -3.8438592   -3.1026627   0.04572192   -3.8438592   0.74119645   424551 
 2413000    0.6169061   -3.8425291   -3.8425291   -3.1025618  0.035925709   -3.8425291   0.73996735   424551 
 2414000   0.61684591   -3.8431233   -3.8431233   -3.1032281  0.042223679   -3.8431233   0.73989515   424551 
 2415000   0.61734072   -3.8436165   -3.8436165   -3.1031278  0.043955947   -3.8436165   0.74048867   424551 
 2416000    0.6172537   -3.8440036   -3.8440036   -3.1036193  0.049247703   -3.8440036   0.74038429   424551 
 2417000   0.61727234    -3.844638    -3.844638   -3.1042313  0.038586034    -3.844638   0.74040665   424551 
 2418000   0.61747425   -3.8437487   -3.8437487   -3.1030998  0.036063756   -3.8437487   0.74064884   424551 
 2419000   0.61710148   -3.8441218   -3.8441218   -3.1039201   0.03805244   -3.8441218   0.74020171   424551 
 2420000   0.61746549   -3.8453073   -3.8453073    -3.104669  0.048955434   -3.8453073   0.74063833   424551 
 2421000   0.61795912   -3.8460982   -3.8460982   -3.1048678  0.041707244   -3.8460982   0.74123043   424551 
 2422000   0.61778121   -3.8468718   -3.8468718   -3.1058548  0.030801876   -3.8468718   0.74101702   424551 
 2423000   0.61826054   -3.8464505   -3.8464505   -3.1048585  0.050138791   -3.8464505   0.74159198   424551 
 2424000   0.61834355   -3.8466637   -3.8466637   -3.1049722  0.056321505   -3.8466637   0.74169155   424551 
 2425000     0.617354   -3.8461032   -3.8461032   -3.1055986  0.055424699   -3.8461032   0.74050461   424551 
 2426000   0.61733556   -3.8448406   -3.8448406   -3.1043582  0.040420433   -3.8448406   0.74048249   424551 
 2427000   0.61780787    -3.845358    -3.845358    -3.104309  0.034059274    -3.845358     0.741049   424551 
 2428000   0.61808242   -3.8457542   -3.8457542   -3.1043759  0.038800856   -3.8457542   0.74137833   424551 
 2429000   0.61844788   -3.8459634   -3.8459634   -3.1041467  0.040854462   -3.8459634   0.74181669   424551 
 2430000   0.61896257   -3.8470524   -3.8470524   -3.1046183  0.034215127   -3.8470524   0.74243405   424551 
 2431000    0.6172918   -3.8454175   -3.8454175   -3.1049875  0.028463452   -3.8454175   0.74042999   424551 
 2432000   0.61713429   -3.8448339   -3.8448339   -3.1045928  0.032613062   -3.8448339   0.74024106   424551 
 2433000   0.61712749   -3.8441336   -3.8441336   -3.1039007  0.036888322   -3.8441336    0.7402329   424551 
 2434000    0.6160516   -3.8441808   -3.8441808   -3.1052384  0.046552379   -3.8441808   0.73894239   424551 
 2435000   0.61680508   -3.8446678   -3.8446678   -3.1048216  0.042896776   -3.8446678   0.73984618   424551 
 2436000   0.61672614   -3.8456717   -3.8456717   -3.1059202    0.0568096   -3.8456717    0.7397515   424551 
 2437000   0.61730339   -3.8463511   -3.8463511   -3.1059072  0.031231047   -3.8463511   0.74044389   424551 
 2438000   0.61752427   -3.8460724   -3.8460724   -3.1053635   0.04675562   -3.8460724   0.74070884   424551 
 2439000   0.61618684   -3.8446394   -3.8446394   -3.1055348  0.045994508   -3.8446394   0.73910461   424551 
 2440000   0.61869196    -3.847489    -3.847489   -3.1053796  0.035367683    -3.847489   0.74210946   424551 
 2441000   0.61726038   -3.8453005   -3.8453005   -3.1049082  0.045161827   -3.8453005   0.74039231   424551 
 2442000   0.61628426   -3.8446788   -3.8446788   -3.1054573  0.033991992   -3.8446788   0.73922147   424551 
 2443000   0.61708319   -3.8457521   -3.8457521   -3.1055723   0.04408767   -3.8457521   0.74017977   424551 
 2444000     0.617874   -3.8460527   -3.8460527   -3.1049244  0.046382512   -3.8460527   0.74112833   424551 
 2445000   0.61659685   -3.8448367   -3.8448367   -3.1052403  0.050793477   -3.8448367   0.73959641   424551 
 2446000    0.6179059   -3.8470344   -3.8470344   -3.1058678  0.045295304   -3.8470344    0.7411666   424551 
 2447000    0.6172825   -3.8457346   -3.8457346   -3.1053158  0.026077908   -3.8457346   0.74041884   424551 
 2448000   0.61719477    -3.846535    -3.846535   -3.1062213  0.045135317    -3.846535   0.74031361   424551 
 2449000   0.61837522   -3.8479986   -3.8479986    -3.106269  0.040860919   -3.8479986   0.74172954   424551 
 2450000   0.61737794   -3.8475635   -3.8475635   -3.1070301   0.03958389   -3.8475635   0.74053332   424551 
 2451000   0.61557687   -3.8460156   -3.8460156   -3.1076426  0.037954809   -3.8460156   0.73837297   424551 
 2452000   0.61638324   -3.8464184   -3.8464184   -3.1070782  0.034120043   -3.8464184   0.73934019   424551 
 2453000   0.61615624   -3.8463406   -3.8463406   -3.1072727    0.0331761   -3.8463406   0.73906791   424551 
 2454000   0.61604751   -3.8468198   -3.8468198   -3.1078823  0.039902822   -3.8468198   0.73893749   424551 
 2455000   0.61707425    -3.847735    -3.847735    -3.107566  0.057062317    -3.847735   0.74016905   424551 
 2456000   0.61825134   -3.8495463   -3.8495463   -3.1079654  0.042342881   -3.8495463   0.74158094   424551 
 2457000   0.61742532   -3.8489759   -3.8489759   -3.1083858  0.047835852   -3.8489759   0.74059014   424551 
 2458000   0.61694611   -3.8478183   -3.8478183    -3.107803  0.035684477   -3.8478183   0.74001535   424551 
 2459000   0.61758255   -3.8485497   -3.8485497   -3.1077709  0.047077175   -3.8485497   0.74077874   424551 
 2460000   0.61790975   -3.8489614   -3.8489614   -3.1077902  0.037796378   -3.8489614   0.74117121   424551 
 2461000   0.61799078   -3.8489543   -3.8489543   -3.1076859  0.041566958   -3.8489543   0.74126841   424551 
 2462000   0.61780264   -3.8494404   -3.8494404   -3.1083977  0.042469944   -3.8494404   0.74104273   424551 
 2463000   0.61655692   -3.8483453   -3.8483453   -3.1087968  0.039969814   -3.8483453   0.73954852   424551 
 2464000   0.61624856    -3.847775    -3.847775   -3.1085964  0.045581007    -3.847775   0.73917865   424551 
 2465000   0.61636327   -3.8488641   -3.8488641   -3.1095479  0.044920805   -3.8488641   0.73931624   424551 
 2466000   0.61634187   -3.8483927   -3.8483927   -3.1091021  0.038956502   -3.8483927   0.73929056   424551 
 2467000   0.61617976   -3.8488753   -3.8488753   -3.1097792  0.040438054   -3.8488753   0.73909612   424551 
 2468000   0.61654446   -3.8489051   -3.8489051   -3.1093716  0.039295206   -3.8489051   0.73953357   424551 
 2469000   0.61715298   -3.8496902   -3.8496902   -3.1094267  0.039818745   -3.8496902   0.74026347   424551 
 2470000   0.61695275   -3.8500569   -3.8500569   -3.1100336  0.035634014   -3.8500569    0.7400233   424551 
 2471000   0.61583862   -3.8483177   -3.8483177   -3.1096308   0.04131279   -3.8483177   0.73868693   424551 
 2472000   0.61631951   -3.8489166   -3.8489166   -3.1096529  0.041508148   -3.8489166   0.73926375   424551 
 2473000   0.61689267   -3.8489912   -3.8489912   -3.1090399  0.044532173   -3.8489912   0.73995124   424551 
 2474000   0.61751639   -3.8501697   -3.8501697   -3.1094703  0.036382158   -3.8501697   0.74069938   424551 
 2475000    0.6163404   -3.8488139   -3.8488139    -3.109525  0.045938934   -3.8488139   0.73928881   424551 
 2476000   0.61584106   -3.8489297   -3.8489297   -3.1102399  0.038483809   -3.8489297   0.73868986   424551 
 2477000   0.61623923    -3.849358    -3.849358   -3.1101906   0.03926753    -3.849358   0.73916745   424551 
 2478000   0.61591648    -3.849066    -3.849066   -3.1102857   0.05162028    -3.849066   0.73878032   424551 
 2479000   0.61680899   -3.8498841   -3.8498841   -3.1100333  0.037661199   -3.8498841   0.73985088   424551 
 2480000    0.6162311   -3.8496021   -3.8496021   -3.1104444  0.044638343   -3.8496021    0.7391577   424551 
 2481000   0.61427181   -3.8463286   -3.8463286    -3.109521   0.05105467   -3.8463286   0.73680758   424551 
 2482000   0.61681243   -3.8493102   -3.8493102   -3.1094552  0.028927064   -3.8493102     0.739855   424551 
 2483000   0.61553606   -3.8483887   -3.8483887   -3.1100647  0.043443235   -3.8483887   0.73832401   424551 
 2484000   0.61657395   -3.8501468   -3.8501468   -3.1105779   0.01641972   -3.8501468   0.73956894   424551 
 2485000   0.61721409   -3.8509007   -3.8509007   -3.1105639  0.043869442   -3.8509007   0.74033677   424551 
 2486000   0.61547992   -3.8491276   -3.8491276   -3.1108709  0.038485355   -3.8491276   0.73825668   424551 
 2487000   0.61707405   -3.8506298   -3.8506298    -3.110461  0.026518433   -3.8506298   0.74016881   424551 
 2488000   0.61625252   -3.8496609   -3.8496609   -3.1104775  0.037103073   -3.8496609   0.73918339   424551 
 2489000   0.61655398   -3.8502649   -3.8502649     -3.11072  0.032823791   -3.8502649   0.73954499   424551 
 2490000   0.61606827     -3.84957     -3.84957   -3.1106076  0.049582158     -3.84957   0.73896239   424551 
 2491000   0.61749467   -3.8505471   -3.8505471   -3.1098738   0.05235043   -3.8505471   0.74067333   424551 
 2492000   0.61765437    -3.850867    -3.850867   -3.1100021   0.03173508    -3.850867   0.74086488   424551 
 2493000   0.61765041   -3.8502713   -3.8502713   -3.1094112  0.043147519   -3.8502713   0.74086013   424551 
 2494000   0.61718602   -3.8502484   -3.8502484   -3.1099453  0.047811988   -3.8502484   0.74030311   424551 
 2495000   0.61687067   -3.8503964   -3.8503964   -3.1104716  0.033740372   -3.8503964   0.73992486   424551 
 2496000   0.61756852   -3.8519135   -3.8519135   -3.1111516  0.041097053   -3.8519135   0.74076191   424551 
 2497000   0.61736967   -3.8511417   -3.8511417   -3.1106183  0.047761749   -3.8511417   0.74052339   424551 
 2498000   0.61704847   -3.8506208   -3.8506208   -3.1104827   0.03333832   -3.8506208   0.74013812   424551 
 2499000   0.61818508   -3.8513759   -3.8513759   -3.1098744  0.041855567   -3.8513759   0.74150147   424551 
 2500000   0.61679984   -3.8497745   -3.8497745   -3.1099346  0.040184998   -3.8497745   0.73983989   424551 
 2501000   0.61793297   -3.8511187   -3.8511187   -3.1099196  0.037032556   -3.8511187   0.74119907   424551 
 2502000   0.61675367   -3.8502691   -3.8502691   -3.1104846  0.045081542   -3.8502691   0.73978452   424551 
 2503000   0.61854381   -3.8527852   -3.8527852   -3.1108534  0.045959482   -3.8527852   0.74193175   424551 
 2504000   0.61757246   -3.8518582   -3.8518582   -3.1110916  0.045888439   -3.8518582   0.74076664   424551 
 2505000    0.6160714   -3.8503556   -3.8503556   -3.1113895    0.0479472   -3.8503556   0.73896615   424551 
 2506000   0.61604268   -3.8510996   -3.8510996   -3.1121679  0.037801468   -3.8510996    0.7389317   424551 
 2507000   0.61714198   -3.8524409   -3.8524409   -3.1121906  0.047785681   -3.8524409   0.74025029   424551 
 2508000   0.61671393   -3.8514165   -3.8514165   -3.1116796  0.048068862   -3.8514165   0.73973685   424551 
 2509000    0.6157673   -3.8507626   -3.8507626   -3.1121613  0.048307467   -3.8507626   0.73860138   424551 
 2510000   0.61654628   -3.8516482   -3.8516482   -3.1121125  0.041662154   -3.8516482   0.73953576   424551 
 2511000   0.61509355   -3.8502981   -3.8502981   -3.1125049  0.042246823   -3.8502981   0.73779323   424551 
 2512000   0.61658551   -3.8517077   -3.8517077   -3.1121249  0.037918834   -3.8517077   0.73958281   424551 
 2513000   0.61739504   -3.8523248   -3.8523248   -3.1117709  0.021621588   -3.8523248   0.74055382   424551 
 2514000   0.61646884    -3.851166    -3.851166   -3.1117232  0.046079035    -3.851166   0.73944287   424551 
 2515000   0.61624125   -3.8512693   -3.8512693   -3.1120995  0.044565918   -3.8512693   0.73916988   424551 
 2516000    0.6165869   -3.8520827   -3.8520827   -3.1124983    0.0240771   -3.8520827   0.73958448   424551 
 2517000   0.61596524   -3.8512136   -3.8512136   -3.1123748  0.049234409   -3.8512136    0.7388388   424551 
 2518000    0.6165941   -3.8513615   -3.8513615   -3.1117684  0.052419911   -3.8513615   0.73959311   424551 
 2519000   0.61681281   -3.8526153   -3.8526153   -3.1127598  0.041077074   -3.8526153   0.73985546   424551 
 2520000   0.61592738   -3.8518436   -3.8518436   -3.1130502   0.04463944   -3.8518436    0.7387934   424551 
 2521000     0.615599   -3.8517869   -3.8517869   -3.1133874  0.043125139   -3.8517869   0.73839951   424551 
 2522000   0.61503442   -3.8507061   -3.8507061   -3.1129838   0.05002843   -3.8507061   0.73772231   424551 
 2523000   0.61595939   -3.8518345   -3.8518345   -3.1130027  0.048565181   -3.8518345    0.7388318   424551 
 2524000   0.61476121   -3.8507241   -3.8507241   -3.1133295  0.047270359   -3.8507241   0.73739459   424551 
 2525000   0.61629176   -3.8524063   -3.8524063   -3.1131758   0.03935138   -3.8524063   0.73923047   424551 
 2526000    0.6164194   -3.8531574   -3.8531574   -3.1137738  0.033874025   -3.8531574   0.73938357   424551 
 2527000   0.61605533   -3.8526395   -3.8526395   -3.1136926   0.03697252   -3.8526395   0.73894687   424551 
 2528000   0.61630753   -3.8525508   -3.8525508   -3.1133014  0.047338842   -3.8525508   0.73924937   424551 
 2529000   0.61587717   -3.8525202   -3.8525202    -3.113787  0.035883444   -3.8525202   0.73873317   424551 
 2530000   0.61662361   -3.8542786   -3.8542786   -3.1146501  0.048953467   -3.8542786   0.73962852   424551 
 2531000   0.61737894   -3.8548496   -3.8548496   -3.1143151  0.039425725   -3.8548496   0.74053452   424551 
 2532000   0.61650095   -3.8549824   -3.8549824    -3.115501  0.045319302   -3.8549824   0.73948139   424551 
 2533000   0.61672716   -3.8555359   -3.8555359   -3.1157832  0.033842199   -3.8555359   0.73975271   424551 
 2534000   0.61678971   -3.8554211   -3.8554211   -3.1155934  0.035617763   -3.8554211   0.73982775   424551 
 2535000   0.61596885   -3.8536481   -3.8536481   -3.1148049  0.036344337   -3.8536481   0.73884314   424551 
 2536000   0.61700329   -3.8546718   -3.8546718   -3.1145878   0.04408588   -3.8546718   0.74008393   424551 
 2537000   0.61645769   -3.8539827   -3.8539827   -3.1145533  0.057431222   -3.8539827   0.73942949   424551 
 2538000   0.61774152   -3.8558048   -3.8558048   -3.1148354  0.028801397   -3.8558048   0.74096943   424551 
 2539000    0.6157912   -3.8539338   -3.8539338   -3.1153038  0.047561532   -3.8539338   0.73863005   424551 
 2540000   0.61567741   -3.8542828   -3.8542828   -3.1157892  0.025716293   -3.8542828   0.73849356   424551 
 2541000   0.61544753   -3.8549391   -3.8549391   -3.1167213   0.03599567   -3.8549391   0.73821783   424551 
 2542000   0.61495642   -3.8536331   -3.8536331   -3.1160043  0.042862874   -3.8536331   0.73762874   424551 
 2543000   0.61584087   -3.8540979   -3.8540979   -3.1154083  0.045265839   -3.8540979   0.73868963   424551 
 2544000   0.61636619   -3.8542862   -3.8542862   -3.1149664   0.02888967   -3.8542862   0.73931974   424551 
 2545000   0.61517141   -3.8538104   -3.8538104   -3.1159238  0.037680162   -3.8538104   0.73788662   424551 
 2546000   0.61529601   -3.8543547   -3.8543547   -3.1163187  0.034421385   -3.8543547   0.73803608   424551 
 2547000   0.61569337   -3.8545128   -3.8545128   -3.1160001  0.061193369   -3.8545128   0.73851271   424551 
 2548000   0.61577175   -3.8542198   -3.8542198   -3.1156131  0.037798761   -3.8542198   0.73860672   424551 
 2549000    0.6165859   -3.8549568   -3.8549568   -3.1153736  0.028149847   -3.8549568   0.73958327   424551 
 2550000   0.61666458   -3.8555487   -3.8555487    -3.115871  0.047692958   -3.8555487   0.73967765   424551 
 2551000   0.61509633   -3.8544208   -3.8544208   -3.1166242  0.024193871   -3.8544208   0.73779657   424551 
 2552000   0.61561691   -3.8555341   -3.8555341   -3.1171131  0.037318057   -3.8555341   0.73842099   424551 
 2553000   0.61530057   -3.8548759   -3.8548759   -3.1168343  0.046227496   -3.8548759   0.73804155   424551 
 2554000   0.61476081   -3.8538394   -3.8538394   -3.1164453  0.042404293   -3.8538394   0.73739412   424551 
 2555000   0.61617933   -3.8559535   -3.8559535   -3.1168579  0.032115762   -3.8559535    0.7390956   424551 
 2556000   0.61533097   -3.8552645   -3.8552645   -3.1171864  0.031711026   -3.8552645   0.73807802   424551 
 2557000   0.61517476   -3.8551672   -3.8551672   -3.1172766  0.043475081   -3.8551672   0.73789064   424551 
 2558000   0.61454276   -3.8532887   -3.8532887   -3.1161562   0.04474879   -3.8532887   0.73713257   424551 
 2559000   0.61576264   -3.8551968   -3.8551968    -3.116601  0.033434254   -3.8551968   0.73859579   424551 
 2560000   0.61526021   -3.8542785   -3.8542785   -3.1162854   0.04216782   -3.8542785   0.73799314   424551 
 2561000   0.61545267   -3.8546736   -3.8546736   -3.1164496  0.048939834   -3.8546736   0.73822399   424551 
 2562000    0.6162616   -3.8559785   -3.8559785   -3.1167842  0.033929672   -3.8559785   0.73919429   424551 
 2563000   0.61553641   -3.8555237   -3.8555237   -3.1171992  0.033375739   -3.8555237   0.73832443   424551 
 2564000   0.61541138   -3.8553607   -3.8553607   -3.1171862  0.035648744   -3.8553607   0.73817446   424551 
 2565000   0.61548392   -3.8553625   -3.8553625    -3.117101  0.041823156   -3.8553625   0.73826148   424551 
 2566000   0.61488206   -3.8545523   -3.8545523   -3.1170128  0.045973227   -3.8545523   0.73753956   424551 
 2567000   0.61610702   -3.8560726   -3.8560726   -3.1170638  0.031610234   -3.8560726   0.73900887   424551 
 2568000   0.61539681   -3.8552537   -3.8552537   -3.1170967  0.037867538   -3.8552537   0.73815698   424551 
 2569000    0.6162448   -3.8560183   -3.8560183   -3.1168441  0.041800311   -3.8560183   0.73917414   424551 
 2570000   0.61644745   -3.8561485   -3.8561485   -3.1167313  0.047179154   -3.8561485   0.73941721   424551 
 2571000   0.61689378   -3.8564417   -3.8564417   -3.1164891  0.054361075   -3.8564417   0.73995257   424551 
 2572000   0.61563177   -3.8555825   -3.8555825   -3.1171437  0.034796186   -3.8555825   0.73843881   424551 
 2573000   0.61583014   -3.8559524   -3.8559524   -3.1172757  0.051050231   -3.8559524   0.73867675   424551 
 2574000   0.61611956   -3.8562009   -3.8562009    -3.117177  0.040900598   -3.8562009   0.73902392   424551 
 2575000   0.61508239   -3.8541327   -3.8541327   -3.1163529  0.053269184   -3.8541327   0.73777984   424551 
 2576000   0.61671854   -3.8561605   -3.8561605   -3.1164181  0.030635116   -3.8561605   0.73974238   424551 
 2577000   0.61596025   -3.8561076   -3.8561076   -3.1172748  0.027806322   -3.8561076   0.73883282   424551 
 2578000   0.61537352   -3.8557902   -3.8557902   -3.1176612  0.038151149   -3.8557902   0.73812905   424551 
 2579000    0.6144595   -3.8550382   -3.8550382   -3.1180055  0.041535712   -3.8550382    0.7370327   424551 
 2580000   0.61438005   -3.8546949   -3.8546949   -3.1177575  0.040484293   -3.8546949   0.73693741   424551 
 2581000   0.61603998   -3.8564767   -3.8564767   -3.1175483  0.038842705   -3.8564767   0.73892846   424551 
 2582000   0.61541195   -3.8551371   -3.8551371   -3.1169619   0.02842758   -3.8551371   0.73817515   424551 
 2583000   0.61605501   -3.8561041   -3.8561041   -3.1171576  0.037379586   -3.8561041   0.73894648   424551 
 2584000   0.61507191   -3.8553075   -3.8553075   -3.1175402  0.034706056   -3.8553075   0.73776727   424551 
 2585000    0.6158046   -3.8568327   -3.8568327   -3.1181866  0.023193223   -3.8568327   0.73864613   424551 
 2586000   0.61470888   -3.8555677   -3.8555677   -3.1182358  0.039427197   -3.8555677   0.73733183   424551 
 2587000   0.61524837   -3.8561005   -3.8561005   -3.1181215  0.045371268   -3.8561005   0.73797894   424551 
 2588000   0.61502675   -3.8558694   -3.8558694   -3.1181563  0.039184605   -3.8558694    0.7377131   424551 
 2589000   0.61387508   -3.8546742   -3.8546742   -3.1183425  0.042583315   -3.8546742    0.7363317   424551 
 2590000   0.61540761   -3.8562154   -3.8562154   -3.1180455  0.030536666   -3.8562154   0.73816994   424551 
 2591000   0.61534114   -3.8560544   -3.8560544   -3.1179642  0.039583446   -3.8560544   0.73809021   424551 
 2592000   0.61509238   -3.8564144   -3.8564144   -3.1186225  0.044550458   -3.8564144   0.73779183   424551 
 2593000   0.61631188   -3.8576547   -3.8576547   -3.1184001  0.046525127   -3.8576547   0.73925459   424551 
 2594000   0.61539905   -3.8562085   -3.8562085   -3.1180488  0.042448367   -3.8562085   0.73815967   424551 
 2595000   0.61638509   -3.8572157   -3.8572157   -3.1178733  0.027611484   -3.8572157   0.73934241   424551 
 2596000    0.6142579    -3.854671    -3.854671   -3.1178801  0.038733681    -3.854671   0.73679088   424551 
 2597000   0.61533644   -3.8555184   -3.8555184   -3.1174338  0.036392995   -3.8555184   0.73808457   424551 
 2598000   0.61707231    -3.858075    -3.858075   -3.1179083  0.042685134    -3.858075   0.74016672   424551 
 2599000   0.61723279    -3.858049    -3.858049   -3.1176898   0.03826911    -3.858049   0.74035921   424551 
 2600000   0.61488424   -3.8554963   -3.8554963   -3.1179541  0.035712738   -3.8554963   0.73754217   424551 
 2601000   0.61520447   -3.8553664   -3.8553664   -3.1174401  0.036239772   -3.8553664   0.73792628   424551 
 2602000   0.61565921   -3.8558828   -3.8558828   -3.1174111  0.043736459   -3.8558828   0.73847173   424551 
 2603000   0.61653338   -3.8575462   -3.8575462   -3.1180259  0.035248562   -3.8575462   0.73952028   424551 
 2604000      0.61577   -3.8564472   -3.8564472   -3.1178426  0.035897777   -3.8564472   0.73860462   424551 
 2605000    0.6155882   -3.8564443   -3.8564443   -3.1180577  0.040454816   -3.8564443   0.73838656   424551 
 2606000   0.61597712   -3.8574407   -3.8574407   -3.1185877  0.041383228   -3.8574407   0.73885306   424551 
 2607000   0.61574465   -3.8567232   -3.8567232    -3.118149  0.037705164   -3.8567232   0.73857422   424551 
 2608000   0.61481578   -3.8560765   -3.8560765   -3.1186164  0.056946978   -3.8560765   0.73746006   424551 
 2609000   0.61582807   -3.8579693   -3.8579693    -3.119295  0.047282168   -3.8579693   0.73867428   424551 
 2610000   0.61567847   -3.8579273   -3.8579273   -3.1194324  0.043148186   -3.8579273   0.73849483   424551 
 2611000   0.61476863   -3.8574467   -3.8574467   -3.1200432  0.037520061   -3.8574467    0.7374035   424551 
 2612000    0.6147872    -3.857442    -3.857442   -3.1200162  0.033979654    -3.857442   0.73742578   424551 
 2613000   0.61475168   -3.8576086   -3.8576086   -3.1202254  0.026827856   -3.8576086   0.73738316   424551 
 2614000   0.61446754   -3.8571944   -3.8571944    -3.120152  0.035770154   -3.8571944   0.73704234   424551 
 2615000   0.61595732   -3.8582286   -3.8582286   -3.1193993  0.025755497   -3.8582286   0.73882931   424551 
 2616000   0.61578191   -3.8587438   -3.8587438   -3.1201249  0.041626887   -3.8587438    0.7386189   424551 
 2617000   0.61559412    -3.858742    -3.858742   -3.1203483  0.034933316    -3.858742   0.73839366   424551 
 2618000   0.61622911   -3.8599035   -3.8599035   -3.1207482  0.040886125   -3.8599035   0.73915531   424551 
 2619000   0.61508891   -3.8590078   -3.8590078   -3.1212201  0.035350617   -3.8590078   0.73778767   424551 
 2620000   0.61499393   -3.8586297   -3.8586297   -3.1209559  0.041092684   -3.8586297   0.73767374   424551 
 2621000   0.61561583   -3.8593364   -3.8593364   -3.1209167  0.033761159   -3.8593364   0.73841969   424551 
 2622000   0.61510679    -3.858603    -3.858603   -3.1207939  0.057403768    -3.858603   0.73780912   424551 
 2623000   0.61476944   -3.8585976   -3.8585976   -3.1211932  0.036023285   -3.8585976   0.73740447   424551 
 2624000   0.61580589   -3.8599082   -3.8599082   -3.1212606  0.031192014   -3.8599082   0.73864767   424551 
 2625000   0.61345658   -3.8567636   -3.8567636   -3.1209339  0.045520098   -3.8567636   0.73582972   424551 
 2626000   0.61551835   -3.8596139   -3.8596139   -3.1213111  0.045700414   -3.8596139   0.73830278   424551 
 2627000   0.61630518   -3.8595162   -3.8595162   -3.1202696  0.041674101   -3.8595162   0.73924656   424551 
 2628000   0.61510907    -3.857812    -3.857812   -3.1200002  0.036742981    -3.857812   0.73781184   424551 
 2629000   0.61396665   -3.8569751   -3.8569751   -3.1205335  0.040596291   -3.8569751   0.73644154   424551 
 2630000    0.6138717   -3.8583401   -3.8583401   -3.1220125  0.048010499   -3.8583401   0.73632765   424551 
 2631000   0.61479103   -3.8591456   -3.8591456   -3.1217153  0.035152653   -3.8591456   0.73743036   424551 
 2632000   0.61498772   -3.8593977   -3.8593977   -3.1217314  0.034322488   -3.8593977   0.73766629   424551 
 2633000   0.61555614   -3.8598518   -3.8598518   -3.1215037  0.037146938   -3.8598518    0.7383481   424551 
 2634000   0.61505213   -3.8598102   -3.8598102   -3.1220667  0.050000596   -3.8598102   0.73774355   424551 
 2635000   0.61470838   -3.8585365   -3.8585365   -3.1212052  0.043359728   -3.8585365   0.73733123   424551 
 2636000   0.61574463   -3.8600911   -3.8600911   -3.1215169  0.040709312   -3.8600911   0.73857419   424551 
 2637000   0.61441764   -3.8583445   -3.8583445    -3.121362  0.049802828   -3.8583445   0.73698249   424551 
 2638000   0.61413128   -3.8586782   -3.8586782   -3.1220392  0.045284498   -3.8586782     0.736639   424551 
 2639000   0.61440499   -3.8587575   -3.8587575   -3.1217902  0.032964872   -3.8587575   0.73696732   424551 
 2640000   0.61492009   -3.8593024   -3.8593024   -3.1217173  0.039329992   -3.8593024   0.73758517   424551 
 2641000   0.61568394   -3.8600322   -3.8600322   -3.1215308  0.037286699   -3.8600322   0.73850139   424551 
 2642000   0.61575634   -3.8603002   -3.8603002   -3.1217119   0.03338935   -3.8603002   0.73858824   424551 
 2643000   0.61512295    -3.859609    -3.859609   -3.1217805  0.033355087    -3.859609    0.7378285   424551 
 2644000   0.61572862   -3.8593531   -3.8593531   -3.1207981  0.032506186   -3.8593531   0.73855499   424551 
 2645000   0.61644916   -3.8608531   -3.8608531   -3.1214338  0.050557865   -3.8608531   0.73941926   424551 
 2646000   0.61460431   -3.8592775   -3.8592775   -3.1220711  0.039525959   -3.8592775    0.7372064   424551 
 2647000   0.61570309   -3.8614508   -3.8614508   -3.1229264  0.045941921   -3.8614508   0.73852437   424551 
 2648000   0.61364299   -3.8584385   -3.8584385   -3.1223851  0.053731963   -3.8584385   0.73605332   424551 
 2649000   0.61464178   -3.8600567   -3.8600567   -3.1228054  0.053312515   -3.8600567   0.73725134   424551 
 2650000   0.61404951   -3.8600755   -3.8600755   -3.1235346  0.022600587   -3.8600755   0.73654093   424551 
 2651000    0.6147329   -3.8604477   -3.8604477    -3.123087  0.040552565   -3.8604477   0.73736064   424551 
 2652000   0.61515543   -3.8609298   -3.8609298   -3.1230624  0.029854671   -3.8609298   0.73786745   424551 
 2653000   0.61576551   -3.8621102   -3.8621102   -3.1235109   0.03410921   -3.8621102   0.73859924   424551 
 2654000   0.61526127   -3.8612051   -3.8612051   -3.1232107  0.042925835   -3.8612051   0.73799442   424551 
 2655000   0.61510038   -3.8614701   -3.8614701   -3.1236687  0.046238044   -3.8614701   0.73780142   424551 
 2656000   0.61572107   -3.8615898   -3.8615898   -3.1230439  0.043650601   -3.8615898   0.73854593   424551 
 2657000    0.6150305   -3.8611858   -3.8611858   -3.1234682   0.04224576   -3.8611858    0.7377176   424551 
 2658000   0.61440663   -3.8607339   -3.8607339   -3.1237647  0.046944621   -3.8607339   0.73696929   424551 
 2659000   0.61566252   -3.8627749   -3.8627749   -3.1242992  0.032574757   -3.8627749    0.7384757   424551 
 2660000   0.61448069    -3.860611    -3.860611   -3.1235529  0.037853134    -3.860611   0.73705812   424551 
 2661000       0.6162   -3.8627966   -3.8627966   -3.1236762  0.032749941   -3.8627966    0.7391204   424551 
 2662000   0.61537556   -3.8624887   -3.8624887   -3.1243572  0.035126773   -3.8624887    0.7381315   424551 
 2663000   0.61423795   -3.8614957   -3.8614957   -3.1247287  0.040378691   -3.8614957   0.73676696   424551 
 2664000   0.61460804   -3.8617072   -3.8617072   -3.1244963  0.036594734   -3.8617072   0.73721087   424551 
 2665000   0.61469464   -3.8616991   -3.8616991   -3.1243843   0.03617999   -3.8616991   0.73731475   424551 
 2666000   0.61500246   -3.8618231   -3.8618231   -3.1241391  0.042303568   -3.8618231   0.73768397   424551 
 2667000   0.61492394   -3.8622685   -3.8622685   -3.1246787  0.041185226   -3.8622685   0.73758979   424551 
 2668000   0.61472236   -3.8621228   -3.8621228   -3.1247748  0.037868152   -3.8621228     0.737348   424551 
 2669000   0.61508042   -3.8627918   -3.8627918   -3.1250144  0.041202468   -3.8627918   0.73777748   424551 
 2670000   0.61445916    -3.861917    -3.861917   -3.1248847  0.035089883    -3.861917    0.7370323   424551 
 2671000   0.61367624    -3.861833    -3.861833   -3.1257398  0.031505441    -3.861833    0.7360932   424551 
 2672000   0.61407375   -3.8625831   -3.8625831   -3.1260131  0.031100014   -3.8625831   0.73657001   424551 
 2673000   0.61380892   -3.8619479   -3.8619479   -3.1256956   0.03162103   -3.8619479   0.73625234   424551 
 2674000   0.61429716   -3.8617992   -3.8617992   -3.1249612  0.052363023   -3.8617992   0.73683798   424551 
 2675000   0.61453125   -3.8616184   -3.8616184   -3.1244996  0.038120165   -3.8616184   0.73711877   424551 
 2676000   0.61414706   -3.8614931   -3.8614931   -3.1248351  0.043364796   -3.8614931   0.73665794   424551 
 2677000   0.61373279   -3.8612883   -3.8612883   -3.1251273  0.034470563   -3.8612883   0.73616102   424551 
 2678000   0.61495845   -3.8633771   -3.8633771   -3.1257459  0.049671107   -3.8633771   0.73763118   424551 
 2679000   0.61457191   -3.8624324   -3.8624324   -3.1252648  0.041277185   -3.8624324   0.73716754   424551 
 2680000   0.61427063    -3.862595    -3.862595   -3.1257888  0.052690832    -3.862595   0.73680615   424551 
 2681000    0.6152189   -3.8633009   -3.8633009   -3.1253573  0.036585322   -3.8633009   0.73794359   424551 
 2682000   0.61329951   -3.8607266   -3.8607266   -3.1250852  0.036046974   -3.8607266   0.73564132   424551 
 2683000   0.61422206   -3.8618211   -3.8618211   -3.1250732  0.038100608   -3.8618211   0.73674789   424551 
 2684000   0.61415833   -3.8619886   -3.8619886   -3.1253172  0.041382411   -3.8619886   0.73667145   424551 
 2685000   0.61380741   -3.8610797   -3.8610797   -3.1248292  0.042311415   -3.8610797   0.73625053   424551 
 2686000   0.61507901   -3.8619152   -3.8619152   -3.1241395  0.033659845   -3.8619152   0.73777579   424551 
 2687000   0.61548048   -3.8629416   -3.8629416   -3.1246842   0.03444467   -3.8629416   0.73825734   424551 
 2688000    0.6142269   -3.8621968   -3.8621968   -3.1254431  0.048763529   -3.8621968    0.7367537   424551 
 2689000   0.61318448   -3.8617728   -3.8617728   -3.1262695   0.02858276   -3.8617728   0.73550334   424551 
 2690000   0.61410828   -3.8630499   -3.8630499   -3.1264385  0.050490719   -3.8630499   0.73661142   424551 
 2691000   0.61469213    -3.864056    -3.864056   -3.1267442  0.047004743    -3.864056   0.73731174   424551 
 2692000   0.61366837   -3.8622727   -3.8622727   -3.1261889  0.037455893   -3.8622727   0.73608376   424551 
 2693000   0.61434647   -3.8632141   -3.8632141    -3.126317  0.043736397   -3.8632141   0.73689713   424551 
 2694000    0.6140263   -3.8629489   -3.8629489   -3.1264358  0.047903312   -3.8629489   0.73651309   424551 
 2695000   0.61531904   -3.8652372   -3.8652372   -3.1271735  0.058044771   -3.8652372    0.7380637   424551 
 2696000   0.61389859   -3.8651777   -3.8651777   -3.1288178   0.04119963   -3.8651777    0.7363599   424551 
 2697000    0.6140612   -3.8647843   -3.8647843   -3.1282293  0.042925561   -3.8647843   0.73655494   424551 
 2698000   0.61263509   -3.8633416   -3.8633416   -3.1284972  0.042668432   -3.8633416   0.73484435   424551 
 2699000   0.61468945   -3.8657364   -3.8657364   -3.1284279  0.040643334   -3.8657364   0.73730853   424551 
 2700000   0.61560741   -3.8661786   -3.8661786    -3.127769  0.036949213   -3.8661786    0.7384096   424551 
 2701000   0.61515349   -3.8651008   -3.8651008   -3.1272357  0.056207795   -3.8651008   0.73786513   424551 
 2702000   0.61408475   -3.8634361   -3.8634361   -3.1268529  0.033771988   -3.8634361    0.7365832   424551 
 2703000   0.61566773   -3.8657777   -3.8657777   -3.1272958  0.032886479   -3.8657777   0.73848195   424551 
 2704000   0.61404262   -3.8645486   -3.8645486   -3.1280159  0.041978143   -3.8645486   0.73653266   424551 
 2705000   0.61415363   -3.8646156   -3.8646156   -3.1279498  0.024978061   -3.8646156   0.73666581   424551 
 2706000   0.61368449   -3.8644731   -3.8644731     -3.12837  0.043716028   -3.8644731   0.73610309   424551 
 2707000   0.61406661   -3.8650456   -3.8650456   -3.1284842  0.036355659   -3.8650456   0.73656144   424551 
 2708000   0.61510617   -3.8656245   -3.8656245   -3.1278162  0.037974012   -3.8656245   0.73780837   424551 
 2709000    0.6140302    -3.864262    -3.864262   -3.1277442  0.042939746    -3.864262   0.73651776   424551 
 2710000   0.61357974   -3.8635594   -3.8635594    -3.127582  0.037463924   -3.8635594   0.73597745   424551 
 2711000   0.61502598   -3.8653348   -3.8653348   -3.1276226  0.038521114   -3.8653348   0.73771219   424551 
 2712000   0.61460076   -3.8647603   -3.8647603   -3.1275582  0.034265862   -3.8647603   0.73720214   424551 
 2713000    0.6144819   -3.8639932   -3.8639932   -3.1269337   0.03429879   -3.8639932   0.73705957   424551 
 2714000   0.61473705   -3.8649352   -3.8649352   -3.1275696  0.051633808   -3.8649352   0.73736562   424551 
 2715000   0.61360353   -3.8630332   -3.8630332   -3.1270272  0.044061569   -3.8630332   0.73600597   424551 
 2716000   0.61367018   -3.8635514   -3.8635514   -3.1274655  0.032170428   -3.8635514   0.73608592   424551 
 2717000   0.61426529   -3.8639455   -3.8639455   -3.1271457  0.035149794   -3.8639455   0.73679975   424551 
 2718000   0.61485563   -3.8641166   -3.8641166   -3.1266088  0.031899338   -3.8641166   0.73750785   424551 
 2719000    0.6139572   -3.8630208   -3.8630208   -3.1265906  0.040714562   -3.8630208    0.7364302   424551 
 2720000   0.61393204   -3.8626192   -3.8626192   -3.1262191  0.028371008   -3.8626192   0.73640002   424551 
 2721000   0.61299615   -3.8619745   -3.8619745   -3.1266971  0.036798189   -3.8619745   0.73527744   424551 
 2722000   0.61403634   -3.8624032   -3.8624032   -3.1258781  0.036097379   -3.8624032   0.73652513   424551 
 2723000   0.61428293   -3.8627939   -3.8627939    -3.125973  0.045210821   -3.8627939   0.73682091   424551 
 2724000   0.61297835   -3.8613778   -3.8613778   -3.1261217  0.035573533   -3.8613778   0.73525609   424551 
 2725000   0.61432119   -3.8630099   -3.8630099   -3.1261431  0.041827458   -3.8630099    0.7368668   424551 
 2726000   0.61353825   -3.8624003   -3.8624003   -3.1264726  0.036544847   -3.8624003   0.73592768   424551 
 2727000   0.61390144   -3.8636761   -3.8636761   -3.1273127  0.030691974   -3.8636761   0.73636332   424551 
 2728000     0.613284   -3.8625412   -3.8625412   -3.1269185  0.034226305   -3.8625412   0.73562271   424551 
 2729000   0.61374132   -3.8630342   -3.8630342   -3.1268629  0.044778603   -3.8630342   0.73617126   424551 
 2730000   0.61402498   -3.8632934   -3.8632934   -3.1267819  0.041939602   -3.8632934    0.7365115   424551 
 2731000    0.6148381   -3.8643645   -3.8643645   -3.1268777   0.04654353   -3.8643645   0.73748683   424551 
 2732000   0.61382395   -3.8632152   -3.8632152   -3.1269448  0.044923643   -3.8632152   0.73627038   424551 
 2733000   0.61412542   -3.8642487   -3.8642487   -3.1276167   0.04421435   -3.8642487   0.73663197   424551 
 2734000   0.61405337   -3.8647633   -3.8647633   -3.1282177  0.042089807   -3.8647633   0.73654555   424551 
 2735000    0.6125134   -3.8625596   -3.8625596   -3.1278612  0.023660332   -3.8625596   0.73469839   424551 
 2736000   0.61467351   -3.8645867   -3.8645867   -3.1272973  0.036583459   -3.8645867    0.7372894   424551 
 2737000   0.61320893   -3.8625421   -3.8625421   -3.1270095  0.045913487   -3.8625421   0.73553267   424551 
 2738000   0.61461996   -3.8643116   -3.8643116   -3.1270864  0.049076359   -3.8643116   0.73722517   424551 
 2739000   0.61493972   -3.8646595   -3.8646595   -3.1270508  0.038205892   -3.8646595   0.73760871   424551 
 2740000   0.61457757   -3.8650154   -3.8650154   -3.1278411  0.039984996   -3.8650154   0.73717432   424551 
 2741000   0.61410634   -3.8649326   -3.8649326   -3.1283235  0.033509204   -3.8649326    0.7366091   424551 
 2742000   0.61541614   -3.8660237   -3.8660237   -3.1278435  0.037216518   -3.8660237   0.73818018   424551 
 2743000   0.61359729   -3.8641957   -3.8641957   -3.1281972  0.036281189   -3.8641957    0.7359985   424551 
 2744000   0.61373079   -3.8641776   -3.8641776   -3.1280189   0.05493831   -3.8641776   0.73615863   424551 
 2745000   0.61428445   -3.8646629   -3.8646629   -3.1278402  0.040423507   -3.8646629   0.73682274   424551 
 2746000   0.61346336   -3.8641034   -3.8641034   -3.1282656  0.048071414   -3.8641034   0.73583785   424551 
 2747000   0.61419482   -3.8648837   -3.8648837   -3.1281685  0.029687203   -3.8648837   0.73671523   424551 
 2748000   0.61505928   -3.8653555   -3.8653555   -3.1276033  0.042125357   -3.8653555   0.73775213   424551 
 2749000   0.61485696   -3.8664939   -3.8664939   -3.1289845  0.046525654   -3.8664939   0.73750945   424551 
 2750000   0.61544498   -3.8662367   -3.8662367   -3.1280219  0.036388638   -3.8662367   0.73821477   424551 
 2751000   0.61567054   -3.8666984   -3.8666984   -3.1282131  0.034650568   -3.8666984   0.73848532   424551 
 2752000   0.61343146     -3.86397     -3.86397   -3.1281704  0.037164157     -3.86397   0.73579959   424551 
 2753000   0.61354097   -3.8647072   -3.8647072   -3.1287763  0.042342654   -3.8647072   0.73593095   424551 
 2754000   0.61383157   -3.8643756   -3.8643756   -3.1280961  0.032504468   -3.8643756   0.73627951   424551 
 2755000   0.61450869   -3.8649577   -3.8649577    -3.127866  0.047251666   -3.8649577    0.7370917   424551 
 2756000   0.61449136   -3.8651979   -3.8651979    -3.128127  0.040990484   -3.8651979   0.73707091   424551 
 2757000   0.61418027   -3.8645899   -3.8645899   -3.1278921  0.035511769   -3.8645899   0.73669778   424551 
 2758000   0.61234549   -3.8640132   -3.8640132   -3.1295162  0.050003381   -3.8640132   0.73449698   424551 
 2759000   0.61338111    -3.864727    -3.864727   -3.1289878  0.042337515    -3.864727   0.73573919   424551 
 2760000   0.61328989   -3.8652326   -3.8652326   -3.1296029  0.039833992   -3.8652326   0.73562978   424551 
 2761000   0.61415721   -3.8660785   -3.8660785   -3.1294084  0.037568145   -3.8660785   0.73667011   424551 
 2762000   0.61462211   -3.8677746   -3.8677746   -3.1305468  0.047557415   -3.8677746   0.73722775   424551 
 2763000    0.6152556   -3.8679302   -3.8679302   -3.1299426  0.050571269   -3.8679302    0.7379876   424551 
 2764000   0.61402558   -3.8666084   -3.8666084   -3.1300962  0.064991005   -3.8666084   0.73651223   424551 
 2765000   0.61444312   -3.8670388   -3.8670388   -3.1300258  0.037252148   -3.8670388   0.73701305   424551 
 2766000   0.61335923   -3.8663011   -3.8663011   -3.1305881  0.039087257   -3.8663011   0.73571295   424551 
 2767000   0.61325131   -3.8663227   -3.8663227   -3.1307392  0.031237159   -3.8663227   0.73558351   424551 
 2768000    0.6144254   -3.8669179   -3.8669179   -3.1299261  0.033519365   -3.8669179    0.7369918   424551 
 2769000   0.61339975   -3.8659276   -3.8659276    -3.130166  0.034940323   -3.8659276   0.73576155   424551 
 2770000   0.61562096   -3.8680761   -3.8680761   -3.1296503  0.050683284   -3.8680761   0.73842585   424551 
 2771000   0.61444976   -3.8672287   -3.8672287   -3.1302077  0.036540336   -3.8672287   0.73702102   424551 
 2772000   0.61531375   -3.8675589   -3.8675589   -3.1295015  0.031162895   -3.8675589   0.73805736   424551 
 2773000   0.61459966   -3.8668878   -3.8668878    -3.129687  0.056115786   -3.8668878   0.73720082   424551 
 2774000   0.61465502   -3.8671626   -3.8671626   -3.1298954  0.048806333   -3.8671626   0.73726722   424551 
 2775000    0.6135669   -3.8670606   -3.8670606   -3.1310985  0.042420024   -3.8670606   0.73596204   424551 
 2776000   0.61440482   -3.8673646   -3.8673646   -3.1303975  0.035205501   -3.8673646   0.73696711   424551 
 2777000   0.61453604   -3.8672755   -3.8672755    -3.130151  0.038934132   -3.8672755   0.73712452   424551 
 2778000   0.61446489   -3.8669792   -3.8669792     -3.12994  0.032806411   -3.8669792   0.73703917   424551 
 2779000   0.61382967   -3.8661936   -3.8661936   -3.1299164  0.040390963   -3.8661936   0.73627724   424551 
 2780000   0.61330662    -3.866136    -3.866136   -3.1304861  0.047210606    -3.866136   0.73564985   424551 
 2781000   0.61423624   -3.8671221   -3.8671221   -3.1303572  0.037374338   -3.8671221   0.73676491   424551 
 2782000   0.61368744   -3.8667575   -3.8667575   -3.1306509  0.047249788   -3.8667575   0.73610663   424551 
 2783000   0.61429494   -3.8673003   -3.8673003    -3.130465  0.038124812   -3.8673003   0.73683532   424551 
 2784000   0.61437009   -3.8675424   -3.8675424   -3.1306169  0.040370197   -3.8675424   0.73692546   424551 
 2785000   0.61452999   -3.8680711   -3.8680711   -3.1309538  0.041163517   -3.8680711   0.73711725   424551 
 2786000    0.6136638   -3.8668666   -3.8668666   -3.1307883  0.039118418   -3.8668666   0.73607828   424551 
 2787000    0.6131678   -3.8653382   -3.8653382   -3.1298549  0.054360454   -3.8653382   0.73548333   424551 
 2788000   0.61344121   -3.8650993   -3.8650993    -3.129288  0.049536059   -3.8650993   0.73581129   424551 
 2789000   0.61363477   -3.8651582   -3.8651582   -3.1291148  0.043956755   -3.8651582   0.73604345   424551 
 2790000   0.61311479   -3.8647415   -3.8647415   -3.1293217  0.046526189   -3.8647415   0.73541975   424551 
 2791000   0.61366441   -3.8662295   -3.8662295   -3.1301505  0.035900727   -3.8662295     0.736079   424551 
 2792000   0.61304782   -3.8650161   -3.8650161   -3.1296767  0.041498444   -3.8650161   0.73533942   424551 
 2793000   0.61415111   -3.8672237   -3.8672237   -3.1305609  0.039208247   -3.8672237   0.73666279   424551 
 2794000   0.61353892   -3.8668933   -3.8668933   -3.1309648  0.028787228   -3.8668933   0.73592848   424551 
 2795000   0.61312532   -3.8670846   -3.8670846   -3.1316522  0.033557625   -3.8670846   0.73543238   424551 
 2796000   0.61268935   -3.8666598   -3.8666598   -3.1317504  0.040754103   -3.8666598   0.73490944   424551 
 2797000   0.61251562   -3.8666078   -3.8666078   -3.1319067  0.048113014   -3.8666078   0.73470105   424551 
 2798000   0.61303114   -3.8672198   -3.8672198   -3.1319004   0.03811999   -3.8672198   0.73531941   424551 
 2799000   0.61299846   -3.8671064   -3.8671064   -3.1318262  0.044061731   -3.8671064   0.73528021   424551 
 2800000   0.61353045   -3.8674508   -3.8674508   -3.1315325  0.028919108   -3.8674508   0.73591832   424551 
 2801000   0.61304851   -3.8676098   -3.8676098   -3.1322696  0.033053032   -3.8676098   0.73534025   424551 
 2802000   0.61353715   -3.8682548   -3.8682548   -3.1323285  0.039128995   -3.8682548   0.73592636   424551 
 2803000   0.61275526   -3.8674524   -3.8674524   -3.1324639  0.034007183   -3.8674524    0.7349885   424551 
 2804000   0.61304131   -3.8681743   -3.8681743   -3.1328427  0.030004857   -3.8681743   0.73533161   424551 
 2805000    0.6129651    -3.868399    -3.868399   -3.1331588  0.040253101    -3.868399    0.7352402   424551 
 2806000   0.61356968    -3.869515    -3.869515   -3.1335496  0.033872117    -3.869515   0.73596538   424551 
 2807000   0.61470234    -3.869528    -3.869528   -3.1322041   0.03905235    -3.869528   0.73732399   424551 
 2808000   0.61400537   -3.8686874   -3.8686874   -3.1321994  0.042288922   -3.8686874   0.73648798   424551 
 2809000    0.6135139   -3.8683292   -3.8683292   -3.1324308  0.035206032   -3.8683292   0.73589848   424551 
 2810000   0.61320559   -3.8680564   -3.8680564   -3.1325278  0.039704741   -3.8680564   0.73552866   424551 
 2811000   0.61404476   -3.8697156   -3.8697156   -3.1331803  0.038130786   -3.8697156   0.73653523   424551 
 2812000   0.61319437   -3.8688108   -3.8688108   -3.1332956  0.037505399   -3.8688108    0.7355152   424551 
 2813000   0.61294832   -3.8678765   -3.8678765   -3.1326564  0.051934588   -3.8678765   0.73522007   424551 
 2814000    0.6135787   -3.8693052   -3.8693052    -3.133329  0.047329899   -3.8693052    0.7359762   424551 
 2815000   0.61300003   -3.8688597   -3.8688597   -3.1335776  0.044539838   -3.8688597    0.7352821   424551 
 2816000   0.61388919   -3.8702532   -3.8702532   -3.1339046   0.04452662   -3.8702532   0.73634863   424551 
 2817000   0.61348079   -3.8701099   -3.8701099   -3.1342511  0.044543535   -3.8701099   0.73585876   424551 
 2818000   0.61227793   -3.8689159   -3.8689159      -3.1345  0.034822477   -3.8689159   0.73441595   424551 
 2819000   0.61310201   -3.8705187   -3.8705187   -3.1351143  0.039016161   -3.8705187   0.73540441   424551 
 2820000   0.61225559   -3.8693464   -3.8693464   -3.1349572  0.035413418   -3.8693464   0.73438915   424551 
 2821000   0.61260098   -3.8699412   -3.8699412   -3.1351377  0.044972829   -3.8699412   0.73480344   424551 
 2822000    0.6118415   -3.8690503   -3.8690503   -3.1351578  0.035183189   -3.8690503   0.73389246   424551 
 2823000   0.61318953   -3.8707866   -3.8707866   -3.1352772  0.041833796   -3.8707866   0.73550939   424551 
 2824000   0.61402868   -3.8719696   -3.8719696   -3.1354536  0.031018046   -3.8719696   0.73651594   424551 
 2825000   0.61341576   -3.8714809   -3.8714809   -3.1357001  0.025373212   -3.8714809   0.73578076   424551 
 2826000   0.61267368   -3.8715344   -3.8715344   -3.1366437  0.039229151   -3.8715344   0.73489064   424551 
 2827000   0.61414737   -3.8732405   -3.8732405   -3.1365822  0.047389862   -3.8732405    0.7366583   424551 
 2828000   0.61155046    -3.870962    -3.870962   -3.1374187  0.031484857    -3.870962   0.73354336   424551 
 2829000   0.61396811   -3.8730833   -3.8730833     -3.13664  0.039064022   -3.8730833   0.73644329   424551 
 2830000   0.61440534   -3.8737525   -3.8737525   -3.1367847  0.033316171   -3.8737525   0.73696773   424551 
 2831000   0.61328954   -3.8725056   -3.8725056   -3.1368763  0.040242772   -3.8725056   0.73562935   424551 
 2832000   0.61188621   -3.8710782   -3.8710782   -3.1371321  0.032647036   -3.8710782   0.73394609   424551 
 2833000   0.61292852   -3.8724506   -3.8724506   -3.1372542  0.040158788   -3.8724506   0.73519632   424551 
 2834000    0.6123203   -3.8722376   -3.8722376   -3.1377708  0.032377995   -3.8722376   0.73446677   424551 
 2835000   0.61238581   -3.8727605   -3.8727605   -3.1382152  0.035153962   -3.8727605   0.73454535   424551 
 2836000   0.61244826   -3.8726147   -3.8726147   -3.1379945  0.035915241   -3.8726147   0.73462025   424551 
 2837000   0.61331667   -3.8731189   -3.8731189    -3.137457  0.052834601   -3.8731189    0.7356619   424551 
 2838000   0.61242871   -3.8724443   -3.8724443   -3.1378475  0.032685992   -3.8724443   0.73459681   424551 
 2839000   0.61288395   -3.8729768   -3.8729768    -3.137834  0.028632533   -3.8729768   0.73514285   424551 
 2840000    0.6132762   -3.8723317   -3.8723317   -3.1367183  0.046339386   -3.8723317   0.73561335   424551 
 2841000   0.61211225   -3.8720653   -3.8720653   -3.1378481  0.036971866   -3.8720653   0.73421722   424551 
 2842000   0.61198268    -3.871464    -3.871464   -3.1374022  0.036586823    -3.871464   0.73406181   424551 
 2843000   0.61250854   -3.8723499   -3.8723499   -3.1376574  0.049027994   -3.8723499   0.73469256   424551 
 2844000   0.61146008   -3.8707008   -3.8707008   -3.1372659  0.034451237   -3.8707008   0.73343495   424551 
 2845000   0.61226801   -3.8715502   -3.8715502   -3.1371461  0.054127604   -3.8715502   0.73440405   424551 
 2846000   0.61142651   -3.8707396   -3.8707396    -3.137345  0.035190408   -3.8707396   0.73339468   424551 
 2847000    0.6125394   -3.8724766   -3.8724766    -3.137747  0.029998686   -3.8724766   0.73472957   424551 
 2848000   0.61327625   -3.8727499   -3.8727499   -3.1371365  0.028220891   -3.8727499   0.73561341   424551 
 2849000   0.61274847   -3.8720791   -3.8720791   -3.1370988  0.045479719   -3.8720791   0.73498035   424551 
 2850000   0.61336962   -3.8731349   -3.8731349   -3.1374095  0.033889655   -3.8731349   0.73572541   424551 
 2851000   0.61353672   -3.8734916   -3.8734916   -3.1375657  0.032604193   -3.8734916   0.73592584   424551 
 2852000   0.61235872    -3.872333    -3.872333   -3.1378202  0.042343741    -3.872333   0.73451286   424551 
 2853000   0.61287898     -3.87255     -3.87255   -3.1374131  0.041222919     -3.87255    0.7351369   424551 
 2854000   0.61182529   -3.8716768   -3.8716768   -3.1378038  0.040663199   -3.8716768   0.73387301   424551 
 2855000   0.61172088   -3.8710881   -3.8710881   -3.1373403  0.041968042   -3.8710881   0.73374777   424551 
 2856000   0.61314287   -3.8731958   -3.8731958   -3.1377424  0.037232882   -3.8731958   0.73545343   424551 
 2857000   0.61296083   -3.8736718   -3.8736718   -3.1384367  0.035352443   -3.8736718   0.73523508   424551 
 2858000   0.61235654   -3.8726771   -3.8726771   -3.1381669  0.033201952   -3.8726771   0.73451024   424551 
 2859000   0.61327534   -3.8735872   -3.8735872   -3.1379749  0.053039434   -3.8735872   0.73561232   424551 
 2860000   0.61327108   -3.8741161   -3.8741161   -3.1385089  0.037858569   -3.8741161   0.73560722   424551 
 2861000    0.6135653    -3.875077    -3.875077   -3.1391169  0.033571216    -3.875077   0.73596013   424551 
 2862000   0.61345579   -3.8746103   -3.8746103   -3.1387815  0.043110167   -3.8746103   0.73582877   424551 
 2863000   0.61318412   -3.8744182   -3.8744182   -3.1389153  0.042969336   -3.8744182   0.73550291   424551 
 2864000   0.61269913   -3.8741423   -3.8741423   -3.1392211  0.040652116   -3.8741423   0.73492117   424551 
 2865000   0.61258839   -3.8731208   -3.8731208   -3.1383325    0.0475412   -3.8731208   0.73478835   424551 
 2866000   0.61285086   -3.8731307   -3.8731307   -3.1380276  0.045706504   -3.8731307   0.73510317   424551 
 2867000   0.61199385   -3.8726986   -3.8726986   -3.1386234  0.038643587   -3.8726986    0.7340752   424551 
 2868000     0.612652   -3.8735258   -3.8735258   -3.1386612  0.040886663   -3.8735258   0.73486464   424551 
 2869000    0.6106118   -3.8708695   -3.8708695   -3.1384521  0.045656793   -3.8708695   0.73241745   424551 
 2870000   0.61279936   -3.8733554   -3.8733554    -3.138314  0.032297264   -3.8733554   0.73504139   424551 
 2871000   0.61128888   -3.8710142   -3.8710142   -3.1377846  0.036299163   -3.8710142   0.73322961   424551 
 2872000   0.61279306   -3.8729888   -3.8729888   -3.1379549  0.040885691   -3.8729888   0.73503383   424551 
 2873000   0.61298603   -3.8734049   -3.8734049   -3.1381396  0.036858063   -3.8734049    0.7352653   424551 
 2874000   0.61222526   -3.8732505   -3.8732505   -3.1388978  0.032574923   -3.8732505   0.73435277   424551 
 2875000   0.61158678   -3.8732699   -3.8732699   -3.1396829  0.033272875   -3.8732699   0.73358693   424551 
 2876000   0.61196301   -3.8738235   -3.8738235   -3.1397853  0.034778871   -3.8738235   0.73403821   424551 
 2877000   0.61384967   -3.8763114   -3.8763114   -3.1400102  0.035589348   -3.8763114   0.73630122   424551 
 2878000    0.6118455   -3.8738114   -3.8738114   -3.1399142  0.041303022   -3.8738114   0.73389726   424551 
 2879000   0.61164646    -3.872549    -3.872549   -3.1388905  0.038673309    -3.872549   0.73365852   424551 
 2880000   0.61408989   -3.8746896   -3.8746896   -3.1381002  0.047967298   -3.8746896   0.73658936   424551 
 2881000   0.61323787    -3.873601    -3.873601   -3.1380336  0.044786805    -3.873601   0.73556738   424551 
 2882000   0.61475251     -3.87578     -3.87578   -3.1383958  0.038159227     -3.87578   0.73738416   424551 
 2883000   0.61290241   -3.8742686   -3.8742686   -3.1391036  0.050561112   -3.8742686     0.735165   424551 
 2884000    0.6117619    -3.873411    -3.873411    -3.139614  0.031006257    -3.873411   0.73379698   424551 
 2885000   0.61045591    -3.871509    -3.871509   -3.1392785  0.045047208    -3.871509   0.73223046   424551 
 2886000   0.61285846   -3.8747327   -3.8747327   -3.1396204   0.03167156   -3.8747327   0.73511228   424551 
 2887000   0.61233749    -3.873156    -3.873156   -3.1386686  0.035918454    -3.873156   0.73448739   424551 
 2888000   0.61269635   -3.8736445   -3.8736445   -3.1387266  0.038369303   -3.8736445   0.73491784   424551 
 2889000   0.61207104   -3.8726239   -3.8726239   -3.1384561   0.02636492   -3.8726239   0.73416779   424551 
 2890000   0.61134098   -3.8712329   -3.8712329   -3.1379408  0.031422459   -3.8712329   0.73329209   424551 
 2891000   0.61236053   -3.8722144   -3.8722144   -3.1376994  0.034195213   -3.8722144   0.73451503   424551 
 2892000   0.61112678   -3.8711173   -3.8711173   -3.1380822  0.056427812   -3.8711173   0.73303517   424551 
 2893000   0.61098449   -3.8714271   -3.8714271   -3.1385627  0.041665362   -3.8714271   0.73286449   424551 
 2894000   0.61161297   -3.8721818   -3.8721818   -3.1385634  0.039775361   -3.8721818   0.73361835   424551 
 2895000   0.61203729   -3.8729541   -3.8729541   -3.1388268  0.030028197   -3.8729541    0.7341273   424551 
 2896000   0.61237846   -3.8738175   -3.8738175    -3.139281  0.037426335   -3.8738175   0.73453654   424551 
 2897000   0.61319609   -3.8750891   -3.8750891   -3.1395718  0.038995185   -3.8750891   0.73551726   424551 
 2898000   0.61263065   -3.8746557   -3.8746557   -3.1398166  0.034333121   -3.8746557   0.73483904   424551 
 2899000   0.61364991    -3.876262    -3.876262   -3.1402004  0.044450132    -3.876262   0.73606161   424551 
 2900000   0.61186097   -3.8728753   -3.8728753   -3.1389595   0.04836887   -3.8728753   0.73391581   424551 
 2901000   0.61238909   -3.8737187   -3.8737187   -3.1391694  0.036387829   -3.8737187   0.73454928   424551 
 2902000   0.61213793    -3.873306    -3.873306   -3.1390579  0.032812294    -3.873306   0.73424802   424551 
 2903000   0.61185437   -3.8734446   -3.8734446   -3.1395367  0.044273842   -3.8734446   0.73390789   424551 
 2904000   0.61287419   -3.8749414   -3.8749414   -3.1398102  0.034888302   -3.8749414   0.73513115   424551 
 2905000   0.61253702   -3.8746593   -3.8746593   -3.1399325  0.052705545   -3.8746593   0.73472673   424551 
 2906000   0.61313742   -3.8756875   -3.8756875   -3.1402406  0.036147752   -3.8756875   0.73544689   424551 
 2907000   0.61254482   -3.8752017   -3.8752017   -3.1404656  0.040139348   -3.8752017   0.73473608   424551 
 2908000   0.61225646   -3.8746794   -3.8746794   -3.1402892  0.055750543   -3.8746794    0.7343902   424551 
 2909000   0.61287265   -3.8756426   -3.8756426   -3.1405133  0.039664757   -3.8756426    0.7351293   424551 
 2910000   0.61373726   -3.8764187   -3.8764187   -3.1402523  0.055508899   -3.8764187   0.73616639   424551 
 2911000   0.61166011   -3.8737516   -3.8737516   -3.1400767  0.041787634   -3.8737516   0.73367488   424551 
 2912000   0.61202619   -3.8748041   -3.8748041   -3.1406901  0.033784986   -3.8748041   0.73411399   424551 
 2913000   0.61121392   -3.8736034   -3.8736034   -3.1404638  0.033092695   -3.8736034   0.73313969   424551 
 2914000   0.61079745   -3.8717588   -3.8717588   -3.1391187   0.04193366   -3.8717588   0.73264014   424551 
 2915000     0.610577   -3.8724133   -3.8724133   -3.1400376  0.043947826   -3.8724133   0.73237571   424551 
 2916000   0.61083697   -3.8719594   -3.8719594   -3.1392719  0.033354028   -3.8719594   0.73268754   424551 
 2917000   0.61196786   -3.8724335   -3.8724335   -3.1383895  0.040119054   -3.8724335   0.73404402   424551 
 2918000   0.61286923   -3.8727761   -3.8727761   -3.1376509   0.03426697   -3.8727761   0.73512521   424551 
 2919000   0.61138343   -3.8714298   -3.8714298   -3.1380868  0.037639019   -3.8714298   0.73334301   424551 
 2920000   0.61225462   -3.8730051   -3.8730051   -3.1386171  0.039165198   -3.8730051   0.73438799   424551 
 2921000    0.6125461   -3.8726272   -3.8726272   -3.1378895  0.039029955   -3.8726272   0.73473762   424551 
 2922000   0.61290368   -3.8728109   -3.8728109   -3.1376444  0.039117303   -3.8728109   0.73516652   424551 
 2923000   0.61349635   -3.8738689   -3.8738689   -3.1379915  0.026648254   -3.8738689   0.73587742   424551 
 2924000    0.6125855   -3.8734664   -3.8734664   -3.1386816  0.045495645   -3.8734664   0.73478487   424551 
 2925000   0.61331234   -3.8746507   -3.8746507    -3.138994  0.037371119   -3.8746507    0.7356567   424551 
 2926000   0.61260419   -3.8734629   -3.8734629   -3.1386556  0.031674419   -3.8734629   0.73480729   424551 
 2927000    0.6128564   -3.8741726   -3.8741726   -3.1390628  0.043638052   -3.8741726   0.73510981   424551 
 2928000   0.61378465    -3.875108    -3.875108   -3.1388847  0.029024133    -3.875108   0.73622324   424551 
 2929000   0.61374838   -3.8756731   -3.8756731   -3.1394933  0.039530357   -3.8756731   0.73617972   424551 
 2930000   0.61410657   -3.8762925   -3.8762925   -3.1396832  0.023487507   -3.8762925   0.73660937   424551 
 2931000   0.61340097   -3.8760137   -3.8760137   -3.1402507  0.035838997   -3.8760137   0.73576301   424551 
 2932000   0.61258272   -3.8743333   -3.8743333   -3.1395517  0.048997374   -3.8743333   0.73478153   424551 
 2933000   0.61252406    -3.874096    -3.874096   -3.1393848  0.037105149    -3.874096   0.73471117   424551 
 2934000   0.61288747   -3.8747368   -3.8747368   -3.1395897  0.029575815   -3.8747368   0.73514708   424551 
 2935000   0.61326627   -3.8748969   -3.8748969   -3.1392954  0.031725231   -3.8748969   0.73560145   424551 
 2936000    0.6113627   -3.8735852   -3.8735852    -3.140267  0.037060733   -3.8735852   0.73331814   424551 
 2937000   0.61071857   -3.8728297   -3.8728297   -3.1402842  0.037406932   -3.8728297   0.73254552   424551 
 2938000   0.61259721   -3.8748126   -3.8748126   -3.1400136  0.036758048   -3.8748126   0.73479891   424551 
 2939000   0.61105557   -3.8731523   -3.8731523   -3.1402025  0.044080557   -3.8731523   0.73294975   424551 
 2940000   0.61204189   -3.8741006   -3.8741006   -3.1399677   0.03190126   -3.8741006   0.73413283   424551 
 2941000   0.61203968   -3.8748078   -3.8748078   -3.1406776  0.033177067   -3.8748078   0.73413018   424551 
 2942000   0.61233145   -3.8743887   -3.8743887   -3.1399086   0.03805314   -3.8743887   0.73448014   424551 
 2943000    0.6119087   -3.8739604   -3.8739604   -3.1399874  0.044128422   -3.8739604   0.73397306   424551 
 2944000   0.61214594   -3.8740452   -3.8740452   -3.1397876  0.035857041   -3.8740452   0.73425763   424551 
 2945000   0.61069309   -3.8726515   -3.8726515   -3.1401365  0.043836691   -3.8726515   0.73251497   424551 
 2946000   0.61156994   -3.8747924   -3.8747924   -3.1412257   0.04812396   -3.8747924   0.73356673   424551 
 2947000   0.61214193    -3.875703    -3.875703   -3.1414501  0.042889465    -3.875703   0.73425282   424551 
 2948000   0.61168438   -3.8743621   -3.8743621   -3.1406581  0.042287814   -3.8743621     0.733704   424551 
 2949000   0.61193031    -3.875491    -3.875491    -3.141492   0.04386844    -3.875491   0.73399898   424551 
 2950000   0.61172671   -3.8756398   -3.8756398   -3.1418851  0.051399093   -3.8756398   0.73375477   424551 
 2951000   0.61181673   -3.8765515   -3.8765515   -3.1426888  0.044120243   -3.8765515   0.73386275   424551 
 2952000    0.6111146   -3.8753152   -3.8753152   -3.1422946  0.033222812   -3.8753152   0.73302055   424551 
 2953000   0.61195697   -3.8759811   -3.8759811   -3.1419502  0.048745312   -3.8759811   0.73403096   424551 
 2954000   0.61217693   -3.8762527   -3.8762527   -3.1419579  0.051479202   -3.8762527    0.7342948   424551 
 2955000   0.61287814   -3.8766174   -3.8766174   -3.1414815  0.044524922   -3.8766174   0.73513589   424551 
 2956000   0.61216046   -3.8756725   -3.8756725   -3.1413974  0.044065458   -3.8756725   0.73427504   424551 
 2957000   0.61199928   -3.8752533   -3.8752533   -3.1411716  0.033986891   -3.8752533   0.73408171   424551 
 2958000   0.61244053   -3.8766291   -3.8766291   -3.1420181  0.042224957   -3.8766291   0.73461099   424551 
 2959000   0.61086627    -3.874836    -3.874836   -3.1421133  0.032922054    -3.874836   0.73272269   424551 
 2960000   0.61013426   -3.8748755   -3.8748755   -3.1430308  0.049485226   -3.8748755   0.73184465   424551 
 2961000   0.61145927   -3.8757511   -3.8757511   -3.1423171  0.035255546   -3.8757511   0.73343398   424551 
 2962000   0.61132489   -3.8753038   -3.8753038    -3.142031  0.044279044   -3.8753038   0.73327279   424551 
 2963000    0.6121145   -3.8764827   -3.8764827   -3.1422628  0.045351966   -3.8764827   0.73421992   424551 
 2964000   0.61272309   -3.8776311   -3.8776311   -3.1426811  0.040929449   -3.8776311   0.73494991   424551 
 2965000   0.61241145   -3.8776087   -3.8776087   -3.1430326  0.044703781   -3.8776087   0.73457611   424551 
 2966000   0.61179655   -3.8766763   -3.8766763   -3.1428378  0.035684324   -3.8766763   0.73383854   424551 
 2967000   0.61212823   -3.8772301   -3.8772301   -3.1429938  0.029402713   -3.8772301   0.73423638   424551 
 2968000   0.61102734   -3.8760005   -3.8760005   -3.1430846  0.050230994   -3.8760005   0.73291588   424551 
 2969000   0.61136535   -3.8764535   -3.8764535   -3.1431321  0.048725384   -3.8764535   0.73332132   424551 
 2970000   0.61142753   -3.8762026   -3.8762026   -3.1428067   0.03933611   -3.8762026   0.73339591   424551 
 2971000   0.61153996   -3.8764391   -3.8764391   -3.1429084  0.037599724   -3.8764391   0.73353077   424551 
 2972000   0.61099452   -3.8755634   -3.8755634   -3.1426868  0.030799886   -3.8755634   0.73287652   424551 
 2973000   0.61277661   -3.8775668   -3.8775668   -3.1425527   0.03019636   -3.8775668   0.73501411   424551 
 2974000   0.61225026    -3.876552    -3.876552   -3.1421693   0.03158739    -3.876552   0.73438276   424551 
 2975000   0.61264416   -3.8775945   -3.8775945   -3.1427392  0.034939489   -3.8775945   0.73485524   424551 
 2976000   0.61239324   -3.8771028   -3.8771028   -3.1425485  0.040152006   -3.8771028   0.73455426   424551 
 2977000   0.61224147   -3.8767795   -3.8767795   -3.1424073  0.047884422   -3.8767795   0.73437222   424551 
 2978000   0.61188907    -3.876343    -3.876343   -3.1423935  0.049524535    -3.876343   0.73394952   424551 
 2979000   0.61181315   -3.8760921   -3.8760921   -3.1422337  0.050766542   -3.8760921   0.73385846   424551 
 2980000   0.61268065   -3.8770915   -3.8770915   -3.1421925  0.042695072   -3.8770915     0.734899   424551 
 2981000    0.6116497   -3.8761085   -3.8761085   -3.1424462  0.037045263   -3.8761085   0.73366239   424551 
 2982000    0.6110945   -3.8761913   -3.8761913   -3.1431948  0.038691083   -3.8761913   0.73299644   424551 
 2983000   0.61170565   -3.8768711   -3.8768711   -3.1431416  0.043272338   -3.8768711   0.73372951   424551 
 2984000   0.61205727   -3.8776925   -3.8776925   -3.1435413   0.04749034   -3.8776925   0.73415128   424551 
 2985000   0.61208513   -3.8785745   -3.8785745   -3.1443898  0.038458319   -3.8785745   0.73418469   424551 
 2986000   0.61195198   -3.8782582   -3.8782582   -3.1442332  0.042321675   -3.8782582   0.73402498   424551 
 2987000   0.61157757   -3.8778026   -3.8778026   -3.1442267  0.040676554   -3.8778026   0.73357588   424551 
 2988000   0.61070279   -3.8776415   -3.8776415   -3.1451149  0.046216514   -3.8776415   0.73252659   424551 
 2989000      0.61255   -3.8787934   -3.8787934   -3.1440511  0.039916708   -3.8787934    0.7347423   424551 
 2990000   0.61317362   -3.8799671   -3.8799671   -3.1444768  0.033679098   -3.8799671   0.73549031   424551 
 2991000   0.61237471   -3.8786911   -3.8786911    -3.144159  0.044954818   -3.8786911   0.73453203   424551 
 2992000   0.61275612   -3.8791151   -3.8791151   -3.1441256  0.042591265   -3.8791151   0.73498952   424551 
 2993000   0.61285316   -3.8790605   -3.8790605   -3.1439546  0.046415739   -3.8790605   0.73510592   424551 
 2994000   0.61203361    -3.878148    -3.878148   -3.1440251  0.034274193    -3.878148   0.73412289   424551 
 2995000   0.61188928   -3.8784143   -3.8784143   -3.1444645  0.040421908   -3.8784143   0.73394977   424551 
 2996000   0.61175422   -3.8786871   -3.8786871   -3.1448994   0.04736551   -3.8786871   0.73378776   424551 
 2997000   0.61322114   -3.8802118   -3.8802118   -3.1446645   0.05315163   -3.8802118   0.73554731   424551 
 2998000   0.61191901   -3.8783811   -3.8783811   -3.1443956  0.037126233   -3.8783811   0.73398543   424551 
 2999000   0.61171724   -3.8778744   -3.8778744    -3.144131   0.03407227   -3.8778744   0.73374342   424551 
 3000000   0.61239443   -3.8793198   -3.8793198   -3.1447641  0.044787511   -3.8793198   0.73455569   424551 
 3001000   0.61128679   -3.8782419   -3.8782419   -3.1450148  0.028693015   -3.8782419   0.73322709   424551 
 3002000   0.61120365   -3.8776394   -3.8776394   -3.1445121  0.038404179   -3.8776394   0.73312737   424551 
 3003000   0.61182744   -3.8778984   -3.8778984   -3.1440228  0.042581533   -3.8778984    0.7338756   424551 
 3004000   0.61122737   -3.8775178   -3.8775178    -3.144362  0.044874695   -3.8775178   0.73315582   424551 
 3005000   0.61184656   -3.8784856   -3.8784856   -3.1445871  0.038172173   -3.8784856   0.73389853   424551 
 3006000   0.61202468   -3.8791064   -3.8791064   -3.1449942  0.035963673   -3.8791064   0.73411218   424551 
 3007000   0.61209539   -3.8790434   -3.8790434   -3.1448464  0.038702341   -3.8790434     0.734197   424551 
 3008000   0.61137584   -3.8785667   -3.8785667   -3.1452328  0.045708085   -3.8785667    0.7333339   424551 
 3009000   0.61030247   -3.8772369   -3.8772369   -3.1451905  0.031841216   -3.8772369   0.73204642   424551 
 3010000   0.61209675   -3.8787466   -3.8787466    -3.144548   0.05287795   -3.8787466   0.73419863   424551 
 3011000   0.61171132   -3.8777425   -3.8777425   -3.1440062  0.043509606   -3.8777425   0.73373631   424551 
 3012000   0.61100142   -3.8765091   -3.8765091   -3.1436243  0.039160705   -3.8765091    0.7328848   424551 
 3013000   0.61242843   -3.8780422   -3.8780422   -3.1434457   0.03469255   -3.8780422   0.73459648   424551 
 3014000    0.6110639   -3.8767178   -3.8767178    -3.143758  0.048317981   -3.8767178   0.73295974   424551 
 3015000   0.61218182   -3.8782218   -3.8782218   -3.1439212  0.036512342   -3.8782218   0.73430066   424551 
 3016000   0.61275114    -3.878874    -3.878874   -3.1438905  0.044609537    -3.878874   0.73498356   424551 
 3017000    0.6106098   -3.8771279   -3.8771279   -3.1447129   0.04911713   -3.8771279   0.73241506   424551 
 3018000   0.61180671   -3.8784899   -3.8784899   -3.1446391  0.043660569   -3.8784899   0.73385073   424551 
 3019000   0.61184406   -3.8786285   -3.8786285   -3.1447329   0.04397289   -3.8786285   0.73389553   424551 
 3020000   0.61170623   -3.8783022   -3.8783022    -3.144572  0.037400424   -3.8783022   0.73373021   424551 
 3021000   0.61044281   -3.8770383   -3.8770383   -3.1448236   0.04039981   -3.8770383   0.73221476   424551 
 3022000   0.61171539   -3.8782496   -3.8782496   -3.1445084  0.043472616   -3.8782496   0.73374119   424551 
 3023000   0.61208946   -3.8789834   -3.8789834   -3.1447935  0.044816246   -3.8789834   0.73418989   424551 
 3024000   0.61168228   -3.8781211   -3.8781211   -3.1444197  0.048708563   -3.8781211   0.73370148   424551 
 3025000     0.611049   -3.8777709   -3.8777709    -3.144829  0.035003161   -3.8777709   0.73294187   424551 
 3026000   0.61143828   -3.8787553   -3.8787553   -3.1453465  0.035548646   -3.8787553    0.7334088   424551 
 3027000   0.61144393   -3.8792101   -3.8792101   -3.1457945  0.041604921   -3.8792101   0.73341558   424551 
 3028000   0.61121426    -3.879664    -3.879664   -3.1465239  0.025099596    -3.879664   0.73314009   424551 
 3029000   0.61294447   -3.8815463   -3.8815463   -3.1463309  0.045404254   -3.8815463   0.73521545   424551 
 3030000   0.61236818    -3.880762    -3.880762   -3.1462378  0.033075864    -3.880762    0.7345242   424551 
 3031000   0.61182084    -3.880355    -3.880355   -3.1464873  0.024759822    -3.880355   0.73386768   424551 
 3032000   0.61042647   -3.8793795   -3.8793795   -3.1471843  0.047064948   -3.8793795   0.73219516   424551 
 3033000   0.61165315   -3.8806879   -3.8806879   -3.1470214  0.041943631   -3.8806879   0.73366654   424551 
 3034000   0.61252542   -3.8819543   -3.8819543   -3.1472415  0.027852412   -3.8819543   0.73471281   424551 
 3035000   0.61178859   -3.8805129   -3.8805129   -3.1466839  0.039728832   -3.8805129     0.733829   424551 
 3036000   0.61118013   -3.8794608   -3.8794608   -3.1463616  0.052080109   -3.8794608   0.73309916   424551 
 3037000   0.61257618   -3.8811823   -3.8811823   -3.1464086  0.038295315   -3.8811823   0.73477369   424551 
 3038000   0.61154163   -3.8804824   -3.8804824   -3.1469496  0.034967533   -3.8804824   0.73353277   424551 
 3039000   0.61199114   -3.8803845   -3.8803845   -3.1463125  0.044134365   -3.8803845   0.73407195   424551 
 3040000   0.61206304   -3.8803887   -3.8803887   -3.1462305  0.043350944   -3.8803887   0.73415819   424551 
 3041000   0.61248629   -3.8822249   -3.8822249    -3.147559  0.037886333   -3.8822249   0.73466587   424551 
 3042000   0.61190259   -3.8818991   -3.8818991   -3.1479334  0.036792523   -3.8818991   0.73396573   424551 
 3043000   0.61144185   -3.8815854   -3.8815854   -3.1481723  0.033659273   -3.8815854   0.73341308   424551 
 3044000   0.61138952   -3.8818741   -3.8818741   -3.1485238  0.039701206   -3.8818741   0.73335031   424551 
 3045000    0.6114863   -3.8809341   -3.8809341   -3.1474677  0.037051367   -3.8809341    0.7334664   424551 
 3046000   0.61159846   -3.8807894   -3.8807894   -3.1471885  0.037331772   -3.8807894   0.73360094   424551 
 3047000   0.61121544   -3.8804226   -3.8804226   -3.1472811  0.050801456   -3.8804226   0.73314151   424551 
 3048000   0.61147954   -3.8804162   -3.8804162   -3.1469579  0.032741264   -3.8804162    0.7334583   424551 
 3049000   0.61124677   -3.8797322   -3.8797322   -3.1465531  0.031161941   -3.8797322   0.73317909   424551 
 3050000   0.61262503   -3.8820539   -3.8820539   -3.1472216   0.02964068   -3.8820539   0.73483229   424551 
 3051000   0.61245982   -3.8814925   -3.8814925   -3.1468584  0.048955745   -3.8814925   0.73463412   424551 
 3052000   0.61325294   -3.8831976   -3.8831976   -3.1476121  0.041476412   -3.8831976   0.73558546   424551 
 3053000   0.61227902   -3.8819691   -3.8819691   -3.1475518  0.041847586   -3.8819691   0.73441725   424551 
 3054000   0.61111038   -3.8809352   -3.8809352   -3.1479198  0.042411568   -3.8809352    0.7330155   424551 
 3055000    0.6102334   -3.8796651   -3.8796651   -3.1477015   0.04186247   -3.8796651   0.73196358   424551 
 3056000   0.61135229   -3.8810597   -3.8810597    -3.147754  0.037040143   -3.8810597   0.73330566   424551 
 3057000   0.61243132   -3.8825291   -3.8825291   -3.1479292  0.038326744   -3.8825291   0.73459993   424551 
 3058000   0.61017185   -3.8801589   -3.8801589   -3.1482691  0.041094376   -3.8801589   0.73188974   424551 
 3059000   0.61039783   -3.8808439   -3.8808439   -3.1486831   0.03449162   -3.8808439   0.73216081   424551 
 3060000   0.60894665   -3.8800323   -3.8800323   -3.1496122  0.025078488   -3.8800323   0.73042014   424551 
 3061000   0.60914212   -3.8800549   -3.8800549   -3.1494003  0.043164718   -3.8800549   0.73065461   424551 
 3062000   0.60952629   -3.8805747   -3.8805747   -3.1494593  0.034805286   -3.8805747    0.7311154   424551 
 3063000   0.61042894   -3.8819384   -3.8819384   -3.1497403  0.035959547   -3.8819384   0.73219812   424551 
 3064000   0.61018939   -3.8809896   -3.8809896   -3.1490788  0.019751246   -3.8809896   0.73191078   424551 
 3065000   0.61063515   -3.8817938   -3.8817938   -3.1493483  0.043110713   -3.8817938   0.73244546   424551 
 3066000   0.61070397   -3.8824577   -3.8824577   -3.1499297  0.045514772   -3.8824577   0.73252802   424551 
 3067000   0.61071287   -3.8817249   -3.8817249   -3.1491862   0.04061354   -3.8817249   0.73253869   424551 
 3068000   0.61005388   -3.8817808   -3.8817808   -3.1500325  0.039759322   -3.8817808   0.73174825   424551 
 3069000   0.61114387   -3.8826071   -3.8826071   -3.1495514  0.041577323   -3.8826071   0.73305567   424551 
 3070000   0.61026592   -3.8819033   -3.8819033   -3.1499007  0.037127356   -3.8819033   0.73200258   424551 
 3071000   0.61254451   -3.8839715   -3.8839715   -3.1492358  0.038766374   -3.8839715   0.73473571   424551 
 3072000   0.61123613   -3.8828018   -3.8828018   -3.1496354  0.032956577   -3.8828018   0.73316633   424551 
 3073000   0.61155167   -3.8831451   -3.8831451   -3.1496003  0.041086296   -3.8831451   0.73354482   424551 
 3074000   0.61176869   -3.8830821   -3.8830821    -3.149277  0.044458616   -3.8830821   0.73380512   424551 
 3075000   0.61130632   -3.8826871   -3.8826871   -3.1494366  0.046823455   -3.8826871   0.73325052   424551 
 3076000   0.61190477   -3.8829071   -3.8829071   -3.1489388  0.028649737   -3.8829071   0.73396835   424551 
 3077000   0.61057589   -3.8809788   -3.8809788   -3.1486044   0.05121948   -3.8809788   0.73237438   424551 
 3078000   0.61241887   -3.8834596   -3.8834596   -3.1488746    0.0407672   -3.8834596     0.734585   424551 
 3079000   0.61257127   -3.8835876   -3.8835876   -3.1488198  0.036164281   -3.8835876    0.7347678   424551 
 3080000   0.61153435   -3.8822417   -3.8822417   -3.1487176  0.023879483   -3.8822417   0.73352404   424551 
 3081000   0.61168265   -3.8831975   -3.8831975   -3.1494955  0.030111104   -3.8831975   0.73370192   424551 
 3082000   0.61104263    -3.883485    -3.883485   -3.1505507  0.024456574    -3.883485   0.73293423   424551 
 3083000   0.61061901   -3.8824219   -3.8824219   -3.1499958  0.041070697   -3.8824219    0.7324261   424551 
 3084000    0.6110114   -3.8826959   -3.8826959   -3.1497991  0.046938028   -3.8826959   0.73289677   424551 
 3085000    0.6096261   -3.8815105   -3.8815105   -3.1502754  0.036837634   -3.8815105   0.73123513   424551 
 3086000   0.61161203   -3.8834515   -3.8834515   -3.1498343  0.045219239   -3.8834515   0.73361721   424551 
 3087000   0.61241643   -3.8845776   -3.8845776   -3.1499956  0.037081221   -3.8845776   0.73458208   424551 
 3088000   0.61061657   -3.8821486   -3.8821486   -3.1497254  0.036040456   -3.8821486   0.73242318   424551 
 3089000   0.61147615    -3.883038    -3.883038   -3.1495837   0.04609757    -3.883038   0.73345423   424551 
 3090000   0.61188036   -3.8846582   -3.8846582   -3.1507191  0.032114325   -3.8846582   0.73393907   424551 
 3091000   0.61215176   -3.8844545   -3.8844545   -3.1501899   0.03349552   -3.8844545   0.73426461   424551 
 3092000   0.61100213   -3.8819873   -3.8819873   -3.1491016  0.035717201   -3.8819873   0.73288564   424551 
 3093000   0.61102533   -3.8821404   -3.8821404   -3.1492269  0.050668363   -3.8821404   0.73291348   424551 
 3094000   0.61170106   -3.8836713   -3.8836713   -3.1499473  0.036960239   -3.8836713     0.733724   424551 
 3095000   0.61051879   -3.8817245   -3.8817245   -3.1494186  0.041678619   -3.8817245   0.73230589   424551 
 3096000   0.61121183   -3.8829109   -3.8829109   -3.1497737  0.036111082   -3.8829109   0.73313718   424551 
 3097000    0.6104775   -3.8827989   -3.8827989   -3.1505425  0.037535824   -3.8827989   0.73225636   424551 
 3098000   0.61143815   -3.8838665   -3.8838665   -3.1504578  0.030589693   -3.8838665   0.73340865   424551 
 3099000   0.61256957   -3.8852082   -3.8852082   -3.1504425  0.031872605   -3.8852082   0.73476576   424551 
 3100000   0.61124283   -3.8833973   -3.8833973   -3.1502229  0.039585859   -3.8833973   0.73317436   424551 
 3101000   0.61185843   -3.8842932   -3.8842932   -3.1503804  0.041769593   -3.8842932   0.73391276   424551 
 3102000   0.61093741   -3.8837851   -3.8837851   -3.1509771  0.033704468   -3.8837851   0.73280802   424551 
 3103000    0.6118567   -3.8848439   -3.8848439   -3.1509332  0.040142127   -3.8848439   0.73391069   424551 
 3104000   0.61150537   -3.8835636   -3.8835636   -3.1500744  0.039828366   -3.8835636   0.73348927   424551 
 3105000   0.61189689   -3.8839669   -3.8839669    -3.150008   0.04553618   -3.8839669    0.7339589   424551 
 3106000   0.61070532   -3.8834026   -3.8834026    -3.150873   0.03651227   -3.8834026   0.73252964   424551 
 3107000   0.61203641   -3.8861489   -3.8861489   -3.1520226  0.022850223   -3.8861489   0.73412625   424551 
 3108000   0.61029536   -3.8849616   -3.8849616   -3.1529237  0.040351494   -3.8849616   0.73203789   424551 
 3109000   0.61046577   -3.8850569   -3.8850569   -3.1528146  0.044658143   -3.8850569   0.73224229   424551 
 3110000   0.61038146   -3.8850775   -3.8850775   -3.1529363  0.023682458   -3.8850775   0.73214117   424551 
 3111000   0.61140694   -3.8868306   -3.8868306   -3.1534593  0.043054864   -3.8868306   0.73337121   424551 
 3112000    0.6112496   -3.8866095   -3.8866095    -3.153427  0.043215956   -3.8866095   0.73318249   424551 
 3113000   0.61166325   -3.8859783   -3.8859783   -3.1522996  0.034216742   -3.8859783   0.73367865   424551 
 3114000   0.61095247   -3.8857656   -3.8857656   -3.1529395  0.039512773   -3.8857656   0.73282609   424551 
 3115000   0.61018501   -3.8851065   -3.8851065   -3.1532009  0.046461837   -3.8851065   0.73190553   424551 
 3116000   0.61147583   -3.8866334   -3.8866334   -3.1531796   0.05045129   -3.8866334   0.73345384   424551 
 3117000   0.61155361   -3.8873844   -3.8873844   -3.1538373  0.029887051   -3.8873844   0.73354714   424551 
 3118000   0.61020289   -3.8860682   -3.8860682   -3.1541412  0.043465872   -3.8860682   0.73192697   424551 
 3119000   0.61057444   -3.8858753   -3.8858753   -3.1535027  0.035229335   -3.8858753   0.73237264   424551 
 3120000   0.61099958   -3.8861792   -3.8861792   -3.1532966  0.034209943   -3.8861792    0.7328826   424551 
 3121000   0.61073474   -3.8862408   -3.8862408   -3.1536758  0.035174254   -3.8862408   0.73256492   424551 
 3122000   0.61032685   -3.8850316   -3.8850316   -3.1529559  0.045873034   -3.8850316   0.73207566   424551 
 3123000   0.61180139   -3.8868781   -3.8868781   -3.1530337  0.050619326   -3.8868781   0.73384435   424551 
 3124000   0.61081931   -3.8862949   -3.8862949   -3.1536285  0.038010677   -3.8862949   0.73266637   424551 
 3125000   0.60976543   -3.8849956   -3.8849956   -3.1535933   0.03636597   -3.8849956   0.73140225   424551 
 3126000   0.60998542   -3.8854813   -3.8854813   -3.1538152  0.032562289   -3.8854813   0.73166613   424551 
 3127000   0.61147846   -3.8863583   -3.8863583   -3.1529013  0.039881095   -3.8863583     0.733457   424551 
 3128000   0.61107451    -3.886185    -3.886185   -3.1532125  0.037509335    -3.886185   0.73297247   424551 
 3129000   0.60995933   -3.8852999   -3.8852999   -3.1536651  0.043392258   -3.8852999   0.73163483   424551 
 3130000   0.60967739   -3.8851271   -3.8851271   -3.1538304   0.04440394   -3.8851271   0.73129665   424551 
 3131000    0.6108423   -3.8871773   -3.8871773   -3.1544833  0.044641004   -3.8871773   0.73269394   424551 
 3132000   0.61140882   -3.8871592   -3.8871592   -3.1537857  0.051796443   -3.8871592   0.73337346   424551 
 3133000   0.61185438   -3.8877468   -3.8877468   -3.1538389  0.046176435   -3.8877468   0.73390791   424551 
 3134000   0.61088264   -3.8859025   -3.8859025   -3.1531602  0.032626066   -3.8859025   0.73274233   424551 
 3135000   0.61144326   -3.8871291   -3.8871291   -3.1537143  0.038196329   -3.8871291   0.73341477   424551 
 3136000   0.61103807   -3.8872255   -3.8872255   -3.1542967  0.043399246   -3.8872255   0.73292877   424551 
 3137000   0.61112987   -3.8865916   -3.8865916   -3.1535527   0.03263118   -3.8865916   0.73303887   424551 
 3138000   0.61219538   -3.8886643   -3.8886643   -3.1543474  0.033311502   -3.8886643   0.73431693   424551 
 3139000   0.61042001   -3.8857445   -3.8857445   -3.1535571   0.04439019   -3.8857445   0.73218741   424551 
 3140000   0.61071503   -3.8865578   -3.8865578   -3.1540165  0.033281079   -3.8865578   0.73254128   424551 
 3141000   0.61028249   -3.8859567   -3.8859567   -3.1539342  0.032780732   -3.8859567   0.73202246   424551 
 3142000   0.61135561   -3.8861456   -3.8861456   -3.1528359  0.024065238   -3.8861456   0.73330964   424551 
 3143000   0.61143731   -3.8868777   -3.8868777     -3.15347  0.028721426   -3.8868777   0.73340764   424551 
 3144000   0.60911055   -3.8848681   -3.8848681   -3.1542514  0.038645491   -3.8848681   0.73061674   424551 
 3145000   0.61091838   -3.8869237   -3.8869237   -3.1541385  0.040630555   -3.8869237   0.73278519   424551 
 3146000   0.61080939    -3.886759    -3.886759   -3.1541046     0.042406    -3.886759   0.73265447   424551 
 3147000   0.61169653   -3.8875899   -3.8875899   -3.1538714  0.031779603   -3.8875899   0.73371857   424551 
 3148000   0.60993386   -3.8855088   -3.8855088   -3.1539045  0.043385966   -3.8855088   0.73160428   424551 
 3149000   0.61061689   -3.8866871   -3.8866871   -3.1542636   0.03670243   -3.8866871   0.73242356   424551 
 3150000   0.61071545   -3.8876074   -3.8876074   -3.1550656  0.030772205   -3.8876074   0.73254179   424551 
 3151000    0.6104994   -3.8869674   -3.8869674   -3.1546848  0.038026076   -3.8869674   0.73228263   424551 
 3152000   0.60987995   -3.8869625   -3.8869625   -3.1554229   0.03587043   -3.8869625   0.73153961   424551 
 3153000   0.61156047   -3.8887985   -3.8887985   -3.1552431  0.044818398   -3.8887985   0.73355537   424551 
 3154000   0.60881491   -3.8858483   -3.8858483   -3.1555862  0.026311008   -3.8858483   0.73026212   424551 
 3155000   0.60926077   -3.8853799   -3.8853799   -3.1545829    0.0300676   -3.8853799   0.73079693   424551 
 3156000   0.61045173   -3.8863119   -3.8863119   -3.1540864  0.032674955   -3.8863119   0.73222546   424551 
 3157000   0.60973609   -3.8858976   -3.8858976   -3.1545306  0.030806036   -3.8858976   0.73136706   424551 
 3158000   0.61151764   -3.8884269   -3.8884269   -3.1549229  0.048290837   -3.8884269     0.733504   424551 
 3159000   0.61263941   -3.8898559   -3.8898559   -3.1550064  0.032611404   -3.8898559   0.73484953   424551 
 3160000   0.61069738   -3.8865298   -3.8865298   -3.1540097  0.035959673   -3.8865298   0.73252011   424551 
 3161000   0.61095245      -3.8869      -3.8869   -3.1540739  0.048163866      -3.8869   0.73282606   424551 
 3162000   0.61048776   -3.8868648   -3.8868648   -3.1545961  0.030527037   -3.8868648   0.73226867   424551 
 3163000   0.61028187   -3.8869553   -3.8869553   -3.1549336   0.02920505   -3.8869553   0.73202171   424551 
 3164000   0.61143092   -3.8879202   -3.8879202   -3.1545203   0.04124767   -3.8879202   0.73339997   424551 
 3165000   0.61128894   -3.8877464   -3.8877464   -3.1545167  0.032109631   -3.8877464   0.73322968   424551 
 3166000   0.61007466   -3.8860123   -3.8860123   -3.1542391  0.040174226   -3.8860123   0.73177317   424551 
 3167000    0.6104179   -3.8868284   -3.8868284   -3.1546435  0.037504373   -3.8868284   0.73218488   424551 
 3168000   0.61027509   -3.8870111   -3.8870111   -3.1549975  0.041043422   -3.8870111   0.73201358   424551 
 3169000    0.6104026   -3.8881668   -3.8881668   -3.1560003  0.034473143   -3.8881668   0.73216652   424551 
 3170000   0.60961319   -3.8864173   -3.8864173   -3.1551976  0.034523766   -3.8864173   0.73121965   424551 
 3171000   0.61013226   -3.8868958   -3.8868958   -3.1550536  0.040693617   -3.8868958   0.73184226   424551 
 3172000   0.61131614   -3.8885419   -3.8885419   -3.1552797  0.029662892   -3.8885419   0.73326229   424551 
 3173000   0.60964119   -3.8866252   -3.8866252    -3.155372  0.042605894   -3.8866252   0.73125322   424551 
 3174000   0.61180933   -3.8889997   -3.8889997   -3.1551458  0.040234607   -3.8889997   0.73385388   424551 
 3175000   0.61061072   -3.8870596   -3.8870596   -3.1546434  0.043791264   -3.8870596   0.73241617   424551 
 3176000    0.6112575   -3.8887724   -3.8887724   -3.1555804  0.026693096   -3.8887724   0.73319196   424551 
 3177000   0.61115855   -3.8882298   -3.8882298   -3.1551566  0.037526777   -3.8882298   0.73307328   424551 
 3178000    0.6106898   -3.8878922   -3.8878922   -3.1553812  0.029052524   -3.8878922   0.73251102   424551 
 3179000   0.60966908   -3.8870381   -3.8870381   -3.1557514  0.039441858   -3.8870381   0.73128669   424551 
 3180000    0.6105479    -3.888012    -3.888012   -3.1556712  0.030934321    -3.888012   0.73234081   424551 
 3181000   0.61055488   -3.8884491   -3.8884491      -3.1561   0.03700504   -3.8884491   0.73234918   424551 
 3182000   0.61075667   -3.8891186   -3.8891186   -3.1565274  0.040784469   -3.8891186   0.73259122   424551 
 3183000   0.61137518   -3.8893361   -3.8893361   -3.1560029  0.053696966   -3.8893361   0.73333312   424551 
 3184000   0.61041778   -3.8891869   -3.8891869   -3.1570022  0.039748231   -3.8891869   0.73218473   424551 
 3185000   0.61029952   -3.8890562   -3.8890562   -3.1570133  0.034579744   -3.8890562   0.73204288   424551 
 3186000   0.60969885   -3.8886453   -3.8886453   -3.1573229  0.032375271   -3.8886453   0.73132239   424551 
 3187000   0.61017753   -3.8892366   -3.8892366   -3.1573401  0.031939237   -3.8892366   0.73189656   424551 
 3188000   0.61020304   -3.8889664   -3.8889664   -3.1570392  0.026008537   -3.8889664   0.73192716   424551 
 3189000   0.61163898   -3.8904384   -3.8904384   -3.1567889  0.032455232   -3.8904384   0.73364954   424551 
 3190000   0.61007214   -3.8890578   -3.8890578   -3.1572876  0.043372255   -3.8890578   0.73177015   424551 
 3191000   0.61003343   -3.8888933   -3.8888933   -3.1571695  0.040610761   -3.8888933   0.73172371   424551 
 3192000   0.60976618   -3.8891179   -3.8891179   -3.1577147  0.025964053   -3.8891179   0.73140315   424551 
 3193000    0.6125478    -3.892217    -3.892217   -3.1574774  0.045959338    -3.892217   0.73473965   424551 
 3194000   0.60920431   -3.8887273   -3.8887273   -3.1579981  0.040751638   -3.8887273    0.7307292   424551 
 3195000   0.61014636   -3.8903454   -3.8903454   -3.1584862  0.023721918   -3.8903454   0.73185917   424551 
 3196000   0.60965707   -3.8897212   -3.8897212   -3.1584489  0.028630853   -3.8897212   0.73127228   424551 
 3197000   0.60881276    -3.888227    -3.888227   -3.1579675  0.032969628    -3.888227   0.73025954   424551 
 3198000    0.6105924   -3.8902395   -3.8902395   -3.1578453  0.043919951   -3.8902395   0.73239418   424551 
 3199000     0.609543   -3.8884193   -3.8884193   -3.1572838  0.039609238   -3.8884193   0.73113545   424551 
 3200000   0.60973399   -3.8878858   -3.8878858   -3.1565212  0.037696357   -3.8878858   0.73136454   424551 
 3201000   0.61033753   -3.8884587   -3.8884587   -3.1563702  0.035875399   -3.8884587   0.73208847   424551 
 3202000   0.61086659   -3.8896685   -3.8896685   -3.1569455  0.043584267   -3.8896685   0.73272307   424551 
 3203000   0.61161424   -3.8902166   -3.8902166   -3.1565968  0.040254474   -3.8902166   0.73361986   424551 
 3204000   0.61117586    -3.890693    -3.890693    -3.157599  0.035889974    -3.890693   0.73309403   424551 
 3205000   0.61175571   -3.8912407   -3.8912407   -3.1574512  0.030054327   -3.8912407   0.73378956   424551 
 3206000   0.61071754   -3.8905872   -3.8905872   -3.1580429  0.034800115   -3.8905872   0.73254429   424551 
 3207000   0.61118239   -3.8908404   -3.8908404   -3.1577386  0.052533285   -3.8908404   0.73310186   424551 
 3208000   0.61104899   -3.8910201   -3.8910201   -3.1580782  0.049390593   -3.8910201   0.73294186   424551 
 3209000   0.61032123   -3.8908418   -3.8908418   -3.1587728  0.026475804   -3.8908418   0.73206893   424551 
 3210000   0.61047159   -3.8910607   -3.8910607   -3.1588114  0.034119084   -3.8910607   0.73224927   424551 
 3211000   0.60962632    -3.890329    -3.890329   -3.1590936  0.038522022    -3.890329   0.73123539   424551 
 3212000    0.6105735   -3.8910883   -3.8910883   -3.1587168  0.025863264   -3.8910883   0.73237152   424551 
 3213000   0.60913266   -3.8895414   -3.8895414   -3.1588982  0.040415952   -3.8895414   0.73064326   424551 
 3214000   0.61005801   -3.8902606   -3.8902606   -3.1585074  0.025713072   -3.8902606   0.73175319   424551 
 3215000   0.61010152   -3.8895332   -3.8895332   -3.1577278  0.030299098   -3.8895332   0.73180539   424551 
 3216000   0.60914309   -3.8886713   -3.8886713   -3.1580155  0.044051237   -3.8886713   0.73065577   424551 
 3217000     0.611708   -3.8910144   -3.8910144   -3.1572821  0.046492771   -3.8910144   0.73373233   424551 
 3218000   0.61130527   -3.8905565   -3.8905565   -3.1573072   0.03390707   -3.8905565   0.73324926   424551 
 3219000    0.6116854   -3.8907457   -3.8907457   -3.1570405   0.04136194   -3.8907457   0.73370522   424551 
 3220000   0.61007207    -3.888702    -3.888702   -3.1569319  0.043468674    -3.888702   0.73177006   424551 
 3221000   0.61049244   -3.8895745   -3.8895745   -3.1573002   0.04407574   -3.8895745   0.73227428   424551 
 3222000   0.61224081   -3.8917857   -3.8917857   -3.1574143  0.033402715   -3.8917857   0.73437142   424551 
 3223000   0.61172179   -3.8909882   -3.8909882   -3.1572394  0.034783046   -3.8909882   0.73374887   424551 
 3224000   0.61077097    -3.890382    -3.890382   -3.1577736  0.031647201    -3.890382   0.73260838   424551 
 3225000   0.60964082   -3.8892699   -3.8892699   -3.1580171  0.029704324   -3.8892699   0.73125279   424551 
 3226000   0.61038576    -3.889631    -3.889631   -3.1574846  0.031891053    -3.889631   0.73214633   424551 
 3227000   0.60947104   -3.8887072   -3.8887072    -3.157658  0.036213314   -3.8887072   0.73104914   424551 
 3228000   0.60897132   -3.8882377   -3.8882377    -3.157788  0.033981474   -3.8882377   0.73044974   424551 
 3229000   0.60893765   -3.8884951   -3.8884951   -3.1580858  0.020343479   -3.8884951   0.73040934   424551 
 3230000   0.60949194   -3.8894981   -3.8894981   -3.1584239  0.031493983   -3.8894981    0.7310742   424551 
 3231000     0.608772   -3.8891612   -3.8891612   -3.1589506  0.037849871   -3.8891612   0.73021065   424551 
 3232000   0.60829857   -3.8881929   -3.8881929   -3.1585502   0.03525268   -3.8881929   0.72964278   424551 
 3233000   0.60998663   -3.8895719   -3.8895719   -3.1579043  0.048599121   -3.8895719   0.73166758   424551 
 3234000   0.61010693   -3.8896648   -3.8896648    -3.157853  0.038823837   -3.8896648   0.73181188   424551 
 3235000   0.61000108   -3.8902235   -3.8902235   -3.1585386  0.029078276   -3.8902235   0.73168491   424551 
 3236000   0.61037096   -3.8907752   -3.8907752   -3.1586466   0.03001328   -3.8907752   0.73212858   424551 
 3237000   0.61035042    -3.891321    -3.891321    -3.159217  0.039171691    -3.891321   0.73210394   424551 
 3238000   0.61037669   -3.8911778   -3.8911778   -3.1590424  0.039890456   -3.8911778   0.73213545   424551 
 3239000   0.61008994   -3.8911626   -3.8911626   -3.1593711  0.028593658   -3.8911626   0.73179149   424551 
 3240000   0.61088636   -3.8918287   -3.8918287   -3.1590819   0.04416367   -3.8918287   0.73274678   424551 
 3241000   0.61054802   -3.8912459   -3.8912459    -3.158905  0.049851713   -3.8912459   0.73234095   424551 
 3242000   0.61255989   -3.8941713   -3.8941713   -3.1594172  0.040941344   -3.8941713   0.73475415   424551 
 3243000   0.61012127    -3.891037    -3.891037   -3.1592079   0.04355513    -3.891037   0.73182907   424551 
 3244000   0.61166791   -3.8928276   -3.8928276   -3.1591434  0.013438336   -3.8928276   0.73368424   424551 
 3245000    0.6094315   -3.8904234   -3.8904234   -3.1594217  0.039130488   -3.8904234   0.73100171   424551 
 3246000   0.61068235   -3.8916256   -3.8916256   -3.1591235  0.032650115   -3.8916256   0.73250208   424551 
 3247000   0.61040101   -3.8913247   -3.8913247   -3.1591601  0.046454376   -3.8913247   0.73216462   424551 
 3248000   0.61060196   -3.8925301   -3.8925301   -3.1601245  0.045367759   -3.8925301   0.73240565   424551 
 3249000   0.61071875   -3.8927714   -3.8927714   -3.1602256  0.045200269   -3.8927714   0.73254574   424551 
 3250000   0.60904581   -3.8910803   -3.8910803   -3.1605412  0.048951854   -3.8910803   0.73053908   424551 
 3251000   0.60992147     -3.89245     -3.89245   -3.1608606  0.032638787     -3.89245   0.73158942   424551 
 3252000   0.60852305   -3.8910241   -3.8910241    -3.161112   0.03334402   -3.8910241   0.72991204   424551 
 3253000    0.6095206    -3.892499    -3.892499   -3.1613904  0.017266924    -3.892499   0.73110859   424551 
 3254000   0.60920164   -3.8923845   -3.8923845   -3.1616585  0.036593948   -3.8923845     0.730726   424551 
 3255000   0.60926278   -3.8923669   -3.8923669   -3.1615676  0.035347373   -3.8923669   0.73079933   424551 
 3256000   0.60887088   -3.8912354   -3.8912354   -3.1609061   0.03848224   -3.8912354   0.73032926   424551 
 3257000   0.60881488   -3.8914105   -3.8914105   -3.1611484  0.038726086   -3.8914105   0.73026209   424551 
 3258000   0.60961142   -3.8914917   -3.8914917   -3.1602742  0.046457131   -3.8914917   0.73121752   424551 
 3259000   0.61020021   -3.8922293   -3.8922293   -3.1603055  0.033598064   -3.8922293   0.73192376   424551 
 3260000   0.60991513   -3.8912556   -3.8912556   -3.1596738  0.032439473   -3.8912556   0.73158182   424551 
 3261000   0.60965107   -3.8910571   -3.8910571    -3.159792   0.03673977   -3.8910571   0.73126508   424551 
 3262000   0.60970267   -3.8913257   -3.8913257   -3.1599987  0.040223761   -3.8913257   0.73132697   424551 
 3263000   0.61071753   -3.8932535   -3.8932535   -3.1607092  0.042544433   -3.8932535   0.73254428   424551 
 3264000    0.6088491   -3.8906678   -3.8906678   -3.1603647  0.041196074   -3.8906678   0.73030313   424551 
 3265000   0.60877497   -3.8905505   -3.8905505   -3.1603363  0.049482976   -3.8905505   0.73021422   424551 
 3266000   0.61053966    -3.892195    -3.892195   -3.1598641  0.028698206    -3.892195   0.73233093   424551 
 3267000   0.61066437   -3.8924653   -3.8924653   -3.1599848  0.039536605   -3.8924653   0.73248052   424551 
 3268000   0.60978608   -3.8918307   -3.8918307   -3.1604037  0.034642868   -3.8918307   0.73142702   424551 
 3269000   0.61030005   -3.8925054   -3.8925054   -3.1604618  0.026151291   -3.8925054   0.73204352   424551 
 3270000   0.61083429   -3.8928888   -3.8928888   -3.1602044  0.034076948   -3.8928888   0.73268433   424551 
 3271000   0.61119285   -3.8928216   -3.8928216   -3.1597072  0.034973658   -3.8928216   0.73311442   424551 
 3272000   0.61153725   -3.8926598   -3.8926598   -3.1591323  0.035962451   -3.8926598   0.73352751   424551 
 3273000   0.60979754   -3.8904299   -3.8904299   -3.1589891  0.029445585   -3.8904299   0.73144077   424551 
 3274000   0.61043114   -3.8913915   -3.8913915   -3.1591907   0.02675026   -3.8913915   0.73220076   424551 
 3275000    0.6096744   -3.8903402   -3.8903402   -3.1590471  0.029505046   -3.8903402   0.73129306   424551 
 3276000    0.6097604   -3.8908823   -3.8908823   -3.1594861  0.037413894   -3.8908823   0.73139622   424551 
 3277000   0.60794254   -3.8891717   -3.8891717    -3.159956  0.039241744   -3.8891717   0.72921573   424551 
 3278000   0.61011944   -3.8907696   -3.8907696   -3.1589427  0.023256186   -3.8907696   0.73182688   424551 
 3279000   0.61053285   -3.8920701   -3.8920701   -3.1597474  0.040718822   -3.8920701   0.73232275   424551 
 3280000   0.61008894   -3.8922192   -3.8922192   -3.1604289  0.034130311   -3.8922192   0.73179029   424551 
 3281000   0.60998635   -3.8915792   -3.8915792    -3.159912  0.027620155   -3.8915792   0.73166724   424551 
 3282000   0.60953102    -3.891223    -3.891223   -3.1601019  0.033055797    -3.891223   0.73112108   424551 
 3283000   0.60857316   -3.8900855   -3.8900855   -3.1601133  0.037722849   -3.8900855   0.72997215   424551 
 3284000   0.61009084   -3.8915921   -3.8915921   -3.1597995  0.036622291   -3.8915921   0.73179257   424551 
 3285000   0.60946632   -3.8906661   -3.8906661   -3.1596226  0.039317695   -3.8906661   0.73104348   424551 
 3286000   0.60868258   -3.8903593   -3.8903593   -3.1602559  0.044364645   -3.8903593   0.73010339   424551 
 3287000   0.60969127   -3.8916848   -3.8916848   -3.1603715  0.049616488   -3.8916848    0.7313133   424551 
 3288000   0.61002319   -3.8919836   -3.8919836   -3.1602722  0.034516176   -3.8919836   0.73171143   424551 
 3289000   0.60929959    -3.891557    -3.891557   -3.1607135  0.038056487    -3.891557   0.73084349   424551 
 3290000   0.61076468   -3.8935048   -3.8935048    -3.160904  0.038414438   -3.8935048   0.73260083   424551 
 3291000   0.60858843   -3.8906327   -3.8906327   -3.1606422  0.037246292   -3.8906327   0.72999046   424551 
 3292000   0.61024687   -3.8919564   -3.8919564   -3.1599767  0.030419955   -3.8919564   0.73197973   424551 
 3293000   0.60986215   -3.8909255   -3.8909255   -3.1594072  0.030174051   -3.8909255   0.73151826   424551 
 3294000   0.61027715   -3.8917618   -3.8917618   -3.1597457  0.043653122   -3.8917618   0.73201605   424551 
 3295000   0.60862796   -3.8905223   -3.8905223   -3.1604844   0.04082217   -3.8905223   0.73003788   424551 
 3296000   0.61033429   -3.8923309   -3.8923309   -3.1602463  0.026675551   -3.8923309   0.73208459   424551 
 3297000   0.61031501   -3.8916221   -3.8916221   -3.1595606  0.035526777   -3.8916221   0.73206147   424551 
 3298000    0.6103456   -3.8917525   -3.8917525   -3.1596543   0.02274962   -3.8917525   0.73209816   424551 
 3299000   0.61018473    -3.892146    -3.892146   -3.1602408  0.023583858    -3.892146    0.7319052   424551 
 3300000   0.60920203   -3.8905533   -3.8905533   -3.1598268  0.038463673   -3.8905533   0.73072646   424551 
 3301000   0.60961371   -3.8912609   -3.8912609   -3.1600407  0.036886766   -3.8912609   0.73122027   424551 
 3302000   0.60920856   -3.8915247   -3.8915247   -3.1607904  0.042579466   -3.8915247   0.73073429   424551 
 3303000   0.60944737    -3.891499    -3.891499   -3.1604782  0.037194925    -3.891499   0.73102074   424551 
 3304000    0.6103596   -3.8919048   -3.8919048   -3.1597899  0.043876428   -3.8919048   0.73211495   424551 
 3305000   0.60906214   -3.8910674   -3.8910674   -3.1605087  0.040079852   -3.8910674   0.73055867   424551 
 3306000   0.61008641   -3.8923943   -3.8923943    -3.160607  0.042766465   -3.8923943   0.73178726   424551 
 3307000   0.60966711    -3.891515    -3.891515   -3.1602307  0.038577172    -3.891515   0.73128432   424551 
 3308000    0.6087819   -3.8902781   -3.8902781   -3.1600556  0.033443594   -3.8902781   0.73022252   424551 
 3309000   0.61029579   -3.8927615   -3.8927615   -3.1607231  0.033429732   -3.8927615   0.73203841   424551 
 3310000   0.61007304   -3.8924024   -3.8924024   -3.1606312  0.036102842   -3.8924024   0.73177122   424551 
 3311000   0.61092495   -3.8928139   -3.8928139   -3.1600208   0.03529775   -3.8928139   0.73279308   424551 
 3312000   0.61074721   -3.8924981   -3.8924981   -3.1599183  0.052137977   -3.8924981   0.73257988   424551 
 3313000   0.61098599   -3.8931783   -3.8931783    -3.160312  0.046912217   -3.8931783   0.73286628   424551 
 3314000   0.60988048   -3.8923077   -3.8923077   -3.1607674  0.034292491   -3.8923077   0.73154025   424551 
 3315000   0.60937289   -3.8918394   -3.8918394    -3.160908  0.045902788   -3.8918394   0.73093141   424551 
 3316000   0.61094721   -3.8937779   -3.8937779   -3.1609581  0.046101703   -3.8937779   0.73281977   424551 
 3317000   0.61038217   -3.8927546   -3.8927546   -3.1606126  0.019730609   -3.8927546   0.73214202   424551 
 3318000   0.61013774   -3.8925348   -3.8925348    -3.160686  0.036169528   -3.8925348   0.73184883   424551 
 3319000   0.60986709   -3.8924224   -3.8924224   -3.1608982  0.030017018   -3.8924224   0.73152419   424551 
 3320000   0.60959839   -3.8922269   -3.8922269    -3.161025  0.037242234   -3.8922269   0.73120189   424551 
 3321000   0.61069474   -3.8935232   -3.8935232   -3.1610062  0.033820203   -3.8935232   0.73251694   424551 
 3322000   0.60933311   -3.8919056   -3.8919056   -3.1610219  0.042464922   -3.8919056    0.7308837   424551 
 3323000   0.61047251   -3.8931188   -3.8931188   -3.1608684  0.037100327   -3.8931188   0.73225038   424551 
 3324000   0.61022743   -3.8917279   -3.8917279   -3.1597715  0.052352617   -3.8917279   0.73195641   424551 
 3325000   0.61105932   -3.8929844   -3.8929844   -3.1600301  0.029416866   -3.8929844   0.73295425   424551 
 3326000   0.60912436    -3.890883    -3.890883   -3.1602497  0.037550149    -3.890883    0.7306333   424551 
 3327000   0.61046633   -3.8927237   -3.8927237   -3.1604808   0.03278885   -3.8927237   0.73224297   424551 
 3328000   0.60943487   -3.8914669   -3.8914669   -3.1604611  0.032839052   -3.8914669   0.73100575   424551 
 3329000   0.60880882   -3.8909808   -3.8909808    -3.160726  0.035275608   -3.8909808   0.73025482   424551 
 3330000   0.61056906   -3.8933246   -3.8933246   -3.1609584  0.042293571   -3.8933246    0.7323662   424551 
 3331000   0.60942301   -3.8919286   -3.8919286   -3.1609371  0.035437028   -3.8919286   0.73099152   424551 
 3332000   0.60975901   -3.8927792   -3.8927792   -3.1613846    0.0506195   -3.8927792   0.73139455   424551 
 3333000   0.61004272    -3.893261    -3.893261   -3.1615261  0.026095036    -3.893261   0.73173486   424551 
 3334000     0.610603   -3.8944992   -3.8944992   -3.1620923  0.028257207   -3.8944992    0.7324069   424551 
 3335000   0.60993777   -3.8933779   -3.8933779   -3.1617689  0.033344564   -3.8933779   0.73160897   424551 
 3336000   0.61025363   -3.8942039   -3.8942039   -3.1622161   0.03815518   -3.8942039   0.73198784   424551 
 3337000   0.60838381    -3.892179    -3.892179   -3.1624339  0.024309672    -3.892179   0.72974502   424551 
 3338000   0.61041001   -3.8947322   -3.8947322   -3.1625568  0.041869095   -3.8947322   0.73217541   424551 
 3339000   0.61128167   -3.8957592   -3.8957592   -3.1625382  0.024933573   -3.8957592   0.73322095   424551 
 3340000   0.60789846   -3.8917572   -3.8917572   -3.1625944  0.042668004   -3.8917572   0.72916286   424551 
 3341000   0.60911501   -3.8933658   -3.8933658   -3.1627437   0.03948643   -3.8933658   0.73062208   424551 
 3342000   0.61067063   -3.8944341   -3.8944341   -3.1619461  0.034092193   -3.8944341   0.73248803   424551 
 3343000   0.61040561   -3.8950461   -3.8950461    -3.162876  0.041511115   -3.8950461   0.73217014   424551 
 3344000   0.60960179   -3.8947538   -3.8947538   -3.1635478  0.030240656   -3.8947538   0.73120596   424551 
 3345000   0.60880441   -3.8932736   -3.8932736    -3.163024  0.028115311   -3.8932736   0.73024953   424551 
 3346000   0.60804905   -3.8925608   -3.8925608   -3.1632173  0.039359565   -3.8925608   0.72934349   424551 
 3347000   0.60985542   -3.8947571   -3.8947571   -3.1632469  0.027821999   -3.8947571   0.73151019   424551 
 3348000   0.60931635   -3.8938208   -3.8938208   -3.1629572  0.032716183   -3.8938208   0.73086358   424551 
 3349000   0.61032937   -3.8948395   -3.8948395   -3.1627608  0.034725398   -3.8948395   0.73207868   424551 
 3350000   0.60930673   -3.8937906   -3.8937906   -3.1629386  0.025501891   -3.8937906   0.73085205   424551 
 3351000   0.60926744   -3.8933899   -3.8933899    -3.162585  0.041304975   -3.8933899   0.73080492   424551 
 3352000   0.60873823   -3.8933657   -3.8933657   -3.1631956  0.037019067   -3.8933657   0.73017014   424551 
 3353000   0.60905154   -3.8940194   -3.8940194   -3.1634734  0.029291653   -3.8940194   0.73054595   424551 
 3354000   0.60909362   -3.8949387   -3.8949387   -3.1643423  0.039500522   -3.8949387   0.73059643   424551 
 3355000   0.61046955   -3.8965389   -3.8965389    -3.164292  0.060464713   -3.8965389   0.73224683   424551 
 3356000   0.60954983   -3.8954599   -3.8954599   -3.1643162  0.048844063   -3.8954599   0.73114364   424551 
 3357000   0.60857142   -3.8948364   -3.8948364   -3.1648664  0.033630064   -3.8948364   0.72997006   424551 
 3358000   0.60877124   -3.8957122   -3.8957122   -3.1655025  0.040906918   -3.8957122   0.73020974   424551 
 3359000   0.60965623   -3.8969012   -3.8969012   -3.1656299  0.030125316   -3.8969012   0.73127127   424551 
 3360000   0.61027936    -3.897288    -3.897288   -3.1652693  0.035680214    -3.897288    0.7320187   424551 
 3361000   0.61068608   -3.8971884   -3.8971884   -3.1646818  0.029928173   -3.8971884   0.73250655   424551 
 3362000   0.60959023   -3.8956535   -3.8956535   -3.1644614  0.034085915   -3.8956535   0.73119211   424551 
 3363000   0.61091561   -3.8963063   -3.8963063   -3.1635244  0.041440713   -3.8963063   0.73278187   424551 
 3364000   0.61015585   -3.8953809   -3.8953809   -3.1635103  0.031766013   -3.8953809   0.73187056   424551 
 3365000   0.60937459   -3.8942381   -3.8942381   -3.1633046  0.037534489   -3.8942381   0.73093345   424551 
 3366000    0.6090868   -3.8931725   -3.8931725   -3.1625842  0.046543986   -3.8931725   0.73058824   424551 
 3367000   0.61036487   -3.8946557   -3.8946557   -3.1625345  0.026705341   -3.8946557   0.73212126   424551 
 3368000   0.60927702   -3.8938761   -3.8938761   -3.1630597  0.040874034   -3.8938761   0.73081642   424551 
 3369000   0.60810391   -3.8921768   -3.8921768   -3.1627675  0.036450886   -3.8921768   0.72940929   424551 
 3370000   0.60953523   -3.8937474   -3.8937474   -3.1626213  0.035917435   -3.8937474   0.73112613   424551 
 3371000   0.61023013   -3.8951565   -3.8951565   -3.1631969  0.030083191   -3.8951565   0.73195965   424551 
 3372000   0.60946746   -3.8945995   -3.8945995   -3.1635547   0.03641192   -3.8945995   0.73104484   424551 
 3373000   0.60832916    -3.893911    -3.893911   -3.1642315  0.036893402    -3.893911   0.72967948   424551 
 3374000   0.60844296   -3.8938063   -3.8938063   -3.1639903  0.044070012   -3.8938063   0.72981597   424551 
 3375000   0.60919122    -3.894252    -3.894252   -3.1635385  0.033886601    -3.894252    0.7307135   424551 
 3376000    0.6089392   -3.8942402   -3.8942402    -3.163829  0.029360644   -3.8942402    0.7304112   424551 
 3377000   0.61018597   -3.8965131   -3.8965131   -3.1646065   0.03765072   -3.8965131   0.73190668   424551 
 3378000   0.60906351   -3.8953347   -3.8953347   -3.1647744  0.032097331   -3.8953347   0.73056031   424551 
 3379000   0.60864189   -3.8946097   -3.8946097   -3.1645551    0.0432396   -3.8946097   0.73005458   424551 
 3380000   0.61029925   -3.8965684   -3.8965684   -3.1645258  0.033959381   -3.8965684   0.73204256   424551 
 3381000   0.61029606   -3.8967618   -3.8967618   -3.1647231  0.039421185   -3.8967618   0.73203873   424551 
 3382000   0.60938111   -3.8958047   -3.8958047   -3.1648635  0.033484078   -3.8958047   0.73094126   424551 
 3383000   0.60906498   -3.8961215   -3.8961215   -3.1655594  0.026163073   -3.8961215   0.73056208   424551 
 3384000   0.60975052   -3.8974245   -3.8974245   -3.1660401  0.033234897   -3.8974245   0.73138437   424551 
 3385000   0.60891348   -3.8965125   -3.8965125   -3.1661322  0.056341951   -3.8965125   0.73038036   424551 
 3386000   0.60980055   -3.8960031   -3.8960031   -3.1645587  0.025392605   -3.8960031   0.73144438   424551 
 3387000   0.60944247   -3.8962573   -3.8962573   -3.1652425  0.018425197   -3.8962573   0.73101487   424551 
 3388000     0.609515   -3.8963006   -3.8963006   -3.1651987  0.042778946   -3.8963006   0.73110186   424551 
 3389000    0.6092296   -3.8955068   -3.8955068   -3.1647472   0.03896731   -3.8955068   0.73075953   424551 
 3390000   0.60981468   -3.8965395   -3.8965395   -3.1650782  0.020408548   -3.8965395   0.73146133   424551 
 3391000   0.61059961   -3.8978702   -3.8978702   -3.1654673  0.041317711   -3.8978702   0.73240284   424551 
 3392000   0.60893011   -3.8971662   -3.8971662   -3.1667659  0.040860572   -3.8971662    0.7304003   424551 
 3393000   0.60974922   -3.8983846   -3.8983846   -3.1670018  0.028739654   -3.8983846    0.7313828   424551 
 3394000   0.60866303   -3.8966754   -3.8966754   -3.1665955   0.03958708   -3.8966754   0.73007994   424551 
 3395000   0.61055152   -3.8988178   -3.8988178   -3.1664726  0.034049336   -3.8988178   0.73234515   424551 
 3396000   0.61000453   -3.8983665   -3.8983665   -3.1666775  0.042246791   -3.8983665   0.73168905   424551 
 3397000   0.60980179   -3.8981102   -3.8981102   -3.1666644  0.034209296   -3.8981102   0.73144587   424551 
 3398000   0.60957867   -3.8975653   -3.8975653   -3.1663871  0.029534686   -3.8975653   0.73117824   424551 
 3399000   0.60985881   -3.8985892   -3.8985892   -3.1670749  0.032667022   -3.8985892   0.73151426   424551 
 3400000   0.60973111   -3.8986408   -3.8986408   -3.1672797  0.047018574   -3.8986408   0.73136109   424551 
 3401000   0.60988959   -3.8982677   -3.8982677   -3.1667165  0.028045871   -3.8982677   0.73155118   424551 
 3402000   0.60862773   -3.8965237   -3.8965237   -3.1664861  0.040655533   -3.8965237   0.73003761   424551 
 3403000   0.60961369   -3.8975074   -3.8975074   -3.1662871  0.033187945   -3.8975074   0.73122025   424551 
 3404000   0.60946471    -3.896607    -3.896607   -3.1655654   0.02778729    -3.896607   0.73104154   424551 
 3405000   0.60772108   -3.8950925   -3.8950925   -3.1661425  0.029747701   -3.8950925   0.72895009   424551 
 3406000   0.60824541   -3.8953946   -3.8953946   -3.1658156  0.035119492   -3.8953946   0.72957902   424551 
 3407000   0.60817205   -3.8953906   -3.8953906   -3.1658996  0.044193465   -3.8953906   0.72949103   424551 
 3408000   0.60812834   -3.8944177   -3.8944177   -3.1649791  0.036205167   -3.8944177   0.72943859   424551 
 3409000   0.60909794   -3.8958264   -3.8958264   -3.1652248  0.019961814   -3.8958264   0.73060161   424551 
 3410000   0.60831139   -3.8948894   -3.8948894   -3.1652312  0.041588657   -3.8948894   0.72965816   424551 
 3411000    0.6091618   -3.8958407   -3.8958407   -3.1651625  0.049624489   -3.8958407   0.73067821   424551 
 3412000   0.60886782   -3.8963202   -3.8963202   -3.1659946  0.045209897   -3.8963202   0.73032558   424551 
 3413000   0.60844154   -3.8965724   -3.8965724   -3.1667581  0.029190237   -3.8965724   0.72981427   424551 
 3414000   0.60862331   -3.8968316   -3.8968316   -3.1667993  0.029341334   -3.8968316    0.7300323   424551 
 3415000   0.60920529   -3.8970292   -3.8970292   -3.1662989  0.033023299   -3.8970292   0.73073038   424551 
 3416000   0.60967253   -3.8964872   -3.8964872   -3.1651963  0.036328871   -3.8964872   0.73129082   424551 
 3417000   0.60825769   -3.8950388   -3.8950388   -3.1654451  0.034330058   -3.8950388   0.72959375   424551 
 3418000   0.60973066   -3.8972911   -3.8972911   -3.1659306  0.036047338   -3.8972911   0.73136054   424551 
 3419000   0.60762128   -3.8955505   -3.8955505   -3.1667201  0.044210983   -3.8955505   0.72883038   424551 
 3420000   0.60761744   -3.8964078   -3.8964078    -3.167582  0.025256653   -3.8964078   0.72882578   424551 
 3421000   0.60799995   -3.8974186   -3.8974186    -3.168134  0.044403586   -3.8974186   0.72928459   424551 
 3422000   0.60770004   -3.8972751   -3.8972751   -3.1683502  0.032148965   -3.8972751   0.72892486   424551 
 3423000   0.60834548   -3.8975694   -3.8975694   -3.1678704   0.03992962   -3.8975694   0.72969905   424551 
 3424000   0.60881685   -3.8981705   -3.8981705    -3.167906  0.041845833   -3.8981705   0.73026445   424551 
 3425000   0.60883394   -3.8981918   -3.8981918   -3.1679069  0.033007957   -3.8981918   0.73028494   424551 
 3426000   0.60854965    -3.897763    -3.897763    -3.167819  0.037043092    -3.897763   0.72994394   424551 
 3427000   0.60850212   -3.8969048   -3.8969048   -3.1670178  0.031559223   -3.8969048   0.72988694   424551 
 3428000   0.60723236   -3.8960422   -3.8960422   -3.1676783  0.040435992   -3.8960422   0.72836389   424551 
 3429000   0.60759377    -3.897023    -3.897023   -3.1682256  0.032942185    -3.897023   0.72879739   424551 
 3430000   0.60760342   -3.8973473   -3.8973473   -3.1685384  0.062419184   -3.8973473   0.72880896   424551 
 3431000   0.60861525   -3.8984718   -3.8984718   -3.1684491  0.051203477   -3.8984718   0.73002264   424551 
 3432000   0.60796379   -3.8985006   -3.8985006   -3.1692594  0.041397133   -3.8985006   0.72924121   424551 
 3433000   0.60879748    -3.899411    -3.899411   -3.1691698  0.040586917    -3.899411   0.73024121   424551 
 3434000   0.60880601   -3.8984006   -3.8984006   -3.1681492  0.029934061   -3.8984006   0.73025144   424551 
 3435000   0.60831578   -3.8974987   -3.8974987   -3.1678353  0.029178391   -3.8974987   0.72966343   424551 
 3436000   0.60921678   -3.8981858   -3.8981858   -3.1674416  0.031266159   -3.8981858   0.73074416   424551 
 3437000   0.60914224   -3.8986206   -3.8986206   -3.1679659  0.050252633   -3.8986206   0.73065475   424551 
 3438000   0.60875323   -3.8982853   -3.8982853   -3.1680971  0.035854942   -3.8982853   0.73018814   424551 
 3439000   0.60957389   -3.9004035   -3.9004035    -3.169231  0.026432666   -3.9004035    0.7311725   424551 
 3440000   0.60855102   -3.8991073   -3.8991073   -3.1691617  0.049331874   -3.8991073   0.72994559   424551 
 3441000   0.60805965   -3.8986677   -3.8986677   -3.1693115  0.034028882   -3.8986677    0.7293562   424551 
 3442000   0.60795904    -3.897968    -3.897968   -3.1687325   0.03550757    -3.897968   0.72923552   424551 
 3443000   0.60604866   -3.8960807   -3.8960807   -3.1691367  0.042570627   -3.8960807   0.72694406   424551 
 3444000    0.6078475   -3.8973522   -3.8973522   -3.1682504  0.042658202   -3.8973522   0.72910173   424551 
 3445000   0.60944035   -3.8987383   -3.8987383    -3.167726  0.040165342   -3.8987383   0.73101232   424551 
 3446000   0.60872436    -3.898437    -3.898437   -3.1682835  0.031632492    -3.898437   0.73015351   424551 
 3447000   0.60750567   -3.8972853   -3.8972853   -3.1685936   0.03813238   -3.8972853   0.72869171   424551 
 3448000   0.60795138   -3.8976965   -3.8976965   -3.1684702  0.030490475   -3.8976965   0.72922633   424551 
 3449000   0.60840894   -3.8979926   -3.8979926   -3.1682175   0.01761717   -3.8979926   0.72977516   424551 
 3450000   0.60804505    -3.898768    -3.898768   -3.1694293  0.030894901    -3.898768   0.72933869   424551 
 3451000   0.60849269   -3.8985273   -3.8985273   -3.1686517  0.029630113   -3.8985273   0.72987562   424551 
 3452000   0.60826188   -3.8980001   -3.8980001   -3.1684014   0.05906363   -3.8980001   0.72959877   424551 
 3453000   0.60756798   -3.8974229   -3.8974229   -3.1686565  0.039987091   -3.8974229   0.72876646   424551 
 3454000   0.60772864   -3.8978389   -3.8978389   -3.1688797   0.03175628   -3.8978389   0.72895917   424551 
 3455000   0.60825934    -3.898128    -3.898128   -3.1685323  0.033964348    -3.898128   0.72959573   424551 
 3456000   0.60855368   -3.8991974   -3.8991974   -3.1692486  0.058157586   -3.8991974   0.72994878   424551 
 3457000   0.60849805   -3.8983532   -3.8983532   -3.1684712  0.037353516   -3.8983532   0.72988205   424551 
 3458000   0.60976016   -3.9003299   -3.9003299    -3.168934  0.044469325   -3.9003299   0.73139593   424551 
 3459000   0.60758975   -3.8979951   -3.8979951   -3.1692026  0.032554689   -3.8979951   0.72879257   424551 
 3460000   0.60783607   -3.8978031   -3.8978031   -3.1687151  0.036823416   -3.8978031   0.72908803   424551 
 3461000   0.60835121   -3.8986555   -3.8986555   -3.1689495  0.030171651   -3.8986555   0.72970592   424551 
 3462000    0.6082564   -3.8988925   -3.8988925   -3.1693003  0.032208505   -3.8988925    0.7295922   424551 
 3463000   0.60770198   -3.8979692   -3.8979692    -3.169042  0.034423246   -3.8979692   0.72892718   424551 
 3464000   0.60895014   -3.8996169   -3.8996169   -3.1691926  0.032349141   -3.8996169   0.73042433   424551 
 3465000   0.60932853   -3.8998577   -3.8998577   -3.1689795  0.041190746   -3.8998577    0.7308782   424551 
 3466000   0.60868919   -3.8996529   -3.8996529   -3.1695416  0.024625302   -3.8996529   0.73011132   424551 
 3467000   0.60852564   -3.8996382   -3.8996382    -3.169723  0.035933691   -3.8996382   0.72991515   424551 
 3468000   0.60761807   -3.8987514   -3.8987514   -3.1699248  0.028179489   -3.8987514   0.72882653   424551 
 3469000   0.60839165   -3.8995245   -3.8995245     -3.16977  0.042186124   -3.8995245   0.72975443   424551 
 3470000   0.60835896   -3.8997536   -3.8997536   -3.1700384   0.04715036   -3.8997536   0.72971522   424551 
 3471000   0.60787526   -3.8992356   -3.8992356   -3.1701006  0.050310236   -3.8992356   0.72913503   424551 
 3472000    0.6086707   -3.8998006   -3.8998006   -3.1697115   0.03022831   -3.8998006   0.73008915   424551 
 3473000   0.60905541   -3.9006997   -3.9006997   -3.1701491  0.044522547   -3.9006997    0.7305506   424551 
 3474000   0.60747723   -3.8984701   -3.8984701   -3.1698125  0.032556773   -3.8984701    0.7286576   424551 
 3475000   0.60850967    -3.899971    -3.899971    -3.170075  0.033996934    -3.899971   0.72989599   424551 
 3476000    0.6084839   -3.8999801   -3.8999801   -3.1701151  0.042101083   -3.8999801   0.72986508   424551 
 3477000   0.60860676   -3.9000891   -3.9000891   -3.1700767  0.035379199   -3.9000891   0.73001245   424551 
 3478000   0.60863213   -3.9000457   -3.9000457   -3.1700028   0.03677564   -3.9000457   0.73004288   424551 
 3479000    0.6092125   -3.9009423   -3.9009423   -3.1702033   0.03365165   -3.9009423   0.73073902   424551 
 3480000   0.60701478   -3.8979544   -3.8979544   -3.1698515  0.036113062   -3.8979544    0.7281029   424551 
 3481000   0.60724967   -3.8989831   -3.8989831   -3.1705984  0.032146525   -3.8989831   0.72838465   424551 
 3482000   0.60696076   -3.8987112   -3.8987112   -3.1706731  0.029919506   -3.8987112    0.7280381   424551 
 3483000   0.60774548   -3.8989333   -3.8989333   -3.1699539  0.041222026   -3.8989333   0.72897936   424551 
 3484000   0.60798619   -3.8998872   -3.8998872   -3.1706191  0.041681267   -3.8998872   0.72926809   424551 
 3485000   0.60807591    -3.899583    -3.899583   -3.1702073   0.02760979    -3.899583    0.7293757   424551 
 3486000    0.6086699   -3.8987712   -3.8987712    -3.168683    0.0400743   -3.8987712   0.73008819   424551 
 3487000   0.60806349   -3.8987671   -3.8987671   -3.1694063  0.028381313   -3.8987671   0.72936081   424551 
 3488000    0.6085649   -3.8994627   -3.8994627   -3.1695004  0.041064836   -3.8994627   0.72996223   424551 
 3489000   0.60964513   -3.9015326   -3.9015326   -3.1702746  0.047857845   -3.9015326   0.73125795   424551 
 3490000   0.60854967   -3.8997992   -3.8997992   -3.1698552  0.044736499   -3.8997992   0.72994397   424551 
 3491000   0.60792553   -3.8995245   -3.8995245   -3.1703292  0.037430656   -3.8995245   0.72919533   424551 
 3492000   0.60809227    -3.900102    -3.900102   -3.1707066  0.032617438    -3.900102   0.72939532   424551 
 3493000   0.60814879   -3.8998129   -3.8998129   -3.1703498  0.022159348   -3.8998129   0.72946312   424551 
 3494000   0.60750174   -3.9000536   -3.9000536   -3.1713666  0.038494031   -3.9000536   0.72868699   424551 
 3495000   0.60770942   -3.9001122   -3.9001122   -3.1711761  0.034524393   -3.9001122    0.7289361   424551 
 3496000   0.60859684   -3.9006839   -3.9006839   -3.1706834  0.028275895   -3.9006839   0.73000055   424551 
 3497000   0.60710332   -3.9000059   -3.9000059   -3.1717968  0.032331576   -3.9000059    0.7282091   424551 
 3498000   0.60845027   -3.9014057   -3.9014057   -3.1715809  0.022325276   -3.9014057   0.72982475   424551 
 3499000   0.60759823   -3.9016786   -3.9016786   -3.1728758  0.032451935   -3.9016786   0.72880273   424551 
 3500000   0.60750821   -3.9013285   -3.9013285   -3.1726338  0.025847862   -3.9013285   0.72869475   424551 
 3501000   0.60816053   -3.9020234   -3.9020234   -3.1725462  0.021817318   -3.9020234    0.7294772   424551 
 3502000   0.60741595   -3.9014384   -3.9014384   -3.1728543  0.033416995   -3.9014384   0.72858409   424551 
 3503000   0.60735004   -3.9011653   -3.9011653   -3.1726603   0.03395795   -3.9011653   0.72850504   424551 
 3504000   0.60761541   -3.9021191   -3.9021191   -3.1732958  0.031651595   -3.9021191   0.72882334   424551 
 3505000   0.60685919   -3.9009992   -3.9009992   -3.1730829  0.038336243   -3.9009992   0.72791627   424551 
 3506000   0.60842856   -3.9035036   -3.9035036   -3.1737049   0.03404357   -3.9035036    0.7297987   424551 
 3507000   0.60626937   -3.9012583   -3.9012583   -3.1740495  0.033868545   -3.9012583   0.72720879   424551 
 3508000    0.6060152   -3.9011312   -3.9011312   -3.1742273  0.045822434   -3.9011312   0.72690392   424551 
 3509000   0.60826677   -3.9026754   -3.9026754   -3.1730708  0.038728781   -3.9026754   0.72960464   424551 
 3510000   0.60780282   -3.9026001   -3.9026001   -3.1735519  0.047703891   -3.9026001   0.72904814   424551 
 3511000   0.60790657   -3.9027004   -3.9027004   -3.1735278  0.045733012   -3.9027004   0.72917258   424551 
 3512000   0.60821824   -3.9031782   -3.9031782   -3.1736318  0.040902911   -3.9031782   0.72954643   424551 
 3513000   0.60735014    -3.902526    -3.902526   -3.1740209  0.034792654    -3.902526   0.72850516   424551 
 3514000   0.60855074   -3.9041104   -3.9041104   -3.1741651  0.056127066   -3.9041104   0.72994526   424551 
 3515000   0.60775136   -3.9032945   -3.9032945   -3.1743081  0.031797611   -3.9032945   0.72898641   424551 
 3516000   0.60837806   -3.9041083   -3.9041083   -3.1743702  0.029085552   -3.9041083   0.72973813   424551 
 3517000   0.60829981   -3.9030603   -3.9030603    -3.173416  0.037335149   -3.9030603   0.72964427   424551 
 3518000   0.60734985   -3.9012192   -3.9012192   -3.1727144   0.04035528   -3.9012192   0.72850481   424551 
 3519000   0.60816546    -3.902193    -3.902193   -3.1727099  0.025709222    -3.902193   0.72948311   424551 
 3520000    0.6076706   -3.9016088   -3.9016088   -3.1727193  0.030179697   -3.9016088   0.72888954   424551 
 3521000   0.60743248   -3.9012442   -3.9012442   -3.1726403  0.034567999   -3.9012442   0.72860392   424551 
 3522000    0.6076479   -3.9017368   -3.9017368   -3.1728745  0.031682771   -3.9017368   0.72886232   424551 
 3523000   0.60676649   -3.9003994   -3.9003994   -3.1725943  0.040554474   -3.9003994   0.72780508   424551 
 3524000   0.60687225   -3.9009149   -3.9009149    -3.172983  0.023634977   -3.9009149   0.72793193   424551 
 3525000   0.60784763   -3.9020432   -3.9020432   -3.1729413   0.03881714   -3.9020432   0.72910188   424551 
 3526000   0.60747609    -3.901715    -3.901715   -3.1730588  0.044287457    -3.901715   0.72865623   424551 
 3527000   0.60825765   -3.9021263   -3.9021263   -3.1725326  0.030312585   -3.9021263    0.7295937   424551 
 3528000   0.60888468   -3.9030394   -3.9030394   -3.1726936  0.034466593   -3.9030394   0.73034581   424551 
 3529000   0.61072219   -3.9042839   -3.9042839    -3.171734  0.049772333   -3.9042839   0.73254987   424551 
 3530000   0.60848803   -3.9022534   -3.9022534   -3.1723834  0.026553239   -3.9022534   0.72987004   424551 
 3531000   0.60929513   -3.9031836   -3.9031836   -3.1723455  0.024460564   -3.9031836   0.73083814   424551 
 3532000   0.60839391   -3.9019559   -3.9019559   -3.1721987   0.04676456   -3.9019559   0.72975714   424551 
 3533000   0.60786172   -3.9020277   -3.9020277   -3.1729089  0.032844965   -3.9020277   0.72911879   424551 
 3534000    0.6102308   -3.9055792   -3.9055792   -3.1736187  0.036729496   -3.9055792   0.73196046   424551 
 3535000   0.60733641   -3.9017467   -3.9017467    -3.173258  0.034251541   -3.9017467   0.72848869   424551 
 3536000    0.6086697   -3.9030214   -3.9030214   -3.1729335   0.03559125   -3.9030214   0.73008794   424551 
 3537000     0.607987   -3.9023137   -3.9023137   -3.1730446  0.025502282   -3.9023137   0.72926905   424551 
 3538000   0.60887587   -3.9038127   -3.9038127   -3.1734774  0.033441317   -3.9038127   0.73033524   424551 
 3539000   0.60783967   -3.9021645   -3.9021645   -3.1730721  0.023744349   -3.9021645   0.72909234   424551 
 3540000    0.6075695    -3.902271    -3.902271   -3.1735027   0.02263391    -3.902271   0.72876827   424551 
 3541000    0.6076205   -3.9027666   -3.9027666   -3.1739371  0.033562014   -3.9027666   0.72882945   424551 
 3542000   0.60808302   -3.9026986   -3.9026986   -3.1733144  0.029761138   -3.9026986   0.72938424   424551 
 3543000   0.60830126   -3.9034811   -3.9034811   -3.1738351   0.03719299   -3.9034811   0.72964601   424551 
 3544000    0.6079133   -3.9036341   -3.9036341   -3.1744535  0.030398117   -3.9036341   0.72918066   424551 
 3545000    0.6072581   -3.9026244   -3.9026244   -3.1742296  0.039650578   -3.9026244   0.72839475   424551 
 3546000   0.60655061   -3.9020636   -3.9020636   -3.1745175  0.034528284   -3.9020636   0.72754613   424551 
 3547000   0.60647196   -3.9021586   -3.9021586   -3.1747068   0.03379016   -3.9021586    0.7274518   424551 
 3548000   0.60764267   -3.9042105   -3.9042105   -3.1753544  0.030001938   -3.9042105   0.72885604   424551 
 3549000   0.60711529   -3.9033668   -3.9033668   -3.1751433  0.034609084   -3.9033668   0.72822346   424551 
 3550000   0.60733019   -3.9036507   -3.9036507   -3.1751695  0.027765627   -3.9036507   0.72848123   424551 
 3551000   0.60852672   -3.9045844   -3.9045844    -3.174668  0.029093182   -3.9045844   0.72991645   424551 
 3552000    0.6076269   -3.9035214   -3.9035214   -3.1746843   0.03296506   -3.9035214   0.72883712   424551 
 3553000   0.60727028   -3.9037168   -3.9037168   -3.1753074  0.042942453   -3.9037168   0.72840937   424551 
 3554000   0.60688038   -3.9038818   -3.9038818   -3.1759401  0.048484959   -3.9038818   0.72794169   424551 
 3555000   0.60636192   -3.9034162   -3.9034162   -3.1760964  0.034580829   -3.9034162   0.72731981   424551 
 3556000   0.60733917   -3.9042777   -3.9042777   -3.1757857  0.023942736   -3.9042777     0.728492   424551 
 3557000   0.60734675   -3.9039443   -3.9039443   -3.1754432  0.036587997   -3.9039443   0.72850109   424551 
 3558000   0.60724518   -3.9033158   -3.9033158   -3.1749366   0.03674791   -3.9033158   0.72837926   424551 
 3559000   0.60720953    -3.902694    -3.902694   -3.1743575  0.039076053    -3.902694   0.72833649   424551 
 3560000   0.60700437   -3.9021644   -3.9021644    -3.174074  0.039530024   -3.9021644   0.72809042   424551 
 3561000   0.60750763   -3.9028382   -3.9028382   -3.1741441  0.040945961   -3.9028382   0.72869406   424551 
 3562000   0.60732385   -3.9021475   -3.9021475   -3.1736739   0.03662676   -3.9021475   0.72847362   424551 
 3563000   0.60783061   -3.9033266   -3.9033266   -3.1742451  0.041557282   -3.9033266   0.72908147   424551 
 3564000   0.60736343   -3.9028789   -3.9028789   -3.1743578  0.044765554   -3.9028789   0.72852109   424551 
 3565000   0.60820356   -3.9030411   -3.9030411   -3.1735123  0.032483597   -3.9030411   0.72952882   424551 
 3566000   0.60692622    -3.901448    -3.901448   -3.1734514  0.033443071    -3.901448   0.72799667   424551 
 3567000   0.60744481   -3.9025392   -3.9025392   -3.1739205  0.038606188   -3.9025392   0.72861871   424551 
 3568000   0.60847985   -3.9036664   -3.9036664   -3.1738062  0.031630242   -3.9036664   0.72986022   424551 
 3569000   0.60844202   -3.9032093   -3.9032093   -3.1733945   0.03002704   -3.9032093   0.72981485   424551 
 3570000   0.60750345   -3.9022107   -3.9022107   -3.1735216  0.032471684   -3.9022107   0.72868905   424551 
 3571000   0.60711707   -3.9017671   -3.9017671   -3.1735415  0.026968945   -3.9017671   0.72822559   424551 
 3572000   0.60727782   -3.9024056   -3.9024056   -3.1739872  0.029616341   -3.9024056   0.72841841   424551 
 3573000   0.60824447   -3.9029572   -3.9029572   -3.1733793  0.037634634   -3.9029572   0.72957789   424551 
 3574000   0.60691284    -3.901161    -3.901161   -3.1731804  0.030366226    -3.901161   0.72798062   424551 
 3575000   0.60799732   -3.9019311   -3.9019311   -3.1726496  0.052584769   -3.9019311   0.72928144   424551 
 3576000   0.60778417   -3.9029057   -3.9029057   -3.1738799  0.034487096   -3.9029057   0.72902577   424551 
 3577000   0.60798862   -3.9032698   -3.9032698   -3.1739988  0.034076242   -3.9032698     0.729271   424551 
 3578000   0.60740933   -3.9025966   -3.9025966   -3.1740204   0.03472211   -3.9025966   0.72857615   424551 
 3579000   0.60820594   -3.9033797   -3.9033797    -3.173848  0.032681334   -3.9033797   0.72953167   424551 
 3580000   0.60845361   -3.9030173   -3.9030173   -3.1731886  0.025952315   -3.9030173   0.72982874   424551 
 3581000    0.6084537   -3.9038313   -3.9038313   -3.1740025  0.036850205   -3.9038313   0.72982885   424551 
 3582000   0.60799628   -3.9035357   -3.9035357   -3.1742555  0.036329239   -3.9035357   0.72928019   424551 
 3583000   0.60936023   -3.9050163   -3.9050163   -3.1741001  0.027133673   -3.9050163   0.73091622   424551 
 3584000   0.60802031   -3.9029426   -3.9029426   -3.1736336  0.036301185   -3.9029426   0.72930901   424551 
 3585000   0.60761697   -3.9022149   -3.9022149   -3.1733897  0.037435691   -3.9022149   0.72882521   424551 
 3586000   0.60660858   -3.9011844   -3.9011844   -3.1735687   0.04344559   -3.9011844   0.72761567   424551 
 3587000   0.60812391    -3.903853    -3.903853   -3.1744197  0.032413558    -3.903853   0.72943328   424551 
 3588000   0.60793379   -3.9036994   -3.9036994   -3.1744942  0.042026407   -3.9036994   0.72920523   424551 
 3589000   0.60750845   -3.9031945   -3.9031945   -3.1744994  0.040882611   -3.9031945   0.72869505   424551 
 3590000   0.60709081   -3.9027434   -3.9027434   -3.1745493  0.041659349   -3.9027434   0.72819409   424551 
 3591000   0.60549744   -3.9004483   -3.9004483   -3.1741654  0.027554325   -3.9004483   0.72628288   424551 
 3592000   0.60624669   -3.9020103   -3.9020103   -3.1748287   0.02572242   -3.9020103   0.72718159   424551 
 3593000   0.60690265   -3.9027905   -3.9027905   -3.1748221  0.029282244   -3.9027905   0.72796841   424551 
 3594000   0.60844984   -3.9049819   -3.9049819   -3.1751576  0.038408776   -3.9049819   0.72982423   424551 
 3595000   0.60684691   -3.9036881   -3.9036881   -3.1757866  0.026689418   -3.9036881   0.72790154   424551 
 3596000   0.60665657   -3.9041855   -3.9041855   -3.1765123   0.03278222   -3.9041855   0.72767323   424551 
 3597000   0.60575518   -3.9030583   -3.9030583   -3.1764662  0.035331472   -3.9030583   0.72659203   424551 
 3598000   0.60714699   -3.9041627   -3.9041627   -3.1759012  0.037902888   -3.9041627   0.72826148   424551 
 3599000   0.60739922   -3.9044566   -3.9044566   -3.1758926  0.040263546   -3.9044566   0.72856402   424551 
 3600000   0.60747378   -3.9042886   -3.9042886   -3.1756352  0.033500968   -3.9042886   0.72865346   424551 
 3601000   0.60842703    -3.904952    -3.904952   -3.1751551  0.035481302    -3.904952   0.72979687   424551 
 3602000   0.60771031   -3.9040996   -3.9040996   -3.1751624   0.04420996   -3.9040996   0.72893717   424551 
 3603000   0.60809253   -3.9036216   -3.9036216   -3.1742259  0.034378075   -3.9036216   0.72939564   424551 
 3604000   0.60697132   -3.9032014   -3.9032014   -3.1751506  0.034517432   -3.9032014   0.72805077   424551 
 3605000   0.60638478   -3.9028133   -3.9028133    -3.175466  0.037682266   -3.9028133   0.72734722   424551 
 3606000   0.60799573     -3.90419     -3.90419   -3.1749105  0.041658367     -3.90419   0.72927953   424551 
 3607000    0.6066545   -3.9032482   -3.9032482   -3.1755774  0.037765094   -3.9032482   0.72767075   424551 
 3608000   0.60719819   -3.9040868   -3.9040868   -3.1757639  0.027507675   -3.9040868   0.72832289   424551 
 3609000   0.60670819   -3.9031183   -3.9031183   -3.1753831  0.037261801   -3.9031183   0.72773515   424551 
 3610000   0.60686315   -3.9027619   -3.9027619   -3.1748409  0.029405149   -3.9027619   0.72792102   424551 
 3611000   0.60615843   -3.9015139   -3.9015139   -3.1744382  0.027001049   -3.9015139   0.72707573   424551 
 3612000   0.60690883   -3.9028171   -3.9028171   -3.1748413  0.028283152   -3.9028171   0.72797581   424551 
 3613000   0.60689767   -3.9031295   -3.9031295    -3.175167  0.029063042   -3.9031295   0.72796242   424551 
 3614000   0.60649931   -3.9023716   -3.9023716   -3.1748871  0.030900992   -3.9023716    0.7274846   424551 
 3615000   0.60675784   -3.9033279   -3.9033279   -3.1755332  0.019224069   -3.9033279   0.72779471   424551 
 3616000   0.60763653   -3.9041901   -3.9041901   -3.1753414  0.031082745   -3.9041901   0.72884867   424551 
 3617000    0.6076712   -3.9040827   -3.9040827   -3.1751924  0.047309329   -3.9040827   0.72889026   424551 
 3618000   0.60887677   -3.9051803   -3.9051803    -3.174844   0.02740538   -3.9051803   0.73033632   424551 
 3619000   0.60802897   -3.9046715   -3.9046715   -3.1753521  0.042759203   -3.9046715    0.7293194   424551 
 3620000   0.60929372   -3.9058436   -3.9058436   -3.1750072  0.039075405   -3.9058436   0.73083644   424551 
 3621000    0.6079468   -3.9040481   -3.9040481   -3.1748272  0.028040186   -3.9040481   0.72922084   424551 
 3622000    0.6087555   -3.9055066   -3.9055066   -3.1753157  0.035398109   -3.9055066   0.73019086   424551 
 3623000   0.60882297   -3.9054032   -3.9054032   -3.1751314  0.036276157   -3.9054032   0.73027179   424551 
 3624000   0.60918057   -3.9059899   -3.9059899   -3.1752892  0.041233266   -3.9059899   0.73070072   424551 
 3625000   0.60777308    -3.904233    -3.904233   -3.1752206   0.02755658    -3.904233   0.72901246   424551 
 3626000   0.60829225   -3.9045943   -3.9045943   -3.1749591  0.039623554   -3.9045943    0.7296352   424551 
 3627000   0.60866303   -3.9046774   -3.9046774   -3.1745974  0.024781035   -3.9046774   0.73007994   424551 
 3628000   0.60842675   -3.9044788   -3.9044788   -3.1746823  0.035032784   -3.9044788   0.72979654   424551 
 3629000   0.60895941   -3.9049409   -3.9049409   -3.1745055  0.036359328   -3.9049409   0.73043544   424551 
 3630000   0.60726207   -3.9030413   -3.9030413   -3.1746418  0.034383565   -3.9030413   0.72839952   424551 
 3631000   0.60843781   -3.9049633   -3.9049633   -3.1751535  0.037441832   -3.9049633    0.7298098   424551 
 3632000   0.60849268   -3.9052624   -3.9052624   -3.1753868  0.040438259   -3.9052624   0.72987561   424551 
 3633000   0.60886762   -3.9052613   -3.9052613    -3.174936  0.036259031   -3.9052613   0.73032534   424551 
 3634000   0.60759726   -3.9047321   -3.9047321   -3.1759306  0.039525997   -3.9047321   0.72880157   424551 
 3635000    0.6068786   -3.9032426   -3.9032426    -3.175303  0.035855202   -3.9032426   0.72793955   424551 
 3636000   0.60842046   -3.9047507   -3.9047507   -3.1749617  0.033183284   -3.9047507   0.72978898   424551 
 3637000   0.60839451   -3.9050211   -3.9050211   -3.1752632  0.030802098   -3.9050211   0.72975786   424551 
 3638000   0.60654389   -3.9030592   -3.9030592   -3.1755211   0.02757701   -3.9030592   0.72753807   424551 
 3639000   0.60706815   -3.9037672   -3.9037672   -3.1756003  0.041128046   -3.9037672   0.72816691   424551 
 3640000   0.60658599   -3.9026809   -3.9026809   -3.1750923  0.041142121   -3.9026809   0.72758857   424551 
 3641000   0.60815819   -3.9049447   -3.9049447   -3.1754703  0.042918996   -3.9049447    0.7294744   424551 
 3642000   0.60751369   -3.9047001   -3.9047001   -3.1759987  0.021579193   -3.9047001   0.72870134   424551 
 3643000   0.60700066   -3.9044281   -3.9044281   -3.1763422  0.026645997   -3.9044281   0.72808596   424551 
 3644000    0.6078878   -3.9054393   -3.9054393   -3.1762892  0.036603953   -3.9054393   0.72915007   424551 
 3645000   0.60772442   -3.9048165   -3.9048165   -3.1758624  0.023506187   -3.9048165    0.7289541   424551 
 3646000   0.60787218   -3.9044833   -3.9044833    -3.175352  0.038809504   -3.9044833   0.72913133   424551 
 3647000   0.60829871   -3.9050563   -3.9050563   -3.1754134  0.035243138   -3.9050563   0.72964294   424551 
 3648000   0.60757588   -3.9044578   -3.9044578   -3.1756819  0.043657289   -3.9044578   0.72877593   424551 
 3649000   0.60695013   -3.9046477   -3.9046477   -3.1766223  0.024625609   -3.9046477   0.72802535   424551 
 3650000   0.60798525    -3.905072    -3.905072   -3.1758051  0.028816402    -3.905072   0.72926696   424551 
 3651000   0.60738215   -3.9045263   -3.9045263   -3.1759827  0.020569217   -3.9045263   0.72854355   424551 
 3652000   0.60744919   -3.9056354   -3.9056354   -3.1770115  0.040665984   -3.9056354   0.72862396   424551 
 3653000   0.60804289    -3.905758    -3.905758   -3.1764219   0.04044573    -3.905758    0.7293361   424551 
 3654000   0.60714943   -3.9042518   -3.9042518   -3.1759874  0.030952481   -3.9042518   0.72826441   424551 
 3655000    0.6071577   -3.9037673   -3.9037673    -3.175493  0.029209123   -3.9037673   0.72827433   424551 
 3656000   0.60740396   -3.9041908   -3.9041908    -3.175621  0.037110442   -3.9041908   0.72856971   424551 
 3657000   0.60765653    -3.904198    -3.904198   -3.1753253  0.040582726    -3.904198   0.72887267   424551 
 3658000   0.60747815    -3.904221    -3.904221   -3.1755623  0.039734728    -3.904221   0.72865871   424551 
 3659000   0.60760854    -3.904637    -3.904637   -3.1758219  0.028814844    -3.904637    0.7288151   424551 
 3660000   0.60833889   -3.9060206   -3.9060206   -3.1763295  0.033654461   -3.9060206   0.72969115   424551 
 3661000    0.6080043    -3.905761    -3.905761   -3.1764712  0.035923676    -3.905761   0.72928981   424551 
 3662000   0.60748567   -3.9054735   -3.9054735   -3.1768058  0.030356657   -3.9054735   0.72866772   424551 
 3663000    0.6075068   -3.9060754   -3.9060754   -3.1773823  0.038356013   -3.9060754   0.72869307   424551 
 3664000   0.60726909   -3.9062648   -3.9062648   -3.1778569  0.035597873   -3.9062648   0.72840794   424551 
 3665000   0.60764229   -3.9079119   -3.9079119   -3.1790563  0.032250726   -3.9079119   0.72885559   424551 
 3666000   0.60780494   -3.9072906   -3.9072906   -3.1782399  0.053011363   -3.9072906   0.72905068   424551 
 3667000   0.60695017   -3.9069852   -3.9069852   -3.1789598   0.03916008   -3.9069852    0.7280254   424551 
 3668000   0.60616131   -3.9062455   -3.9062455   -3.1791663  0.039156654   -3.9062455   0.72707918   424551 
 3669000   0.60774038   -3.9074153   -3.9074153   -3.1784421  0.039876375   -3.9074153   0.72897324   424551 
 3670000   0.60657599    -3.906096    -3.906096   -3.1785194  0.024173878    -3.906096   0.72757657   424551 
 3671000   0.60715603   -3.9067342   -3.9067342   -3.1784619  0.027995318   -3.9067342   0.72827233   424551 
 3672000   0.60756608   -3.9071659   -3.9071659   -3.1784017  0.039812586   -3.9071659   0.72876417   424551 
 3673000   0.60685651   -3.9059888   -3.9059888   -3.1780758  0.042749513   -3.9059888   0.72791306   424551 
 3674000   0.60755346   -3.9065154   -3.9065154   -3.1777664  0.040854799   -3.9065154   0.72874903   424551 
 3675000   0.60704947   -3.9060804   -3.9060804   -3.1779359  0.038553151   -3.9060804   0.72814451   424551 
 3676000   0.60771715   -3.9067719   -3.9067719   -3.1778265  0.029395917   -3.9067719   0.72894538   424551 
 3677000   0.60764981   -3.9067913   -3.9067913   -3.1779267  0.032158228   -3.9067913   0.72886461   424551 
 3678000   0.60670637   -3.9062671   -3.9062671   -3.1785342  0.026571486   -3.9062671   0.72773296   424551 
 3679000   0.60844432   -3.9081458   -3.9081458   -3.1783282   0.03693436   -3.9081458   0.72981761   424551 
 3680000   0.60796189   -3.9076011   -3.9076011   -3.1783622  0.032095958   -3.9076011   0.72923894   424551 
 3681000   0.60768202   -3.9073245   -3.9073245   -3.1784213  0.019931568   -3.9073245   0.72890324   424551 
 3682000   0.60601689   -3.9051003   -3.9051003   -3.1781943  0.028688974   -3.9051003   0.72690595   424551 
 3683000   0.60678638   -3.9053084   -3.9053084   -3.1774794  0.032323256   -3.9053084   0.72782894   424551 
 3684000   0.60831849   -3.9070018   -3.9070018   -3.1773352  0.044284596   -3.9070018   0.72966667   424551 
 3685000   0.60683886   -3.9054035   -3.9054035   -3.1775116  0.041276083   -3.9054035   0.72789189   424551 
 3686000    0.6068534   -3.9054316   -3.9054316   -3.1775223  0.041898054   -3.9054316   0.72790932   424551 
 3687000   0.60818531   -3.9076625   -3.9076625   -3.1781555  0.028378998   -3.9076625   0.72950693   424551 
 3688000   0.60859513   -3.9080408   -3.9080408   -3.1780423  0.040246016   -3.9080408    0.7299985   424551 
 3689000   0.60837541    -3.906711    -3.906711   -3.1769761  0.027760558    -3.906711   0.72973494   424551 
 3690000   0.60840368   -3.9074061   -3.9074061   -3.1776372  0.034165685   -3.9074061   0.72976885   424551 
 3691000   0.60764253   -3.9068624   -3.9068624   -3.1780065  0.044945513   -3.9068624   0.72885587   424551 
 3692000   0.60864251   -3.9077913   -3.9077913   -3.1777359  0.029194678   -3.9077913   0.73005534   424551 
 3693000   0.60855785   -3.9072824   -3.9072824   -3.1773286  0.030058081   -3.9072824   0.72995378   424551 
 3694000   0.60786094    -3.906527    -3.906527   -3.1774092  0.036376353    -3.906527   0.72911785   424551 
 3695000   0.60800723   -3.9062332   -3.9062332   -3.1769398  0.045399437   -3.9062332   0.72929332   424551 
 3696000   0.60842096   -3.9076027   -3.9076027   -3.1778131  0.019268792   -3.9076027   0.72978958   424551 
 3697000   0.60778391   -3.9068679   -3.9068679   -3.1778425  0.028813052   -3.9068679   0.72902546   424551 
 3698000   0.60723819   -3.9068463   -3.9068463   -3.1784754   0.02570877   -3.9068463   0.72837087   424551 
 3699000   0.60624487   -3.9047312   -3.9047312   -3.1775518  0.044279384   -3.9047312   0.72717941   424551 
 3700000   0.60764362   -3.9064822   -3.9064822    -3.177625  0.046797482   -3.9064822   0.72885718   424551 
 3701000   0.60721361   -3.9062521   -3.9062521   -3.1779107  0.037936433   -3.9062521   0.72834139   424551 
 3702000   0.60686941   -3.9066144   -3.9066144   -3.1786859  0.036593275   -3.9066144   0.72792852   424551 
 3703000    0.6082236   -3.9084094   -3.9084094   -3.1788566  0.031085372   -3.9084094   0.72955286   424551 
 3704000   0.60781477   -3.9082662   -3.9082662   -3.1792037  0.032175493   -3.9082662   0.72906247   424551 
 3705000   0.60722775   -3.9069996   -3.9069996   -3.1786412  0.044946013   -3.9069996   0.72835836   424551 
 3706000    0.6076591   -3.9073196   -3.9073196   -3.1784438  0.038259555   -3.9073196   0.72887575   424551 
 3707000   0.60756282   -3.9073438   -3.9073438   -3.1785835   0.03649034   -3.9073438   0.72876027   424551 
 3708000   0.60819055   -3.9085638   -3.9085638   -3.1790506  0.016411174   -3.9085638   0.72951321   424551 
 3709000   0.60842369   -3.9092439   -3.9092439   -3.1794511  0.034055428   -3.9092439   0.72979286   424551 
 3710000   0.60621296   -3.9076348   -3.9076348   -3.1804936  0.031450302   -3.9076348   0.72714113   424551 
 3711000   0.60684875   -3.9086783   -3.9086783   -3.1807745  0.034792842   -3.9086783   0.72790375   424551 
 3712000   0.60706178   -3.9080393   -3.9080393   -3.1798801  0.043821745   -3.9080393   0.72815927   424551 
 3713000   0.60640158   -3.9072692   -3.9072692   -3.1799018  0.036355902   -3.9072692   0.72736738   424551 
 3714000   0.60675054   -3.9078155   -3.9078155   -3.1800295  0.037124473   -3.9078155   0.72778595   424551 
 3715000   0.60706695   -3.9091279   -3.9091279   -3.1809624  0.034459851   -3.9091279   0.72816547   424551 
 3716000   0.60682926   -3.9090231   -3.9090231   -3.1811427  0.056288809   -3.9090231   0.72788037   424551 
 3717000   0.60649845   -3.9087162   -3.9087162   -3.1812327  0.041148596   -3.9087162   0.72748357   424551 
 3718000   0.60647289    -3.908142    -3.908142   -3.1806891  0.032699292    -3.908142   0.72745291   424551 
 3719000   0.60739036    -3.908925    -3.908925   -3.1803716  0.032499834    -3.908925    0.7285534   424551 
 3720000   0.60751432   -3.9088976   -3.9088976   -3.1801955  0.045263952   -3.9088976   0.72870209   424551 
 3721000   0.60647904   -3.9080517   -3.9080517   -3.1805914  0.030843773   -3.9080517   0.72746028   424551 
 3722000   0.60702351   -3.9086556   -3.9086556   -3.1805423   0.03236953   -3.9086556   0.72811337   424551 
 3723000   0.60615239   -3.9080836   -3.9080836   -3.1810151  0.034815401   -3.9080836   0.72706848   424551 
 3724000   0.60724666   -3.9101759   -3.9101759   -3.1817949  0.026441567   -3.9101759   0.72838103   424551 
 3725000   0.60764208   -3.9103741   -3.9103741   -3.1815188  0.023505822   -3.9103741   0.72885533   424551 
 3726000   0.60644291   -3.9088687   -3.9088687   -3.1814517  0.031077651   -3.9088687   0.72741695   424551 
 3727000   0.60570626   -3.9082252   -3.9082252   -3.1816919  0.027040228   -3.9082252   0.72653335   424551 
 3728000   0.60609438   -3.9083811   -3.9083811   -3.1813822  0.037165487   -3.9083811    0.7269989   424551 
 3729000   0.60816899   -3.9101133   -3.9101133    -3.180626  0.037438813   -3.9101133   0.72948735   424551 
 3730000   0.60687856   -3.9085386   -3.9085386   -3.1805991  0.028952069   -3.9085386    0.7279395   424551 
 3731000   0.60742261   -3.9093646   -3.9093646   -3.1807725  0.035158874   -3.9093646   0.72859208   424551 
 3732000   0.60694767   -3.9089904   -3.9089904    -3.180968  0.036212345   -3.9089904    0.7280224   424551 
 3733000   0.60709324   -3.9094396   -3.9094396   -3.1812426  0.033586118   -3.9094396   0.72819701   424551 
 3734000   0.60788062   -3.9106359   -3.9106359   -3.1814945  0.041267736   -3.9106359   0.72914146   424551 
 3735000   0.60746947   -3.9098176   -3.9098176   -3.1811693  0.037792913   -3.9098176   0.72864829   424551 
 3736000    0.6081702   -3.9101727   -3.9101727   -3.1806839  0.025877361   -3.9101727    0.7294888   424551 
 3737000    0.6079907   -3.9098319   -3.9098319   -3.1805584  0.029700867   -3.9098319   0.72927349   424551 
 3738000   0.60821524   -3.9104444   -3.9104444   -3.1809016  0.025990622   -3.9104444   0.72954282   424551 
 3739000    0.6073172   -3.9082381   -3.9082381   -3.1797724  0.041586371   -3.9082381   0.72846565   424551 
 3740000   0.60825015   -3.9088951   -3.9088951   -3.1793104  0.043320983   -3.9088951    0.7295847   424551 
 3741000   0.60789371   -3.9092282   -3.9092282    -3.180071  0.038978289   -3.9092282   0.72915716   424551 
 3742000   0.60762226   -3.9093306   -3.9093306   -3.1804991  0.039537168   -3.9093306   0.72883156   424551 
 3743000   0.60800557   -3.9095769   -3.9095769   -3.1802855  0.045559613   -3.9095769   0.72929134   424551 
 3744000   0.60714493   -3.9086925   -3.9086925   -3.1804335   0.03316384   -3.9086925   0.72825901   424551 
 3745000   0.60614425   -3.9070111   -3.9070111   -3.1799524    0.0360236   -3.9070111   0.72705871   424551 
 3746000   0.60659564   -3.9073398   -3.9073398   -3.1797396  0.043541733   -3.9073398   0.72760015   424551 
 3747000   0.60769323   -3.9084755   -3.9084755   -3.1795588  0.031589126   -3.9084755   0.72891668   424551 
 3748000   0.60713114   -3.9079727   -3.9079727   -3.1797302  0.044334312   -3.9079727   0.72824247   424551 
 3749000   0.60660464    -3.907253    -3.907253   -3.1796421  0.037552036    -3.907253   0.72761094   424551 
 3750000   0.60614861   -3.9068886   -3.9068886   -3.1798247  0.032353144   -3.9068886   0.72706394   424551 
 3751000   0.60681672   -3.9072054   -3.9072054   -3.1793401  0.030621915   -3.9072054   0.72786533   424551 
 3752000   0.60793504    -3.908773    -3.908773   -3.1795663  0.036604226    -3.908773   0.72920673   424551 
 3753000   0.60659421   -3.9076539   -3.9076539   -3.1800555  0.028501928   -3.9076539   0.72759843   424551 
 3754000   0.60626175   -3.9071726   -3.9071726    -3.179973  0.029929063   -3.9071726   0.72719965   424551 
 3755000   0.60625483   -3.9070589   -3.9070589   -3.1798676   0.02112187   -3.9070589   0.72719135   424551 
 3756000   0.60826654   -3.9095023   -3.9095023    -3.179898  0.040921114   -3.9095023   0.72960436   424551 
 3757000   0.60875724    -3.909861    -3.909861   -3.1796681  0.032000008    -3.909861   0.73019295   424551 
 3758000   0.60875388   -3.9102611   -3.9102611   -3.1800722  0.035077352   -3.9102611   0.73018891   424551 
 3759000   0.60891657   -3.9103711   -3.9103711    -3.179987   0.03808206   -3.9103711   0.73038406   424551 
 3760000   0.60792258   -3.9101038   -3.9101038   -3.1809121  0.040436486   -3.9101038   0.72919179   424551 
 3761000   0.60857621   -3.9103452   -3.9103452   -3.1803693  0.029950095   -3.9103452   0.72997581   424551 
 3762000   0.60754152   -3.9094774   -3.9094774   -3.1807427  0.032017085   -3.9094774   0.72873471   424551 
 3763000   0.60694222   -3.9083932   -3.9083932   -3.1803774  0.032941659   -3.9083932   0.72801587   424551 
 3764000   0.60849349     -3.90928     -3.90928   -3.1794034  0.039104037     -3.90928   0.72987658   424551 
 3765000   0.60823278   -3.9100415   -3.9100415   -3.1804777  0.036865025   -3.9100415   0.72956387   424551 
 3766000   0.60766512   -3.9094617   -3.9094617   -3.1805788  0.033517343   -3.9094617   0.72888297   424551 
 3767000   0.60663606   -3.9094655   -3.9094655   -3.1818168  0.027622252   -3.9094655   0.72764863   424551 
 3768000   0.60688637   -3.9091063   -3.9091063   -3.1811574  0.034707723   -3.9091063   0.72794887   424551 
 3769000    0.6065606   -3.9089602   -3.9089602   -3.1814021  0.045983698   -3.9089602   0.72755812   424551 
 3770000    0.6068788   -3.9086521   -3.9086521   -3.1807123  0.029423046   -3.9086521   0.72793979   424551 
 3771000   0.60753469   -3.9093853   -3.9093853   -3.1806588  0.022735674   -3.9093853   0.72872652   424551 
 3772000   0.60706778   -3.9095689   -3.9095689   -3.1814025  0.036398985   -3.9095689   0.72816647   424551 
 3773000   0.60718856   -3.9096877   -3.9096877   -3.1813764   0.03798075   -3.9096877   0.72831135   424551 
 3774000   0.60730341   -3.9090987   -3.9090987   -3.1806496  0.038559774   -3.9090987    0.7284491   424551 
 3775000   0.60691767   -3.9088948   -3.9088948   -3.1809084  0.030085695   -3.9088948   0.72798642   424551 
 3776000   0.60784418   -3.9094884   -3.9094884   -3.1803907  0.041296324   -3.9094884   0.72909775   424551 
 3777000   0.60633262     -3.90806     -3.90806   -3.1807753  0.038347411     -3.90806   0.72728466   424551 
 3778000   0.60745881   -3.9101324   -3.9101324   -3.1814969  0.040245763   -3.9101324    0.7286355   424551 
 3779000   0.60693476   -3.9093909   -3.9093909    -3.181384  0.045345242   -3.9093909   0.72800692   424551 
 3780000   0.60696121    -3.909371    -3.909371   -3.1813323  0.033515406    -3.909371   0.72803864   424551 
 3781000   0.60912597   -3.9119484   -3.9119484   -3.1813131  0.035715824   -3.9119484   0.73063523   424551 
 3782000   0.60613323   -3.9083195   -3.9083195    -3.181274  0.036117781   -3.9083195    0.7270455   424551 
 3783000   0.60782152   -3.9099541   -3.9099541   -3.1808836  0.041865842   -3.9099541   0.72907057   424551 
 3784000   0.60656985   -3.9081935   -3.9081935   -3.1806243  0.028330503   -3.9081935   0.72756922   424551 
 3785000   0.60730308   -3.9092141   -3.9092141   -3.1807654  0.037520925   -3.9092141   0.72844871   424551 
 3786000   0.60795091   -3.9098396   -3.9098396   -3.1806138  0.027293069   -3.9098396   0.72922577   424551 
 3787000   0.60647071   -3.9080867   -3.9080867   -3.1806364  0.046015755   -3.9080867   0.72745029   424551 
 3788000   0.60690928   -3.9079734   -3.9079734   -3.1799971  0.047463915   -3.9079734   0.72797635   424551 
 3789000   0.60761866   -3.9098216   -3.9098216   -3.1809943  0.033915728   -3.9098216   0.72882724   424551 
 3790000   0.60702106   -3.9084945   -3.9084945    -3.180384   0.04156415   -3.9084945   0.72811044   424551 
 3791000   0.60685772   -3.9078407   -3.9078407   -3.1799262  0.015612682   -3.9078407   0.72791451   424551 
 3792000   0.60765067   -3.9083381   -3.9083381   -3.1794725  0.025996235   -3.9083381   0.72886564   424551 
 3793000   0.60845575   -3.9099013   -3.9099013     -3.18007  0.035999621   -3.9099013   0.72983132   424551 
 3794000   0.60789613   -3.9089412   -3.9089412   -3.1797811   0.03779507   -3.9089412   0.72916006   424551 
 3795000   0.60776456    -3.909645    -3.909645   -3.1806428  0.022111618    -3.909645   0.72900225   424551 
 3796000   0.60633577   -3.9075357   -3.9075357   -3.1802472  0.029832655   -3.9075357   0.72728843   424551 
 3797000   0.60799435   -3.9093693   -3.9093693   -3.1800914  0.038900564   -3.9093693   0.72927787   424551 
 3798000   0.60748699   -3.9096189   -3.9096189   -3.1809496  0.034200792   -3.9096189   0.72866931   424551 
 3799000   0.60712588   -3.9092722   -3.9092722    -3.181036  0.031160983   -3.9092722   0.72823616   424551 
 3800000   0.60650713   -3.9083337   -3.9083337   -3.1808397  0.032935765   -3.9083337   0.72749398   424551 
 3801000   0.60740537   -3.9090888   -3.9090888   -3.1805174  0.030473749   -3.9090888   0.72857141   424551 
 3802000   0.60664073    -3.907714    -3.907714   -3.1800598  0.033651707    -3.907714   0.72765423   424551 
 3803000   0.60707192    -3.908078    -3.908078   -3.1799065  0.037429991    -3.908078   0.72817143   424551 
 3804000   0.60829239   -3.9097586   -3.9097586   -3.1801233  0.034961875   -3.9097586   0.72963536   424551 
 3805000   0.60856608   -3.9096457   -3.9096457    -3.179682  0.031802993   -3.9096457   0.72996365   424551 
 3806000   0.60761228   -3.9075737   -3.9075737   -3.1787541  0.038283404   -3.9075737   0.72881959   424551 
 3807000   0.60999152   -3.9097673   -3.9097673   -3.1780939  0.041223313   -3.9097673   0.73167345   424551 
 3808000   0.60779432   -3.9084642   -3.9084642   -3.1794263  0.044853043   -3.9084642   0.72903794   424551 
 3809000   0.60794114   -3.9081553   -3.9081553   -3.1789412  0.014161774   -3.9081553   0.72921405   424551 
 3810000    0.6089003   -3.9090171   -3.9090171   -3.1786525  0.036090993   -3.9090171   0.73036454   424551 
 3811000   0.60781869   -3.9077023   -3.9077023   -3.1786351  0.032788116   -3.9077023   0.72906718   424551 
 3812000   0.60830243   -3.9091299   -3.9091299   -3.1794825  0.036963618   -3.9091299   0.72964741   424551 
 3813000   0.60696206   -3.9076189   -3.9076189   -3.1795792  0.043721418   -3.9076189   0.72803967   424551 
 3814000   0.60769225   -3.9085585   -3.9085585    -3.179643  0.019256831   -3.9085585   0.72891552   424551 
 3815000    0.6079611   -3.9087734   -3.9087734   -3.1795354  0.019599124   -3.9087734   0.72923799   424551 
 3816000   0.60784073   -3.9091781   -3.9091781   -3.1800845   0.03892988   -3.9091781   0.72909361   424551 
 3817000   0.60774781   -3.9094033   -3.9094033   -3.1804211  0.027740535   -3.9094033   0.72898215   424551 
 3818000   0.60741353   -3.9093422   -3.9093422    -3.180761  0.035604168   -3.9093422   0.72858119   424551 
 3819000   0.60772377   -3.9101686   -3.9101686   -3.1812153  0.036279435   -3.9101686   0.72895332   424551 
 3820000   0.60597115   -3.9081311   -3.9081311   -3.1812801  0.034997251   -3.9081311   0.72685109   424551 
 3821000   0.60601068   -3.9091761   -3.9091761   -3.1822776  0.034572736   -3.9091761    0.7268985   424551 
 3822000   0.60691721   -3.9097431   -3.9097431   -3.1817572  0.034793434   -3.9097431   0.72798587   424551 
 3823000   0.60591442   -3.9088885   -3.9088885   -3.1821055  0.021760969   -3.9088885   0.72678304   424551 
 3824000   0.60496737   -3.9075448   -3.9075448   -3.1818977  0.030816252   -3.9075448   0.72564707   424551 
 3825000   0.60696849   -3.9098029   -3.9098029   -3.1817556  0.025843334   -3.9098029   0.72804737   424551 
 3826000   0.60632694   -3.9082553   -3.9082553   -3.1809774  0.044342669   -3.9082553   0.72727784   424551 
 3827000   0.60826396   -3.9101151   -3.9101151   -3.1805138  0.034850423   -3.9101151   0.72960127   424551 
 3828000   0.60856904   -3.9106462   -3.9106462    -3.180679  0.039368208   -3.9106462   0.72996721   424551 
 3829000   0.60736926   -3.9084265   -3.9084265   -3.1798984  0.040439881   -3.9084265   0.72852809   424551 
 3830000   0.60871257   -3.9103618   -3.9103618   -3.1802224   0.04288809   -3.9103618   0.73013936   424551 
 3831000   0.60726101   -3.9088507   -3.9088507   -3.1804525  0.030345385   -3.9088507   0.72839825   424551 
 3832000   0.60679554   -3.9078911   -3.9078911   -3.1800512  0.042075626   -3.9078911   0.72783993   424551 
 3833000   0.60763526   -3.9091353   -3.9091353   -3.1802882   0.04002732   -3.9091353   0.72884715   424551 
 3834000   0.60733693   -3.9091148   -3.9091148   -3.1806255  0.025108594   -3.9091148   0.72848931   424551 
 3835000   0.60853426   -3.9100852   -3.9100852   -3.1801597  0.045297836   -3.9100852   0.72992548   424551 
 3836000   0.60738313   -3.9085647   -3.9085647     -3.18002  0.034764862   -3.9085647   0.72854473   424551 
 3837000    0.6078758   -3.9099703   -3.9099703   -3.1808346  0.046838484   -3.9099703   0.72913567   424551 
 3838000   0.60916303     -3.91186     -3.91186   -3.1811804  0.042514592     -3.91186   0.73067969   424551 
 3839000   0.60869979   -3.9120498   -3.9120498   -3.1819257  0.029805115   -3.9120498   0.73012404   424551 
 3840000   0.60754844    -3.909441    -3.909441    -3.180698  0.035237258    -3.909441   0.72874301   424551 
 3841000   0.60845206   -3.9106649   -3.9106649    -3.180838  0.025158795   -3.9106649   0.72982689   424551 
 3842000   0.60670906   -3.9091732   -3.9091732    -3.181437  0.025849394   -3.9091732    0.7277362   424551 
 3843000   0.60768969   -3.9099487   -3.9099487   -3.1810362  0.033785345   -3.9099487   0.72891244   424551 
 3844000   0.60716214   -3.9091996   -3.9091996   -3.1809199  0.038477086   -3.9091996   0.72827965   424551 
 3845000   0.60660498   -3.9091586   -3.9091586   -3.1815472  0.029022288   -3.9091586   0.72761135   424551 
 3846000   0.60690429   -3.9097708   -3.9097708   -3.1818005  0.039372113   -3.9097708   0.72797037   424551 
 3847000   0.60733243   -3.9105036   -3.9105036   -3.1820197  0.031049163   -3.9105036   0.72848392   424551 
 3848000   0.60715355   -3.9101626   -3.9101626   -3.1818932   0.03638099   -3.9101626   0.72826935   424551 
 3849000    0.6064845   -3.9097246   -3.9097246   -3.1822577  0.035653207   -3.9097246   0.72746683   424551 
 3850000   0.60830426   -3.9124058   -3.9124058   -3.1827562  0.032938495   -3.9124058   0.72964961   424551 
 3851000   0.60678414   -3.9106254   -3.9106254   -3.1827991   0.04032169   -3.9106254   0.72782625   424551 
 3852000   0.60703141   -3.9110899   -3.9110899    -3.182967   0.03679615   -3.9110899   0.72812285   424551 
 3853000   0.60631276   -3.9109834   -3.9109834   -3.1837226  0.031392182   -3.9109834   0.72726083   424551 
 3854000   0.60718439   -3.9117172   -3.9117172   -3.1834109  0.027429378   -3.9117172   0.72830635   424551 
 3855000   0.60782111   -3.9121808   -3.9121808   -3.1831108  0.025468462   -3.9121808   0.72907007   424551 
 3856000   0.60602573   -3.9097851   -3.9097851   -3.1828685  0.029260225   -3.9097851   0.72691655   424551 
 3857000   0.60735203   -3.9107705   -3.9107705   -3.1822631  0.036425127   -3.9107705   0.72850743   424551 
 3858000   0.60646634   -3.9101028   -3.9101028   -3.1826577  0.034825214   -3.9101028   0.72744506   424551 
 3859000   0.60603081    -3.909307    -3.909307   -3.1823844  0.035075084    -3.909307   0.72692264   424551 
 3860000   0.60564151   -3.9097792   -3.9097792   -3.1833235  0.026080519   -3.9097792   0.72645569   424551 
 3861000   0.60517257   -3.9087791   -3.9087791   -3.1828859  0.024437309   -3.9087791   0.72589321   424551 
 3862000   0.60508429   -3.9093663   -3.9093663    -3.183579  0.025433838   -3.9093663   0.72578731   424551 
 3863000   0.60547386   -3.9089854   -3.9089854   -3.1827308  0.032358888   -3.9089854   0.72625459   424551 
 3864000   0.60652482   -3.9104474   -3.9104474   -3.1829322  0.038238145   -3.9104474    0.7275152   424551 
 3865000   0.60699253   -3.9116612   -3.9116612    -3.183585  0.029298008   -3.9116612   0.72807621   424551 
 3866000   0.60620322    -3.909719    -3.909719   -3.1825896  0.039349761    -3.909719   0.72712945   424551 
 3867000   0.60632079   -3.9107395   -3.9107395   -3.1834691  0.033460012   -3.9107395   0.72727047   424551 
 3868000   0.60645003   -3.9114608   -3.9114608   -3.1840353  0.030684351   -3.9114608   0.72742549   424551 
 3869000   0.60616983   -3.9110592   -3.9110592   -3.1839698  0.044922304   -3.9110592    0.7270894   424551 
 3870000   0.60869836   -3.9137323   -3.9137323     -3.18361  0.042004946   -3.9137323   0.73012232   424551 
 3871000   0.60645879     -3.91127     -3.91127    -3.183834  0.030579476     -3.91127     0.727436   424551 
 3872000   0.60724763   -3.9116131   -3.9116131   -3.1832309  0.038733073   -3.9116131    0.7283822   424551 
 3873000    0.6084239   -3.9131511   -3.9131511    -3.183358  0.022815254   -3.9131511   0.72979311   424551 
 3874000   0.60750683   -3.9116077   -3.9116077   -3.1829146  0.035820007   -3.9116077    0.7286931   424551 
 3875000   0.60716059   -3.9118914   -3.9118914   -3.1836136  0.027032384   -3.9118914    0.7282778   424551 
 3876000   0.60720145   -3.9125071   -3.9125071   -3.1841803  0.031564987   -3.9125071    0.7283268   424551 
 3877000   0.60804332   -3.9131198   -3.9131198   -3.1837832  0.045158896   -3.9131198   0.72933662   424551 
 3878000   0.60728553   -3.9118615   -3.9118615   -3.1834338  0.036159274   -3.9118615   0.72842766   424551 
 3879000   0.60798875   -3.9126413   -3.9126413   -3.1833702   0.02631095   -3.9126413   0.72927116   424551 
 3880000   0.60717258   -3.9109663   -3.9109663   -3.1826741  0.042759896   -3.9109663   0.72829218   424551 
 3881000   0.60766128   -3.9115657   -3.9115657   -3.1826873  0.032391053   -3.9115657   0.72887837   424551 
 3882000   0.60639374   -3.9106939   -3.9106939   -3.1833359  0.028960442   -3.9106939   0.72735797   424551 
 3883000   0.60783484   -3.9127466   -3.9127466     -3.18366  0.013194994   -3.9127466   0.72908654   424551 
 3884000   0.60684455   -3.9112715   -3.9112715   -3.1833728   0.03338417   -3.9112715   0.72789871   424551 
 3885000   0.60723516   -3.9116085   -3.9116085   -3.1832412  0.031708995   -3.9116085   0.72836724   424551 
 3886000   0.60702793   -3.9109825   -3.9109825   -3.1828638  0.042663958   -3.9109825   0.72811867   424551 
 3887000    0.6057626   -3.9098259   -3.9098259    -3.183225  0.035463996   -3.9098259   0.72660093   424551 
 3888000   0.60495403   -3.9092394   -3.9092394   -3.1836083  0.024815184   -3.9092394   0.72563107   424551 
 3889000   0.60515094   -3.9097652   -3.9097652   -3.1838979  0.028392328   -3.9097652   0.72586725   424551 
 3890000   0.60599427   -3.9106306   -3.9106306   -3.1837518  0.018695683   -3.9106306   0.72687882   424551 
 3891000   0.60633002    -3.910973    -3.910973   -3.1836915  0.028473719    -3.910973   0.72728155   424551 
 3892000   0.60623375   -3.9110527   -3.9110527   -3.1838866   0.02830659   -3.9110527   0.72716607   424551 
 3893000   0.60607087   -3.9116432   -3.9116432   -3.1846725  0.046529897   -3.9116432    0.7269707   424551 
 3894000   0.60646773   -3.9124644   -3.9124644   -3.1850177  0.037912716   -3.9124644   0.72744672   424551 
 3895000   0.60596826   -3.9108393   -3.9108393   -3.1839917  0.040970493   -3.9108393   0.72684761   424551 
 3896000   0.60681679   -3.9119722   -3.9119722   -3.1841068  0.042597653   -3.9119722   0.72786541   424551 
 3897000   0.60572166   -3.9110698   -3.9110698    -3.184518  0.051405384   -3.9110698   0.72655182   424551 
 3898000   0.60783777   -3.9135152   -3.9135152   -3.1844251  0.035259337   -3.9135152   0.72909006   424551 
 3899000   0.60678498   -3.9135324   -3.9135324   -3.1857052  0.036926655   -3.9135324   0.72782726   424551 
 3900000   0.60581772   -3.9127164   -3.9127164   -3.1860493  0.032834102   -3.9127164   0.72666704   424551 
 3901000   0.60600172   -3.9123622   -3.9123622   -3.1854745  0.031551698   -3.9123622   0.72688775   424551 
 3902000   0.60569189   -3.9118872   -3.9118872    -3.185371  0.039594033   -3.9118872   0.72651612   424551 
 3903000   0.60680102   -3.9130185   -3.9130185    -3.185172  0.024051608   -3.9130185    0.7278465   424551 
 3904000   0.60759843   -3.9134724   -3.9134724   -3.1846694  0.035476544   -3.9134724   0.72880297   424551 
 3905000   0.60628396     -3.91148     -3.91148   -3.1842538  0.042560528     -3.91148   0.72722629   424551 
 3906000   0.60561083   -3.9101399   -3.9101399    -3.183721  0.025664353   -3.9101399   0.72641889   424551 
 3907000   0.60612776   -3.9116946   -3.9116946   -3.1846556    0.0210721   -3.9116946   0.72703893   424551 
 3908000   0.60656049    -3.911197    -3.911197    -3.183639  0.038458424    -3.911197   0.72755799   424551 
 3909000   0.60678963    -3.912171    -3.912171   -3.1843382  0.038304949    -3.912171   0.72783283   424551 
 3910000   0.60609368   -3.9120022   -3.9120022   -3.1850041   0.03187498   -3.9120022   0.72699806   424551 
 3911000   0.60543089   -3.9113168   -3.9113168   -3.1851137  0.027037976   -3.9113168   0.72620305   424551 
 3912000   0.60549518   -3.9109571   -3.9109571    -3.184677  0.022179753   -3.9109571   0.72628016   424551 
 3913000   0.60540165   -3.9107087   -3.9107087   -3.1845407  0.026618069   -3.9107087   0.72616798   424551 
 3914000   0.60628872   -3.9121727   -3.9121727   -3.1849407  0.032613358   -3.9121727   0.72723201   424551 
 3915000    0.6058857   -3.9113179   -3.9113179   -3.1845693  0.036466778   -3.9113179   0.72674859   424551 
 3916000   0.60647561    -3.911944    -3.911944   -3.1844878  0.021162891    -3.911944   0.72745617   424551 
 3917000   0.60678749   -3.9125957   -3.9125957   -3.1847654  0.031991592   -3.9125957   0.72783026   424551 
 3918000   0.60613225   -3.9128515   -3.9128515   -3.1858072  0.038233867   -3.9128515   0.72704432   424551 
 3919000   0.60559862   -3.9121456   -3.9121456   -3.1857414  0.043228009   -3.9121456   0.72640424   424551 
 3920000    0.6050697   -3.9107246   -3.9107246   -3.1849548  0.029701716   -3.9107246   0.72576982   424551 
 3921000   0.60657937   -3.9123421   -3.9123421   -3.1847615  0.031366038   -3.9123421   0.72758063   424551 
 3922000   0.60636855   -3.9124178   -3.9124178     -3.18509  0.035001843   -3.9124178   0.72732776   424551 
 3923000    0.6060864   -3.9118151   -3.9118151   -3.1848258  0.027099071   -3.9118151   0.72698932   424551 
 3924000   0.60705856   -3.9132636   -3.9132636   -3.1851081  0.029366606   -3.9132636   0.72815541   424551 
 3925000   0.60645978   -3.9127327   -3.9127327   -3.1852955  0.032784486   -3.9127327   0.72743718   424551 
 3926000   0.60734968   -3.9135346   -3.9135346     -3.18503  0.026928713   -3.9135346   0.72850461   424551 
 3927000   0.60669333   -3.9127281   -3.9127281   -3.1850108  0.039642242   -3.9127281   0.72771732   424551 
 3928000    0.6058411    -3.912151    -3.912151   -3.1854559  0.028391548    -3.912151    0.7266951   424551 
 3929000   0.60679702   -3.9135097   -3.9135097    -3.185668  0.036523616   -3.9135097    0.7278417   424551 
 3930000   0.60694634   -3.9129507   -3.9129507   -3.1849299  0.032380323   -3.9129507    0.7280208   424551 
 3931000   0.60674095   -3.9128734   -3.9128734   -3.1850989  0.039316017   -3.9128734   0.72777445   424551 
 3932000   0.60590816   -3.9119988   -3.9119988   -3.1852232  0.037966865   -3.9119988   0.72677553   424551 
 3933000   0.60475869     -3.90966     -3.90966   -3.1842633  0.038551304     -3.90966   0.72539676   424551 
 3934000   0.60823808   -3.9136522   -3.9136522    -3.184082  0.045441578   -3.9136522   0.72957023   424551 
 3935000   0.60700935    -3.912118    -3.912118   -3.1840216  0.037639681    -3.912118   0.72809639   424551 
 3936000   0.60720222   -3.9127056   -3.9127056   -3.1843778  0.030254159   -3.9127056   0.72832773   424551 
 3937000   0.60667337   -3.9126043   -3.9126043   -3.1849109  0.028632913   -3.9126043   0.72769339   424551 
 3938000   0.60627791   -3.9120617   -3.9120617   -3.1848426  0.034504398   -3.9120617   0.72721903   424551 
 3939000   0.60554298    -3.910817    -3.910817   -3.1844795  0.038246231    -3.910817    0.7263375   424551 
 3940000   0.60597475   -3.9117675   -3.9117675   -3.1849121   0.03256361   -3.9117675    0.7268554   424551 
 3941000   0.60665426    -3.912627    -3.912627   -3.1849566  0.031738874    -3.912627   0.72767046   424551 
 3942000   0.60707589   -3.9132953   -3.9132953   -3.1851191  0.039073344   -3.9132953   0.72817619   424551 
 3943000   0.60648556   -3.9122619   -3.9122619   -3.1847938  0.030340786   -3.9122619   0.72746811   424551 
 3944000   0.60660241   -3.9124881   -3.9124881   -3.1848798  0.029305543   -3.9124881   0.72760827   424551 
 3945000   0.60608674   -3.9122267   -3.9122267   -3.1852369  0.038335268   -3.9122267   0.72698973   424551 
 3946000   0.60689129   -3.9136947   -3.9136947   -3.1857399  0.030080777   -3.9136947   0.72795477   424551 
 3947000   0.60661476   -3.9122808   -3.9122808   -3.1846577  0.039264694   -3.9122808   0.72762308   424551 
 3948000   0.60507708   -3.9111938   -3.9111938   -3.1854152  0.033374083   -3.9111938   0.72577866   424551 
 3949000   0.60659621    -3.913271    -3.913271   -3.1856702  0.032704319    -3.913271   0.72760083   424551 
 3950000   0.60595631   -3.9124892   -3.9124892   -3.1856559  0.031480086   -3.9124892   0.72683328   424551 
 3951000   0.60628922   -3.9124485   -3.9124485   -3.1852159  0.037832661   -3.9124485    0.7272326   424551 
 3952000   0.60748479    -3.913609    -3.913609   -3.1849423  0.035544786    -3.913609   0.72866667   424551 
 3953000   0.60621487   -3.9126881   -3.9126881   -3.1855447  0.032394513   -3.9126881   0.72714343   424551 
 3954000   0.60639062   -3.9127088   -3.9127088   -3.1853545  0.043536724   -3.9127088   0.72735423   424551 
 3955000   0.60519009   -3.9115798   -3.9115798   -3.1856656  0.050629006   -3.9115798   0.72591421   424551 
 3956000   0.60573201   -3.9127911   -3.9127911   -3.1862269  0.031585941   -3.9127911   0.72656424   424551 
 3957000   0.60619392   -3.9132983   -3.9132983     -3.18618  0.033585235   -3.9132983   0.72711829   424551 
 3958000   0.60642941   -3.9139457   -3.9139457    -3.186545  0.039989011   -3.9139457   0.72740076   424551 
 3959000   0.60620431    -3.914164    -3.914164   -3.1870333  0.031876141    -3.914164   0.72713075   424551 
 3960000   0.60690944   -3.9144024   -3.9144024   -3.1864258  0.028610953   -3.9144024   0.72797655   424551 
 3961000   0.60572325   -3.9130014   -3.9130014   -3.1864476  0.038133396   -3.9130014   0.72655373   424551 
 3962000   0.60692211   -3.9150031   -3.9150031   -3.1870114  0.025899961   -3.9150031   0.72799174   424551 
 3963000   0.60509229   -3.9131392   -3.9131392   -3.1873423  0.023655556   -3.9131392    0.7257969   424551 
 3964000   0.60624884   -3.9142578   -3.9142578   -3.1870736  0.012486312   -3.9142578   0.72718417   424551 
 3965000    0.6063363    -3.914212    -3.914212   -3.1869229   0.04908127    -3.914212   0.72728908   424551 
 3966000   0.60645558   -3.9147406   -3.9147406   -3.1873085  0.034667454   -3.9147406   0.72743214   424551 
 3967000   0.60689245   -3.9149369   -3.9149369   -3.1869807  0.047162459   -3.9149369   0.72795616   424551 
 3968000   0.60718857   -3.9152034   -3.9152034    -3.186892   0.03977531   -3.9152034   0.72831135   424551 
 3969000   0.60675104   -3.9150086   -3.9150086   -3.1872221  0.025204219   -3.9150086   0.72778655   424551 
 3970000   0.60567213   -3.9144879   -3.9144879   -3.1879955  0.028260615   -3.9144879   0.72649242   424551 
 3971000   0.60603599   -3.9149445   -3.9149445   -3.1880157  0.030567132   -3.9149445   0.72692885   424551 
 3972000   0.60652477     -3.91481     -3.91481   -3.1872948  0.027913143     -3.91481   0.72751514   424551 
 3973000   0.60616783   -3.9147393   -3.9147393   -3.1876523  0.042545085   -3.9147393     0.727087   424551 
 3974000   0.60690381   -3.9140614   -3.9140614   -3.1860916    0.0377488   -3.9140614    0.7279698   424551 
 3975000   0.60635191   -3.9133538   -3.9133538    -3.186046  0.043590727   -3.9133538    0.7273078   424551 
 3976000   0.60546013   -3.9121902   -3.9121902   -3.1859521  0.038162725   -3.9121902   0.72623812   424551 
 3977000   0.60549125   -3.9113193   -3.9113193   -3.1850438  0.031836244   -3.9113193   0.72627545   424551 
 3978000    0.6071722   -3.9128955   -3.9128955   -3.1846038  0.046600256   -3.9128955   0.72829172   424551 
 3979000   0.60668776   -3.9137209   -3.9137209   -3.1860103  0.034505997   -3.9137209   0.72771065   424551 
 3980000   0.60637466   -3.9139472   -3.9139472   -3.1866121  0.040911177   -3.9139472   0.72733509   424551 
 3981000   0.60634509   -3.9136031   -3.9136031   -3.1863034    0.0266283   -3.9136031   0.72729962   424551 
 3982000     0.606328   -3.9139094   -3.9139094   -3.1866303  0.033920605   -3.9139094   0.72727912   424551 
 3983000   0.60596191   -3.9140172   -3.9140172   -3.1871772  0.029069519   -3.9140172      0.72684   424551 
 3984000   0.60594674   -3.9129732   -3.9129732   -3.1861514  0.015841951   -3.9129732   0.72682181   424551 
 3985000   0.60643377    -3.914228    -3.914228    -3.186822  0.046835113    -3.914228   0.72740598   424551 
 3986000   0.60493464   -3.9129981   -3.9129981   -3.1873903  0.028167259   -3.9129981    0.7256078   424551 
 3987000   0.60786483    -3.916489    -3.916489   -3.1873665   0.03672351    -3.916489   0.72912251   424551 
 3988000   0.60537891   -3.9142944   -3.9142944   -3.1881537  0.036078892   -3.9142944    0.7261407   424551 
 3989000    0.6057586   -3.9143528   -3.9143528   -3.1877567  0.027990747   -3.9143528   0.72659614   424551 
 3990000    0.6059991   -3.9147311   -3.9147311   -3.1878465  0.038092159   -3.9147311    0.7268846   424551 
 3991000   0.60634684   -3.9143948   -3.9143948    -3.187093  0.034530113   -3.9143948   0.72730172   424551 
 3992000    0.6061909   -3.9142327   -3.9142327    -3.187118  0.033685646   -3.9142327   0.72711467   424551 
 3993000   0.60750879   -3.9160114   -3.9160114    -3.187316  0.030134709   -3.9160114   0.72869546   424551 
 3994000   0.60812418   -3.9164232   -3.9164232   -3.1869896  0.026393845   -3.9164232    0.7294336   424551 
 3995000   0.60745239   -3.9155443   -3.9155443   -3.1869165  0.028895553   -3.9155443    0.7286278   424551 
 3996000   0.60613051   -3.9141487   -3.9141487   -3.1871065  0.032778257   -3.9141487   0.72704224   424551 
 3997000   0.60690178   -3.9149909   -3.9149909   -3.1870236  0.027667082   -3.9149909   0.72796735   424551 
 3998000   0.60564979   -3.9139509   -3.9139509   -3.1874853  0.035210074   -3.9139509   0.72646561   424551 
 3999000   0.60694094   -3.9158846   -3.9158846   -3.1878703   0.03140739   -3.9158846   0.72801433   424551 
 4000000   0.60617549   -3.9150038   -3.9150038   -3.1879076  0.033869882   -3.9150038   0.72709618   424551 
 4001000   0.60687472   -3.9156629   -3.9156629    -3.187728  0.027546738   -3.9156629    0.7279349   424551 
 4002000   0.60716458   -3.9161818   -3.9161818   -3.1878992   0.03019001   -3.9161818   0.72828258   424551 
 4003000   0.60706319   -3.9156543   -3.9156543   -3.1874933  0.053450489   -3.9156543   0.72816097   424551 
 4004000   0.60743103   -3.9155285   -3.9155285   -3.1869263  0.027751817   -3.9155285   0.72860218   424551 
 4005000    0.6072421   -3.9162428   -3.9162428   -3.1878673   0.03600895   -3.9162428   0.72837556   424551 
 4006000    0.6067914   -3.9157508   -3.9157508   -3.1879159  0.041038169   -3.9157508   0.72783496   424551 
 4007000   0.60624811   -3.9151992   -3.9151992    -3.188016  0.039743184   -3.9151992   0.72718329   424551 
 4008000   0.60579191   -3.9150597   -3.9150597   -3.1884236  0.028859807   -3.9150597   0.72663609   424551 
 4009000    0.6065333   -3.9154505   -3.9154505   -3.1879251  0.044957504   -3.9154505   0.72752537   424551 
 4010000   0.60724196   -3.9170191   -3.9170191   -3.1886437  0.038054322   -3.9170191    0.7283754   424551 
 4011000   0.60693745    -3.916091    -3.916091   -3.1880809  0.035968239    -3.916091   0.72801015   424551 
 4012000   0.60603842   -3.9147805   -3.9147805   -3.1878488   0.03837826   -3.9147805   0.72693177   424551 
 4013000   0.60703847   -3.9159353   -3.9159353   -3.1878039  0.027684985   -3.9159353   0.72813131   424551 
 4014000    0.6070862   -3.9162211   -3.9162211   -3.1880326  0.040215951   -3.9162211   0.72818856   424551 
 4015000   0.60561698   -3.9146542   -3.9146542   -3.1882279  0.038873718   -3.9146542   0.72642627   424551 
 4016000   0.60649265    -3.914903    -3.914903   -3.1874264  0.037890589    -3.914903   0.72747661   424551 
 4017000   0.60533534   -3.9135879   -3.9135879   -3.1874995  0.032188645   -3.9135879   0.72608844   424551 
 4018000   0.60606353   -3.9145721   -3.9145721   -3.1876102  0.031241655   -3.9145721    0.7269619   424551 
 4019000   0.60655272   -3.9143936   -3.9143936   -3.1868449   0.03603162   -3.9143936   0.72754867   424551 
 4020000   0.60614825   -3.9133012   -3.9133012   -3.1862377  0.026892315   -3.9133012   0.72706351   424551 
 4021000   0.60576588   -3.9126357   -3.9126357   -3.1860309    0.0432695   -3.9126357   0.72660486   424551 
 4022000   0.60708929   -3.9141939   -3.9141939   -3.1860017  0.040056234   -3.9141939   0.72819227   424551 
 4023000   0.60649802   -3.9139873   -3.9139873   -3.1865043  0.031191895   -3.9139873   0.72748305   424551 
 4024000   0.60744699   -3.9158598   -3.9158598   -3.1872385   0.03597516   -3.9158598   0.72862132   424551 
 4025000   0.60608552   -3.9146324   -3.9146324   -3.1876442  0.045029627   -3.9146324   0.72698826   424551 
 4026000   0.60514555   -3.9127925   -3.9127925   -3.1869317  0.027061074   -3.9127925   0.72586079   424551 
 4027000   0.60684842   -3.9153933   -3.9153933   -3.1874899  0.042979697   -3.9153933   0.72790336   424551 
 4028000   0.60704901   -3.9150741   -3.9150741   -3.1869302  0.031398147   -3.9150741   0.72814396   424551 
 4029000   0.60819618   -3.9171423   -3.9171423   -3.1876223  0.033609468   -3.9171423   0.72951996   424551 
 4030000    0.6079684   -3.9161718   -3.9161718   -3.1869251  0.033561874   -3.9161718   0.72924675   424551 
 4031000   0.60660474    -3.914741    -3.914741     -3.18713  0.050107173    -3.914741   0.72761106   424551 
 4032000   0.60721516   -3.9153192   -3.9153192   -3.1869759  0.040471248   -3.9153192   0.72834325   424551 
 4033000   0.60631387     -3.91455     -3.91455   -3.1872878  0.050408524     -3.91455   0.72726217   424551 
 4034000   0.60638494   -3.9150989   -3.9150989   -3.1877515  0.041696017   -3.9150989   0.72734742   424551 
 4035000   0.60650343    -3.915308    -3.915308   -3.1878184  0.032177245    -3.915308   0.72748954   424551 
 4036000   0.60571904   -3.9148382   -3.9148382   -3.1882895  0.048101222   -3.9148382   0.72654868   424551 
 4037000   0.60583451   -3.9142076   -3.9142076   -3.1875204  0.037285989   -3.9142076   0.72668718   424551 
 4038000   0.60572745   -3.9138183   -3.9138183   -3.1872595  0.042189719   -3.9138183   0.72655877   424551 
 4039000   0.60701639   -3.9153609   -3.9153609    -3.187256  0.042849629   -3.9153609   0.72810483   424551 
 4040000   0.60545932   -3.9138231   -3.9138231    -3.187586  0.041927171   -3.9138231   0.72623715   424551 
 4041000   0.60719846   -3.9148683   -3.9148683   -3.1865451  0.039435431   -3.9148683   0.72832322   424551 
 4042000    0.6060661   -3.9141098   -3.9141098   -3.1871448  0.041526319   -3.9141098   0.72696497   424551 
 4043000    0.6064521   -3.9142871   -3.9142871   -3.1868591  0.033942192   -3.9142871   0.72742798   424551 
 4044000   0.60573398   -3.9132691   -3.9132691   -3.1867025  0.027246572   -3.9132691    0.7265666   424551 
 4045000   0.60571527   -3.9133534   -3.9133534   -3.1868092  0.033643218   -3.9133534   0.72654417   424551 
 4046000   0.60762199    -3.915203    -3.915203   -3.1863718  0.043100337    -3.915203   0.72883123   424551 
 4047000   0.60576451   -3.9138061   -3.9138061   -3.1872029  0.030522113   -3.9138061   0.72660323   424551 
 4048000   0.60645186   -3.9144762   -3.9144762   -3.1870485  0.031380642   -3.9144762   0.72742769   424551 
 4049000   0.60740801   -3.9158854   -3.9158854   -3.1873108  0.034474604   -3.9158854   0.72857457   424551 
 4050000   0.60682812   -3.9153676   -3.9153676   -3.1874886  0.026526957   -3.9153676   0.72787901   424551 
 4051000   0.60685539   -3.9153258   -3.9153258   -3.1874141  0.030351812   -3.9153258   0.72791171   424551 
 4052000   0.60719488   -3.9157173   -3.9157173   -3.1873983   0.03889939   -3.9157173   0.72831893   424551 
 4053000   0.60725213   -3.9154578   -3.9154578   -3.1870702   0.03377148   -3.9154578    0.7283876   424551 
 4054000   0.60652669   -3.9149968   -3.9149968   -3.1874794  0.028780092   -3.9149968   0.72751744   424551 
 4055000    0.6073654    -3.915674    -3.915674   -3.1871505  0.036024075    -3.915674   0.72852346   424551 
 4056000    0.6060462   -3.9147338   -3.9147338   -3.1877927  0.037482717   -3.9147338   0.72694111   424551 
 4057000    0.6074261   -3.9164954   -3.9164954   -3.1878992  0.025967618   -3.9164954   0.72859627   424551 
 4058000   0.60645164   -3.9155392   -3.9155392   -3.1881118  0.046408734   -3.9155392   0.72742743   424551 
 4059000   0.60745305   -3.9161602   -3.9161602   -3.1875316   0.03547204   -3.9161602   0.72862859   424551 
 4060000   0.60743763    -3.915347    -3.915347   -3.1867369  0.035692705    -3.915347    0.7286101   424551 
 4061000   0.60542161   -3.9139495   -3.9139495   -3.1877576  0.037794772   -3.9139495   0.72619192   424551 
 4062000   0.60661932   -3.9153345   -3.9153345    -3.187706  0.035227296   -3.9153345   0.72762855   424551 
 4063000   0.60583814    -3.914008    -3.914008   -3.1873165  0.030879276    -3.914008   0.72669154   424551 
 4064000   0.60733139   -3.9157509   -3.9157509   -3.1872683  0.028345058   -3.9157509   0.72848267   424551 
 4065000   0.60818966   -3.9169047   -3.9169047   -3.1873925  0.034213161   -3.9169047   0.72951215   424551 
 4066000   0.60574243   -3.9153155   -3.9153155   -3.1887388  0.047765778   -3.9153155   0.72657673   424551 
 4067000   0.60757993   -3.9169722   -3.9169722   -3.1881914  0.032522254   -3.9169722   0.72878079   424551 
 4068000   0.60679054   -3.9160501   -3.9160501   -3.1882162  0.018528854   -3.9160501   0.72783393   424551 
 4069000   0.60636669   -3.9147262   -3.9147262   -3.1874007  0.047547568   -3.9147262   0.72732553   424551 
 4070000   0.60772085    -3.915601    -3.915601   -3.1866512  0.041252121    -3.915601   0.72894981   424551 
 4071000   0.60692489   -3.9150593   -3.9150593   -3.1870642  0.033077127   -3.9150593   0.72799507   424551 
 4072000   0.60803975   -3.9157134   -3.9157134   -3.1863811  0.035317246   -3.9157134   0.72933233   424551 
 4073000   0.60702567   -3.9149973   -3.9149973   -3.1868813  0.040064327   -3.9149973   0.72811595   424551 
 4074000   0.60703271   -3.9144519   -3.9144519   -3.1863275  0.037848673   -3.9144519    0.7281244   424551 
 4075000   0.60740751   -3.9159677   -3.9159677   -3.1873937  0.029836719   -3.9159677   0.72857398   424551 
 4076000   0.60730098   -3.9152452   -3.9152452    -3.186799  0.029203582   -3.9152452   0.72844619   424551 
 4077000   0.60736233   -3.9161043   -3.9161043   -3.1875845   0.03322295   -3.9161043   0.72851978   424551 
 4078000   0.60695957   -3.9152677   -3.9152677    -3.187231  0.039768929   -3.9152677   0.72803667   424551 
 4079000   0.60775158    -3.916053    -3.916053   -3.1870663  0.036143423    -3.916053   0.72898668   424551 
 4080000   0.60657093   -3.9159184   -3.9159184   -3.1883479  0.017062745   -3.9159184   0.72757051   424551 
 4081000   0.60582734   -3.9144379   -3.9144379   -3.1877593   0.02434489   -3.9144379   0.72667858   424551 
 4082000   0.60604357   -3.9154249   -3.9154249   -3.1884869  0.030393096   -3.9154249   0.72693795   424551 
 4083000   0.60690611   -3.9159248   -3.9159248   -3.1879522  0.042758284   -3.9159248   0.72797255   424551 
 4084000   0.60677299    -3.916247    -3.916247   -3.1884341  0.031755873    -3.916247   0.72781287   424551 
 4085000    0.6062467    -3.915504    -3.915504   -3.1883224  0.029229335    -3.915504    0.7271816   424551 
 4086000   0.60605966   -3.9156705   -3.9156705   -3.1887132  0.032296972   -3.9156705   0.72695725   424551 
 4087000   0.60626499   -3.9167758   -3.9167758   -3.1895723  0.030899912   -3.9167758   0.72720354   424551 
 4088000   0.60592838   -3.9161061   -3.9161061   -3.1893063   0.03012576   -3.9161061   0.72679978   424551 
 4089000   0.60738173    -3.917651    -3.917651   -3.1891079   0.02647272    -3.917651   0.72854305   424551 
 4090000   0.60575955   -3.9158744   -3.9158744   -3.1892772  0.037884527   -3.9158744   0.72659727   424551 
 4091000    0.6067593   -3.9158829   -3.9158829   -3.1880864  0.037701685   -3.9158829   0.72779646   424551 
 4092000   0.60567174   -3.9155818   -3.9155818   -3.1890898  0.042619737   -3.9155818   0.72649194   424551 
 4093000   0.60652722   -3.9161052   -3.9161052   -3.1885871  0.033570839   -3.9161052   0.72751808   424551 
 4094000   0.60680427   -3.9174961   -3.9174961   -3.1896457  0.030997252   -3.9174961    0.7278504   424551 
 4095000   0.60778257   -3.9183253   -3.9183253   -3.1893014  0.040997172   -3.9183253   0.72902384   424551 
 4096000   0.60681999   -3.9175632   -3.9175632    -3.189694  0.026832786   -3.9175632   0.72786925   424551 
 4097000   0.60636206   -3.9170294   -3.9170294   -3.1897094  0.040036915   -3.9170294   0.72731997   424551 
 4098000   0.60653513   -3.9168591   -3.9168591   -3.1893315  0.028506881   -3.9168591   0.72752757   424551 
 4099000   0.60712829   -3.9178223   -3.9178223   -3.1895832  0.023589977   -3.9178223   0.72823906   424551 
 4100000   0.60570061   -3.9164842   -3.9164842   -3.1899577 0.0071938012   -3.9164842   0.72652658   424551 
 4101000   0.60646497   -3.9177945   -3.9177945   -3.1903511  0.032635184   -3.9177945   0.72744342   424551 
 4102000   0.60619229   -3.9176721   -3.9176721   -3.1905557  0.037182235   -3.9176721   0.72711633   424551 
 4103000   0.60662312   -3.9184168   -3.9184168   -3.1907837  0.030450685   -3.9184168   0.72763311   424551 
 4104000    0.6067743    -3.918559    -3.918559   -3.1907446  0.023343971    -3.918559   0.72781445   424551 
 4105000   0.60714178   -3.9191852   -3.9191852     -3.19093  0.025813017   -3.9191852   0.72825523   424551 
 4106000    0.6063876   -3.9187403   -3.9187403   -3.1913897  0.047253229   -3.9187403    0.7273506   424551 
 4107000   0.60569184   -3.9178971   -3.9178971   -3.1913811  0.037308902   -3.9178971   0.72651606   424551 
 4108000    0.6060482   -3.9184863   -3.9184863   -3.1915428   0.02509968   -3.9184863   0.72694351   424551 
 4109000   0.60496178   -3.9180649   -3.9180649   -3.1924245  0.046389699   -3.9180649   0.72564036   424551 
 4110000   0.60582907   -3.9188089   -3.9188089   -3.1921282  0.032407108   -3.9188089   0.72668066   424551 
 4111000   0.60675935   -3.9186384   -3.9186384   -3.1908419  0.046448001   -3.9186384   0.72779652   424551 
 4112000   0.60772014   -3.9200884   -3.9200884   -3.1911395  0.038933819   -3.9200884   0.72894896   424551 
 4113000   0.60676832   -3.9194935   -3.9194935   -3.1916862  0.018845654   -3.9194935   0.72780727   424551 
 4114000   0.60586544   -3.9187786   -3.9187786   -3.1920543  0.039597231   -3.9187786   0.72672428   424551 
 4115000   0.60645984   -3.9189847   -3.9189847   -3.1915475  0.040243264   -3.9189847   0.72743725   424551 
 4116000   0.60628907   -3.9181532   -3.9181532   -3.1909208  0.029633643   -3.9181532   0.72723242   424551 
 4117000   0.60600704   -3.9184123   -3.9184123   -3.1915182  0.013504578   -3.9184123   0.72689414   424551 
 4118000   0.60555885   -3.9173281   -3.9173281   -3.1909715  0.032987826   -3.9173281   0.72635654   424551 
 4119000   0.60652122   -3.9177888   -3.9177888   -3.1902779  0.039728534   -3.9177888   0.72751088   424551 
 4120000   0.60815555    -3.919402    -3.919402   -3.1899308  0.042456492    -3.919402   0.72947123   424551 
 4121000   0.60737742   -3.9190401   -3.9190401   -3.1905022  0.033923066   -3.9190401   0.72853788   424551 
 4122000   0.60643494   -3.9180448   -3.9180448   -3.1906374  0.035737179   -3.9180448   0.72740739   424551 
 4123000   0.60678172    -3.919115    -3.919115   -3.1912916   0.03721092    -3.919115   0.72782335   424551 
 4124000   0.60705811   -3.9188254   -3.9188254   -3.1906705  0.032582624   -3.9188254   0.72815488   424551 
 4125000    0.6071846   -3.9188663   -3.9188663   -3.1905597  0.039705997   -3.9188663   0.72830659   424551 
 4126000   0.60674759   -3.9189334   -3.9189334    -3.191151  0.048002536   -3.9189334   0.72778241   424551 
 4127000   0.60553495   -3.9172467   -3.9172467   -3.1909189  0.032473597   -3.9172467   0.72632787   424551 
 4128000    0.6061105   -3.9182134   -3.9182134   -3.1911951  0.034337761   -3.9182134   0.72701823   424551 
 4129000   0.60577373   -3.9180502   -3.9180502   -3.1914359  0.027941426   -3.9180502   0.72661428   424551 
 4130000   0.60641688   -3.9184544   -3.9184544   -3.1910687  0.045091982   -3.9184544   0.72738573   424551 
 4131000   0.60649499   -3.9181813   -3.9181813   -3.1907019  0.030592655   -3.9181813   0.72747942   424551 
 4132000   0.60610427   -3.9182357   -3.9182357   -3.1912249  0.039168029   -3.9182357   0.72701076   424551 
 4133000   0.60573481   -3.9184293   -3.9184293   -3.1918617  0.032020267   -3.9184293    0.7265676   424551 
 4134000   0.60693998   -3.9194114   -3.9194114   -3.1913982  0.033582095   -3.9194114   0.72801318   424551 
 4135000   0.60545832   -3.9173534   -3.9173534   -3.1911175  0.040202794   -3.9173534   0.72623596   424551 
 4136000     0.606429   -3.9183156   -3.9183156   -3.1909153  0.040308209   -3.9183156   0.72740027   424551 
 4137000   0.60522392   -3.9174431   -3.9174431   -3.1914883  0.041539341   -3.9174431    0.7259548   424551 
 4138000   0.60614863   -3.9183584   -3.9183584   -3.1912945  0.038785362   -3.9183584   0.72706396   424551 
 4139000   0.60610878   -3.9186751   -3.9186751   -3.1916589  0.020472012   -3.9186751   0.72701617   424551 
 4140000   0.60491614    -3.917657    -3.917657   -3.1920714  0.035183244    -3.917657   0.72558562   424551 
 4141000   0.60545863   -3.9189835   -3.9189835   -3.1927472  0.031841138   -3.9189835   0.72623632   424551 
 4142000   0.60614935   -3.9192675   -3.9192675   -3.1922027  0.028317615   -3.9192675   0.72706483   424551 
 4143000   0.60610446   -3.9192134   -3.9192134   -3.1922024  0.043177644   -3.9192134   0.72701098   424551 
 4144000   0.60592221   -3.9188879   -3.9188879   -3.1920955  0.028407945   -3.9188879   0.72679238   424551 
 4145000   0.60661161   -3.9197202   -3.9197202   -3.1921009  0.034193721   -3.9197202    0.7276193   424551 
 4146000   0.60546439   -3.9179474   -3.9179474   -3.1917042  0.042670205   -3.9179474   0.72624323   424551 
 4147000   0.60509699   -3.9180255   -3.9180255   -3.1922229  0.041238872   -3.9180255   0.72580254   424551 
 4148000   0.60671096   -3.9203108   -3.9203108   -3.1925723  0.033472255   -3.9203108   0.72773848   424551 
 4149000   0.60677794   -3.9200146   -3.9200146   -3.1921958  0.040753348   -3.9200146   0.72781882   424551 
 4150000   0.60667361   -3.9198629   -3.9198629   -3.1921692  0.026667151   -3.9198629   0.72769367   424551 
 4151000   0.60671858   -3.9195812   -3.9195812   -3.1918336  0.042966678   -3.9195812   0.72774761   424551 
 4152000   0.60685224   -3.9196263   -3.9196263   -3.1917184  0.043696158   -3.9196263   0.72790794   424551 
 4153000   0.60597931   -3.9192468   -3.9192468   -3.1923859  0.036183517   -3.9192468   0.72686088   424551 
 4154000    0.6069157   -3.9200015   -3.9200015   -3.1920174  0.042495894   -3.9200015   0.72798406   424551 
 4155000   0.60693746   -3.9202182   -3.9202182   -3.1922081  0.027475959   -3.9202182   0.72801015   424551 
 4156000   0.60620812   -3.9193084   -3.9193084   -3.1921731  0.039260668   -3.9193084   0.72713533   424551 
 4157000   0.60489429   -3.9171134   -3.9171134    -3.191554  0.038611457   -3.9171134   0.72555941   424551 
 4158000   0.60672718   -3.9201798   -3.9201798   -3.1924219    0.0392766   -3.9201798   0.72775793   424551 
 4159000   0.60555256   -3.9187021   -3.9187021   -3.1923531  0.040098372   -3.9187021   0.72634899   424551 
 4160000   0.60533713    -3.917871    -3.917871   -3.1917804  0.030226879    -3.917871   0.72609058   424551 
 4161000   0.60554905   -3.9180234   -3.9180234   -3.1916786  0.026397311   -3.9180234   0.72634478   424551 
 4162000   0.60644085    -3.919804    -3.919804   -3.1923895  0.033958686    -3.919804   0.72741448   424551 
 4163000   0.60515332   -3.9186643   -3.9186643   -3.1927942  0.038557363   -3.9186643   0.72587012   424551 
 4164000   0.60676954   -3.9205268   -3.9205268   -3.1927181  0.030336414   -3.9205268   0.72780874   424551 
 4165000   0.60472194   -3.9171326   -3.9171326   -3.1917799  0.046812398   -3.9171326   0.72535268   424551 
 4166000   0.60592336   -3.9189364   -3.9189364   -3.1921426  0.032048421   -3.9189364   0.72679377   424551 
 4167000   0.60579647    -3.919131    -3.919131   -3.1924894  0.045300317    -3.919131   0.72664156   424551 
 4168000   0.60441886   -3.9172644   -3.9172644   -3.1922752   0.03428683   -3.9172644   0.72498914   424551 
 4169000   0.60573317   -3.9192896   -3.9192896    -3.192724  0.019814082   -3.9192896   0.72656563   424551 
 4170000   0.60505337   -3.9189167   -3.9189167   -3.1931665  0.046799523   -3.9189167   0.72575023   424551 
 4171000    0.6055551    -3.919135    -3.919135    -3.192783  0.045371272    -3.919135   0.72635203   424551 
 4172000   0.60639907   -3.9204492   -3.9204492   -3.1930849  0.034616417   -3.9204492   0.72736436   424551 
 4173000   0.60662273   -3.9202062   -3.9202062   -3.1925735  0.039091812   -3.9202062   0.72763265   424551 
 4174000   0.60615304   -3.9194154   -3.9194154   -3.1923462  0.035879153   -3.9194154   0.72706925   424551 
 4175000   0.60664753   -3.9195539   -3.9195539   -3.1918915  0.023868455   -3.9195539   0.72766239   424551 
 4176000   0.60596842   -3.9191417   -3.9191417   -3.1922939  0.029192189   -3.9191417   0.72684781   424551 
 4177000   0.60680663   -3.9197752   -3.9197752    -3.191922  0.041243724   -3.9197752   0.72785323   424551 
 4178000   0.60528394    -3.918328    -3.918328   -3.1923012   0.04823956    -3.918328   0.72602679   424551 
 4179000   0.60549343   -3.9187825   -3.9187825   -3.1925045  0.029346821   -3.9187825   0.72627807   424551 
 4180000   0.60479737   -3.9172887   -3.9172887   -3.1918455  0.044826774   -3.9172887   0.72544316   424551 
 4181000   0.60664473   -3.9195229   -3.9195229   -3.1918639  0.041182402   -3.9195229   0.72765904   424551 
 4182000    0.6061088   -3.9188821   -3.9188821   -3.1918659  0.035561371   -3.9188821   0.72701619   424551 
 4183000   0.60519085   -3.9172138   -3.9172138   -3.1912987  0.036396408   -3.9172138   0.72591513   424551 
 4184000   0.60519886   -3.9165438   -3.9165438   -3.1906191  0.033043551   -3.9165438   0.72592474   424551 
 4185000   0.60513317   -3.9163967   -3.9163967   -3.1905507  0.036791965   -3.9163967   0.72584594   424551 
 4186000   0.60655181   -3.9180338   -3.9180338   -3.1904862  0.025255535   -3.9180338   0.72754757   424551 
 4187000    0.6066634   -3.9168282   -3.9168282   -3.1891468  0.043683216   -3.9168282   0.72768142   424551 
 4188000   0.60646741   -3.9176573   -3.9176573    -3.190211  0.044692105   -3.9176573   0.72744634   424551 
 4189000   0.60650472   -3.9168202   -3.9168202   -3.1893291   0.02173599   -3.9168202   0.72749109   424551 
 4190000   0.60721138   -3.9178353   -3.9178353   -3.1894965  0.038468543   -3.9178353   0.72833872   424551 
 4191000   0.60653122   -3.9172074   -3.9172074   -3.1896846  0.041613147   -3.9172074   0.72752288   424551 
 4192000   0.60540496   -3.9158462   -3.9158462   -3.1896743  0.035876228   -3.9158462   0.72617195   424551 
 4193000    0.6056854   -3.9167363   -3.9167363   -3.1902279  0.042919871   -3.9167363   0.72650833   424551 
 4194000   0.60642593   -3.9173722   -3.9173722   -3.1899756  0.041365927   -3.9173722   0.72739658   424551 
 4195000   0.60676591   -3.9174986   -3.9174986   -3.1896942  0.030214856   -3.9174986   0.72780438   424551 
 4196000   0.60697368   -3.9179469   -3.9179469   -3.1898933   0.04209727   -3.9179469   0.72805359   424551 
 4197000   0.60596703   -3.9170345   -3.9170345   -3.1901884  0.028865941   -3.9170345   0.72684615   424551 
 4198000   0.60740356    -3.917451    -3.917451   -3.1888818  0.051691437    -3.917451   0.72856924   424551 
 4199000   0.60680791   -3.9171498   -3.9171498   -3.1892951  0.026920918   -3.9171498   0.72785476   424551 
 4200000   0.60709029   -3.9171239   -3.9171239   -3.1889305  0.026376517   -3.9171239   0.72819347   424551 
 4201000   0.60660845   -3.9173179   -3.9173179   -3.1897024  0.044415041   -3.9173179   0.72761551   424551 
 4202000   0.60586574   -3.9173734   -3.9173734   -3.1906487  0.033384001   -3.9173734   0.72672465   424551 
 4203000   0.60645478   -3.9182571   -3.9182571   -3.1908259  0.041104359   -3.9182571   0.72743119   424551 
 4204000   0.60648053   -3.9179251   -3.9179251   -3.1904631  0.038814221   -3.9179251   0.72746207   424551 
 4205000   0.60699257   -3.9186836   -3.9186836   -3.1906074  0.039559189   -3.9186836   0.72807626   424551 
 4206000   0.60705685   -3.9187341   -3.9187341   -3.1905807  0.024826252   -3.9187341   0.72815336   424551 
 4207000   0.60566242    -3.917511    -3.917511   -3.1910302  0.025754431    -3.917511   0.72648077   424551 
 4208000   0.60639145   -3.9184392   -3.9184392    -3.191084  0.041150353   -3.9184392   0.72735522   424551 
 4209000   0.60662609   -3.9187501   -3.9187501   -3.1911134  0.026770354   -3.9187501   0.72763668   424551 
 4210000   0.60599977   -3.9180816   -3.9180816   -3.1911962  0.036564239   -3.9180816   0.72688541   424551 
 4211000   0.60550327   -3.9173792   -3.9173792   -3.1910894  0.036220518   -3.9173792   0.72628987   424551 
 4212000   0.60537563   -3.9169449   -3.9169449   -3.1908081  0.037706199   -3.9169449   0.72613677   424551 
 4213000   0.60545868   -3.9169209   -3.9169209   -3.1906845  0.041229379   -3.9169209   0.72623638   424551 
 4214000   0.60698555   -3.9185973   -3.9185973   -3.1905294  0.031559132   -3.9185973   0.72806784   424551 
 4215000   0.60629587   -3.9177131   -3.9177131   -3.1904726  0.044078996   -3.9177131   0.72724058   424551 
 4216000   0.60547525   -3.9158786   -3.9158786   -3.1896223  0.039142166   -3.9158786   0.72625626   424551 
 4217000   0.60600241   -3.9175425   -3.9175425   -3.1906539  0.037439055   -3.9175425   0.72688858   424551 
 4218000   0.60615572   -3.9167985   -3.9167985   -3.1897261  0.031585097   -3.9167985   0.72707248   424551 
 4219000   0.60625746   -3.9171807   -3.9171807   -3.1899862  0.042461972   -3.9171807   0.72719451   424551 
 4220000   0.60566272   -3.9169119   -3.9169119   -3.1904308  0.033224093   -3.9169119   0.72648112   424551 
 4221000   0.60590746   -3.9173654   -3.9173654   -3.1905908  0.031408904   -3.9173654   0.72677468   424551 
 4222000   0.60432965   -3.9159501   -3.9159501    -3.191068  0.035489262   -3.9159501   0.72488213   424551 
 4223000    0.6042456   -3.9157419   -3.9157419   -3.1909606  0.045009459   -3.9157419   0.72478132   424551 
 4224000   0.60367099   -3.9146941   -3.9146941    -3.190602  0.033207746   -3.9146941   0.72409209   424551 
 4225000   0.60482721    -3.916828    -3.916828    -3.191349  0.044394906    -3.916828   0.72547895   424551 
 4226000   0.60561242   -3.9174559   -3.9174559   -3.1910351  0.031643209   -3.9174559   0.72642079   424551 
 4227000   0.60508017   -3.9163881   -3.9163881   -3.1906057  0.029591303   -3.9163881   0.72578237   424551 
 4228000   0.60573633   -3.9175154   -3.9175154    -3.190946  0.020678065   -3.9175154   0.72656942   424551 
 4229000   0.60531612   -3.9167071   -3.9167071   -3.1906417  0.046934508   -3.9167071   0.72606538   424551 
 4230000    0.6061103   -3.9188961   -3.9188961   -3.1918781  0.022353549   -3.9188961   0.72701799   424551 
 4231000   0.60512048   -3.9178363   -3.9178363   -3.1920056  0.036235072   -3.9178363   0.72583072   424551 
 4232000   0.60579767   -3.9191926   -3.9191926   -3.1925497  0.025941324   -3.9191926     0.726643   424551 
 4233000   0.60506863   -3.9171283   -3.9171283   -3.1913597  0.038886774   -3.9171283   0.72576853   424551 
 4234000   0.60528721   -3.9173061   -3.9173061   -3.1912753  0.042147376   -3.9173061   0.72603071   424551 
 4235000   0.60544338   -3.9178266   -3.9178266   -3.1916086   0.04144117   -3.9178266   0.72621803   424551 
 4236000   0.60576901   -3.9192467   -3.9192467   -3.1926381  0.030348638   -3.9192467   0.72660862   424551 
 4237000   0.60626587   -3.9194283   -3.9194283   -3.1922237  0.030759972   -3.9194283    0.7272046   424551 
 4238000   0.60593169   -3.9183848   -3.9183848    -3.191581  0.027299105   -3.9183848   0.72680376   424551 
 4239000   0.60573462    -3.917951    -3.917951   -3.1913836  0.044016937    -3.917951   0.72656737   424551 
 4240000   0.60397359   -3.9164224   -3.9164224   -3.1919674  0.038098812   -3.9164224   0.72445505   424551 
 4241000   0.60530847   -3.9178168   -3.9178168   -3.1917606    0.0388462   -3.9178168   0.72605621   424551 
 4242000   0.60499153   -3.9178994   -3.9178994   -3.1922233  0.034022159   -3.9178994   0.72567605   424551 
 4243000   0.60536015   -3.9175176   -3.9175176   -3.1913994  0.037131105   -3.9175176   0.72611819   424551 
 4244000   0.60543925     -3.91741     -3.91741   -3.1911969   0.03256235     -3.91741   0.72621308   424551 
 4245000   0.60613098   -3.9176751   -3.9176751   -3.1906323    0.0230823   -3.9176751   0.72704279   424551 
 4246000   0.60531719   -3.9171017   -3.9171017    -3.191035  0.030911012   -3.9171017   0.72606668   424551 
 4247000   0.60555749   -3.9174176   -3.9174176   -3.1910627  0.038296354   -3.9174176   0.72635491   424551 
 4248000   0.60467217     -3.91683     -3.91683    -3.191537  0.042572962     -3.91683   0.72529298   424551 
 4249000   0.60608058   -3.9181748   -3.9181748   -3.1911925  0.036266721   -3.9181748   0.72698234   424551 
 4250000   0.60723513   -3.9197476   -3.9197476   -3.1913804  0.035206795   -3.9197476    0.7283672   424551 
 4251000   0.60457941    -3.917138    -3.917138   -3.1919562  0.039523983    -3.917138   0.72518171   424551 
 4252000   0.60444921   -3.9170678   -3.9170678   -3.1920423  0.049452978   -3.9170678   0.72502555   424551 
 4253000   0.60454225   -3.9179236   -3.9179236   -3.1927864  0.032684074   -3.9179236   0.72513715   424551 
 4254000   0.60443974    -3.917213    -3.917213   -3.1921988  0.039909937    -3.917213   0.72501418   424551 
 4255000    0.6053514   -3.9183822   -3.9183822   -3.1922745   0.02312288   -3.9183822   0.72610771   424551 
 4256000   0.60617972   -3.9196132   -3.9196132   -3.1925119  0.022590438   -3.9196132   0.72710126   424551 
 4257000   0.60560809   -3.9184888   -3.9184888   -3.1920732  0.034170106   -3.9184888    0.7264156   424551 
 4258000   0.60528259   -3.9184769   -3.9184769   -3.1924518  0.022748756   -3.9184769   0.72602517   424551 
 4259000   0.60388159   -3.9177893   -3.9177893   -3.1934446  0.029833398   -3.9177893   0.72434469   424551 
 4260000   0.60527853   -3.9192385   -3.9192385   -3.1932182  0.021640157   -3.9192385    0.7260203   424551 
 4261000   0.60559886   -3.9192422   -3.9192422   -3.1928377  0.028312672   -3.9192422   0.72640453   424551 
 4262000   0.60445663   -3.9180105   -3.9180105   -3.1929761  0.030145873   -3.9180105   0.72503445   424551 
 4263000   0.60582378     -3.91848     -3.91848   -3.1918056  0.039971267     -3.91848   0.72667432   424551 
 4264000    0.6053954   -3.9179132   -3.9179132   -3.1917527  0.018076664   -3.9179132   0.72616048   424551 
 4265000   0.60664843   -3.9194624   -3.9194624    -3.191799  0.022355301   -3.9194624   0.72766347   424551 
 4266000   0.60625004   -3.9202466   -3.9202466    -3.193061  0.033244134   -3.9202466    0.7271856   424551 
 4267000   0.60491269   -3.9185847   -3.9185847   -3.1930032  0.039656824   -3.9185847   0.72558148   424551 
 4268000   0.60603248   -3.9201341   -3.9201341   -3.1932095  0.027284192   -3.9201341   0.72692465   424551 
 4269000    0.6065027   -3.9200014   -3.9200014   -3.1925127   0.04430377   -3.9200014   0.72748867   424551 
 4270000   0.60539414   -3.9189427   -3.9189427   -3.1927837  0.045717298   -3.9189427   0.72615897   424551 
 4271000   0.60554097    -3.919604    -3.919604   -3.1932689  0.034547635    -3.919604   0.72633509   424551 
 4272000    0.6047272   -3.9182157   -3.9182157   -3.1928567  0.041110375   -3.9182157   0.72535898   424551 
 4273000   0.60557593   -3.9190059   -3.9190059   -3.1926288  0.025037869   -3.9190059   0.72637702   424551 
 4274000   0.60742918   -3.9209452   -3.9209452   -3.1923452  0.036149606   -3.9209452   0.72859996   424551 
 4275000   0.60608375   -3.9192947   -3.9192947   -3.1923086  0.028152006   -3.9192947   0.72698615   424551 
 4276000   0.60595907   -3.9194526   -3.9194526    -3.192616  0.031566423   -3.9194526    0.7268366   424551 
 4277000   0.60482392   -3.9176422   -3.9176422   -3.1921672  0.022618588   -3.9176422     0.725475   424551 
 4278000   0.60657567   -3.9199781   -3.9199781   -3.1924019  0.040135352   -3.9199781    0.7275762   424551 
 4279000   0.60595414   -3.9188429   -3.9188429   -3.1920122  0.038381016   -3.9188429   0.72683068   424551 
 4280000   0.60593766   -3.9194822   -3.9194822   -3.1926713  0.050428375   -3.9194822   0.72681091   424551 
 4281000   0.60397116   -3.9176952   -3.9176952   -3.1932431  0.036077774   -3.9176952   0.72445214   424551 
 4282000   0.60439266   -3.9179141   -3.9179141   -3.1929564  0.026972847   -3.9179141   0.72495771   424551 
 4283000   0.60492856   -3.9196184   -3.9196184   -3.1940179  0.049579658   -3.9196184   0.72560052   424551 
 4284000   0.60492211   -3.9197445   -3.9197445   -3.1941517  0.039414837   -3.9197445   0.72559278   424551 
 4285000   0.60530577   -3.9209275   -3.9209275   -3.1948745  0.045891838   -3.9209275   0.72605297   424551 
 4286000   0.60403674   -3.9186502   -3.9186502   -3.1941194  0.040501924   -3.9186502    0.7245308   424551 
 4287000   0.60465893   -3.9196479   -3.9196479   -3.1943708  0.040527683   -3.9196479   0.72527709   424551 
 4288000   0.60525091   -3.9208435   -3.9208435   -3.1948563  0.017721588   -3.9208435   0.72598716   424551 
 4289000   0.60461354    -3.920693    -3.920693   -3.1954704  0.035124546    -3.920693   0.72522266   424551 
 4290000   0.60441522   -3.9195515   -3.9195515   -3.1945667  0.033610069   -3.9195515   0.72498478   424551 
 4291000   0.60359738   -3.9173758   -3.9173758    -3.193372  0.050559903   -3.9173758   0.72400379   424551 
 4292000   0.60586465   -3.9210274   -3.9210274   -3.1943041  0.047172156   -3.9210274   0.72672334   424551 
 4293000   0.60606724   -3.9211054   -3.9211054   -3.1941391  0.027778226   -3.9211054   0.72696634   424551 
 4294000   0.60574398   -3.9214581   -3.9214581   -3.1948795  0.024196295   -3.9214581    0.7265786   424551 
 4295000   0.60554928   -3.9210929   -3.9210929   -3.1947479  0.031510858   -3.9210929   0.72634506   424551 
 4296000   0.60590868   -3.9224267   -3.9224267   -3.1956506  0.045893367   -3.9224267   0.72677616   424551 
 4297000    0.6058115   -3.9231058   -3.9231058   -3.1964462  0.031716248   -3.9231058   0.72665958   424551 
 4298000   0.60532506   -3.9221662   -3.9221662     -3.19609  0.030393529   -3.9221662   0.72607611   424551 
 4299000   0.60465659   -3.9215209   -3.9215209   -3.1962466  0.038294805   -3.9215209    0.7252743   424551 
 4300000    0.6042441   -3.9212727   -3.9212727   -3.1964932  0.029853599   -3.9212727   0.72477952   424551 
 4301000   0.60441542   -3.9215038   -3.9215038   -3.1965187  0.030794139   -3.9215038   0.72498501   424551 
 4302000   0.60597296   -3.9224035   -3.9224035   -3.1955502  0.037791326   -3.9224035   0.72685325   424551 
 4303000   0.60587516   -3.9227578   -3.9227578   -3.1960219  0.040717344   -3.9227578   0.72673595   424551 
 4304000   0.60501872   -3.9219326   -3.9219326   -3.1962239  0.041064431   -3.9219326   0.72570866   424551 
 4305000   0.60458188   -3.9219209   -3.9219209   -3.1967362  0.039011963   -3.9219209   0.72518468   424551 
 4306000    0.6041449   -3.9213689   -3.9213689   -3.1967084  0.032054699   -3.9213689   0.72466053   424551 
 4307000   0.60462796    -3.921401    -3.921401   -3.1961611  0.038699007    -3.921401   0.72523996   424551 
 4308000   0.60519274   -3.9223866   -3.9223866   -3.1964692  0.032073549   -3.9223866   0.72591739   424551 
 4309000   0.60320521   -3.9195569   -3.9195569   -3.1960235  0.029403441   -3.9195569   0.72353339   424551 
 4310000   0.60545195   -3.9221477   -3.9221477   -3.1959194  0.046523713   -3.9221477   0.72622831   424551 
 4311000   0.60596816   -3.9222134   -3.9222134   -3.1953659  0.023399811   -3.9222134    0.7268475   424551 
 4312000   0.60399049   -3.9205059   -3.9205059   -3.1960305  0.036105712   -3.9205059   0.72447532   424551 
 4313000   0.60500226   -3.9208058   -3.9208058   -3.1951169  0.039471996   -3.9208058   0.72568891   424551 
 4314000    0.6050176    -3.920287    -3.920287   -3.1945796  0.035163859    -3.920287   0.72570732   424551 
 4315000   0.60302889    -3.917984    -3.917984   -3.1946621  0.044083552    -3.917984    0.7233219   424551 
 4316000   0.60561509   -3.9219947   -3.9219947   -3.1955707  0.033614752   -3.9219947     0.726424   424551 
 4317000   0.60588448    -3.921927    -3.921927   -3.1951799  0.034491221    -3.921927   0.72674712   424551 
 4318000   0.60410022   -3.9200654   -3.9200654   -3.1954584  0.046735333   -3.9200654   0.72460693   424551 
 4319000   0.60348616     -3.91984     -3.91984   -3.1959696  0.024026143     -3.91984   0.72387039   424551 
 4320000    0.6038626   -3.9206784   -3.9206784   -3.1963564  0.033044214   -3.9206784   0.72432192   424551 
 4321000   0.60457946   -3.9208639   -3.9208639   -3.1956821  0.039513574   -3.9208639   0.72518178   424551 
 4322000   0.60543604   -3.9228245   -3.9228245   -3.1966153  0.024093091   -3.9228245   0.72620922   424551 
 4323000    0.6038662   -3.9215124   -3.9215124   -3.1971862  0.027236097   -3.9215124   0.72432623   424551 
 4324000   0.60353699   -3.9212156   -3.9212156   -3.1972843  0.037925611   -3.9212156   0.72393135   424551 
 4325000   0.60438005   -3.9222551   -3.9222551   -3.1973125  0.033575084   -3.9222551   0.72494258   424551 
 4326000   0.60594221   -3.9241501   -3.9241501   -3.1973337  0.030497384   -3.9241501   0.72681637   424551 
 4327000   0.60536376   -3.9236314   -3.9236314   -3.1975089  0.034142163   -3.9236314   0.72612253   424551 
 4328000   0.60549897   -3.9241931   -3.9241931   -3.1979084  0.037709467   -3.9241931   0.72628472   424551 
 4329000    0.6059697   -3.9253827   -3.9253827   -3.1985334  0.027068757   -3.9253827   0.72684934   424551 
 4330000    0.6049723   -3.9244547   -3.9244547   -3.1988017  0.045023219   -3.9244547   0.72565298   424551 
 4331000   0.60385654    -3.923031    -3.923031   -3.1987164  0.037897747    -3.923031   0.72431465   424551 
 4332000    0.6038242   -3.9233934   -3.9233934   -3.1991176  0.028281891   -3.9233934   0.72427586   424551 
 4333000   0.60575529   -3.9244913   -3.9244913   -3.1978991  0.035864717   -3.9244913   0.72659216   424551 
 4334000   0.60528093   -3.9239441   -3.9239441   -3.1979209   0.03925434   -3.9239441   0.72602318   424551 
 4335000   0.60541908   -3.9245693   -3.9245693   -3.1983805  0.030771632   -3.9245693   0.72618888   424551 
 4336000   0.60380423   -3.9221927   -3.9221927   -3.1979408  0.031663128   -3.9221927   0.72425191   424551 
 4337000   0.60444724   -3.9228076   -3.9228076   -3.1977844  0.029591806   -3.9228076   0.72502319   424551 
 4338000   0.60539717   -3.9245482   -3.9245482   -3.1983856  0.026807755   -3.9245482    0.7261626   424551 
 4339000   0.60475897   -3.9235946   -3.9235946   -3.1981975  0.028365332   -3.9235946   0.72539709   424551 
 4340000   0.60516841   -3.9240263   -3.9240263   -3.1981381  0.033556382   -3.9240263   0.72588821   424551 
 4341000   0.60500511   -3.9227433   -3.9227433    -3.197051  0.034594253   -3.9227433   0.72569234   424551 
 4342000   0.60438396   -3.9228137   -3.9228137   -3.1978664  0.029712367   -3.9228137   0.72494728   424551 
 4343000   0.60577628   -3.9234907   -3.9234907   -3.1968734   0.02137766   -3.9234907   0.72661734   424551 
 4344000    0.6056148   -3.9230349   -3.9230349   -3.1966112  0.040429034   -3.9230349   0.72642365   424551 
 4345000   0.60404557   -3.9219833   -3.9219833   -3.1974419  0.045617773   -3.9219833   0.72454139   424551 
 4346000   0.60500294   -3.9231102   -3.9231102   -3.1974205  0.034482756   -3.9231102   0.72568974   424551 
 4347000   0.60489265   -3.9229006   -3.9229006   -3.1973432  0.024783008   -3.9229006   0.72555744   424551 
 4348000   0.60430562   -3.9222438   -3.9222438   -3.1973905  0.033159007   -3.9222438   0.72485331   424551 
 4349000   0.60516259   -3.9229949   -3.9229949   -3.1971137   0.03264585   -3.9229949   0.72588123   424551 
 4350000   0.60509583   -3.9229829   -3.9229829   -3.1971818  0.028952031   -3.9229829   0.72580116   424551 
 4351000    0.6052879   -3.9235702   -3.9235702   -3.1975387  0.030930151   -3.9235702   0.72603154   424551 
 4352000    0.6058674   -3.9243307   -3.9243307    -3.197604  0.041189664   -3.9243307   0.72672664   424551 
 4353000   0.60539077   -3.9235754   -3.9235754   -3.1974204  0.041835633   -3.9235754   0.72615492   424551 
 4354000    0.6059531   -3.9238359   -3.9238359   -3.1970064  0.038779627   -3.9238359   0.72682943   424551 
 4355000   0.60659815   -3.9251381   -3.9251381   -3.1975349  0.031489993   -3.9251381   0.72760316   424551 
 4356000   0.60473049   -3.9228489   -3.9228489   -3.1974859  0.020738466   -3.9228489   0.72536294   424551 
 4357000   0.60436078   -3.9225234   -3.9225234   -3.1976039  0.040849097   -3.9225234   0.72491948   424551 
 4358000   0.60425756   -3.9231542   -3.9231542   -3.1983585  0.037764141   -3.9231542   0.72479567   424551 
 4359000   0.60445945   -3.9222594   -3.9222594   -3.1972216   0.03575655   -3.9222594   0.72503783   424551 
 4360000   0.60554577   -3.9243502   -3.9243502   -3.1980094  0.037200278   -3.9243502   0.72634084   424551 
 4361000   0.60531107   -3.9237862   -3.9237862   -3.1977268  0.038329129   -3.9237862   0.72605932   424551 
 4362000   0.60505532   -3.9225435   -3.9225435   -3.1967909   0.03252203   -3.9225435   0.72575256   424551 
 4363000   0.60480025    -3.922892    -3.922892   -3.1974454  0.020942278    -3.922892   0.72544662   424551 
 4364000   0.60552992   -3.9234553   -3.9234553   -3.1971335  0.032143674   -3.9234553   0.72632184   424551 
 4365000    0.6044349    -3.922777    -3.922777   -3.1977687  0.034279607    -3.922777   0.72500838   424551 
 4366000   0.60517872    -3.922629    -3.922629   -3.1967284  0.021951626    -3.922629   0.72590058   424551 
 4367000   0.60411419   -3.9217353   -3.9217353   -3.1971116  0.041358354   -3.9217353   0.72462369   424551 
 4368000    0.6053098   -3.9235541   -3.9235541   -3.1974963  0.035398905   -3.9235541   0.72605781   424551 
 4369000   0.60403249   -3.9226652   -3.9226652   -3.1981395  0.037761126   -3.9226652    0.7245257   424551 
 4370000   0.60399868   -3.9224565   -3.9224565   -3.1979714   0.03555323   -3.9224565   0.72448514   424551 
 4371000   0.60389169   -3.9218382   -3.9218382   -3.1974814  0.029494681   -3.9218382   0.72435681   424551 
 4372000   0.60505625   -3.9239171   -3.9239171   -3.1981634  0.034005021   -3.9239171   0.72575368   424551 
 4373000   0.60479609   -3.9238385   -3.9238385   -3.1983969  0.045200831   -3.9238385   0.72544162   424551 
 4374000   0.60481972   -3.9235439   -3.9235439   -3.1980739  0.033015984   -3.9235439   0.72546996   424551 
 4375000   0.60584432   -3.9253428   -3.9253428   -3.1986439  0.034576419   -3.9253428   0.72669895   424551 
 4376000   0.60592256   -3.9255029   -3.9255029   -3.1987101  0.030584425   -3.9255029    0.7267928   424551 
 4377000   0.60486871   -3.9237677   -3.9237677    -3.198239  0.026158088   -3.9237677   0.72552873   424551 
 4378000   0.60576374   -3.9251566   -3.9251566   -3.1985543  0.025465962   -3.9251566   0.72660229   424551 
 4379000   0.60598604   -3.9255882   -3.9255882   -3.1987193  0.040834083   -3.9255882   0.72686895   424551 
 4380000   0.60589764    -3.925233    -3.925233   -3.1984701  0.038799129    -3.925233   0.72676292   424551 
 4381000   0.60581652    -3.925624    -3.925624   -3.1989584  0.039683625    -3.925624   0.72666561   424551 
 4382000   0.60620898   -3.9256898   -3.9256898   -3.1985535  0.029661304   -3.9256898   0.72713635   424551 
 4383000   0.60619477   -3.9260275   -3.9260275   -3.1989082  0.026898511   -3.9260275   0.72711932   424551 
 4384000   0.60532368   -3.9248032   -3.9248032   -3.1987288  0.047636142   -3.9248032   0.72607445   424551 
 4385000   0.60582728   -3.9260526   -3.9260526   -3.1993741   0.03988726   -3.9260526   0.72667852   424551 
 4386000   0.60613287   -3.9264943   -3.9264943   -3.1994492  0.035174784   -3.9264943   0.72704507   424551 
 4387000   0.60642227   -3.9261447   -3.9261447   -3.1987525  0.035164532   -3.9261447    0.7273922   424551 
 4388000   0.60416896   -3.9240505   -3.9240505   -3.1993612  0.041507174   -3.9240505   0.72468939   424551 
 4389000    0.6054835   -3.9251081   -3.9251081    -3.198842   0.04347582   -3.9251081   0.72626616   424551 
 4390000   0.60631883   -3.9255318   -3.9255318   -3.1982637  0.043661141   -3.9255318   0.72726812   424551 
 4391000   0.60579228   -3.9243268   -3.9243268   -3.1976902  0.027356487   -3.9243268   0.72663653   424551 
 4392000   0.60554884   -3.9243515   -3.9243515    -3.198007  0.027678767   -3.9243515   0.72634453   424551 
 4393000    0.6054237   -3.9244234   -3.9244234    -3.198229  0.042131283   -3.9244234   0.72619442   424551 
 4394000   0.60592839   -3.9244077   -3.9244077   -3.1976079  0.033608621   -3.9244077    0.7267998   424551 
 4395000   0.60591691   -3.9242562   -3.9242562   -3.1974702  0.040283282   -3.9242562   0.72678602   424551 
 4396000    0.6055346   -3.9242757   -3.9242757   -3.1979483  0.027366506   -3.9242757   0.72632745   424551 
 4397000   0.60542407    -3.924144    -3.924144   -3.1979491  0.036836902    -3.924144   0.72619487   424551 
 4398000   0.60511716   -3.9242526   -3.9242526   -3.1984259  0.031411505   -3.9242526   0.72582673   424551 
 4399000   0.60494171   -3.9240865   -3.9240865   -3.1984702  0.029567716   -3.9240865   0.72561629   424551 
 4400000   0.60548017   -3.9245509   -3.9245509   -3.1982887  0.035290597   -3.9245509   0.72626216   424551 
 4401000   0.60554737   -3.9240209   -3.9240209   -3.1976781   0.02532475   -3.9240209   0.72634276   424551 
 4402000   0.60665493   -3.9267888   -3.9267888   -3.1991175  0.044340136   -3.9267888   0.72767126   424551 
 4403000   0.60519072   -3.9244499   -3.9244499   -3.1985349  0.031780115   -3.9244499   0.72591497   424551 
 4404000   0.60667904   -3.9265539   -3.9265539   -3.1988537  0.036519993   -3.9265539   0.72770018   424551 
 4405000    0.6056492   -3.9258852   -3.9258852   -3.1994203  0.024139497   -3.9258852   0.72646491   424551 
 4406000   0.60427864   -3.9240561   -3.9240561   -3.1992351  0.035032953   -3.9240561   0.72482095   424551 
 4407000   0.60521978   -3.9247184   -3.9247184   -3.1987685  0.036427611   -3.9247184   0.72594982   424551 
 4408000   0.60617669   -3.9265936   -3.9265936    -3.199496  0.033184828   -3.9265936   0.72709763   424551 
 4409000   0.60573649   -3.9254308   -3.9254308   -3.1988612  0.038462582   -3.9254308   0.72656962   424551 
 4410000   0.60481038   -3.9248198   -3.9248198    -3.199361  0.031074397   -3.9248198   0.72545876   424551 
 4411000   0.60584313   -3.9252138   -3.9252138   -3.1985163  0.023217719   -3.9252138   0.72669752   424551 
 4412000   0.60506374   -3.9247976   -3.9247976    -3.199035  0.036090161   -3.9247976   0.72576266   424551 
 4413000   0.60565062   -3.9261328   -3.9261328   -3.1996662  0.021577561   -3.9261328   0.72646661   424551 
 4414000   0.60616605   -3.9263325   -3.9263325   -3.1992476  0.035777794   -3.9263325   0.72708486   424551 
 4415000   0.60469311   -3.9246151   -3.9246151    -3.199297  0.034830411   -3.9246151    0.7253181   424551 
 4416000   0.60491517   -3.9244386   -3.9244386   -3.1988542   0.02124281   -3.9244386   0.72558446   424551 
 4417000   0.60657617   -3.9265005   -3.9265005   -3.1989237  0.036541934   -3.9265005    0.7275768   424551 
 4418000   0.60605934   -3.9264463   -3.9264463   -3.1994895  0.043497751   -3.9264463   0.72695687   424551 
 4419000   0.60560427   -3.9252206   -3.9252206   -3.1988096  0.041009036   -3.9252206   0.72641102   424551 
 4420000   0.60646869   -3.9266365   -3.9266365   -3.1991886   0.02927741   -3.9266365   0.72744787   424551 
 4421000   0.60650727   -3.9255766   -3.9255766   -3.1980825  0.033197036   -3.9255766   0.72749415   424551 
 4422000   0.60657246   -3.9253874   -3.9253874    -3.197815  0.028574872   -3.9253874   0.72757235   424551 
 4423000   0.60522992   -3.9235499   -3.9235499   -3.1975879  0.039026407   -3.9235499   0.72596199   424551 
 4424000   0.60582309   -3.9243534   -3.9243534   -3.1976799  0.029241562   -3.9243534   0.72667349   424551 
 4425000    0.6073268   -3.9264837   -3.9264837   -3.1980066  0.019557519   -3.9264837   0.72847716   424551 
 4426000   0.60597841   -3.9251553   -3.9251553   -3.1982955  0.026749504   -3.9251553   0.72685979   424551 
 4427000   0.60586953   -3.9256641   -3.9256641   -3.1989349  0.029994222   -3.9256641   0.72672919   424551 
 4428000   0.60524732   -3.9254416   -3.9254416   -3.1994588  0.028451116   -3.9254416   0.72598287   424551 
 4429000   0.60438069   -3.9239957   -3.9239957   -3.1990523  0.029798875   -3.9239957   0.72494336   424551 
 4430000   0.60625568   -3.9263861   -3.9263861   -3.1991937  0.031488982   -3.9263861   0.72719237   424551 
 4431000   0.60599572   -3.9263235   -3.9263235   -3.1994429  0.023491631   -3.9263235   0.72688055   424551 
 4432000   0.60613713   -3.9261336   -3.9261336   -3.1990834  0.042759071   -3.9261336   0.72705017   424551 
 4433000   0.60675592   -3.9272062   -3.9272062   -3.1994138  0.033745383   -3.9272062   0.72779241   424551 
 4434000   0.60667289   -3.9275804   -3.9275804   -3.1998876  0.033063046   -3.9275804   0.72769281   424551 
 4435000   0.60654718   -3.9270545   -3.9270545   -3.1995125  0.022389398   -3.9270545   0.72754202   424551 
 4436000   0.60550208   -3.9258693   -3.9258693   -3.1995808  0.033419636   -3.9258693   0.72628844   424551 
 4437000   0.60702757   -3.9275837   -3.9275837   -3.1994655  0.034562668   -3.9275837   0.72811824   424551 
 4438000   0.60639873   -3.9259604   -3.9259604   -3.1985964   0.03466252   -3.9259604   0.72736396   424551 
 4439000   0.60629586   -3.9263599   -3.9263599   -3.1991193   0.03372068   -3.9263599   0.72724056   424551 
 4440000   0.60622299   -3.9258333   -3.9258333   -3.1986801   0.03625262   -3.9258333   0.72715316   424551 
 4441000   0.60693682   -3.9265667   -3.9265667   -3.1985573    0.0449175   -3.9265667   0.72800939   424551 
 4442000   0.60621552   -3.9257532   -3.9257532    -3.198609  0.034505562   -3.9257532    0.7271442   424551 
 4443000   0.60602221   -3.9264813   -3.9264813   -3.1995689  0.049478067   -3.9264813   0.72691233   424551 
 4444000   0.60566465   -3.9254218   -3.9254218   -3.1989383  0.035109964   -3.9254218   0.72648344   424551 
 4445000   0.60543241   -3.9248754   -3.9248754   -3.1986705   0.03912249   -3.9248754   0.72620487   424551 
 4446000   0.60759958    -3.926872    -3.926872   -3.1980676  0.039635313    -3.926872   0.72880435   424551 
 4447000   0.60623912   -3.9261491   -3.9261491   -3.1989765  0.031160908   -3.9261491   0.72717251   424551 
 4448000    0.6066245   -3.9271577   -3.9271577    -3.199523   0.02665839   -3.9271577   0.72763476   424551 
 4449000   0.60533664   -3.9249038   -3.9249038   -3.1988138  0.037707745   -3.9249038      0.72609   424551 
 4450000   0.60481688   -3.9239052   -3.9239052   -3.1984386  0.035092883   -3.9239052   0.72546656   424551 
 4451000   0.60503336   -3.9250058   -3.9250058   -3.1992796  0.033950984   -3.9250058   0.72572623   424551 
 4452000   0.60714251   -3.9262668   -3.9262668   -3.1980107  0.035716044   -3.9262668    0.7282561   424551 
 4453000   0.60690418   -3.9251797   -3.9251797   -3.1972095  0.033703745   -3.9251797   0.72797023   424551 
 4454000    0.6065458   -3.9254614   -3.9254614    -3.197921  0.035034293   -3.9254614   0.72754037   424551 
 4455000   0.60628332   -3.9252078   -3.9252078   -3.1979822  0.038868108   -3.9252078   0.72722553   424551 
 4456000   0.60665192   -3.9257138   -3.9257138   -3.1980461  0.035367018   -3.9257138   0.72766765   424551 
 4457000   0.60655132    -3.926039    -3.926039    -3.198492  0.039758719    -3.926039   0.72754699   424551 
 4458000   0.60755659   -3.9270763   -3.9270763   -3.1983235  0.047744326   -3.9270763   0.72875279   424551 
 4459000   0.60650459   -3.9257881   -3.9257881   -3.1982971  0.033689276   -3.9257881   0.72749093   424551 
 4460000   0.60588886   -3.9249317   -3.9249317   -3.1981793  0.038249643   -3.9249317   0.72675238   424551 
 4461000   0.60646338   -3.9261287   -3.9261287   -3.1986872  0.031399368   -3.9261287    0.7274415   424551 
 4462000   0.60497389   -3.9240285   -3.9240285   -3.1983736  0.025389606   -3.9240285   0.72565489   424551 
 4463000   0.60530439   -3.9248581   -3.9248581   -3.1988067   0.03192888   -3.9248581   0.72605132   424551 
 4464000   0.60499812   -3.9247579   -3.9247579    -3.199074  0.025161596   -3.9247579   0.72568396   424551 
 4465000   0.60430807   -3.9239955   -3.9239955   -3.1991393  0.044656233   -3.9239955   0.72485626   424551 
 4466000   0.60567831   -3.9255042   -3.9255042   -3.1990044  0.034951854   -3.9255042   0.72649983   424551 
 4467000   0.60494261   -3.9244421   -3.9244421   -3.1988248   0.02361849   -3.9244421   0.72561737   424551 
 4468000   0.60548709   -3.9253567   -3.9253567   -3.1990862  0.040069312   -3.9253567   0.72627047   424551 
 4469000   0.60474596   -3.9243847   -3.9243847   -3.1990032  0.044821242   -3.9243847   0.72538149   424551 
 4470000   0.60470402   -3.9244032   -3.9244032    -3.199072  0.032257704   -3.9244032   0.72533118   424551 
 4471000   0.60648696   -3.9263341   -3.9263341   -3.1988643  0.016493056   -3.9263341   0.72746979   424551 
 4472000   0.60543449   -3.9248808   -3.9248808   -3.1986735  0.030807925   -3.9248808   0.72620737   424551 
 4473000   0.60534179   -3.9256654   -3.9256654   -3.1995692   0.03472221   -3.9256654   0.72609617   424551 
 4474000   0.60494392   -3.9255707   -3.9255707   -3.1999517  0.033102791   -3.9255707   0.72561894   424551 
 4475000    0.6041675   -3.9250795   -3.9250795   -3.2003919  0.037437568   -3.9250795   0.72468764   424551 
 4476000   0.60549054   -3.9263388   -3.9263388   -3.2000642  0.044362122   -3.9263388   0.72627461   424551 
 4477000   0.60556703   -3.9266535   -3.9266535   -3.2002871  0.038734863   -3.9266535   0.72636635   424551 
 4478000   0.60576099   -3.9271302   -3.9271302   -3.2005312  0.023133264   -3.9271302     0.726599   424551 
 4479000   0.60545226   -3.9261384   -3.9261384   -3.1999097  0.040285978   -3.9261384   0.72622868   424551 
 4480000   0.60600222   -3.9265512   -3.9265512   -3.1996628  0.036169591   -3.9265512   0.72688836   424551 
 4481000   0.60529335   -3.9265141   -3.9265141   -3.2004761  0.044293678   -3.9265141   0.72603807   424551 
 4482000   0.60561378   -3.9268262   -3.9268262   -3.2004038  0.037144691   -3.9268262   0.72642242   424551 
 4483000   0.60495656   -3.9257931   -3.9257931   -3.2001589  0.039379341   -3.9257931   0.72563411   424551 
 4484000   0.60499264    -3.925915    -3.925915   -3.2002376  0.024889226    -3.925915   0.72567738   424551 
 4485000   0.60570417   -3.9268035   -3.9268035   -3.2002727  0.040629515   -3.9268035   0.72653084   424551 
 4486000   0.60652037    -3.927517    -3.927517   -3.2000071  0.035331516    -3.927517   0.72750987   424551 
 4487000   0.60563489    -3.926858    -3.926858   -3.2004103  0.029515317    -3.926858   0.72644774   424551 
 4488000   0.60461106    -3.926415    -3.926415   -3.2011954  0.028917944    -3.926415   0.72521968   424551 
 4489000    0.6046964   -3.9264999   -3.9264999   -3.2011779   0.03292819   -3.9264999   0.72532205   424551 
 4490000   0.60659709    -3.928233    -3.928233   -3.2006311   0.03522326    -3.928233   0.72760189   424551 
 4491000   0.60618633    -3.927327    -3.927327   -3.2002178  0.037351237    -3.927327   0.72710919   424551 
 4492000   0.60458884   -3.9257304   -3.9257304   -3.2005374  0.036836162   -3.9257304   0.72519303   424551 
 4493000    0.6050669   -3.9265861   -3.9265861   -3.2008196  0.034869461   -3.9265861   0.72576645   424551 
 4494000   0.60521439   -3.9272785   -3.9272785   -3.2013351   0.02981609   -3.9272785   0.72594337   424551 
 4495000    0.6050882    -3.926578    -3.926578    -3.200786  0.028670399    -3.926578     0.725792   424551 
 4496000   0.60339435     -3.92443     -3.92443   -3.2006698  0.036855458     -3.92443   0.72376027   424551 
 4497000   0.60412741   -3.9251866   -3.9251866   -3.2005471  0.031087784   -3.9251866   0.72463955   424551 
 4498000   0.60485682   -3.9265508   -3.9265508   -3.2010364     0.031772   -3.9265508   0.72551447   424551 
 4499000   0.60449438   -3.9255391   -3.9255391   -3.2004593  0.030861041   -3.9255391   0.72507972   424551 
 4500000   0.60620387   -3.9279703   -3.9279703   -3.2008401  0.032512479   -3.9279703   0.72713023   424551 
 4501000   0.60628566   -3.9274287   -3.9274287   -3.2002003   0.03294387   -3.9274287   0.72722833   424551 
 4502000   0.60452987   -3.9250594   -3.9250594   -3.1999371  0.044440727   -3.9250594    0.7251223   424551 
 4503000   0.60515313   -3.9263116   -3.9263116   -3.2004417  0.039266451   -3.9263116   0.72586988   424551 
 4504000   0.60438994   -3.9256514   -3.9256514   -3.2006969  0.031664857   -3.9256514   0.72495446   424551 
 4505000    0.6044356   -3.9244037   -3.9244037   -3.1993945  0.043077006   -3.9244037   0.72500922   424551 
 4506000   0.60424538   -3.9247262   -3.9247262   -3.1999451  0.034203275   -3.9247262   0.72478106   424551 
 4507000   0.60436438   -3.9251241   -3.9251241   -3.2002003  0.026405001   -3.9251241    0.7249238   424551 
 4508000   0.60624376   -3.9275988   -3.9275988   -3.2004207  0.035113582   -3.9275988   0.72717808   424551 
 4509000    0.6062317   -3.9274422   -3.9274422   -3.2002786  0.037172987   -3.9274422    0.7271636   424551 
 4510000   0.60525716   -3.9267072   -3.9267072   -3.2007125   0.04028373   -3.9267072   0.72599466   424551 
 4511000   0.60494884    -3.926004    -3.926004   -3.2003791  0.038851345    -3.926004   0.72562484   424551 
 4512000   0.60426768   -3.9262035   -3.9262035   -3.2013957  0.035851376   -3.9262035    0.7248078   424551 
 4513000   0.60529814   -3.9273956   -3.9273956   -3.2013518  0.032410986   -3.9273956   0.72604382   424551 
 4514000   0.60505793   -3.9266473   -3.9266473   -3.2008916  0.031025791   -3.9266473   0.72575569   424551 
 4515000   0.60636225   -3.9282597   -3.9282597   -3.2009395  0.028393419   -3.9282597    0.7273202   424551 
 4516000   0.60635017   -3.9281141   -3.9281141   -3.2008084  0.033783811   -3.9281141   0.72730571   424551 
 4517000   0.60591655   -3.9281938   -3.9281938   -3.2014082  0.035195476   -3.9281938   0.72678559   424551 
 4518000   0.60611236   -3.9277386   -3.9277386   -3.2007181  0.034231574   -3.9277386   0.72702046   424551 
 4519000   0.60611027   -3.9269068   -3.9269068   -3.1998888  0.030687156   -3.9269068   0.72701795   424551 
 4520000   0.60585181   -3.9267624   -3.9267624   -3.2000545  0.035326428   -3.9267624   0.72670794   424551 
 4521000    0.6057841   -3.9265591   -3.9265591   -3.1999323  0.031960414   -3.9265591   0.72662672   424551 
 4522000   0.60533332   -3.9261548   -3.9261548   -3.2000688  0.042274406   -3.9261548   0.72608601   424551 
 4523000   0.60506088   -3.9258374   -3.9258374   -3.2000782   0.03336719   -3.9258374   0.72575923   424551 
 4524000   0.60442261    -3.925036    -3.925036   -3.2000423  0.031260728    -3.925036   0.72499364   424551 
 4525000    0.6051115   -3.9258518   -3.9258518   -3.2000318  0.025311278   -3.9258518   0.72581995   424551 
 4526000   0.60543914   -3.9263186   -3.9263186   -3.2001056  0.036516911   -3.9263186   0.72621295   424551 
 4527000    0.6033902   -3.9230844   -3.9230844   -3.1993292    0.0329406   -3.9230844   0.72375528   424551 
 4528000   0.60467998   -3.9251565   -3.9251565   -3.1998541  0.039591925   -3.9251565   0.72530235   424551 
 4529000   0.60463975   -3.9248113   -3.9248113   -3.1995572  0.043867502   -3.9248113    0.7252541   424551 
 4530000   0.60489181   -3.9247903   -3.9247903   -3.1992338   0.04856391   -3.9247903   0.72555644   424551 
 4531000   0.60560796    -3.925955    -3.925955   -3.1995396   0.02806771    -3.925955   0.72641544   424551 
 4532000   0.60519687   -3.9248807   -3.9248807   -3.1989584   0.03759451   -3.9248807   0.72592235   424551 
 4533000   0.60578737   -3.9248809   -3.9248809   -3.1982502    0.0471382   -3.9248809   0.72663065   424551 
 4534000   0.60462443    -3.924331    -3.924331   -3.1990953  0.047029816    -3.924331   0.72523572   424551 
 4535000   0.60455289    -3.923835    -3.923835   -3.1986851  0.032891041    -3.923835   0.72514991   424551 
 4536000   0.60445148   -3.9236344   -3.9236344   -3.1986061   0.03032977   -3.9236344   0.72502827   424551 
 4537000   0.60489899   -3.9237774   -3.9237774   -3.1982124  0.051857688   -3.9237774   0.72556504   424551 
 4538000   0.60532112   -3.9255771   -3.9255771   -3.1995057  0.039839571   -3.9255771   0.72607139   424551 
 4539000   0.60485815   -3.9240858   -3.9240858   -3.1985698   0.03763819   -3.9240858   0.72551607   424551 
 4540000   0.60582417   -3.9252041   -3.9252041   -3.1985293  0.043796696   -3.9252041   0.72667478   424551 
 4541000   0.60660088   -3.9260279   -3.9260279   -3.1984215  0.034287322   -3.9260279   0.72760643   424551 
 4542000   0.60612835   -3.9249836   -3.9249836    -3.197944  0.040793523   -3.9249836   0.72703965   424551 
 4543000    0.6060193   -3.9256798   -3.9256798    -3.198771  0.026679935   -3.9256798   0.72690883   424551 
 4544000   0.60613524   -3.9257886   -3.9257886   -3.1987407  0.023674604   -3.9257886    0.7270479   424551 
 4545000   0.60566995   -3.9261428   -3.9261428    -3.199653  0.020047914   -3.9261428    0.7264898   424551 
 4546000   0.60443579   -3.9245166   -3.9245166   -3.1995072  0.033753294   -3.9245166   0.72500945   424551 
 4547000   0.60543815   -3.9253488   -3.9253488    -3.199137   0.04228695   -3.9253488   0.72621176   424551 
 4548000    0.6053874   -3.9250189   -3.9250189    -3.198868  0.038510519   -3.9250189   0.72615088   424551 
 4549000   0.60525152   -3.9247632   -3.9247632   -3.1987753  0.027441018   -3.9247632    0.7259879   424551 
 4550000   0.60545575   -3.9260587   -3.9260587   -3.1998258  0.025113675   -3.9260587   0.72623287   424551 
 4551000   0.60541799   -3.9253396   -3.9253396    -3.199152  0.033210064   -3.9253396   0.72618758   424551 
 4552000   0.60612028   -3.9252137   -3.9252137   -3.1981837  0.037181442   -3.9252137   0.72702997   424551 
 4553000   0.60698211   -3.9261039   -3.9261039   -3.1980402  0.028403529   -3.9261039   0.72806371   424551 
 4554000   0.60577954   -3.9258305   -3.9258305   -3.1992093  0.035899401   -3.9258305   0.72662125   424551 
 4555000   0.60675301   -3.9264256   -3.9264256   -3.1986367   0.03082111   -3.9264256   0.72778891   424551 
 4556000   0.60583408   -3.9248746   -3.9248746   -3.1981879  0.026418275   -3.9248746   0.72668667   424551 
 4557000   0.60541812   -3.9255492   -3.9255492   -3.1993615  0.028225292   -3.9255492   0.72618774   424551 
 4558000    0.6047857   -3.9257027   -3.9257027   -3.2002735  0.042335492   -3.9257027   0.72542916   424551 
 4559000   0.60513744   -3.9262337   -3.9262337   -3.2003826   0.04556653   -3.9262337   0.72585106   424551 
 4560000   0.60528532   -3.9262608   -3.9262608   -3.2002323  0.024559794   -3.9262608   0.72602845   424551 
 4561000   0.60527315   -3.9258613   -3.9258613   -3.1998475  0.029027133   -3.9258613   0.72601385   424551 
 4562000   0.60519066   -3.9260707   -3.9260707   -3.2001558  0.034320885   -3.9260707    0.7259149   424551 
 4563000   0.60425929   -3.9247428   -3.9247428   -3.1999451  0.027629879   -3.9247428   0.72479774   424551 
 4564000    0.6064053   -3.9271387   -3.9271387   -3.1997669  0.030992756   -3.9271387   0.72737184   424551 
 4565000   0.60560769   -3.9260198   -3.9260198   -3.1996047   0.03329936   -3.9260198   0.72641512   424551 
 4566000   0.60505898   -3.9249685   -3.9249685   -3.1992115  0.039763921   -3.9249685   0.72575695   424551 
 4567000   0.60474649   -3.9251283   -3.9251283   -3.1997462  0.033388366   -3.9251283   0.72538212   424551 
 4568000   0.60582331    -3.926371    -3.926371   -3.1996972  0.046296954    -3.926371   0.72667375   424551 
 4569000    0.6064307   -3.9271074   -3.9271074   -3.1997051  0.028605467   -3.9271074   0.72740231   424551 
 4570000   0.60539849   -3.9253525   -3.9253525   -3.1991883  0.029095122   -3.9253525   0.72616419   424551 
 4571000    0.6058452   -3.9262262   -3.9262262   -3.1995262  0.032642308   -3.9262262   0.72670001   424551 
 4572000   0.60562986    -3.927035    -3.927035   -3.2005933  0.040926313    -3.927035   0.72644171   424551 
 4573000   0.60464899   -3.9260828   -3.9260828   -3.2008176  0.045302268   -3.9260828   0.72526518   424551 
 4574000   0.60563801   -3.9272995   -3.9272995    -3.200848  0.041413331   -3.9272995   0.72645149   424551 
 4575000   0.60463663   -3.9270451   -3.9270451   -3.2017947  0.037236964   -3.9270451   0.72525035   424551 
 4576000   0.60493451    -3.925863    -3.925863   -3.2002554  0.027128016    -3.925863   0.72560765   424551 
 4577000   0.60511873    -3.927132    -3.927132   -3.2013033  0.034585139    -3.927132   0.72582862   424551 
 4578000   0.60462532   -3.9259254   -3.9259254   -3.2006886  0.038991871   -3.9259254   0.72523678   424551 
 4579000   0.60449239   -3.9258845   -3.9258845   -3.2008071  0.036795382   -3.9258845   0.72507734   424551 
 4580000   0.60559143   -3.9277395   -3.9277395   -3.2013438  0.033345409   -3.9277395   0.72639562   424551 
 4581000   0.60436894   -3.9265049   -3.9265049   -3.2015757  0.041454597   -3.9265049   0.72492926   424551 
 4582000    0.6055813   -3.9276657   -3.9276657   -3.2012823  0.040258599   -3.9276657   0.72638347   424551 
 4583000   0.60513363   -3.9267787   -3.9267787   -3.2009322  0.042756243   -3.9267787    0.7258465   424551 
 4584000   0.60457582   -3.9259427   -3.9259427   -3.2007653  0.040561065   -3.9259427   0.72517741   424551 
 4585000   0.60516851   -3.9266143   -3.9266143    -3.200726  0.023006913   -3.9266143   0.72588833   424551 
 4586000   0.60591134   -3.9270717   -3.9270717   -3.2002924  0.037553739   -3.9270717   0.72677934   424551 
 4587000   0.60482849   -3.9258995   -3.9258995    -3.200419  0.026146984   -3.9258995   0.72548049   424551 
 4588000   0.60544705   -3.9265204   -3.9265204    -3.200298  0.035006723   -3.9265204   0.72622243   424551 
 4589000   0.60524791   -3.9262024   -3.9262024   -3.2002188   0.03618857   -3.9262024   0.72598357   424551 
 4590000   0.60517193    -3.925893    -3.925893   -3.2000006  0.037286567    -3.925893   0.72589244   424551 
 4591000   0.60547701   -3.9266107   -3.9266107   -3.2003523  0.043578325   -3.9266107   0.72625837   424551 
 4592000   0.60577274   -3.9263932   -3.9263932   -3.1997801  0.049214946   -3.9263932    0.7266131   424551 
 4593000   0.60507239   -3.9260211   -3.9260211   -3.2002481  0.031835867   -3.9260211   0.72577304   424551 
 4594000   0.60575973   -3.9264974   -3.9264974   -3.1998999  0.022274359   -3.9264974   0.72659749   424551 
 4595000   0.60673346   -3.9277554   -3.9277554   -3.1999899  0.039270103   -3.9277554   0.72776546   424551 
 4596000   0.60663446   -3.9271487   -3.9271487    -3.199502  0.022974436   -3.9271487   0.72764671   424551 
 4597000   0.60578995   -3.9254531   -3.9254531   -3.1988194  0.029420057   -3.9254531   0.72663374   424551 
 4598000     0.606581   -3.9262738   -3.9262738   -3.1986912  0.020642113   -3.9262738   0.72758259   424551 
 4599000   0.60514369   -3.9254949   -3.9254949   -3.1996364  0.041911308   -3.9254949   0.72585856   424551 
 4600000   0.60564368   -3.9259687   -3.9259687   -3.1995104  0.042147112   -3.9259687   0.72645829   424551 
 4601000   0.60583987   -3.9260293   -3.9260293   -3.1993357  0.031701451   -3.9260293   0.72669361   424551 
 4602000   0.60633331   -3.9269527   -3.9269527   -3.1996672  0.037124858   -3.9269527   0.72728549   424551 
 4603000   0.60624575   -3.9267169   -3.9267169   -3.1995365  0.037645096   -3.9267169   0.72718046   424551 
 4604000   0.60583605   -3.9265223   -3.9265223   -3.1998333  0.034023663   -3.9265223   0.72668903   424551 
 4605000   0.60371417   -3.9237432   -3.9237432   -3.1995994  0.030140125   -3.9237432   0.72414388   424551 
 4606000     0.605159   -3.9253519   -3.9253519   -3.1994749   0.02628266   -3.9253519   0.72587693   424551 
 4607000   0.60595861   -3.9265617   -3.9265617   -3.1997257   0.02740918   -3.9265617   0.72683604   424551 
 4608000    0.6052723   -3.9256902   -3.9256902   -3.1996774  0.023262216   -3.9256902   0.72601282   424551 
 4609000   0.60582931   -3.9260342   -3.9260342   -3.1993533  0.035407064   -3.9260342   0.72668095   424551 
 4610000   0.60467926   -3.9248499   -3.9248499   -3.1995484  0.031378539   -3.9248499   0.72530148   424551 
 4611000   0.60514529   -3.9256755   -3.9256755    -3.199815  0.034586856   -3.9256755   0.72586048   424551 
 4612000    0.6054356    -3.926591    -3.926591   -3.2003823  0.029260021    -3.926591    0.7262087   424551 
 4613000    0.6061429   -3.9273783   -3.9273783   -3.2003212  0.034850445   -3.9273783    0.7270571   424551 
 4614000   0.60515358   -3.9260268   -3.9260268   -3.2001564  0.020520248   -3.9260268   0.72587042   424551 
 4615000   0.60512969   -3.9256898   -3.9256898   -3.1998481  0.035333186   -3.9256898   0.72584177   424551 
 4616000   0.60560446   -3.9264475   -3.9264475   -3.2000363   0.04865467   -3.9264475   0.72641124   424551 
 4617000   0.60584144   -3.9263714   -3.9263714   -3.1996759  0.040885042   -3.9263714    0.7266955   424551 
 4618000   0.60576606   -3.9264644   -3.9264644   -3.1998593  0.021352514   -3.9264644   0.72660508   424551 
 4619000   0.60529757   -3.9257215   -3.9257215   -3.1996784  0.035634567   -3.9257215   0.72604314   424551 
 4620000   0.60453455   -3.9248814   -3.9248814   -3.1997535  0.040698565   -3.9248814   0.72512791   424551 
 4621000   0.60686997   -3.9274987   -3.9274987   -3.1995695  0.043342684   -3.9274987    0.7279292   424551 
 4622000   0.60519383   -3.9253081   -3.9253081   -3.1993894  0.026911266   -3.9253081    0.7259187   424551 
 4623000   0.60405907   -3.9236612   -3.9236612   -3.1991037  0.045280992   -3.9236612   0.72455757   424551 
 4624000   0.60577606   -3.9257227   -3.9257227   -3.1991056  0.034702948   -3.9257227   0.72661708   424551 
 4625000   0.60519912   -3.9249827   -3.9249827   -3.1990577  0.034597671   -3.9249827   0.72592505   424551 
 4626000   0.60388688   -3.9238766   -3.9238766   -3.1995256  0.039234716   -3.9238766   0.72435104   424551 
 4627000   0.60398434   -3.9236637   -3.9236637   -3.1991957  0.036998909   -3.9236637   0.72446794   424551 
 4628000   0.60530087    -3.924613    -3.924613   -3.1985659  0.041930023    -3.924613   0.72604709   424551 
 4629000   0.60520254   -3.9257898   -3.9257898   -3.1998607  0.032916569   -3.9257898   0.72592915   424551 
 4630000   0.60551683   -3.9256837   -3.9256837   -3.1993775  0.042390879   -3.9256837   0.72630613   424551 
 4631000   0.60583733    -3.925867    -3.925867   -3.1991764  0.027315489    -3.925867   0.72669057   424551 
 4632000   0.60457283   -3.9246771   -3.9246771   -3.1995033  0.023472416   -3.9246771   0.72517383   424551 
 4633000   0.60464453    -3.924092    -3.924092   -3.1988322  0.045028988    -3.924092   0.72525983   424551 
 4634000   0.60526048   -3.9249286   -3.9249286     -3.19893  0.036887029   -3.9249286   0.72599864   424551 
 4635000    0.6060227   -3.9261957   -3.9261957   -3.1992828  0.033354765   -3.9261957   0.72691292   424551 
 4636000   0.60465041   -3.9247854   -3.9247854   -3.1995185  0.042001739   -3.9247854   0.72526688   424551 
 4637000   0.60425731   -3.9233851   -3.9233851   -3.1985898  0.025753887   -3.9233851   0.72479536   424551 
 4638000   0.60538519   -3.9252483   -3.9252483   -3.1991001  0.032925618   -3.9252483   0.72614823   424551 
 4639000   0.60481407   -3.9246817   -3.9246817   -3.1992185  0.028109995   -3.9246817   0.72546319   424551 
 4640000   0.60589098   -3.9257685   -3.9257685   -3.1990136  0.045666835   -3.9257685   0.72675492   424551 
 4641000   0.60585694   -3.9259553   -3.9259553   -3.1992412  0.030501513   -3.9259553   0.72671409   424551 
 4642000    0.6051105   -3.9255646   -3.9255646   -3.1997458  0.047693953   -3.9255646   0.72581874   424551 
 4643000   0.60487965   -3.9250701   -3.9250701   -3.1995282  0.031366552   -3.9250701   0.72554185   424551 
 4644000   0.60537906   -3.9250735   -3.9250735   -3.1989327  0.029407457   -3.9250735   0.72614088   424551 
 4645000   0.60493992   -3.9249371   -3.9249371    -3.199323   0.02228488   -3.9249371   0.72561414   424551 
 4646000   0.60710431   -3.9272047   -3.9272047   -3.1989944  0.037850291   -3.9272047   0.72821029   424551 
 4647000   0.60440475   -3.9245032   -3.9245032    -3.199531  0.032275253   -3.9245032   0.72497222   424551 
 4648000   0.60566662   -3.9255014   -3.9255014   -3.1990156  0.029893168   -3.9255014   0.72648581   424551 
 4649000   0.60467589   -3.9241169   -3.9241169   -3.1988194  0.047638777   -3.9241169   0.72529744   424551 
 4650000   0.60410144   -3.9234609   -3.9234609   -3.1988525  0.050651921   -3.9234609    0.7246084   424551 
 4651000   0.60651539   -3.9266301   -3.9266301   -3.1991262  0.033720303   -3.9266301   0.72750389   424551 
 4652000     0.605413   -3.9257031   -3.9257031   -3.1995215  0.039734043   -3.9257031   0.72618159   424551 
 4653000   0.60494902   -3.9254749   -3.9254749   -3.1998499  0.037169904   -3.9254749   0.72562506   424551 
 4654000   0.60558124   -3.9263972   -3.9263972   -3.2000138  0.033558445   -3.9263972    0.7263834   424551 
 4655000   0.60477883   -3.9255217   -3.9255217   -3.2001008   0.03640428   -3.9255217   0.72542092   424551 
 4656000   0.60501541   -3.9262567   -3.9262567    -3.200552  0.034745232   -3.9262567   0.72570469   424551 
 4657000   0.60574696   -3.9262832   -3.9262832   -3.1997011  0.038370592   -3.9262832   0.72658217   424551 
 4658000   0.60495761   -3.9255205   -3.9255205   -3.1998852  0.033327834   -3.9255205   0.72563536   424551 
 4659000   0.60513828   -3.9255333   -3.9255333   -3.1996812  0.032898987   -3.9255333   0.72585208   424551 
 4660000   0.60488912   -3.9252705   -3.9252705   -3.1997173  0.020739118   -3.9252705   0.72555321   424551 
 4661000   0.60506586   -3.9255075   -3.9255075   -3.1997423  0.037011197   -3.9255075   0.72576521   424551 
 4662000   0.60583792   -3.9261088   -3.9261088   -3.1994175  0.041546775   -3.9261088   0.72669128   424551 
 4663000   0.60668162   -3.9272621   -3.9272621   -3.1995588   0.02836186   -3.9272621   0.72770328   424551 
 4664000   0.60471621   -3.9246095   -3.9246095   -3.1992637   0.03159052   -3.9246095   0.72534581   424551 
 4665000   0.60601616   -3.9258955   -3.9258955   -3.1989904   0.02996452   -3.9258955   0.72690508   424551 
 4666000   0.60556637    -3.925517    -3.925517   -3.1991514  0.029628742    -3.925517   0.72636556   424551 
 4667000   0.60585695    -3.925434    -3.925434   -3.1987199   0.02261816    -3.925434   0.72671411   424551 
 4668000   0.60667524   -3.9266321   -3.9266321   -3.1989365  0.033984499   -3.9266321   0.72769563   424551 
 4669000   0.60483547   -3.9243108   -3.9243108   -3.1988219  0.028294357   -3.9243108   0.72548885   424551 
 4670000   0.60485199   -3.9238115   -3.9238115   -3.1983029  0.033265217   -3.9238115   0.72550868   424551 
 4671000   0.60428171   -3.9234984   -3.9234984   -3.1986738  0.035838183   -3.9234984   0.72482463   424551 
 4672000   0.60562486    -3.925656    -3.925656   -3.1992203  0.045562236    -3.925656   0.72643572   424551 
 4673000   0.60533977    -3.925024    -3.925024   -3.1989302  0.031427955    -3.925024   0.72609376   424551 
 4674000   0.60517326   -3.9256294   -3.9256294   -3.1997354  0.033932777   -3.9256294   0.72589403   424551 
 4675000   0.60474995   -3.9253743   -3.9253743    -3.199988  0.043761275   -3.9253743   0.72538628   424551 
 4676000   0.60401094   -3.9249044   -3.9249044   -3.2004046  0.019993424   -3.9249044   0.72449985   424551 
 4677000   0.60330658   -3.9237232   -3.9237232   -3.2000682  0.038119663   -3.9237232   0.72365498   424551 
 4678000   0.60487001   -3.9252927   -3.9252927   -3.1997624  0.030000511   -3.9252927   0.72553029   424551 
 4679000   0.60557301   -3.9265413   -3.9265413   -3.2001677  0.032421353   -3.9265413   0.72637352   424551 
 4680000   0.60534651   -3.9261464   -3.9261464   -3.2000446   0.02862817   -3.9261464   0.72610184   424551 
 4681000   0.60595448   -3.9268158   -3.9268158   -3.1999847  0.026282328   -3.9268158   0.72683109   424551 
 4682000   0.60684108   -3.9275409   -3.9275409   -3.1996463  0.028175404   -3.9275409   0.72789455   424551 
 4683000   0.60483532   -3.9254853   -3.9254853   -3.1999966  0.036874403   -3.9254853   0.72548867   424551 
 4684000   0.60620477   -3.9263701   -3.9263701   -3.1992388  0.035030545   -3.9263701   0.72713131   424551 
 4685000   0.60503215   -3.9252114   -3.9252114   -3.1994866   0.03073295   -3.9252114   0.72572477   424551 
 4686000   0.60713692    -3.927128    -3.927128   -3.1988786  0.019303617    -3.927128   0.72824941   424551 
 4687000   0.60592633   -3.9265007   -3.9265007   -3.1997033  0.030865153   -3.9265007   0.72679733   424551 
 4688000    0.6055373   -3.9262107   -3.9262107     -3.19988  0.033393166   -3.9262107   0.72633069   424551 
 4689000   0.60605515   -3.9265087   -3.9265087   -3.1995569  0.032661575   -3.9265087   0.72695184   424551 
 4690000   0.60552855   -3.9259374   -3.9259374   -3.1996172   0.03945222   -3.9259374    0.7263202   424551 
 4691000   0.60506536    -3.925633    -3.925633   -3.1998684  0.035377616    -3.925633    0.7257646   424551 
 4692000   0.60609015   -3.9264155   -3.9264155   -3.1994217  0.030558936   -3.9264155   0.72699382   424551 
 4693000   0.60585324    -3.926175    -3.926175   -3.1994653  0.029971802    -3.926175   0.72670965   424551 
 4694000   0.60700733   -3.9284564   -3.9284564   -3.2003624   0.01877987   -3.9284564   0.72809396   424551 
 4695000   0.60421048   -3.9252495   -3.9252495   -3.2005103  0.026730265   -3.9252495    0.7247392   424551 
 4696000     0.605086   -3.9263736   -3.9263736   -3.2005842  0.040177488   -3.9263736   0.72578936   424551 
 4697000   0.60651202   -3.9276563   -3.9276563   -3.2001564  0.029831035   -3.9276563   0.72749984   424551 
 4698000   0.60558568   -3.9256392   -3.9256392   -3.1992505  0.033301864   -3.9256392   0.72638872   424551 
 4699000   0.60459384   -3.9249987   -3.9249987   -3.1997997  0.026696164   -3.9249987   0.72519903   424551 
 4700000   0.60535947   -3.9264964   -3.9264964    -3.200379  0.023071953   -3.9264964   0.72611739   424551 
 4701000   0.60529055   -3.9264722   -3.9264722   -3.2004375  0.039969995   -3.9264722   0.72603471   424551 
 4702000   0.60470938   -3.9258225   -3.9258225   -3.2004849   0.03447673   -3.9258225   0.72533761   424551 
 4703000   0.60647804   -3.9276749   -3.9276749   -3.2002158  0.044014749   -3.9276749   0.72745909   424551 
 4704000   0.60422642   -3.9255301   -3.9255301   -3.2007718  0.026076428   -3.9255301   0.72475831   424551 
 4705000   0.60434659   -3.9257922   -3.9257922   -3.2008898  0.035633494   -3.9257922   0.72490246   424551 
 4706000   0.60487797   -3.9263316   -3.9263316   -3.2007918  0.039582994   -3.9263316   0.72553983   424551 
 4707000   0.60537402   -3.9266005   -3.9266005   -3.2004657  0.040700059   -3.9266005   0.72613483   424551 
 4708000   0.60541781   -3.9264113   -3.9264113   -3.2002239  0.028954572   -3.9264113   0.72618736   424551 
 4709000   0.60502103   -3.9257558   -3.9257558   -3.2000444  0.028731785   -3.9257558   0.72571143   424551 
 4710000   0.60538931    -3.925753    -3.925753   -3.1995998  0.033828711    -3.925753   0.72615318   424551 
 4711000   0.60542337   -3.9260846   -3.9260846   -3.1998905  0.050536847   -3.9260846   0.72619403   424551 
 4712000   0.60626714   -3.9270794   -3.9270794   -3.1998733   0.02953215   -3.9270794   0.72720612   424551 
 4713000    0.6056863   -3.9258822   -3.9258822   -3.1993728  0.023134984   -3.9258822   0.72650941   424551 
 4714000    0.6053215    -3.925824    -3.925824   -3.1997522  0.031590095    -3.925824   0.72607183   424551 
 4715000    0.6049835   -3.9255381   -3.9255381   -3.1998717  0.031597915   -3.9255381   0.72566642   424551 
 4716000   0.60654026   -3.9266662   -3.9266662   -3.1991325  0.026107697   -3.9266662   0.72753372   424551 
 4717000   0.60501786   -3.9255142   -3.9255142   -3.1998066  0.037418721   -3.9255142   0.72570763   424551 
 4718000   0.60451177   -3.9251801   -3.9251801   -3.2000795   0.03219422   -3.9251801   0.72510059   424551 
 4719000   0.60513975   -3.9259421   -3.9259421   -3.2000882  0.029450172   -3.9259421   0.72585383   424551 
 4720000   0.60412472   -3.9251048   -3.9251048   -3.2004685   0.02426417   -3.9251048   0.72463633   424551 
 4721000   0.60450906   -3.9263218   -3.9263218   -3.2012245   0.02450421   -3.9263218   0.72509733   424551 
 4722000    0.6045144   -3.9265209   -3.9265209   -3.2014171  0.034512088   -3.9265209   0.72510374   424551 
 4723000   0.60498764    -3.926792    -3.926792   -3.2011206  0.012591581    -3.926792   0.72567139   424551 
 4724000    0.6060271   -3.9279939   -3.9279939   -3.2010757   0.02866425   -3.9279939    0.7269182   424551 
 4725000   0.60540406    -3.927468    -3.927468   -3.2012971  0.035861396    -3.927468   0.72617087   424551 
 4726000    0.6046421   -3.9266602   -3.9266602   -3.2014033  0.031294118   -3.9266602   0.72525691   424551 
 4727000   0.60494625   -3.9269816   -3.9269816   -3.2013599  0.037897575   -3.9269816   0.72562173   424551 
 4728000   0.60499986    -3.926891    -3.926891   -3.2012049  0.052889977    -3.926891   0.72568604   424551 
 4729000    0.6048039   -3.9274964   -3.9274964   -3.2020455  0.054852361   -3.9274964   0.72545099   424551 
 4730000   0.60453258   -3.9273407   -3.9273407   -3.2022152  0.032780887   -3.9273407   0.72512555   424551 
 4731000   0.60520218   -3.9284031   -3.9284031   -3.2024744  0.031138865   -3.9284031   0.72592872   424551 
 4732000   0.60510926   -3.9276461   -3.9276461   -3.2018289  0.027670871   -3.9276461   0.72581726   424551 
 4733000   0.60448039   -3.9270778   -3.9270778   -3.2020148  0.036210084   -3.9270778   0.72506295   424551 
 4734000   0.60407391   -3.9266081   -3.9266081   -3.2020327  0.025746774   -3.9266081   0.72457538   424551 
 4735000   0.60551503    -3.928326    -3.928326    -3.202022  0.034045502    -3.928326   0.72630397   424551 
 4736000   0.60344439   -3.9254092   -3.9254092   -3.2015889  0.029480944   -3.9254092   0.72382028   424551 
 4737000   0.60371355   -3.9265224   -3.9265224   -3.2023793  0.039473566   -3.9265224   0.72414314   424551 
 4738000   0.60444166   -3.9270797   -3.9270797   -3.2020632  0.041351821   -3.9270797   0.72501649   424551 
 4739000   0.60506928   -3.9276692   -3.9276692   -3.2018999   0.04132002   -3.9276692   0.72576931   424551 
 4740000   0.60408488   -3.9271586   -3.9271586     -3.20257   0.03156081   -3.9271586   0.72458854   424551 
 4741000   0.60404613   -3.9269196   -3.9269196   -3.2023776   0.02941831   -3.9269196   0.72454206   424551 
 4742000   0.60376153   -3.9263829   -3.9263829   -3.2021822  0.041332696   -3.9263829   0.72420069   424551 
 4743000   0.60299305   -3.9259465   -3.9259465   -3.2026676  0.023879581   -3.9259465   0.72327891   424551 
 4744000   0.60451388   -3.9275519   -3.9275519   -3.2024488  0.022284239   -3.9275519   0.72510311   424551 
 4745000   0.60334549   -3.9258051   -3.9258051   -3.2021034  0.035061519   -3.9258051   0.72370166   424551 
 4746000   0.60543095   -3.9277159   -3.9277159   -3.2015128   0.03376752   -3.9277159   0.72620313   424551 
 4747000   0.60520353   -3.9273921   -3.9273921   -3.2014618  0.029633568   -3.9273921   0.72593034   424551 
 4748000   0.60430108     -3.92666     -3.92666   -3.2018121  0.023043922     -3.92666   0.72484787   424551 
 4749000   0.60531194   -3.9273431   -3.9273431   -3.2012828  0.036262768   -3.9273431   0.72606037   424551 
 4750000    0.6058301     -3.92736     -3.92736   -3.2006781  0.037427026     -3.92736    0.7266819   424551 
 4751000   0.60525327    -3.927263    -3.927263    -3.201273  0.049583267    -3.927263      0.72599   424551 
 4752000   0.60368303   -3.9250887   -3.9250887   -3.2009822  0.028446401   -3.9250887   0.72410653   424551 
 4753000   0.60376216     -3.92446     -3.92446   -3.2002585  0.039774595     -3.92446   0.72420144   424551 
 4754000   0.60429394   -3.9242398   -3.9242398   -3.1994005  0.020547889   -3.9242398    0.7248393   424551 
 4755000   0.60520331   -3.9258192   -3.9258192   -3.1998891  0.044369694   -3.9258192   0.72593008   424551 
 4756000   0.60427242   -3.9246294   -3.9246294   -3.1998159  0.032660556   -3.9246294   0.72481348   424551 
 4757000   0.60393926   -3.9253632   -3.9253632   -3.2009493  0.026706116   -3.9253632   0.72441387   424551 
 4758000   0.60416014   -3.9252795   -3.9252795   -3.2006007  0.019082303   -3.9252795   0.72467882   424551 
 4759000   0.60471172   -3.9254622   -3.9254622   -3.2001218  0.033505644   -3.9254622   0.72534042   424551 
 4760000   0.60535194   -3.9257203   -3.9257203    -3.199612  0.026927471   -3.9257203   0.72610836   424551 
 4761000   0.60457544   -3.9250444   -3.9250444   -3.1998675  0.032421609   -3.9250444   0.72517696   424551 
 4762000   0.60474448   -3.9251169   -3.9251169   -3.1997372  0.028459647   -3.9251169   0.72537972   424551 
 4763000    0.6065216   -3.9278363   -3.9278363   -3.2003249  0.047693173   -3.9278363   0.72751134   424551 
 4764000   0.60425495   -3.9258957   -3.9258957   -3.2011032  0.034665048   -3.9258957   0.72479253   424551 
 4765000   0.60385815   -3.9253033   -3.9253033   -3.2009867   0.02236779   -3.9253033   0.72431658   424551 
 4766000   0.60544924   -3.9271784   -3.9271784   -3.2009534  0.035556489   -3.9271784   0.72622507   424551 
 4767000   0.60359495   -3.9254613   -3.9254613   -3.2014605  0.035613345   -3.9254613   0.72400088   424551 
 4768000   0.60587425   -3.9277224   -3.9277224   -3.2009876   0.02613728   -3.9277224   0.72673486   424551 
 4769000   0.60466677   -3.9266054   -3.9266054   -3.2013189  0.037786298   -3.9266054   0.72528651   424551 
 4770000   0.60582065   -3.9283183   -3.9283183   -3.2016477  0.042986927   -3.9283183   0.72667056   424551 
 4771000   0.60552187   -3.9279476   -3.9279476   -3.2016354  0.037443854   -3.9279476   0.72631218   424551 
 4772000   0.60517038   -3.9274821   -3.9274821   -3.2015915    0.0330084   -3.9274821   0.72589058   424551 
 4773000   0.60488674   -3.9279844   -3.9279844    -3.202434  0.029276427   -3.9279844   0.72555036   424551 
 4774000    0.6061159    -3.929329    -3.929329   -3.2023043  0.032237272    -3.929329   0.72702471   424551 
 4775000   0.60428417   -3.9275235   -3.9275235   -3.2026959  0.042214955   -3.9275235   0.72482758   424551 
 4776000   0.60445138   -3.9272873   -3.9272873   -3.2022592  0.022316285   -3.9272873   0.72502814   424551 
 4777000   0.60575545   -3.9283267   -3.9283267   -3.2017343  0.031486369   -3.9283267   0.72659235   424551 
 4778000   0.60493482   -3.9272636   -3.9272636   -3.2016555  0.028348146   -3.9272636   0.72560802   424551 
 4779000   0.60631562   -3.9291346   -3.9291346   -3.2018704    0.0204414   -3.9291346   0.72726426   424551 
 4780000   0.60610929    -3.928591    -3.928591   -3.2015742   0.02996053    -3.928591   0.72701677   424551 
 4781000   0.60496512   -3.9276533   -3.9276533    -3.202009  0.037055005   -3.9276533   0.72564436   424551 
 4782000   0.60504098    -3.927694    -3.927694   -3.2019586  0.037868709    -3.927694   0.72573537   424551 
 4783000    0.6059194   -3.9287561   -3.9287561   -3.2019671  0.043929893   -3.9287561   0.72678901   424551 
 4784000   0.60413531   -3.9276464   -3.9276464   -3.2029974  0.025400807   -3.9276464   0.72464903   424551 
 4785000   0.60503378    -3.928282    -3.928282   -3.2025553  0.033308232    -3.928282   0.72572673   424551 
 4786000   0.60558144   -3.9289912   -3.9289912   -3.2026076  0.029242626   -3.9289912   0.72638363   424551 
 4787000   0.60495261   -3.9292315   -3.9292315   -3.2036022  0.036767814   -3.9292315   0.72562937   424551 
 4788000   0.60564596   -3.9295853   -3.9295853   -3.2031242  0.024087625   -3.9295853   0.72646103   424551 
 4789000   0.60392912   -3.9279786   -3.9279786   -3.2035769  0.034695404   -3.9279786    0.7244017   424551 
 4790000   0.60466938   -3.9275695   -3.9275695   -3.2022799  0.034725443   -3.9275695   0.72528964   424551 
 4791000   0.60553189   -3.9288373   -3.9288373   -3.2025131  0.033659242   -3.9288373    0.7263242   424551 
 4792000   0.60433242   -3.9271531   -3.9271531   -3.2022677  0.035683231   -3.9271531   0.72488545   424551 
 4793000   0.60505699   -3.9284802   -3.9284802   -3.2027256   0.03296648   -3.9284802   0.72575457   424551 
 4794000   0.60449644   -3.9280844   -3.9280844   -3.2030022  0.031959116   -3.9280844   0.72508219   424551 
 4795000   0.60492913   -3.9278385   -3.9278385   -3.2022373  0.037473772   -3.9278385    0.7256012   424551 
 4796000   0.60418413   -3.9270331   -3.9270331   -3.2023256  0.033221422   -3.9270331   0.72470759   424551 
 4797000   0.60376337   -3.9266391   -3.9266391   -3.2024362  0.023556288   -3.9266391    0.7242029   424551 
 4798000   0.60551096    -3.928838    -3.928838   -3.2025389  0.029276461    -3.928838   0.72629909   424551 
 4799000   0.60447385      -3.9278      -3.9278   -3.2027449  0.037688355      -3.9278    0.7250551   424551 
 4800000   0.60573224   -3.9294565   -3.9294565    -3.202892  0.035347051   -3.9294565   0.72656451   424551 
 4801000   0.60631409   -3.9296284   -3.9296284    -3.202366   0.04235315   -3.9296284   0.72726244   424551 
 4802000   0.60619883   -3.9289532   -3.9289532    -3.201829  0.029519465   -3.9289532   0.72712418   424551 
 4803000   0.60558105   -3.9283484   -3.9283484   -3.2019652  0.038971467   -3.9283484   0.72638317   424551 
 4804000   0.60625891   -3.9296499   -3.9296499   -3.2024537  0.027119097   -3.9296499   0.72719625   424551 
 4805000   0.60535888   -3.9285543   -3.9285543   -3.2024376  0.027584333   -3.9285543   0.72611667   424551 
 4806000   0.60585567   -3.9290305   -3.9290305   -3.2023179  0.041305005   -3.9290305   0.72671257   424551 
 4807000   0.60510655   -3.9280408   -3.9280408   -3.2022268  0.039265068   -3.9280408   0.72581402   424551 
 4808000   0.60520516    -3.928666    -3.928666   -3.2027337   0.03255267    -3.928666   0.72593229   424551 
 4809000   0.60577241   -3.9285488   -3.9285488   -3.2019361  0.038214366   -3.9285488    0.7266127   424551 
 4810000   0.60626947   -3.9290118   -3.9290118   -3.2018029  0.040385128   -3.9290118   0.72720892   424551 
 4811000   0.60509584   -3.9272645   -3.9272645   -3.2014633  0.039234871   -3.9272645   0.72580116   424551 
 4812000   0.60621674    -3.928346    -3.928346   -3.2012003  0.037407832    -3.928346   0.72714567   424551 
 4813000    0.6055026   -3.9276955   -3.9276955   -3.2014064  0.036247439   -3.9276955   0.72628907   424551 
 4814000   0.60381012   -3.9260025   -3.9260025   -3.2017436  0.033179793   -3.9260025   0.72425897   424551 
 4815000   0.60451494   -3.9268814   -3.9268814    -3.201777  0.037395419   -3.9268814   0.72510438   424551 
 4816000   0.60507379   -3.9281574   -3.9281574   -3.2023827  0.036310784   -3.9281574   0.72577472   424551 
 4817000   0.60510497   -3.9279265   -3.9279265   -3.2021144  0.026333914   -3.9279265   0.72581211   424551 
 4818000   0.60326221   -3.9260546   -3.9260546   -3.2024529  0.029036917   -3.9260546   0.72360176   424551 
 4819000   0.60484021   -3.9283439   -3.9283439   -3.2028493  0.025322612   -3.9283439   0.72549454   424551 
 4820000   0.60514629   -3.9287367   -3.9287367   -3.2028751  0.030044271   -3.9287367   0.72586168   424551 
 4821000   0.60437815   -3.9276664   -3.9276664   -3.2027261  0.033795751   -3.9276664   0.72494031   424551 
 4822000    0.6047415   -3.9290258   -3.9290258   -3.2036496  0.044574125   -3.9290258   0.72537614   424551 
 4823000    0.6043684   -3.9279077   -3.9279077   -3.2029791  0.038155924   -3.9279077   0.72492862   424551 
 4824000   0.60406596   -3.9269593   -3.9269593   -3.2023935  0.042025885   -3.9269593   0.72456584   424551 
 4825000   0.60404261   -3.9273762   -3.9273762   -3.2028383  0.033697763   -3.9273762   0.72453784   424551 
 4826000   0.60374508   -3.9275171   -3.9275171   -3.2033362  0.020371653   -3.9275171   0.72418095   424551 
 4827000   0.60418581   -3.9281282   -3.9281282   -3.2034186  0.025625626   -3.9281282    0.7247096   424551 
 4828000   0.60499781   -3.9286373   -3.9286373   -3.2029537  0.027883082   -3.9286373   0.72568358   424551 
 4829000   0.60434832   -3.9285148   -3.9285148   -3.2036102  0.033463298   -3.9285148   0.72490452   424551 
 4830000   0.60428597   -3.9287422   -3.9287422   -3.2039124  0.034154807   -3.9287422   0.72482974   424551 
 4831000   0.60393019   -3.9277072   -3.9277072   -3.2033043  0.030655794   -3.9277072   0.72440299   424551 
 4832000   0.60432091   -3.9279465   -3.9279465   -3.2030748  0.036696138   -3.9279465   0.72487165   424551 
 4833000   0.60454594   -3.9296138   -3.9296138   -3.2044722  0.032341616   -3.9296138   0.72514157   424551 
 4834000   0.60517242   -3.9294998   -3.9294998   -3.2036068  0.036640393   -3.9294998   0.72589302   424551 
 4835000   0.60444454   -3.9289603   -3.9289603   -3.2039404  0.037450881   -3.9289603   0.72501994   424551 
 4836000   0.60530078   -3.9299791   -3.9299791   -3.2039321  0.037716374   -3.9299791   0.72604699   424551 
 4837000   0.60509576   -3.9296956   -3.9296956   -3.2038945  0.026267269   -3.9296956   0.72580107   424551 
 4838000   0.60560097     -3.93031     -3.93031    -3.203903  0.024928532     -3.93031   0.72640705   424551 
 4839000   0.60454887    -3.929093    -3.929093   -3.2039479  0.038395826    -3.929093   0.72514509   424551 
 4840000   0.60459763   -3.9290062   -3.9290062   -3.2038027  0.029957724   -3.9290062   0.72520358   424551 
 4841000   0.60424837   -3.9289336   -3.9289336    -3.204149  0.038089522   -3.9289336   0.72478464   424551 
 4842000   0.60458098   -3.9296449   -3.9296449   -3.2044613  0.034028691   -3.9296449    0.7251836   424551 
 4843000   0.60375646   -3.9287998   -3.9287998   -3.2046052  0.021845518   -3.9287998   0.72419461   424551 
 4844000   0.60477188    -3.930286    -3.930286   -3.2048734  0.018797541    -3.930286   0.72541258   424551 
 4845000    0.6052404    -3.930698    -3.930698   -3.2047234  0.024241425    -3.930698   0.72597456   424551 
 4846000    0.6037598     -3.92956     -3.92956   -3.2053614  0.038001683     -3.92956   0.72419861   424551 
 4847000   0.60460467   -3.9298309   -3.9298309   -3.2046189   0.03740254   -3.9298309   0.72521202   424551 
 4848000    0.6064341   -3.9309404   -3.9309404    -3.203534  0.035767601   -3.9309404   0.72740638   424551 
 4849000   0.60446488   -3.9286988   -3.9286988   -3.2036545  0.034722673   -3.9286988   0.72504435   424551 
 4850000   0.60583244   -3.9291459   -3.9291459   -3.2024612  0.037875672   -3.9291459   0.72668471   424551 
 4851000    0.6050528   -3.9295556   -3.9295556   -3.2038061  0.027402593   -3.9295556   0.72574954   424551 
 4852000   0.60528504   -3.9301083   -3.9301083   -3.2040802  0.025201057   -3.9301083   0.72602811   424551 
 4853000   0.60521136   -3.9299303   -3.9299303   -3.2039906  0.034889376   -3.9299303   0.72593972   424551 
 4854000   0.60407481   -3.9284859   -3.9284859   -3.2039094  0.037058581   -3.9284859   0.72457646   424551 
 4855000   0.60425213   -3.9283292   -3.9283292   -3.2035401  0.039360872   -3.9283292   0.72478915   424551 
 4856000   0.60517819   -3.9286361   -3.9286361   -3.2027362  0.038828434   -3.9286361   0.72589995   424551 
 4857000   0.60448325   -3.9283378   -3.9283378   -3.2032714  0.019631365   -3.9283378   0.72506638   424551 
 4858000   0.60426701   -3.9287235   -3.9287235   -3.2039165  0.031175004   -3.9287235     0.724807   424551 
 4859000   0.60630528    -3.931432    -3.931432   -3.2041801  0.031523487    -3.931432   0.72725187   424551 
 4860000   0.60529774   -3.9299618   -3.9299618   -3.2039185  0.033330372   -3.9299618   0.72604335   424551 
 4861000   0.60513823   -3.9293209   -3.9293209   -3.2034689  0.043773883   -3.9293209   0.72585201   424551 
 4862000   0.60319358   -3.9275442   -3.9275442   -3.2040247   0.02387789   -3.9275442   0.72351944   424551 
 4863000   0.60553025    -3.930342    -3.930342   -3.2040198  0.024482252    -3.930342   0.72632223   424551 
 4864000   0.60399537   -3.9288542   -3.9288542    -3.204373  0.026136908   -3.9288542   0.72448117   424551 
 4865000   0.60526407   -3.9295136   -3.9295136   -3.2035106  0.048539324   -3.9295136   0.72600295   424551 
 4866000   0.60710251   -3.9306748   -3.9306748   -3.2024667   0.03073243   -3.9306748   0.72820813   424551 
 4867000   0.60464828   -3.9284211   -3.9284211   -3.2031568  0.031604864   -3.9284211   0.72526432   424551 
 4868000     0.606364   -3.9297175   -3.9297175   -3.2023952  0.036798346   -3.9297175    0.7273223   424551 
 4869000   0.60489198   -3.9286452   -3.9286452   -3.2030886  0.031269494   -3.9286452   0.72555664   424551 
 4870000   0.60327793   -3.9270248   -3.9270248   -3.2034042  0.032990844   -3.9270248   0.72362062   424551 
 4871000    0.6040442   -3.9281294   -3.9281294   -3.2035896   0.04183805   -3.9281294   0.72453974   424551 
 4872000   0.60443559   -3.9281483   -3.9281483   -3.2031391  0.037277298   -3.9281483    0.7250092   424551 
 4873000   0.60547652   -3.9288067   -3.9288067   -3.2025489  0.035756419   -3.9288067   0.72625778   424551 
 4874000     0.604907   -3.9286923   -3.9286923   -3.2031176  0.024596232   -3.9286923   0.72557466   424551 
 4875000   0.60568848   -3.9295807   -3.9295807   -3.2030687  0.032785141   -3.9295807   0.72651203   424551 
 4876000   0.60373774   -3.9276605   -3.9276605   -3.2034884  0.032671592   -3.9276605   0.72417215   424551 
 4877000   0.60480898   -3.9284348   -3.9284348   -3.2029777  0.040510621   -3.9284348   0.72545708   424551 
 4878000   0.60596502   -3.9295786   -3.9295786   -3.2027349  0.020426868   -3.9295786   0.72684373   424551 
 4879000    0.6047065   -3.9286026   -3.9286026   -3.2032684   0.02790188   -3.9286026   0.72533416   424551 
 4880000   0.60443522   -3.9287959   -3.9287959   -3.2037871  0.048748846   -3.9287959   0.72500876   424551 
 4881000   0.60388818   -3.9275395   -3.9275395   -3.2031869  0.043383005   -3.9275395    0.7243526   424551 
 4882000   0.60285443   -3.9274935   -3.9274935   -3.2043808  0.038832309   -3.9274935   0.72311264   424551 
 4883000   0.60451868   -3.9298126   -3.9298126   -3.2047037   0.03477629   -3.9298126   0.72510888   424551 
 4884000   0.60473992   -3.9297198   -3.9297198   -3.2043456  0.036727152   -3.9297198   0.72537425   424551 
 4885000   0.60498442   -3.9298104   -3.9298104   -3.2041429  0.038565354   -3.9298104   0.72566751   424551 
 4886000   0.60582888   -3.9312739   -3.9312739   -3.2045935  0.022031191   -3.9312739   0.72668043   424551 
 4887000   0.60590229   -3.9313422   -3.9313422   -3.2045738  0.035215371   -3.9313422   0.72676849   424551 
 4888000   0.60492143    -3.929603    -3.929603    -3.204011  0.041285613    -3.929603   0.72559197   424551 
 4889000   0.60338219   -3.9277853   -3.9277853   -3.2040396   0.04412806   -3.9277853   0.72374568   424551 
 4890000   0.60457935   -3.9288136   -3.9288136   -3.2036319  0.042048696   -3.9288136   0.72518165   424551 
 4891000    0.6054038   -3.9302465   -3.9302465    -3.204076  0.030158366   -3.9302465   0.72617055   424551 
 4892000   0.60493251     -3.92918     -3.92918   -3.2035748  0.029304114     -3.92918   0.72560526   424551 
 4893000   0.60534883   -3.9292224   -3.9292224   -3.2031178  0.035275106   -3.9292224   0.72610463   424551 
 4894000   0.60509077   -3.9291126   -3.9291126   -3.2033175  0.042077437   -3.9291126   0.72579508   424551 
 4895000   0.60641741   -3.9303307   -3.9303307   -3.2029444  0.027456915   -3.9303307   0.72738636   424551 
 4896000   0.60603593   -3.9299686   -3.9299686   -3.2030399  0.022836335   -3.9299686   0.72692879   424551 
 4897000   0.60480337   -3.9285864   -3.9285864    -3.203136  0.046951795   -3.9285864   0.72545036   424551 
 4898000   0.60474518   -3.9290239   -3.9290239   -3.2036434  0.037717075   -3.9290239   0.72538055   424551 
 4899000   0.60474452   -3.9296218   -3.9296218    -3.204242  0.045686065   -3.9296218   0.72537976   424551 
 4900000   0.60412656   -3.9287521   -3.9287521   -3.2041136  0.041206843   -3.9287521   0.72463853   424551 
 4901000     0.602641    -3.927271    -3.927271   -3.2044144  0.040197609    -3.927271   0.72285663   424551 
 4902000   0.60433783     -3.92942     -3.92942   -3.2045281   0.03630719     -3.92942   0.72489195   424551 
 4903000   0.60353447   -3.9283789   -3.9283789   -3.2044506   0.03571379   -3.9283789   0.72392833   424551 
 4904000   0.60315914   -3.9277469   -3.9277469   -3.2042688  0.023290119   -3.9277469   0.72347813   424551 
 4905000   0.60328919   -3.9281911   -3.9281911    -3.204557  0.027497161   -3.9281911   0.72363412   424551 
 4906000   0.60328374   -3.9273974   -3.9273974   -3.2037698  0.031706835   -3.9273974   0.72362759   424551 
 4907000   0.60417853   -3.9288709   -3.9288709   -3.2041701  0.027377237   -3.9288709   0.72470087   424551 
 4908000   0.60441256   -3.9286844   -3.9286844   -3.2037028  0.033643803   -3.9286844   0.72498159   424551 
 4909000   0.60401238   -3.9275656   -3.9275656   -3.2030641  0.015750311   -3.9275656   0.72450157   424551 
 4910000   0.60556267   -3.9296026   -3.9296026   -3.2032415  0.033289257   -3.9296026   0.72636111   424551 
 4911000   0.60461053    -3.928864    -3.928864   -3.2036449  0.038552776    -3.928864   0.72521904   424551 
 4912000   0.60472461   -3.9289315   -3.9289315   -3.2035756  0.026727587   -3.9289315   0.72535588   424551 
 4913000    0.6042511   -3.9284096   -3.9284096   -3.2036217  0.031314371   -3.9284096   0.72478791   424551 
 4914000   0.60494552   -3.9288279   -3.9288279    -3.203207  0.041125949   -3.9288279   0.72562086   424551 
 4915000   0.60432267   -3.9284227   -3.9284227    -3.203549  0.035311545   -3.9284227   0.72487377   424551 
 4916000   0.60494719   -3.9291474   -3.9291474   -3.2035245  0.027474645   -3.9291474   0.72562286   424551 
 4917000   0.60537755   -3.9297642   -3.9297642   -3.2036252   0.03557126   -3.9297642   0.72613907   424551 
 4918000   0.60434358    -3.928544    -3.928544   -3.2036452   0.02788506    -3.928544   0.72489884   424551 
 4919000   0.60530333   -3.9296319   -3.9296319   -3.2035818  0.022214751   -3.9296319   0.72605005   424551 
 4920000   0.60559986   -3.9296678   -3.9296678   -3.2032621  0.029370557   -3.9296678   0.72640572   424551 
 4921000   0.60536613   -3.9296295   -3.9296295   -3.2035041  0.023099653   -3.9296295   0.72612537   424551 
 4922000   0.60496076   -3.9293923   -3.9293923   -3.2037532  0.041816475   -3.9293923   0.72563914   424551 
 4923000   0.60507993    -3.929682    -3.929682   -3.2038999   0.02620659    -3.929682   0.72578209   424551 
 4924000   0.60383303   -3.9276028   -3.9276028   -3.2033163  0.031300515   -3.9276028   0.72428645   424551 
 4925000   0.60562042   -3.9307189   -3.9307189   -3.2042885  0.033866439   -3.9307189   0.72643039   424551 
 4926000   0.60532681   -3.9305901   -3.9305901   -3.2045119  0.032972449   -3.9305901   0.72607821   424551 
 4927000   0.60515515   -3.9311084   -3.9311084   -3.2052361  0.031472481   -3.9311084    0.7258723   424551 
 4928000   0.60486811   -3.9302821   -3.9302821   -3.2047541  0.040177665   -3.9302821   0.72552801   424551 
 4929000   0.60458665   -3.9299439   -3.9299439   -3.2047535  0.035064948   -3.9299439    0.7251904   424551 
 4930000   0.60417852   -3.9292448   -3.9292448    -3.204544   0.02929593   -3.9292448   0.72470086   424551 
 4931000   0.60423815   -3.9295059   -3.9295059   -3.2047336  0.036964899   -3.9295059   0.72477238   424551 
 4932000   0.60472994   -3.9297252   -3.9297252   -3.2043629  0.030762526   -3.9297252   0.72536228   424551 
 4933000   0.60330122   -3.9277829   -3.9277829   -3.2041344  0.035042729   -3.9277829   0.72364855   424551 
 4934000   0.60459241   -3.9302946   -3.9302946   -3.2050972  0.046302761   -3.9302946   0.72519732   424551 
 4935000   0.60401541   -3.9290864   -3.9290864   -3.2045812  0.032676865   -3.9290864   0.72450521   424551 
 4936000   0.60331671   -3.9284407   -3.9284407   -3.2047736   0.04233058   -3.9284407   0.72366713   424551 
 4937000   0.60289372    -3.928091    -3.928091   -3.2049313  0.021227063    -3.928091   0.72315977   424551 
 4938000   0.60383066   -3.9301704   -3.9301704   -3.2058868  0.023623416   -3.9301704    0.7242836   424551 
 4939000   0.60361333   -3.9299464   -3.9299464   -3.2059234  0.023658081   -3.9299464   0.72402293   424551 
 4940000   0.60370929   -3.9301104   -3.9301104   -3.2059724  0.026357599   -3.9301104   0.72413803   424551 
 4941000   0.60464036   -3.9308178   -3.9308178    -3.205563  0.034209251   -3.9308178   0.72525483   424551 
 4942000   0.60302931   -3.9297492   -3.9297492   -3.2064268  0.024675468   -3.9297492    0.7233224   424551 
 4943000    0.6022178   -3.9289234   -3.9289234   -3.2065744  0.036788793   -3.9289234   0.72234901   424551 
 4944000   0.60385421   -3.9313189   -3.9313189    -3.207007  0.025822786   -3.9313189   0.72431185   424551 
 4945000   0.60439708   -3.9310624   -3.9310624   -3.2060994   0.04263247   -3.9310624   0.72496302   424551 
 4946000   0.60512451   -3.9307796   -3.9307796   -3.2049441  0.034029601   -3.9307796   0.72583556   424551 
 4947000    0.6050855    -3.929993    -3.929993   -3.2042043  0.041305985    -3.929993   0.72578877   424551 
 4948000   0.60620942   -3.9310902   -3.9310902   -3.2039533  0.035982604   -3.9310902   0.72713688   424551 
 4949000   0.60469657   -3.9297432   -3.9297432    -3.204421  0.054347589   -3.9297432   0.72532224   424551 
 4950000    0.6045348   -3.9282651   -3.9282651   -3.2031369  0.038532028   -3.9282651   0.72512821   424551 
 4951000   0.60483779   -3.9288268   -3.9288268   -3.2033352  0.028454882   -3.9288268   0.72549164   424551 
 4952000   0.60426819   -3.9282064   -3.9282064    -3.203398  0.025811986   -3.9282064   0.72480841   424551 
 4953000   0.60510133   -3.9292002   -3.9292002   -3.2033924  0.034203664   -3.9292002   0.72580774   424551 
 4954000   0.60491065   -3.9292395   -3.9292395   -3.2036604   0.02551736   -3.9292395   0.72557903   424551 
 4955000   0.60410902   -3.9285996   -3.9285996   -3.2039821  0.040493875   -3.9285996   0.72461749   424551 
 4956000   0.60445423   -3.9295427   -3.9295427   -3.2045111  0.028980621   -3.9295427   0.72503157   424551 
 4957000   0.60271764   -3.9275623   -3.9275623   -3.2046137  0.019998098   -3.9275623   0.72294856   424551 
 4958000   0.60257664   -3.9269833   -3.9269833   -3.2042039  0.029058788   -3.9269833   0.72277943   424551 
 4959000   0.60290777   -3.9278959   -3.9278959   -3.2047193   0.02618404   -3.9278959   0.72317661   424551 
 4960000   0.60412084   -3.9290079   -3.9290079   -3.2043762  0.042518384   -3.9290079   0.72463167   424551 
 4961000   0.60520013   -3.9306683   -3.9306683   -3.2047421  0.035943153   -3.9306683   0.72592626   424551 
 4962000   0.60358398   -3.9279261   -3.9279261   -3.2039384  0.029150763   -3.9279261   0.72398771   424551 
 4963000   0.60358634    -3.928772    -3.928772   -3.2047814   0.02079295    -3.928772   0.72399055   424551 
 4964000   0.60451923   -3.9292882   -3.9292882   -3.2041787  0.037473186   -3.9292882   0.72510954   424551 
 4965000   0.60336896   -3.9271102   -3.9271102   -3.2033804  0.034202937   -3.9271102    0.7237298   424551 
 4966000   0.60421817   -3.9287892   -3.9287892   -3.2040408  0.032840453   -3.9287892   0.72474842   424551 
 4967000   0.60476699   -3.9289299   -3.9289299   -3.2035232  0.062294605   -3.9289299   0.72540672   424551 
 4968000   0.60430786   -3.9285134   -3.9285134   -3.2036574  0.040446795   -3.9285134     0.724856   424551 
 4969000   0.60484903   -3.9293498   -3.9293498   -3.2038447  0.032251134   -3.9293498   0.72550512   424551 
 4970000   0.60492905   -3.9298783   -3.9298783   -3.2042772  0.038559074   -3.9298783   0.72560111   424551 
 4971000   0.60356121   -3.9283135   -3.9283135   -3.2043531  0.026196603   -3.9283135   0.72396041   424551 
 4972000   0.60294202    -3.927176    -3.927176   -3.2039583   0.03747426    -3.927176    0.7232177   424551 
 4973000   0.60318036   -3.9282028   -3.9282028   -3.2046992  0.035734132   -3.9282028   0.72350359   424551 
 4974000   0.60426312   -3.9301519   -3.9301519   -3.2053495  0.038857672   -3.9301519   0.72480234   424551 
 4975000   0.60271484   -3.9274469   -3.9274469   -3.2045017  0.030047574   -3.9274469   0.72294521   424551 
 4976000   0.60241211   -3.9270741   -3.9270741    -3.204492  0.033089889   -3.9270741   0.72258208   424551 
 4977000   0.60313342   -3.9285409   -3.9285409   -3.2050936  0.047471383   -3.9285409   0.72344728   424551 
 4978000   0.60435379   -3.9293776   -3.9293776   -3.2044665  0.038570557   -3.9293776   0.72491109   424551 
 4979000   0.60356772   -3.9283121   -3.9283121   -3.2043439  0.038856112   -3.9283121   0.72396822   424551 
 4980000   0.60481934   -3.9284029   -3.9284029   -3.2029334  0.045348472   -3.9284029   0.72546951   424551 
 4981000    0.6057267   -3.9300422   -3.9300422   -3.2034844  0.034916782   -3.9300422   0.72655787   424551 
 4982000   0.60548302   -3.9301911   -3.9301911   -3.2039256  0.025419218   -3.9301911   0.72626558   424551 
 4983000   0.60477184   -3.9289094   -3.9289094   -3.2034969  0.022055801   -3.9289094   0.72541253   424551 
 4984000   0.60436437    -3.928049    -3.928049   -3.2031252  0.032022546    -3.928049   0.72492378   424551 
 4985000   0.60523975   -3.9299864   -3.9299864   -3.2040126  0.025359626   -3.9299864   0.72597378   424551 
 4986000   0.60405786   -3.9279407   -3.9279407   -3.2033846  0.045523148   -3.9279407   0.72455613   424551 
 4987000   0.60456381   -3.9287515   -3.9287515   -3.2035885  0.027033422   -3.9287515   0.72516301   424551 
 4988000   0.60474753    -3.928419    -3.928419   -3.2030357  0.043120449    -3.928419   0.72538337   424551 
 4989000    0.6034278   -3.9268077   -3.9268077   -3.2030073  0.026061502   -3.9268077   0.72380038   424551 
 4990000   0.60616384   -3.9303571   -3.9303571   -3.2032749   0.02017331   -3.9303571   0.72708221   424551 
 4991000   0.60486872   -3.9286093   -3.9286093   -3.2030806  0.034227112   -3.9286093   0.72552874   424551 
 4992000   0.60454691   -3.9282422   -3.9282422   -3.2030995  0.027997937   -3.9282422   0.72514273   424551 
 4993000   0.60607367   -3.9301124   -3.9301124   -3.2031383   0.04050515   -3.9301124   0.72697405   424551 
 4994000   0.60593675   -3.9301969   -3.9301969   -3.2033871  0.041251558   -3.9301969   0.72680982   424551 
 4995000   0.60606807   -3.9300039   -3.9300039   -3.2030365  0.028269183   -3.9300039   0.72696734   424551 
 4996000   0.60565506    -3.929294    -3.929294    -3.202822  0.036589047    -3.929294   0.72647194   424551 
 4997000   0.60434595   -3.9284469   -3.9284469   -3.2035452  0.015410101   -3.9284469   0.72490169   424551 
 4998000   0.60547025   -3.9295864   -3.9295864   -3.2033361   0.03883452   -3.9295864   0.72625026   424551 
 4999000   0.60547004   -3.9290288   -3.9290288   -3.2027788  0.026866064   -3.9290288   0.72625001   424551 
 5000000   0.60377784   -3.9263991   -3.9263991   -3.2021788  0.025190473   -3.9263991   0.72422025   424551 
Loop time of 20730.1 on 288 procs for 5000000 steps with 424551 atoms

Performance: 104196.247 tau/day, 241.195 timesteps/s
91.0% CPU use with 288 MPI tasks x 1 OpenMP threads

MPI task timing breakdown:
Section |  min time  |  avg time  |  max time  |%varavg|  %CPU | %total
-----------------------------------------------------------------------
Pair    | 220.61     | 2186.4     | 6574.2     |2063.5 |  95.0 | 10.55
Bond    | 3.1761     | 3.4123     | 3.6427     |   4.8 | 100.0 |  0.02
Neigh   | 519.34     | 3181.7     | 8328.4     |2160.5 |  98.9 | 15.35
Comm    | 3212.2     | 8748.6     | 16989      |3389.9 |  89.4 | 42.20
Output  | 604.02     | 625.73     | 654.3      |  80.0 |  88.3 |  3.02
Modify  | 1206.2     | 5744.5     | 10995      |3492.4 |  90.1 | 27.71
Other   |            | 239.7      |            |       |       |  1.16

Nlocal:        1474.14 ave        4197 max         307 min
Histogram: 23 19 109 110 9 8 4 1 2 3
Nghost:        6204.32 ave       10760 max        1070 min
Histogram: 19 8 15 22 32 43 114 30 4 1
Neighs:        34253.1 ave      128531 max         883 min
Histogram: 43 32 101 89 14 0 5 2 1 1

Total # of neighbors = 9864881
Ave neighs/atom = 23.236033
Ave special neighs/atom = 0.0000000
Neighbor list builds = 497448
Dangerous builds = 451552

Total wall time: 5:45:35
