LAMMPS (24 Dec 2020)
OMP_NUM_THREADS environment is not set. Defaulting to 1 thread. (src/comm.cpp:94)
  using 1 OpenMP thread(s) per MPI task
# Simple rigid body system
# needed variables: startTemp, temp

units		lj
atom_style	full
dimension 	3
boundary	p p f
pair_style	lj/cut/opt 2.5

variable 	gcmcdisplace	equal 0
variable 	sigma		equal 1.0
variable 	epsilon 	equal 1.0


read_restart	restart.dat.3000000
Reading restart file ...
  restart file = 24 Dec 2020, LAMMPS = 24 Dec 2020
WARNING: Restart file used different # of processors: 48 vs. 192 (src/read_restart.cpp:697)
  restoring atom style full from restart
  orthogonal box = (0.0000000 0.0000000 0.0000000) to (80.000000 80.000000 160.00000)
  6 by 4 by 8 MPI processor grid
  restoring pair style lj/cut/opt from restart
  439061 atoms
Finding 1-2 1-3 1-4 neighbors ...
  special bond factors lj:    0        0        0       
  special bond factors coul:  0        0        0       
     0 = max # of 1-2 neighbors
     0 = max # of 1-3 neighbors
     0 = max # of 1-4 neighbors
     1 = max # of special neighbors
  special bonds CPU = 1.417 seconds
  read_restart CPU = 1.719 seconds

mass		1 1.0
mass		2 1.0
mass		3 1.0


group		solvent type 1
439061 atoms in group solvent


neighbor 	0.4 bin

pair_coeff	1 1 1.0 1.0
pair_coeff	2 2 0.0 0.0
pair_coeff	3 3 0.0 0.0
pair_coeff	2 3 0.0 0.0
pair_coeff	1 2*3 0.0 0.0

pair_modify 	shift yes


balance 	1.05 shift z 10 1.05
Balancing ...
Neighbor list info ...
  update every 1 steps, delay 10 steps, check yes
  max neighbors/atom: 2000, page size: 100000
  master list distance cutoff = 2.9
  ghost atom cutoff = 2.9
  binsize = 1.45, bins = 56 56 111
  1 neighbor lists, perpetual/occasional/extra = 1 0 0
  (1) pair lj/cut/opt, perpetual
      attributes: half, newton on
      pair build: half/bin/newton
      stencil: half/bin/3d/newton
      bin: standard
 rebalancing time: 0.025 seconds
  iteration count = 5
  initial/final maximal load/proc = 3162.0000 2575.0000
  initial/final imbalance factor  = 1.3827327 1.1260394
  x cuts: 0.0000000 0.16666667 0.33333333 0.50000000 0.66666667 0.83333333 1.0000000
  y cuts: 0.0000000 0.25000000 0.50000000 0.75000000 1.0000000
  z cuts: 0.0000000 0.097656250 0.18359375 0.27734375 0.37890625 0.47656250 0.57031250 0.67968750 1.0000000


####################### WALLS ###########################


variable       epsilonWall equal 2*${epsilon}
variable       epsilonWall equal 2*1

variable       cutoffTop   equal   0.7147*${sigma}
variable       cutoffTop   equal   0.7147*1

variable       cutoffLow   equal   3*${sigma}
variable       cutoffLow   equal   3*1


fix            topWall all wall/lj93 zhi EDGE                ${epsilonWall} ${sigma} ${cutoffTop} units box
fix            topWall all wall/lj93 zhi EDGE                2 ${sigma} ${cutoffTop} units box
fix            topWall all wall/lj93 zhi EDGE                2 1 ${cutoffTop} units box
fix            topWall all wall/lj93 zhi EDGE                2 1 0.7147 units box

fix            lowWall all wall/lj93 zlo EDGE                ${epsilonWall} ${sigma} ${cutoffLow} units box
fix            lowWall all wall/lj93 zlo EDGE                2 ${sigma} ${cutoffLow} units box
fix            lowWall all wall/lj93 zlo EDGE                2 1 ${cutoffLow} units box
fix            lowWall all wall/lj93 zlo EDGE                2 1 3 units box


###################### COMPUTES ##########################

compute        bin1 solvent chunk/atom bin/1d z upper 1.0



######################	FIXES ############################


fix 		peclet solvent ave/chunk 1000 1 1000 bin1 density/number norm 		 none ave one file density.profile

fix 		 temp solvent ave/chunk 1000 1 1000 bin1 temp norm none ave one file temp.profile

fix 		2 solvent nve

## Thermostat


region		regthermo block EDGE EDGE EDGE EDGE 0 20

group 		thermo dynamic solvent region regthermo every 1000
dynamic group thermo defined

fix 		3 thermo langevin ${startTemp} ${temp} 10 156453
fix 		3 thermo langevin 1.0 ${temp} 10 156453
fix 		3 thermo langevin 1.0 1.0 10 156453


## Evaporation

region		regevap block EDGE EDGE EDGE EDGE 140 158
fix 		gcmc solvent gcmc 100 100 0 1 780493 ${temp} ${mu} ${gcmcdisplace} region regevap
fix 		gcmc solvent gcmc 100 100 0 1 780493 1.0 ${mu} ${gcmcdisplace} region regevap
fix 		gcmc solvent gcmc 100 100 0 1 780493 1.0 -3.2 ${gcmcdisplace} region regevap
fix 		gcmc solvent gcmc 100 100 0 1 780493 1.0 -3.2 0 region regevap


#### Load balancing

fix 		bal all balance 1000 1.05 shift z 10 1.05

############### Diagnostics and computes ###################
#compute 	com cube	  rigid/local	1 mol x y z
#compute 	quat cube	  rigid/local	1 mol quatw quati quatj quatk

thermo 		1000
thermo_style 	custom step temp epair etotal press pe ke atoms

dump		1 all custom 100000 dump.lammpstrj id mol type x y z
dump 		2 all image 10000 image.*.png type type
dump 		3 all movie 1000 movie.avi type type
#dump 		com cube local 1000 dump.*.xyz c_com[*]
#dump		quat cube      local 1000 dump.*.quat c_quat[*]


restart 	1000000 restart.dat
timestep 	0.005
timer 		full
New timer settings: style=full  mode=nosync  timeout=off


run		5000000
Per MPI rank memory allocation (min/avg/max) = 9.923 | 9.986 | 10.01 Mbytes
Step Temp E_pair TotEng Press PotEng KinEng Atoms 
 3000000     1.016004   -3.1352716   -1.6112691  0.079025997   -3.1352716    1.5240025   439061 
 3001000    1.0150734   -3.1348273    -1.612082  0.073912019   -3.1348273    1.5227453   439021 
 3002000     1.015078   -3.1365692   -1.6136816  0.073849183   -3.1365692    1.5228876   438982 
 3003000    1.0136682   -3.1351859   -1.6141986  0.072802294   -3.1351859    1.5209873   438920 
 3004000    1.0144475     -3.13668    -1.614395  0.074059711     -3.13668     1.522285   438883 
 3005000    1.0145973   -3.1372681   -1.6145884  0.071301616   -3.1372681    1.5226797   438834 
 3006000    1.0150386   -3.1378737   -1.6144345  0.071587334   -3.1378737    1.5234392   438806 
 3007000    1.0140471   -3.1348955   -1.6126773  0.080244862   -3.1348955    1.5222182   438729 
 3008000    1.0149364   -3.1378879   -1.6141124  0.075979209   -3.1378879    1.5237755   438665 
 3009000    1.0145623    -3.138537   -1.6151878  0.072384831    -3.138537    1.5233492   438626 
 3010000    1.0141896   -3.1383181   -1.6153583  0.077179176   -3.1383181    1.5229598   438577 
 3011000    1.0143394   -3.1382811   -1.6148846  0.072910967   -3.1382811    1.5233965   438516 
 3012000    1.0144095   -3.1385412   -1.6148725  0.073288525   -3.1385412    1.5236687   438468 
 3013000    1.0135268   -3.1374026   -1.6149487   0.08116385   -3.1374026    1.5224539   438436 
 3014000    1.0146477   -3.1397854   -1.6155852  0.079892029   -3.1397854    1.5242002   438418 
 3015000    1.0136808   -3.1379223   -1.6150426  0.068675362   -3.1379223    1.5228797   438380 
 3016000     1.012042   -3.1359806   -1.6152991  0.075277982   -3.1359806    1.5206814   438304 
 3017000    1.0135717    -3.139933   -1.6167967  0.073197018    -3.139933    1.5231362   438259 
 3018000    1.0129583   -3.1403748   -1.6179971  0.073997157   -3.1403748    1.5223777   438212 
 3019000    1.0120344    -3.138136   -1.6171225  0.070203794    -3.138136    1.5210135   438205 
 3020000    1.0137264   -3.1414353   -1.6177501  0.074074586   -3.1414353    1.5236852   438168 
 3021000    1.0127939   -3.1400046   -1.6174743  0.076339724   -3.1400046    1.5225303   438097 
 3022000     1.011663   -3.1385989    -1.617543  0.073271066   -3.1385989    1.5210559   438032 
 3023000    1.0112372   -3.1386474   -1.6180581  0.071417005   -3.1386474    1.5205892   437982 
 3024000    1.0111115   -3.1391736   -1.6184436  0.075996024   -3.1391736      1.52073   437887 
 3025000    1.0117664   -3.1410272   -1.6191696  0.068187859   -3.1410272    1.5218576   437846 
 3026000    1.0103954   -3.1401045   -1.6200002  0.075680589   -3.1401045    1.5201043   437757 
 3027000    1.0103187   -3.1387618   -1.6185784   0.07519879   -3.1387618    1.5201834   437701 
 3028000      1.01043   -3.1402062   -1.6198101  0.073682329   -3.1402062     1.520396   437688 
 3029000    1.0101154   -3.1407203   -1.6206587  0.072372762   -3.1407203    1.5200616   437648 
 3030000    1.0092753   -3.1394458   -1.6205651  0.070163963   -3.1394458    1.5188806   437624 
 3031000    1.0095452   -3.1389517   -1.6194703  0.073616109   -3.1389517    1.5194813   437568 
 3032000    1.0086799   -3.1383104   -1.6199859   0.07250143   -3.1383104    1.5183245   437526 
 3033000    1.0078267   -3.1372296   -1.6199916    0.0723666   -3.1372296     1.517238   437469 
 3034000    1.0089321   -3.1391739   -1.6202093  0.068260995   -3.1391739    1.5189646   437451 
 3035000      1.00979   -3.1404236   -1.6199449  0.074196168   -3.1404236    1.5204786   437387 
 3036000    1.0098904   -3.1406356   -1.6198875  0.068624544   -3.1406356    1.5207481   437353 
 3037000    1.0076302   -3.1387507   -1.6210487  0.073775877   -3.1387507     1.517702   437250 
 3038000    1.0094199   -3.1422108    -1.621601  0.075440362   -3.1422108    1.5206097   437189 
 3039000     1.007262   -3.1387165   -1.6211283  0.074646856   -3.1387165    1.5175882   437123 
 3040000    1.0080066   -3.1403955   -1.6215812  0.071091685   -3.1403955    1.5188143   437093 
 3041000    1.0079144   -3.1407872   -1.6219868  0.070849566   -3.1407872    1.5188004   437057 
 3042000    1.0085131   -3.1417293   -1.6219642  0.066083344   -3.1417293    1.5197651   437039 
 3043000    1.0084478   -3.1409919   -1.6212486  0.071718239   -3.1409919    1.5197433   437017 
 3044000    1.0084095   -3.1410136   -1.6212793  0.068438702   -3.1410136    1.5197342   437003 
 3045000    1.0092145   -3.1424369   -1.6213259  0.073645717   -3.1424369     1.521111   436956 
 3046000    1.0072674   -3.1418296   -1.6234101  0.073314367   -3.1418296    1.5184195   436886 
 3047000    1.0082991    -3.142913   -1.6228303  0.074099967    -3.142913    1.5200826   436855 
 3048000    1.0075189   -3.1424174   -1.6233058  0.074819344   -3.1424174    1.5191116   436796 
 3049000     1.006757   -3.1414467   -1.6234074  0.070942932   -3.1414467    1.5180393   436774 
 3050000    1.0073462   -3.1432688   -1.6242055  0.074908016   -3.1432688    1.5190633   436735 
 3051000    1.0067444   -3.1412225   -1.6228233  0.072880144   -3.1412225    1.5183992   436665 
 3052000    1.0075865   -3.1429908   -1.6230744  0.069264754   -3.1429908    1.5199164   436594 
 3053000    1.0069517   -3.1444064   -1.6251692  0.071179179   -3.1444064    1.5192372   436514 
 3054000    1.0048621   -3.1416617   -1.6253721  0.072204156   -3.1416617    1.5162895   436455 
 3055000    1.0059763   -3.1437433    -1.625616   0.07185371   -3.1437433    1.5181273   436410 
 3056000    1.0072164   -3.1449122   -1.6249413  0.073541436   -3.1449122    1.5199708   436418 
 3057000    1.0078403   -3.1439654   -1.6229902  0.074238429   -3.1439654    1.5209751   436400 
 3058000    1.0062177    -3.142322   -1.6235486  0.072520561    -3.142322    1.5187735   436329 
 3059000    1.0063534   -3.1424311   -1.6233413   0.07205499   -3.1424311    1.5190897   436297 
 3060000    1.0071464   -3.1436905   -1.6233689  0.068870452   -3.1436905    1.5203216   436287 
 3061000    1.0083357   -3.1445402   -1.6222383   0.06866833   -3.1445402    1.5223019   436234 
 3062000    1.0070217   -3.1431586   -1.6227151  0.070357796   -3.1431586    1.5204435   436198 
 3063000    1.0065626    -3.142379   -1.6226322  0.075646684    -3.142379    1.5197468   436199 
 3064000    1.0058654   -3.1420242   -1.6232847   0.07195391   -3.1420242    1.5187394   436186 
 3065000    1.0050762   -3.1428203   -1.6250776  0.070278352   -3.1428203    1.5177428   436130 
 3066000    1.0055182   -3.1426556   -1.6240747  0.069273153   -3.1426556    1.5185809   436081 
 3067000     1.005295   -3.1419348   -1.6236945  0.071563101   -3.1419348    1.5182403   436082 
 3068000    1.0055015   -3.1423172     -1.62357  0.072888829   -3.1423172    1.5187471   436026 
 3069000    1.0045743    -3.141002    -1.623464  0.070846242    -3.141002    1.5175381   435971 
 3070000    1.0056519   -3.1445575    -1.625158  0.069071141   -3.1445575    1.5193995   435904 
 3071000    1.0039012   -3.1423228   -1.6253318  0.068757555   -3.1423228     1.516991   435836 
 3072000    1.0035634   -3.1412155    -1.624568  0.068857359   -3.1412155    1.5166475   435788 
 3073000    1.0035335   -3.1415608    -1.624753  0.068262267   -3.1415608    1.5168078   435729 
 3074000    1.0041549   -3.1428942   -1.6249834  0.069524222   -3.1428942    1.5179108   435682 
 3075000    1.0051964   -3.1445213    -1.624977  0.072830786   -3.1445213    1.5195443   435665 
 3076000     1.002982   -3.1433636   -1.6269648  0.067117661   -3.1433636    1.5163988   435607 
 3077000    1.0034003    -3.144739   -1.6274849  0.072246831    -3.144739    1.5172541   435543 
 3078000    1.0023689   -3.1435648   -1.6277242  0.072432468   -3.1435648    1.5158407   435501 
 3079000    1.0024958   -3.1425741   -1.6264128  0.068681049   -3.1425741    1.5161613   435464 
 3080000    1.0019609   -3.1424914   -1.6270381  0.072706568   -3.1424914    1.5154533   435435 
 3081000    1.0044952   -3.1461182   -1.6266852  0.067729596   -3.1461182     1.519433   435393 
 3082000    1.0032949   -3.1439526   -1.6261679  0.075994429   -3.1439526    1.5177847   435345 
 3083000    1.0023058   -3.1438863   -1.6273575  0.064556097   -3.1438863    1.5165288   435276 
 3084000    1.0035405   -3.1463808   -1.6278198  0.069690637   -3.1463808     1.518561   435229 
 3085000    1.0041491   -3.1475348   -1.6279657  0.061367556   -3.1475348    1.5195692   435204 
 3086000    1.0023684   -3.1474633   -1.6305296  0.070259279   -3.1474633    1.5169336   435187 
 3087000    1.0026678   -3.1475322   -1.6298909  0.068373053   -3.1475322    1.5176413   435114 
 3088000    1.0039984   -3.1495755   -1.6298782  0.068509153   -3.1495755    1.5196972   435102 
 3089000    1.0019431   -3.1479542   -1.6313714  0.062610901   -3.1479542    1.5165828   435103 
 3090000    1.0033411    -3.149277    -1.630463  0.072598694    -3.149277     1.518814   435070 
 3091000    1.0004058   -3.1451006   -1.6305872  0.071036969   -3.1451006    1.5145134   435029 
 3092000    1.0020183   -3.1480645   -1.6310506  0.074332328   -3.1480645    1.5170139   435012 
 3093000    1.0020656   -3.1477026   -1.6305369  0.070986148   -3.1477026    1.5171657   434989 
 3094000    1.0028331   -3.1491619   -1.6306701  0.072350733   -3.1491619    1.5184917   434942 
 3095000    1.0038217   -3.1516729    -1.631485  0.073214582   -3.1516729    1.5201879   434885 
 3096000    1.0038687     -3.15097   -1.6303963  0.076308217     -3.15097    1.5205738   434795 
 3097000    1.0031433   -3.1503898   -1.6306527  0.071362344   -3.1503898    1.5197371   434720 
 3098000    1.0003102   -3.1471183   -1.6316104  0.075946852   -3.1471183    1.5155079   434702 
 3099000    1.0013313   -3.1493781   -1.6321941  0.071298746   -3.1493781     1.517184   434665 
 3100000    1.0023148   -3.1524096   -1.6338053  0.072462329   -3.1524096    1.5186042   434685 
 3101000    1.0022818   -3.1523202   -1.6336157  0.063432071   -3.1523202    1.5187045   434642 
 3102000    1.0012791   -3.1514846   -1.6341564  0.069539035   -3.1514846    1.5173283   434601 
 3103000    1.0015891   -3.1514124   -1.6334815  0.072448747   -3.1514124    1.5179308   434563 
 3104000    1.0013687   -3.1517743   -1.6339575  0.071880351   -3.1517743    1.5178168   434500 
 3105000    1.0008171   -3.1518033   -1.6345187  0.068020837   -3.1518033    1.5172846   434413 
 3106000   0.99994065   -3.1502091   -1.6341416  0.072690415   -3.1502091    1.5160675   434381 
 3107000   0.99982319   -3.1500068     -1.63388  0.067059107   -3.1500068    1.5161267   434313 
 3108000   0.99784896   -3.1490573   -1.6357465  0.071593721   -3.1490573    1.5133107   434262 
 3109000   0.99941055   -3.1502592   -1.6344929   0.07003371   -3.1502592    1.5157663   434237 
 3110000   0.99958333    -3.151506   -1.6352927  0.070824462    -3.151506    1.5162134   434184 
 3111000   0.99904368   -3.1515991   -1.6360856  0.065591799   -3.1515991    1.5155135   434150 
 3112000   0.99823716   -3.1496112    -1.635213  0.068412399   -3.1496112    1.5143982   434119 
 3113000   0.99808411   -3.1504576   -1.6361277  0.070930425   -3.1504576    1.5143299   434072 
 3114000   0.99816719   -3.1503728   -1.6357738  0.067790923   -3.1503728     1.514599   434031 
 3115000   0.99703306   -3.1479527   -1.6350013  0.069518355   -3.1479527    1.5129513   434010 
 3116000   0.99782291   -3.1484153   -1.6339583  0.070058014   -3.1484153    1.5144569   433922 
 3117000   0.99802949   -3.1491008   -1.6340894  0.067795588   -3.1491008    1.5150114   433853 
 3118000   0.99760754   -3.1489622    -1.634319  0.064613702   -3.1489622    1.5146432   433775 
 3119000   0.99829666   -3.1500368   -1.6342774  0.070443445   -3.1500368    1.5157594   433755 
 3120000   0.99695584   -3.1497954   -1.6359532  0.066468698   -3.1497954    1.5138422   433721 
 3121000   0.99717846   -3.1496363   -1.6353967  0.064823917   -3.1496363    1.5142396   433704 
 3122000   0.99692658   -3.1506095   -1.6365115  0.063751055   -3.1506095     1.514098   433635 
 3123000   0.99773411   -3.1522697   -1.6367461  0.065657674   -3.1522697    1.5155236   433578 
 3124000   0.99597572   -3.1499554    -1.636834  0.068662777   -3.1499554    1.5131214   433501 
 3125000   0.99547828   -3.1502366    -1.637686  0.070321006   -3.1502366    1.5125506   433448 
 3126000   0.99489151   -3.1494375   -1.6376842  0.061844201   -3.1494375    1.5117532   433421 
 3127000   0.99695751   -3.1511653   -1.6361749  0.063960992   -3.1511653    1.5149904   433393 
 3128000   0.99596194   -3.1506248   -1.6369411  0.068031563   -3.1506248    1.5136836   433334 
 3129000   0.99514627   -3.1495982   -1.6370461   0.07045878   -3.1495982    1.5125521   433303 
 3130000   0.99642024   -3.1523888   -1.6378479  0.067944199   -3.1523888    1.5145409   433288 
 3131000   0.99742759   -3.1530651   -1.6369371  0.067406763   -3.1530651    1.5161281   433272 
 3132000   0.99704429   -3.1529235   -1.6371611  0.067210191   -3.1529235    1.5157623   433210 
 3133000   0.99718416   -3.1540353   -1.6378154  0.065125308   -3.1540353      1.51622   433140 
 3134000   0.99726314   -3.1556204   -1.6390352  0.067441187   -3.1556204    1.5165852   433070 
 3135000   0.99571869   -3.1543342   -1.6400558  0.065792962   -3.1543342    1.5142784   433058 
 3136000   0.99534768   -3.1537063   -1.6399852   0.06654759   -3.1537063    1.5137212   433056 
 3137000   0.99642892   -3.1534816   -1.6380671  0.070814104   -3.1534816    1.5154145   433042 
 3138000    0.9966739   -3.1528544   -1.6370744  0.069144167   -3.1528544    1.5157801   433044 
 3139000   0.99415089   -3.1516921    -1.639571  0.070029853   -3.1516921    1.5121211   432993 
 3140000   0.99614249   -3.1547249   -1.6393576  0.071055751   -3.1547249    1.5153673   432931 
 3141000   0.99515401    -3.155411   -1.6414425  0.072132459    -3.155411    1.5139685   432901 
 3142000    0.9954896   -3.1565842   -1.6419617  0.070492306   -3.1565842    1.5146225   432860 
 3143000   0.99656853   -3.1571468   -1.6407356  0.066844691   -3.1571468    1.5164112   432818 
 3144000   0.99420281   -3.1536891   -1.6409126  0.071371794   -3.1536891    1.5127765   432828 
 3145000   0.99436658    -3.156151    -1.642982  0.068625151    -3.156151     1.513169   432787 
 3146000   0.99485574   -3.1560916   -1.6421187  0.070260608   -3.1560916    1.5139729   432770 
 3147000   0.99576366   -3.1576024   -1.6422268  0.064281873   -3.1576024    1.5153756   432764 
 3148000   0.99532649   -3.1577428    -1.642812  0.060916208   -3.1577428    1.5149308   432701 
 3149000   0.99417419   -3.1572726   -1.6439943  0.064376823   -3.1572726    1.5132784   432672 
 3150000   0.99558884   -3.1590263   -1.6434825  0.065952921   -3.1590263    1.5155438   432640 
 3151000   0.99448302   -3.1579209    -1.643966  0.065779086   -3.1579209    1.5139549   432613 
 3152000   0.99292962   -3.1555165   -1.6438006  0.069167433   -3.1555165    1.5117159   432577 
 3153000   0.99289014   -3.1547185   -1.6427866  0.066256133   -3.1547185    1.5119319   432498 
 3154000    0.9946038   -3.1561096   -1.6414912  0.067506717   -3.1561096    1.5146184   432476 
 3155000   0.99334949   -3.1557884   -1.6429017  0.072308582   -3.1557884    1.5128867   432425 
 3156000   0.99322357     -3.15645   -1.6435976   0.06989373     -3.15645    1.5128524   432380 
 3157000   0.99308559   -3.1555197   -1.6429265  0.065495332   -3.1555197    1.5125932   432394 
 3158000   0.99254554   -3.1550026   -1.6430116  0.064247999   -3.1550026     1.511991   432331 
 3159000   0.99186529   -3.1546077   -1.6435132  0.069172773   -3.1546077    1.5110945   432291 
 3160000   0.99396777   -3.1560655   -1.6416523  0.066961296   -3.1560655    1.5144132   432258 
 3161000   0.99318816   -3.1547912   -1.6414643  0.066567115   -3.1547912    1.5133269   432229 
 3162000   0.99055274   -3.1531265   -1.6437174  0.064438487   -3.1531265    1.5094091   432201 
 3163000    0.9925787   -3.1572594   -1.6446826  0.062102549   -3.1572594    1.5125768   432178 
 3164000   0.99325999   -3.1579282   -1.6442222  0.065635718   -3.1579282     1.513706   432152 
 3165000   0.99247418   -3.1578887   -1.6451246  0.067015771   -3.1578887     1.512764   432079 
 3166000   0.99226588    -3.156538   -1.6438079  0.064673345    -3.156538    1.5127301   431998 
 3167000   0.99122982   -3.1559102   -1.6445672  0.067996052   -3.1559102     1.511343   431943 
 3168000   0.99235022   -3.1588226   -1.6456101  0.065063164   -3.1588226    1.5132125   431897 
 3169000   0.99214451   -3.1588093   -1.6458054  0.065408592   -3.1588093    1.5130039   431867 
 3170000   0.99173645   -3.1585192   -1.6459275  0.066535673   -3.1585192    1.5125918   431807 
 3171000   0.99035409   -3.1572362   -1.6465359  0.061974734   -3.1572362    1.5107003   431745 
 3172000   0.99225593   -3.1604501   -1.6466734  0.068089253   -3.1604501    1.5137767   431695 
 3173000   0.99188112   -3.1612584   -1.6479343  0.066168916   -3.1612584    1.5133241   431661 
 3174000   0.99165753   -3.1602917   -1.6473578  0.063633574   -3.1602917    1.5129339   431675 
 3175000    0.9891528    -3.157276   -1.6479887  0.064571967    -3.157276    1.5092873   431625 
 3176000   0.98965154   -3.1590053   -1.6487925   0.06019672   -3.1590053    1.5102128   431578 
 3177000   0.99020332    -3.158774   -1.6477857  0.069786114    -3.158774    1.5109883   431597 
 3178000   0.98836877   -3.1575048   -1.6491027  0.066152078   -3.1575048    1.5084021   431536 
 3179000   0.99091586   -3.1614905   -1.6491242  0.062836045   -3.1614905    1.5123664   431514 
 3180000   0.99180269     -3.16157   -1.6477729  0.064324212     -3.16157    1.5137971   431492 
 3181000   0.98956894   -3.1597703   -1.6493021  0.063819202   -3.1597703    1.5104682   431469 
 3182000   0.99034907   -3.1601246   -1.6484095  0.065374084   -3.1601246    1.5117151   431453 
 3183000   0.99091787   -3.1623116   -1.6496862  0.066551851   -3.1623116    1.5126254   431441 
 3184000   0.98863121   -3.1590806   -1.6498514  0.073230967   -3.1590806    1.5092292   431414 
 3185000   0.98949869   -3.1598068   -1.6491097  0.064306997   -3.1598068    1.5106971   431373 
 3186000   0.98979871   -3.1600714    -1.648755  0.069224847   -3.1600714    1.5113163   431327 
 3187000   0.99069098   -3.1617306   -1.6490589  0.067856995   -3.1617306    1.5126717   431329 
 3188000   0.98968238   -3.1592417   -1.6480084  0.067487033   -3.1592417    1.5112333   431300 
 3189000   0.98902025   -3.1588857   -1.6484393  0.067663565   -3.1588857    1.5104464   431236 
 3190000   0.98855866   -3.1592985    -1.649438  0.059183837   -3.1592985    1.5098605   431202 
 3191000   0.99043102   -3.1620783   -1.6492529  0.060229607   -3.1620783    1.5128254   431172 
 3192000    0.9905956   -3.1626894   -1.6493809   0.06862542   -3.1626894    1.5133085   431106 
 3193000   0.98798817   -3.1607713   -1.6513201   0.06529168   -3.1607713    1.5094512   431070 
 3194000   0.98998987   -3.1621712   -1.6495952  0.066123332   -3.1621712    1.5125761   431051 
 3195000    0.9874081   -3.1593706   -1.6506097   0.06801525   -3.1593706     1.508761   431014 
 3196000   0.98766894   -3.1604784   -1.6511437  0.064142553   -3.1604784    1.5093346   430964 
 3197000   0.98749503   -3.1611459   -1.6520141  0.064051992   -3.1611459    1.5091319   430946 
 3198000   0.98971356   -3.1639392   -1.6511993  0.059963116   -3.1639392      1.51274   430884 
 3199000    0.9896518   -3.1640127   -1.6512337  0.067627338   -3.1640127     1.512779   430846 
 3200000   0.98947374   -3.1635719   -1.6510335  0.064484742   -3.1635719    1.5125384   430837 
 3201000   0.98772634   -3.1631008   -1.6531214  0.068603574   -3.1631008    1.5099794   430805 
 3202000    0.9885935   -3.1633061    -1.651787    0.0676844   -3.1633061    1.5115191   430744 
 3203000   0.98891738   -3.1660969   -1.6540966    0.0659366   -3.1660969    1.5120003   430748 
 3204000   0.98867759   -3.1652178   -1.6536052  0.067201169   -3.1652178    1.5116126   430754 
 3205000   0.98848133   -3.1648659   -1.6534165  0.063563208   -3.1648659    1.5114494   430715 
 3206000   0.98723174   -3.1646276   -1.6550188   0.06202991   -3.1646276    1.5096088   430695 
 3207000   0.98702545   -3.1639784   -1.6545939  0.065954231   -3.1639784    1.5093845   430669 
 3208000   0.98859439   -3.1669996   -1.6551667  0.066216549   -3.1669996    1.5118329   430655 
 3209000   0.98774922   -3.1658669   -1.6551091  0.064629774   -3.1658669    1.5107579   430593 
 3210000   0.98723554   -3.1667026   -1.6565129  0.060619653   -3.1667026    1.5101896   430531 
 3211000   0.98676146   -3.1651165   -1.6555819  0.067103568   -3.1651165    1.5095346   430511 
 3212000   0.98592011   -3.1634202   -1.6549554  0.067752895   -3.1634202    1.5084647   430449 
 3213000   0.98658127   -3.1654595   -1.6557903  0.067372644   -3.1654595    1.5096692   430394 
 3214000   0.98695615   -3.1668524   -1.6565148  0.061860592   -3.1668524    1.5103376   430367 
 3215000   0.98491989   -3.1655162   -1.6583122  0.066659232   -3.1655162     1.507204   430372 
 3216000   0.98553753   -3.1672646   -1.6590594  0.065067511   -3.1672646    1.5082052   430356 
 3217000   0.98675917   -3.1677113   -1.6574576  0.068497339   -3.1677113    1.5102537   430305 
 3218000   0.98588576   -3.1670569   -1.6579962  0.066765238   -3.1670569    1.5090607   430264 
 3219000   0.98547713    -3.168137   -1.6594844  0.069096826    -3.168137    1.5086526   430202 
 3220000   0.98508189   -3.1682049   -1.6599084   0.06605496   -3.1682049    1.5082965   430131 
 3221000   0.98592894   -3.1680032   -1.6582904  0.068865656   -3.1680032    1.5097128   430097 
 3222000   0.98617665   -3.1692371   -1.6589799  0.063627923   -3.1692371    1.5102571   430050 
 3223000   0.98610666   -3.1681156    -1.657899  0.067989374   -3.1681156    1.5102167   430031 
 3224000   0.98533472   -3.1667663   -1.6575388  0.066166651   -3.1667663    1.5092275   429976 
 3225000   0.98618955   -3.1680215   -1.6572141   0.07144938   -3.1680215    1.5108074   429899 
 3226000   0.98593482   -3.1678799    -1.657382  0.065938101   -3.1678799    1.5104979   429876 
 3227000   0.98673889   -3.1688037   -1.6570668  0.064212803   -3.1688037    1.5117368   429874 
 3228000   0.98594572   -3.1675305   -1.6570124   0.07190209   -3.1675305    1.5105182   429875 
 3229000   0.98652569   -3.1694301   -1.6578124  0.064777526   -3.1694301    1.5116177   429815 
 3230000   0.98604054   -3.1702756   -1.6593029  0.062655164   -3.1702756    1.5109727   429787 
 3231000   0.98507184   -3.1688004   -1.6591786  0.062616348   -3.1688004    1.5096218   429749 
 3232000   0.98436849   -3.1674527   -1.6587263  0.061402742   -3.1674527    1.5087265   429697 
 3233000   0.98491749   -3.1680451    -1.658428  0.061351562   -3.1680451    1.5096171   429683 
 3234000   0.98325932   -3.1667489   -1.6596382  0.065327928   -3.1667489    1.5071107   429673 
 3235000   0.98546285    -3.171149   -1.6605237  0.057902846    -3.171149    1.5106253   429634 
 3236000   0.98394325   -3.1691968   -1.6607008  0.066169461   -3.1691968     1.508496   429577 
 3237000   0.98423182   -3.1685931   -1.6595809  0.065752839   -3.1685931    1.5090122   429556 
 3238000   0.98402295   -3.1683063   -1.6595582  0.062064804   -3.1683063    1.5087481   429540 
 3239000   0.98533814   -3.1688773   -1.6581338  0.060518568   -3.1688773    1.5107435   429546 
 3240000   0.98702702   -3.1711763    -1.657794  0.066822666   -3.1711763    1.5133823   429532 
 3241000   0.98710568   -3.1707004   -1.6571481   0.06317888   -3.1707004    1.5135522   429518 
 3242000   0.98549358   -3.1681757   -1.6570039  0.067736833   -3.1681757    1.5111718   429492 
 3243000   0.98678986   -3.1692831   -1.6560354  0.069703247   -3.1692831    1.5132477   429467 
 3244000    0.9869791   -3.1689879   -1.6553583  0.069396307   -3.1689879    1.5136295   429441 
 3245000   0.98673083   -3.1694285   -1.6562044  0.072621066   -3.1694285    1.5132241   429448 
 3246000   0.98573203   -3.1693996    -1.657503  0.067190383   -3.1693996    1.5118965   429390 
 3247000   0.98613222   -3.1696911   -1.6572371  0.066078635   -3.1696911     1.512454   429406 
 3248000   0.98637239   -3.1702077   -1.6572057  0.064500359   -3.1702077     1.513002   429355 
 3249000   0.98654283   -3.1710573   -1.6575577  0.069433477   -3.1710573    1.5134997   429288 
 3250000    0.9851479   -3.1707326    -1.659292   0.06612404   -3.1707326    1.5114406   429265 
 3251000   0.98530317   -3.1698393   -1.6580654  0.067474762   -3.1698393    1.5117739   429238 
 3252000   0.98592701   -3.1710534   -1.6581743  0.068210808   -3.1710534    1.5128791   429196 
 3253000   0.98522335   -3.1715415   -1.6596118   0.06605976   -3.1715415    1.5119297   429159 
 3254000    0.9848568   -3.1706212    -1.659099  0.064464351   -3.1706212    1.5115222   429115 
 3255000   0.98572646   -3.1734372   -1.6604075  0.062709218   -3.1734372    1.5130297   429066 
 3256000   0.98450961   -3.1716566   -1.6605017  0.064080218   -3.1716566    1.5111548   429068 
 3257000   0.98486279   -3.1721936   -1.6603064  0.063225376   -3.1721936    1.5118872   429014 
 3258000   0.98186643   -3.1695691   -1.6620111  0.067034856   -3.1695691     1.507558   428937 
 3259000   0.98414548   -3.1720832   -1.6608745  0.065466949   -3.1720832    1.5112088   428894 
 3260000   0.98364508   -3.1712705   -1.6606963  0.066742922   -3.1712705    1.5105742   428856 
 3261000   0.98192995   -3.1692597   -1.6611752  0.065413924   -3.1692597    1.5080845   428815 
 3262000   0.98309532   -3.1708083   -1.6608319  0.061278206   -3.1708083    1.5099764   428786 
 3263000   0.98346505   -3.1711997   -1.6605815  0.069276836   -3.1711997    1.5106183   428765 
 3264000   0.98333774   -3.1707108   -1.6601295  0.067272011   -3.1707108    1.5105813   428720 
 3265000    0.9831416     -3.17067   -1.6602491  0.066477314     -3.17067    1.5104209   428680 
 3266000   0.98397462   -3.1714667   -1.6597872  0.058815043   -3.1714667    1.5116795   428686 
 3267000   0.98354534   -3.1717063   -1.6605982  0.065509972   -3.1717063    1.5111081   428661 
 3268000   0.98226504   -3.1698163   -1.6605415   0.06422058   -3.1698163    1.5092749   428623 
 3269000    0.9823016    -3.171717   -1.6621641  0.066097442    -3.171717     1.509553   428560 
 3270000   0.98185653   -3.1717487   -1.6629219  0.067030186   -3.1717487    1.5088267   428572 
 3271000   0.98107589   -3.1710986   -1.6633765  0.070099582   -3.1710986    1.5077221   428545 
 3272000   0.98227975   -3.1728134   -1.6632095  0.064143392   -3.1728134    1.5096039   428536 
 3273000   0.98178681   -3.1730923   -1.6639184  0.061415411   -3.1730923    1.5091739   428443 
 3274000   0.98158992   -3.1748738   -1.6659287  0.063102463   -3.1748738    1.5089452   428422 
 3275000    0.9820705   -3.1752062   -1.6654342  0.059505832   -3.1752062     1.509772   428397 
 3276000   0.98143492   -3.1726985   -1.6639987    0.0642098   -3.1726985    1.5086999   428424 
 3277000   0.98314861   -3.1749403   -1.6635885  0.059592542   -3.1749403    1.5113518   428419 
 3278000    0.9827913   -3.1740417   -1.6631298  0.065623265   -3.1740417    1.5109119   428388 
 3279000   0.98371846   -3.1765759   -1.6643658  0.063031092   -3.1765759    1.5122102   428424 
 3280000   0.98220968   -3.1747189     -1.66474  0.061487006   -3.1747189    1.5099789   428399 
 3281000   0.98178221   -3.1738584   -1.6643957  0.073505199   -3.1738584    1.5094627   428359 
 3282000   0.98339516   -3.1757383   -1.6636015  0.070219095   -3.1757383    1.5121368   428304 
 3283000   0.98218514   -3.1751003   -1.6647007  0.064190921   -3.1751003    1.5103996   428269 
 3284000   0.98188968   -3.1758378   -1.6655999  0.063391575   -3.1758378    1.5102379   428186 
 3285000   0.98230986   -3.1769519   -1.6660219  0.064520196   -3.1769519      1.51093   428173 
 3286000   0.98268665   -3.1779002   -1.6662883  0.063743531   -3.1779002     1.511612   428144 
 3287000   0.98092991   -3.1760978   -1.6671141  0.067016176   -3.1760978    1.5089837   428123 
 3288000   0.98032829   -3.1753928   -1.6671585  0.061213952   -3.1753928    1.5082344   428073 
 3289000   0.98101225   -3.1765949   -1.6671673  0.066490039   -3.1765949    1.5094277   428033 
 3290000   0.98165975   -3.1779118   -1.6674949  0.065614296   -3.1779118    1.5104169   428035 
 3291000   0.98241114    -3.178548   -1.6668691  0.065608022    -3.178548     1.511679   428005 
 3292000   0.98103859   -3.1770878   -1.6672598  0.062177218   -3.1770878     1.509828   427931 
 3293000   0.98163773   -3.1777513   -1.6670542  0.066293292   -3.1777513    1.5106971   427946 
 3294000   0.98161576   -3.1777645   -1.6668999  0.064466747   -3.1777645    1.5108645   427889 
 3295000   0.98135278   -3.1790058   -1.6684613  0.060460014   -3.1790058    1.5105445   427865 
 3296000   0.98074862   -3.1790176    -1.669156  0.061566907   -3.1790176    1.5098616   427795 
 3297000   0.98148408   -3.1806857   -1.6696636  0.066419246   -3.1806857    1.5110221   427787 
 3298000   0.98002346   -3.1794211   -1.6705031  0.069412645   -3.1794211     1.508918   427746 
 3299000   0.97984992   -3.1791046   -1.6704149  0.064568509   -3.1791046    1.5086896   427735 
 3300000    0.9792203   -3.1788792   -1.6709969  0.070170536   -3.1788792    1.5078824   427689 
 3301000   0.98005472   -3.1802769   -1.6711378  0.062741939   -3.1802769     1.509139   427697 
 3302000   0.97834284   -3.1788303   -1.6722499  0.062472537   -3.1788303    1.5065805   427675 
 3303000   0.97888259    -3.179461   -1.6718484  0.065193951    -3.179461    1.5076126   427618 
 3304000   0.98095087   -3.1810609   -1.6702805  0.061274566   -3.1810609    1.5107804   427623 
 3305000   0.97980115   -3.1813138   -1.6723112  0.058565112   -3.1813138    1.5090026   427625 
 3306000   0.97906521   -3.1811105   -1.6731426  0.066333144   -3.1811105    1.5079679   427597 
 3307000   0.97914436   -3.1811017   -1.6729202  0.060485415   -3.1811017    1.5081815   427571 
 3308000    0.9811522   -3.1829522   -1.6715366  0.064649228   -3.1829522    1.5114156   427531 
 3309000   0.98001317   -3.1836974   -1.6739198  0.061668853   -3.1836974    1.5097775   427498 
 3310000   0.98105247   -3.1852954   -1.6737577  0.059555631   -3.1852954    1.5115378   427453 
 3311000   0.97805541   -3.1811727   -1.6741821  0.063199699   -3.1811727    1.5069906   427433 
 3312000   0.97891353   -3.1831519   -1.6747509  0.061648178   -3.1831519     1.508401   427408 
 3313000   0.98030337   -3.1836233   -1.6729323  0.061165485   -3.1836233    1.5106911   427366 
 3314000   0.97924475   -3.1825754   -1.6735192  0.065756794   -3.1825754    1.5090561   427367 
 3315000   0.98024574   -3.1841453   -1.6734476  0.060018519   -3.1841453    1.5106977   427339 
 3316000   0.97900436   -3.1833368   -1.6743333  0.061240442   -3.1833368    1.5090035   427277 
 3317000   0.97932106   -3.1828209   -1.6731597  0.065384503   -3.1828209    1.5096612   427229 
 3318000   0.97707943   -3.1818775   -1.6754921  0.066747382   -3.1818775    1.5063855   427178 
 3319000   0.97734758   -3.1822846   -1.6752422  0.065115243   -3.1822846    1.5070423   427109 
 3320000   0.97986268   -3.1850097   -1.6739866  0.064573092   -3.1850097    1.5110231   427080 
 3321000   0.97840827   -3.1842274   -1.6754047  0.068391525   -3.1842274    1.5088227   427068 
 3322000   0.97783588    -3.185035   -1.6770455  0.066049854    -3.185035    1.5079895   427054 
 3323000   0.97955161   -3.1870287   -1.6761138  0.063846643   -3.1870287    1.5109149   426975 
 3324000   0.97883596    -3.186197   -1.6763506   0.06781878    -3.186197    1.5098464   426965 
 3325000   0.97786438   -3.1850662   -1.6767184   0.06577019   -3.1850662    1.5083478   426965 
 3326000   0.97822758   -3.1853953   -1.6763989  0.071076834   -3.1853953    1.5089964   426940 
 3327000   0.97834638   -3.1863468   -1.6770823   0.06671687   -3.1863468    1.5092645   426916 
 3328000   0.97665607    -3.183663   -1.6770344  0.064112497    -3.183663    1.5066286   426924 
 3329000   0.97755194   -3.1854979   -1.6774025  0.062642137   -3.1854979    1.5080954   426900 
 3330000   0.97674121   -3.1845667   -1.6777361  0.062235493   -3.1845667    1.5068306   426904 
 3331000   0.97649455   -3.1832355    -1.676722  0.065331139   -3.1832355    1.5065136   426886 
 3332000   0.97727164   -3.1857189   -1.6778617   0.06193669   -3.1857189    1.5078573   426845 
 3333000   0.97693028   -3.1840489   -1.6766442  0.068632869   -3.1840489    1.5074047   426824 
 3334000   0.97812293   -3.1854462   -1.6761588  0.059745218   -3.1854462    1.5092874   426812 
 3335000   0.97617518   -3.1825622   -1.6762096    0.0618014   -3.1825622    1.5063525   426792 
 3336000   0.97639449   -3.1824798   -1.6757323  0.064934732   -3.1824798    1.5067474   426776 
 3337000   0.97806268   -3.1855837   -1.6760391  0.065815914   -3.1855837    1.5095446   426713 
 3338000   0.97654323   -3.1828314   -1.6756143  0.067935914   -3.1828314    1.5072171   426708 
 3339000   0.97607176   -3.1820304   -1.6755056  0.064124436   -3.1820304    1.5065248   426698 
 3340000    0.9761539   -3.1836048   -1.6767449  0.063512382   -3.1836048    1.5068599   426639 
 3341000   0.97514225    -3.183224   -1.6778941  0.065341937    -3.183224      1.50533   426630 
 3342000   0.97595166   -3.1824636   -1.6758206  0.059991213   -3.1824636    1.5066431   426612 
 3343000   0.97738758    -3.186261   -1.6771713  0.063918338    -3.186261    1.5090897   426547 
 3344000   0.97621852   -3.1837584   -1.6762794  0.064267842   -3.1837584     1.507479   426492 
 3345000   0.97563395   -3.1822493   -1.6755635   0.06354822   -3.1822493    1.5066859   426461 
 3346000   0.97736614   -3.1859235    -1.676421  0.060272497   -3.1859235    1.5095025   426421 
 3347000    0.9766411   -3.1854187   -1.6768485  0.063393936   -3.1854187    1.5085702   426368 
 3348000   0.97675702    -3.184146   -1.6753649  0.065254064    -3.184146    1.5087811   426359 
 3349000   0.97606638   -3.1837601   -1.6761024  0.067073376   -3.1837601    1.5076577   426375 
 3350000   0.97703998   -3.1852901   -1.6760754  0.058853279   -3.1852901    1.5092147   426360 
 3351000   0.97587823   -3.1839216   -1.6764024   0.06860572   -3.1839216    1.5075191   426332 
 3352000   0.97494136   -3.1834405   -1.6772273  0.065213795   -3.1834405    1.5062132   426292 
 3353000   0.97623331   -3.1855774   -1.6771984  0.063562432   -3.1855774     1.508379   426244 
 3354000   0.97467161   -3.1835881   -1.6773535  0.063578562   -3.1835881    1.5062346   426168 
 3355000   0.97510244   -3.1846799   -1.6776239  0.063013167   -3.1846799     1.507056   426124 
 3356000   0.97311441    -3.182482   -1.6783292  0.060317952    -3.182482    1.5041528   426076 
 3357000   0.97408979   -3.1845271   -1.6787041  0.064755001   -3.1845271     1.505823   426030 
 3358000   0.97314535   -3.1845735   -1.6802105  0.062484478   -3.1845735    1.5043631   426030 
 3359000   0.97606181   -3.1880183    -1.679044   0.06359215   -3.1880183    1.5089743   426001 
 3360000   0.97524703   -3.1881445   -1.6803803  0.061006652   -3.1881445    1.5077642   425987 
 3361000   0.97418141   -3.1869593   -1.6807754  0.059496574   -3.1869593    1.5061839   425968 
 3362000   0.97309464   -3.1858952   -1.6813245  0.064878576   -3.1858952    1.5045707   425949 
 3363000    0.9732437   -3.1862228   -1.6812308  0.058212811   -3.1862228     1.504992   425895 
 3364000   0.97484418    -3.188703   -1.6811334  0.064329098    -3.188703    1.5075696   425866 
 3365000   0.97413497   -3.1877714   -1.6811465  0.067108967   -3.1877714    1.5066249   425823 
 3366000   0.97469201    -3.189324   -1.6818092  0.058338446    -3.189324    1.5075148   425815 
 3367000   0.97411848   -3.1867843   -1.6801424  0.064645817   -3.1867843    1.5066419   425811 
 3368000   0.97518084   -3.1894171   -1.6811179  0.064665072   -3.1894171    1.5082992   425807 
 3369000   0.97607387   -3.1893638   -1.6796763    0.0688916   -3.1893638    1.5096875   425805 
 3370000   0.97547065   -3.1898339   -1.6809412  0.062747537   -3.1898339    1.5088927   425766 
 3371000   0.97597646   -3.1910619   -1.6813726  0.065085482   -3.1910619    1.5096893   425762 
 3372000   0.97610781   -3.1913364   -1.6813871  0.065141532   -3.1913364    1.5099492   425746 
 3373000   0.97512328   -3.1891904   -1.6809555  0.068641468   -3.1891904    1.5082349   425800 
 3374000   0.97661562   -3.1914865   -1.6810533   0.05985117   -3.1914865    1.5104332   425831 
 3375000   0.97297288   -3.1868229   -1.6821331  0.062951468   -3.1868229    1.5046898   425862 
 3376000    0.9720629   -3.1860205   -1.6824449  0.060098347   -3.1860205    1.5035756   425779 
 3377000   0.97283536   -3.1881725   -1.6832996     0.059656   -3.1881725    1.5048729   425750 
 3378000   0.97512571    -3.189047   -1.6805249  0.064165047    -3.189047    1.5085221   425720 
 3379000   0.97545025   -3.1891015   -1.6800738  0.065741289   -3.1891015    1.5090277   425719 
 3380000   0.97549632    -3.188515   -1.6794727  0.067089798    -3.188515    1.5090423   425735 
 3381000   0.97295569   -3.1866578   -1.6813972   0.06371235   -3.1866578    1.5052606   425693 
 3382000   0.97266706    -3.188698   -1.6835587  0.061526816    -3.188698    1.5051393   425601 
 3383000   0.97275352   -3.1894627    -1.684048  0.059293245   -3.1894627    1.5054146   425561 
 3384000    0.9731839   -3.1892903   -1.6833725  0.064734655   -3.1892903    1.5059179   425607 
 3385000   0.97328106   -3.1906943   -1.6845942  0.066300046   -3.1906943    1.5061001   425598 
 3386000   0.97140883   -3.1885436   -1.6852065  0.058485264   -3.1885436    1.5033371   425560 
 3387000    0.9714772    -3.188447   -1.6850819  0.060260424    -3.188447    1.5033652   425582 
 3388000   0.97332456   -3.1907738    -1.684479  0.054924257   -3.1907738    1.5062948   425562 
 3389000    0.9731168   -3.1909654   -1.6849497   0.05882136   -3.1909654    1.5060157   425550 
 3390000   0.97213049   -3.1894463   -1.6848651  0.062764814   -3.1894463    1.5045812   425524 
 3391000   0.97350515   -3.1907845   -1.6839482  0.061826408   -3.1907845    1.5068363   425488 
 3392000   0.97460271   -3.1923646   -1.6837692   0.05823098   -3.1923646    1.5085954   425471 
 3393000   0.97304641   -3.1905968   -1.6844316  0.065107565   -3.1905968    1.5061652   425477 
 3394000   0.97430517   -3.1923645   -1.6841801  0.062920417   -3.1923645    1.5081845   425457 
 3395000   0.97519007    -3.192791   -1.6831551  0.061614114    -3.192791    1.5096359   425434 
 3396000   0.97515583   -3.1934627   -1.6837201  0.066579018   -3.1934627    1.5097426   425389 
 3397000   0.97544524   -3.1950185   -1.6847746  0.062072229   -3.1950185    1.5102439   425374 
 3398000   0.97404544   -3.1922832   -1.6840754  0.067926503   -3.1922832    1.5082078   425337 
 3399000    0.9739571   -3.1935971   -1.6854161  0.065043704   -3.1935971    1.5081809   425306 
 3400000   0.97335225    -3.194593   -1.6872459  0.067795368    -3.194593    1.5073471   425277 
 3401000   0.97151314   -3.1914068   -1.6869255  0.065560859   -3.1914068    1.5044814   425282 
 3402000   0.96953392   -3.1894547   -1.6878971  0.062348367   -3.1894547    1.5015576   425242 
 3403000   0.96997756   -3.1909464   -1.6886629  0.063831684   -3.1909464    1.5022835   425231 
 3404000   0.97100461   -3.1918891   -1.6878769   0.06847744   -3.1918891    1.5040121   425192 
 3405000   0.97181941   -3.1938244   -1.6884334  0.069264476   -3.1938244     1.505391   425159 
 3406000   0.97066294    -3.193562   -1.6897927  0.054466625    -3.193562    1.5037694   425111 
 3407000   0.96998431   -3.1929816   -1.6901858  0.062266562   -3.1929816    1.5027958   425089 
 3408000   0.96897019   -3.1917624   -1.6904813   0.06358432   -3.1917624    1.5012811   425073 
 3409000   0.97130421   -3.1939755   -1.6889896  0.062882629   -3.1939755    1.5049859   425048 
 3410000   0.96941991   -3.1926121   -1.6903126  0.066205563   -3.1926121    1.5022995   424982 
 3411000   0.96994345   -3.1947694   -1.6916232  0.060297314   -3.1947694    1.5031462   424972 
 3412000   0.97035501   -3.1958942   -1.6918482  0.051691805   -3.1958942    1.5040459   424898 
 3413000   0.97091853   -3.1957102   -1.6907944  0.060827496   -3.1957102    1.5049158   424899 
 3414000   0.96984561   -3.1946243   -1.6913997  0.060978786   -3.1946243    1.5032245   424907 
 3415000   0.97099605   -3.1971482   -1.6921334  0.061176716   -3.1971482    1.5050147   424905 
 3416000    0.9700664   -3.1966013   -1.6929673  0.062196691   -3.1966013     1.503634   424888 
 3417000   0.96923757   -3.1960147   -1.6936301  0.064868838   -3.1960147    1.5023846   424878 
 3418000   0.97025357   -3.1982682   -1.6943087  0.064175506   -3.1982682    1.5039595   424878 
 3419000   0.97093521   -3.1976514   -1.6924653  0.063225024   -3.1976514    1.5051861   424830 
 3420000   0.96985146   -3.1980545   -1.6943821  0.060670749   -3.1980545    1.5036724   424783 
 3421000   0.96829871   -3.1950422   -1.6936252  0.067127323   -3.1950422     1.501417   424740 
 3422000   0.97070714   -3.1970522   -1.6919539  0.068778247   -3.1970522    1.5050983   424755 
 3423000   0.97125955   -3.1986204   -1.6925841  0.067158138   -3.1986204    1.5060363   424732 
 3424000   0.96988032   -3.1957351   -1.6918268  0.067690345   -3.1957351    1.5039083   424729 
 3425000   0.97010324   -3.1969859   -1.6925442  0.062292283   -3.1969859    1.5044417   424676 
 3426000   0.96902251   -3.1978096   -1.6950439  0.066988783   -3.1978096    1.5027657   424676 
 3427000    0.9708302   -3.2010004   -1.6952186  0.057373522   -3.2010004    1.5057818   424616 
 3428000   0.96756204   -3.1957498   -1.6950122  0.063215417   -3.1957498    1.5007376   424609 
 3429000    0.9709707   -3.2002308   -1.6941282  0.062681045   -3.2002308    1.5061026   424587 
 3430000    0.9700007   -3.1984295   -1.6937571  0.063209165   -3.1984295    1.5046724   424566 
 3431000   0.96766605   -3.1967556   -1.6956304  0.061149243   -3.1967556    1.5011252   424545 
 3432000   0.96836493   -3.1973485   -1.6950117   0.06121946   -3.1973485    1.5023367   424509 
 3433000   0.96956014   -3.1994472   -1.6951144  0.060717618   -3.1994472    1.5043327   424469 
 3434000   0.96898874   -3.1990134   -1.6953299  0.059100294   -3.1990134    1.5036835   424402 
 3435000   0.96905518   -3.1990383   -1.6950249  0.061854058   -3.1990383    1.5040134   424338 
 3436000   0.96786775   -3.1989953    -1.696623  0.061796369   -3.1989953    1.5023723   424281 
 3437000   0.96870847   -3.1998523   -1.6961502  0.058943319   -3.1998523    1.5037021   424274 
 3438000   0.96933383   -3.2008223   -1.6960786  0.057908016   -3.2008223    1.5047438   424254 
 3439000   0.96686233   -3.1973607   -1.6963863   0.06034015   -3.1973607    1.5009744   424235 
 3440000   0.96722104   -3.1988154   -1.6972311  0.060366432   -3.1988154    1.5015843   424220 
 3441000    0.9672474   -3.1986031   -1.6969566  0.060332286   -3.1986031    1.5016465   424214 
 3442000   0.96710622   -3.1981994   -1.6968429  0.057791119   -3.1981994    1.5013565   424234 
 3443000   0.96657614   -3.1992968    -1.698558  0.063159691   -3.1992968    1.5007388   424176 
 3444000   0.96675329   -3.1988633   -1.6977327  0.061251742   -3.1988633    1.5011306   424143 
 3445000   0.96635727   -3.1987567   -1.6979579  0.064405164   -3.1987567    1.5007988   424063 
 3446000   0.96601438   -3.1994053   -1.6990293  0.061650502   -3.1994053    1.5003759   424032 
 3447000   0.96630574   -3.1999275   -1.6990176  0.054573539   -3.1999275    1.5009099   424009 
 3448000   0.96471885   -3.1982391   -1.6997304  0.061046446   -3.1982391    1.4985087   423991 
 3449000   0.96389268   -3.1974626   -1.7001419  0.058210722   -3.1974626    1.4973207   423964 
 3450000   0.96408817   -3.1985861   -1.7009123  0.059722184   -3.1985861    1.4976738   423950 
 3451000   0.96578228   -3.1991104   -1.6986314  0.064737391   -3.1991104     1.500479   423901 
 3452000   0.96477375   -3.1988792   -1.7000555  0.056632675   -3.1988792    1.4988237   423926 
 3453000   0.96592007   -3.2017425   -1.7009751  0.054130643   -3.2017425    1.5007674   423880 
 3454000   0.96569532   -3.1999071   -1.6994818  0.059540202   -3.1999071    1.5004253   423878 
 3455000   0.96707522   -3.2019094   -1.6991558  0.054849635   -3.2019094    1.5027537   423826 
 3456000   0.96699858   -3.2007757   -1.6981589  0.061590863   -3.2007757    1.5026168   423831 
 3457000   0.96679697   -3.1997841   -1.6974522  0.063034863   -3.1997841    1.5023319   423823 
 3458000   0.96679489   -3.2003275   -1.6978854  0.059659239   -3.2003275    1.5024421   423791 
 3459000   0.96723602   -3.2014204   -1.6982821  0.062115978   -3.2014204    1.5031383   423788 
 3460000   0.96570529   -3.2005613   -1.6998408  0.063277377   -3.2005613    1.5007205   423799 
 3461000   0.96671816   -3.2018153   -1.6993223  0.060474239   -3.2018153    1.5024931   423743 
 3462000   0.96715044   -3.2022157   -1.6989834  0.062357287   -3.2022157    1.5032323   423724 
 3463000    0.9660613   -3.2017255   -1.7001931  0.062799663   -3.2017255    1.5015324   423726 
 3464000   0.96582822   -3.2019862   -1.7007346  0.060968322   -3.2019862    1.5012516   423703 
 3465000   0.96582848    -3.200093   -1.6987666  0.064714333    -3.200093    1.5013264   423682 
 3466000   0.96658463   -3.2030194   -1.7001664  0.059443114   -3.2030194     1.502853   423583 
 3467000   0.96463456   -3.2003745   -1.7004119  0.058349958   -3.2003745    1.4999626   423543 
 3468000    0.9659475   -3.2031362   -1.7009937   0.06334448   -3.2031362    1.5021425   423504 
 3469000   0.96527964   -3.2011596   -1.6999387  0.058827117   -3.2011596    1.5012209   423471 
 3470000   0.96501927   -3.2017511   -1.7008643  0.058688506   -3.2017511    1.5008869   423451 
 3471000   0.96503452   -3.2029818   -1.7021279  0.057810317   -3.2029818    1.5008539   423467 
 3472000    0.9650836   -3.2019462   -1.7008955  0.062127687   -3.2019462    1.5010507   423433 
 3473000   0.96546808   -3.2024877   -1.7007787  0.053711417   -3.2024877     1.501709   423416 
 3474000   0.96588652   -3.2016989   -1.6992893  0.059190565   -3.2016989    1.5024095   423402 
 3475000   0.96444146   -3.1999939   -1.6997719   0.05936752   -3.1999939     1.500222   423385 
 3476000   0.96559943   -3.2027608    -1.700585  0.058997098   -3.2027608    1.5021759   423342 
 3477000   0.96301496   -3.1996478   -1.7014465  0.061885747   -3.1996478    1.4982012   423329 
 3478000   0.96385676    -3.199979    -1.700415  0.060812953    -3.199979     1.499564   423314 
 3479000   0.96235906   -3.1990405   -1.7016298  0.059218172   -3.1990405    1.4974107   423264 
 3480000   0.96323477   -3.1995435   -1.7007347  0.056480335   -3.1995435    1.4988087   423254 
 3481000   0.96240115   -3.2003088   -1.7027724  0.052145355   -3.2003088    1.4975364   423247 
 3482000   0.96168958   -3.1978198   -1.7013695  0.063799527   -3.1978198    1.4964503   423241 
 3483000   0.96287354   -3.1991421   -1.7008565  0.058839207   -3.1991421    1.4982856   423243 
 3484000   0.96152672   -3.1981661   -1.7020575  0.061097594   -3.1981661    1.4961086   423266 
 3485000   0.96267705   -3.1995292    -1.701652  0.058245736   -3.1995292    1.4978772   423272 
 3486000   0.96261283   -3.2000932   -1.7020186  0.058614092   -3.2000932    1.4980746   423188 
 3487000   0.96369291   -3.2009109   -1.7010314  0.062593461   -3.2009109    1.4998795   423153 
 3488000   0.96406706   -3.1989283   -1.6983423   0.05698815   -3.1989283     1.500586   423118 
 3489000   0.96107307   -3.1948908   -1.6989014  0.058750871   -3.1948908    1.4959894   423100 
 3490000   0.96401021   -3.1994385   -1.6987424   0.05981164   -3.1994385    1.5006961   423062 
 3491000    0.9633809   -3.2006232   -1.7007615  0.058745719   -3.2006232    1.4998618   423021 
 3492000   0.96287961   -3.2004825   -1.7012913  0.062886086   -3.2004825    1.4991912   422990 
 3493000   0.96211149   -3.1996437   -1.7014749  0.054181898   -3.1996437    1.4981688   422941 
 3494000   0.96109906   -3.1978992   -1.7011618  0.061473352   -3.1978992    1.4967374   422900 
 3495000   0.96215814   -3.1982429   -1.6998243   0.05982095   -3.1982429    1.4984186   422891 
 3496000   0.96231521   -3.1988248   -1.7000412   0.06103108   -3.1988248    1.4987837   422857 
 3497000   0.96262119   -3.2000218   -1.7007509  0.057662013   -3.2000218    1.4992709   422854 
 3498000   0.96115037    -3.197782    -1.700678  0.061337804    -3.197782     1.497104   422819 
 3499000   0.96069675   -3.1988597   -1.7023242  0.056580852   -3.1988597    1.4965355   422780 
 3500000   0.96370248   -3.2027537   -1.7015537   0.05679389   -3.2027537    1.5011999   422785 
 3501000   0.96306869   -3.2014515   -1.7010969  0.059157254   -3.2014515    1.5003546   422745 
 3502000    0.9630792   -3.2015832   -1.7012193  0.061597452   -3.2015832    1.5003639   422747 
 3503000   0.96238789   -3.2005964   -1.7010967  0.063173394   -3.2005964    1.4994997   422687 
 3504000    0.9622913   -3.2016614    -1.702408  0.056016696   -3.2016614    1.4992535   422714 
 3505000   0.96180438   -3.2025019   -1.7039965     0.060018   -3.2025019    1.4985055   422711 
 3506000   0.96156973   -3.2016391    -1.703439  0.058099842   -3.2016391    1.4982001   422694 
 3507000   0.96262062   -3.2031928   -1.7032098  0.054538552   -3.2031928     1.499983   422653 
 3508000   0.96226533   -3.2015094   -1.7020694  0.058237203   -3.2015094      1.49944   422650 
 3509000   0.96116218   -3.2001949   -1.7023817  0.058407006   -3.2001949    1.4978132   422624 
 3510000    0.9611258   -3.1990615   -1.7011845  0.063822355   -3.1990615     1.497877   422590 
 3511000   0.96183769    -3.202233   -1.7031472  0.058913408    -3.202233    1.4990858   422562 
 3512000   0.96175566   -3.2010533    -1.701996  0.059870553   -3.2010533    1.4990573   422534 
 3513000   0.96117859   -3.2010152    -1.702822   0.05896511   -3.2010152    1.4981933   422524 
 3514000    0.9620865   -3.2036561   -1.7039519  0.052705871   -3.2036561    1.4997043   422497 
 3515000   0.96299566   -3.2033076   -1.7020902  0.059681635   -3.2033076    1.5012174   422470 
 3516000   0.96198307   -3.2031371   -1.7033811  0.060535937   -3.2031371     1.499756   422437 
 3517000   0.96131714   -3.2042558   -1.7054635  0.058905566   -3.2042558    1.4987923   422416 
 3518000   0.96093818   -3.2029941   -1.7047182  0.057646813   -3.2029941     1.498276   422395 
 3519000   0.96190658   -3.2043256   -1.7044048   0.05909106   -3.2043256    1.4999208   422357 
 3520000   0.96146648   -3.2029999   -1.7037759   0.05951967   -3.2029999    1.4992239   422360 
 3521000   0.96020085   -3.2004547   -1.7032362   0.06119458   -3.2004547    1.4972185   422369 
 3522000   0.96164455   -3.2043655   -1.7048711  0.054847196   -3.2043655    1.4994945   422362 
 3523000   0.96043017    -3.201633   -1.7040498  0.059175869    -3.201633    1.4975832   422367 
 3524000   0.96046981   -3.2029413   -1.7052148  0.057887611   -3.2029413    1.4977265   422344 
 3525000   0.96050178    -3.201946   -1.7040845  0.062934318    -3.201946    1.4978615   422320 
 3526000   0.95927157   -3.2015255   -1.7054903  0.057463983   -3.2015255    1.4960351   422294 
 3527000     0.959946   -3.2029599   -1.7057453  0.057013917   -3.2029599    1.4972146   422258 
 3528000    0.9616011   -3.2047451   -1.7050201  0.057662355   -3.2047451     1.499725   422278 
 3529000   0.96123978   -3.2027051   -1.7035933  0.061638023   -3.2027051    1.4991118   422292 
 3530000   0.96019912   -3.2017745    -1.704119   0.05944019   -3.2017745    1.4976555   422245 
 3531000   0.95939696   -3.2023148   -1.7058432  0.062587851   -3.2023148    1.4964717   422226 
 3532000   0.96155056   -3.2050067   -1.7049875  0.057284619   -3.2050067    1.5000192   422173 
 3533000   0.96081125   -3.2040205   -1.7051725  0.057773016   -3.2040205    1.4988481   422178 
 3534000   0.96038869   -3.2039946   -1.7055679   0.06509379   -3.2039946    1.4984267   422111 
 3535000   0.95987033   -3.2044438   -1.7067407  0.059047571   -3.2044438    1.4977031   422087 
 3536000   0.96118445   -3.2066313   -1.7066148  0.056258477   -3.2066313    1.5000165   422013 
 3537000   0.95960954   -3.2039421   -1.7063443  0.061679121   -3.2039421    1.4975978   422002 
 3538000     0.961823   -3.2064752   -1.7054408  0.060172114   -3.2064752    1.5010344   422007 
 3539000   0.96068861      -3.2068   -1.7075182  0.055325914      -3.2068    1.4992818   422002 
 3540000   0.95932568   -3.2049575   -1.7079127  0.055472074   -3.2049575    1.4970448   422033 
 3541000   0.96012972   -3.2062765   -1.7079273  0.058149775   -3.2062765    1.4983492   422019 
 3542000   0.95965116   -3.2066498   -1.7089907  0.056168741   -3.2066498    1.4976591   422003 
 3543000   0.95849377   -3.2055245   -1.7094837  0.058657823   -3.2055245    1.4960408   421950 
 3544000   0.95952929   -3.2068399   -1.7091261    0.0586756   -3.2068399    1.4977138   421934 
 3545000   0.95911042   -3.2069596   -1.7098002  0.057686978   -3.2069596    1.4971594   421906 
 3546000   0.95890117   -3.2088196   -1.7118946  0.065069045   -3.2088196     1.496925   421880 
 3547000   0.95708399    -3.205188   -1.7110396  0.058090348    -3.205188    1.4941484   421863 
 3548000   0.95841062   -3.2070094   -1.7107261  0.054989617   -3.2070094    1.4962834   421845 
 3549000   0.95946486   -3.2074665    -1.709452  0.060376213   -3.2074665    1.4980145   421821 
 3550000   0.96121232   -3.2103331   -1.7095832  0.057009008   -3.2103331    1.5007499   421819 
 3551000   0.95960191   -3.2077318   -1.7095033   0.06145629   -3.2077318    1.4982284   421821 
 3552000   0.95863024   -3.2060109    -1.709367  0.063754783   -3.2060109     1.496644   421840 
 3553000   0.96001191   -3.2076488   -1.7088655  0.064887807   -3.2076488    1.4987833   421845 
 3554000   0.96001347   -3.2084665    -1.709695  0.057255926   -3.2084665    1.4987715   421849 
 3555000   0.95995652    -3.208941   -1.7100736  0.058850802    -3.208941    1.4988674   421797 
 3556000   0.95852323   -3.2076608    -1.710932  0.057909179   -3.2076608    1.4967288   421769 
 3557000   0.95960328   -3.2093109   -1.7107464  0.055149044   -3.2093109    1.4985645   421727 
 3558000   0.95964338   -3.2105422    -1.711979  0.062398606   -3.2105422    1.4985632   421745 
 3559000     0.959389   -3.2110307   -1.7127901  0.064316696   -3.2110307    1.4982406   421724 
 3560000    0.9585449   -3.2102588   -1.7132974  0.054103436   -3.2102588    1.4969614   421713 
 3561000   0.96069298   -3.2120611    -1.711681  0.058615041   -3.2120611    1.5003801   421695 
 3562000   0.95953172   -3.2100365   -1.7113385  0.063231594   -3.2100365     1.498698   421658 
 3563000   0.95952696   -3.2111712   -1.7124593   0.06249021   -3.2111712    1.4987119   421652 
 3564000   0.95891591   -3.2123272   -1.7144845  0.058777938   -3.2123272    1.4978427   421628 
 3565000   0.95974375   -3.2132009   -1.7140259  0.061214831   -3.2132009    1.4991749   421617 
 3566000   0.95895008   -3.2126157   -1.7146166  0.060311964   -3.2126157    1.4979991   421599 
 3567000   0.95894343   -3.2126464   -1.7147678  0.058776873   -3.2126464    1.4978786   421630 
 3568000   0.95856224   -3.2132138   -1.7158277  0.056957984   -3.2132138    1.4973862   421601 
 3569000   0.95758715   -3.2115523    -1.715629  0.060157465   -3.2115523    1.4959233   421584 
 3570000   0.95900324   -3.2149013   -1.7167232  0.055356183   -3.2149013    1.4981781   421572 
 3571000    0.9601918   -3.2173053   -1.7172277  0.059374088   -3.2173053    1.5000776   421560 
 3572000   0.95879942   -3.2139621   -1.7159318  0.057601259   -3.2139621    1.4980303   421524 
 3573000   0.96080036   -3.2158016   -1.7145917  0.056858211   -3.2158016      1.50121   421509 
 3574000   0.95920395   -3.2138352   -1.7151587  0.064000995   -3.2138352    1.4986765   421520 
 3575000   0.95945839   -3.2143635   -1.7152325   0.06456139   -3.2143635     1.499131   421504 
 3576000   0.96042119   -3.2164587   -1.7157949  0.056865288   -3.2164587    1.5006638   421496 
 3577000   0.96013643   -3.2153345   -1.7151335  0.062592853   -3.2153345    1.5002011   421501 
 3578000   0.96099112    -3.217317   -1.7156486  0.057067062    -3.217317    1.5016683   421464 
 3579000   0.95842337   -3.2150707   -1.7172868  0.062075821   -3.2150707    1.4977838   421428 
 3580000   0.95945574    -3.217085   -1.7176701  0.058741881    -3.217085     1.499415   421423 
 3581000   0.95905243   -3.2164183   -1.7176265  0.061388695   -3.2164183    1.4987918   421421 
 3582000   0.95967818   -3.2166348   -1.7167441  0.064280666   -3.2166348    1.4998907   421387 
 3583000   0.95871889   -3.2149764   -1.7164143  0.062307772   -3.2149764    1.4985621   421339 
 3584000   0.95746473   -3.2141563   -1.7175297  0.062343757   -3.2141563    1.4966266   421332 
 3585000   0.95864521   -3.2168047   -1.7182546  0.057911636   -3.2168047    1.4985501   421310 
 3586000   0.95763843   -3.2160948   -1.7189195  0.061342523   -3.2160948    1.4971753   421254 
 3587000   0.95918544   -3.2179115   -1.7181467  0.059386415   -3.2179115    1.4997648   421206 
 3588000   0.95863767   -3.2170828    -1.718114  0.059573815   -3.2170828    1.4989688   421189 
 3589000   0.95755294   -3.2152926   -1.7179097   0.05842983   -3.2152926    1.4973829   421158 
 3590000   0.95782347   -3.2155759   -1.7176312   0.06256797   -3.2155759    1.4979447   421119 
 3591000   0.95813364   -3.2161395   -1.7175852  0.057307978   -3.2161395    1.4985543   421084 
 3592000   0.95888945    -3.217709   -1.7179192  0.060529899    -3.217709    1.4997898   421069 
 3593000   0.95910268    -3.216509   -1.7162574  0.058892569    -3.216509    1.5002516   421033 
 3594000   0.95751826   -3.2145898   -1.7166386  0.060855078   -3.2145898    1.4979511   420983 
 3595000   0.95635961   -3.2140376   -1.7179666  0.057574966   -3.2140376     1.496071   421002 
 3596000   0.95615584   -3.2137672   -1.7180256  0.058211631   -3.2137672    1.4957416   421005 
 3597000   0.95687684   -3.2156339   -1.7186506  0.059780517   -3.2156339    1.4969832   420973 
 3598000   0.95625324   -3.2148896   -1.7189672  0.060198285   -3.2148896    1.4959224   420997 
 3599000    0.9565566   -3.2144025   -1.7180731  0.060968318   -3.2144025    1.4963294   421016 
 3600000   0.95665138   -3.2162783   -1.7196442  0.061926097   -3.2162783    1.4966341   420972 
 3601000   0.95525641   -3.2120689   -1.7176314  0.054570374   -3.2120689    1.4944375   420976 
 3602000   0.95647384   -3.2139737   -1.7176529  0.056289531   -3.2139737    1.4963208   420982 
 3603000   0.95611746    -3.215225   -1.7193089  0.056469278    -3.215225     1.495916   420939 
 3604000   0.95616971   -3.2143618   -1.7183178  0.059610123   -3.2143618     1.496044   420926 
 3605000    0.9574169   -3.2168689   -1.7188201  0.058254045   -3.2168689    1.4980487   420911 
 3606000   0.95490604   -3.2140524   -1.7199821  0.062919291   -3.2140524    1.4940704   420925 
 3607000   0.95573222   -3.2149475    -1.719485  0.064761099   -3.2149475    1.4954625   420897 
 3608000   0.95703292   -3.2165858   -1.7192375  0.058141544   -3.2165858    1.4973483   420939 
 3609000   0.95587228   -3.2162062   -1.7205743  0.059451202   -3.2162062    1.4956319   420911 
 3610000   0.95787269   -3.2173779   -1.7186552  0.059853855   -3.2173779    1.4987227   420922 
 3611000   0.95652786   -3.2151421   -1.7186053  0.062019763   -3.2151421    1.4965368   420945 
 3612000   0.95633004   -3.2157648   -1.7194771  0.056032183   -3.2157648    1.4962877   420928 
 3613000   0.95806049   -3.2195361   -1.7204269  0.061495449   -3.2195361    1.4991092   420896 
 3614000   0.95692825   -3.2184191    -1.721014  0.065118985   -3.2184191    1.4974051   420877 
 3615000   0.95740592   -3.2177138   -1.7197641  0.053805421   -3.2177138    1.4979497   420934 
 3616000   0.95777227   -3.2178173   -1.7193692  0.063237878   -3.2178173    1.4984481   420955 
 3617000   0.95698732   -3.2169265   -1.7195214  0.062488341   -3.2169265    1.4974051   420903 
 3618000   0.95826479   -3.2189634   -1.7195524  0.054982379   -3.2189634    1.4994111   420901 
 3619000   0.95844196   -3.2193188   -1.7194595   0.05842139   -3.2193188    1.4998593   420853 
 3620000   0.95808961   -3.2192919   -1.7198308  0.064534266   -3.2192919    1.4994611   420810 
 3621000    0.9569691   -3.2194799   -1.7216799  0.058451992   -3.2194799       1.4978   420784 
 3622000   0.95857155   -3.2208867   -1.7205786   0.06430032   -3.2208867    1.5003081   420784 
 3623000   0.95727193   -3.2202919   -1.7219076   0.06433406   -3.2202919    1.4983844   420753 
 3624000   0.95585196   -3.2201198   -1.7239403   0.05914844   -3.2201198    1.4961795   420748 
 3625000   0.95627967    -3.220899   -1.7241958  0.059408175    -3.220899    1.4967032   420789 
 3626000   0.95547126   -3.2207812   -1.7252865   0.06055159   -3.2207812    1.4954948   420773 
 3627000    0.9549571   -3.2193618   -1.7245582  0.061586437   -3.2193618    1.4948037   420741 
 3628000   0.95482422   -3.2212196   -1.7264499  0.059039952   -3.2212196    1.4947698   420692 
 3629000   0.95347156   -3.2187203   -1.7260362  0.057930586   -3.2187203    1.4926841   420683 
 3630000   0.95497954   -3.2215637   -1.7264691  0.051785101   -3.2215637    1.4950947   420669 
 3631000   0.95421634    -3.219049   -1.7251953  0.063505249    -3.219049    1.4938536   420682 
 3632000   0.95447496    -3.221072   -1.7268739  0.057047537    -3.221072    1.4941981   420699 
 3633000   0.95608404   -3.2222278   -1.7255996  0.056438107   -3.2222278    1.4966282   420724 
 3634000   0.95550052   -3.2218339   -1.7260872  0.059199701   -3.2218339    1.4957467   420715 
 3635000   0.95443866    -3.219183   -1.7249032  0.061367431    -3.219183    1.4942798   420660 
 3636000   0.95633084   -3.2218122   -1.7245877  0.061101233   -3.2218122    1.4972245   420665 
 3637000    0.9552809   -3.2212402   -1.7255564  0.062789944   -3.2212402    1.4956838   420636 
 3638000   0.95627901   -3.2238451   -1.7265843  0.057718023   -3.2238451    1.4972608   420632 
 3639000   0.95674823   -3.2236236   -1.7255106  0.058586579   -3.2236236     1.498113   420599 
 3640000   0.95691326   -3.2238225   -1.7253941  0.060860698   -3.2238225    1.4984284   420583 
 3641000   0.95603948   -3.2243729   -1.7272167  0.062819094   -3.2243729    1.4971562   420556 
 3642000   0.95655236   -3.2235624   -1.7254926  0.062527991   -3.2235624    1.4980698   420525 
 3643000    0.9560366   -3.2253379   -1.7279975  0.056433369   -3.2253379    1.4973404   420503 
 3644000   0.95447189   -3.2227645   -1.7279209  0.057246436   -3.2227645    1.4948436   420516 
 3645000   0.95522297   -3.2237397   -1.7275953  0.061418001   -3.2237397    1.4961444   420481 
 3646000   0.95608459   -3.2251138   -1.7274596  0.054648163   -3.2251138    1.4976542   420436 
 3647000   0.95501362   -3.2236844    -1.727633  0.062544161   -3.2236844    1.4960513   420415 
 3648000    0.9557789   -3.2242281   -1.7269388  0.055494347   -3.2242281    1.4972893   420404 
 3649000   0.95733319   -3.2262083   -1.7263841  0.056303531   -3.2262083    1.4998241   420376 
 3650000   0.95524532   -3.2243806   -1.7277741  0.060870731   -3.2243806    1.4966065   420361 
 3651000   0.95512585   -3.2245443   -1.7281499  0.052333658   -3.2245443    1.4963944   420368 
 3652000   0.95511774   -3.2240257   -1.7274695  0.058110438   -3.2240257    1.4965562   420319 
 3653000   0.95411235   -3.2237939   -1.7286779  0.059477482   -3.2237939     1.495116   420281 
 3654000   0.95514115   -3.2251458   -1.7284283  0.060864098   -3.2251458    1.4967175   420284 
 3655000   0.95395009   -3.2229667   -1.7282579  0.059206844   -3.2229667    1.4947088   420324 
 3656000   0.95427512   -3.2235869   -1.7283403  0.062057355   -3.2235869    1.4952466   420316 
 3657000   0.95439241    -3.223889   -1.7283377  0.054995497    -3.223889    1.4955513   420282 
 3658000   0.95237489   -3.2212238   -1.7289085  0.058643988   -3.2212238    1.4923153   420303 
 3659000   0.95391941   -3.2216034   -1.7268466   0.05676983   -3.2216034    1.4947568   420297 
 3660000   0.95449559   -3.2233564    -1.727647  0.059672538   -3.2233564    1.4957094   420283 
 3661000    0.9542394   -3.2230311    -1.727716  0.057180208   -3.2230311    1.4953151   420281 
 3662000   0.95424785   -3.2237623   -1.7282062  0.059825103   -3.2237623    1.4955561   420217 
 3663000   0.95347179   -3.2220667   -1.7276914  0.061497518   -3.2220667    1.4943754   420207 
 3664000   0.95384831   -3.2231584   -1.7280897    0.0571163   -3.2231584    1.4950687   420178 
 3665000   0.95541443   -3.2241554   -1.7266569  0.051727968   -3.2241554    1.4974985   420185 
 3666000   0.95482172   -3.2233777   -1.7267868  0.058000644   -3.2233777    1.4965908   420179 
 3667000   0.95527392   -3.2246092    -1.727217  0.058735516   -3.2246092    1.4973923   420153 
 3668000   0.95398708   -3.2224884   -1.7270492  0.062359608   -3.2224884    1.4954392   420135 
 3669000   0.95384409   -3.2219906   -1.7267649  0.056228151   -3.2219906    1.4952257   420132 
 3670000   0.95305782   -3.2228527   -1.7286994  0.060837759   -3.2228527    1.4941532   420087 
 3671000   0.95545565   -3.2255359   -1.7276662  0.062112131   -3.2255359    1.4978696   420099 
 3672000    0.9539672   -3.2234279   -1.7279096  0.060938194   -3.2234279    1.4955184   420104 
 3673000   0.95493931   -3.2249942     -1.72813  0.060635421   -3.2249942    1.4968642   420154 
 3674000   0.95462172   -3.2242705   -1.7277296   0.06287538   -3.2242705    1.4965409   420105 
 3675000   0.95528103    -3.225013   -1.7272674   0.05425071    -3.225013    1.4977456   420057 
 3676000   0.95361598   -3.2240123   -1.7288203  0.060983903   -3.2240123     1.495192   420041 
 3677000   0.95254402    -3.221521   -1.7281982   0.06262477    -3.221521    1.4933228   420094 
 3678000   0.95408329   -3.2229862   -1.7271647  0.063868039   -3.2229862    1.4958215   420070 
 3679000   0.95523211   -3.2238042   -1.7261817  0.056006064   -3.2238042    1.4976226   420070 
 3680000   0.95394521   -3.2210185   -1.7254206  0.059719846   -3.2210185    1.4955978   420072 
 3681000   0.95485351   -3.2221078   -1.7249255  0.061105807   -3.2221078    1.4971823   420027 
 3682000    0.9539815   -3.2204363   -1.7246854  0.061003506   -3.2204363    1.4957509   420045 
 3683000   0.95404813   -3.2221055   -1.7262217  0.059364253   -3.2221055    1.4958838   420037 
 3684000   0.95368386   -3.2215297    -1.726242  0.061082196   -3.2215297    1.4952878   420044 
 3685000    0.9539267   -3.2230265   -1.7274007  0.057728286   -3.2230265    1.4956258   420056 
 3686000   0.95230931    -3.220313   -1.7272373  0.054590384    -3.220313    1.4930757   420060 
 3687000   0.95370907   -3.2203224   -1.7249773  0.055787202   -3.2203224    1.4953451   420039 
 3688000   0.95286556   -3.2180803   -1.7240435  0.056917839   -3.2180803    1.4940368   420035 
 3689000   0.95342404   -3.2190797   -1.7241032  0.064099179   -3.2190797    1.4949765   420017 
 3690000   0.95240663   -3.2175122   -1.7241773  0.060433367   -3.2175122     1.493335   420030 
 3691000   0.95241214   -3.2191471   -1.7258142  0.060348116   -3.2191471    1.4933329   420033 
 3692000   0.95255115   -3.2195811   -1.7259342   0.05824849   -3.2195811    1.4936469   420006 
 3693000   0.95325989   -3.2196846   -1.7249228  0.058986148   -3.2196846    1.4947618   420005 
 3694000   0.95313761   -3.2194552   -1.7247961  0.057774087   -3.2194552     1.494659   419980 
 3695000   0.95317029   -3.2189717   -1.7243362  0.057317411   -3.2189717    1.4946355   420001 
 3696000    0.9522672   -3.2170634     -1.72378  0.056818775   -3.2170634    1.4932834   419983 
 3697000   0.95307033   -3.2188932   -1.7242472  0.060561982   -3.2188932     1.494646   419954 
 3698000   0.95340537   -3.2181259   -1.7229295  0.058629488   -3.2181259    1.4951964   419947 
 3699000   0.95124419   -3.2145797   -1.7226909  0.050841953   -3.2145797    1.4918888   419924 
 3700000   0.95242881   -3.2161166   -1.7224161  0.055994567   -3.2161166    1.4937005   419937 
 3701000   0.95245575   -3.2155417   -1.7217243  0.061635661   -3.2155417    1.4938174   419916 
 3702000   0.95350163   -3.2186262   -1.7230403  0.053658695   -3.2186262     1.495586   419880 
 3703000   0.95158127   -3.2165867   -1.7238351  0.057823697   -3.2165867    1.4927516   419830 
 3704000   0.95233728   -3.2169671   -1.7228978  0.063275404   -3.2169671    1.4940692   419793 
 3705000   0.95381575   -3.2189513   -1.7224985   0.06126467   -3.2189513    1.4964529   419775 
 3706000    0.9522624   -3.2169096   -1.7228688  0.062657923   -3.2169096    1.4940407   419768 
 3707000   0.95441387   -3.2198541   -1.7224771  0.054927457   -3.2198541     1.497377   419779 
 3708000   0.95380441   -3.2193239   -1.7229601  0.062662527   -3.2193239    1.4963638   419795 
 3709000   0.95360519   -3.2182047   -1.7221748  0.059660733   -3.2182047    1.4960299   419801 
 3710000   0.95345042   -3.2185026    -1.722573  0.057524939   -3.2185026    1.4959296   419761 
 3711000   0.95410834    -3.219754   -1.7228456  0.057331182    -3.219754    1.4969084   419776 
 3712000   0.95338042   -3.2178997   -1.7220764  0.055738864   -3.2178997    1.4958233   419760 
 3713000   0.95499439   -3.2201579   -1.7218023  0.058649524   -3.2201579    1.4983556   419760 
 3714000   0.95368367   -3.2195849   -1.7231717  0.062524824   -3.2195849    1.4964132   419728 
 3715000   0.95539242   -3.2221731   -1.7229858  0.061447405   -3.2221731    1.4991873   419702 
 3716000   0.95402461   -3.2221805   -1.7250576  0.060840723   -3.2221805     1.497123   419679 
 3717000    0.9553233   -3.2222302   -1.7231514  0.062680215   -3.2222302    1.4990788   419702 
 3718000   0.95300647   -3.2198958   -1.7243991  0.057898282   -3.2198958    1.4954967   419687 
 3719000   0.95301855     -3.21987   -1.7243758  0.060500682     -3.21987    1.4954943   419693 
 3720000    0.9542762   -3.2205765   -1.7230944   0.05777265   -3.2205765    1.4974821   419689 
 3721000    0.9536171   -3.2224505   -1.7259421  0.056376054   -3.2224505    1.4965084   419672 
 3722000   0.95392904   -3.2217748   -1.7246627  0.064878284   -3.2217748    1.4971121   419640 
 3723000   0.95398785   -3.2237015   -1.7262615  0.054819344   -3.2237015    1.4974399   419574 
 3724000    0.9525895   -3.2221086   -1.7268529  0.057627769   -3.2221086    1.4952557   419571 
 3725000     0.953143   -3.2209959   -1.7247287  0.064217945   -3.2209959    1.4962671   419531 
 3726000   0.95330752   -3.2221756   -1.7255539  0.060478795   -3.2221756    1.4966217   419504 
 3727000   0.95201054   -3.2203588   -1.7258089  0.061306353   -3.2203588    1.4945499   419514 
 3728000   0.95322494   -3.2222952   -1.7259993  0.057068452   -3.2222952    1.4962959   419559 
 3729000   0.95258396   -3.2228804   -1.7275693  0.057822583   -3.2228804    1.4953111   419553 
 3730000   0.95313822   -3.2229096   -1.7266963  0.057703773   -3.2229096    1.4962133   419544 
 3731000   0.95249776   -3.2229154   -1.7277681  0.064949773   -3.2229154    1.4951473   419561 
 3732000   0.95151154   -3.2230822    -1.729426  0.058924366   -3.2230822    1.4936562   419545 
 3733000   0.95201745   -3.2229324   -1.7283966  0.060046303   -3.2229324    1.4945358   419521 
 3734000   0.95176777   -3.2227178   -1.7284136  0.052907468   -3.2227178    1.4943042   419476 
 3735000   0.95254521   -3.2225261   -1.7270548  0.057265748   -3.2225261    1.4954713   419491 
 3736000    0.9519888   -3.2229402   -1.7283211  0.059616354   -3.2229402    1.4946191   419485 
 3737000   0.95188531   -3.2234751   -1.7289543  0.053775927   -3.2234751    1.4945208   419467 
 3738000   0.95119081   -3.2228161   -1.7292255  0.054116914   -3.2228161    1.4935906   419422 
 3739000   0.94947915   -3.2220564   -1.7310789  0.057050136   -3.2220564    1.4909775   419401 
 3740000   0.95104064   -3.2233841   -1.7297444  0.057988322   -3.2233841    1.4936397   419342 
 3741000    0.9517536    -3.225999   -1.7310506  0.059024901    -3.225999    1.4949484   419289 
 3742000   0.94957308    -3.221857   -1.7304617  0.058563033    -3.221857    1.4913953   419325 
 3743000   0.95137299   -3.2234564   -1.7292912  0.059534746   -3.2234564    1.4941652   419341 
 3744000   0.95174449   -3.2233048   -1.7285739  0.058909522   -3.2233048    1.4947308   419346 
 3745000   0.95350517   -3.2273522   -1.7297633  0.057975602   -3.2273522    1.4975889   419320 
 3746000   0.95322456    -3.226821   -1.7295979  0.060585412    -3.226821    1.4972231   419299 
 3747000   0.95286325   -3.2253716    -1.728641  0.066889368   -3.2253716    1.4967306   419278 
 3748000   0.95408151   -3.2267913   -1.7281757  0.064438539   -3.2267913    1.4986156   419286 
 3749000   0.95173034   -3.2234774   -1.7285335  0.058917175   -3.2234774    1.4949439   419280 
 3750000   0.95198127   -3.2253561   -1.7299788  0.060157811   -3.2253561    1.4953773   419269 
 3751000   0.95258536   -3.2257393   -1.7292989  0.057760205   -3.2257393    1.4964404   419237 
 3752000   0.95172231   -3.2242113   -1.7290589  0.061014373   -3.2242113    1.4951524   419218 
 3753000   0.95317229   -3.2272228   -1.7296281  0.061811736   -3.2272228    1.4975946   419172 
 3754000    0.9525126   -3.2280332   -1.7312894  0.058048741   -3.2280332    1.4967438   419120 
 3755000    0.9524873   -3.2279157   -1.7311188  0.060933743   -3.2279157    1.4967969   419094 
 3756000   0.95033197   -3.2235306   -1.7300602   0.06117577   -3.2235306    1.4934705   419077 
 3757000   0.95018536   -3.2235026   -1.7302447  0.059482847   -3.2235026    1.4932579   419072 
 3758000   0.95102794   -3.2266132   -1.7318314  0.063706525   -3.2266132    1.4947818   419016 
 3759000   0.95030464   -3.2256852   -1.7320616  0.057689532   -3.2256852    1.4936236   419022 
 3760000   0.95134288     -3.22766   -1.7323582  0.059918273     -3.22766    1.4953018   419009 
 3761000    0.9517275   -3.2266249   -1.7307829  0.058020445   -3.2266249    1.4958421   419027 
 3762000   0.95107295   -3.2243056   -1.7293639  0.061487995   -3.2243056    1.4949417   418991 
 3763000   0.95098435   -3.2266921    -1.731754  0.058341368   -3.2266921    1.4949381   418953 
 3764000   0.95113805   -3.2271936   -1.7320282  0.058641604   -3.2271936    1.4951654   418957 
 3765000   0.95038695   -3.2262296   -1.7321058  0.058577904   -3.2262296    1.4941238   418918 
 3766000   0.95092971   -3.2264517    -1.731414  0.061632323   -3.2264517    1.4950377   418901 
 3767000   0.95126297    -3.226895   -1.7313726  0.053721611    -3.226895    1.4955224   418912 
 3768000   0.95048998   -3.2250269   -1.7307055  0.057609613   -3.2250269    1.4943214   418908 
 3769000   0.95025771   -3.2252917   -1.7311856  0.059653865   -3.2252917    1.4941061   418866 
 3770000    0.9503185   -3.2248733   -1.7305397  0.055699772   -3.2248733    1.4943336   418829 
 3771000   0.94924632    -3.223867   -1.7312443  0.056730811    -3.223867    1.4926227   418836 
 3772000   0.94813787   -3.2241081    -1.733182  0.052783348   -3.2241081    1.4909261   418823 
 3773000   0.95074894   -3.2276909   -1.7325519  0.055320703   -3.2276909     1.495139   418793 
 3774000    0.9510261   -3.2295967   -1.7339218  0.055656124   -3.2295967    1.4956749   418765 
 3775000     0.949957   -3.2279151   -1.7338646  0.052002192   -3.2279151    1.4940506   418749 
 3776000   0.94957682   -3.2268019   -1.7333671  0.057666498   -3.2268019    1.4934348   418754 
 3777000   0.94829508   -3.2254593   -1.7340938  0.056562162   -3.2254593    1.4913655   418769 
 3778000   0.95071268   -3.2277907   -1.7325481  0.056724119   -3.2277907    1.4952426   418748 
 3779000   0.94947874   -3.2256488   -1.7323397  0.065168326   -3.2256488    1.4933091   418746 
 3780000   0.95088058   -3.2282039   -1.7326829   0.05981444   -3.2282039     1.495521   418744 
 3781000   0.95039583   -3.2262747   -1.7313411  0.057695074   -3.2262747    1.4949335   418695 
 3782000   0.94954222   -3.2246541   -1.7310204  0.060723228   -3.2246541    1.4936336   418683 
 3783000   0.94949877   -3.2244095   -1.7307408  0.061579482   -3.2244095    1.4936687   418654 
 3784000    0.9486317   -3.2254716    -1.733149  0.054077078   -3.2254716    1.4923226   418649 
 3785000   0.94920055   -3.2258906   -1.7326553  0.061887356   -3.2258906    1.4932353   418644 
 3786000   0.94886461   -3.2255817   -1.7328713  0.062387959   -3.2255817    1.4927104   418643 
 3787000   0.94915367   -3.2255718   -1.7322925  0.064662034   -3.2255718    1.4932792   418611 
 3788000   0.94915717   -3.2256992   -1.7324251  0.057913171   -3.2256992    1.4932741   418614 
 3789000   0.94903707   -3.2270274   -1.7337996  0.054992034   -3.2270274    1.4932278   418574 
 3790000    0.9489086    -3.227571   -1.7342885  0.058622763    -3.227571    1.4932825   418502 
 3791000   0.94701944   -3.2246164   -1.7341822  0.062037942   -3.2246164    1.4904342   418467 
 3792000   0.94874197    -3.227842   -1.7345398  0.052090991    -3.227842    1.4933022   418423 
 3793000    0.9482286    -3.226165   -1.7338314  0.059123218    -3.226165    1.4923336   418468 
 3794000   0.94910891    -3.225897   -1.7321851  0.057760982    -3.225897    1.4937119   418470 
 3795000   0.94825117   -3.2247493    -1.732373  0.059351481   -3.2247493    1.4923763   418466 
 3796000   0.94842775   -3.2267371   -1.7340187  0.050899586   -3.2267371    1.4927184   418448 
 3797000   0.94729522   -3.2264256   -1.7353329  0.058476922   -3.2264256    1.4910927   418404 
 3798000   0.94999829   -3.2295336   -1.7340288  0.056855803   -3.2295336    1.4955048   418360 
 3799000   0.94700805   -3.2253713   -1.7343672  0.064331739   -3.2253713    1.4910042   418302 
 3800000   0.94797626   -3.2265162   -1.7340768  0.055416959   -3.2265162    1.4924394   418327 
 3801000   0.94794229    -3.226751   -1.7343152  0.058681809    -3.226751    1.4924358   418313 
 3802000   0.94840256   -3.2278782   -1.7346749  0.062070542   -3.2278782    1.4932033   418301 
 3803000     0.949732   -3.2291513   -1.7338477  0.053797168   -3.2291513    1.4953036   418299 
 3804000   0.94958719   -3.2295793   -1.7345609  0.053036186   -3.2295793    1.4950184   418315 
 3805000   0.94857528   -3.2279946    -1.734555  0.060461256   -3.2279946    1.4934395   418311 
 3806000    0.9496093   -3.2289331   -1.7338263  0.058043158   -3.2289331    1.4951068   418300 
 3807000   0.95010544   -3.2295627   -1.7335961  0.056873644   -3.2295627    1.4959667   418278 
 3808000   0.94918248   -3.2271587   -1.7325773  0.065459316   -3.2271587    1.4945813   418259 
 3809000   0.94821441   -3.2262032   -1.7330641  0.061011145   -3.2262032    1.4931391   418236 
 3810000   0.94758735   -3.2263691   -1.7342031   0.06375594   -3.2263691     1.492166   418232 
 3811000   0.94989138   -3.2299802   -1.7341253    0.0592584   -3.2299802    1.4958549   418215 
 3812000   0.94975793   -3.2287996   -1.7331691  0.058959042   -3.2287996    1.4956305   418219 
 3813000   0.94979014   -3.2295885   -1.7337714  0.057558398   -3.2295885    1.4958171   418181 
 3814000   0.94974053   -3.2299736   -1.7341524  0.061536466   -3.2299736    1.4958212   418158 
 3815000   0.94834544   -3.2280111   -1.7344156  0.057397797   -3.2280111    1.4935954   418166 
 3816000   0.94962327   -3.2293122   -1.7335075   0.06159291   -3.2293122    1.4958047   418111 
 3817000   0.94970149    -3.230916   -1.7348343  0.062235472    -3.230916    1.4960818   418068 
 3818000   0.94757417   -3.2287758   -1.7360417  0.060677969   -3.2287758    1.4927341   418067 
 3819000   0.94804221   -3.2291993   -1.7354135  0.056762205   -3.2291993    1.4937859   417979 
 3820000   0.94640298   -3.2280155   -1.7365377  0.059852532   -3.2280155    1.4914778   417902 
 3821000     0.945663   -3.2286475   -1.7382039  0.052067606   -3.2286475    1.4904435   417865 
 3822000   0.94630665   -3.2306735   -1.7391584  0.051259864   -3.2306735    1.4915151   417849 
 3823000   0.94490184   -3.2290556   -1.7395765  0.055816351   -3.2290556    1.4894792   417799 
 3824000   0.94519783   -3.2284778   -1.7384464  0.053648425   -3.2284778    1.4900313   417775 
 3825000   0.94654875   -3.2304974   -1.7383471  0.054012751   -3.2304974    1.4921502   417778 
 3826000   0.94763403   -3.2316505   -1.7379038  0.060359201   -3.2316505    1.4937467   417810 
 3827000   0.94702696   -3.2302995   -1.7374705  0.060477661   -3.2302995    1.4928291   417799 
 3828000   0.94853615   -3.2315876   -1.7363295  0.057904481   -3.2315876    1.4952581   417785 
 3829000    0.9486368   -3.2315473   -1.7360661  0.060050135   -3.2315473    1.4954812   417767 
 3830000   0.94807299   -3.2317553   -1.7370162  0.062026117   -3.2317553    1.4947391   417726 
 3831000   0.94845782   -3.2308386   -1.7354391   0.06171852   -3.2308386    1.4953995   417711 
 3832000   0.94956682   -3.2327398   -1.7354806  0.060614394   -3.2327398    1.4972592   417680 
 3833000   0.95058669   -3.2341716   -1.7353654  0.058953218   -3.2341716    1.4988063   417697 
 3834000    0.9475333   -3.2291517   -1.7352885   0.06195958   -3.2291517    1.4938632   417733 
 3835000   0.94691534   -3.2287494   -1.7357604  0.057490291   -3.2287494     1.492989   417705 
 3836000   0.94742452   -3.2288986   -1.7350495  0.056923091   -3.2288986     1.493849   417689 
 3837000   0.94697366   -3.2277504    -1.734648  0.056971213   -3.2277504    1.4931024   417699 
 3838000   0.94786819   -3.2314833   -1.7367879  0.058773847   -3.2314833    1.4946953   417648 
 3839000   0.94783878   -3.2318735   -1.7371351  0.058081905   -3.2318735    1.4947384   417623 
 3840000   0.94660767   -3.2317781    -1.738881   0.05858384   -3.2317781    1.4928971   417595 
 3841000   0.94561724   -3.2315844     -1.74011  0.061129108   -3.2315844    1.4914743   417556 
 3842000   0.94536985   -3.2306484    -1.739475  0.062871783   -3.2306484    1.4911734   417531 
 3843000   0.94630775   -3.2336851   -1.7409107  0.053105609   -3.2336851    1.4927744   417497 
 3844000   0.94339849    -3.228076   -1.7398446  0.052040002    -3.228076    1.4882314   417484 
 3845000   0.94314404   -3.2295715   -1.7415526   0.05257977   -3.2295715    1.4880189   417431 
 3846000   0.94610366   -3.2337463   -1.7410901  0.054960049   -3.2337463    1.4926562   417440 
 3847000   0.94563079   -3.2320081    -1.740223  0.054993317   -3.2320081    1.4917851   417475 
 3848000   0.94640227    -3.232474   -1.7394003  0.060412016    -3.232474    1.4930737   417455 
 3849000   0.94526108   -3.2327157   -1.7413817  0.056606586   -3.2327157     1.491334   417438 
 3850000    0.9465716   -3.2336652   -1.7403244  0.056833875   -3.2336652    1.4933408   417455 
 3851000   0.94723186   -3.2344187   -1.7399825  0.059646656   -3.2344187    1.4944362   417440 
 3852000   0.94684047   -3.2337189   -1.7398322  0.063725356   -3.2337189    1.4938867   417421 
 3853000   0.94786237    -3.235806   -1.7403464  0.062803056    -3.235806    1.4954596   417432 
 3854000   0.94779344   -3.2359652   -1.7404926  0.058212488   -3.2359652    1.4954726   417398 
 3855000   0.94922883   -3.2359944   -1.7383539  0.058111944   -3.2359944    1.4976406   417425 
 3856000   0.94799854    -3.233872   -1.7381976  0.064165304    -3.233872    1.4956744   417432 
 3857000    0.9495857   -3.2365252   -1.7383324  0.064006594   -3.2365252    1.4981928   417428 
 3858000   0.94882155   -3.2365586   -1.7395462  0.062679029   -3.2365586    1.4970123   417421 
 3859000   0.94844902   -3.2361761   -1.7397802  0.059775264   -3.2361761    1.4963959   417429 
 3860000   0.94696985   -3.2342973   -1.7400669  0.068381385   -3.2342973    1.4942304   417382 
 3861000    0.9469109   -3.2349899   -1.7408203  0.063321174   -3.2349899    1.4941696   417373 
 3862000   0.94761551   -3.2359467   -1.7406186  0.059585393   -3.2359467     1.495328   417360 
 3863000   0.94516972   -3.2335403   -1.7420788  0.062446538   -3.2335403    1.4914614   417362 
 3864000   0.94566722   -3.2349856   -1.7426533  0.061674674   -3.2349856    1.4923323   417338 
 3865000   0.94699209   -3.2352169   -1.7407688  0.057591283   -3.2352169    1.4944481   417331 
 3866000   0.94748213    -3.233876   -1.7386366  0.061007468    -3.233876    1.4952394   417326 
 3867000   0.94703294   -3.2339102   -1.7393726  0.055879837   -3.2339102    1.4945376   417324 
 3868000   0.94613421   -3.2330952   -1.7400188  0.059638638   -3.2330952    1.4930764   417336 
 3869000   0.94752334   -3.2354677   -1.7401705  0.056617096   -3.2354677    1.4952972   417328 
 3870000   0.94694541   -3.2346703   -1.7401777  0.058077918   -3.2346703    1.4944926   417298 
 3871000   0.94537067   -3.2328663   -1.7407338  0.058633103   -3.2328663    1.4921325   417263 
 3872000   0.94714314   -3.2355261   -1.7405065  0.060167538   -3.2355261    1.4950196   417238 
 3873000   0.94757457   -3.2355717   -1.7398531   0.05409162   -3.2355717    1.4957185   417233 
 3874000   0.94793494   -3.2345066   -1.7382443  0.054809808   -3.2345066    1.4962623   417240 
 3875000   0.94645495   -3.2308292   -1.7369925  0.056006468   -3.2308292    1.4938367   417265 
 3876000   0.94666609   -3.2311916   -1.7369178  0.056457703   -3.2311916    1.4942738   417236 
 3877000   0.94924841   -3.2340224    -1.735633  0.058846691   -3.2340224    1.4983894   417225 
 3878000   0.94706879   -3.2326508   -1.7376159  0.056664612   -3.2326508    1.4950349   417201 
 3879000   0.94645138   -3.2310466    -1.736947  0.066087947   -3.2310466    1.4940996   417190 
 3880000   0.94589047   -3.2317256   -1.7383755  0.058730123   -3.2317256    1.4933501   417152 
 3881000   0.94663428   -3.2327282   -1.7382073  0.061554022   -3.2327282    1.4945209   417153 
 3882000   0.94617913   -3.2309127   -1.7370817  0.058253179   -3.2309127     1.493831   417145 
 3883000   0.94655653   -3.2318301   -1.7375824  0.058285013   -3.2318301    1.4942477   417195 
 3884000   0.94592332   -3.2317877    -1.738554  0.051616374   -3.2317877    1.4932338   417199 
 3885000   0.94489933   -3.2315991   -1.7398995  0.055489318   -3.2315991    1.4916995   417176 
 3886000   0.94383382   -3.2301044   -1.7400548  0.057375753   -3.2301044    1.4900496   417167 
 3887000   0.94570675   -3.2323934   -1.7393905  0.054479118   -3.2323934    1.4930028   417168 
 3888000   0.94472494    -3.231884   -1.7404598  0.056449468    -3.231884    1.4914242   417176 
 3889000    0.9456822   -3.2335279   -1.7404027  0.055941878   -3.2335279    1.4931251   417123 
 3890000   0.94645697   -3.2332089   -1.7388569  0.062413469   -3.2332089     1.494352   417122 
 3891000   0.94387708   -3.2298186   -1.7394578  0.054309349   -3.2298186    1.4903608   417099 
 3892000    0.9465463   -3.2338204   -1.7390658  0.055269319   -3.2338204    1.4947546   417049 
 3893000   0.94606626   -3.2327116   -1.7386075  0.061208398   -3.2327116    1.4941041   417019 
 3894000   0.94652513   -3.2344166   -1.7394875  0.058640016   -3.2344166    1.4949291   416991 
 3895000    0.9461725   -3.2342546   -1.7398681  0.058050522   -3.2342546    1.4943865   416987 
 3896000   0.94433145   -3.2339786   -1.7424176  0.061077306   -3.2339786     1.491561   416964 
 3897000   0.94443913   -3.2333555   -1.7416602  0.058867795   -3.2333555    1.4916953   416974 
 3898000   0.94315513   -3.2323937   -1.7426549  0.059893036   -3.2323937    1.4897388   416954 
 3899000   0.94511607    -3.234789   -1.7417845  0.054695924    -3.234789    1.4930044   416907 
 3900000   0.94437215   -3.2353798   -1.7433323  0.060054001   -3.2353798    1.4920476   416846 
 3901000   0.94541758   -3.2367435   -1.7430013  0.053860974   -3.2367435    1.4937423   416834 
 3902000   0.94496501   -3.2358632   -1.7427536  0.058414256   -3.2358632    1.4931096   416811 
 3903000   0.94569175   -3.2362651   -1.7420287  0.054566862   -3.2362651    1.4942364   416817 
 3904000   0.94541043   -3.2369744   -1.7429854  0.059835733   -3.2369744     1.493989   416762 
 3905000   0.94691588   -3.2389395   -1.7425176  0.054255423   -3.2389395    1.4964219   416747 
 3906000   0.94661981   -3.2378543   -1.7417783  0.066031159   -3.2378543    1.4960761   416713 
 3907000   0.94623884   -3.2389039   -1.7433761  0.061586339   -3.2389039    1.4955278   416698 
 3908000    0.9453252    -3.234925   -1.7407515    0.0615123    -3.234925    1.4941734   416673 
 3909000   0.94598285   -3.2372694   -1.7419381  0.059341861   -3.2372694    1.4953313   416640 
 3910000   0.94596756   -3.2371835   -1.7418799  0.059458561   -3.2371835    1.4953036   416641 
 3911000   0.94516165   -3.2355235   -1.7414544  0.062636829   -3.2355235    1.4940691   416630 
 3912000   0.94484869    -3.236318   -1.7427257  0.062509951    -3.236318    1.4935923   416625 
 3913000   0.94323385   -3.2350641   -1.7440245   0.06228824   -3.2350641    1.4910396   416625 
 3914000   0.94334175    -3.236209   -1.7450096  0.054633708    -3.236209    1.4911994   416628 
 3915000    0.9434348   -3.2370801   -1.7456798  0.058914806   -3.2370801    1.4914002   416613 
 3916000   0.94357921   -3.2369291   -1.7453041  0.057143198   -3.2369291    1.4916249   416614 
 3917000   0.94339618   -3.2351373   -1.7436728  0.059731705   -3.2351373    1.4914645   416578 
 3918000   0.94296086   -3.2341847   -1.7434479  0.055472696   -3.2341847    1.4907369   416589 
 3919000   0.94187421    -3.232918    -1.743874   0.05650307    -3.232918     1.489044   416582 
 3920000   0.94300715   -3.2343944   -1.7435593  0.058999007   -3.2343944    1.4908351   416582 
 3921000   0.94248977   -3.2339411   -1.7439848  0.058125686   -3.2339411    1.4899564   416599 
 3922000   0.94242292   -3.2341943   -1.7442649  0.062252541   -3.2341943    1.4899294   416577 
 3923000   0.94315157   -3.2343632   -1.7431924  0.059952229   -3.2343632    1.4911708   416552 
 3924000   0.94439188   -3.2359944   -1.7428375  0.061585934   -3.2359944    1.4931569   416545 
 3925000   0.94273238   -3.2329042   -1.7422422    0.0588269   -3.2329042    1.4906619   416509 
 3926000   0.94068433   -3.2315354   -1.7440297  0.056388528   -3.2315354    1.4875057   416486 
 3927000   0.94148472   -3.2326881   -1.7437631  0.058348642   -3.2326881    1.4889251   416443 
 3928000   0.94073704   -3.2321029   -1.7443995  0.061886675   -3.2321029    1.4877033   416454 
 3929000   0.94072995   -3.2319998   -1.7441969  0.059622915   -3.2319998    1.4878029   416423 
 3930000    0.9412212   -3.2335985   -1.7449115  0.058014819   -3.2335985    1.4886871   416393 
 3931000    0.9426583   -3.2354355   -1.7445185  0.057949674   -3.2354355    1.4909171   416405 
 3932000   0.94264348   -3.2359554   -1.7450403  0.056108685   -3.2359554    1.4909151   416399 
 3933000   0.94351288   -3.2367047   -1.7443284  0.059611575   -3.2367047    1.4923762   416375 
 3934000    0.9438921   -3.2364705   -1.7436127  0.052891968   -3.2364705    1.4928577   416408 
 3935000   0.94331079   -3.2350402   -1.7431126  0.055986838   -3.2350402    1.4919276   416411 
 3936000   0.94295371   -3.2357207    -1.744168  0.062527953   -3.2357207    1.4915527   416358 
 3937000   0.94255456   -3.2369912   -1.7460448  0.066003624   -3.2369912    1.4909464   416351 
 3938000    0.9420088   -3.2358178   -1.7456417   0.05970916   -3.2358178    1.4901761   416325 
 3939000    0.9419696   -3.2358569   -1.7456998  0.060122775   -3.2358569    1.4901571   416313 
 3940000   0.94243397   -3.2382372   -1.7471915  0.053735146   -3.2382372    1.4910457   416270 
 3941000   0.94219434   -3.2367563   -1.7461291  0.060438186   -3.2367563    1.4906272   416281 
 3942000   0.94273678   -3.2374499   -1.7459861  0.055517597   -3.2374499    1.4914639   416287 
 3943000   0.94190461   -3.2366428   -1.7463738   0.05422755   -3.2366428     1.490269   416253 
 3944000   0.94247085   -3.2366479   -1.7453719  0.057235959   -3.2366479     1.491276   416222 
 3945000   0.94132563   -3.2353981   -1.7458447  0.058151925   -3.2353981    1.4895534   416197 
 3946000    0.9420822   -3.2362901   -1.7457365  0.060129943   -3.2362901    1.4905536   416252 
 3947000   0.94275167   -3.2384179     -1.74678  0.054866272   -3.2384179    1.4916379   416245 
 3948000   0.94308258   -3.2391819   -1.7469667  0.058130181   -3.2391819    1.4922153   416230 
 3949000    0.9423764   -3.2378991   -1.7466686  0.059218571   -3.2378991    1.4912304   416193 
 3950000   0.94321482   -3.2396294   -1.7469216  0.061211965   -3.2396294    1.4927078   416151 
 3951000   0.94166761   -3.2379656   -1.7475953  0.061200854   -3.2379656    1.4903703   416120 
 3952000   0.94174603   -3.2384094   -1.7479151  0.063631443   -3.2384094    1.4904944   416120 
 3953000   0.94069642   -3.2373522   -1.7485441  0.057805417   -3.2373522    1.4888081   416127 
 3954000   0.94003067   -3.2375511   -1.7499539  0.058468376   -3.2375511    1.4875972   416171 
 3955000   0.94161779   -3.2405714   -1.7504411  0.060060576   -3.2405714    1.4901303   416165 
 3956000    0.9413769   -3.2414888   -1.7517147  0.056803733   -3.2414888    1.4897741   416158 
 3957000   0.94048826   -3.2398272   -1.7512948  0.061149218   -3.2398272    1.4885323   416112 
 3958000   0.93894342   -3.2368667   -1.7508009  0.055267017   -3.2368667    1.4860658   416118 
 3959000   0.94055259   -3.2404691   -1.7518671  0.054578389   -3.2404691    1.4886019   416121 
 3960000   0.94057787   -3.2402135   -1.7514177  0.059402299   -3.2402135    1.4887958   416078 
 3961000   0.94177513   -3.2413622   -1.7506928  0.058035732   -3.2413622    1.4906694   416084 
 3962000   0.94254804   -3.2419553   -1.7499442  0.055808364   -3.2419553    1.4920111   416051 
 3963000   0.94214519   -3.2410479   -1.7496852  0.057369581   -3.2410479    1.4913627   416054 
 3964000   0.94295506    -3.241182   -1.7485194  0.058733382    -3.241182    1.4926626   416049 
 3965000   0.94343794   -3.2437449   -1.7502929  0.061836446   -3.2437449    1.4934521   416042 
 3966000   0.94390385     -3.24401   -1.7497736  0.057922881     -3.24401    1.4942363   416029 
 3967000   0.94125913   -3.2416562   -1.7514633  0.058824322   -3.2416562    1.4901929   415989 
 3968000   0.94130143   -3.2405255    -1.750323  0.063186284   -3.2405255    1.4902025   416005 
 3969000   0.94117811   -3.2394929   -1.7492455  0.060875577   -3.2394929    1.4902473   415938 
 3970000   0.94170407   -3.2411984   -1.7499928  0.058260919   -3.2411984    1.4912056   415903 
 3971000    0.9427962    -3.242849   -1.7498063  0.057637047    -3.242849    1.4930427   415873 
 3972000   0.94175255   -3.2427332   -1.7513038  0.052146573   -3.2427332    1.4914294   415862 
 3973000   0.94129208   -3.2421645   -1.7514428  0.061313308   -3.2421645    1.4907217   415856 
 3974000   0.94086167   -3.2416034   -1.7515526  0.061113702   -3.2416034    1.4900508   415853 
 3975000   0.94015852    -3.240103   -1.7510512  0.058318025    -3.240103    1.4890518   415821 
 3976000    0.9407879   -3.2403627   -1.7502317  0.060828744   -3.2403627     1.490131   415798 
 3977000   0.94018437   -3.2409236   -1.7517664  0.054439384   -3.2409236    1.4891572   415803 
 3978000   0.94057772   -3.2394763   -1.7496997   0.05723691   -3.2394763    1.4897766   415804 
 3979000   0.93900404   -3.2386854   -1.7512617  0.057192698   -3.2386854    1.4874236   415765 
 3980000   0.93917362   -3.2392531   -1.7514428  0.055289803   -3.2392531    1.4878103   415732 
 3981000   0.93898228    -3.239702   -1.7521196  0.056540682    -3.239702    1.4875823   415711 
 3982000   0.93851804   -3.2379022   -1.7509337   0.06135926   -3.2379022    1.4869685   415677 
 3983000    0.9379334   -3.2356556   -1.7495097  0.060223358   -3.2356556    1.4861459   415648 
 3984000     0.940332   -3.2395253   -1.7495394  0.055971181   -3.2395253    1.4899859   415637 
 3985000   0.94169069   -3.2410781   -1.7489285  0.057757179   -3.2410781    1.4921495   415634 
 3986000   0.94176007   -3.2392253   -1.7470125  0.057851202   -3.2392253    1.4922128   415647 
 3987000    0.9416059   -3.2393126    -1.747398  0.058055099   -3.2393126    1.4919147   415662 
 3988000   0.94229527   -3.2397296   -1.7466975  0.055844139   -3.2397296    1.4930321   415655 
 3989000   0.94182397   -3.2387411   -1.7462475  0.059476379   -3.2387411    1.4924936   415597 
 3990000   0.94084704   -3.2381817   -1.7473044  0.058830121   -3.2381817    1.4908773   415616 
 3991000   0.93977654   -3.2364759     -1.74732  0.063068883   -3.2364759    1.4891559   415623 
 3992000   0.94013957   -3.2358932   -1.7460761  0.057646661   -3.2358932    1.4898172   415599 
 3993000     0.940903   -3.2373602   -1.7464014  0.057107751   -3.2373602    1.4909588   415618 
 3994000   0.94060197    -3.238329   -1.7478222   0.05610019    -3.238329    1.4905069   415611 
 3995000   0.94123161   -3.2386775   -1.7472446  0.058216059   -3.2386775    1.4914329   415631 
 3996000   0.94209104   -3.2385978   -1.7459109  0.056572614   -3.2385978    1.4926869   415661 
 3997000   0.94188961    -3.238649   -1.7462632  0.054666511    -3.238649    1.4923857   415656 
 3998000   0.94293466   -3.2381405   -1.7441816  0.064461591   -3.2381405    1.4939589   415679 
 3999000   0.94169281    -3.236515   -1.7444806  0.062299946    -3.236515    1.4920344   415667 
 4000000    0.9406091   -3.2352274   -1.7449423  0.060309464   -3.2352274    1.4902851   415676 
 4001000   0.94211829   -3.2368796   -1.7441854  0.054569841   -3.2368796    1.4926942   415671 
 4002000   0.94204266   -3.2364204   -1.7436952  0.059188979   -3.2364204    1.4927252   415629 
 4003000   0.94103135   -3.2350334   -1.7437313  0.060710357   -3.2350334    1.4913021   415579 
 4004000   0.94145686   -3.2369928     -1.74516  0.059350985   -3.2369928    1.4918328   415619 
 4005000   0.93996005    -3.233977   -1.7445017  0.061922674    -3.233977    1.4894753   415615 
 4006000   0.94154489   -3.2363933   -1.7443743  0.053514102   -3.2363933     1.492019   415606 
 4007000    0.9401851   -3.2331337   -1.7432623  0.059489586   -3.2331337    1.4898714   415604 
 4008000   0.94031637   -3.2357356   -1.7454375  0.054695562   -3.2357356    1.4902981   415543 
 4009000   0.93999996   -3.2360192   -1.7463121  0.052301782   -3.2360192     1.489707   415568 
 4010000   0.93921184   -3.2348318   -1.7461982  0.058607483   -3.2348318    1.4886336   415519 
 4011000   0.93793632   -3.2336126    -1.747015  0.056371167   -3.2336126    1.4865976   415523 
 4012000    0.9380191     -3.23406   -1.7473492  0.052803711     -3.23406    1.4867109   415528 
 4013000   0.93966228    -3.236112   -1.7467215  0.050828931    -3.236112    1.4893905   415507 
 4014000   0.93872207   -3.2348534   -1.7467634  0.057663501   -3.2348534    1.4880901   415454 
 4015000    0.9397028   -3.2353837   -1.7457354  0.058246112   -3.2353837    1.4896483   415453 
 4016000   0.93972958   -3.2364957   -1.7466758  0.056012814   -3.2364957    1.4898199   415417 
 4017000      0.94005   -3.2374766    -1.747346   0.05793429   -3.2374766    1.4901306   415472 
 4018000   0.94022251    -3.236406   -1.7460738  0.060447694    -3.236406    1.4903323   415492 
 4019000   0.94132228   -3.2379219   -1.7458535  0.055802773   -3.2379219    1.4920683   415494 
 4020000    0.9403514   -3.2374731   -1.7469688  0.056402591   -3.2374731    1.4905043   415501 
 4021000   0.94030909   -3.2377479   -1.7471887   0.04956012   -3.2377479    1.4905592   415467 
 4022000   0.94030452   -3.2373013   -1.7466848  0.052646138   -3.2373013    1.4906165   415449 
 4023000   0.93875505   -3.2355851   -1.7472816  0.053395355   -3.2355851    1.4883036   415409 
 4024000   0.94027749   -3.2379063   -1.7471711  0.057458366   -3.2379063    1.4907352   415404 
 4025000   0.93981903   -3.2378091   -1.7477255  0.058523073   -3.2378091    1.4900836   415383 
 4026000   0.93977246   -3.2378024   -1.7477496  0.057232177   -3.2378024    1.4900529   415371 
 4027000    0.9413209    -3.238344   -1.7457425  0.060580948    -3.238344    1.4926014   415345 
 4028000   0.93973362   -3.2370221   -1.7468479  0.056215015   -3.2370221    1.4901742   415320 
 4029000   0.94087463   -3.2383025   -1.7461716  0.057892779   -3.2383025    1.4921309   415279 
 4030000   0.94244437   -3.2420068   -1.7473036  0.056303824   -3.2420068    1.4947031   415256 
 4031000   0.94220282   -3.2419966   -1.7476694  0.058635269   -3.2419966    1.4943272   415254 
 4032000   0.94182155   -3.2411964   -1.7474235  0.058717776   -3.2411964    1.4937729   415240 
 4033000    0.9420723   -3.2419635   -1.7477641   0.05421035   -3.2419635    1.4941994   415232 
 4034000   0.94047268   -3.2402865   -1.7486278  0.060274419   -3.2402865    1.4916587   415233 
 4035000   0.93962193   -3.2384801   -1.7480488  0.059268225   -3.2384801    1.4904314   415199 
 4036000   0.93996098   -3.2410091   -1.7499932  0.054454109   -3.2410091    1.4910158   415186 
 4037000   0.93841875   -3.2386608   -1.7499802  0.059180543   -3.2386608    1.4886806   415155 
 4038000   0.93909651   -3.2384992   -1.7488008  0.063856058   -3.2384992    1.4896984   415171 
 4039000   0.93952965   -3.2400379   -1.7494837  0.056401743   -3.2400379    1.4905542   415124 
 4040000   0.93875829   -3.2401453   -1.7506211  0.052908649   -3.2401453    1.4895242   415070 
 4041000   0.93957567   -3.2405112   -1.7497727  0.059340102   -3.2405112    1.4907386   415093 
 4042000   0.93943154   -3.2402024   -1.7497643  0.058825113   -3.2402024    1.4904381   415113 
 4043000   0.93951765   -3.2396954   -1.7491674  0.056169302   -3.2396954     1.490528   415126 
 4044000   0.93913554   -3.2387582   -1.7487215  0.058200346   -3.2387582    1.4900367   415094 
 4045000   0.93973706   -3.2383695   -1.7475078  0.052874846   -3.2383695    1.4908617   415130 
 4046000   0.93998294   -3.2395888   -1.7481358  0.062874766   -3.2395888     1.491453   415074 
 4047000   0.94055827   -3.2401701   -1.7477467  0.063651092   -3.2401701    1.4924234   415058 
 4048000   0.94185165   -3.2401311   -1.7456842  0.059061632   -3.2401311    1.4944469   415066 
 4049000   0.94164043   -3.2393822   -1.7450581  0.059342903   -3.2393822    1.4943241   415007 
 4050000   0.94297373   -3.2416195    -1.744974  0.062928218   -3.2416195    1.4966455   414950 
 4051000   0.94173642   -3.2391744   -1.7444962  0.057130035   -3.2391744    1.4946781   414951 
 4052000   0.94040094   -3.2394955   -1.7469477  0.061161817   -3.2394955    1.4925477   414954 
 4053000   0.94002266   -3.2403577   -1.7483672  0.063061589   -3.2403577    1.4919905   414942 
 4054000   0.94026656   -3.2396143    -1.747269  0.057800615   -3.2396143    1.4923453   414951 
 4055000   0.94026794   -3.2399289   -1.7476426  0.055094866   -3.2399289    1.4922863   414968 
 4056000   0.93846802   -3.2374754   -1.7479991   0.05339059   -3.2374754    1.4894763   414955 
 4057000   0.93893809   -3.2370448   -1.7467937  0.061780354   -3.2370448    1.4902511   414947 
 4058000   0.93846654   -3.2364967   -1.7471017  0.057339499   -3.2364967     1.489395   414977 
 4059000   0.93781657    -3.235989   -1.7475466  0.055652052    -3.235989    1.4884424   414955 
 4060000   0.93818156   -3.2378169   -1.7488132  0.052915695   -3.2378169    1.4890037   414960 
 4061000   0.93751665     -3.23651   -1.7485006    0.0529933     -3.23651    1.4880094   414943 
 4062000   0.93846402   -3.2391348   -1.7496218  0.053447074   -3.2391348    1.4895131   414943 
 4063000   0.94029907   -3.2400809   -1.7476481  0.059365136   -3.2400809    1.4924328   414941 
 4064000   0.93793967   -3.2373927    -1.748615  0.063644726   -3.2373927    1.4887777   414916 
 4065000   0.93863365   -3.2375762   -1.7475461  0.058647602   -3.2375762    1.4900301   414874 
 4066000   0.93935394   -3.2385554   -1.7473927  0.057721044   -3.2385554    1.4911627   414877 
 4067000   0.94040409   -3.2401852   -1.7472547  0.056076837   -3.2401852    1.4929305   414849 
 4068000   0.94108737   -3.2390715   -1.7451247  0.058375238   -3.2390715    1.4939468   414868 
 4069000   0.94065084   -3.2389394    -1.745754  0.062306853   -3.2389394    1.4931855   414887 
 4070000   0.94185462   -3.2406251   -1.7456513  0.058662736   -3.2406251    1.4949738   414921 
 4071000    0.9413232   -3.2407982   -1.7465742  0.060099122   -3.2407982    1.4942239   414895 
 4072000   0.93847646   -3.2379293   -1.7481273  0.060372008   -3.2379293    1.4898021   414868 
 4073000   0.93794881   -3.2389687    -1.749857  0.058446494   -3.2389687    1.4891116   414827 
 4074000   0.93919078   -3.2402755   -1.7490627   0.05542966   -3.2402755    1.4912128   414791 
 4075000    0.9371967   -3.2372176   -1.7491889  0.062713215   -3.2372176    1.4880288   414796 
 4076000   0.93790272   -3.2400803   -1.7509055   0.05744792   -3.2400803    1.4891749   414789 
 4077000   0.93866841   -3.2395713   -1.7490801  0.055233089   -3.2395713    1.4904912   414761 
 4078000   0.93743856   -3.2391003   -1.7506086  0.056580978   -3.2391003    1.4884917   414774 
 4079000   0.93774593   -3.2387026   -1.7497408  0.055359283   -3.2387026    1.4889618   414779 
 4080000   0.93835748    -3.240345   -1.7503295  0.059163748    -3.240345    1.4900155   414756 
 4081000   0.93759037   -3.2396125   -1.7508151  0.058833623   -3.2396125    1.4887974   414756 
 4082000   0.94007415   -3.2436665   -1.7507164  0.054571978   -3.2436665    1.4929501   414698 
 4083000   0.93769163   -3.2402822   -1.7509506  0.060194567   -3.2402822    1.4893316   414652 
 4084000   0.93984689   -3.2440053   -1.7510992  0.054330984   -3.2440053     1.492906   414610 
 4085000   0.93866909   -3.2428066   -1.7515484  0.055708687   -3.2428066    1.4912581   414548 
 4086000   0.93719814   -3.2421126   -1.7529686  0.057219679   -3.2421126     1.489144   414486 
 4087000   0.93716067    -3.243335   -1.7540602  0.059509925    -3.243335    1.4892749   414433 
 4088000   0.93780811   -3.2433381    -1.752966  0.053185343   -3.2433381    1.4903721   414414 
 4089000   0.93523822    -3.240025   -1.7536402  0.052645592    -3.240025    1.4863848   414387 
 4090000   0.93679136   -3.2414238   -1.7525706  0.056696198   -3.2414238    1.4888532   414387 
 4091000   0.93861264   -3.2421916   -1.7504906  0.056579059   -3.2421916     1.491701   414400 
 4092000   0.93832337   -3.2424233   -1.7511892  0.058749339   -3.2424233    1.4912341   414402 
 4093000   0.93826388   -3.2423493   -1.7512926  0.057217038   -3.2423493    1.4910568   414425 
 4094000   0.93891119   -3.2411961    -1.749053  0.059617275   -3.2411961    1.4921431   414409 
 4095000   0.93912913   -3.2433043   -1.7507824  0.055394143   -3.2433043    1.4925218   414400 
 4096000   0.93668082   -3.2387883   -1.7500676  0.066574617   -3.2387883    1.4887207   414375 
 4097000   0.93963964   -3.2423944   -1.7489243  0.054478933   -3.2423944    1.4934701   414362 
 4098000   0.93821494   -3.2395208   -1.7482575  0.058226897   -3.2395208    1.4912633   414346 
 4099000   0.93713264   -3.2380161   -1.7484084  0.059052077   -3.2380161    1.4896077   414328 
 4100000   0.93737711   -3.2397713   -1.7497175  0.054944691   -3.2397713    1.4900539   414312 
 4101000    0.9365973    -3.238797    -1.749936  0.052978508    -3.238797     1.488861   414299 
 4102000    0.9371202   -3.2404896   -1.7508909  0.054122291   -3.2404896    1.4895987   414325 
 4103000   0.93622847   -3.2382344   -1.7501034  0.055017027   -3.2382344     1.488131   414339 
 4104000   0.93570353   -3.2381139    -1.750907  0.055543671   -3.2381139    1.4872069   414364 
 4105000   0.93538437   -3.2372239   -1.7505278  0.055794028   -3.2372239     1.486696   414365 
 4106000    0.9366936   -3.2390645   -1.7502768  0.054830283   -3.2390645    1.4887877   414362 
 4107000    0.9362404   -3.2379965   -1.7499328  0.054130964   -3.2379965    1.4880638   414363 
 4108000   0.93577305   -3.2370287   -1.7497328  0.059142342   -3.2370287    1.4872958   414370 
 4109000   0.93635695   -3.2373199   -1.7490493  0.059174252   -3.2373199    1.4882706   414357 
 4110000   0.93582383   -3.2359768   -1.7484316  0.057366153   -3.2359768    1.4875453   414323 
 4111000   0.93675776   -3.2376024   -1.7485007   0.05744605   -3.2376024    1.4891017   414303 
 4112000   0.93542436   -3.2357964   -1.7486816   0.05589827   -3.2357964    1.4871149   414266 
 4113000   0.93572763   -3.2369719   -1.7493606  0.055569003   -3.2369719    1.4876114   414262 
 4114000   0.93621152   -3.2381941   -1.7497488  0.052987651   -3.2381941    1.4884453   414244 
 4115000   0.93637092    -3.238635   -1.7498392  0.052313893    -3.238635    1.4887958   414217 
 4116000    0.9357963   -3.2392432   -1.7512999  0.052740208   -3.2392432    1.4879432   414200 
 4117000   0.93524327   -3.2391234   -1.7519338  0.053856958   -3.2391234    1.4871896   414165 
 4118000   0.93589663   -3.2408773   -1.7524907  0.054394568   -3.2408773    1.4883866   414121 
 4119000   0.93596139   -3.2393667   -1.7509777  0.053983702   -3.2393667     1.488389   414149 
 4120000   0.93700753    -3.240325   -1.7503192  0.053308559    -3.240325    1.4900058   414162 
 4121000   0.93615772   -3.2399631   -1.7512331  0.058186208   -3.2399631      1.48873   414141 
 4122000   0.93669218   -3.2418139   -1.7523203  0.060251624   -3.2418139    1.4894936   414165 
 4123000   0.93690939   -3.2416324   -1.7516999  0.057135483   -3.2416324    1.4899325   414139 
 4124000   0.93721116   -3.2419697   -1.7516976   0.05432136   -3.2419697    1.4902721   414178 
 4125000   0.93577968   -3.2413044   -1.7532295  0.055534283   -3.2413044    1.4880749   414156 
 4126000    0.9355677   -3.2427099   -1.7549254  0.059622447   -3.2427099    1.4877845   414143 
 4127000   0.93735537   -3.2446763   -1.7540274  0.060270408   -3.2446763    1.4906489   414137 
 4128000   0.93757055   -3.2441021   -1.7530678  0.060000016   -3.2441021    1.4910343   414125 
 4129000   0.93742646   -3.2437864   -1.7531432  0.058268455   -3.2437864    1.4906432   414170 
 4130000    0.9385824   -3.2459872   -1.7534014  0.059702671   -3.2459872    1.4925858   414141 
 4131000   0.93728785   -3.2450767   -1.7545747  0.056648277   -3.2450767     1.490502   414148 
 4132000   0.93751826   -3.2460404   -1.7550244  0.057671075   -3.2460404     1.491016   414107 
 4133000    0.9377102   -3.2458623   -1.7545267  0.055858516   -3.2458623    1.4913356   414103 
 4134000    0.9370323   -3.2455284   -1.7551917  0.058623549   -3.2455284    1.4903367   414081 
 4135000   0.93630821   -3.2444999    -1.755304  0.057599955   -3.2444999    1.4891958   414078 
 4136000   0.93738905   -3.2461533   -1.7551484  0.059092594   -3.2461533    1.4910049   414053 
 4137000   0.93593375   -3.2438256   -1.7552182  0.053097242   -3.2438256    1.4886074   414076 
 4138000   0.93662114   -3.2443764   -1.7546253  0.053809357   -3.2443764    1.4897511   414062 
 4139000   0.93628856   -3.2451334   -1.7557638  0.052911359   -3.2451334    1.4893696   414021 
 4140000   0.93498085   -3.2436802   -1.7563082  0.057854871   -3.2436802     1.487372   413998 
 4141000   0.93624165   -3.2455829   -1.7562196  0.060432174   -3.2455829    1.4893633   414002 
 4142000   0.93619142   -3.2455337   -1.7562467  0.061271492   -3.2455337     1.489287   414001 
 4143000    0.9364095   -3.2465317   -1.7567179  0.050880497   -3.2465317    1.4898138   413951 
 4144000   0.93793954   -3.2481097   -1.7558976  0.053931582   -3.2481097    1.4922121   413961 
 4145000   0.93734202   -3.2450862   -1.7538031  0.057359621   -3.2450862    1.4912831   413955 
 4146000   0.93754737   -3.2456201   -1.7538986  0.062341342   -3.2456201    1.4917215   413924 
 4147000   0.93760696   -3.2458466   -1.7542357  0.057745879   -3.2458466    1.4916109   413981 
 4148000   0.93620643   -3.2448614   -1.7554894  0.054848588   -3.2448614     1.489372   413984 
 4149000   0.93574931   -3.2442937   -1.7556129  0.056966327   -3.2442937    1.4886808   413974 
 4150000    0.9354718   -3.2452986   -1.7570485  0.059133019   -3.2452986    1.4882501   413971 
 4151000   0.93403737   -3.2429867   -1.7569648   0.05753167   -3.2429867    1.4860219   413956 
 4152000   0.93438685   -3.2438702   -1.7571127   0.05051181   -3.2438702    1.4867575   413906 
 4153000   0.93434454   -3.2443425   -1.7576128  0.057924478   -3.2443425    1.4867297   413895 
 4154000   0.93408425   -3.2440042   -1.7576995  0.050307652   -3.2440042    1.4863047   413898 
 4155000   0.93560828   -3.2453845   -1.7567339  0.055121065   -3.2453845    1.4886506   413920 
 4156000   0.93543206   -3.2440608   -1.7555935  0.057668153   -3.2440608    1.4884673   413893 
 4157000   0.93565308   -3.2447308   -1.7558183   0.06006842   -3.2447308    1.4889125   413867 
 4158000   0.93549674   -3.2444639   -1.7557534  0.057353061   -3.2444639    1.4887105   413854 
 4159000   0.93625849   -3.2459614   -1.7557074  0.055315963   -3.2459614     1.490254   413762 
 4160000    0.9359406   -3.2457712    -1.756016  0.055492062   -3.2457712    1.4897552   413760 
 4161000   0.93709621   -3.2466315   -1.7549396  0.060884718   -3.2466315     1.491692   413733 
 4162000   0.93612848   -3.2462939   -1.7560523  0.054536154   -3.2462939    1.4902416   413708 
 4163000   0.93694117   -3.2465204   -1.7550283  0.057139597   -3.2465204     1.491492   413720 
 4164000   0.93401244   -3.2425136    -1.755637  0.056595302   -3.2425136    1.4868766   413707 
 4165000   0.93482831   -3.2452655   -1.7569318  0.054265064   -3.2452655    1.4883337   413663 
 4166000   0.93520647   -3.2446702   -1.7556373  0.057153584   -3.2446702    1.4890329   413636 
 4167000   0.93586403   -3.2464849   -1.7562104  0.058292718   -3.2464849    1.4902745   413582 
 4168000   0.93554756   -3.2472928   -1.7574359  0.054773377   -3.2472928     1.489857   413558 
 4169000   0.93542552   -3.2467976   -1.7571818  0.055646173   -3.2467976    1.4896158   413571 
 4170000   0.93524972   -3.2461728   -1.7568009  0.055126579   -3.2461728    1.4893719   413561 
 4171000   0.93552173   -3.2468645   -1.7569694  0.059689261   -3.2468645    1.4898951   413536 
 4172000   0.93497058   -3.2456131   -1.7565922  0.057631512   -3.2456131    1.4890209   413535 
 4173000   0.93461662   -3.2448786   -1.7563997  0.055509426   -3.2448786    1.4884788   413529 
 4174000   0.93383368   -3.2454422   -1.7581636  0.055362452   -3.2454422    1.4872787   413516 
 4175000   0.93529959   -3.2477559   -1.7581066  0.057314116   -3.2477559    1.4896494   413506 
 4176000   0.93455463   -3.2452813    -1.756678   0.05842547   -3.2452813    1.4886033   413467 
 4177000   0.93509304   -3.2451773   -1.7557524   0.05686072   -3.2451773    1.4894249   413477 
 4178000   0.93376518   -3.2440591   -1.7567277  0.059156816   -3.2440591    1.4873314   413471 
 4179000   0.93436799   -3.2441433   -1.7560065  0.058479378   -3.2441433    1.4881368   413514 
 4180000   0.93380526   -3.2439253    -1.756548  0.057761555   -3.2439253    1.4873773   413476 
 4181000   0.93610976   -3.2481068   -1.7569254   0.05499243   -3.2481068    1.4911814   413439 
 4182000   0.93554903   -3.2472587   -1.7569561  0.056895909   -3.2472587    1.4903025   413435 
 4183000   0.93577837   -3.2484376   -1.7576975  0.061475402   -3.2484376      1.49074   413415 
 4184000   0.93477376   -3.2475587    -1.758329  0.060944551   -3.2475587    1.4892297   413390 
 4185000   0.93506923     -3.24705   -1.7572127  0.052675839     -3.24705    1.4898373   413352 
 4186000   0.93407472   -3.2483027   -1.7599059  0.056441006   -3.2483027    1.4883968   413312 
 4187000   0.93334343   -3.2465504   -1.7593009  0.055037669   -3.2465504    1.4872496   413307 
 4188000     0.933611   -3.2453505   -1.7576854  0.059695588   -3.2453505    1.4876651   413310 
 4189000   0.93423918   -3.2463324   -1.7576375   0.05888753   -3.2463324    1.4886949   413302 
 4190000   0.93538261    -3.248862   -1.7582476  0.054319908    -3.248862    1.4906143   413275 
 4191000   0.93477755   -3.2469878   -1.7572368  0.057309925   -3.2469878     1.489751   413247 
 4192000   0.93665081   -3.2488464   -1.7561208   0.05383252   -3.2488464    1.4927256   413250 
 4193000   0.93416106   -3.2468623   -1.7579641  0.058168652   -3.2468623    1.4888982   413211 
 4194000   0.93411283   -3.2476392   -1.7587674  0.054610016   -3.2476392    1.4888718   413197 
 4195000    0.9349228   -3.2479676   -1.7576353  0.054789876   -3.2479676    1.4903323   413150 
 4196000    0.9356562    -3.249088   -1.7575685  0.061023592    -3.249088    1.4915195   413145 
 4197000   0.93494806   -3.2477756   -1.7572731  0.060077559   -3.2477756    1.4905025   413114 
 4198000    0.9356969   -3.2485598   -1.7568924  0.057617772   -3.2485598    1.4916674   413122 
 4199000   0.93406493   -3.2467293   -1.7576887  0.059735534   -3.2467293    1.4890405   413129 
 4200000   0.93425122   -3.2470648   -1.7576624  0.059162828   -3.2470648    1.4894024   413111 
 4201000   0.93454333   -3.2458385   -1.7558839   0.06025439   -3.2458385    1.4899546   413087 
 4202000   0.93456333   -3.2480999   -1.7581494  0.057392103   -3.2480999    1.4899505   413097 
 4203000   0.93353477   -3.2463711   -1.7580784  0.053480871   -3.2463711    1.4882926   413102 
 4204000   0.93279968   -3.2456123   -1.7585276  0.053676557   -3.2456123    1.4870847   413112 
 4205000   0.93311974   -3.2465183   -1.7588297  0.051694101   -3.2465183    1.4876886   413086 
 4206000    0.9321065   -3.2452576   -1.7590945  0.052971021   -3.2452576    1.4861631   413061 
 4207000   0.93181272   -3.2439255    -1.758274  0.057723903   -3.2439255    1.4856515   413073 
 4208000   0.93329977   -3.2463312   -1.7584277   0.05647263   -3.2463312    1.4879036   413106 
 4209000   0.93372896   -3.2465273     -1.75799  0.059226855   -3.2465273    1.4885374   413120 
 4210000   0.93378208   -3.2448128   -1.7562628  0.057508114   -3.2448128      1.48855   413140 
 4211000   0.93276303   -3.2429131   -1.7558112  0.058145204   -3.2429131    1.4871019   413091 
 4212000   0.93179259   -3.2433748   -1.7576511  0.058102144   -3.2433748    1.4857238   413044 
 4213000   0.93223305   -3.2438405     -1.75731  0.059242518   -3.2438405    1.4865304   413015 
 4214000   0.93239809   -3.2441113   -1.7574257  0.056591962   -3.2441113    1.4866856   413045 
 4215000   0.93210275   -3.2437297   -1.7573639  0.059791614   -3.2437297    1.4863658   413003 
 4216000   0.93285977   -3.2446784   -1.7570189    0.0549038   -3.2446784    1.4876595   412979 
 4217000   0.93303613   -3.2464319   -1.7583435  0.053630405   -3.2464319    1.4880884   412938 
 4218000    0.9331865   -3.2448355   -1.7566297  0.053676196   -3.2448355    1.4882057   412972 
 4219000    0.9340095   -3.2442307   -1.7546367  0.054799926   -3.2442307     1.489594   412951 
 4220000     0.933105   -3.2435094   -1.7553579  0.055904247   -3.2435094    1.4881514   412951 
 4221000   0.93084825   -3.2407512   -1.7561414  0.055969587   -3.2407512    1.4846098   412935 
 4222000   0.93383611   -3.2468295   -1.7573894   0.05142248   -3.2468295    1.4894401   412917 
 4223000    0.9341307    -3.244455   -1.7545271  0.054623396    -3.244455     1.489928   412912 
 4224000   0.93378403   -3.2449024    -1.755365  0.058859852   -3.2449024    1.4895374   412867 
 4225000    0.9330578   -3.2442868   -1.7558286  0.053629857   -3.2442868    1.4884582   412845 
 4226000   0.93235066   -3.2445483   -1.7572109   0.05658124   -3.2445483    1.4873374   412843 
 4227000   0.93270163   -3.2447676   -1.7568992  0.058043874   -3.2447676    1.4878684   412851 
 4228000   0.93144836   -3.2419674    -1.756073  0.059441098   -3.2419674    1.4858944   412844 
 4229000   0.93204433   -3.2416941   -1.7548382  0.052671713   -3.2416941    1.4868559   412841 
 4230000   0.93148745   -3.2399489    -1.753823   0.06029976   -3.2399489    1.4861259   412797 
 4231000   0.93263572   -3.2424532   -1.7543728   0.05545452   -3.2424532    1.4880805   412763 
 4232000   0.93254376   -3.2421342   -1.7540959  0.052737314   -3.2421342    1.4880383   412734 
 4233000   0.93172072   -3.2416834   -1.7549872  0.054970729   -3.2416834    1.4866962   412742 
 4234000   0.93107413   -3.2409959   -1.7553063  0.056636198   -3.2409959    1.4856896   412735 
 4235000   0.93214235   -3.2425519   -1.7551541  0.057095867   -3.2425519    1.4873978   412734 
 4236000   0.93372459   -3.2439498   -1.7538468  0.060831349   -3.2439498     1.490103   412684 
 4237000   0.93270903   -3.2419766   -1.7534365  0.060957863   -3.2419766      1.48854   412668 
 4238000   0.93257034   -3.2428142   -1.7544955  0.058962239   -3.2428142    1.4883187   412668 
 4239000   0.93353767   -3.2428955     -1.75308  0.053157801   -3.2428955    1.4898156   412681 
 4240000   0.93387674   -3.2439714   -1.7536508  0.056578147   -3.2439714    1.4903206   412691 
 4241000   0.93296136   -3.2426258   -1.7535531  0.054050443   -3.2426258    1.4890726   412632 
 4242000   0.93251133   -3.2428674   -1.7544517  0.052291849   -3.2428674    1.4884157   412615 
 4243000   0.93208341   -3.2407414     -1.75307  0.061076552   -3.2407414    1.4876714   412632 
 4244000   0.93315258   -3.2438934   -1.7544939  0.056116769   -3.2438934    1.4893995   412626 
 4245000   0.93262459    -3.240585   -1.7521364  0.059949637    -3.240585    1.4884486   412656 
 4246000   0.93262955   -3.2409772   -1.7525388  0.055042682   -3.2409772    1.4884384   412661 
 4247000   0.93271048    -3.241111   -1.7524784  0.057969421    -3.241111    1.4886325   412643 
 4248000    0.9334978   -3.2413611   -1.7514142  0.061243958   -3.2413611    1.4899469   412627 
 4249000   0.93320128   -3.2416477   -1.7521886  0.056931647   -3.2416477    1.4894592   412631 
 4250000   0.93417143   -3.2423338   -1.7514165  0.054279791   -3.2423338    1.4909173   412656 
 4251000   0.93337831    -3.242796   -1.7530831  0.055298891    -3.242796    1.4897128   412639 
 4252000    0.9340011   -3.2421658   -1.7513867  0.060261379   -3.2421658    1.4907791   412619 
 4253000    0.9347138    -3.241953   -1.7499134  0.057451242    -3.241953    1.4920396   412585 
 4254000   0.93352581   -3.2413482   -1.7510387  0.059164119   -3.2413482    1.4903094   412539 
 4255000   0.93373025   -3.2429496    -1.752162  0.056686581   -3.2429496    1.4907876   412497 
 4256000    0.9331603    -3.242284    -1.752345  0.059085465    -3.242284     1.489939   412480 
 4257000   0.93398045   -3.2422599   -1.7510476  0.059094893   -3.2422599    1.4912124   412490 
 4258000   0.93318107   -3.2437267   -1.7537328  0.058248212   -3.2437267    1.4899938   412474 
 4259000   0.93328008   -3.2442852   -1.7542308  0.059649331   -3.2442852    1.4900544   412501 
 4260000   0.93386196   -3.2447993   -1.7537328  0.059526979   -3.2447993    1.4910665   412478 
 4261000      0.93353   -3.2446755   -1.7539691  0.062598767   -3.2446755    1.4907064   412431 
 4262000   0.93311574   -3.2444816   -1.7542452    0.0612218   -3.2444816    1.4902364   412378 
 4263000   0.93517154   -3.2484079   -1.7548883  0.057646009   -3.2484079    1.4935196   412378 
 4264000   0.93346821   -3.2474546   -1.7566083   0.06007777   -3.2474546    1.4908463   412365 
 4265000   0.93299788   -3.2465118   -1.7563191  0.056038028   -3.2465118    1.4901927   412338 
 4266000   0.93416879   -3.2482955   -1.7562761  0.053085053   -3.2482955    1.4920195   412350 
 4267000   0.93437187   -3.2471533   -1.7547661   0.05623194   -3.2471533    1.4923872   412338 
 4268000   0.93153706   -3.2469555   -1.7588037  0.059268208   -3.2469555    1.4881518   412257 
 4269000   0.93010956   -3.2454849   -1.7596496  0.057877095   -3.2454849    1.4858353   412267 
 4270000   0.93164786   -3.2468777   -1.7584443  0.054849262   -3.2468777    1.4884335   412228 
 4271000   0.93265086   -3.2482922   -1.7583467   0.05261505   -3.2482922    1.4899456   412253 
 4272000   0.93269338   -3.2476603   -1.7577263  0.052891724   -3.2476603     1.489934   412275 
 4273000    0.9332477     -3.24882   -1.7579463  0.055058385     -3.24882    1.4908737   412260 
 4274000   0.93137676   -3.2456316   -1.7577215  0.056355074   -3.2456316    1.4879101   412253 
 4275000   0.93256827   -3.2474451    -1.757505  0.057911586   -3.2474451    1.4899401   412218 
 4276000   0.93398363   -3.2498537   -1.7576487  0.057467707   -3.2498537     1.492205   412217 
 4277000    0.9337379   -3.2489201   -1.7571619  0.056267729   -3.2489201    1.4917581   412232 
 4278000   0.93374276   -3.2493635   -1.7573768  0.054816367   -3.2493635    1.4919867   412171 
 4279000   0.93287637   -3.2497286   -1.7591986  0.050583101   -3.2497286      1.49053   412191 
 4280000   0.93320343   -3.2502659   -1.7592821  0.051699784   -3.2502659    1.4909838   412210 
 4281000   0.93062299   -3.2467073   -1.7598896  0.056880404   -3.2467073    1.4868178   412222 
 4282000   0.93242283   -3.2495267   -1.7596852  0.053737347   -3.2495267    1.4898415   412181 
 4283000   0.93300686    -3.248392   -1.7576535  0.057712965    -3.248392    1.4907385   412191 
 4284000   0.93379381   -3.2496069   -1.7576183  0.058072597   -3.2496069    1.4919886   412193 
 4285000   0.93329911   -3.2493834   -1.7581346  0.062143072   -3.2493834    1.4912489   412179 
 4286000   0.93181128   -3.2484581   -1.7594962  0.060560393   -3.2484581    1.4889619   412154 
 4287000   0.93357237   -3.2512222    -1.759439  0.060248856   -3.2512222    1.4917832   412152 
 4288000   0.93258731    -3.249143   -1.7588941  0.057990626    -3.249143    1.4902489   412141 
 4289000   0.93134841   -3.2465775     -1.75833  0.060280791   -3.2465775    1.4882475   412147 
 4290000   0.93114942   -3.2459563   -1.7579582  0.059343163   -3.2459563    1.4879981   412128 
 4291000   0.93269349   -3.2485733   -1.7580932  0.056161738   -3.2485733    1.4904801   412124 
 4292000   0.93274695    -3.248396   -1.7578956  0.058851547    -3.248396    1.4905004   412142 
 4293000   0.93210432   -3.2481069   -1.7586008  0.058940439   -3.2481069     1.489506   412133 
 4294000   0.93109425    -3.248703   -1.7609157  0.060280888    -3.248703    1.4877872   412162 
 4295000   0.93170504   -3.2494144   -1.7606982  0.058172743   -3.2494144    1.4887162   412175 
 4296000   0.93151697   -3.2502133   -1.7617723  0.055343602   -3.2502133     1.488441   412168 
 4297000   0.93121479   -3.2497916   -1.7617395  0.057537374   -3.2497916    1.4880521   412142 
 4298000   0.93278348   -3.2522154   -1.7617072  0.054624435   -3.2522154    1.4905081   412156 
 4299000   0.93162054   -3.2500527   -1.7612258  0.059567922   -3.2500527    1.4888269   412107 
 4300000   0.93124901   -3.2491733   -1.7609149   0.05347284   -3.2491733    1.4882584   412100 
 4301000   0.93051794   -3.2499355   -1.7626072  0.060292787   -3.2499355    1.4873283   412034 
 4302000   0.93120472   -3.2505771   -1.7621656   0.05737604   -3.2505771    1.4884115   412038 
 4303000    0.9324044   -3.2527168   -1.7622177  0.057630859   -3.2527168    1.4904991   411991 
 4304000   0.93334754   -3.2529816   -1.7609314   0.06287171   -3.2529816    1.4920502   411979 
 4305000   0.93296136   -3.2502305   -1.7588085   0.05930714   -3.2502305     1.491422   411982 
 4306000   0.93359465    -3.250929   -1.7585344   0.05660622    -3.250929    1.4923945   411993 
 4307000   0.93426973   -3.2512461   -1.7576854  0.062321907   -3.2512461    1.4935607   411969 
 4308000   0.93255704   -3.2497095   -1.7588686  0.058619662   -3.2497095    1.4908408   411964 
 4309000   0.93282368   -3.2483519   -1.7570088  0.057173968   -3.2483519    1.4913431   411943 
 4310000   0.93422633   -3.2507554   -1.7572206   0.05225512   -3.2507554    1.4935348   411957 
 4311000   0.93244854   -3.2484491   -1.7576841  0.060706047   -3.2484491    1.4907651   411937 
 4312000     0.931519   -3.2468656   -1.7576228  0.058200293   -3.2468656    1.4892428   411947 
 4313000   0.93077633   -3.2477564   -1.7596937  0.053449058   -3.2477564    1.4880627   411945 
 4314000   0.93051685   -3.2455269    -1.757926  0.054942088   -3.2455269    1.4876009   411958 
 4315000   0.92910825   -3.2438808   -1.7584345  0.059427851   -3.2438808    1.4854464   411931 
 4316000   0.93043146   -3.2464614   -1.7587081  0.053437155   -3.2464614    1.4877533   411878 
 4317000   0.93085681   -3.2458119   -1.7573894  0.051828865   -3.2458119    1.4884226   411881 
 4318000   0.93109904   -3.2433538   -1.7547391  0.055898487   -3.2433538    1.4886147   411935 
 4319000   0.93121312   -3.2426558   -1.7536888  0.057980184   -3.2426558     1.488967   411888 
 4320000   0.93065364   -3.2435124   -1.7554182  0.056041882   -3.2435124    1.4880941   411882 
 4321000   0.93005655   -3.2439136   -1.7568356  0.054446327   -3.2439136     1.487078   411899 
 4322000   0.93166608   -3.2464411   -1.7566955  0.059654074   -3.2464411    1.4897455   411873 
 4323000   0.93030271   -3.2449216   -1.7572947  0.058338443   -3.2449216    1.4876269   411856 
 4324000   0.93043217   -3.2462951   -1.7583239  0.055748231   -3.2462951    1.4879712   411818 
 4325000   0.93165402   -3.2480933   -1.7581029  0.054991662   -3.2480933    1.4899903   411800 
 4326000   0.93106884   -3.2465472   -1.7575144  0.053971194   -3.2465472    1.4890328   411806 
 4327000   0.93163088   -3.2480625   -1.7582249  0.050664174   -3.2480625    1.4898376   411832 
 4328000   0.93077465   -3.2464572   -1.7580792  0.054938967   -3.2464572    1.4883779   411857 
 4329000   0.93269702   -3.2482681   -1.7568234  0.057028664   -3.2482681    1.4914447   411859 
 4330000   0.93051046   -3.2475084   -1.7594517  0.057509724   -3.2475084    1.4880567   411829 
 4331000   0.92997129   -3.2461529   -1.7590054  0.057784711   -3.2461529    1.4871475   411842 
 4332000   0.93135446   -3.2472579    -1.757866  0.054841264   -3.2472579    1.4893919   411833 
 4333000   0.93261276   -3.2486102   -1.7570865  0.057879142   -3.2486102    1.4915237   411800 
 4334000   0.93272373   -3.2486361   -1.7567429  0.058742811   -3.2486361    1.4918931   411747 
 4335000   0.93395657   -3.2495885   -1.7558032  0.061293248   -3.2495885    1.4937853   411769 
 4336000    0.9329424   -3.2471366    -1.755006  0.057518417   -3.2471366    1.4921306   411778 
 4337000   0.93365738   -3.2488509   -1.7557219  0.056986479   -3.2488509     1.493129   411818 
 4338000   0.93247965   -3.2483018   -1.7570273  0.058200059   -3.2483018    1.4912746   411810 
 4339000   0.93278388   -3.2480567   -1.7561905  0.061061096   -3.2480567    1.4918662   411781 
 4340000   0.93184644   -3.2466037   -1.7561319  0.065145967   -3.2466037    1.4904718   411752 
 4341000   0.93322818   -3.2489377    -1.756158   0.05993993   -3.2489377    1.4927798   411725 
 4342000   0.93063217   -3.2467774   -1.7580634  0.061107505   -3.2467774     1.488714   411701 
 4343000   0.93034724   -3.2467829   -1.7583041  0.057177752   -3.2467829    1.4884787   411640 
 4344000   0.93332401    -3.249982   -1.7568059  0.054207923    -3.249982     1.493176   411658 
 4345000   0.93048309   -3.2462061   -1.7575932  0.056683535   -3.2462061    1.4886129   411663 
 4346000   0.93130749    -3.246837   -1.7570391  0.064157274    -3.246837    1.4897979   411700 
 4347000   0.93189959   -3.2473242   -1.7565466  0.058335284   -3.2473242    1.4907777   411691 
 4348000   0.93050028   -3.2449291   -1.7563104  0.059051859   -3.2449291    1.4886187   411669 
 4349000   0.93066504    -3.244706   -1.7557659  0.061151761    -3.244706    1.4889402   411653 
 4350000   0.93188826   -3.2456502   -1.7546371  0.058285884   -3.2456502    1.4910131   411621 
 4351000   0.93012926    -3.244391   -1.7560079    0.0622182    -3.244391    1.4883831   411570 
 4352000   0.93223965   -3.2479294   -1.7560279  0.052054731   -3.2479294    1.4919015   411531 
 4353000   0.93111743   -3.2474367   -1.7572985   0.05652172   -3.2474367    1.4901381   411522 
 4354000    0.9299117   -3.2463476   -1.7582367   0.05584244   -3.2463476    1.4881109   411549 
 4355000   0.92912551   -3.2456494   -1.7587533  0.052555506   -3.2456494    1.4868961   411537 
 4356000   0.92847387   -3.2432785   -1.7572736  0.052661236   -3.2432785    1.4860049   411495 
 4357000   0.92814235   -3.2434988   -1.7578981  0.057016217   -3.2434988    1.4856007   411460 
 4358000   0.92850888   -3.2441875   -1.7578664  0.054395291   -3.2441875    1.4863211   411423 
 4359000   0.92772566   -3.2431176   -1.7579926  0.052511843   -3.2431176     1.485125   411407 
 4360000   0.92781508   -3.2440164   -1.7585063  0.058364115   -3.2440164    1.4855101   411340 
 4361000   0.92810939   -3.2443818   -1.7584186  0.057390675   -3.2443818    1.4859633   411345 
 4362000   0.92981449   -3.2477419   -1.7588424  0.049195937   -3.2477419    1.4888996   411288 
 4363000   0.92835652   -3.2458995   -1.7591575  0.055789679   -3.2458995    1.4867421   411239 
 4364000   0.92907595   -3.2461266   -1.7581455  0.058612869   -3.2461266    1.4879811   411215 
 4365000   0.93135629   -3.2487688   -1.7569796  0.057213809   -3.2487688    1.4917892   411172 
 4366000   0.93090188   -3.2503504   -1.7592491  0.056372586   -3.2503504    1.4911012   411161 
 4367000   0.92973007   -3.2479429   -1.7585955  0.056866956   -3.2479429    1.4893474   411127 
 4368000   0.93012912   -3.2477511   -1.7577862  0.059547695   -3.2477511    1.4899649   411133 
 4369000   0.93076392   -3.2491539   -1.7582012  0.060578661   -3.2491539    1.4909528   411141 
 4370000   0.93130266   -3.2507978   -1.7588659   0.06273143   -3.2507978    1.4919319   411109 
 4371000   0.93105762   -3.2500172   -1.7584561  0.060127616   -3.2500172    1.4915611   411103 
 4372000   0.93106898    -3.249929   -1.7583134  0.059436187    -3.249929    1.4916156   411093 
 4373000   0.93107035   -3.2509656   -1.7593841  0.052512207   -3.2509656    1.4915815   411103 
 4374000   0.93011345   -3.2504218   -1.7603696  0.054048529   -3.2504218    1.4900521   411102 
 4375000   0.92961502   -3.2500476   -1.7608121   0.05690438   -3.2500476    1.4892355   411107 
 4376000   0.92919617   -3.2497791   -1.7611856  0.054410522   -3.2497791    1.4885935   411099 
 4377000   0.92959283   -3.2493687   -1.7601397  0.057143855   -3.2493687     1.489229   411099 
 4378000   0.92922101   -3.2486003   -1.7599923  0.059747544   -3.2486003     1.488608   411106 
 4379000   0.92989625   -3.2494188   -1.7597436   0.05937726   -3.2494188    1.4896752   411110 
 4380000   0.92899002   -3.2469646     -1.75881  0.058735251   -3.2469646    1.4881547   411129 
 4381000   0.92964328   -3.2475602    -1.758283  0.056864787   -3.2475602    1.4892772   411108 
 4382000   0.92877416   -3.2469389    -1.758826  0.058646868   -3.2469389    1.4881129   411045 
 4383000   0.92790745   -3.2454068   -1.7585668   0.05940821   -3.2454068      1.48684   411013 
 4384000   0.92967987   -3.2491317   -1.7594987  0.056136473   -3.2491317    1.4896329   411026 
 4385000   0.92725147   -3.2456357   -1.7597239  0.058634093   -3.2456357    1.4859118   410979 
 4386000   0.92860678    -3.246806    -1.758639   0.05637864    -3.246806     1.488167   410956 
 4387000   0.92838759   -3.2466506   -1.7586647  0.063072378   -3.2466506    1.4879859   410909 
 4388000    0.9284663   -3.2457238    -1.757648  0.055033282   -3.2457238    1.4880758   410919 
 4389000   0.92665431   -3.2442299   -1.7589823  0.052517038   -3.2442299    1.4852476   410898 
 4390000   0.92788084   -3.2457867   -1.7586058  0.051340208   -3.2457867    1.4871809   410907 
 4391000   0.92801024   -3.2463759   -1.7590528  0.051988405   -3.2463759    1.4873231   410925 
 4392000   0.92662146   -3.2435529   -1.7583327  0.054657273   -3.2435529    1.4852202   410891 
 4393000   0.92792128   -3.2459447   -1.7585325  0.057406092   -3.2459447    1.4874122   410861 
 4394000   0.92578984   -3.2420062   -1.7579744  0.053814493   -3.2420062    1.4840317   410851 
 4395000     0.926375   -3.2415697   -1.7567662  0.052015374   -3.2415697    1.4848035   410897 
 4396000   0.92635967   -3.2428896   -1.7579697  0.056517517   -3.2428896    1.4849199   410858 
 4397000   0.92541254   -3.2425009   -1.7590451  0.052349071   -3.2425009    1.4834558   410843 
 4398000     0.924679   -3.2412379   -1.7590085  0.049918575   -3.2412379    1.4822294   410857 
 4399000   0.92473165   -3.2402008   -1.7579628  0.055233882   -3.2402008    1.4822381   410878 
 4400000   0.92654886   -3.2432118   -1.7582091  0.050888296   -3.2432118    1.4850027   410919 
 4401000   0.92569124   -3.2422834   -1.7587347  0.048733762   -3.2422834    1.4835487   410941 
 4402000   0.92557276   -3.2405077   -1.7571922  0.053679442   -3.2405077    1.4833155   410953 
 4403000     0.927516   -3.2430398   -1.7566788  0.048344444   -3.2430398     1.486361   410972 
 4404000   0.92695251    -3.241911   -1.7564566  0.054353828    -3.241911    1.4854544   410973 
 4405000   0.92847269   -3.2440709   -1.7560573  0.056821573   -3.2440709    1.4880136   410939 
 4406000   0.93016301   -3.2460535   -1.7555775  0.055609086   -3.2460535     1.490476   411007 
 4407000   0.92909653   -3.2439978   -1.7552923  0.061863718   -3.2439978    1.4887055   411024 
 4408000   0.93168885   -3.2471569   -1.7544067  0.051095442   -3.2471569    1.4927502   411054 
 4409000    0.9296934   -3.2449457   -1.7552983  0.056936797   -3.2449457    1.4896474   411028 
 4410000    0.9301683    -3.245607   -1.7553075  0.057430712    -3.245607    1.4902995   411058 
 4411000   0.92934419   -3.2446729   -1.7556467  0.058421794   -3.2446729    1.4890262   411045 
 4412000    0.9305259   -3.2445411   -1.7537231  0.055046274   -3.2445411    1.4908181   411073 
 4413000    0.9289772   -3.2448888   -1.7564687  0.061697267   -3.2448888    1.4884201   411050 
 4414000   0.92904647   -3.2465348   -1.7579566  0.056087286   -3.2465348    1.4885782   411037 
 4415000   0.92812616   -3.2446983   -1.7575476  0.056769737   -3.2446983    1.4871507   411024 
 4416000   0.92878902   -3.2451178   -1.7569956  0.058569985   -3.2451178    1.4881222   411049 
 4417000   0.92980348   -3.2466847   -1.7568501  0.056125144   -3.2466847    1.4898346   411025 
 4418000   0.92921302   -3.2448794     -1.75598  0.059267907   -3.2448794    1.4888994   411022 
 4419000   0.92787364   -3.2441369   -1.7572715  0.059213478   -3.2441369    1.4868654   410991 
 4420000   0.92802787   -3.2433714   -1.7562191  0.056631024   -3.2433714    1.4871523   410980 
 4421000   0.92981748   -3.2456023   -1.7554806   0.06017093   -3.2456023    1.4901217   410952 
 4422000   0.92773963   -3.2447369   -1.7579089  0.056088264   -3.2447369    1.4868279   410942 
 4423000   0.92961219   -3.2468222   -1.7569534  0.056403409   -3.2468222    1.4898688   410931 
 4424000   0.92854591   -3.2448639   -1.7565518  0.054034486   -3.2448639    1.4883121   410889 
 4425000   0.92823509   -3.2451073   -1.7572174   0.05383704   -3.2451073    1.4878899   410868 
 4426000   0.92687766   -3.2428076   -1.7571189  0.053347714   -3.2428076    1.4856887   410875 
 4427000   0.92765592   -3.2428701   -1.7560027  0.054339582   -3.2428701    1.4868674   410894 
 4428000   0.92737984   -3.2428302   -1.7564089  0.052595112   -3.2428302    1.4864213   410895 
 4429000   0.92825089   -3.2428755   -1.7551232  0.052184765   -3.2428755    1.4877523   410913 
 4430000   0.92714395   -3.2415168    -1.755517  0.058136073   -3.2415168    1.4859998   410907 
 4431000   0.92673175   -3.2407723    -1.755321  0.059928541   -3.2407723    1.4854512   410876 
 4432000   0.92811485   -3.2425532   -1.7549032  0.052991207   -3.2425532    1.4876501   410881 
 4433000   0.92764226   -3.2425748   -1.7556135  0.054632181   -3.2425748    1.4869613   410862 
 4434000   0.92704812   -3.2424812   -1.7564252  0.059357652   -3.2424812     1.486056   410849 
 4435000   0.92590905   -3.2404518   -1.7559796  0.057464585   -3.2404518    1.4844722   410782 
 4436000   0.92657157   -3.2408687    -1.755403  0.056447424   -3.2408687    1.4854656   410801 
 4437000   0.92701015   -3.2426342   -1.7563641  0.053217887   -3.2426342    1.4862701   410773 
 4438000    0.9250642   -3.2405539   -1.7572268  0.057238615   -3.2405539    1.4833271   410724 
 4439000   0.92342474   -3.2392507   -1.7584407  0.054626704   -3.2392507      1.48081   410693 
 4440000    0.9262183   -3.2431821   -1.7579068  0.050613374   -3.2431821    1.4852753   410697 
 4441000   0.92500866    -3.242329   -1.7589249  0.055628651    -3.242329    1.4834042   410678 
 4442000   0.92477234   -3.2432199   -1.7600719  0.054887103   -3.2432199     1.483148   410644 
 4443000   0.92573133   -3.2436887   -1.7590027  0.050164494   -3.2436887     1.484686   410644 
 4444000   0.92578026   -3.2442206   -1.7593946  0.055821785   -3.2442206    1.4848259   410627 
 4445000   0.92561221    -3.243188   -1.7585195  0.055565905    -3.243188    1.4846685   410596 
 4446000   0.92870456   -3.2467171   -1.7569942  0.050837787   -3.2467171    1.4897229   410570 
 4447000   0.92763553   -3.2472116   -1.7592397  0.058655711   -3.2472116    1.4879719   410580 
 4448000   0.92656267   -3.2444266   -1.7582191  0.056673683   -3.2444266    1.4862075   410592 
 4449000   0.92774429   -3.2461484   -1.7578245  0.051278747   -3.2461484    1.4883239   410531 
 4450000   0.92489968   -3.2431194   -1.7593408  0.059094732   -3.2431194    1.4837786   410526 
 4451000   0.92730044   -3.2466699   -1.7590544  0.057984091   -3.2466699    1.4876155   410530 
 4452000   0.92715369   -3.2464395   -1.7589362  0.053026769   -3.2464395    1.4875033   410496 
 4453000   0.92689636   -3.2466548   -1.7595898  0.055617659   -3.2466548    1.4870651   410503 
 4454000   0.92754785   -3.2486843   -1.7606248  0.054214131   -3.2486843    1.4880595   410517 
 4455000   0.92783462   -3.2483134    -1.759772  0.056692394   -3.2483134    1.4885414   410511 
 4456000   0.92661571   -3.2468801   -1.7603196  0.054525873   -3.2468801    1.4865605   410518 
 4457000   0.92691368   -3.2488164   -1.7617453  0.052142412   -3.2488164    1.4870711   410509 
 4458000   0.92573331   -3.2468376   -1.7615661  0.056479796   -3.2468376    1.4852715   410483 
 4459000   0.92715268    -3.248996   -1.7613349  0.055758361    -3.248996    1.4876611   410452 
 4460000   0.92729161   -3.2494386   -1.7614386  0.059730862   -3.2494386    1.4880001   410420 
 4461000   0.92770965   -3.2492634   -1.7606433  0.057027497   -3.2492634    1.4886201   410434 
 4462000   0.92894958   -3.2513523   -1.7605573  0.060782221   -3.2513523     1.490795   410383 
 4463000   0.93003803   -3.2542686   -1.7618432  0.053956492   -3.2542686    1.4924253   410415 
 4464000   0.92724669    -3.249983   -1.7620913  0.060086853    -3.249983    1.4878917   410430 
 4465000   0.92736731   -3.2492441    -1.761166  0.062700878   -3.2492441     1.488078   410432 
 4466000   0.92541769   -3.2471396   -1.7621936  0.056286332   -3.2471396     1.484946   410433 
 4467000   0.92708773   -3.2495736   -1.7618717   0.05775233   -3.2495736    1.4877019   410412 
 4468000   0.92597612    -3.248449   -1.7624259  0.055181489    -3.248449    1.4860231   410383 
 4469000   0.92597371   -3.2492771    -1.763171  0.053744707   -3.2492771    1.4861061   410359 
 4470000    0.9257199   -3.2488423   -1.7630312  0.053261944   -3.2488423     1.485811   410328 
 4471000   0.92491951   -3.2486131   -1.7639492  0.057178526   -3.2486131    1.4846639   410290 
 4472000   0.92469648   -3.2489865   -1.7645793  0.056062759   -3.2489865    1.4844072   410262 
 4473000    0.9255959   -3.2494555   -1.7635139  0.056826746   -3.2494555    1.4859416   410237 
 4474000   0.92527287   -3.2500145   -1.7644249   0.05485236   -3.2500145    1.4855895   410191 
 4475000   0.92559186   -3.2502252   -1.7641127   0.05371153   -3.2502252    1.4861126   410188 
 4476000   0.92453566   -3.2475811   -1.7630667  0.055219415   -3.2475811    1.4845145   410161 
 4477000   0.92514824   -3.2500467   -1.7645051  0.057579773   -3.2500467    1.4855416   410149 
 4478000    0.9254462   -3.2491381   -1.7631181  0.053467979   -3.2491381      1.48602   410149 
 4479000   0.92541591   -3.2480562   -1.7621247  0.055278276   -3.2480562    1.4859315   410160 
 4480000   0.92600254   -3.2503005   -1.7632676   0.05682704   -3.2503005     1.487033   410116 
 4481000    0.9271547   -3.2524052    -1.763551  0.051661424   -3.2524052    1.4888541   410124 
 4482000   0.92663067   -3.2500302   -1.7619305  0.058358186   -3.2500302    1.4880997   410100 
 4483000   0.92616112   -3.2516786   -1.7643257  0.058902479   -3.2516786    1.4873529   410098 
 4484000   0.92594086   -3.2519449    -1.764924  0.054076887   -3.2519449    1.4870209   410092 
 4485000   0.92507856   -3.2516572   -1.7657675  0.057560346   -3.2516572    1.4858897   410022 
 4486000   0.92634036   -3.2534737   -1.7655318  0.059184739   -3.2534737    1.4879419   410015 
 4487000     0.925303    -3.252348   -1.7661122  0.057046423    -3.252348    1.4862358   410026 
 4488000   0.92745628   -3.2562739   -1.7664341  0.055919707   -3.2562739    1.4898397   409986 
 4489000   0.92354071   -3.2508766   -1.7673882  0.056405893   -3.2508766    1.4834884   410003 
 4490000   0.92528593    -3.253459   -1.7671129  0.057259851    -3.253459    1.4863461   409988 
 4491000   0.92429996   -3.2535722    -1.768752  0.054632146   -3.2535722    1.4848202   409972 
 4492000   0.92309926   -3.2518051    -1.768693  0.057108073   -3.2518051     1.483112   409911 
 4493000    0.9255993   -3.2550931   -1.7679244  0.053527252   -3.2550931    1.4871687   409900 
 4494000   0.92520034   -3.2529603   -1.7663819  0.061602372   -3.2529603    1.4865784   409886 
 4495000   0.92673856   -3.2537849   -1.7647204  0.061214486   -3.2537849    1.4890645   409882 
 4496000   0.92578915   -3.2548966   -1.7672995  0.059007439   -3.2548966    1.4875971   409866 
 4497000   0.92523681   -3.2521251   -1.7654264  0.058656364   -3.2521251    1.4866987   409869 
 4498000   0.92411579   -3.2508122    -1.765864  0.055443546   -3.2508122    1.4849481   409855 
 4499000   0.92473006   -3.2518551   -1.7658184   0.05218349   -3.2518551    1.4860367   409827 
 4500000   0.92611129   -3.2538833   -1.7655906  0.056535129   -3.2538833    1.4882927   409817 
 4501000   0.92585376   -3.2533278   -1.7655543  0.056037134   -3.2533278    1.4877735   409846 
 4502000   0.92538423   -3.2526735    -1.765611  0.059554938   -3.2526735    1.4870626   409834 
 4503000   0.92311576    -3.250146   -1.7667722  0.055275679    -3.250146    1.4833738   409846 
 4504000   0.92405559   -3.2515434   -1.7667898  0.046211666   -3.2515434    1.4847536   409882 
 4505000   0.92377512   -3.2491751   -1.7647997  0.047535299   -3.2491751    1.4843754   409862 
 4506000   0.92334648   -3.2486427   -1.7649669  0.051890413   -3.2486427    1.4836757   409865 
 4507000   0.92333385   -3.2472478   -1.7635959  0.056693323   -3.2472478    1.4836518   409866 
 4508000   0.92523815     -3.24892   -1.7622155  0.050280931     -3.24892    1.4867045   409868 
 4509000   0.92314636   -3.2482934   -1.7648089  0.049837364   -3.2482934    1.4834845   409829 
 4510000   0.92463988   -3.2514403   -1.7654288   0.05097496   -3.2514403    1.4860115   409794 
 4511000   0.92461244   -3.2489118   -1.7629481  0.055081416   -3.2489118    1.4859637   409795 
 4512000   0.92371537   -3.2484232   -1.7639953   0.05633979   -3.2484232    1.4844278   409821 
 4513000   0.92500653   -3.2504023   -1.7639213  0.054409794   -3.2504023     1.486481   409827 
 4514000   0.92464579   -3.2490344   -1.7630932  0.054855618   -3.2490344    1.4859412   409816 
 4515000   0.92414429   -3.2479465   -1.7627351  0.051779609   -3.2479465    1.4852114   409795 
 4516000   0.92579329   -3.2512406   -1.7634336  0.054847424   -3.2512406     1.487807   409810 
 4517000   0.92499991   -3.2506697    -1.764047  0.055851472   -3.2506697    1.4866227   409785 
 4518000   0.92486542   -3.2519739   -1.7655165  0.054892457   -3.2519739    1.4864574   409771 
 4519000   0.92499879   -3.2505723   -1.7638643  0.057280939   -3.2505723     1.486708   409761 
 4520000   0.92378705   -3.2488628   -1.7639973  0.058488013   -3.2488628    1.4848655   409732 
 4521000   0.92453119   -3.2500782   -1.7640528  0.055444084   -3.2500782    1.4860253   409742 
 4522000   0.92564599   -3.2520206   -1.7641307  0.056576832   -3.2520206    1.4878898   409722 
 4523000   0.92592337   -3.2518008    -1.763516  0.049479749   -3.2518008    1.4882848   409736 
 4524000   0.92532864   -3.2515783   -1.7643112  0.058474533   -3.2515783    1.4872672   409753 
 4525000   0.92470035    -3.250636   -1.7643134  0.054488626    -3.250636    1.4863226   409735 
 4526000   0.92371095   -3.2498053   -1.7649787  0.057732443   -3.2498053    1.4848265   409709 
 4527000   0.92450124   -3.2508178   -1.7648261  0.060697987   -3.2508178    1.4859917   409738 
 4528000   0.92411706   -3.2499296    -1.764559  0.051322902   -3.2499296    1.4853706   409739 
 4529000   0.92384421    -3.249419   -1.7646573  0.058384321    -3.249419    1.4847617   409786 
 4530000   0.92461883   -3.2503047    -1.764251  0.058826917   -3.2503047    1.4860538   409773 
 4531000   0.92396837   -3.2492789    -1.764343  0.052992529   -3.2492789    1.4849359   409793 
 4532000   0.92400617   -3.2508551   -1.7658476  0.053641385   -3.2508551    1.4850075   409790 
 4533000   0.92299121   -3.2498533    -1.766401  0.056018989   -3.2498533    1.4834523   409769 
 4534000   0.92392523   -3.2504583   -1.7654685  0.056885162   -3.2504583    1.4849898   409759 
 4535000   0.92354809   -3.2504168   -1.7658594  0.058067112   -3.2504168    1.4845575   409711 
 4536000   0.92451028   -3.2503419   -1.7643502  0.057329412   -3.2503419    1.4859917   409742 
 4537000   0.92557954   -3.2516152   -1.7638649  0.058967178   -3.2516152    1.4877503   409731 
 4538000   0.92462542   -3.2494687   -1.7632629   0.05746238   -3.2494687    1.4862058   409734 
 4539000   0.92512121   -3.2504606   -1.7633889  0.064339307   -3.2504606    1.4870717   409715 
 4540000      0.92646   -3.2534068   -1.7640814  0.056738006   -3.2534068    1.4893255   409687 
 4541000   0.92674301   -3.2540449   -1.7642317  0.058907721   -3.2540449    1.4898132   409678 
 4542000   0.92506296   -3.2502714   -1.7632063  0.055461556   -3.2502714    1.4870652   409691 
 4543000   0.92491115   -3.2499762   -1.7629191  0.057071402   -3.2499762    1.4870571   409626 
 4544000   0.92529945   -3.2519871   -1.7643312  0.057193957   -3.2519871    1.4876559   409633 
 4545000   0.92453017   -3.2496144    -1.763159  0.061331992   -3.2496144    1.4864554   409623 
 4546000   0.92536824   -3.2523968   -1.7644886   0.05437777   -3.2523968    1.4879082   409594 
 4547000   0.92382234   -3.2494369     -1.76392  0.057587249   -3.2494369    1.4855168   409568 
 4548000   0.92487168   -3.2518072   -1.7646067  0.051830182   -3.2518072    1.4872005   409569 
 4549000   0.92398999   -3.2498847   -1.7642651   0.06132925   -3.2498847    1.4856196   409614 
 4550000   0.92356564   -3.2498626   -1.7647259  0.059209002   -3.2498626    1.4851367   409559 
 4551000   0.92443765   -3.2507133   -1.7641526   0.05543264   -3.2507133    1.4865607   409553 
 4552000   0.92336822   -3.2485448   -1.7639104  0.057718619   -3.2485448    1.4846344   409610 
 4553000   0.92553682   -3.2513198   -1.7630243  0.057721863   -3.2513198    1.4882955   409562 
 4554000   0.92325524   -3.2479145   -1.7633639  0.056031352   -3.2479145    1.4845505   409583 
 4555000   0.92532654    -3.251136   -1.7631931  0.056915209    -3.251136    1.4879429   409566 
 4556000   0.92585499   -3.2518322   -1.7629523   0.05064974   -3.2518322    1.4888799   409542 
 4557000   0.92333267    -3.247285   -1.7624831  0.061783857    -3.247285    1.4848019   409548 
 4558000   0.92430624   -3.2488626   -1.7625313  0.059802515   -3.2488626    1.4863312   409558 
 4559000   0.92312187   -3.2472287   -1.7626824  0.054161981   -3.2472287    1.4845463   409525 
 4560000   0.92330911   -3.2473357   -1.7624338  0.057765815   -3.2473357    1.4849018   409510 
 4561000   0.92429668   -3.2491484   -1.7626039  0.058701097   -3.2491484    1.4865445   409495 
 4562000   0.92154889   -3.2447913   -1.7627493  0.058160912   -3.2447913     1.482042   409518 
 4563000   0.92294845   -3.2468913   -1.7624643  0.056436156   -3.2468913    1.4844269   409481 
 4564000   0.92334252   -3.2470276    -1.761985  0.060704103   -3.2470276    1.4850426   409486 
 4565000   0.92425578   -3.2487689   -1.7622321  0.056931477   -3.2487689    1.4865368   409479 
 4566000   0.92334756    -3.248646   -1.7633813   0.05822133    -3.248646    1.4852647   409427 
 4567000   0.92517851   -3.2507644   -1.7626781  0.053181075   -3.2507644    1.4880863   409461 
 4568000     0.925312   -3.2503663   -1.7620471   0.05910782   -3.2503663    1.4883192   409456 
 4569000   0.92503537    -3.249943   -1.7619706  0.057870189    -3.249943    1.4879724   409429 
 4570000     0.924581   -3.2493868   -1.7622143  0.056756332   -3.2493868    1.4871725   409448 
 4571000   0.92346122   -3.2497503   -1.7643535  0.060570268   -3.2497503    1.4853967   409441 
 4572000   0.92380914   -3.2480686   -1.7622937  0.056616696   -3.2480686    1.4857749   409491 
 4573000    0.9233055   -3.2476725   -1.7628454  0.054281943   -3.2476725    1.4848271   409529 
 4574000   0.92573726   -3.2505158   -1.7615635  0.057772404   -3.2505158    1.4889523   409470 
 4575000    0.9255915   -3.2513718    -1.762614  0.055187411   -3.2513718    1.4887579   409459 
 4576000   0.92539947   -3.2502056   -1.7616548  0.060212378   -3.2502056    1.4885508   409431 
 4577000   0.92520615   -3.2512145   -1.7630401  0.062832428   -3.2512145    1.4881744   409449 
 4578000   0.92518444   -3.2517205   -1.7634757  0.057887071   -3.2517205    1.4882449   409420 
 4579000   0.92333231   -3.2501683   -1.7647758  0.059206624   -3.2501683    1.4853925   409385 
 4580000   0.92417412   -3.2517801   -1.7650188  0.059934243   -3.2517801    1.4867613   409381 
 4581000   0.92407071   -3.2521238   -1.7654345  0.056749569   -3.2521238    1.4866894   409355 
 4582000   0.92465387   -3.2521423   -1.7643839  0.055119837   -3.2521423    1.4877584   409319 
 4583000   0.92230309   -3.2483729    -1.764531  0.052604902   -3.2483729    1.4838419   409356 
 4584000   0.92122395   -3.2470176   -1.7649336  0.050953866   -3.2470176     1.482084   409362 
 4585000   0.92044388   -3.2461798   -1.7652132  0.051672631   -3.2461798    1.4809665   409324 
 4586000   0.92114652   -3.2475708   -1.7654629  0.060969814   -3.2475708    1.4821079   409321 
 4587000   0.92238123   -3.2506671   -1.7665508  0.050396924   -3.2506671    1.4841163   409315 
 4588000   0.92258097   -3.2496381   -1.7652367  0.061879795   -3.2496381    1.4844014   409325 
 4589000   0.92250697   -3.2499898   -1.7656059  0.055597395   -3.2499898    1.4843839   409297 
 4590000   0.92207537     -3.24795   -1.7643839  0.054465075     -3.24795    1.4835662   409331 
 4591000   0.92297686    -3.249151   -1.7640437  0.055418859    -3.249151    1.4851073   409306 
 4592000   0.92384864   -3.2506947   -1.7641048  0.052272497   -3.2506947    1.4865899   409284 
 4593000   0.92138496   -3.2480572   -1.7654171  0.059797198   -3.2480572    1.4826401   409280 
 4594000   0.92088579   -3.2483616   -1.7666153      0.05628   -3.2483616    1.4817463   409305 
 4595000   0.92278734   -3.2504723   -1.7656119  0.055567131   -3.2504723    1.4848604   409290 
 4596000   0.92088697   -3.2480649   -1.7661139  0.056469239   -3.2480649     1.481951   409249 
 4597000    0.9211869   -3.2483935   -1.7658476  0.055435093   -3.2483935    1.4825459   409218 
 4598000   0.92136799   -3.2495741   -1.7668636  0.056497604   -3.2495741    1.4827106   409253 
 4599000    0.9219355    -3.250258    -1.766674  0.053514974    -3.250258    1.4835839   409264 
 4600000   0.92198414   -3.2495372   -1.7658424  0.058405381   -3.2495372    1.4836948   409255 
 4601000   0.92273486   -3.2508607   -1.7659831    0.0558945   -3.2508607    1.4848775   409262 
 4602000   0.92240044   -3.2502228   -1.7657928  0.059507961   -3.2502228    1.4844301   409237 
 4603000   0.92259867   -3.2508019   -1.7659911  0.058812995   -3.2508019    1.4848108   409220 
 4604000   0.92276316   -3.2515255   -1.7664319  0.055588501   -3.2515255    1.4850936   409215 
 4605000   0.92278384   -3.2506429   -1.7655704  0.061678217   -3.2506429    1.4850725   409230 
 4606000   0.92449296   -3.2528485   -1.7649382  0.055738841   -3.2528485    1.4879103   409206 
 4607000   0.92343452   -3.2519154   -1.7656904  0.059797996   -3.2519154     1.486225   409201 
 4608000   0.92341363   -3.2521343   -1.7658704  0.053663131   -3.2521343     1.486264   409181 
 4609000    0.9226735   -3.2524172   -1.7673373  0.057829757   -3.2524172      1.48508   409179 
 4610000   0.92364191   -3.2537451   -1.7671646  0.056539846   -3.2537451    1.4865805   409195 
 4611000   0.92327073   -3.2522503   -1.7663689  0.057801707   -3.2522503    1.4858815   409223 
 4612000   0.92244379   -3.2503757   -1.7657235  0.061309235   -3.2503757    1.4846522   409195 
 4613000   0.92306823      -3.2522   -1.7663975  0.056273355      -3.2522    1.4858025   409155 
 4614000   0.92332604   -3.2535391   -1.7672345  0.055556636   -3.2535391    1.4863046   409131 
 4615000    0.9218113   -3.2508317   -1.7668674  0.059678583   -3.2508317    1.4839642   409104 
 4616000   0.92206769   -3.2521801   -1.7677088  0.050573807   -3.2521801    1.4844713   409078 
 4617000   0.92191316   -3.2519681   -1.7676404  0.060764927   -3.2519681    1.4843278   409049 
 4618000   0.92181838   -3.2510841   -1.7669053  0.057400082   -3.2510841    1.4841788   409048 
 4619000   0.92109966    -3.249631    -1.766526  0.057623225    -3.249631     1.483105   409025 
 4620000   0.92112145   -3.2502346   -1.7669096  0.060824167   -3.2502346     1.483325   408974 
 4621000   0.92130965   -3.2511819   -1.7673615  0.053353659   -3.2511819    1.4838204   408921 
 4622000    0.9228789   -3.2520126   -1.7654649  0.058917474   -3.2520126    1.4865477   408866 
 4623000   0.92184779    -3.251194     -1.76626   0.05182586    -3.251194     1.484934   408853 
 4624000   0.92057059   -3.2499371   -1.7669951  0.056354717   -3.2499371     1.482942   408835 
 4625000    0.9220611    -3.250703   -1.7654254  0.054325814    -3.250703    1.4852776   408853 
 4626000    0.9234677   -3.2525455   -1.7649402  0.056386707   -3.2525455    1.4876053   408836 
 4627000   0.92274309   -3.2507368    -1.764237  0.055207958   -3.2507368    1.4864998   408819 
 4628000   0.92116175   -3.2483408   -1.7642759  0.056712945   -3.2483408    1.4840649   408788 
 4629000   0.92102011   -3.2489771    -1.765086  0.056340384   -3.2489771    1.4838911   408773 
 4630000   0.92231287   -3.2496004   -1.7636591  0.055086544   -3.2496004    1.4859412   408782 
 4631000   0.91989583   -3.2471438   -1.7651075  0.051398827   -3.2471438    1.4820363   408785 
 4632000   0.92109225   -3.2481464   -1.7641172  0.056538542   -3.2481464    1.4840292   408767 
 4633000   0.92055853   -3.2481613   -1.7650065  0.053675467   -3.2481613    1.4831547   408771 
 4634000   0.91985365   -3.2477018   -1.7656211  0.056624792   -3.2477018    1.4820807   408754 
 4635000   0.92095252   -3.2499653    -1.766114  0.056364248   -3.2499653    1.4838512   408754 
 4636000   0.92021355   -3.2480266   -1.7653987  0.051994365   -3.2480266    1.4826279   408763 
 4637000   0.91999042   -3.2463786   -1.7640739  0.056551635   -3.2463786    1.4823047   408753 
 4638000   0.92043521   -3.2462623   -1.7631103  0.058088467   -3.2462623     1.483152   408717 
 4639000   0.92204789   -3.2489005   -1.7631972   0.05358741   -3.2489005    1.4857033   408730 
 4640000    0.9218772   -3.2498201   -1.7643336   0.05502231   -3.2498201    1.4854864   408714 
 4641000   0.92418628   -3.2526671   -1.7635036  0.057213249   -3.2526671    1.4891635   408726 
 4642000   0.92262536   -3.2499882   -1.7634199  0.057722081   -3.2499882    1.4865683   408748 
 4643000   0.92431235   -3.2503842    -1.761156  0.060721816   -3.2503842    1.4892282   408764 
 4644000    0.9236101   -3.2492113   -1.7610855  0.061743609   -3.2492113    1.4881259   408756 
 4645000    0.9225912   -3.2480504    -1.761457  0.065684407   -3.2480504    1.4865933   408726 
 4646000   0.92215405   -3.2488462     -1.76299  0.058464235   -3.2488462    1.4858562   408735 
 4647000   0.92271877   -3.2505731   -1.7637596   0.05490703   -3.2505731    1.4868134   408722 
 4648000    0.9226418   -3.2513541   -1.7646065  0.057506537   -3.2513541    1.4867476   408706 
 4649000   0.92167729   -3.2508794   -1.7655442  0.057482463   -3.2508794    1.4853351   408667 
 4650000   0.92085375   -3.2504456   -1.7665865  0.054860031   -3.2504456    1.4838591   408708 
 4651000   0.92084784   -3.2504084   -1.7665807  0.058257369   -3.2504084    1.4838278   408714 
 4652000   0.92150508   -3.2511989   -1.7661013   0.05397338   -3.2511989    1.4850976   408656 
 4653000   0.92106922   -3.2483275    -1.763936  0.055753423   -3.2483275    1.4843915   408657 
 4654000   0.92280666   -3.2510636    -1.763741  0.055110926   -3.2510636    1.4873226   408621 
 4655000    0.9216129   -3.2488507    -1.763354  0.063506115   -3.2488507    1.4854967   408594 
 4656000    0.9216418   -3.2487578   -1.7632727  0.059454128   -3.2487578    1.4854851   408610 
 4657000   0.92465436   -3.2516267   -1.7612897  0.060987134   -3.2516267    1.4903371   408611 
 4658000   0.92332166   -3.2491727   -1.7608088  0.059142388   -3.2491727    1.4883639   408563 
 4659000   0.92372677    -3.251836    -1.762677  0.058580653    -3.251836    1.4891591   408524 
 4660000   0.92180064   -3.2493406   -1.7632685  0.056559198   -3.2493406    1.4860721   408519 
 4661000   0.92153723   -3.2475386   -1.7619966   0.05783971   -3.2475386     1.485542   408548 
 4662000   0.92260305   -3.2494297   -1.7622497  0.058061443   -3.2494297      1.48718   408570 
 4663000   0.92370135   -3.2501394   -1.7612036  0.052365115   -3.2501394    1.4889358   408574 
 4664000   0.91949851    -3.245493   -1.7632992   0.05450486    -3.245493    1.4821938   408565 
 4665000   0.92170954   -3.2488125   -1.7630218  0.054747073   -3.2488125    1.4857907   408556 
 4666000   0.92174911    -3.249174   -1.7633123  0.050560057    -3.249174    1.4858617   408554 
 4667000   0.92126717   -3.2482532   -1.7630811  0.057916924   -3.2482532    1.4851721   408530 
 4668000   0.92199383    -3.249031    -1.762742  0.053930419    -3.249031    1.4862889   408545 
 4669000   0.92097592   -3.2459402   -1.7612158  0.057267278   -3.2459402    1.4847243   408524 
 4670000   0.92078782   -3.2456626   -1.7612051  0.052105207   -3.2456626    1.4844575   408514 
 4671000    0.9235957   -3.2488783   -1.7599561  0.053057741   -3.2488783    1.4889222   408531 
 4672000   0.92140887   -3.2454603   -1.7600307  0.058032075   -3.2454603    1.4854296   408522 
 4673000   0.92296006   -3.2478567   -1.7600101  0.050225716   -3.2478567    1.4878465   408545 
 4674000   0.92312777   -3.2481851     -1.76001  0.058319884   -3.2481851    1.4881752   408529 
 4675000   0.92456267   -3.2507086   -1.7600815   0.05568403   -3.2507086     1.490627   408491 
 4676000   0.92400514   -3.2501703   -1.7601978   0.05523984   -3.2501703    1.4899725   408424 
 4677000   0.92308838   -3.2476614   -1.7591344   0.05605315   -3.2476614    1.4885271   408415 
 4678000   0.92140748   -3.2466185   -1.7608566  0.057820314   -3.2466185    1.4857619   408430 
 4679000   0.92242023   -3.2488011   -1.7612494  0.055071037   -3.2488011    1.4875516   408387 
 4680000   0.92248984   -3.2487609   -1.7610314  0.054560752   -3.2487609    1.4877294   408369 
 4681000   0.92378694    -3.250332   -1.7603866  0.052398409    -3.250332    1.4899454   408335 
 4682000   0.92219455   -3.2485112   -1.7610868  0.061185287   -3.2485112    1.4874244   408322 
 4683000   0.92404298   -3.2517262   -1.7613934  0.058121146   -3.2517262    1.4903328   408342 
 4684000   0.92462908   -3.2520769    -1.760755  0.060131195   -3.2520769    1.4913219   408330 
 4685000   0.92407761   -3.2500479   -1.7595827  0.057610426   -3.2500479    1.4904653   408321 
 4686000   0.92467667   -3.2511667   -1.7597206  0.057826333   -3.2511667    1.4914461   408317 
 4687000   0.92315546   -3.2503074   -1.7611434  0.057749072   -3.2503074    1.4891639   408270 
 4688000   0.92253935   -3.2502347    -1.762112  0.059009671   -3.2502347    1.4881227   408283 
 4689000   0.92389353   -3.2510225   -1.7607958  0.060439586   -3.2510225    1.4902268   408305 
 4690000   0.92085006    -3.247469   -1.7620495  0.060566142    -3.247469    1.4854196   408277 
 4691000   0.92220518   -3.2493843   -1.7617679  0.056176409   -3.2493843    1.4876164   408274 
 4692000   0.92227583   -3.2493934   -1.7614334  0.057069153   -3.2493934      1.48796   408211 
 4693000   0.92200991   -3.2496783   -1.7620926  0.051291612   -3.2496783    1.4875856   408196 
 4694000   0.92176452   -3.2489931   -1.7618398  0.060881593   -3.2489931    1.4871533   408206 
 4695000   0.92130544   -3.2487225   -1.7622808  0.060771146   -3.2487225    1.4864417   408198 
 4696000   0.92331537   -3.2509845   -1.7612707  0.061651348   -3.2509845    1.4897138   408190 
 4697000   0.92313691   -3.2501073   -1.7606888  0.061890927   -3.2501073    1.4894185   408192 
 4698000   0.92208882   -3.2480828     -1.76041  0.063433634   -3.2480828    1.4876729   408207 
 4699000   0.92105676   -3.2470228   -1.7610005  0.057196681   -3.2470228    1.4860223   408203 
 4700000    0.9206369   -3.2472631   -1.7618781  0.056489276   -3.2472631     1.485385   408192 
 4701000   0.92087297   -3.2471392   -1.7614316  0.054935338   -3.2471392    1.4857076   408208 
 4702000   0.92122059   -3.2475292   -1.7612899  0.057167818   -3.2475292    1.4862393   408216 
 4703000   0.92239263   -3.2496319   -1.7615345  0.051275726   -3.2496319    1.4880974   408225 
 4704000   0.92129758   -3.2464668   -1.7602052  0.053187289   -3.2464668    1.4862616   408244 
 4705000   0.92080386   -3.2467418   -1.7613058  0.053953654   -3.2467418     1.485436   408252 
 4706000   0.91976652   -3.2454347    -1.761614  0.055888978   -3.2454347    1.4838207   408236 
 4707000   0.92121947   -3.2454322   -1.7590964  0.057309627   -3.2454322    1.4863358   408189 
 4708000   0.92082292   -3.2458025   -1.7601538  0.056196024   -3.2458025    1.4856487   408202 
 4709000   0.92282763   -3.2475037   -1.7586534  0.056213946   -3.2475037    1.4888503   408211 
 4710000   0.92147352   -3.2473181   -1.7605869  0.061763656   -3.2473181    1.4867311   408193 
 4711000   0.92161421   -3.2467451   -1.7598234  0.057333565   -3.2467451    1.4869217   408203 
 4712000   0.92281529   -3.2472979   -1.7584967  0.059873765   -3.2472979    1.4888012   408219 
 4713000   0.92257536   -3.2480238   -1.7594858  0.055951135   -3.2480238    1.4885381   408185 
 4714000   0.92318209   -3.2496547   -1.7600684  0.059411682   -3.2496547    1.4895863   408166 
 4715000   0.92329821   -3.2499411   -1.7600944  0.053367051   -3.2499411    1.4898467   408146 
 4716000   0.92183513   -3.2493134   -1.7617947  0.059464052   -3.2493134    1.4875186   408137 
 4717000   0.92201374   -3.2471586   -1.7593044  0.056574761   -3.2471586    1.4878543   408124 
 4718000    0.9220069   -3.2487795   -1.7609363  0.062067358   -3.2487795    1.4878432   408124 
 4719000   0.92319734    -3.249282    -1.759401  0.058759145    -3.249282     1.489881   408092 
 4720000   0.92209767   -3.2496717   -1.7614487  0.057098595   -3.2496717    1.4882231   408060 
 4721000   0.92150043   -3.2495821   -1.7623922   0.05855776   -3.2495821    1.4871899   408079 
 4722000   0.92249216   -3.2503439   -1.7615243  0.055334308   -3.2503439    1.4888196   408071 
 4723000   0.92281119   -3.2499699   -1.7607631  0.058891594   -3.2499699    1.4892068   408106 
 4724000   0.92220504   -3.2493114   -1.7612141  0.055293439   -3.2493114    1.4880973   408142 
 4725000   0.92237787   -3.2489873    -1.760684  0.054340135   -3.2489873    1.4883033   408162 
 4726000   0.92260969    -3.247207   -1.7586027   0.06007885    -3.247207    1.4886044   408182 
 4727000   0.92272657   -3.2484302   -1.7595095   0.06117096   -3.2484302    1.4889206   408147 
 4728000   0.92227397   -3.2482494   -1.7599534  0.063229464   -3.2482494    1.4882961   408118 
 4729000   0.92302445   -3.2501974   -1.7606756  0.059544485   -3.2501974    1.4895217   408114 
 4730000    0.9227446   -3.2487118    -1.759576   0.06179275   -3.2487118    1.4891358   408096 
 4731000   0.92279549   -3.2491305   -1.7597411  0.057810512   -3.2491305    1.4893895   408049 
 4732000   0.92201203   -3.2480331   -1.7599228  0.062854359   -3.2480331    1.4881104   408053 
 4733000   0.92307184    -3.250257   -1.7602352  0.054633134    -3.250257    1.4900217   407998 
 4734000   0.92147862    -3.249258   -1.7617825  0.056847531    -3.249258    1.4874755   407991 
 4735000   0.92030097   -3.2478885   -1.7622011  0.054656161   -3.2478885    1.4856874   407960 
 4736000   0.91982684   -3.2470775   -1.7621556  0.056146306   -3.2470775    1.4849219   407960 
 4737000   0.92129731   -3.2480295    -1.760555  0.057155439   -3.2480295    1.4874745   407911 
 4738000   0.92057704   -3.2476991   -1.7613474  0.053457614   -3.2476991    1.4863516   407900 
 4739000   0.92044733   -3.2479059    -1.761709  0.056385979   -3.2479059    1.4861969   407885 
 4740000   0.92054228   -3.2467895   -1.7604503  0.054089984   -3.2467895    1.4863392   407888 
 4741000   0.92064398   -3.2468923   -1.7602978  0.054321604   -3.2468923    1.4865946   407863 
 4742000   0.92180459   -3.2471628   -1.7586394  0.057788772   -3.2471628    1.4885234   407848 
 4743000   0.92113706   -3.2460142   -1.7583572  0.057488809   -3.2460142     1.487657   407790 
 4744000   0.92070081   -3.2458451   -1.7589327  0.053975936   -3.2458451    1.4869124   407801 
 4745000   0.92064422   -3.2471568   -1.7601754  0.054508981   -3.2471568    1.4869814   407757 
 4746000    0.9200294   -3.2460663   -1.7600707  0.055617937   -3.2460663    1.4859957   407755 
 4747000   0.91950755   -3.2446463   -1.7594971  0.055814608   -3.2446463    1.4851491   407756 
 4748000   0.91926077   -3.2460622   -1.7613226   0.05909955   -3.2460622    1.4847396   407759 
 4749000   0.92059097   -3.2479732   -1.7608881  0.054575231   -3.2479732     1.487085   407705 
 4750000   0.92148905   -3.2486323   -1.7601367  0.054672419   -3.2486323    1.4884956   407716 
 4751000   0.91943851    -3.246382   -1.7611622  0.057272182    -3.246382    1.4852198   407706 
 4752000   0.92070174   -3.2486163   -1.7613231  0.056370916   -3.2486163    1.4872932   407697 
 4753000   0.92067436   -3.2492593   -1.7619703  0.058373479   -3.2492593    1.4872891   407686 
 4754000   0.91989663   -3.2481451   -1.7619264  0.059052624   -3.2481451    1.4862186   407635 
 4755000   0.92033658   -3.2479376    -1.760917  0.059067449   -3.2479376    1.4870206   407610 
 4756000   0.92181284    -3.249574   -1.7601755  0.058827559    -3.249574    1.4893985   407612 
 4757000   0.92044886   -3.2501082   -1.7627894  0.058886993   -3.2501082    1.4873188   407578 
 4758000   0.92197987   -3.2510018   -1.7612274  0.061998465   -3.2510018    1.4897744   407583 
 4759000    0.9211717   -3.2499807   -1.7615048  0.059032173   -3.2499807    1.4884758   407581 
 4760000   0.92006525   -3.2496017   -1.7628773  0.056122474   -3.2496017    1.4867245   407571 
 4761000   0.91898146   -3.2491971    -1.764253  0.053629841   -3.2491971     1.484944   407579 
 4762000   0.92028929   -3.2513088   -1.7642916  0.054702621   -3.2513088    1.4870172   407590 
 4763000    0.9199433   -3.2505725   -1.7641034  0.063147623   -3.2505725    1.4864691   407587 
 4764000   0.92056421   -3.2526039   -1.7651425  0.059058978   -3.2526039    1.4874614   407590 
 4765000   0.92084761   -3.2512342   -1.7633952  0.059871286   -3.2512342     1.487839   407612 
 4766000   0.92049047    -3.251186   -1.7637343  0.057476957    -3.251186    1.4874517   407560 
 4767000   0.92042335   -3.2521975   -1.7648141  0.058759323   -3.2521975    1.4873834   407549 
 4768000   0.91942881   -3.2504126   -1.7647275  0.061565961   -3.2504126    1.4856851   407574 
 4769000   0.92015435   -3.2515088   -1.7646258  0.057647426   -3.2515088     1.486883   407567 
 4770000   0.92044167   -3.2515324   -1.7643748  0.055617808   -3.2515324    1.4871576   407619 
 4771000   0.92100247   -3.2527943   -1.7646211  0.060035197   -3.2527943    1.4881732   407589 
 4772000   0.92112454    -3.251649   -1.7632202  0.056781463    -3.251649    1.4884288   407573 
 4773000   0.91942975    -3.249623   -1.7637942  0.063087898    -3.249623    1.4858288   407535 
 4774000   0.92070621    -3.251612   -1.7636802  0.060438458    -3.251612    1.4879318   407524 
 4775000   0.92223072   -3.2538991   -1.7634817  0.056730461   -3.2538991    1.4904174   407518 
 4776000   0.92020207   -3.2508058   -1.7635282   0.05756532   -3.2508058    1.4872776   407480 
 4777000   0.92168506   -3.2520706   -1.7624364  0.058238567   -3.2520706    1.4896343   407491 
 4778000   0.92025262   -3.2502045   -1.7629291   0.06253823   -3.2502045    1.4872754   407503 
 4779000   0.92206131   -3.2520408   -1.7617509  0.058386851   -3.2520408    1.4902899   407478 
 4780000   0.92187006   -3.2509565   -1.7610671  0.058151713   -3.2509565    1.4898894   407503 
 4781000   0.92040692   -3.2486441   -1.7610756  0.054102959   -3.2486441    1.4875685   407491 
 4782000   0.92025948    -3.248189    -1.760866  0.059353402    -3.248189     1.487323   407493 
 4783000   0.91995896   -3.2472778   -1.7603822   0.05587956   -3.2472778    1.4868956   407477 
 4784000   0.92057827   -3.2476897   -1.7598807  0.056593515   -3.2476897     1.487809   407501 
 4785000   0.92146776   -3.2466278   -1.7573081  0.055731448   -3.2466278    1.4893196   407481 
 4786000   0.92170106   -3.2477412   -1.7580043   0.05498333   -3.2477412    1.4897369   407470 
 4787000   0.92133048   -3.2465232   -1.7575533  0.059434526   -3.2465232    1.4889699   407516 
 4788000   0.91984537    -3.244372   -1.7577585  0.065011565    -3.244372    1.4866135   407504 
 4789000   0.92058558   -3.2450918   -1.7571578  0.058058707   -3.2450918     1.487934   407470 
 4790000   0.92079412   -3.2448326   -1.7567003  0.056478623   -3.2448326    1.4881323   407508 
 4791000   0.92092198   -3.2444791   -1.7562461  0.056255577   -3.2444791     1.488233   407537 
 4792000   0.92112137   -3.2436008   -1.7550566  0.057607086   -3.2436008    1.4885442   407540 
 4793000      0.92331   -3.2458233   -1.7536982  0.062749879   -3.2458233     1.492125   407528 
 4794000   0.92202116   -3.2443896   -1.7543511  0.056909478   -3.2443896    1.4900385   407529 
 4795000   0.92263713   -3.2458823   -1.7548008  0.055590513   -3.2458823    1.4910815   407516 
 4796000   0.92139552   -3.2415316   -1.7524347  0.056929901   -3.2415316    1.4890969   407510 
 4797000   0.92105151    -3.242173   -1.7536175  0.056683085    -3.242173    1.4885555   407506 
 4798000   0.92170328   -3.2428133   -1.7532117  0.053991342   -3.2428133    1.4896016   407508 
 4799000   0.92000692   -3.2412625   -1.7543404  0.053476573   -3.2412625    1.4869221   407491 
 4800000     0.922043   -3.2426466   -1.7524046  0.051960752   -3.2426466     1.490242   407483 
 4801000   0.92064484   -3.2420298   -1.7539307  0.057248419   -3.2420298    1.4880992   407451 
 4802000   0.92167586   -3.2419593   -1.7522777  0.056629145   -3.2419593    1.4896816   407474 
 4803000   0.92181694   -3.2424963   -1.7526416  0.054521626   -3.2424963    1.4898547   407489 
 4804000   0.92048548   -3.2420737   -1.7543343   0.05247713   -3.2420737    1.4877393   407479 
 4805000   0.92139672   -3.2423831   -1.7529627  0.053865606   -3.2423831    1.4894205   407422 
 4806000   0.92206059   -3.2436799   -1.7532741  0.052300942   -3.2436799    1.4904058   407446 
 4807000   0.92166872   -3.2431443   -1.7534012  0.054554771   -3.2431443    1.4897431   407454 
 4808000   0.92127361   -3.2419287   -1.7526999  0.057051127   -3.2419287    1.4892288   407420 
 4809000   0.92218384   -3.2446212   -1.7538515  0.055158579   -3.2446212    1.4907697   407401 
 4810000   0.92065135   -3.2420771   -1.7539236  0.060320059   -3.2420771    1.4881535   407439 
 4811000   0.92054731   -3.2414247   -1.7533152  0.063044761   -3.2414247    1.4881095   407405 
 4812000   0.92023583   -3.2432541   -1.7554765  0.057892772   -3.2432541    1.4877776   407358 
 4813000   0.92192685   -3.2443814   -1.7538552  0.054996685   -3.2443814    1.4905262   407354 
 4814000    0.9199131    -3.241548   -1.7540987  0.057529147    -3.241548    1.4874494   407305 
 4815000   0.92054252    -3.243964   -1.7552959  0.056361678    -3.243964    1.4886681   407250 
 4816000   0.92093882   -3.2437644   -1.7545103    0.0543897   -3.2437644    1.4892542   407265 
 4817000   0.91865435   -3.2410991   -1.7554808  0.059032106   -3.2410991    1.4856183   407249 
 4818000   0.92038981   -3.2450369   -1.7564805  0.058825192   -3.2450369    1.4885564   407213 
 4819000   0.92092252   -3.2466843   -1.7572297  0.060307281   -3.2466843    1.4894546   407203 
 4820000   0.91975777   -3.2453047   -1.7577449  0.058601972   -3.2453047    1.4875598   407206 
 4821000   0.92087702   -3.2479815   -1.7585384  0.056019812   -3.2479815    1.4894432   407186 
 4822000   0.91904255    -3.245015   -1.7586192  0.057275342    -3.245015    1.4863957   407208 
 4823000    0.9207796   -3.2466408   -1.7573442  0.060157456   -3.2466408    1.4892965   407183 
 4824000   0.92006255   -3.2454589   -1.7572125   0.06037461   -3.2454589    1.4882464   407153 
 4825000   0.92014673   -3.2467256   -1.7581528  0.062825718   -3.2467256    1.4885727   407101 
 4826000   0.91838574   -3.2453626   -1.7596753  0.056905019   -3.2453626    1.4856874   407111 
 4827000   0.91961417   -3.2488522    -1.761046  0.057402072   -3.2488522    1.4878062   407075 
 4828000    0.9198489   -3.2498872    -1.761767  0.059536005   -3.2498872    1.4881201   407093 
 4829000   0.92009366   -3.2497734    -1.761228  0.054928821   -3.2497734    1.4885453   407085 
 4830000   0.91956557   -3.2486841   -1.7610077  0.055386524   -3.2486841    1.4876764   407089 
 4831000   0.91918936   -3.2477202   -1.7607146  0.058162109   -3.2477202    1.4870056   407106 
 4832000   0.92088657   -3.2540589   -1.7640734  0.055099692   -3.2540589    1.4899855   407042 
 4833000   0.92007962   -3.2506931   -1.7618486   0.05888807   -3.2506931    1.4888445   406997 
 4834000   0.92001735   -3.2522956   -1.7635958  0.063132038   -3.2522956    1.4886998   407009 
 4835000   0.91978061   -3.2515569   -1.7631853   0.05968818   -3.2515569    1.4883716   406994 
 4836000   0.92003908   -3.2524444   -1.7636948  0.060011635   -3.2524444    1.4887496   407005 
 4837000   0.92158408   -3.2517056   -1.7606135  0.065551516   -3.2517056    1.4910921   407048 
 4838000   0.91938833    -3.249493   -1.7619024  0.061075418    -3.249493    1.4875906   407034 
 4839000   0.92102013   -3.2510928   -1.7607264   0.05675173   -3.2510928    1.4903664   406997 
 4840000   0.91928697   -3.2490609   -1.7614515   0.06292919   -3.2490609    1.4876094   406984 
 4841000   0.91920413   -3.2484011   -1.7611231  0.056943955   -3.2484011     1.487278   407038 
 4842000   0.91999014   -3.2487961   -1.7602098  0.060240031   -3.2487961    1.4885863   407028 
 4843000   0.92145733   -3.2522407   -1.7609874  0.053125597   -3.2522407    1.4912534   406948 
 4844000   0.91884066   -3.2489354   -1.7619935  0.057272024   -3.2489354    1.4869419   406969 
 4845000   0.92031417   -3.2517291   -1.7623733  0.054585756   -3.2517291    1.4893558   406961 
 4846000    0.9190125   -3.2491338   -1.7618517  0.058809311   -3.2491338    1.4872821   406952 
 4847000   0.91882802   -3.2479075   -1.7609897  0.057954246   -3.2479075    1.4869178   406970 
 4848000   0.91957778   -3.2478718   -1.7596346  0.061129156   -3.2478718    1.4882372   406941 
 4849000   0.92023011   -3.2482159   -1.7588388   0.05859582   -3.2482159    1.4893771   406918 
 4850000   0.91938053   -3.2458816   -1.7579454  0.060280438   -3.2458816    1.4879362   406936 
 4851000   0.91831575   -3.2462387   -1.7600367  0.052732642   -3.2462387     1.486202   406939 
 4852000   0.91813911   -3.2457966   -1.7598329  0.051467352   -3.2457966    1.4859636   406926 
 4853000   0.91932067   -3.2473521   -1.7594506  0.050941118   -3.2473521    1.4879015   406919 
 4854000    0.9188282   -3.2465178   -1.7593219  0.057949511   -3.2465178    1.4871958   406894 
 4855000   0.91888622   -3.2459746   -1.7585715  0.054756076   -3.2459746    1.4874031   406863 
 4856000   0.91892689   -3.2449129   -1.7575207  0.054192556   -3.2449129    1.4873921   406884 
 4857000    0.9191721   -3.2454074   -1.7575014  0.056325754   -3.2454074     1.487906   406852 
 4858000   0.91946683   -3.2457381   -1.7572671  0.058335054   -3.2457381    1.4884709   406828 
 4859000   0.91828708   -3.2458637   -1.7592587  0.058395315   -3.2458637     1.486605   406816 
 4860000   0.91828763   -3.2447159   -1.7579748  0.053171471   -3.2447159    1.4867411   406779 
 4861000   0.91781259   -3.2443644   -1.7582134  0.051684819   -3.2443644     1.486151   406730 
 4862000   0.91684089   -3.2452183   -1.7603487  0.055062553   -3.2452183    1.4848696   406650 
 4863000   0.91730173   -3.2445786   -1.7590832  0.055539657   -3.2445786    1.4854955   406683 
 4864000     0.917098   -3.2447901   -1.7595333  0.055090841   -3.2447901    1.4852568   406658 
 4865000   0.91857402   -3.2472007   -1.7595352  0.050570613   -3.2472007    1.4876656   406653 
 4866000    0.9186589   -3.2454466   -1.7575631  0.056574291   -3.2454466    1.4878835   406631 
 4867000   0.92008256   -3.2464894   -1.7564246  0.052981014   -3.2464894    1.4900647   406665 
 4868000   0.91910497   -3.2460408   -1.7575629  0.054082383   -3.2460408    1.4884779   406666 
 4869000   0.91849017   -3.2444244   -1.7568397  0.057569454   -3.2444244    1.4875846   406638 
 4870000   0.91959283    -3.246511   -1.7570746  0.055581382    -3.246511    1.4894364   406620 
 4871000    0.9188661   -3.2446634   -1.7564919  0.063242475   -3.2446634    1.4881715   406644 
 4872000   0.91917752   -3.2433608   -1.7547838  0.055068376   -3.2433608    1.4885771   406671 
 4873000   0.91761359   -3.2411299   -1.7551916  0.059497727   -3.2411299    1.4859384   406700 
 4874000   0.91956671   -3.2449405   -1.7557258   0.05850075   -3.2449405    1.4892147   406669 
 4875000   0.91866393      -3.2444   -1.7565705  0.059168984      -3.2444    1.4878295   406648 
 4876000   0.92001111   -3.2461104   -1.7560368  0.054571008   -3.2461104    1.4900736   406631 
 4877000   0.91859554   -3.2441325    -1.756304  0.058210525   -3.2441325    1.4878285   406618 
 4878000   0.91774484   -3.2430053   -1.7566461  0.054999117   -3.2430053    1.4863592   406643 
 4879000   0.91805723    -3.243468   -1.7566759  0.056271615    -3.243468     1.486792   406663 
 4880000   0.91786424   -3.2425758   -1.7560524  0.059664291   -3.2425758    1.4865234   406651 
 4881000   0.91723635   -3.2414355   -1.7560203  0.057759275   -3.2414355    1.4854151   406676 
 4882000   0.91718169   -3.2413724   -1.7561115  0.058411862   -3.2413724    1.4852609   406694 
 4883000   0.91598981   -3.2409673   -1.7577058  0.054474195   -3.2409673    1.4832615   406713 
 4884000   0.91710125   -3.2437272   -1.7586879  0.048731014   -3.2437272    1.4850393   406719 
 4885000   0.91688475   -3.2409307   -1.7562127  0.054521844   -3.2409307     1.484718   406711 
 4886000   0.91635033   -3.2403207   -1.7564061  0.053668923   -3.2403207    1.4839146   406694 
 4887000   0.91811607   -3.2422393    -1.755458  0.054775872   -3.2422393    1.4867813   406692 
 4888000   0.91754222   -3.2413465   -1.7553519  0.054120964   -3.2413465    1.4859945   406653 
 4889000    0.9193467   -3.2441514   -1.7551246  0.056520001   -3.2441514    1.4890268   406623 
 4890000   0.91985301   -3.2455486   -1.7556541  0.059977851   -3.2455486    1.4898945   406610 
 4891000   0.91964231   -3.2450353   -1.7554235  0.061788149   -3.2450353    1.4896118   406594 
 4892000   0.91972058   -3.2453167   -1.7555195  0.063670794   -3.2453167    1.4897972   406578 
 4893000   0.92024899   -3.2456512   -1.7550823  0.057897422   -3.2456512    1.4905688   406601 
 4894000   0.92007745   -3.2466099   -1.7563189  0.054962305   -3.2466099     1.490291   406601 
 4895000   0.92014834     -3.24761   -1.7572115  0.059571448     -3.24761    1.4903985   406603 
 4896000   0.91824513   -3.2436807   -1.7565112  0.064161746   -3.2436807    1.4871695   406643 
 4897000   0.91906116   -3.2456337   -1.7572378  0.062124917   -3.2456337    1.4883959   406669 
 4898000   0.91904516   -3.2460339   -1.7575028  0.057757479   -3.2460339    1.4885311   406625 
 4899000   0.91904705   -3.2453559   -1.7567376  0.060618343   -3.2453559    1.4886183   406602 
 4900000   0.91718416   -3.2451037   -1.7595466  0.063801406   -3.2451037    1.4855571   406614 
 4901000   0.91933756   -3.2476193   -1.7584315  0.055426544   -3.2476193    1.4891878   406575 
 4902000   0.91900482   -3.2471293   -1.7584842  0.055225723   -3.2471293    1.4886451   406576 
 4903000   0.91896881   -3.2469957   -1.7583027  0.054934039   -3.2469957     1.488693   406547 
 4904000   0.92009019   -3.2466747   -1.7561944  0.059025254   -3.2466747    1.4904803   406555 
 4905000   0.91969502   -3.2466741   -1.7568193   0.05756222   -3.2466741    1.4898548   406551 
 4906000   0.92042004   -3.2470777   -1.7561621  0.056948757   -3.2470777    1.4909156   406582 
 4907000   0.91949931   -3.2446417   -1.7552212  0.058779079   -3.2446417    1.4894205   406583 
 4908000   0.91964496   -3.2453091    -1.755539  0.059457132   -3.2453091      1.48977   406552 
 4909000   0.92062928   -3.2455156   -1.7540887  0.049060188   -3.2455156    1.4914269   406535 
 4910000   0.91894367   -3.2437221   -1.7548208  0.057664063   -3.2437221    1.4889013   406479 
 4911000   0.91859408   -3.2422437   -1.7539234  0.055316679   -3.2422437    1.4883202   406483 
 4912000   0.91983179   -3.2442062    -1.753877  0.055865864   -3.2442062    1.4903293   406482 
 4913000   0.91786381   -3.2400987   -1.7530422  0.059694455   -3.2400987    1.4870566   406505 
 4914000   0.91926878   -3.2439963   -1.7545683  0.055847409   -3.2439963     1.489428   406479 
 4915000   0.91674572   -3.2398142   -1.7545764  0.056999454   -3.2398142    1.4852378   406507 
 4916000   0.91906137   -3.2415453   -1.7524057  0.048423115   -3.2415453    1.4891396   406466 
 4917000   0.91649119   -3.2392799   -1.7543668  0.059191289   -3.2392799    1.4849131   406483 
 4918000   0.91582032   -3.2378064   -1.7540533  0.055054557   -3.2378064    1.4837531   406503 
 4919000   0.91721292   -3.2402591   -1.7542899  0.053525195   -3.2402591    1.4859691   406514 
 4920000   0.91516149   -3.2356927   -1.7531529  0.050464275   -3.2356927    1.4825399   406543 
 4921000    0.9151928   -3.2358054   -1.7529887  0.056999413   -3.2358054    1.4828167   406481 
 4922000   0.91627154   -3.2372722   -1.7527844  0.054566094   -3.2372722    1.4844878   406502 
 4923000   0.91573535    -3.238586   -1.7548829  0.050800083    -3.238586    1.4837031   406479 
 4924000   0.91664474     -3.23989   -1.7547537  0.052801623     -3.23989    1.4851363   406490 
 4925000   0.91707766   -3.2399885    -1.753968  0.054463509   -3.2399885    1.4860205   406440 
 4926000   0.91754432   -3.2412777   -1.7543657  0.052725312   -3.2412777     1.486912   406403 
 4927000   0.91815335    -3.240514   -1.7525308  0.052785442    -3.240514    1.4879832   406380 
 4928000   0.91700326   -3.2395836   -1.7533253    0.0589599   -3.2395836    1.4862583   406342 
 4929000   0.91845509   -3.2436182   -1.7549116  0.058925129   -3.2436182    1.4887067   406316 
 4930000   0.91882381    -3.243101   -1.7537637  0.058277044    -3.243101    1.4893373   406307 
 4931000   0.91878939   -3.2429918    -1.753736  0.052643648   -3.2429918    1.4892559   406314 
 4932000    0.9182632   -3.2419941   -1.7535361  0.057058265   -3.2419941    1.4884579   406299 
 4933000   0.91733763   -3.2422653   -1.7552418  0.059248444   -3.2422653    1.4870235   406281 
 4934000   0.91740387   -3.2431183   -1.7559765  0.056810769   -3.2431183    1.4871418   406278 
 4935000   0.91817763   -3.2438961   -1.7554304  0.059455891   -3.2438961    1.4884657   406259 
 4936000   0.91651396   -3.2419079   -1.7561318  0.054296224   -3.2419079    1.4857761   406257 
 4937000    0.9190484   -3.2464191   -1.7564244  0.059982489   -3.2464191    1.4899947   406227 
 4938000   0.91637813   -3.2425804   -1.7569624  0.061052339   -3.2425804     1.485618   406240 
 4939000   0.91873102   -3.2467594   -1.7572682  0.057461134   -3.2467594    1.4894912   406224 
 4940000   0.91659257   -3.2428132   -1.7566866  0.061656647   -3.2428132    1.4861266   406196 
 4941000   0.91616353   -3.2439382   -1.7584085  0.059300177   -3.2439382    1.4855298   406169 
 4942000   0.91612829   -3.2442009   -1.7588307    0.0552685   -3.2442009    1.4853702   406197 
 4943000   0.91617421    -3.244755   -1.7592847  0.049317612    -3.244755    1.4854703   406190 
 4944000   0.91549752   -3.2439517   -1.7594799  0.056703935   -3.2439517    1.4844718   406163 
 4945000   0.91577671    -3.244677   -1.7597415  0.051145413    -3.244677    1.4849355   406160 
 4946000   0.91511524   -3.2444083   -1.7604833  0.055910609   -3.2444083     1.483925   406143 
 4947000   0.91515728   -3.2435269   -1.7594679  0.053987875   -3.2435269    1.4840589   406125 
 4948000   0.91562913   -3.2424124    -1.757592   0.05569707   -3.2424124    1.4848205   406126 
 4949000   0.91659787   -3.2439746   -1.7576235  0.055603596   -3.2439746    1.4863511   406137 
 4950000   0.91390431   -3.2426126   -1.7605308  0.051559303   -3.2426126    1.4820818   406110 
 4951000   0.91486124   -3.2443027   -1.7605704   0.04998077   -3.2443027    1.4837323   406083 
 4952000   0.91593298   -3.2465869   -1.7609592  0.051686994   -3.2465869    1.4856278   406040 
 4953000   0.91311385   -3.2426601   -1.7615502   0.05374845   -3.2426601    1.4811099   406025 
 4954000    0.9137419   -3.2437962   -1.7616603  0.054411164   -3.2437962    1.4821359   406023 
 4955000   0.91646638   -3.2452701   -1.7587954  0.053506219   -3.2452701    1.4864746   406045 
 4956000   0.91736937   -3.2454983   -1.7575077  0.051705162   -3.2454983    1.4879906   406031 
 4957000   0.91616121   -3.2452822   -1.7592001  0.054443064   -3.2452822    1.4860821   406017 
 4958000   0.91527862   -3.2455646   -1.7608227  0.059018374   -3.2455646    1.4847419   405992 
 4959000   0.91759821   -3.2475155   -1.7590291  0.056285557   -3.2475155    1.4884864   405997 
 4960000   0.91651231    -3.246875    -1.759967   0.05806519    -3.246875     1.486908   405947 
 4961000   0.91622621   -3.2474642   -1.7609507  0.056870742   -3.2474642    1.4865134   405928 
 4962000   0.91715502   -3.2471206   -1.7591296  0.062029858   -3.2471206     1.487991   405936 
 4963000   0.91623219   -3.2465706   -1.7600328  0.058745291   -3.2465706    1.4865378   405924 
 4964000   0.91490062   -3.2445194   -1.7600031  0.055202104   -3.2445194    1.4845163   405886 
 4965000   0.91625653   -3.2478646   -1.7610456  0.050417393   -3.2478646     1.486819   405858 
 4966000   0.91523857   -3.2475848   -1.7624323   0.05858429   -3.2475848    1.4851525   405862 
 4967000   0.91492146   -3.2476192   -1.7631239  0.057392085   -3.2476192    1.4844953   405901 
 4968000   0.91485467   -3.2480029   -1.7635721  0.053191794   -3.2480029    1.4844308   405889 
 4969000    0.9151194   -3.2482011   -1.7632456  0.053420218   -3.2482011    1.4849555   405863 
 4970000    0.9148291   -3.2475765   -1.7630409  0.060655655   -3.2475765    1.4845356   405849 
 4971000   0.91630407   -3.2485253   -1.7615632   0.05421656   -3.2485253    1.4869621   405840 
 4972000   0.91554611   -3.2472457   -1.7615539   0.05601858   -3.2472457    1.4856918   405851 
 4973000   0.91509694   -3.2473943   -1.7623618  0.048780885   -3.2473943    1.4850325   405832 
 4974000   0.91565588   -3.2480623   -1.7621411  0.054818936   -3.2480623    1.4859212   405837 
 4975000    0.9141397   -3.2436732   -1.7601723  0.063405939   -3.2436732     1.483501   405826 
 4976000   0.91596411   -3.2474674   -1.7609728  0.052183527   -3.2474674    1.4864947   405817 
 4977000   0.91595521   -3.2465063     -1.76007  0.054481135   -3.2465063    1.4864363   405829 
 4978000   0.91510786   -3.2460726   -1.7609163  0.055551286   -3.2460726    1.4851563   405803 
 4979000   0.91572376   -3.2476002   -1.7612869  0.057531089   -3.2476002    1.4863134   405760 
 4980000   0.91701939   -3.2495808   -1.7611792  0.059102066   -3.2495808    1.4884016   405764 
 4981000   0.91602007    -3.246869    -1.760104  0.058341048    -3.246869     1.486765   405768 
 4982000   0.91616119   -3.2456203   -1.7585163   0.05863401   -3.2456203     1.487104   405738 
 4983000   0.91588988   -3.2433997   -1.7567068  0.056307392   -3.2433997    1.4866929   405730 
 4984000   0.91527088   -3.2436427   -1.7579692  0.055715688   -3.2436427    1.4856735   405734 
 4985000   0.91416396    -3.244172   -1.7602806  0.056689204    -3.244172    1.4838914   405730 
 4986000   0.91524503   -3.2456519   -1.7599361  0.056351611   -3.2456519    1.4857158   405711 
 4987000   0.91522187   -3.2436656   -1.7578959  0.054769714   -3.2436656    1.4857697   405686 
 4988000   0.91485842   -3.2440656   -1.7588859  0.056647629   -3.2440656    1.4851797   405686 
 4989000   0.91454705   -3.2449096    -1.760228   0.04569741   -3.2449096    1.4846815   405684 
 4990000   0.91647632   -3.2455019   -1.7576554  0.057157528   -3.2455019    1.4878465   405675 
 4991000    0.9154781   -3.2427031   -1.7565138  0.061478742   -3.2427031    1.4861893   405685 
 4992000   0.91663928   -3.2444634    -1.756356  0.053021901   -3.2444634    1.4881074   405676 
 4993000   0.91696016   -3.2444318   -1.7558475  0.056256895   -3.2444318    1.4885843   405688 
 4994000   0.91673867   -3.2438714   -1.7555807  0.062285566   -3.2438714    1.4882908   405670 
 4995000   0.91788011   -3.2447338   -1.7546414  0.056318368   -3.2447338    1.4900924   405684 
 4996000   0.91561414   -3.2402398   -1.7538406  0.060428097   -3.2402398    1.4863992   405688 
 4997000   0.91615602    -3.240012   -1.7525864  0.059496037    -3.240012    1.4874255   405648 
 4998000   0.91770639   -3.2433558   -1.7533213  0.057143182   -3.2433558    1.4900345   405623 
 4999000   0.91564625    -3.241641   -1.7549002  0.053174035    -3.241641    1.4867408   405609 
 5000000    0.9150182   -3.2403828   -1.7545225   0.05422197   -3.2403828    1.4858603   405571 
 5001000   0.91423793   -3.2392635   -1.7545421  0.052979744   -3.2392635    1.4847214   405536 
 5002000   0.91449876   -3.2397487   -1.7544756  0.057968007   -3.2397487    1.4852731   405501 
 5003000   0.91499552   -3.2403784   -1.7542581  0.050767547   -3.2403784    1.4861202   405490 
 5004000   0.91399887   -3.2396037   -1.7549338  0.055356672   -3.2396037    1.4846699   405444 
 5005000   0.91464724   -3.2410276   -1.7550956  0.053601185   -3.2410276     1.485932   405387 
 5006000    0.9136859   -3.2389905   -1.7546093  0.055991539   -3.2389905    1.4843812   405384 
 5007000   0.91633943   -3.2425384   -1.7537067   0.05367069   -3.2425384    1.4888317   405346 
 5008000   0.91723514   -3.2424003   -1.7520728  0.060008034   -3.2424003    1.4903275   405335 
 5009000   0.91647632   -3.2422108   -1.7530134  0.055410578   -3.2422108    1.4891974   405307 
 5010000   0.91639873     -3.24104   -1.7519135  0.054567279     -3.24104    1.4891265   405292 
 5011000    0.9151166   -3.2398226   -1.7526622  0.055644247   -3.2398226    1.4871604   405260 
 5012000   0.91401116   -3.2385729   -1.7531026  0.058375266   -3.2385729    1.4854703   405231 
 5013000   0.91520701   -3.2405656   -1.7531701  0.053830054   -3.2405656    1.4873955   405236 
 5014000   0.91416399   -3.2390914   -1.7535304  0.057160408   -3.2390914     1.485561   405274 
 5015000   0.91421105   -3.2389535   -1.7533269  0.050636824   -3.2389535    1.4856265   405277 
 5016000   0.91359027   -3.2385358    -1.753995  0.051848017   -3.2385358    1.4845408   405298 
 5017000   0.91455377   -3.2413434   -1.7550902  0.049003367   -3.2413434    1.4862531   405258 
 5018000   0.91545039   -3.2414535   -1.7536662  0.052240575   -3.2414535    1.4877873   405237 
 5019000   0.91387772   -3.2407572   -1.7554964  0.056030282   -3.2407572    1.4852607   405229 
 5020000   0.91429903   -3.2406796   -1.7546351  0.058733702   -3.2406796    1.4860445   405202 
 5021000   0.91471315   -3.2412768   -1.7544308  0.052718256   -3.2412768     1.486846   405167 
 5022000   0.91600163   -3.2408424     -1.75188  0.060272189   -3.2408424    1.4889625   405161 
 5023000   0.91646084   -3.2413144   -1.7518371  0.064792016   -3.2413144    1.4894773   405224 
 5024000   0.91511399   -3.2397574   -1.7523039  0.059990982   -3.2397574    1.4874535   405179 
 5025000   0.91502944    -3.239758   -1.7523134  0.057721677    -3.239758    1.4874446   405144 
 5026000   0.91493157   -3.2400262   -1.7527774   0.05836014   -3.2400262    1.4872488   405154 
 5027000   0.91485945   -3.2397969   -1.7527975     0.059114   -3.2397969    1.4869994   405190 
 5028000   0.91610368   -3.2421274   -1.7531534  0.055177192   -3.2421274     1.488974   405203 
 5029000   0.91539422   -3.2397491   -1.7519723  0.060525466   -3.2397491    1.4877768   405215 
 5030000   0.91526804   -3.2406587   -1.7530833  0.058931086   -3.2406587    1.4875754   405214 
 5031000   0.91637714   -3.2422242   -1.7528902  0.055644538   -3.2422242    1.4893339   405226 
 5032000   0.91339699   -3.2373887   -1.7527224  0.058082576   -3.2373887    1.4846663   405178 
 5033000   0.91630711    -3.241878   -1.7524447  0.059741634    -3.241878    1.4894333   405168 
 5034000   0.91493842   -3.2406585   -1.7535124  0.055292799   -3.2406585    1.4871461   405185 
 5035000   0.91429103   -3.2393277   -1.7532192  0.059706964   -3.2393277    1.4861085   405181 
 5036000   0.91580848   -3.2428074   -1.7541957  0.053872126   -3.2428074    1.4886117   405171 
 5037000   0.91495359   -3.2395518   -1.7523994  0.052868927   -3.2395518    1.4871524   405190 
 5038000   0.91545841   -3.2403085   -1.7523245  0.056042782   -3.2403085     1.487984   405187 
 5039000   0.91464048   -3.2405965   -1.7537915  0.061728951   -3.2405965    1.4868049   405146 
 5040000   0.91555601   -3.2413915   -1.7531351  0.060047571   -3.2413915    1.4882565   405156 
 5041000    0.9146835   -3.2389984   -1.7522263  0.054185858   -3.2389984    1.4867721   405174 
 5042000   0.91474883   -3.2381681   -1.7512788  0.060323185   -3.2381681    1.4868893   405171 
 5043000    0.9136761   -3.2379761   -1.7527352  0.063063724   -3.2379761    1.4852409   405145 
 5044000   0.91468876    -3.239124   -1.7523323  0.057973701    -3.239124    1.4867917   405171 
 5045000   0.91451312   -3.2402644   -1.7536775  0.056650455   -3.2402644    1.4865869   405149 
 5046000   0.91202098    -3.237794   -1.7552729  0.057847604    -3.237794    1.4825212   405153 
 5047000   0.91325031   -3.2404987   -1.7557484  0.060662183   -3.2404987    1.4847504   405090 
 5048000    0.9151227   -3.2418464   -1.7541291  0.051854624   -3.2418464    1.4877173   405111 
 5049000   0.91550553   -3.2413695   -1.7529967  0.052148413   -3.2413695    1.4883728   405102 
 5050000   0.91563347   -3.2398899   -1.7513165  0.057604223   -3.2398899    1.4885734   405104 
 5051000   0.91634277   -3.2408088   -1.7511595  0.053440978   -3.2408088    1.4896493   405125 
 5052000   0.91624971   -3.2406385   -1.7511404  0.057377688   -3.2406385     1.489498   405125 
 5053000   0.91632091   -3.2401364   -1.7503902  0.065426752   -3.2401364    1.4897462   405089 
 5054000    0.9165479    -3.241488   -1.7512698  0.063261569    -3.241488    1.4902182   405061 
 5055000   0.91515222    -3.239967   -1.7518821  0.056474841    -3.239967    1.4880849   405024 
 5056000   0.91570871   -3.2408546   -1.7520192  0.056704403   -3.2408546    1.4888354   405066 
 5057000   0.91620708   -3.2406711   -1.7511651  0.062658319   -3.2406711    1.4895059   405104 
 5058000   0.91464524   -3.2398479   -1.7528921  0.058823803   -3.2398479    1.4869558   405107 
 5059000    0.9154643   -3.2398459   -1.7513785  0.053262493   -3.2398459    1.4884674   405058 
 5060000    0.9154385    -3.241557    -1.753025  0.060836583    -3.241557     1.488532   405029 
 5061000   0.91537762   -3.2400661   -1.7516147  0.055495528   -3.2400661    1.4884514   405024 
 5062000   0.91356583   -3.2372816   -1.7518643  0.057657208   -3.2372816    1.4854173   405048 
 5063000    0.9142305   -3.2381204    -1.751604  0.057833707   -3.2381204    1.4865164   405043 
 5064000   0.91436804   -3.2378373   -1.7510789  0.057446188   -3.2378373    1.4867584   405038 
 5065000   0.91333546   -3.2381113   -1.7528742  0.058737828   -3.2381113    1.4852371   404995 
 5066000   0.91545997   -3.2413691   -1.7528646  0.058014682   -3.2413691    1.4885045   405046 
 5067000   0.91274971   -3.2378836   -1.7538335  0.053524483   -3.2378836    1.4840501   405059 
 5068000   0.91368666   -3.2394615   -1.7539211  0.056749925   -3.2394615    1.4855405   405068 
 5069000    0.9145627   -3.2408918   -1.7537728  0.055746199   -3.2408918     1.487119   405026 
 5070000   0.91455587   -3.2390049   -1.7517685   0.05928401   -3.2390049    1.4872364   404991 
 5071000   0.91607571   -3.2409854   -1.7511781  0.056900087   -3.2409854    1.4898072   404964 
 5072000   0.91648288   -3.2429444   -1.7524087  0.056748013   -3.2429444    1.4905357   404946 
 5073000   0.91502627   -3.2404019   -1.7523491  0.062446544   -3.2404019    1.4880528   404977 
 5074000   0.91538249   -3.2413862   -1.7528203  0.057415922   -3.2413862    1.4885659   404995 
 5075000   0.91621329   -3.2416322   -1.7516601  0.056531429   -3.2416322    1.4899721   404980 
 5076000   0.91674366   -3.2430148    -1.752044  0.057220697   -3.2430148    1.4909708   404943 
 5077000   0.91648131   -3.2432389   -1.7528198  0.057454959   -3.2432389     1.490419   404977 
 5078000   0.91539709   -3.2413715   -1.7527745   0.06246833   -3.2413715     1.488597   404993 
 5079000    0.9156028   -3.2427607   -1.7538255  0.059770645   -3.2427607    1.4889352   404992 
 5080000   0.91615226   -3.2419272    -1.751955  0.059008191   -3.2419272    1.4899722   404953 
 5081000   0.91722867   -3.2432318   -1.7515164  0.053443131   -3.2432318    1.4917155   404955 
 5082000   0.91691863   -3.2434658   -1.7521146  0.059603946   -3.2434658    1.4913512   404917 
 5083000   0.91631656   -3.2429784   -1.7525991  0.062239692   -3.2429784    1.4903793   404915 
 5084000   0.91461067    -3.241997   -1.7542306  0.063965977    -3.241997    1.4877663   404871 
 5085000   0.91483775   -3.2412754   -1.7531323  0.059827404   -3.2412754    1.4881431   404869 
 5086000   0.91475066   -3.2407191   -1.7527251  0.059841123   -3.2407191    1.4879941   404871 
 5087000    0.9150056    -3.241099   -1.7527748  0.056703735    -3.241099    1.4883242   404894 
 5088000   0.91551634   -3.2415404    -1.752448  0.058232696   -3.2415404    1.4890924   404911 
 5089000   0.91440046   -3.2393794   -1.7520469  0.059462912   -3.2393794    1.4873325   404896 
 5090000   0.91481235   -3.2390954   -1.7510892   0.05674274   -3.2390954    1.4880062   404895 
 5091000   0.91550691   -3.2402764    -1.751111    0.0536607   -3.2402764    1.4891654   404887 
 5092000    0.9157873   -3.2384815   -1.7487644  0.053832677   -3.2384815    1.4897171   404861 
 5093000   0.91498792   -3.2379765   -1.7497178   0.05464871   -3.2379765    1.4882587   404904 
 5094000   0.91459291   -3.2370237   -1.7492936  0.057909442   -3.2370237    1.4877301   404873 
 5095000   0.91432329   -3.2367566   -1.7494247  0.055942708   -3.2367566    1.4873319   404862 
 5096000   0.91233234   -3.2349134   -1.7508972  0.060691006   -3.2349134    1.4840163   404883 
 5097000   0.91494513    -3.236148   -1.7478744  0.058153908    -3.236148    1.4882736   404881 
 5098000   0.91532993   -3.2364144   -1.7476289  0.057306861   -3.2364144    1.4887856   404912 
 5099000   0.91472495    -3.235779   -1.7480546  0.049859036    -3.235779    1.4877244   404933 
 5100000    0.9148592   -3.2359985   -1.7480079  0.054186152   -3.2359985    1.4879905   404920 
 5101000   0.91391556   -3.2347539   -1.7482467  0.059859253   -3.2347539    1.4865071   404906 
 5102000    0.9141501    -3.234563   -1.7479094  0.053869648    -3.234563    1.4866536   404970 
 5103000   0.91315743     -3.23316    -1.748117  0.055378301     -3.23316    1.4850429   404969 
 5104000   0.91478886   -3.2348277   -1.7470986  0.051379751   -3.2348277    1.4877291   404960 
 5105000   0.91409126   -3.2335894   -1.7471746  0.053977748   -3.2335894    1.4864148   405009 
 5106000   0.91499823   -3.2352402    -1.747211  0.053984942   -3.2352402    1.4880292   404971 
 5107000   0.91580611   -3.2373447   -1.7479354  0.049841013   -3.2373447    1.4894093   404953 
 5108000   0.91354087   -3.2338009   -1.7481931  0.058761445   -3.2338009    1.4856078   404985 
 5109000   0.91483328   -3.2356829   -1.7478999  0.052350489   -3.2356829     1.487783   404965 
 5110000   0.91509614   -3.2365548   -1.7483038  0.052409475   -3.2365548    1.4882509   404954 
 5111000   0.91404577   -3.2357629   -1.7492056  0.053482067   -3.2357629    1.4865574   404950 
 5112000   0.91460133   -3.2359677   -1.7485215   0.05324926   -3.2359677    1.4874462   404954 
 5113000   0.91505309   -3.2368643   -1.7484813  0.056394082   -3.2368643    1.4883831   404899 
 5114000   0.91563211   -3.2381598   -1.7486914  0.058383021   -3.2381598    1.4894683   404860 
 5115000   0.91454467   -3.2369682   -1.7491071  0.059854935   -3.2369682    1.4878611   404816 
 5116000   0.91464084    -3.238356   -1.7504671  0.056895681    -3.238356    1.4878889   404851 
 5117000    0.9149525     -3.23889   -1.7504978  0.057931784     -3.23889    1.4883922   404852 
 5118000   0.91516329    -3.239233   -1.7504353  0.057062128    -3.239233    1.4887976   404835 
 5119000   0.91509105    -3.237898   -1.7493539  0.058786509    -3.237898    1.4885441   404872 
 5120000   0.91365227   -3.2349583   -1.7486482  0.061694219   -3.2349583    1.4863101   404843 
 5121000   0.91557149   -3.2381743   -1.7487052  0.055460881   -3.2381743    1.4894691   404833 
 5122000    0.9150693   -3.2373947    -1.748772  0.056951056   -3.2373947    1.4886227   404841 
 5123000   0.91444378   -3.2376756   -1.7500815  0.058219577   -3.2376756    1.4875941   404844 
 5124000   0.91425021   -3.2376735   -1.7503282  0.058431489   -3.2376735    1.4873453   404826 
 5125000   0.91394352   -3.2380616   -1.7512336  0.060065668   -3.2380616     1.486828   404831 
 5126000   0.91450273   -3.2383513   -1.7505879   0.05924357   -3.2383513    1.4877634   404824 
 5127000   0.91391288   -3.2377811   -1.7509001  0.054721026   -3.2377811     1.486881   404803 
 5128000   0.91456434   -3.2384054   -1.7504094  0.062957156   -3.2384054     1.487996   404788 
 5129000   0.91679966   -3.2411844   -1.7495331  0.059231025   -3.2411844    1.4916513   404783 
 5130000   0.91802245   -3.2417164    -1.748035  0.056548975   -3.2417164    1.4936814   404772 
 5131000   0.91488278   -3.2365579   -1.7480548  0.057450879   -3.2365579    1.4885031   404791 
 5132000   0.91564249   -3.2387397   -1.7489785  0.057300192   -3.2387397    1.4897612   404785 
 5133000   0.91463182   -3.2376009   -1.7495907  0.059741358   -3.2376009    1.4880102   404814 
 5134000   0.91368311   -3.2366115   -1.7500933    0.0601004   -3.2366115    1.4865182   404800 
 5135000   0.91310288   -3.2358793   -1.7504152  0.054919346   -3.2358793    1.4854641   404830 
 5136000   0.91522682   -3.2370575    -1.748105  0.058393849   -3.2370575    1.4889525   404821 
 5137000   0.91605279   -3.2365675   -1.7463486  0.057008441   -3.2365675    1.4902189   404842 
 5138000   0.91443414   -3.2349917   -1.7473068  0.054936585   -3.2349917    1.4876849   404815 
 5139000   0.91619511   -3.2375723   -1.7470593  0.053857891   -3.2375723     1.490513   404825 
 5140000   0.91528777   -3.2353819   -1.7464627  0.060088913   -3.2353819    1.4889192   404857 
 5141000   0.91529521   -3.2362115   -1.7472177  0.056251973   -3.2362115    1.4889939   404840 
 5142000   0.91478384   -3.2356959   -1.7474825  0.061597836   -3.2356959    1.4882134   404826 
 5143000   0.91562888    -3.236669    -1.747022  0.059486216    -3.236669    1.4896471   404810 
 5144000   0.91483841   -3.2357449   -1.7474206  0.053977463   -3.2357449    1.4883243   404820 
 5145000   0.91344411   -3.2337913   -1.7476913  0.055420219   -3.2337913       1.4861   404808 
 5146000   0.91459795   -3.2349098   -1.7468628  0.058247139   -3.2349098     1.488047   404789 
 5147000    0.9140016    -3.234868   -1.7478501  0.056207404    -3.234868     1.487018   404805 
 5148000   0.91598205   -3.2367904   -1.7463994  0.054579499   -3.2367904     1.490391   404764 
 5149000   0.91609035   -3.2366662    -1.746191  0.059266229   -3.2366662    1.4904752   404789 
 5150000   0.91426946   -3.2363191   -1.7488065  0.055070165   -3.2363191    1.4875126   404789 
 5151000   0.91527174   -3.2348158   -1.7456725  0.054565569   -3.2348158    1.4891433   404789 
 5152000   0.91412988   -3.2341217   -1.7467223  0.057959932   -3.2341217    1.4873994   404758 
 5153000   0.91382954   -3.2347563   -1.7477611  0.059263102   -3.2347563    1.4869952   404735 
 5154000   0.91603295   -3.2369067   -1.7462672  0.053604058   -3.2369067    1.4906395   404719 
 5155000   0.91615128   -3.2386783   -1.7478499  0.058228256   -3.2386783    1.4908284   404720 
 5156000   0.91485206   -3.2363995   -1.7476301  0.058454673   -3.2363995    1.4887694   404705 
 5157000   0.91608849   -3.2378067   -1.7469184   0.05732858   -3.2378067    1.4908883   404676 
 5158000   0.91512359   -3.2371297   -1.7477418  0.055284881   -3.2371297    1.4893879   404657 
 5159000   0.91510758   -3.2373095   -1.7477967  0.058442036   -3.2373095    1.4895128   404616 
 5160000   0.91637449   -3.2391111   -1.7474736  0.059879338   -3.2391111    1.4916376   404599 
 5161000   0.91568727   -3.2374901    -1.746949  0.055672409   -3.2374901    1.4905411   404593 
 5162000   0.91537753   -3.2374249   -1.7475574  0.056170831   -3.2374249    1.4898675   404639 
 5163000   0.91519284   -3.2371398   -1.7476171  0.056669773   -3.2371398    1.4895227   404651 
 5164000   0.91636778   -3.2386359   -1.7471677  0.057229917   -3.2386359    1.4914682   404642 
 5165000   0.91351692   -3.2345962   -1.7477644  0.061427245   -3.2345962    1.4868318   404641 
 5166000   0.91474044   -3.2373685   -1.7485232   0.05718709   -3.2373685    1.4888453   404635 
 5167000   0.91372121   -3.2352118   -1.7478784  0.052173405   -3.2352118    1.4873334   404595 
 5168000   0.91406198   -3.2361854   -1.7484186  0.057791876   -3.2361854    1.4877667   404628 
 5169000   0.91507056   -3.2365257   -1.7470401  0.059330084   -3.2365257    1.4894856   404607 
 5170000   0.91544531   -3.2376297   -1.7474384  0.057990848   -3.2376297    1.4901914   404581 
 5171000   0.91331613   -3.2366552    -1.749757  0.058662135   -3.2366552    1.4868982   404534 
 5172000   0.91431713   -3.2389916   -1.7503129  0.054760754   -3.2389916    1.4886787   404493 
 5173000   0.91298787   -3.2366897   -1.7501752  0.059631083   -3.2366897    1.4865144   404493 
 5174000   0.91343988    -3.236534   -1.7492284  0.064721812    -3.236534    1.4873055   404478 
 5175000   0.91419565    -3.237866   -1.7491716  0.061307423    -3.237866    1.4886944   404435 
 5176000   0.91456699   -3.2397331   -1.7503309  0.058495968   -3.2397331    1.4894022   404407 
 5177000   0.91449618   -3.2394561   -1.7501803  0.058825811   -3.2394561    1.4892758   404410 
 5178000   0.91410123   -3.2393151   -1.7506788  0.055094616   -3.2393151    1.4886363   404409 
 5179000   0.91328261   -3.2377916   -1.7503266  0.054050536   -3.2377916     1.487465   404365 
 5180000   0.91313797   -3.2386026   -1.7512886  0.054145559   -3.2386026     1.487314   404342 
 5181000   0.91202282   -3.2378854    -1.752373  0.055150608   -3.2378854    1.4855124   404338 
 5182000   0.91410811   -3.2408622   -1.7519717  0.048835491   -3.2408622    1.4888905   404343 
 5183000   0.91224963   -3.2384053   -1.7523838  0.059352513   -3.2384053    1.4860215   404300 
 5184000   0.91278027   -3.2395503   -1.7526754  0.055961126   -3.2395503    1.4868748   404303 
 5185000   0.91379727   -3.2395723   -1.7509893  0.056628357   -3.2395723     1.488583   404289 
 5186000   0.91496818   -3.2419365   -1.7515309  0.056034224   -3.2419365    1.4904057   404312 
 5187000    0.9150206   -3.2406199   -1.7500219  0.063577031   -3.2406199     1.490598   404283 
 5188000   0.91561779   -3.2417834   -1.7501425  0.061732765   -3.2417834    1.4916409   404264 
 5189000    0.9128618   -3.2374669   -1.7501576   0.05958738   -3.2374669    1.4873093   404221 
 5190000    0.9138449   -3.2376601   -1.7488043  0.058032931   -3.2376601    1.4888558   404236 
 5191000   0.91305899   -3.2373422   -1.7497079  0.057496046   -3.2373422    1.4876343   404220 
 5192000   0.91472891   -3.2401426   -1.7499056  0.061022353   -3.2401426    1.4902371   404252 
 5193000   0.91389386   -3.2381669   -1.7493418   0.05119525   -3.2381669    1.4888251   404266 
 5194000   0.91314641   -3.2381683    -1.750686  0.054255571   -3.2381683    1.4874823   404300 
 5195000   0.91314887    -3.238124   -1.7506266  0.058957682    -3.238124    1.4874973   404297 
 5196000   0.91101933   -3.2340312   -1.7498633  0.057460724   -3.2340312    1.4841679   404259 
 5197000   0.91288853   -3.2356627   -1.7485527  0.061517822   -3.2356627      1.48711   404287 
 5198000   0.91297565   -3.2355869    -1.748368  0.055669098   -3.2355869    1.4872189   404296 
 5199000   0.91274044   -3.2343748   -1.7473883  0.057063204   -3.2343748    1.4869865   404255 
 5200000   0.91367753   -3.2360733   -1.7475675  0.060490453   -3.2360733    1.4885058   404257 
 5201000   0.91257846     -3.23571   -1.7489028  0.056474026     -3.23571    1.4868072   404232 
 5202000   0.91360144   -3.2354296   -1.7469851   0.05386777   -3.2354296    1.4884444   404240 
 5203000   0.91325589   -3.2363854   -1.7484046  0.058368393   -3.2363854    1.4879808   404213 
 5204000   0.91159853   -3.2344994   -1.7491821  0.053460021   -3.2344994    1.4853172   404203 
 5205000   0.91252658   -3.2363751    -1.749498  0.052173492   -3.2363751    1.4868772   404190 
 5206000   0.91205909   -3.2354404   -1.7491669   0.06058278   -3.2354404    1.4862736   404147 
 5207000   0.91217965   -3.2354368   -1.7489778  0.054491084   -3.2354368     1.486459   404150 
 5208000    0.9109207   -3.2316184   -1.7470566  0.059562291   -3.2316184    1.4845617   404108 
 5209000   0.91289658   -3.2345243   -1.7465657  0.058765782   -3.2345243    1.4879586   404060 
 5210000   0.91386071   -3.2353618   -1.7457395  0.053471904   -3.2353618    1.4896222   404035 
 5211000   0.91203746   -3.2340724   -1.7473044  0.058693431   -3.2340724    1.4867681   404003 
 5212000   0.91194589   -3.2351508   -1.7484694  0.062016302   -3.2351508    1.4866813   403986 
 5213000   0.91255691   -3.2358707   -1.7482301  0.055393569   -3.2358707    1.4876406   403996 
 5214000   0.91261618   -3.2355415   -1.7477822  0.059166084   -3.2355415    1.4877593   403990 
 5215000    0.9130273   -3.2361332   -1.7477442  0.054628976   -3.2361332     1.488389   404001 
 5216000    0.9101193   -3.2314276   -1.7475661  0.055191157   -3.2314276    1.4838615   403943 
 5217000   0.91186969     -3.23554   -1.7488835  0.052891379     -3.23554    1.4866565   403959 
 5218000   0.90851358   -3.2327212     -1.75143  0.053849971   -3.2327212    1.4812912   403930 
 5219000   0.91147426   -3.2357387    -1.749771  0.050433349   -3.2357387    1.4859676   403971 
 5220000   0.91038668   -3.2337174   -1.7493649   0.05549418   -3.2337174    1.4843526   403928 
 5221000   0.91201126   -3.2369372   -1.7500095  0.052338884   -3.2369372    1.4869278   403948 
 5222000    0.9105822   -3.2342554   -1.7494628  0.055944104   -3.2342554    1.4847927   403895 
 5223000   0.91137112   -3.2353606   -1.7493036  0.054340369   -3.2353606     1.486057   403901 
 5224000   0.91315147   -3.2394471   -1.7506088  0.060143105   -3.2394471    1.4888383   403934 
 5225000   0.91191552   -3.2369766   -1.7501423  0.060125675   -3.2369766    1.4868343   403931 
 5226000   0.91278767   -3.2389897   -1.7506082  0.054906677   -3.2389897    1.4883815   403897 
 5227000   0.91194599   -3.2384372   -1.7513582  0.059090605   -3.2384372     1.487079   403878 
 5228000   0.91360912   -3.2417437   -1.7519158  0.058890545   -3.2417437    1.4898279   403868 
 5229000   0.91179157   -3.2393249   -1.7523651  0.053565938   -3.2393249    1.4869598   403842 
 5230000   0.91183893   -3.2391149   -1.7519711  0.060087758   -3.2391149    1.4871438   403813 
 5231000   0.91161153   -3.2384641   -1.7517206   0.06093366   -3.2384641    1.4867435   403821 
 5232000   0.91073574   -3.2380543   -1.7528421  0.056813245   -3.2380543    1.4852122   403849 
 5233000    0.9125866   -3.2418953   -1.7536132  0.058120923   -3.2418953    1.4882821   403835 
 5234000   0.91052436   -3.2380914   -1.7530879  0.054399231   -3.2380914    1.4850035   403812 
 5235000   0.91265319   -3.2401843    -1.751624  0.057980886   -3.2401843    1.4885603   403789 
 5236000   0.91337414   -3.2418488    -1.752061  0.056290646   -3.2418488    1.4897878   403775 
 5237000   0.91255626   -3.2412038   -1.7527095  0.058783696   -3.2412038    1.4884943   403764 
 5238000   0.91407992   -3.2437451   -1.7527877  0.056535964   -3.2437451    1.4909575   403770 
 5239000   0.91300318   -3.2420515   -1.7528319   0.05583429   -3.2420515    1.4892196   403765 
 5240000   0.91269791   -3.2422665   -1.7533715   0.05700485   -3.2422665     1.488895   403718 
 5241000   0.91101534    -3.240774   -1.7546311  0.057062509    -3.240774    1.4861429   403720 
 5242000   0.91157984   -3.2403621   -1.7532284  0.059268228   -3.2403621    1.4871337   403701 
 5243000   0.91262656   -3.2418749   -1.7529709  0.056802324   -3.2418749     1.488904   403684 
 5244000   0.91127626   -3.2398893   -1.7531514  0.055005353   -3.2398893    1.4867379   403674 
 5245000   0.91150802   -3.2395727   -1.7524272  0.054399721   -3.2395727    1.4871455   403666 
 5246000   0.91118567   -3.2387841    -1.751914  0.057814572   -3.2387841      1.48687   403598 
 5247000   0.91152106   -3.2398336   -1.7523499  0.060359916   -3.2398336    1.4874837   403580 
 5248000    0.9121437   -3.2391518   -1.7507074  0.055623929   -3.2391518    1.4884444   403595 
 5249000   0.91191389    -3.238805   -1.7506618  0.064342342    -3.238805    1.4881431   403575 
 5250000    0.9133257   -3.2410398   -1.7505004  0.059739623   -3.2410398    1.4905394   403550 
 5251000   0.91260369   -3.2391864   -1.7498659  0.055712971   -3.2391864    1.4893205   403561 
 5252000   0.91266765   -3.2390554   -1.7496712  0.057402121   -3.2390554    1.4893843   403572 
 5253000    0.9114676   -3.2367469   -1.7492731  0.058525053   -3.2367469    1.4874738   403559 
 5254000   0.91164883   -3.2375228   -1.7496647  0.049337885   -3.2375228    1.4878581   403535 
 5255000   0.91002766   -3.2355707   -1.7503511  0.058131235   -3.2355707    1.4852196   403533 
 5256000    0.9099217   -3.2344134   -1.7493557  0.054790499   -3.2344134    1.4850577   403530 
 5257000   0.91119748   -3.2357582   -1.7486294  0.054758653   -3.2357582    1.4871288   403533 
 5258000   0.90995932   -3.2329314   -1.7477571  0.065440935   -3.2329314    1.4851743   403515 
 5259000   0.91154529   -3.2368113   -1.7489821  0.055085561   -3.2368113    1.4878292   403497 
 5260000   0.91092969   -3.2359915   -1.7492371  0.058916575   -3.2359915    1.4867544   403516 
 5261000    0.9122316   -3.2374369   -1.7486573  0.050632991   -3.2374369    1.4887797   403543 
 5262000   0.91271874   -3.2372011   -1.7474714   0.05412977   -3.2372011    1.4897297   403501 
 5263000   0.91138592   -3.2352043   -1.7475873  0.057216115   -3.2352043     1.487617   403484 
 5264000   0.91152401   -3.2363815   -1.7486386  0.055283962   -3.2363815    1.4877428   403511 
 5265000   0.91144875   -3.2358087   -1.7482329   0.05504807   -3.2358087    1.4875758   403523 
 5266000   0.91098224   -3.2368631   -1.7499566  0.055111519   -3.2368631    1.4869065   403498 
 5267000    0.9111614   -3.2344637   -1.7471395  0.059145302   -3.2344637    1.4873242   403464 
 5268000   0.91232758   -3.2370947   -1.7479259  0.058728484   -3.2370947    1.4891688   403480 
 5269000   0.91077595    -3.234365   -1.7477252  0.063785664    -3.234365    1.4866398   403479 
 5270000   0.91202036   -3.2363378   -1.7475524  0.056808199   -3.2363378    1.4887854   403448 
 5271000   0.91148048   -3.2364392   -1.7485904  0.060856064   -3.2364392    1.4878488   403463 
 5272000   0.91318659   -3.2390486   -1.7485737  0.054341483   -3.2390486    1.4904749   403506 
 5273000   0.91258263    -3.237809   -1.7484122  0.057742246    -3.237809    1.4893968   403531 
 5274000   0.91253665   -3.2366878   -1.7473438  0.063036285   -3.2366878    1.4893439   403525 
 5275000   0.91271614   -3.2360358   -1.7464654  0.058152022   -3.2360358    1.4895704   403543 
 5276000   0.91254072   -3.2385815   -1.7491091  0.056097991   -3.2385815    1.4894724   403492 
 5277000   0.91303095   -3.2382369   -1.7480714  0.054960051   -3.2382369    1.4901654   403521 
 5278000   0.91358294   -3.2387665   -1.7478036  0.060711306   -3.2387665    1.4909629   403549 
 5279000   0.91269114   -3.2380956   -1.7484811  0.057895958   -3.2380956    1.4896145   403520 
 5280000   0.91261367   -3.2385762   -1.7489773  0.055410627   -3.2385762    1.4895988   403490 
 5281000   0.91114646   -3.2359683   -1.7487312  0.056205196   -3.2359683    1.4872372   403481 
 5282000   0.91316285   -3.2391808   -1.7486597  0.055768501   -3.2391808    1.4905211   403483 
 5283000   0.91231599   -3.2387335   -1.7495172  0.061389746   -3.2387335    1.4892163   403462 
 5284000    0.9114429   -3.2358955    -1.748156  0.059593238   -3.2358955    1.4877395   403476 
 5285000   0.91161458   -3.2356734   -1.7474287  0.058607594   -3.2356734    1.4882447   403415 
 5286000   0.91267514   -3.2370792   -1.7471104  0.061236233   -3.2370792    1.4899687   403417 
 5287000   0.91303384   -3.2384909   -1.7479107   0.06278441   -3.2384909    1.4905802   403410 
 5288000   0.91360677   -3.2401478   -1.7484918  0.060093034   -3.2401478     1.491656   403372 
 5289000   0.91038099    -3.236181    -1.749707  0.060226881    -3.236181     1.486474   403349 
 5290000   0.91155906   -3.2386779   -1.7502803  0.055640323   -3.2386779    1.4883976   403349 
 5291000   0.91229294   -3.2406328   -1.7509483  0.050734787   -3.2406328    1.4896845   403325 
 5292000   0.91161163   -3.2378727   -1.7492342  0.059415492   -3.2378727    1.4886384   403307 
 5293000   0.91204463   -3.2383373   -1.7490066  0.061860913   -3.2383373    1.4893307   403311 
 5294000   0.91119347   -3.2377974   -1.7497459  0.057371178   -3.2377974    1.4880515   403281 
 5295000   0.91149615   -3.2376516   -1.7489249  0.057256626   -3.2376516    1.4887267   403232 
 5296000   0.91098956   -3.2382196   -1.7501727  0.054799847   -3.2382196    1.4880469   403192 
 5297000   0.91128728   -3.2381764   -1.7496616  0.056065261   -3.2381764    1.4885148   403197 
 5298000   0.91190891   -3.2378516   -1.7482735  0.060830043   -3.2378516    1.4895782   403184 
 5299000   0.91118136   -3.2363273    -1.747945  0.057520347   -3.2363273    1.4883824   403186 
 5300000   0.91058747   -3.2357905    -1.748345  0.061965677   -3.2357905    1.4874455   403177 
 5301000   0.91262763   -3.2391626   -1.7484178  0.060442083   -3.2391626    1.4907448   403186 
 5302000   0.91086336   -3.2365623   -1.7486846  0.056924474   -3.2365623    1.4878777   403182 
 5303000    0.9102959   -3.2365504   -1.7495259  0.057953602   -3.2365504    1.4870245   403162 
 5304000   0.90898339   -3.2353754   -1.7503808  0.058880505   -3.2353754    1.4849946   403131 
 5305000   0.90996826   -3.2368032   -1.7501627  0.061240859   -3.2368032    1.4866405   403121 
 5306000   0.91192009   -3.2379293   -1.7481777  0.049943982   -3.2379293    1.4897516   403142 
 5307000   0.91011063   -3.2358458   -1.7489432  0.053059199   -3.2358458    1.4869026   403113 
 5308000   0.91117707   -3.2387565   -1.7499713  0.053242701   -3.2387565    1.4887852   403075 
 5309000   0.91001335   -3.2381413   -1.7510841  0.060417684   -3.2381413    1.4870572   403028 
 5310000   0.91108019   -3.2395031   -1.7506398  0.061598753   -3.2395031    1.4888633   403011 
 5311000   0.90950421   -3.2380221   -1.7516678  0.055621588   -3.2380221    1.4863543   402993 
 5312000   0.91101852   -3.2397339   -1.7509196  0.058057648   -3.2397339    1.4888143   402997 
 5313000   0.91062318    -3.240937   -1.7526211  0.053205676    -3.240937    1.4883159   402957 
 5314000   0.91072629   -3.2399904   -1.7515835  0.058113933   -3.2399904    1.4884069   402978 
 5315000   0.90991122    -3.239166   -1.7520838  0.057630604    -3.239166    1.4870822   402976 
 5316000   0.90842624   -3.2352393   -1.7506762  0.055241578   -3.2352393    1.4845632   403001 
 5317000   0.90985555   -3.2379966   -1.7509057  0.054513972   -3.2379966    1.4870908   402949 
 5318000   0.91002346   -3.2399356   -1.7526847  0.054774795   -3.2399356    1.4872509   402980 
 5319000   0.90827567   -3.2382066   -1.7538305  0.054057103   -3.2382066     1.484376   402985 
 5320000   0.90935627   -3.2387582   -1.7526826  0.057016773   -3.2387582    1.4860757   403003 
 5321000   0.90883503   -3.2359574   -1.7505972  0.059783014   -3.2359574    1.4853602   402966 
 5322000   0.91074352   -3.2394778   -1.7511314  0.057428137   -3.2394778    1.4883464   403002 
 5323000   0.91023307   -3.2389146   -1.7512584  0.060005503   -3.2389146    1.4876562   402963 
 5324000   0.91093493   -3.2401481   -1.7512192  0.059172543   -3.2401481    1.4889289   402929 
 5325000   0.91040043    -3.240023   -1.7519826  0.059266032    -3.240023    1.4880405   402933 
 5326000   0.91069554   -3.2390687   -1.7506419  0.062215471   -3.2390687    1.4884268   402959 
 5327000   0.91043137   -3.2393774   -1.7511645  0.061721066   -3.2393774    1.4882129   402900 
 5328000   0.91110121   -3.2392933   -1.7500445   0.06313823   -3.2392933    1.4892487   402916 
 5329000   0.91264446   -3.2418694   -1.7500722  0.060103285   -3.2418694    1.4917972   402909 
 5330000   0.91149952   -3.2399658   -1.7499957  0.058536183   -3.2399658    1.4899701   402897 
 5331000   0.90864329   -3.2359265   -1.7505185  0.060410867   -3.2359265    1.4854081   402868 
 5332000     0.909906   -3.2391749   -1.7516952  0.056826509   -3.2391749    1.4874797   402866 
 5333000    0.9100129   -3.2376252   -1.7498895   0.05891253   -3.2376252    1.4877357   402844 
 5334000   0.91034259   -3.2378063   -1.7495057  0.055414123   -3.2378063    1.4883005   402837 
 5335000   0.91027537   -3.2382044   -1.7499879  0.054561356   -3.2382044    1.4882165   402830 
 5336000   0.91077725   -3.2398911    -1.750599  0.055574887   -3.2398911    1.4892921   402761 
 5337000   0.90978075   -3.2381695   -1.7505881  0.055469632   -3.2381695    1.4875814   402783 
 5338000   0.90847669   -3.2351779   -1.7497288  0.057572199   -3.2351779    1.4854492   402783 
 5339000   0.90907903   -3.2348631   -1.7483921  0.057235877   -3.2348631    1.4864709   402773 
 5340000   0.90915919   -3.2344204   -1.7479512  0.050564943   -3.2344204    1.4864692   402809 
 5341000    0.9084518   -3.2329105   -1.7475094   0.05289489   -3.2329105    1.4854011   402785 
 5342000    0.9091858   -3.2352798   -1.7486453  0.057124883   -3.2352798    1.4866345   402776 
 5343000   0.90909118   -3.2356301   -1.7490175   0.05247956   -3.2356301    1.4866126   402740 
 5344000   0.90959053   -3.2354566   -1.7480606  0.057045647   -3.2354566    1.4873959   402749 
 5345000   0.90784831   -3.2328269   -1.7481804  0.056588433   -3.2328269    1.4846465   402722 
 5346000   0.90920837   -3.2336435   -1.7466399  0.057123993   -3.2336435    1.4870036   402686 
 5347000    0.9082111   -3.2324068   -1.7469678  0.056278688   -3.2324068     1.485439   402668 
 5348000   0.90888566    -3.232987   -1.7464632  0.055766784    -3.232987    1.4865238   402673 
 5349000   0.90989564   -3.2346671   -1.7464766  0.051712935   -3.2346671    1.4881905   402669 
 5350000   0.90987682   -3.2344596    -1.746189   0.05679941   -3.2344596    1.4882706   402639 
 5351000   0.91018862   -3.2352559   -1.7464938  0.053627561   -3.2352559    1.4887621   402644 
 5352000   0.90891304   -3.2348358   -1.7481379   0.05547422   -3.2348358    1.4866978   402638 
 5353000   0.90931185   -3.2344694   -1.7471451   0.05610211   -3.2344694    1.4873243   402645 
 5354000   0.90935596    -3.235161   -1.7477166   0.05143871    -3.235161    1.4874445   402632 
 5355000   0.90819987   -3.2345846   -1.7489168  0.055512232   -3.2345846    1.4856678   402601 
 5356000   0.90669065   -3.2328805   -1.7496557  0.059749968   -3.2328805    1.4832248   402594 
 5357000    0.9074658   -3.2334874   -1.7490057  0.057565393   -3.2334874    1.4844818   402597 
 5358000   0.90901065    -3.234742   -1.7476814  0.053076515    -3.234742    1.4870606   402583 
 5359000   0.90756789   -3.2328498   -1.7482047  0.056857389   -3.2328498    1.4846451   402598 
 5360000   0.91012804      -3.2377   -1.7488595  0.055050692      -3.2377    1.4888405   402596 
 5361000   0.90998916   -3.2361006   -1.7474835  0.055931665   -3.2361006     1.488617   402595 
 5362000   0.91039132   -3.2372993   -1.7477728  0.060586797   -3.2372993    1.4895265   402527 
 5363000   0.91060109   -3.2369893   -1.7472751  0.061866818   -3.2369893    1.4897142   402569 
 5364000   0.91032209   -3.2366049   -1.7474137  0.059967692   -3.2366049    1.4891912   402587 
 5365000   0.90988503   -3.2359449    -1.747476  0.057174942   -3.2359449    1.4884688   402589 
 5366000   0.91002213   -3.2363639   -1.7476449  0.060065822   -3.2363639     1.488719   402582 
 5367000   0.90892303   -3.2350016   -1.7479957  0.057181002   -3.2350016    1.4870059   402559 
 5368000   0.91026116     -3.23793   -1.7487867  0.050897449     -3.23793    1.4891433   402573 
 5369000     0.909068   -3.2362888   -1.7489016  0.058330586   -3.2362888    1.4873872   402520 
 5370000    0.9097318   -3.2378813   -1.7494894  0.057083462   -3.2378813    1.4883919   402542 
 5371000   0.90905665   -3.2374275   -1.7501476  0.060443589   -3.2374275    1.4872799   402544 
 5372000   0.90951954     -3.23765   -1.7496756  0.059794466     -3.23765    1.4879744   402561 
 5373000   0.90912303   -3.2358818   -1.7483417  0.061066599   -3.2358818    1.4875401   402503 
 5374000   0.90729716   -3.2345556   -1.7500326  0.056600474   -3.2345556     1.484523   402511 
 5375000   0.90820464   -3.2358989   -1.7497176  0.054741987   -3.2358989    1.4861814   402464 
 5376000   0.90843384   -3.2357549   -1.7490914  0.052683248   -3.2357549    1.4866635   402435 
 5377000   0.91049788   -3.2367232   -1.7466929  0.056069443   -3.2367232    1.4900303   402438 
 5378000   0.91081983   -3.2357141   -1.7452533  0.056789431   -3.2357141    1.4904608   402464 
 5379000   0.90952364   -3.2361349   -1.7477988  0.064328221   -3.2361349    1.4883361   402465 
 5380000   0.91087358   -3.2385587   -1.7479914  0.056806375   -3.2385587    1.4905673   402459 
 5381000   0.91110847   -3.2392591   -1.7482741  0.058066077   -3.2392591     1.490985   402450 
 5382000   0.90983144   -3.2368387   -1.7479879   0.05763729   -3.2368387    1.4888508   402462 
 5383000   0.90903124   -3.2350388   -1.7474678  0.054471151   -3.2350388     1.487571   402454 
 5384000    0.9091169   -3.2345782   -1.7468117  0.058366296   -3.2345782    1.4877666   402439 
 5385000   0.90909383   -3.2352012   -1.7473245  0.058874467   -3.2352012    1.4878767   402399 
 5386000   0.90767615   -3.2352203   -1.7496195  0.059953759   -3.2352203    1.4856008   402387 
 5387000   0.90884709   -3.2360698   -1.7484749  0.052635966   -3.2360698    1.4875949   402366 
 5388000   0.90843464   -3.2354498    -1.748482  0.056903191   -3.2354498    1.4869678   402353 
 5389000   0.90983916    -3.238074    -1.748922  0.059274782    -3.238074    1.4891521   402384 
 5390000   0.90866679   -3.2363764   -1.7487882  0.059690281   -3.2363764    1.4875881   402288 
 5391000    0.9084134   -3.2368977   -1.7497466  0.055970942   -3.2368977    1.4871511   402294 
 5392000   0.90837735   -3.2364558   -1.7493674  0.054512822   -3.2364558    1.4870884   402295 
 5393000   0.90875759   -3.2370271   -1.7493125  0.058531261   -3.2370271    1.4877146   402294 
 5394000   0.90739148   -3.2340327   -1.7485656  0.056504676   -3.2340327    1.4854671   402297 
 5395000   0.90836119   -3.2337119   -1.7466278  0.052777362   -3.2337119    1.4870842   402289 
 5396000   0.90853606    -3.234967   -1.7475005  0.055350963    -3.234967    1.4874666   402263 
 5397000   0.90865136   -3.2335681   -1.7458536  0.059006224   -3.2335681    1.4877145   402247 
 5398000   0.90962956   -3.2357346    -1.746363  0.052809995   -3.2357346    1.4893716   402232 
 5399000   0.90910358   -3.2344349   -1.7459615  0.057585651   -3.2344349    1.4884734   402242 
 5400000   0.90701783   -3.2322733   -1.7470561  0.056099581   -3.2322733    1.4852172   402199 
 5401000   0.90974635   -3.2366639    -1.746864  0.056817652   -3.2366639    1.4897999   402168 
 5402000   0.90839453   -3.2358806   -1.7481908  0.057829432   -3.2358806    1.4876897   402140 
 5403000   0.90766878   -3.2343625   -1.7479463  0.053589383   -3.2343625    1.4864162   402163 
 5404000    0.9074792   -3.2344764   -1.7482598  0.053199481   -3.2344764    1.4862166   402133 
 5405000   0.90739557   -3.2344462   -1.7483776  0.059089645   -3.2344462    1.4860685   402136 
 5406000   0.90780797   -3.2339163   -1.7470614  0.052656612   -3.2339163    1.4868548   402106 
 5407000   0.90679193   -3.2334794   -1.7481372  0.059969394   -3.2334794    1.4853422   402065 
 5408000   0.90684289    -3.234619   -1.7491232  0.053030101    -3.234619    1.4854958   402046 
 5409000   0.90697775   -3.2341032   -1.7483606  0.058055424   -3.2341032    1.4857426   402039 
 5410000   0.90784941   -3.2336292   -1.7463884  0.064822622   -3.2336292    1.4872408   402020 
 5411000   0.90957526   -3.2355358   -1.7454751  0.062360445   -3.2355358    1.4900607   402022 
 5412000   0.90852937   -3.2338076    -1.745438  0.061923024   -3.2338076    1.4883695   402016 
 5413000   0.90878783   -3.2354788   -1.7464341   0.05579633   -3.2354788    1.4890448   401948 
 5414000    0.9091995   -3.2374185   -1.7476881  0.055686385   -3.2374185    1.4897304   401945 
 5415000   0.90892742    -3.238001   -1.7487127  0.056884357    -3.238001    1.4892883   401944 
 5416000   0.90749989   -3.2354501    -1.748412  0.058321775   -3.2354501    1.4870381   401920 
 5417000   0.90837037   -3.2360716    -1.747696  0.053460637   -3.2360716    1.4883756   401944 
 5418000   0.90864579   -3.2361913    -1.747294  0.059823293   -3.2361913    1.4888973   401925 
 5419000   0.90844119   -3.2365686    -1.748014  0.054802868   -3.2365686    1.4885546   401927 
 5420000   0.90719213   -3.2343334   -1.7477737  0.054478352   -3.2343334    1.4865597   401913 
 5421000   0.90670759   -3.2345793   -1.7487101  0.061054834   -3.2345793    1.4858692   401885 
 5422000    0.9090684   -3.2384838   -1.7486531  0.054763061   -3.2384838    1.4898307   401860 
 5423000   0.90969058   -3.2393584   -1.7486268  0.055577707   -3.2393584    1.4907316   401892 
 5424000   0.90757189   -3.2349293   -1.7476104  0.057173279   -3.2349293    1.4873189   401876 
 5425000   0.90771114   -3.2356294   -1.7481008  0.056711303   -3.2356294    1.4875286   401881 
 5426000   0.90977421   -3.2380056   -1.7469551  0.062640844   -3.2380056    1.4910505   401843 
 5427000   0.90948879   -3.2373167   -1.7466784  0.055856667   -3.2373167    1.4906383   401828 
 5428000   0.90976489   -3.2371534   -1.7460514  0.061428529   -3.2371534     1.491102   401825 
 5429000   0.90878678   -3.2357863   -1.7462541  0.058040493   -3.2357863    1.4895322   401816 
 5430000   0.90866286   -3.2347441   -1.7454594  0.058962886   -3.2347441    1.4892847   401828 
 5431000   0.90902241   -3.2357681   -1.7458274  0.057403358   -3.2357681    1.4899407   401810 
 5432000   0.90837376   -3.2341613   -1.7452393  0.056656182   -3.2341613     1.488922   401798 
 5433000   0.90603095    -3.230965   -1.7458462  0.061428751    -3.230965    1.4851188   401788 
 5434000   0.90770884   -3.2339875   -1.7460665  0.058740043   -3.2339875     1.487921   401774 
 5435000   0.90857234   -3.2343512   -1.7450926  0.056856733   -3.2343512    1.4892586   401795 
 5436000   0.90770935   -3.2340677   -1.7464421   0.06211694   -3.2340677    1.4876256   401854 
 5437000   0.90760712   -3.2333911   -1.7459219  0.058293832   -3.2333911    1.4874692   401851 
 5438000   0.90870201   -3.2355563   -1.7462001  0.054617191   -3.2355563    1.4893562   401826 
 5439000   0.90666179   -3.2311151   -1.7451213  0.061017105   -3.2311151    1.4859938   401831 
 5440000   0.90786549   -3.2334209   -1.7454394  0.061755217   -3.2334209    1.4879815   401827 
 5441000   0.90813109   -3.2332292   -1.7449273  0.060716509   -3.2332292     1.488302   401858 
 5442000   0.90909865   -3.2331619   -1.7432408  0.054870687   -3.2331619     1.489921   401849 
 5443000   0.90727247   -3.2310653   -1.7441631  0.056169932   -3.2310653    1.4869022   401856 
 5444000    0.9079089   -3.2326575   -1.7445678   0.05477845   -3.2326575    1.4880897   401817 
 5445000   0.90742605   -3.2323041   -1.7449688  0.054595071   -3.2323041    1.4873353   401807 
 5446000   0.90603597   -3.2291767   -1.7441458  0.057782494   -3.2291767     1.485031   401814 
 5447000   0.90584119   -3.2293152   -1.7446404  0.059673289   -3.2293152    1.4846748   401824 
 5448000   0.90726627   -3.2311528     -1.74422  0.055449526   -3.2311528    1.4869327   401845 
 5449000   0.90763903     -3.23286   -1.7453608  0.052964561     -3.23286    1.4874993   401857 
 5450000    0.9073618   -3.2317327   -1.7445323  0.062100402   -3.2317327    1.4872004   401815 
 5451000   0.90856958   -3.2335603   -1.7442247  0.054115304   -3.2335603    1.4893356   401773 
 5452000   0.90825522   -3.2331231    -1.744162  0.050182369   -3.2331231    1.4889611   401735 
 5453000    0.9080445   -3.2324778   -1.7437101  0.049136929   -3.2324778    1.4887676   401694 
 5454000   0.90877425   -3.2326688   -1.7428197  0.058476842   -3.2326688    1.4898491   401725 
 5455000   0.91004334   -3.2348118   -1.7429415  0.059965502   -3.2348118    1.4918702   401741 
 5456000   0.90920684    -3.234432    -1.743844   0.05696597    -3.234432     1.490588   401717 
 5457000   0.90727984    -3.232086   -1.7445276  0.061027959    -3.232086    1.4875584   401682 
 5458000   0.90795918   -3.2326169   -1.7439224  0.061470401   -3.2326169    1.4886945   401676 
 5459000    0.9077575   -3.2327201   -1.7442526  0.057219852   -3.2327201    1.4884676   401648 
 5460000   0.90708559   -3.2336492   -1.7461279  0.054445151   -3.2336492    1.4875214   401606 
 5461000   0.90624324    -3.232839   -1.7466879  0.056128137    -3.232839    1.4861511   401603 
 5462000    0.9070888   -3.2335053   -1.7460564  0.053377986   -3.2335053    1.4874488   401627 
 5463000   0.90820517   -3.2357348    -1.746574  0.047802739   -3.2357348    1.4891608   401659 
 5464000   0.90686363   -3.2324388   -1.7455702  0.055389624   -3.2324388    1.4868686   401684 
 5465000   0.90672415   -3.2324916   -1.7457037  0.059809099   -3.2324916     1.486788   401644 
 5466000   0.90821123   -3.2343745   -1.7450888  0.057961613   -3.2343745    1.4892857   401628 
 5467000   0.91018152   -3.2378103   -1.7451934  0.057499942   -3.2378103    1.4926169   401601 
 5468000   0.90834878   -3.2371051   -1.7473156  0.058075112   -3.2371051    1.4897895   401553 
 5469000   0.90866692   -3.2360706   -1.7456517  0.055508502   -3.2360706    1.4904189   401524 
 5470000   0.90764477    -3.234781   -1.7459386  0.054208711    -3.234781    1.4888424   401497 
 5471000   0.90655047   -3.2312038   -1.7443342  0.056626606   -3.2312038    1.4868697   401545 
 5472000   0.90794221   -3.2334597    -1.744415   0.05571802   -3.2334597    1.4890448   401574 
 5473000   0.90820678   -3.2345675    -1.745163  0.056177813   -3.2345675    1.4894045   401594 
 5474000      0.90677    -3.232661   -1.7455757  0.058646755    -3.232661    1.4870853   401584 
 5475000   0.90783885   -3.2331802   -1.7442419  0.054498552   -3.2331802    1.4889383   401557 
 5476000   0.90800249   -3.2344996   -1.7452336  0.056810303   -3.2344996     1.489266   401541 
 5477000   0.90659853   -3.2327618   -1.7457838  0.053295481   -3.2327618    1.4869781   401537 
 5478000   0.90718921   -3.2330315   -1.7449511  0.053371468   -3.2330315    1.4880803   401501 
 5479000   0.90614038   -3.2315182   -1.7451064   0.05490314   -3.2315182    1.4864118   401487 
 5480000    0.9073891   -3.2335592   -1.7450657  0.054253994   -3.2335592    1.4884935   401478 
 5481000   0.90816639   -3.2333793   -1.7436404  0.054071828   -3.2333793    1.4897389   401486 
 5482000    0.9080042   -3.2330943   -1.7434879   0.05636243   -3.2330943    1.4896064   401450 
 5483000   0.90694561   -3.2320258   -1.7440559  0.062658567   -3.2320258    1.4879698   401423 
 5484000   0.90775012   -3.2338954   -1.7446687  0.053588203   -3.2338954    1.4892267   401440 
 5485000   0.90721696   -3.2340599   -1.7454631  0.054834324   -3.2340599    1.4885967   401374 
 5486000   0.90864813   -3.2356206   -1.7446607   0.05899677   -3.2356206    1.4909599   401370 
 5487000   0.90742872   -3.2337233   -1.7445973  0.053822898   -3.2337233     1.489126   401325 
 5488000   0.90723758   -3.2326949   -1.7439122  0.053721906   -3.2326949    1.4887826   401333 
 5489000   0.90758928    -3.232231   -1.7429491  0.062815981    -3.232231    1.4892818   401354 
 5490000   0.90783616   -3.2323274    -1.742659  0.059981828   -3.2323274    1.4896684   401359 
 5491000   0.90686598   -3.2322861   -1.7440836  0.060589566   -3.2322861    1.4882025   401325 
 5492000   0.90768794   -3.2342352    -1.744643  0.054913465   -3.2342352    1.4895922   401314 
 5493000   0.90618216   -3.2329314   -1.7457362  0.062656656   -3.2329314    1.4871952   401294 
 5494000    0.9066117   -3.2342707   -1.7462927  0.052507117   -3.2342707     1.487978   401273 
 5495000    0.9064265   -3.2344923   -1.7467552  0.054249537   -3.2344923    1.4877371   401256 
 5496000   0.90601854    -3.234825   -1.7476056  0.051526652    -3.234825    1.4872194   401215 
 5497000   0.90455099   -3.2334641     -1.74855  0.050701716   -3.2334641    1.4849141   401187 
 5498000   0.90473421   -3.2320063   -1.7468618  0.053954066   -3.2320063    1.4851446   401206 
 5499000   0.90493617   -3.2338771   -1.7485232  0.054608464   -3.2338771    1.4853539   401239 
 5500000   0.90609091   -3.2348808   -1.7476501  0.056443988   -3.2348808    1.4872307   401244 
 5501000   0.90545796   -3.2340781   -1.7479862  0.054984053   -3.2340781    1.4860918   401271 
 5502000   0.90575687   -3.2333104   -1.7468428  0.062643393   -3.2333104    1.4864676   401302 
 5503000   0.90677996   -3.2361536   -1.7480033  0.055691739   -3.2361536    1.4881503   401301 
 5504000   0.90745124   -3.2345528   -1.7451858   0.05854842   -3.2345528     1.489367   401270 
 5505000   0.90743429   -3.2351116   -1.7458244  0.058400398   -3.2351116    1.4892873   401284 
 5506000   0.90826342   -3.2351365   -1.7446481   0.05589968   -3.2351365    1.4904883   401327 
 5507000    0.9083656   -3.2368136   -1.7460275  0.056783151   -3.2368136     1.490786   401292 
 5508000   0.90800441   -3.2378694   -1.7476093  0.051018933   -3.2378694    1.4902601   401274 
 5509000   0.90685279   -3.2359433   -1.7475659  0.059621762   -3.2359433    1.4883774   401272 
 5510000   0.90648311   -3.2343355   -1.7465203  0.062071097   -3.2343355    1.4878152   401260 
 5511000   0.90708981   -3.2334048   -1.7445308   0.06275563   -3.2334048     1.488874   401243 
 5512000   0.90691358   -3.2343486   -1.7457231  0.060220514   -3.2343486    1.4886256   401232 
 5513000   0.90603921    -3.234095   -1.7470677  0.051254627    -3.234095    1.4870273   401276 
 5514000   0.90603522   -3.2328085   -1.7458544  0.053832218   -3.2328085     1.486954   401294 
 5515000   0.90792994   -3.2361146   -1.7459953  0.053944393   -3.2361146    1.4901193   401279 
 5516000   0.90719376   -3.2354517    -1.746459  0.059988578   -3.2354517    1.4889927   401257 
 5517000   0.90620687   -3.2332676   -1.7458503  0.061421493   -3.2332676    1.4874174   401245 
 5518000   0.90759077   -3.2353927   -1.7456889   0.05680581   -3.2353927    1.4897037   401241 
 5519000   0.90634128   -3.2333369   -1.7455655   0.05629196   -3.2333369    1.4877715   401209 
 5520000   0.90701642   -3.2325047   -1.7435842  0.057128812   -3.2325047    1.4889205   401198 
 5521000   0.90691787   -3.2322638   -1.7434345  0.062383373   -3.2322638    1.4888293   401179 
 5522000   0.90731557   -3.2336425   -1.7440601  0.049712693   -3.2336425    1.4895824   401152 
 5523000   0.90521481   -3.2304877   -1.7443838  0.057867559   -3.2304877    1.4861039   401160 
 5524000   0.90614871    -3.232538   -1.7449528  0.057182686    -3.232538    1.4875851   401174 
 5525000   0.90635402    -3.232446   -1.7444608  0.059401226    -3.232446    1.4879852   401157 
 5526000   0.90686971   -3.2335391    -1.744774  0.059151586   -3.2335391    1.4887651   401175 
 5527000   0.90792146   -3.2339498   -1.7432946  0.058597471   -3.2339498    1.4906552   401131 
 5528000   0.90767934   -3.2335026   -1.7432784   0.05534388   -3.2335026    1.4902242   401140 
 5529000   0.90676027   -3.2320776   -1.7433252  0.062469715   -3.2320776    1.4887524   401130 
 5530000   0.90711027   -3.2330167   -1.7437194  0.054185717   -3.2330167    1.4892973   401138 
 5531000   0.90691828   -3.2335585   -1.7445169  0.056493835   -3.2335585    1.4890415   401122 
 5532000   0.90593351     -3.23296   -1.7453944  0.056475198     -3.23296    1.4875656   401084 
 5533000   0.90737439   -3.2330026   -1.7430897  0.054329886   -3.2330026     1.489913   401089 
 5534000   0.90629177    -3.230991   -1.7428594  0.051899279    -3.230991    1.4881316   401090 
 5535000   0.90559447   -3.2319428   -1.7449154  0.053312913   -3.2319428    1.4870274   401079 
 5536000   0.90409383   -3.2298405   -1.7452365  0.053737105   -3.2298405     1.484604   401068 
 5537000   0.90614359   -3.2330461   -1.7450169  0.052245005   -3.2330461    1.4880292   401052 
 5538000   0.90443571   -3.2322441    -1.746901  0.055900645   -3.2322441    1.4853432   401020 
 5539000   0.90364555   -3.2303809   -1.7464501  0.057236258   -3.2303809    1.4839308   401051 
 5540000   0.90587673   -3.2341836   -1.7465704  0.052065838   -3.2341836    1.4876133   401046 
 5541000   0.90416579    -3.231967   -1.7470746  0.056440996    -3.231967    1.4848925   401022 
 5542000   0.90397912   -3.2309541   -1.7463016  0.052194759   -3.2309541    1.4846525   401004 
 5543000   0.90437767   -3.2326632    -1.747308  0.052626932   -3.2326632    1.4853553   400991 
 5544000   0.90469772   -3.2322912    -1.746566  0.059637356   -3.2322912    1.4857253   401033 
 5545000   0.90458702   -3.2341454   -1.7485463  0.057834529   -3.2341454    1.4855991   401018 
 5546000    0.9057317   -3.2358567   -1.7483666   0.06466726   -3.2358567    1.4874901   401015 
 5547000   0.90670614   -3.2358021   -1.7466374  0.059711204   -3.2358021    1.4891647   400995 
 5548000    0.9067813   -3.2379392   -1.7485916  0.056674261   -3.2379392    1.4893476   400979 
 5549000   0.90553202   -3.2379256   -1.7504592  0.054448588   -3.2379256    1.4874663   400933 
 5550000   0.90642361   -3.2388005    -1.749736  0.057626618   -3.2388005    1.4890646   400897 
 5551000   0.90653387   -3.2375515   -1.7483207  0.060018884   -3.2375515    1.4892309   400901 
 5552000   0.90635768   -3.2376695   -1.7488321  0.056977491   -3.2376695    1.4888374   400929 
 5553000   0.90872537   -3.2411378   -1.7484595  0.055543699   -3.2411378    1.4926783   400942 
 5554000   0.90667657   -3.2402652   -1.7508371  0.060232684   -3.2402652    1.4894281   400911 
 5555000   0.90618311   -3.2394533   -1.7509064  0.059635832   -3.2394533     1.488547   400930 
 5556000   0.90629789   -3.2403942    -1.751577  0.058869901   -3.2403942    1.4888172   400908 
 5557000   0.90658304    -3.241379   -1.7519782  0.060362861    -3.241379    1.4894008   400877 
 5558000   0.90685364    -3.241302   -1.7514752  0.062432733    -3.241302    1.4898268   400882 
 5559000   0.90510985   -3.2385308    -1.751643  0.061699569   -3.2385308    1.4868878   400902 
 5560000   0.90591976    -3.239534   -1.7513417  0.063577064    -3.239534    1.4881923   400909 
 5561000   0.90723847   -3.2407128    -1.750317  0.057630958   -3.2407128    1.4903958   400899 
 5562000    0.9066297   -3.2399482   -1.7504744  0.061751078   -3.2399482    1.4894737   400878 
 5563000   0.90718368   -3.2407565   -1.7503317  0.058967542   -3.2407565    1.4904248   400867 
 5564000   0.90555633   -3.2393589   -1.7516597   0.05977798   -3.2393589    1.4876992   400881 
 5565000     0.907742   -3.2435318   -1.7523051  0.059483886   -3.2435318    1.4912267   400898 
 5566000   0.90628525   -3.2406239   -1.7518497  0.060035875   -3.2406239    1.4887742   400914 
 5567000   0.90496248    -3.237974   -1.7513468  0.057632718    -3.237974    1.4866272   400907 
 5568000   0.90553446   -3.2400898   -1.7525342  0.055358777   -3.2400898    1.4875557   400910 
 5569000   0.90412539    -3.238223   -1.7529783   0.05454119    -3.238223    1.4852446   400909 
 5570000   0.90502382   -3.2395393   -1.7529078  0.057002111   -3.2395393    1.4866315   400933 
 5571000   0.90415098   -3.2366197   -1.7515738   0.05612319   -3.2366197    1.4850459   400974 
 5572000   0.90536995    -3.238606   -1.7515135  0.053684631    -3.238606    1.4870925   400962 
 5573000   0.90517311   -3.2382607   -1.7514247  0.057905377   -3.2382607     1.486836   400944 
 5574000   0.90479468   -3.2366899   -1.7504756  0.057152803   -3.2366899    1.4862143   400944 
 5575000   0.90465689   -3.2359497   -1.7498282   0.05372397   -3.2359497    1.4861215   400908 
 5576000   0.90591929   -3.2368547   -1.7486112  0.054529176   -3.2368547    1.4882435   400895 
 5577000   0.90562581   -3.2372539   -1.7494999  0.057151797   -3.2372539     1.487754   400897 
 5578000   0.90602382   -3.2373131   -1.7488571   0.06164833   -3.2373131    1.4884561   400884 
 5579000    0.9069979   -3.2394653   -1.7492491  0.056436246   -3.2394653    1.4902162   400841 
 5580000   0.90558998   -3.2370599   -1.7492684   0.05927123   -3.2370599    1.4877916   400871 
 5581000   0.90527305   -3.2370229   -1.7497742  0.050820154   -3.2370229    1.4872486   400877 
 5582000   0.90398433   -3.2356478   -1.7504942  0.055260712   -3.2356478    1.4851537   400871 
 5583000   0.90497309   -3.2367107   -1.7499586  0.058190489   -3.2367107    1.4867522   400878 
 5584000    0.9063661   -3.2389501   -1.7498091  0.063156021   -3.2389501     1.489141   400851 
 5585000   0.90797955   -3.2397416   -1.7480428  0.058461745   -3.2397416    1.4916988   400876 
 5586000   0.90637184   -3.2376857    -1.748487  0.060242928   -3.2376857    1.4891987   400838 
 5587000   0.90782273    -3.238891   -1.7473791   0.05492387    -3.238891    1.4915119   400857 
 5588000   0.90750956   -3.2382254   -1.7472429  0.058126858   -3.2382254    1.4909825   400861 
 5589000    0.9080696    -3.239464   -1.7475242  0.059970884    -3.239464    1.4919398   400851 
 5590000   0.90746544   -3.2398483   -1.7487114  0.059244868   -3.2398483    1.4911369   400800 
 5591000   0.90639337   -3.2405327   -1.7508861   0.05559761   -3.2405327    1.4896466   400727 
 5592000   0.90644673   -3.2402439   -1.7505393  0.057505549   -3.2402439    1.4897045   400735 
 5593000   0.90616314   -3.2395925   -1.7505175  0.057929741   -3.2395925     1.489075   400779 
 5594000   0.90604646   -3.2395771   -1.7505676  0.059675733   -3.2395771    1.4890096   400745 
 5595000   0.90428561    -3.238617    -1.752479  0.061594555    -3.238617     1.486138   400739 
 5596000   0.90566874   -3.2386751   -1.7502157  0.060551395   -3.2386751    1.4884594   400726 
 5597000   0.90545896   -3.2388536   -1.7508467  0.054754095   -3.2388536    1.4880069   400755 
 5598000   0.90410245   -3.2382997   -1.7525628  0.060440536   -3.2382997    1.4857369   400766 
 5599000   0.90463788   -3.2379729   -1.7511855  0.057188194   -3.2379729    1.4867874   400720 
 5600000   0.90456625   -3.2374152   -1.7506194   0.05420226   -3.2374152    1.4867959   400686 
 5601000   0.90528526   -3.2381555   -1.7500553  0.056772296   -3.2381555    1.4881002   400653 
 5602000   0.90491494    -3.238338   -1.7507983   0.06295478    -3.238338    1.4875398   400640 
 5603000   0.90472806   -3.2380561   -1.7508495  0.057677218   -3.2380561    1.4872066   400647 
 5604000   0.90501251    -3.236127   -1.7485383  0.056792657    -3.236127    1.4875888   400670 
 5605000   0.90618788   -3.2379781   -1.7484388  0.056712087   -3.2379781    1.4895393   400665 
 5606000   0.90663387   -3.2373067   -1.7468818  0.057862052   -3.2373067    1.4904249   400624 
 5607000   0.90506003   -3.2352575    -1.747483  0.057627689   -3.2352575    1.4877746   400641 
 5608000   0.90667733   -3.2379442   -1.7473548  0.058088244   -3.2379442    1.4905894   400599 
 5609000   0.90781829    -3.238808   -1.7463168  0.057802249    -3.238808    1.4924912   400592 
 5610000   0.90531332   -3.2350293   -1.7465671  0.058270622   -3.2350293    1.4884621   400568 
 5611000   0.90589282   -3.2345118   -1.7452158  0.060281304   -3.2345118    1.4892959   400600 
 5612000   0.90612666   -3.2337435   -1.7441821  0.060949969   -3.2337435    1.4895614   400632 
 5613000     0.905465   -3.2323098   -1.7438435  0.059201866   -3.2323098    1.4884663   400634 
 5614000   0.90461869   -3.2309432    -1.743909  0.055699878   -3.2309432    1.4870342   400645 
 5615000     0.906301   -3.2320456   -1.7422051  0.057891322   -3.2320456    1.4898405   400634 
 5616000   0.90624891   -3.2328557   -1.7428367  0.053548871   -3.2328557     1.490019   400563 
 5617000   0.90562609   -3.2330644    -1.744088   0.06233967   -3.2330644    1.4889764   400568 
 5618000   0.90690498   -3.2337502     -1.74266  0.057751233   -3.2337502    1.4910902   400565 
 5619000   0.90578013   -3.2327065   -1.7434062  0.056124252   -3.2327065    1.4893003   400549 
 5620000   0.90578177   -3.2319999   -1.7426969  0.056601381   -3.2319999     1.489303   400549 
 5621000   0.90556301   -3.2306587   -1.7418195  0.056859404   -3.2306587    1.4888392   400577 
 5622000   0.90553406   -3.2311846   -1.7423893  0.055746943   -3.2311846    1.4887953   400576 
 5623000   0.90548962   -3.2294309   -1.7408015  0.062915441   -3.2294309    1.4886294   400601 
 5624000    0.9032399   -3.2282498   -1.7432412  0.055245961   -3.2282498    1.4850086   400580 
 5625000    0.9023122    -3.228461   -1.7449368  0.058171507    -3.228461    1.4835242   400569 
 5626000   0.90237885   -3.2285941   -1.7447566  0.055535061   -3.2285941    1.4838375   400514 
 5627000    0.9036976    -3.229751   -1.7438638  0.055391375    -3.229751    1.4858873   400546 
 5628000   0.90538289   -3.2312458   -1.7426099  0.055395309   -3.2312458     1.488636   400552 
 5629000   0.90448846    -3.230639   -1.7435145  0.056382662    -3.230639    1.4871245   400563 
 5630000    0.9053211   -3.2289963   -1.7405549  0.056251659   -3.2289963    1.4884415   400577 
 5631000   0.90502099   -3.2289705   -1.7409444  0.060270555   -3.2289705    1.4880261   400556 
 5632000    0.9056875   -3.2307215   -1.7415624  0.056947814   -3.2307215    1.4891591   400546 
 5633000   0.90538199   -3.2302061   -1.7415047  0.058932811   -3.2302061    1.4887014   400534 
 5634000   0.90645491   -3.2331403   -1.7426003  0.056835128   -3.2331403      1.49054   400514 
 5635000   0.90653836   -3.2332655   -1.7424469  0.058091961   -3.2332655    1.4908187   400476 
 5636000   0.90469303   -3.2319531   -1.7441059  0.059488057   -3.2319531    1.4878472   400459 
 5637000   0.90374249   -3.2295581   -1.7432222  0.061107481   -3.2295581    1.4863359   400445 
 5638000   0.90611589   -3.2346494    -1.744399   0.05595458   -3.2346494    1.4902504   400442 
 5639000   0.90408964   -3.2312944   -1.7442056  0.064676912   -3.2312944    1.4870888   400396 
 5640000   0.90516821   -3.2329617   -1.7440654  0.062928393   -3.2329617    1.4888963   400387 
 5641000   0.90472034   -3.2323888   -1.7442403  0.061056564   -3.2323888    1.4881485   400390 
 5642000   0.90523892    -3.234298   -1.7452296   0.05807974    -3.234298    1.4890684   400372 
 5643000   0.90534139   -3.2343954   -1.7451361   0.05408138   -3.2343954    1.4892593   400366 
 5644000   0.90519469   -3.2327666   -1.7436445  0.061310426   -3.2327666    1.4891221   400338 
 5645000   0.90519098   -3.2336561   -1.7444955  0.057868946   -3.2336561    1.4891607   400326 
 5646000   0.90599636   -3.2343235   -1.7438379  0.058103685   -3.2343235    1.4904856   400326 
 5647000    0.9044715   -3.2317105   -1.7436591  0.058449628   -3.2317105    1.4880514   400306 
 5648000   0.90415921   -3.2334102   -1.7457574  0.057047831   -3.2334102    1.4876528   400275 
 5649000    0.9059426   -3.2350142   -1.7445128   0.05746085   -3.2350142    1.4905014   400298 
 5650000   0.90431732   -3.2319823   -1.7441474  0.061963084   -3.2319823    1.4878349   400296 
 5651000   0.90152077   -3.2291437   -1.7458617  0.063455425   -3.2291437     1.483282   400283 
 5652000   0.90446243   -3.2339908   -1.7459321  0.057115196   -3.2339908    1.4880587   400300 
 5653000   0.90266493   -3.2305778   -1.7454133  0.058899207   -3.2305778    1.4851645   400283 
 5654000   0.90281806   -3.2324352    -1.746874  0.053243394   -3.2324352    1.4855612   400244 
 5655000   0.90235227   -3.2312748   -1.7465987  0.055881086   -3.2312748     1.484676   400276 
 5656000   0.90212768   -3.2308289   -1.7465966  0.051931627   -3.2308289    1.4842323   400296 
 5657000   0.90122044   -3.2305963   -1.7478566  0.052677226   -3.2305963    1.4827397   400296 
 5658000    0.9018132   -3.2316848   -1.7480255   0.05416886   -3.2316848    1.4836593   400311 
 5659000   0.90349283   -3.2331107   -1.7465878  0.060550042   -3.2331107    1.4865229   400284 
 5660000   0.90383055   -3.2326638   -1.7458118  0.050652593   -3.2326638     1.486852   400345 
 5661000   0.90437452    -3.233287   -1.7455773  0.059820563    -3.233287    1.4877097   400355 
 5662000   0.90512955   -3.2324138   -1.7433654  0.062734719   -3.2324138    1.4890484   400329 
 5663000   0.90604521   -3.2342324   -1.7437148  0.061542135   -3.2342324    1.4905176   400339 
 5664000    0.9055025   -3.2338977   -1.7443585  0.057783426   -3.2338977    1.4895392   400362 
 5665000   0.90492203   -3.2327717   -1.7441577  0.062394892   -3.2327717    1.4886141   400354 
 5666000   0.90476836   -3.2326295   -1.7442422  0.061509209   -3.2326295    1.4883873   400347 
 5667000   0.90610303   -3.2342192   -1.7437591  0.056081645   -3.2342192      1.49046   400380 
 5668000   0.90387129   -3.2314377   -1.7445409  0.059155206   -3.2314377    1.4868967   400351 
 5669000   0.90451814   -3.2328281   -1.7448784  0.059142791   -3.2328281    1.4879497   400354 
 5670000   0.90472451   -3.2334992   -1.7451915  0.053437263   -3.2334992    1.4883077   400349 
 5671000   0.90467578   -3.2344424   -1.7461702  0.052819673   -3.2344424    1.4882722   400337 
 5672000   0.90468752   -3.2343064   -1.7460297   0.05326812   -3.2343064    1.4882766   400341 
 5673000   0.90442493   -3.2334538   -1.7454493  0.059880681   -3.2334538    1.4880045   400298 
 5674000   0.90462306   -3.2347187   -1.7462953  0.062304941   -3.2347187    1.4884234   400273 
 5675000   0.90447723   -3.2338204   -1.7455551  0.063056129   -3.2338204    1.4882653   400251 
 5676000   0.90639686   -3.2366189   -1.7452174  0.056739836   -3.2366189    1.4914016   400257 
 5677000    0.9065672   -3.2363635   -1.7446556  0.055112681   -3.2363635    1.4917079   400250 
 5678000    0.9040204   -3.2331632   -1.7456571  0.061556912   -3.2331632    1.4875061   400253 
 5679000   0.90511513   -3.2364143   -1.7469022  0.055928255   -3.2364143    1.4895121   400198 
 5680000   0.90353206   -3.2322477   -1.7453444  0.057279992   -3.2322477    1.4869032   400199 
 5681000   0.90482592   -3.2346048   -1.7456095  0.058500222   -3.2346048    1.4889953   400209 
 5682000   0.90336814   -3.2339421   -1.7472232   0.05736824   -3.2339421    1.4867189   400176 
 5683000   0.90476755   -3.2354115   -1.7464267  0.057610258   -3.2354115    1.4889848   400186 
 5684000   0.90468801   -3.2341956   -1.7452413  0.061285144   -3.2341956    1.4889543   400159 
 5685000   0.90388768   -3.2326444   -1.7449255  0.059011951   -3.2326444    1.4877189   400137 
 5686000   0.90468146   -3.2324576   -1.7436145  0.055558891   -3.2324576    1.4888431   400186 
 5687000   0.90438352   -3.2325785   -1.7441551   0.05961417   -3.2325785    1.4884234   400167 
 5688000   0.90285068   -3.2294855   -1.7435625  0.056403133   -3.2294855     1.485923   400161 
 5689000   0.90358185     -3.23042   -1.7434162   0.05491467     -3.23042    1.4870037   400194 
 5690000   0.90277387   -3.2293624   -1.7438628  0.057533146   -3.2293624    1.4854996   400241 
 5691000   0.90446044   -3.2305585   -1.7421907  0.055561593   -3.2305585    1.4883678   400216 
 5692000    0.9038783   -3.2321939    -1.744654  0.057797641   -3.2321939    1.4875399   400181 
 5693000   0.90228388   -3.2283811   -1.7433575  0.053093228   -3.2283811    1.4850235   400152 
 5694000   0.90417996   -3.2289258   -1.7407481  0.054935675   -3.2289258    1.4881777   400143 
 5695000   0.90379771   -3.2283753   -1.7408156  0.054953483   -3.2283753    1.4875597   400140 
 5696000   0.90360463   -3.2293072   -1.7420467  0.057370044   -3.2293072    1.4872605   400135 
 5697000   0.90309655   -3.2280122   -1.7414691  0.056267821   -3.2280122    1.4865431   400103 
 5698000   0.90374844   -3.2278892   -1.7400797  0.059003919   -3.2278892    1.4878095   400051 
 5699000   0.90449675   -3.2299581   -1.7410247  0.054308681   -3.2299581    1.4889335   400080 
 5700000    0.9042323   -3.2289336   -1.7403684  0.056388061   -3.2289336    1.4885651   400062 
 5701000   0.90352214   -3.2281824   -1.7408718  0.057671968   -3.2281824    1.4873106   400085 
 5702000   0.90565291   -3.2320087    -1.741049  0.051800513   -3.2320087    1.4909597   400047 
 5703000   0.90375585   -3.2284739   -1.7405852  0.053257661   -3.2284739    1.4878887   400033 
 5704000   0.90241063    -3.227463   -1.7418299  0.052373236    -3.227463    1.4856331   400044 
 5705000   0.90319353   -3.2291704   -1.7423302  0.054585004   -3.2291704    1.4868402   400066 
 5706000   0.90329059   -3.2311433   -1.7440876  0.049714517   -3.2311433    1.4870558   400051 
 5707000    0.9023465   -3.2287171   -1.7432044   0.05445894   -3.2287171    1.4855127   400048 
 5708000    0.9048615   -3.2312864   -1.7417488  0.058678778   -3.2312864    1.4895377   400079 
 5709000   0.90371004   -3.2287342   -1.7412221  0.056029269   -3.2287342    1.4875121   400114 
 5710000   0.90444118   -3.2287354   -1.7399752  0.052371028   -3.2287354    1.4887602   400102 
 5711000   0.90306029    -3.227745    -1.741269  0.058004664    -3.227745     1.486476   400105 
 5712000   0.90372937   -3.2292159   -1.7415977  0.058551427   -3.2292159    1.4876182   400094 
 5713000    0.9046505   -3.2301278   -1.7410677   0.05827277   -3.2301278      1.48906   400114 
 5714000   0.90313151   -3.2279662   -1.7414584  0.054664875   -3.2279662    1.4865078   400128 
 5715000   0.90406418   -3.2298476   -1.7416857  0.055996687   -3.2298476    1.4881619   400096 
 5716000   0.90396443   -3.2303412   -1.7425108  0.058430934   -3.2303412    1.4878304   400141 
 5717000   0.90349281   -3.2284639   -1.7413577  0.056353749   -3.2284639    1.4871062   400127 
 5718000   0.90411559   -3.2293252   -1.7410861  0.060261329   -3.2293252    1.4882391   400098 
 5719000   0.90534511   -3.2321075   -1.7418781  0.058684961   -3.2321075    1.4902295   400107 
 5720000   0.90456136   -3.2300336    -1.741016  0.061930917   -3.2300336    1.4890175   400086 
 5721000   0.90581129   -3.2325083   -1.7413102  0.057373584   -3.2325083    1.4911981   400053 
 5722000   0.90451331    -3.230098   -1.7410553  0.062218172    -3.230098    1.4890426   400058 
 5723000   0.90219717   -3.2279975   -1.7425821  0.061700785   -3.2279975    1.4854154   400008 
 5724000   0.90500692   -3.2333187   -1.7431692   0.05852423   -3.2333187    1.4901495   399979 
 5725000   0.90290395   -3.2304311   -1.7437926  0.056798405   -3.2304311    1.4866385   399992 
 5726000   0.90403935   -3.2335417   -1.7447881  0.059709514   -3.2335417    1.4887536   399926 
 5727000   0.90325721   -3.2323653   -1.7449481   0.06029172   -3.2323653    1.4874172   399939 
 5728000   0.90397721   -3.2336751   -1.7450573  0.056146469   -3.2336751    1.4886178   399935 
 5729000   0.90322143   -3.2308931     -1.74352  0.056641406   -3.2308931    1.4873732   399935 
 5730000    0.9056341   -3.2329663   -1.7415044  0.063378505   -3.2329663    1.4914619   399904 
 5731000   0.90479359   -3.2315059   -1.7414916  0.059729779   -3.2315059    1.4900143   399921 
 5732000   0.90342053   -3.2294907   -1.7417711  0.062221094   -3.2294907    1.4877197   399930 
 5733000   0.90398212   -3.2297843   -1.7412552  0.057909989   -3.2297843    1.4885291   399961 
 5734000   0.90532874   -3.2309631   -1.7403359  0.060391119   -3.2309631    1.4906272   399993 
 5735000     0.904341   -3.2291623   -1.7401279  0.060966982   -3.2291623    1.4890344   399984 
 5736000   0.90366712   -3.2289919   -1.7410112  0.058743634   -3.2289919    1.4879806   399969 
 5737000   0.90306713    -3.228208   -1.7411595  0.054941998    -3.228208    1.4870485   399954 
 5738000   0.90363213   -3.2288284   -1.7407678   0.05734338   -3.2288284    1.4880607   399932 
 5739000   0.90383034   -3.2293285   -1.7408707  0.054551277   -3.2293285    1.4884578   399913 
 5740000   0.90405323   -3.2294675   -1.7407171  0.057960307   -3.2294675    1.4887504   399933 
 5741000    0.9024026    -3.227734    -1.741449  0.057094112    -3.227734    1.4862849   399865 
 5742000   0.90227023   -3.2271926    -1.741174  0.057344173   -3.2271926    1.4860186   399878 
 5743000   0.90207341    -3.226867   -1.7411206  0.051769279    -3.226867    1.4857465   399864 
 5744000   0.90254844   -3.2263884   -1.7399227  0.055824347   -3.2263884    1.4864657   399881 
 5745000   0.90115715   -3.2245343   -1.7402858  0.059291985   -3.2245343    1.4842485   399861 
 5746000   0.90225299   -3.2262521   -1.7403139  0.051048816   -3.2262521    1.4859382   399892 
 5747000   0.90165038   -3.2253577   -1.7403562  0.057203949   -3.2253577    1.4850015   399877 
 5748000   0.90189068   -3.2263433   -1.7408792  0.052607384   -3.2263433    1.4854641   399859 
 5749000   0.90215497   -3.2254547   -1.7395479  0.056712991   -3.2254547    1.4859068   399857 
 5750000   0.90316009   -3.2273487   -1.7397418  0.057021659   -3.2273487     1.487607   399845 
 5751000   0.90353729   -3.2282983   -1.7400142  0.056898714   -3.2282983    1.4882841   399830 
 5752000    0.9035711   -3.2263661   -1.7380896  0.057926313   -3.2263661    1.4882765   399847 
 5753000   0.90302656   -3.2276256    -1.740153  0.063685025   -3.2276256    1.4874726   399822 
 5754000   0.90362785   -3.2276427   -1.7391573  0.060803467   -3.2276427    1.4884854   399816 
 5755000   0.90387606   -3.2291407   -1.7403061  0.061356029   -3.2291407    1.4888346   399832 
 5756000   0.90350605    -3.228495   -1.7401917  0.058487465    -3.228495    1.4883033   399811 
 5757000   0.90350105   -3.2301315    -1.741788  0.056020136   -3.2301315    1.4883435   399798 
 5758000    0.9042096   -3.2307726   -1.7411874  0.058499137   -3.2307726    1.4895852   399778 
 5759000   0.90389527   -3.2302366   -1.7410947  0.058121306   -3.2302366    1.4891419   399758 
 5760000    0.9028543   -3.2291457   -1.7417076  0.057832986   -3.2291457    1.4874381   399755 
 5761000   0.90398032   -3.2311737   -1.7418321  0.061543434   -3.2311737    1.4893416   399742 
 5762000   0.90405927   -3.2304117   -1.7409549  0.057474917   -3.2304117    1.4894568   399746 
 5763000     0.903666   -3.2310104   -1.7422612  0.059936524   -3.2310104    1.4887493   399762 
 5764000   0.90349588   -3.2282662   -1.7398046  0.058162406   -3.2282662    1.4884616   399764 
 5765000   0.90364483    -3.229909   -1.7412356  0.059503946    -3.229909    1.4886734   399773 
 5766000   0.90458817   -3.2304332   -1.7402765  0.054728757   -3.2304332    1.4901567   399792 
 5767000   0.90222977   -3.2290515   -1.7427539  0.059294311   -3.2290515    1.4862976   399785 
 5768000   0.90236272   -3.2294682   -1.7429292  0.057898853   -3.2294682     1.486539   399779 
 5769000   0.90229007   -3.2302246   -1.7436156  0.059193309   -3.2302246    1.4866089   399728 
 5770000   0.90217061   -3.2292401   -1.7428763  0.055686241   -3.2292401    1.4863638   399741 
 5771000   0.90064671   -3.2266923    -1.742765  0.056468963   -3.2266923    1.4839273   399721 
 5772000   0.90203968   -3.2281482   -1.7418514  0.052960481   -3.2281482    1.4862968   399701 
 5773000   0.90205389   -3.2275672   -1.7410052   0.05670923   -3.2275672    1.4865619   399636 
 5774000   0.90185658   -3.2273967   -1.7410892  0.057157949   -3.2273967    1.4863074   399617 
 5775000   0.90201454   -3.2283732   -1.7417199  0.058251249   -3.2283732    1.4866533   399594 
 5776000   0.90152081   -3.2279105   -1.7420672   0.05697353   -3.2279105    1.4858433   399593 
 5777000   0.90269771   -3.2301424   -1.7423706  0.055311303   -3.2301424    1.4877719   399596 
 5778000   0.90356467   -3.2309835   -1.7416598  0.056514999   -3.2309835    1.4893237   399563 
 5779000   0.90293526   -3.2289817   -1.7407141  0.056398411   -3.2289817    1.4882677   399568 
 5780000   0.90352613    -3.229069   -1.7398982  0.054962254    -3.229069    1.4891708   399587 
 5781000   0.90384393   -3.2287913   -1.7390483  0.058457211   -3.2287913     1.489743   399574 
 5782000   0.90148393   -3.2268939   -1.7408139  0.056871554   -3.2268939    1.4860801   399513 
 5783000   0.90385316   -3.2290884    -1.739043  0.055591646   -3.2290884    1.4900454   399497 
 5784000    0.9016342   -3.2275056   -1.7410029  0.059851903   -3.2275056    1.4865026   399466 
 5785000   0.90263848   -3.2293832   -1.7410869  0.057137701   -3.2293832    1.4882962   399429 
 5786000   0.90119201   -3.2287779   -1.7428406  0.051741396   -3.2287779    1.4859373   399422 
 5787000   0.90294439   -3.2297065    -1.740917  0.053883215   -3.2297065    1.4887894   399432 
 5788000   0.90218305   -3.2293144   -1.7418547   0.05753962   -3.2293144    1.4874597   399452 
 5789000   0.90154842   -3.2283157   -1.7418763  0.059250484   -3.2283157    1.4864394   399445 
 5790000   0.90193665   -3.2281316   -1.7410037    0.0555167   -3.2281316    1.4871279   399432 
 5791000   0.90257297   -3.2291894   -1.7409601  0.057609049   -3.2291894    1.4882292   399418 
 5792000   0.90101478   -3.2268972   -1.7412372  0.057146931   -3.2268972    1.4856599   399418 
 5793000   0.89961395   -3.2254294   -1.7420087  0.064847063   -3.2254294    1.4834207   399399 
 5794000   0.90157147   -3.2299304   -1.7430845  0.055030036   -3.2299304    1.4868459   399346 
 5795000   0.90271899    -3.230007   -1.7414252  0.058674952    -3.230007    1.4885818   399388 
 5796000   0.90186225   -3.2297385   -1.7425583  0.051771386   -3.2297385    1.4871802   399385 
 5797000   0.90046845   -3.2260897   -1.7410889  0.057862614   -3.2260897    1.4850008   399353 
 5798000   0.90168318   -3.2273174   -1.7402352  0.059044713   -3.2273174    1.4870822   399332 
 5799000   0.90224767   -3.2283031   -1.7403569  0.054325839   -3.2283031    1.4879461   399350 
 5800000    0.9029887   -3.2292107    -1.740117   0.05068057   -3.2292107    1.4890936   399370 
 5801000   0.90313136   -3.2298045   -1.7403115   0.05833978   -3.2298045     1.489493   399326 
 5802000   0.90136744   -3.2277145   -1.7409519  0.058868685   -3.2277145    1.4867626   399278 
 5803000   0.90210928   -3.2293549   -1.7413612  0.059589802   -3.2293549    1.4879936   399276 
 5804000   0.90262744   -3.2296155   -1.7406031  0.051269296   -3.2296155    1.4890124   399232 
 5805000   0.90335099   -3.2308885   -1.7408132  0.054053416   -3.2308885    1.4900754   399267 
 5806000   0.90157853   -3.2269894   -1.7399792  0.059479489   -3.2269894    1.4870102   399305 
 5807000   0.90218931   -3.2275554   -1.7394297  0.060613626   -3.2275554    1.4881257   399276 
 5808000   0.90214378   -3.2262951   -1.7382371    0.0606127   -3.2262951     1.488058   399274 
 5809000   0.90226873   -3.2287596   -1.7404731  0.054999763   -3.2287596    1.4882865   399268 
 5810000   0.90249665   -3.2290578   -1.7403805   0.05512566   -3.2290578    1.4886773   399264 
 5811000   0.90166875   -3.2286809   -1.7412202  0.052096762   -3.2286809    1.4874607   399224 
 5812000   0.90061484   -3.2273811   -1.7415845  0.054327944   -3.2273811    1.4857966   399204 
 5813000   0.90120384   -3.2279547   -1.7411268  0.053327062   -3.2279547    1.4868279   399188 
 5814000   0.90126316   -3.2268609   -1.7397377  0.056749058   -3.2268609    1.4871232   399135 
 5815000   0.90081212    -3.226643   -1.7402641  0.058170085    -3.226643    1.4863789   399135 
 5816000   0.90062223   -3.2265688   -1.7404399  0.055933328   -3.2265688    1.4861289   399118 
 5817000   0.90120428   -3.2276742   -1.7406445  0.056225552   -3.2276742    1.4870297   399134 
 5818000   0.90293767   -3.2309658   -1.7410124  0.052384954   -3.2309658    1.4899534   399117 
 5819000   0.90205835    -3.229815   -1.7412679  0.057612699    -3.229815    1.4885471   399105 
 5820000   0.90253413   -3.2299158   -1.7405388  0.058498957   -3.2299158     1.489377   399093 
 5821000   0.90269975   -3.2284348   -1.7387695  0.059734427   -3.2284348    1.4896653   399089 
 5822000   0.90255652   -3.2270663   -1.7375366  0.061579813   -3.2270663    1.4895297   399062 
 5823000   0.90243652    -3.227968   -1.7387184  0.056472244    -3.227968    1.4892496   399084 
 5824000   0.90263077   -3.2287247   -1.7390016  0.054284239   -3.2287247    1.4897232   399043 
 5825000   0.90101433   -3.2276374   -1.7407535  0.058746282   -3.2276374    1.4868839   399089 
 5826000   0.90115486   -3.2280902   -1.7408924  0.057097477   -3.2280902    1.4871978   399067 
 5827000   0.90064144   -3.2266306    -1.740254   0.05900494   -3.2266306    1.4863766   399060 
 5828000   0.90252311   -3.2293122   -1.7397219  0.062856812   -3.2293122    1.4895903   399031 
 5829000   0.90114115   -3.2279872   -1.7407188  0.056457324   -3.2279872    1.4872684   399042 
 5830000   0.90066747   -3.2269871   -1.7404558  0.056349435   -3.2269871    1.4865313   399030 
 5831000   0.90096975   -3.2278943    -1.740823  0.052913755   -3.2278943    1.4870712   399019 
 5832000   0.90158628   -3.2286804   -1.7405543  0.055261692   -3.2286804    1.4881261   399009 
 5833000   0.90001991    -3.226717   -1.7410869  0.058141214    -3.226717    1.4856301   398985 
 5834000   0.89925584   -3.2264232   -1.7420655  0.057936255   -3.2264232    1.4843577   398988 
 5835000   0.90112521   -3.2281907   -1.7408629  0.050061843   -3.2281907    1.4873278   399019 
 5836000    0.9007122   -3.2273111     -1.74065  0.056262079   -3.2273111     1.486661   399015 
 5837000   0.90082323     -3.22741   -1.7405396  0.059143346     -3.22741    1.4868704   399008 
 5838000   0.90199888   -3.2276487   -1.7387894  0.058747193   -3.2276487    1.4888594   398995 
 5839000   0.90195329   -3.2279703   -1.7391078  0.055417101   -3.2279703    1.4888625   398974 
 5840000   0.90155849   -3.2271242   -1.7389396  0.054737346   -3.2271242    1.4881847   398981 
 5841000   0.90188794   -3.2267223   -1.7379938  0.057765258   -3.2267223    1.4887285   398981 
 5842000   0.90244507   -3.2261371   -1.7363359  0.056746969   -3.2261371    1.4898012   398940 
 5843000   0.90241634    -3.225845   -1.7360352  0.059053038    -3.225845    1.4898098   398925 
 5844000   0.90072567   -3.2236961   -1.7366402  0.061952853   -3.2236961    1.4870559   398915 
 5845000   0.90263254     -3.22552   -1.7353496  0.059102832     -3.22552    1.4901705   398924 
 5846000    0.9016703   -3.2253768   -1.7367912  0.060363509   -3.2253768    1.4885856   398923 
 5847000   0.90165708   -3.2259202   -1.7373676  0.062298912   -3.2259202    1.4885526   398926 
 5848000   0.90211693   -3.2268927   -1.7376294   0.05474671   -3.2268927    1.4892632   398939 
 5849000   0.90045857   -3.2261871   -1.7395907  0.052304925   -3.2261871    1.4865963   398920 
 5850000   0.90092504    -3.227293   -1.7399452  0.051682936    -3.227293    1.4873478   398925 
 5851000   0.90030015    -3.226073   -1.7398165  0.052924405    -3.226073    1.4862566   398941 
 5852000   0.89994808   -3.2262238   -1.7406676   0.05430812   -3.2262238    1.4855562   398973 
 5853000   0.89714052   -3.2221607   -1.7411945  0.052056105   -3.2221607    1.4809662   398961 
 5854000   0.90059828   -3.2268149    -1.740055  0.054933914   -3.2268149    1.4867599   398938 
 5855000   0.90129894   -3.2270891   -1.7393665  0.054462904   -3.2270891    1.4877227   398990 
 5856000   0.90212303    -3.228525   -1.7394085  0.054413389    -3.228525    1.4891165   398981 
 5857000   0.90142526   -3.2265158   -1.7384466  0.056643511   -3.2265158    1.4880692   398953 
 5858000    0.9013066   -3.2270952   -1.7391473  0.054810431   -3.2270952    1.4879479   398933 
 5859000   0.90108211   -3.2267908   -1.7391502  0.056656387   -3.2267908    1.4876407   398916 
 5860000   0.90081758   -3.2266068   -1.7394476  0.057724009   -3.2266068    1.4871592   398928 
 5861000   0.90211014   -3.2293635   -1.7400555  0.061970232   -3.2293635     1.489308   398924 
 5862000     0.900775   -3.2269433   -1.7398917  0.059317511   -3.2269433    1.4870516   398938 
 5863000   0.90108802    -3.227521   -1.7400383  0.054387601    -3.227521    1.4874826   398961 
 5864000   0.90117035    -3.227033   -1.7394555  0.060026441    -3.227033    1.4875775   398972 
 5865000   0.90263785    -3.229555   -1.7395812   0.06088618    -3.229555    1.4899738   398979 
 5866000   0.90150881   -3.2274204   -1.7393961  0.059951507   -3.2274204    1.4880243   399002 
 5867000   0.90180612    -3.228855   -1.7401459  0.052876677    -3.228855    1.4887091   398950 
 5868000    0.9013752    -3.228201   -1.7401436  0.053024845    -3.228201    1.4880574   398934 
 5869000   0.90043392   -3.2278695   -1.7413996  0.057702272   -3.2278695    1.4864699   398943 
 5870000   0.89997901   -3.2279694   -1.7421871  0.055741371   -3.2279694    1.4857823   398926 
 5871000   0.90121593   -3.2293057    -1.741377  0.059385705   -3.2293057    1.4879287   398898 
 5872000   0.90056766   -3.2274415    -1.740434  0.058339582   -3.2274415    1.4870075   398858 
 5873000   0.90053153   -3.2280679   -1.7410007  0.059070812   -3.2280679    1.4870672   398826 
 5874000   0.90159597   -3.2321599   -1.7432342  0.050711837   -3.2321599    1.4889257   398799 
 5875000   0.90017263   -3.2287331   -1.7421132  0.058622389   -3.2287331    1.4866199   398787 
 5876000   0.89919937   -3.2296076   -1.7446211  0.059019262   -3.2296076    1.4849865   398794 
 5877000    0.8996097   -3.2302512   -1.7445684  0.055538874   -3.2302512    1.4856828   398789 
 5878000   0.90060686   -3.2331563   -1.7456402  0.053031822   -3.2331563    1.4875161   398739 
 5879000   0.89874186   -3.2299023   -1.7453103  0.057401704   -3.2299023    1.4845921   398697 
 5880000   0.89711008   -3.2286182   -1.7465246  0.054777383   -3.2286182    1.4820936   398644 
 5881000   0.89783869   -3.2295799   -1.7462193   0.06076036   -3.2295799    1.4833606   398627 
 5882000   0.89692522   -3.2302076   -1.7482075  0.054200423   -3.2302076    1.4820001   398587 
 5883000   0.89986948   -3.2326722   -1.7456095  0.055653239   -3.2326722    1.4870627   398534 
 5884000   0.89931037   -3.2306673   -1.7445248  0.056562665   -3.2306673    1.4861425   398533 
 5885000   0.89891564    -3.230237   -1.7446238  0.054203442    -3.230237    1.4856132   398500 
 5886000   0.89798744   -3.2291339   -1.7449132  0.060018184   -3.2291339    1.4842207   398462 
 5887000   0.90010206   -3.2331516   -1.7454134  0.052883304   -3.2331516    1.4877382   398456 
 5888000   0.89942497   -3.2311403     -1.74451  0.060871146   -3.2311403    1.4866303   398453 
 5889000   0.89902321   -3.2327527   -1.7466708  0.060305136   -3.2327527    1.4860818   398422 
 5890000   0.89823896   -3.2297648    -1.744957  0.056691624   -3.2297648    1.4848078   398416 
 5891000   0.89992943   -3.2312461   -1.7437559   0.05758002   -3.2312461    1.4874902   398446 
 5892000   0.90032374   -3.2323652    -1.744156    0.0559966   -3.2323652    1.4882092   398428 
 5893000   0.89986623   -3.2311739   -1.7438292  0.057413669   -3.2311739    1.4873447   398457 
 5894000   0.89847889   -3.2302489   -1.7451004  0.058476931   -3.2302489    1.4851485   398431 
 5895000   0.89847483    -3.229147   -1.7439269  0.060652507    -3.229147    1.4852201   398410 
 5896000   0.89926322   -3.2309068    -1.744264  0.055588223   -3.2309068    1.4866427   398378 
 5897000    0.8993235   -3.2305764   -1.7438937  0.061509437   -3.2305764    1.4866827   398394 
 5898000   0.89980924   -3.2310814   -1.7435397  0.057771795   -3.2310814    1.4875417   398379 
 5899000   0.90088305    -3.231909    -1.742637  0.056306825    -3.231909     1.489272   398391 
 5900000   0.89896836   -3.2308393   -1.7445944   0.05524186   -3.2308393    1.4862448   398354 
 5901000   0.89964522   -3.2301067   -1.7426196  0.054831047   -3.2301067    1.4874871   398321 
 5902000   0.89935869   -3.2304213   -1.7432586  0.055556795   -3.2304213    1.4871627   398281 
 5903000   0.89928728   -3.2299421   -1.7427444  0.061881867   -3.2299421    1.4871977   398240 
 5904000   0.89866592   -3.2289924   -1.7427998  0.055478803   -3.2289924    1.4861925   398234 
 5905000   0.89954665   -3.2298501    -1.742145  0.056804589   -3.2298501    1.4877051   398219 
 5906000   0.89791785   -3.2274853   -1.7424926  0.054395619   -3.2274853    1.4849927   398224 
 5907000   0.89818419   -3.2284454   -1.7428891  0.057286603   -3.2284454    1.4855562   398191 
 5908000    0.8983224   -3.2291575   -1.7431972  0.056689518   -3.2291575    1.4859602   398144 
 5909000   0.89817842   -3.2296566   -1.7438972  0.059753297   -3.2296566    1.4857594   398134 
 5910000   0.89805043   -3.2284763   -1.7430928  0.057480186   -3.2284763    1.4853835   398178 
 5911000   0.89803567   -3.2277464   -1.7424507  0.058250911   -3.2277464    1.4852957   398195 
 5912000   0.89680154   -3.2270656   -1.7437328  0.056211631   -3.2270656    1.4833327   398174 
 5913000   0.89727995   -3.2274089   -1.7431619  0.057993979   -3.2274089     1.484247   398141 
 5914000   0.89793041   -3.2274478   -1.7420241  0.053766425   -3.2274478    1.4854238   398114 
 5915000   0.89747855   -3.2254487   -1.7405114  0.061301629   -3.2254487    1.4849373   398044 
 5916000   0.89875881   -3.2293763   -1.7423132  0.060859564   -3.2293763    1.4870631   398042 
 5917000   0.89814817   -3.2284181     -1.74244  0.059877475   -3.2284181    1.4859781   398062 
 5918000   0.89900071   -3.2291692   -1.7418255   0.05669098   -3.2291692    1.4873438   398074 
 5919000   0.89753226   -3.2266433   -1.7417999  0.054534578   -3.2266433    1.4848434   398093 
 5920000    0.8991733   -3.2289661   -1.7413592  0.054948816   -3.2289661    1.4876069   398080 
 5921000   0.89776478   -3.2279669   -1.7426045  0.054583795   -3.2279669    1.4853624   398057 
 5922000   0.89765774   -3.2277152   -1.7424515  0.056883402   -3.2277152    1.4852637   398036 
 5923000   0.89753597   -3.2271165   -1.7420692  0.055473222   -3.2271165    1.4850473   398040 
 5924000   0.89891835   -3.2298366   -1.7425805  0.052468354   -3.2298366    1.4872561   398061 
 5925000   0.89825137   -3.2289091   -1.7428424  0.050431748   -3.2289091    1.4860667   398084 
 5926000   0.89791015   -3.2288043   -1.7433171  0.056084268   -3.2288043    1.4854872   398088 
 5927000   0.89891803   -3.2293524   -1.7424144  0.059403502   -3.2293524     1.486938   398146 
 5928000   0.89890134   -3.2296583    -1.742718  0.057544164   -3.2296583    1.4869403   398138 
 5929000   0.89934795   -3.2291648   -1.7414932  0.056119107   -3.2291648    1.4876716   398140 
 5930000   0.89852879   -3.2268525    -1.740521  0.063191372   -3.2268525    1.4863315   398136 
 5931000   0.90002627   -3.2273101   -1.7384006  0.057978745   -3.2273101    1.4889096   398109 
 5932000   0.90124531   -3.2297142   -1.7386943   0.05538345   -3.2297142    1.4910199   398084 
 5933000   0.90172591    -3.230331    -1.738546  0.058107997    -3.230331     1.491785   398092 
 5934000   0.90207504   -3.2304791    -1.738064  0.056960919   -3.2304791     1.492415   398078 
 5935000   0.90019029   -3.2269362   -1.7376056  0.060346769   -3.2269362    1.4893306   398069 
 5936000   0.90028595   -3.2282868   -1.7387681  0.056930539   -3.2282868    1.4895188   398061 
 5937000    0.8996078   -3.2264182    -1.737984  0.065438321   -3.2264182    1.4884341   398051 
 5938000   0.89977865    -3.227394   -1.7387445  0.062060854    -3.227394    1.4886495   398069 
 5939000   0.89990732   -3.2273106   -1.7384108  0.060515306   -3.2273106    1.4888998   398059 
 5940000    0.8985574   -3.2249583   -1.7382733  0.056697839   -3.2249583     1.486685   398054 
 5941000   0.89971833   -3.2260294   -1.7373152  0.053842164   -3.2260294    1.4887143   398025 
 5942000   0.89858472   -3.2235192   -1.7367255  0.056760362   -3.2235192    1.4867937   398037 
 5943000   0.89853322   -3.2235498   -1.7368786  0.057436094   -3.2235498    1.4866711   398047 
 5944000   0.89672974   -3.2220204   -1.7380946  0.056096119   -3.2220204    1.4839258   397983 
 5945000   0.89790024    -3.224402   -1.7384496    0.0533634    -3.224402    1.4859524   397959 
 5946000    0.8989889   -3.2267672   -1.7390767  0.050344934   -3.2267672    1.4876905   397976 
 5947000   0.89741127   -3.2226915   -1.7376267  0.056016538   -3.2226915    1.4850648   397980 
 5948000   0.89880545   -3.2251653   -1.7378644  0.052312314   -3.2251653    1.4873009   397999 
 5949000   0.89803247   -3.2228461   -1.7368878  0.056721795   -3.2228461    1.4859584   398016 
 5950000       0.8977   -3.2207318   -1.7354056  0.057916887   -3.2207318    1.4853261   398038 
 5951000   0.89894562   -3.2227986   -1.7353031  0.058489925   -3.2227986    1.4874955   398009 
 5952000   0.89902392    -3.222872   -1.7353516  0.058205513    -3.222872    1.4875204   398037 
 5953000   0.89971776   -3.2239339   -1.7352206  0.057361633   -3.2239339    1.4887133   398025 
 5954000   0.90003959   -3.2251206   -1.7356802  0.059254088   -3.2251206    1.4894404   397973 
 5955000   0.89993785   -3.2253868   -1.7360811  0.057809978   -3.2253868    1.4893057   397964 
 5956000   0.89891966   -3.2238297   -1.7361528  0.057696169   -3.2238297    1.4876768   397949 
 5957000   0.89837494   -3.2227764     -1.73593  0.059532132   -3.2227764    1.4868463   397930 
 5958000   0.89830042   -3.2239794   -1.7373461  0.057978359   -3.2239794    1.4866333   397954 
 5959000   0.89877953   -3.2255718   -1.7381232  0.054553093   -3.2255718    1.4874486   397948 
 5960000   0.89836436    -3.224041   -1.7373318   0.05706295    -3.224041    1.4867092   397962 
 5961000   0.89762467   -3.2233829   -1.7380546  0.060791897   -3.2233829    1.4853284   398004 
 5962000   0.89915035   -3.2256682   -1.7379759  0.054806178   -3.2256682    1.4876922   398047 
 5963000   0.89932074   -3.2251591   -1.7372634  0.051435486   -3.2251591    1.4878957   398068 
 5964000   0.89776718   -3.2228678   -1.7374865  0.055914992   -3.2228678    1.4853813   398053 
 5965000   0.89805556   -3.2234171   -1.7374504  0.056995303   -3.2234171    1.4859667   398024 
 5966000   0.89876591   -3.2232888   -1.7362588  0.062066956   -3.2232888      1.48703   398054 
 5967000   0.89889354   -3.2250628   -1.7377955  0.056199945   -3.2250628    1.4872673   398047 
 5968000   0.89909398   -3.2244928   -1.7369274  0.059334559   -3.2244928    1.4875653   398056 
 5969000   0.89957727   -3.2247329   -1.7362258  0.058727837   -3.2247329     1.488507   398018 
 5970000   0.89931541   -3.2260854   -1.7378097  0.058903077   -3.2260854    1.4882757   397964 
 5971000    0.8985127   -3.2241648   -1.7371913  0.057469596   -3.2241648    1.4869734   397957 
 5972000   0.89951457   -3.2251014   -1.7365298  0.061108623   -3.2251014    1.4885716   397973 
 5973000   0.90071234     -3.22723   -1.7365864  0.058223082     -3.22723    1.4906436   397949 
 5974000   0.90004383   -3.2277974   -1.7381291  0.057035262   -3.2277974    1.4896683   397914 
 5975000   0.89882852   -3.2256954   -1.7381507   0.05564095   -3.2256954    1.4875447   397944 
 5976000   0.90095315   -3.2291111    -1.737904  0.056729762   -3.2291111     1.491207   397905 
 5977000   0.89817619   -3.2256166   -1.7389797  0.055694594   -3.2256166    1.4866369   397898 
 5978000   0.89880485   -3.2273328   -1.7395506  0.055387458   -3.2273328    1.4877822   397870 
 5979000   0.89811633   -3.2273164   -1.7407039  0.053931029   -3.2273164    1.4866126   397878 
 5980000   0.89825451   -3.2282461   -1.7412927  0.052063979   -3.2282461    1.4869534   397848 
 5981000   0.89782858   -3.2281023   -1.7417793  0.055928659   -3.2281023     1.486323   397828 
 5982000   0.89745378   -3.2278355    -1.742118   0.05461424   -3.2278355    1.4857175   397824 
 5983000   0.89828835   -3.2295099   -1.7423921  0.054430853   -3.2295099    1.4871178   397819 
 5984000   0.89760603   -3.2280116   -1.7419486  0.061231642   -3.2280116    1.4860629   397799 
 5985000   0.89698686   -3.2269081   -1.7416164  0.061693513   -3.2269081    1.4852917   397731 
 5986000   0.89866669   -3.2292018   -1.7410873    0.0563708   -3.2292018    1.4881145   397720 
 5987000   0.89882095   -3.2306725    -1.742224  0.058888863   -3.2306725    1.4884485   397699 
 5988000   0.89862623   -3.2299675   -1.7417366  0.061928154   -3.2299675    1.4882308   397671 
 5989000   0.89975316   -3.2322199   -1.7420441  0.053064926   -3.2322199    1.4901759   397650 
 5990000   0.89902699   -3.2304797   -1.7415552  0.058946485   -3.2304797    1.4889245   397663 
 5991000   0.89942658   -3.2313311   -1.7417223  0.055479784   -3.2313311    1.4896088   397657 
 5992000   0.89800144   -3.2304297   -1.7432673  0.051320386   -3.2304297    1.4871625   397680 
 5993000   0.89721923   -3.2289455   -1.7430411  0.051398838   -3.2289455    1.4859044   397670 
 5994000   0.89759838    -3.228042   -1.7415583  0.056425683    -3.228042    1.4864838   397683 
 5995000   0.89840065   -3.2279621   -1.7401572  0.060111515   -3.2279621    1.4878049   397685 
 5996000   0.89757479   -3.2268927    -1.740534  0.057323659   -3.2268927    1.4863587   397706 
 5997000   0.89936686   -3.2284912   -1.7392286  0.056925365   -3.2284912    1.4892627   397723 
 5998000   0.89907477    -3.229184   -1.7404125  0.056699363    -3.229184    1.4887715   397725 
 5999000   0.89924489   -3.2287873   -1.7398165  0.056033601   -3.2287873    1.4889709   397747 
 6000000   0.89802228    -3.226424   -1.7393691  0.053671425    -3.226424    1.4870549   397718 
 6001000   0.89808277   -3.2263058   -1.7392966  0.059195913   -3.2263058    1.4870092   397757 
 6002000   0.89839619   -3.2257025   -1.7381219  0.058432847   -3.2257025    1.4875805   397743 
 6003000   0.89973223   -3.2266191   -1.7367177    0.0575865   -3.2266191    1.4899014   397714 
 6004000   0.89798963   -3.2233158   -1.7362103  0.061099519   -3.2233158    1.4871055   397690 
 6005000   0.89812746   -3.2241532   -1.7367596  0.053646635   -3.2241532    1.4873936   397674 
 6006000   0.89673768    -3.223412   -1.7382005  0.054163427    -3.223412    1.4852115   397642 
 6007000   0.89694235   -3.2247692   -1.7390132  0.054742464   -3.2247692     1.485756   397587 
 6008000   0.89652371   -3.2252604   -1.7401531  0.050190038   -3.2252604    1.4851073   397575 
 6009000   0.89682462   -3.2251278   -1.7394622  0.051097287   -3.2251278    1.4856656   397559 
 6010000   0.89796628   -3.2275471    -1.739833  0.051419866   -3.2275471     1.487714   397517 
 6011000   0.89677944   -3.2255487   -1.7395992  0.057261067   -3.2255487    1.4859496   397463 
 6012000   0.89721644   -3.2247835   -1.7381509  0.056138766   -3.2247835    1.4866325   397474 
 6013000    0.8970032   -3.2252575   -1.7388287  0.057939267   -3.2252575    1.4864288   397434 
 6014000   0.89807408   -3.2261476    -1.737757  0.056292278   -3.2261476    1.4883906   397384 
 6015000   0.89880495   -3.2270543   -1.7375049  0.059208395   -3.2270543    1.4895494   397398 
 6016000   0.89711178   -3.2244739   -1.7377567  0.059407395   -3.2244739    1.4867172   397405 
 6017000   0.89742897   -3.2249479    -1.737574  0.056710764   -3.2249479    1.4873738   397370 
 6018000   0.89842454   -3.2253449   -1.7362498  0.062047733   -3.2253449    1.4890951   397351 
 6019000   0.89675721    -3.224803   -1.7383517  0.057334193    -3.224803    1.4864513   397319 
 6020000   0.89874614   -3.2260772   -1.7364116  0.057029194   -3.2260772    1.4896656   397341 
 6021000   0.89815975   -3.2260451   -1.7372615  0.058669779   -3.2260451    1.4887836   397317 
 6022000   0.89822145    -3.225978    -1.737006  0.059921397    -3.225978    1.4889721   397294 
 6023000   0.89773201   -3.2246774   -1.7365167  0.061175845   -3.2246774    1.4881607   397294 
 6024000   0.89722821   -3.2238268   -1.7365387  0.056946462   -3.2238268    1.4872881   397304 
 6025000   0.89786828    -3.225803   -1.7375775  0.061114717    -3.225803    1.4882255   397337 
 6026000   0.89824824   -3.2266068   -1.7377665  0.055177207   -3.2266068    1.4888403   397341 
 6027000   0.89857432   -3.2260553   -1.7367644  0.055412249   -3.2260553    1.4892909   397365 
 6028000   0.89810945   -3.2253748   -1.7368245  0.058553149   -3.2253748    1.4885503   397357 
 6029000   0.89728517   -3.2252343   -1.7381324  0.058194048   -3.2252343    1.4871018   397379 
 6030000   0.89568448   -3.2225046   -1.7380519  0.055223159   -3.2225046    1.4844527   397378 
 6031000   0.89788546   -3.2260493   -1.7379713  0.057246449   -3.2260493     1.488078   397384 
 6032000   0.89771993   -3.2276162   -1.7396852  0.057618975   -3.2276162     1.487931   397350 
 6033000   0.89977246   -3.2276777   -1.7364874  0.054273899   -3.2276777    1.4911903   397388 
 6034000   0.89816136   -3.2267532   -1.7380006   0.05925652   -3.2267532    1.4887525   397326 
 6035000   0.89753069    -3.226359   -1.7385133  0.055343126    -3.226359    1.4878457   397289 
 6036000   0.89808954   -3.2280558   -1.7391151  0.059499014   -3.2280558    1.4889408   397244 
 6037000   0.89761004   -3.2266211   -1.7384716  0.052447375   -3.2266211    1.4881496   397243 
 6038000   0.89784183   -3.2255746   -1.7370145  0.061581009   -3.2255746    1.4885601   397236 
 6039000   0.89910021   -3.2285518   -1.7380068  0.059848116   -3.2285518    1.4905451   397263 
 6040000   0.89751853   -3.2246784    -1.736924  0.058674074   -3.2246784    1.4877544   397308 
 6041000   0.89882034   -3.2268189   -1.7368165  0.061056179   -3.2268189    1.4900023   397284 
 6042000   0.89845337   -3.2278481   -1.7384691  0.057061335   -3.2278481     1.489379   397288 
 6043000   0.89793317   -3.2255752   -1.7370211  0.059135465   -3.2255752    1.4885541   397278 
 6044000      0.89947    -3.227563   -1.7365813  0.054223388    -3.227563    1.4909817   397310 
 6045000   0.89832868   -3.2266568   -1.7374583  0.057193642   -3.2266568    1.4891985   397281 
 6046000    0.8984667   -3.2260428   -1.7365554  0.056809381   -3.2260428    1.4894873   397265 
 6047000   0.89850931   -3.2268424   -1.7371569  0.056082926   -3.2268424    1.4896855   397231 
 6048000   0.89856433   -3.2268286   -1.7369019  0.052437427   -3.2268286    1.4899267   397191 
 6049000   0.89811722   -3.2252061   -1.7360733  0.056469258   -3.2252061    1.4891329   397205 
 6050000   0.89809357   -3.2252883   -1.7359285   0.05359391   -3.2252883    1.4893599   397134 
 6051000   0.89727565   -3.2253782   -1.7373335  0.054783376   -3.2253782    1.4880447   397123 
 6052000   0.89786031   -3.2248923   -1.7359792  0.055504462   -3.2248923    1.4889131   397150 
 6053000   0.89596311   -3.2222423   -1.7366549  0.057262058   -3.2222423    1.4855874   397198 
 6054000   0.89616882   -3.2219132   -1.7359324  0.057135347   -3.2219132    1.4859809   397184 
 6055000   0.89636194   -3.2213963    -1.735084  0.058661403   -3.2213963    1.4863123   397181 
 6056000   0.89656818   -3.2214574   -1.7347695  0.055581509   -3.2214574     1.486688   397172 
 6057000   0.89752532   -3.2225806   -1.7342268  0.051591697   -3.2225806    1.4883538   397151 
 6058000   0.89830096   -3.2229406   -1.7334018  0.059685259   -3.2229406    1.4895388   397178 
 6059000   0.89776075   -3.2222856   -1.7336801  0.059864524   -3.2222856    1.4886055   397188 
 6060000    0.8976758   -3.2221503   -1.7335207  0.055557173   -3.2221503    1.4886296   397144 
 6061000   0.89816148   -3.2230536   -1.7335586  0.052946428   -3.2230536     1.489495   397128 
 6062000   0.89722879   -3.2220724   -1.7343564  0.054319734   -3.2220724     1.487716   397190 
 6063000   0.89755112   -3.2247166   -1.7363988   0.05590095   -3.2247166    1.4883179   397172 
 6064000   0.89683201   -3.2241041   -1.7368701   0.05481573   -3.2241041    1.4872341   397143 
 6065000   0.89761262    -3.225902   -1.7373134   0.05612936    -3.225902    1.4885885   397127 
 6066000   0.89471609    -3.220113   -1.7363392  0.055804758    -3.220113    1.4837738   397130 
 6067000    0.8953085    -3.219642   -1.7349008  0.056771759    -3.219642    1.4847412   397134 
 6068000   0.89613306   -3.2225329   -1.7364093  0.051151432   -3.2225329    1.4861236   397130 
 6069000   0.89687562   -3.2230439   -1.7355877   0.05521672   -3.2230439    1.4874562   397103 
 6070000   0.89705903   -3.2229614   -1.7352348  0.053131073   -3.2229614    1.4877267   397112 
 6071000   0.89795907    -3.223716   -1.7345379  0.060819577    -3.223716    1.4891781   397123 
 6072000   0.89847217   -3.2246454   -1.7345189  0.059943738   -3.2246454    1.4901266   397097 
 6073000   0.89840036   -3.2272914   -1.7372539  0.053219771   -3.2272914    1.4900375   397089 
 6074000   0.89758694   -3.2258001   -1.7369955  0.056451495   -3.2258001    1.4888046   397058 
 6075000   0.89660797   -3.2237605   -1.7365534  0.057719158   -3.2237605     1.487207   397051 
 6076000   0.89776148   -3.2244735   -1.7352443  0.055674394   -3.2244735    1.4892291   397022 
 6077000   0.89758741    -3.223875   -1.7348596   0.06062677    -3.223875    1.4890154   397002 
 6078000   0.89788338   -3.2264694   -1.7370193  0.055411355   -3.2264694    1.4894501   397017 
 6079000    0.8962916   -3.2233454   -1.7364984  0.058007471   -3.2233454    1.4868471   397007 
 6080000   0.89666914   -3.2252776   -1.7379129  0.055392766   -3.2252776    1.4873647   397036 
 6081000   0.89768002   -3.2262042   -1.7371252  0.054125038   -3.2262042     1.489079   397026 
 6082000   0.89643555    -3.223352   -1.7362662  0.056436373    -3.223352    1.4870858   397007 
 6083000   0.89890101   -3.2276815   -1.7364418  0.054419124   -3.2276815    1.4912396   396990 
 6084000   0.89800217   -3.2265055   -1.7368733   0.05762854   -3.2265055    1.4896322   397021 
 6085000   0.89751918   -3.2256933   -1.7367761  0.056698944   -3.2256933    1.4889172   396998 
 6086000   0.89678441   -3.2254063   -1.7375993  0.057856637   -3.2254063     1.487807   396969 
 6087000   0.89634053   -3.2250417   -1.7378924  0.059381696   -3.2250417    1.4871492   396948 
 6088000    0.8968862   -3.2263635   -1.7382752   0.05858843   -3.2263635    1.4880883   396939 
 6089000   0.89457231   -3.2237522   -1.7393123  0.055495634   -3.2237522    1.4844399   396888 
 6090000   0.89679908    -3.225974   -1.7379216  0.054741373    -3.225974    1.4880525   396910 
 6091000   0.89788261   -3.2274645   -1.7376367  0.055271434   -3.2274645    1.4898278   396916 
 6092000   0.89579457   -3.2252056   -1.7388236  0.055030915   -3.2252056    1.4863819   396911 
 6093000   0.89693907   -3.2267387   -1.7385852  0.054906282   -3.2267387    1.4881535   396945 
 6094000   0.89641704   -3.2248981   -1.7376594  0.057972423   -3.2248981    1.4872387   396958 
 6095000   0.89679431   -3.2260721   -1.7382712   0.05617788   -3.2260721    1.4878009   396975 
 6096000   0.89576529   -3.2257909   -1.7396934  0.053328204   -3.2257909    1.4860975   396974 
 6097000   0.89629759   -3.2254478   -1.7383249  0.057446157   -3.2254478    1.4871229   396936 
 6098000   0.89651423    -3.226422   -1.7389359  0.059102786    -3.226422    1.4874861   396935 
 6099000   0.89684984   -3.2273333   -1.7391966  0.056120915   -3.2273333    1.4881367   396910 
 6100000   0.89751788    -3.228315   -1.7389159  0.058418265    -3.228315     1.489399   396869 
 6101000   0.89721671   -3.2282483    -1.739259   0.06333444   -3.2282483    1.4889893   396845 
 6102000   0.89794722   -3.2295952   -1.7394386  0.058089941   -3.2295952    1.4901565   396857 
 6103000   0.89810482   -3.2291989   -1.7386456  0.061332635   -3.2291989    1.4905533   396821 
 6104000   0.89758512    -3.229287   -1.7394273   0.06237015    -3.229287    1.4898597   396776 
 6105000   0.89710867   -3.2280464   -1.7388499  0.059257472   -3.2280464    1.4891965   396742 
 6106000   0.89732127   -3.2284911   -1.7389642  0.058468562   -3.2284911    1.4895269   396748 
 6107000   0.89620329   -3.2270107   -1.7392759  0.055179751   -3.2270107    1.4877348   396731 
 6108000   0.89698358   -3.2280457   -1.7389029  0.056421919   -3.2280457    1.4891427   396701 
 6109000   0.89680993   -3.2280148   -1.7391941  0.061220417   -3.2280148    1.4888207   396710 
 6110000   0.89762642    -3.228812   -1.7387222  0.057042264    -3.228812    1.4900898   396733 
 6111000   0.89671438    -3.226633   -1.7379972  0.060797616    -3.226633    1.4886358   396717 
 6112000   0.89782302   -3.2296969    -1.739262  0.058479508   -3.2296969    1.4904349   396728 
 6113000   0.89672956   -3.2254651   -1.7368416  0.057325265   -3.2254651    1.4886235   396727 
 6114000   0.89698411   -3.2257006   -1.7365682  0.062592433   -3.2257006    1.4891324   396704 
 6115000   0.89540403   -3.2246035   -1.7379669  0.055347193   -3.2246035    1.4866366   396670 
 6116000   0.89646016   -3.2255737   -1.7372999  0.057778025   -3.2255737    1.4882738   396701 
 6117000   0.89640493   -3.2258435   -1.7377439  0.052807702   -3.2258435    1.4880996   396723 
 6118000   0.89710908   -3.2267989   -1.7374215   0.05465229   -3.2267989    1.4893774   396694 
 6119000   0.89751026   -3.2250146   -1.7349937  0.053649586   -3.2250146    1.4900209   396700 
 6120000   0.89507383   -3.2211091   -1.7351406  0.060546114   -3.2211091    1.4859685   396702 
 6121000   0.89676032   -3.2254514   -1.7364991  0.054854104   -3.2254514    1.4889523   396653 
 6122000   0.89677147   -3.2254124   -1.7364004  0.055756336   -3.2254124    1.4890121   396642 
 6123000   0.89727152   -3.2254088   -1.7354875  0.059355867   -3.2254088    1.4899212   396621 
 6124000   0.89681314   -3.2256693   -1.7364416  0.058463706   -3.2256693    1.4892277   396603 
 6125000   0.89325733   -3.2209793   -1.7375927   0.05460236   -3.2209793    1.4833866   396586 
 6126000   0.89394097   -3.2217008    -1.737149  0.054564612   -3.2217008    1.4845518   396578 
 6127000   0.89579717   -3.2230879   -1.7354535  0.057853993   -3.2230879    1.4876344   396578 
 6128000   0.89622569   -3.2225742   -1.7343258  0.059897381   -3.2225742    1.4882484   396604 
 6129000   0.89691659   -3.2238172   -1.7342187  0.056094445   -3.2238172    1.4895985   396550 
 6130000   0.89682972   -3.2260999   -1.7366381  0.051900098   -3.2260999    1.4894618   396548 
 6131000   0.89620045    -3.226222   -1.7378166  0.053204954    -3.226222    1.4884054   396551 
 6132000   0.89604359   -3.2253724   -1.7372275  0.055201491   -3.2253724    1.4881449   396551 
 6133000     0.896592   -3.2259585   -1.7368277  0.053308477   -3.2259585    1.4891308   396531 
 6134000   0.89575452   -3.2251497   -1.7372897  0.055937996   -3.2251497    1.4878599   396499 
 6135000    0.8961508   -3.2248563   -1.7362706  0.054894516   -3.2248563    1.4885857   396481 
 6136000   0.89566572   -3.2249661   -1.7371111  0.056552617   -3.2249661     1.487855   396461 
 6137000   0.89594416   -3.2255161   -1.7371235  0.057379679   -3.2255161    1.4883926   396441 
 6138000   0.89574302    -3.225372   -1.7373135  0.059093334    -3.225372    1.4880585   396441 
 6139000    0.8963649   -3.2257633   -1.7366642  0.055784761   -3.2257633    1.4890991   396439 
 6140000   0.89467196   -3.2241467   -1.7378675  0.057558171   -3.2241467    1.4862792   396441 
 6141000   0.89624411   -3.2266432   -1.7376734  0.055726816   -3.2266432    1.4889698   396420 
 6142000   0.89461196   -3.2236579    -1.737276  0.061730025   -3.2236579     1.486382   396387 
 6143000   0.89511482   -3.2242135   -1.7368197  0.052789118   -3.2242135    1.4873938   396340 
 6144000   0.89547089   -3.2247813   -1.7367695  0.059060695   -3.2247813    1.4880118   396333 
 6145000   0.89573076   -3.2261428   -1.7376992  0.057653115   -3.2261428    1.4884436   396333 
 6146000   0.89478258   -3.2252553   -1.7383573  0.059079265   -3.2252553     1.486898   396325 
 6147000   0.89621751   -3.2261649   -1.7370477  0.062025491   -3.2261649    1.4891172   396369 
 6148000    0.8984945    -3.229094   -1.7361935    0.0556452    -3.229094    1.4929005   396369 
 6149000   0.89637996   -3.2237746   -1.7344063  0.063711116   -3.2237746    1.4893683   396374 
 6150000    0.8978253   -3.2271627   -1.7354569  0.053743322   -3.2271627    1.4917058   396391 
 6151000   0.89650074   -3.2252242   -1.7356628  0.054043894   -3.2252242    1.4895615   396376 
 6152000   0.89611026    -3.223204   -1.7343627  0.060045457    -3.223204    1.4888413   396395 
 6153000   0.89428612   -3.2211342   -1.7354135  0.060441654   -3.2211342    1.4857207   396419 
 6154000    0.8954364   -3.2223273   -1.7347182  0.059890682   -3.2223273    1.4876092   396425 
 6155000   0.89624596   -3.2228747   -1.7337741  0.057678562   -3.2228747    1.4891006   396386 
 6156000   0.89572203   -3.2222713   -1.7339248  0.061465719   -3.2222713    1.4883465   396355 
 6157000   0.89542518   -3.2222705   -1.7344435  0.056789274   -3.2222705     1.487827   396362 
 6158000   0.89465687   -3.2222082   -1.7356391  0.057400756   -3.2222082    1.4865691   396357 
 6159000   0.89555039   -3.2234202   -1.7351749  0.052791584   -3.2234202    1.4882453   396306 
 6160000   0.89537165   -3.2219645   -1.7338961  0.054890568   -3.2219645    1.4880684   396274 
 6161000   0.89434446   -3.2215035   -1.7351723   0.06177976   -3.2215035    1.4863313   396282 
 6162000   0.89404338   -3.2233163   -1.7374367   0.05812563   -3.2233163    1.4858796   396269 
 6163000   0.89390692   -3.2225457   -1.7367542  0.054650509   -3.2225457    1.4857916   396232 
 6164000   0.89432014   -3.2228693   -1.7363422  0.057527171   -3.2228693    1.4865271   396219 
 6165000   0.89491624   -3.2242105   -1.7365761  0.056383549   -3.2242105    1.4876344   396188 
 6166000    0.8930509   -3.2220534   -1.7375647  0.056361382   -3.2220534    1.4844886   396200 
 6167000   0.89406269   -3.2237983    -1.737639  0.054993942   -3.2237983    1.4861592   396203 
 6168000   0.89455131   -3.2230366   -1.7361139    0.0533462   -3.2230366    1.4869227   396216 
 6169000   0.89482614   -3.2244702   -1.7371471  0.056167333   -3.2244702    1.4873232   396231 
 6170000   0.89436591   -3.2210095   -1.7345001  0.058808582   -3.2210095    1.4865094   396244 
 6171000   0.89433307   -3.2219785   -1.7355912  0.055834165   -3.2219785    1.4863873   396262 
 6172000   0.89510934   -3.2235243   -1.7357529  0.058640514   -3.2235243    1.4877714   396237 
 6173000   0.89631852   -3.2270461   -1.7372988    0.0518023   -3.2270461    1.4897473   396246 
 6174000   0.89651744   -3.2258769   -1.7355883  0.061568221   -3.2258769    1.4902886   396190 
 6175000   0.89576387   -3.2244989   -1.7355269  0.061529368   -3.2244989     1.488972   396207 
 6176000   0.89654199   -3.2250072   -1.7348245   0.06212937   -3.2250072    1.4901827   396229 
 6177000   0.89622302   -3.2261086   -1.7362192  0.063761427   -3.2261086    1.4898894   396166 
 6178000   0.89609764   -3.2257937   -1.7360826  0.053082217   -3.2257937     1.489711   396158 
 6179000   0.89567124    -3.225136   -1.7361715  0.059087884    -3.225136    1.4889646   396168 
 6180000    0.8965056   -3.2265701   -1.7361207  0.053314666   -3.2265701    1.4904494   396142 
 6181000   0.89465709    -3.223887   -1.7364243  0.055259888    -3.223887    1.4874626   396119 
 6182000   0.89449884   -3.2233456   -1.7361385  0.059831695   -3.2233456     1.487207   396117 
 6183000   0.89496034   -3.2242898   -1.7363943  0.053812817   -3.2242898    1.4878955   396138 
 6184000   0.89521178   -3.2245684   -1.7362437  0.062075887   -3.2245684    1.4883248   396135 
 6185000   0.89539209   -3.2244865   -1.7358582  0.057166794   -3.2244865    1.4886283   396134 
 6186000   0.89424675   -3.2237774   -1.7369332  0.054540171   -3.2237774    1.4868442   396102 
 6187000   0.89493612   -3.2240103   -1.7361589  0.056556023   -3.2240103    1.4878514   396139 
 6188000   0.89484967   -3.2236499    -1.735976  0.053537298   -3.2236499    1.4876739   396148 
 6189000   0.89381784   -3.2216469   -1.7356396  0.053716923   -3.2216469    1.4860073   396135 
 6190000   0.89515311   -3.2236357   -1.7351116  0.057688993   -3.2236357    1.4885241   396056 
 6191000   0.89357527   -3.2209766     -1.73508  0.059113546   -3.2209766    1.4858966   396057 
 6192000   0.89440614    -3.222466   -1.7352178  0.060136253    -3.222466    1.4872482   396065 
 6193000   0.89557148   -3.2227455   -1.7335107  0.062759114   -3.2227455    1.4892348   396052 
 6194000   0.89468666   -3.2223841   -1.7346544  0.063376448   -3.2223841    1.4877296   396061 
 6195000   0.89523405   -3.2228893   -1.7342307  0.060089513   -3.2228893    1.4886587   396056 
 6196000   0.89514797   -3.2216593   -1.7332866  0.055937758   -3.2216593    1.4883727   396094 
 6197000   0.89486794   -3.2203285   -1.7324101  0.060951103   -3.2203285    1.4879184   396091 
 6198000    0.8956809   -3.2211661   -1.7319373  0.056222866   -3.2211661    1.4892287   396102 
 6199000   0.89325005   -3.2177066   -1.7323958  0.057810216   -3.2177066    1.4853108   396069 
 6200000   0.89418217   -3.2207378   -1.7337908  0.054734403   -3.2207378    1.4869471   396046 
 6201000   0.89344896   -3.2190399   -1.7334321  0.057265705   -3.2190399    1.4856078   396078 
 6202000   0.89547086    -3.222384   -1.7334331   0.05227898    -3.222384    1.4889509   396083 
 6203000   0.89633744   -3.2239114   -1.7334179  0.055932903   -3.2239114    1.4904934   396056 
 6204000   0.89589723   -3.2245135   -1.7348724  0.058605084   -3.2245135    1.4896411   396088 
 6205000     0.893979   -3.2217064   -1.7352886  0.058500255   -3.2217064    1.4864178   396097 
 6206000   0.89364619   -3.2208554   -1.7349648  0.060418361   -3.2208554    1.4858907   396090 
 6207000   0.89358313   -3.2219872   -1.7361713  0.056302005   -3.2219872    1.4858159   396082 
 6208000   0.89427707   -3.2228052   -1.7356778  0.057717888   -3.2228052    1.4871274   396040 
 6209000   0.89416691   -3.2230194   -1.7356846  0.054525712   -3.2230194    1.4873348   395936 
 6210000   0.89275831   -3.2209541   -1.7358385  0.059924834   -3.2209541    1.4851155   395903 
 6211000   0.89406711   -3.2238504   -1.7367042   0.06116689   -3.2238504    1.4871462   395942 
 6212000   0.89376726    -3.223506   -1.7367571  0.057861931    -3.223506    1.4867489   395915 
 6213000   0.89453216   -3.2264847   -1.7383845  0.051736221   -3.2264847    1.4881002   395894 
 6214000   0.89437081   -3.2245796   -1.7367779  0.060077576   -3.2245796    1.4878017   395902 
 6215000   0.89478775   -3.2261047   -1.7376733  0.061296599   -3.2261047    1.4884314   395919 
 6216000   0.89445253   -3.2254142   -1.7375405  0.059665029   -3.2254142    1.4878738   395919 
 6217000   0.89591139    -3.227528   -1.7371936  0.056727637    -3.227528    1.4903344   395910 
 6218000   0.89435889   -3.2245753   -1.7368724  0.062698411   -3.2245753     1.487703   395923 
 6219000   0.89391115   -3.2261578   -1.7393987  0.057024057   -3.2261578    1.4867592   395976 
 6220000   0.89526475   -3.2252706   -1.7362262  0.058300224   -3.2252706    1.4890443   395967 
 6221000   0.89530575   -3.2265751   -1.7373836  0.057224772   -3.2265751    1.4891915   395946 
 6222000   0.89457292   -3.2268497   -1.7387381  0.057194538   -3.2268497    1.4881116   395909 
 6223000   0.89319834   -3.2250342   -1.7390215  0.062409709   -3.2250342    1.4860127   395859 
 6224000   0.89298663   -3.2261432    -1.740175  0.053514743   -3.2261432    1.4859683   395777 
 6225000   0.89449646    -3.226936   -1.7385756  0.052466808    -3.226936    1.4883604   395809 
 6226000   0.89255488   -3.2248413   -1.7397266  0.057174974   -3.2248413    1.4851147   395813 
 6227000   0.89458639   -3.2278285   -1.7394651   0.05234402   -3.2278285    1.4883633   395848 
 6228000   0.89457563   -3.2281985   -1.7397892  0.059123123   -3.2281985    1.4884094   395831 
 6229000   0.89333353   -3.2264285    -1.740022  0.055711191   -3.2264285    1.4864066   395814 
 6230000   0.89429834   -3.2265121   -1.7385528  0.052738944   -3.2265121    1.4879593   395828 
 6231000   0.89434653   -3.2255414   -1.7373854  0.054946604   -3.2255414     1.488156   395797 
 6232000   0.89606113   -3.2268322   -1.7358421  0.058067037   -3.2268322    1.4909902   395802 
 6233000   0.89432689     -3.22653   -1.7383616  0.058818669     -3.22653    1.4881684   395785 
 6234000    0.8960362   -3.2281303   -1.7370911  0.059981315   -3.2281303    1.4910391   395778 
 6235000   0.89551539   -3.2268514   -1.7365886  0.061352353   -3.2268514    1.4902628   395754 
 6236000   0.89545799   -3.2263779   -1.7362972  0.061297596   -3.2263779    1.4900807   395777 
 6237000   0.89485303    -3.226798   -1.7378518  0.056948766    -3.226798    1.4889461   395811 
 6238000   0.89522204    -3.225424   -1.7358752  0.058866367    -3.225424    1.4895488   395814 
 6239000    0.8955793   -3.2249422   -1.7346671  0.062006235   -3.2249422    1.4902751   395779 
 6240000   0.89460327   -3.2242897   -1.7355523  0.057864137   -3.2242897    1.4887374   395756 
 6241000   0.89434336    -3.222399   -1.7340677  0.055050846    -3.222399    1.4883312   395749 
 6242000   0.89547407   -3.2231465   -1.7329298  0.060234406   -3.2231465    1.4902167   395748 
 6243000   0.89486054   -3.2248802   -1.7355641  0.054578742   -3.2248802    1.4893161   395716 
 6244000   0.89335169   -3.2236349   -1.7367811  0.061355606   -3.2236349    1.4868537   395703 
 6245000   0.89224793   -3.2235153   -1.7383935   0.05484432   -3.2235153    1.4851218   395675 
 6246000   0.89383443   -3.2264758   -1.7386156  0.051289858   -3.2264758    1.4878602   395649 
 6247000   0.89281034   -3.2240136   -1.7377979  0.056658439   -3.2240136    1.4862157   395633 
 6248000   0.89254128   -3.2237824   -1.7379433  0.055564739   -3.2237824    1.4858391   395614 
 6249000    0.8945016   -3.2252078   -1.7361166   0.05492337   -3.2252078    1.4890912   395617 
 6250000   0.89375548   -3.2236357   -1.7357452  0.054725247   -3.2236357    1.4878905   395606 
 6251000   0.89193106   -3.2223525   -1.7374804  0.051182476   -3.2223525    1.4848721   395601 
 6252000   0.89276089   -3.2231809   -1.7367545  0.059641845   -3.2231809    1.4864264   395555 
 6253000   0.89421611   -3.2250552   -1.7360816  0.059259941   -3.2250552    1.4889735   395522 
 6254000   0.89357508   -3.2222304   -1.7343845   0.06272201   -3.2222304     1.487846   395538 
 6255000   0.89364807   -3.2234147   -1.7354623  0.060961171   -3.2234147    1.4879524   395542 
 6256000   0.89297351   -3.2221878   -1.7352458  0.058859918   -3.2221878    1.4869421   395512 
 6257000     0.893847   -3.2241428   -1.7358328  0.055743924   -3.2241428      1.48831   395535 
 6258000   0.89442259   -3.2252645   -1.7358003  0.059210201   -3.2252645    1.4894642   395483 
 6259000   0.89482718   -3.2250043   -1.7347722  0.060688725   -3.2250043    1.4902322   395458 
 6260000   0.89564474   -3.2269058   -1.7350819    0.0584203   -3.2269058    1.4918238   395397 
 6261000   0.89421782   -3.2241489   -1.7347319  0.057235164   -3.2241489     1.489417   395405 
 6262000    0.8936711   -3.2246772   -1.7361708  0.057217807   -3.2246772    1.4885063   395405 
 6263000   0.89363553   -3.2239263   -1.7354491  0.054399325   -3.2239263    1.4884772   395397 
 6264000   0.89339989   -3.2235392   -1.7356615  0.059064057   -3.2235392    1.4878778   395452 
 6265000   0.89406072   -3.2232469   -1.7343853  0.055223595   -3.2232469    1.4888616   395483 
 6266000   0.89248509   -3.2210169   -1.7346476  0.054454096   -3.2210169    1.4863693   395448 
 6267000   0.89126068    -3.221102   -1.7365016   0.05607948    -3.221102    1.4846004   395376 
 6268000   0.89407368   -3.2241581   -1.7348042  0.059727926   -3.2241581    1.4893539   395358 
 6269000   0.89410574   -3.2248724   -1.7353294   0.06081429   -3.2248724     1.489543   395322 
 6270000   0.89460105   -3.2255763   -1.7352987  0.055576198   -3.2255763    1.4902776   395346 
 6271000   0.89442746   -3.2261108   -1.7360734  0.056856646   -3.2261108    1.4900375   395333 
 6272000   0.89488196     -3.22543   -1.7344996  0.059048148     -3.22543    1.4909304   395297 
 6273000     0.893747   -3.2230508   -1.7341055   0.05886207   -3.2230508    1.4889453   395322 
 6274000   0.89512453   -3.2260179   -1.7348532  0.058668031   -3.2260179    1.4911648   395342 
 6275000   0.89259116    -3.222184   -1.7350363  0.057628445    -3.222184    1.4871476   395288 
 6276000   0.89345814   -3.2234415   -1.7348268  0.052760907   -3.2234415    1.4886147   395282 
 6277000   0.89226776   -3.2214788   -1.7348888  0.058088814   -3.2214788      1.48659   395293 
 6278000   0.89372705   -3.2257847   -1.7366429  0.052374034   -3.2257847    1.4891418   395261 
 6279000   0.89259911   -3.2230204   -1.7357994  0.056803289   -3.2230204    1.4872211   395272 
 6280000   0.89094778   -3.2216585    -1.737125  0.055350655   -3.2216585    1.4845335   395255 
 6281000   0.89304521   -3.2242986   -1.7363983  0.057891935   -3.2242986    1.4879004   395289 
 6282000   0.89308368   -3.2224528   -1.7344582  0.056937776   -3.2224528    1.4879946   395281 
 6283000   0.89227956   -3.2224097   -1.7355894  0.057159902   -3.2224097    1.4868203   395237 
 6284000   0.89452159    -3.224269   -1.7336336  0.059248039    -3.224269    1.4906354   395216 
 6285000   0.89503496   -3.2255744   -1.7341891  0.060894314   -3.2255744    1.4913853   395244 
 6286000   0.89364615   -3.2224348   -1.7334089  0.065083452   -3.2224348    1.4890259   395256 
 6287000   0.89451042    -3.222033    -1.731665  0.060825366    -3.222033    1.4903679   395282 
 6288000   0.89488756    -3.223537   -1.7326539  0.058358488    -3.223537    1.4908831   395312 
 6289000   0.89454867   -3.2236991   -1.7333466  0.062356952   -3.2236991    1.4903525   395303 
 6290000   0.89314207    -3.223264   -1.7351646  0.064613739    -3.223264    1.4880994   395279 
 6291000   0.89444479   -3.2257476   -1.7354324  0.059842748   -3.2257476    1.4903151   395267 
 6292000   0.89376828   -3.2237763   -1.7346223  0.057908993   -3.2237763     1.489154   395276 
 6293000   0.89289404   -3.2230271   -1.7353109  0.056666774   -3.2230271    1.4877162   395271 
 6294000   0.89168329   -3.2219233   -1.7363897  0.054794127   -3.2219233    1.4855336   395315 
 6295000   0.89091978   -3.2198366   -1.7355149  0.057988514   -3.2198366    1.4843216   395299 
 6296000   0.89130976   -3.2215977   -1.7366527  0.053644681   -3.2215977    1.4849451   395306 
 6297000    0.8921985    -3.222548   -1.7362501  0.053198212    -3.222548    1.4862979   395340 
 6298000   0.89357776   -3.2232277   -1.7346773  0.058644576   -3.2232277    1.4885504   395352 
 6299000   0.89392536   -3.2217001   -1.7324991  0.060567735   -3.2217001     1.489201   395333 
 6300000   0.89334137   -3.2211498    -1.733027  0.056941963   -3.2211498    1.4881227   395361 
 6301000   0.89413478   -3.2211525   -1.7319831   0.05735497   -3.2211525    1.4891694   395434 
 6302000   0.89544676   -3.2231368   -1.7317596  0.055115547   -3.2231368    1.4913771   395428 
 6303000   0.89501293   -3.2220721   -1.7312931  0.058552756   -3.2220721     1.490779   395395 
 6304000   0.89443322   -3.2216315   -1.7318784   0.06104799   -3.2216315    1.4897531   395411 
 6305000   0.89422628   -3.2202271   -1.7308902  0.064999081   -3.2202271    1.4893369   395430 
 6306000   0.89412269   -3.2220081   -1.7326705  0.059011067   -3.2220081    1.4893376   395384 
 6307000   0.89298402   -3.2222882   -1.7348886  0.058362357   -3.2222882    1.4873995   395395 
 6308000   0.89262714   -3.2232378   -1.7364515  0.054951643   -3.2232378    1.4867863   395400 
 6309000   0.89297088   -3.2244712   -1.7372364  0.053788875   -3.2244712    1.4872347   395433 
 6310000    0.8933642   -3.2234151   -1.7355592  0.058051502   -3.2234151    1.4878559   395442 
 6311000   0.89315668   -3.2227664     -1.73532  0.054270647   -3.2227664    1.4874464   395459 
 6312000   0.89215699   -3.2222239   -1.7363184  0.058107074   -3.2222239    1.4859055   395426 
 6313000   0.89381349    -3.224448   -1.7358701  0.059257574    -3.224448    1.4885779   395449 
 6314000   0.89455889   -3.2247265   -1.7350277  0.057582978   -3.2247265    1.4896987   395481 
 6315000   0.89341058   -3.2228688   -1.7349168  0.060402004   -3.2228688     1.487952   395437 
 6316000   0.89561364   -3.2280547   -1.7363732  0.060218983   -3.2280547    1.4916815   395421 
 6317000   0.89535775   -3.2260348   -1.7347493  0.059227117   -3.2260348    1.4912855   395413 
 6318000   0.89443433   -3.2248248   -1.7351263  0.059347902   -3.2248248    1.4896985   395426 
 6319000   0.89465563   -3.2249845   -1.7348345  0.058988406   -3.2249845      1.49015   395404 
 6320000   0.89454922   -3.2253514   -1.7351752  0.059071537   -3.2253514    1.4901762   395350 
 6321000   0.89488007    -3.224239   -1.7335795  0.057973157    -3.224239    1.4906595   395368 
 6322000   0.89512747   -3.2254968   -1.7344743  0.062964595   -3.2254968    1.4910226   395381 
 6323000   0.89284875   -3.2235004    -1.736202   0.05852095   -3.2235004    1.4872984   395362 
 6324000   0.89339129   -3.2216982   -1.7334208  0.058483784   -3.2216982    1.4882774   395342 
 6325000   0.89434633   -3.2241118   -1.7342322  0.056979387   -3.2241118    1.4898797   395339 
 6326000   0.89285887   -3.2236725   -1.7363799  0.054111286   -3.2236725    1.4872927   395368 
 6327000   0.89278083   -3.2216663   -1.7345751  0.059638485   -3.2216663    1.4870912   395387 
 6328000   0.89398155   -3.2235467   -1.7343048  0.054485098   -3.2235467    1.4892419   395347 
 6329000   0.89370809   -3.2227019   -1.7338289  0.056921278   -3.2227019     1.488873   395324 
 6330000   0.89335825   -3.2217303   -1.7332482  0.056097091   -3.2217303    1.4884822   395273 
 6331000   0.89394107   -3.2215585   -1.7320449  0.055157934   -3.2215585    1.4895135   395257 
 6332000   0.89409644   -3.2210504   -1.7313496  0.060529745   -3.2210504    1.4897008   395276 
 6333000   0.89439387   -3.2217709   -1.7316235  0.056733213   -3.2217709    1.4901474   395289 
 6334000   0.89487725   -3.2210469   -1.7302828  0.061165449   -3.2210469    1.4907641   395339 
 6335000   0.89458009   -3.2228824   -1.7322815  0.059062829   -3.2228824    1.4906009   395251 
 6336000   0.89446078   -3.2206727   -1.7303083  0.059810247   -3.2206727    1.4903644   395261 
 6337000   0.89485165   -3.2221187   -1.7309295  0.053126542   -3.2221187    1.4911892   395215 
 6338000    0.8937513   -3.2199671   -1.7305437   0.05934611   -3.2199671    1.4894234   395197 
 6339000    0.8930589   -3.2194904   -1.7311417  0.056827575   -3.2194904    1.4883486   395176 
 6340000    0.8926587   -3.2182939   -1.7305482  0.056706522   -3.2182939    1.4877457   395159 
 6341000   0.89149821   -3.2176913   -1.7318234  0.050154519   -3.2176913     1.485868   395144 
 6342000   0.89196295   -3.2174412   -1.7307271  0.056089084   -3.2174412     1.486714   395125 
 6343000   0.89227526   -3.2171906   -1.7298281  0.054336053   -3.2171906    1.4873626   395091 
 6344000   0.89204924   -3.2181841   -1.7310251  0.050986709   -3.2181841     1.487159   395045 
 6345000    0.8911433   -3.2163383   -1.7306333  0.052246222   -3.2163383     1.485705   395030 
 6346000   0.89276724   -3.2185304   -1.7301141  0.051196647   -3.2185304    1.4884162   395029 
 6347000   0.89258784   -3.2178281   -1.7296695  0.052036716   -3.2178281    1.4881586   395018 
 6348000   0.89266065   -3.2184506   -1.7302422    0.0535469   -3.2184506    1.4882084   395037 
 6349000   0.89223532   -3.2177453     -1.73031   0.05821194   -3.2177453    1.4874353   395054 
 6350000    0.8915671   -3.2161978   -1.7298088  0.053348897   -3.2161978     1.486389   395036 
 6351000   0.89204976   -3.2175575   -1.7303563  0.058329069   -3.2175575    1.4872012   395034 
 6352000   0.89237369   -3.2181436   -1.7303383  0.056587908   -3.2181436    1.4878053   395017 
 6353000   0.89384786   -3.2191547   -1.7289331  0.054799711   -3.2191547    1.4902216   395028 
 6354000   0.89341928   -3.2186127   -1.7290453  0.059989347   -3.2186127    1.4895674   395012 
 6355000   0.89238375   -3.2160924   -1.7281121  0.057767407   -3.2160924    1.4879803   394975 
 6356000   0.89234692   -3.2185995   -1.7306693  0.055655389   -3.2185995    1.4879302   394972 
 6357000    0.8926804   -3.2192637   -1.7306682  0.059766597   -3.2192637    1.4885955   394943 
 6358000   0.89333295   -3.2196932   -1.7300548  0.062704215   -3.2196932    1.4896384   394955 
 6359000   0.89306379    -3.219602   -1.7304464   0.05617866    -3.219602    1.4891557   394964 
 6360000   0.89179463   -3.2194872   -1.7323989  0.059752838   -3.2194872    1.4870883   394951 
 6361000   0.89309409   -3.2206043   -1.7312398  0.054836888   -3.2206043    1.4893646   394922 
 6362000   0.89231151   -3.2190269   -1.7310126  0.056725666   -3.2190269    1.4880143   394934 
 6363000   0.89222858   -3.2185167   -1.7307311  0.062273163   -3.2185167    1.4877856   394958 
 6364000   0.89357934   -3.2213537    -1.731312  0.053372706   -3.2213537    1.4900417   394957 
 6365000   0.89184398   -3.2178683   -1.7308483  0.058150287   -3.2178683      1.48702   394991 
 6366000   0.89154947   -3.2182225   -1.7314601  0.060741169   -3.2182225    1.4867623   394929 
 6367000   0.89266214    -3.219337   -1.7306551  0.059740097    -3.219337    1.4886819   394912 
 6368000   0.89301465    -3.219465   -1.7301876  0.060228732    -3.219465    1.4892773   394910 
 6369000   0.89318375   -3.2199954   -1.7305191   0.05448048   -3.2199954    1.4894764   394932 
 6370000   0.89074961   -3.2173616   -1.7319632  0.058638531   -3.2173616    1.4853984   394937 
 6371000   0.89161473   -3.2171287   -1.7303667  0.056404839   -3.2171287     1.486762   394958 
 6372000   0.89059389   -3.2172433    -1.732097  0.052503927   -3.2172433    1.4851462   394935 
 6373000   0.89043846   -3.2184677   -1.7334791  0.054586069   -3.2184677    1.4849886   394908 
 6374000   0.89027413   -3.2165363   -1.7318669  0.052108579   -3.2165363    1.4846694   394920 
 6375000   0.89030881   -3.2172959   -1.7326025  0.055545566   -3.2172959    1.4846934   394929 
 6376000    0.8904474   -3.2181903   -1.7332432  0.053514114   -3.2181903    1.4849471   394923 
 6377000   0.89096428    -3.220081    -1.734351  0.055056075    -3.220081      1.48573   394944 
 6378000   0.89202777   -3.2208654   -1.7333468  0.051873746   -3.2208654    1.4875185   394940 
 6379000   0.89095911   -3.2179561   -1.7321933  0.055672665   -3.2179561    1.4857628   394933 
 6380000   0.89200449   -3.2184639   -1.7308637  0.058606094   -3.2184639    1.4876002   394908 
 6381000   0.89159819   -3.2180939    -1.730998  0.057776223   -3.2180939    1.4870959   394862 
 6382000   0.89397078   -3.2213013   -1.7303464  0.054598737   -3.2213013    1.4909549   394888 
 6383000   0.89480343   -3.2205418    -1.728236   0.05495431   -3.2205418    1.4923058   394898 
 6384000    0.8942931   -3.2220121   -1.7304138  0.058454131   -3.2220121    1.4915983   394860 
 6385000   0.89250109   -3.2203144   -1.7317389  0.061634956   -3.2203144    1.4885754   394869 
 6386000   0.89376651   -3.2214691   -1.7309001  0.056588603   -3.2214691     1.490569   394900 
 6387000   0.89290905   -3.2214381    -1.732269  0.063694425   -3.2214381    1.4891691   394892 
 6388000   0.89345366   -3.2229981   -1.7328527  0.059748309   -3.2229981    1.4901453   394874 
 6389000   0.89249537   -3.2205144   -1.7318392  0.060724142   -3.2205144    1.4886752   394840 
 6390000   0.89153419   -3.2199583   -1.7329428  0.056835803   -3.2199583    1.4870155   394855 
 6391000   0.89306285   -3.2240042    -1.734556   0.05805592   -3.2240042    1.4894483   394886 
 6392000   0.89195151   -3.2233655    -1.735669  0.055589689   -3.2233655    1.4876965   394859 
 6393000   0.89333022   -3.2238036    -1.733717  0.053723398   -3.2238036    1.4900866   394835 
 6394000   0.89351681   -3.2234514    -1.732978   0.06106373   -3.2234514    1.4904734   394815 
 6395000   0.89520466   -3.2266413   -1.7332541  0.054431579   -3.2266413    1.4933872   394789 
 6396000   0.89374016   -3.2245899   -1.7337704  0.061763576   -3.2245899    1.4908195   394822 
 6397000   0.89403868   -3.2265762   -1.7352361  0.060110718   -3.2265762    1.4913401   394816 
 6398000   0.89171772   -3.2222085   -1.7347438  0.058944718   -3.2222085    1.4874648   394817 
 6399000   0.89304217   -3.2248121   -1.7349645  0.058062306   -3.2248121    1.4898476   394771 
 6400000   0.89192986   -3.2203922   -1.7323286  0.055854151   -3.2203922    1.4880636   394752 
 6401000   0.89223166   -3.2208528   -1.7321801  0.057655749   -3.2208528    1.4886727   394724 
 6402000    0.8926226   -3.2206098   -1.7312848  0.054172859   -3.2206098     1.489325   394724 
 6403000   0.89008456   -3.2190985   -1.7338728   0.05930737   -3.2190985    1.4852258   394688 
 6404000   0.89194116   -3.2222816   -1.7339692  0.054579964   -3.2222816    1.4883124   394691 
 6405000   0.89241686   -3.2217647   -1.7328848  0.058478677   -3.2217647    1.4888799   394751 
 6406000   0.89243035   -3.2223939   -1.7334726  0.055480007   -3.2223939    1.4889212   394746 
 6407000   0.89194529   -3.2218846   -1.7335238  0.060817837   -3.2218846    1.4883608   394680 
 6408000   0.89243764   -3.2216929   -1.7325596  0.054333719   -3.2216929    1.4891333   394693 
 6409000   0.89218007    -3.220158    -1.731296  0.056813586    -3.220158     1.488862   394651 
 6410000   0.89302831   -3.2200415   -1.7298319  0.059021794   -3.2200415    1.4902096   394669 
 6411000   0.89070498   -3.2162126   -1.7299704  0.056175868   -3.2162126    1.4862422   394693 
 6412000   0.89124237   -3.2194583    -1.732097  0.054424178   -3.2194583    1.4873612   394634 
 6413000   0.89190852   -3.2207946   -1.7320651  0.057318853   -3.2207946    1.4887295   394566 
 6414000   0.89229959   -3.2204577   -1.7311737  0.061710166   -3.2204577    1.4892841   394592 
 6415000    0.8930756   -3.2208667   -1.7302912  0.053920575   -3.2208667    1.4905755   394593 
 6416000   0.89217818   -3.2202784   -1.7311667  0.055178301   -3.2202784    1.4891116   394584 
 6417000   0.89218323   -3.2195704   -1.7303408  0.058255336   -3.2195704    1.4892295   394555 
 6418000   0.89374024    -3.221802   -1.7300945  0.055607114    -3.221802    1.4917075   394587 
 6419000   0.89221091   -3.2190851   -1.7297829  0.055726303   -3.2190851    1.4893022   394548 
 6420000   0.89211791    -3.218423   -1.7291024  0.061407094    -3.218423    1.4893205   394502 
 6421000   0.89193707   -3.2190031   -1.7298863  0.053426461   -3.2190031    1.4891168   394476 
 6422000   0.89116132   -3.2176391   -1.7299041   0.05533925   -3.2176391    1.4877349   394499 
 6423000   0.89265067   -3.2187899   -1.7285233  0.059591938   -3.2187899    1.4902666   394487 
 6424000   0.89169273   -3.2181107   -1.7293377  0.057658569   -3.2181107     1.488773   394459 
 6425000   0.89208266   -3.2183219   -1.7289621  0.052527719   -3.2183219    1.4893599   394476 
 6426000   0.89188588   -3.2187182   -1.7296454  0.056056122   -3.2187182    1.4890728   394465 
 6427000    0.8904304   -3.2177692   -1.7311263   0.05979373   -3.2177692    1.4866428   394465 
 6428000   0.89332404   -3.2218958   -1.7304105  0.053897077   -3.2218958    1.4914853   394462 
 6429000   0.89191752    -3.217769   -1.7286396  0.061441559    -3.217769    1.4891295   394464 
 6430000   0.89133242   -3.2171262    -1.729117  0.060307636   -3.2171262    1.4880092   394502 
 6431000   0.89120433   -3.2171144   -1.7293529  0.059728186   -3.2171144    1.4877615   394511 
 6432000    0.8919051   -3.2183966   -1.7294502  0.057070044   -3.2183966    1.4889464   394507 
 6433000   0.88969135   -3.2149293   -1.7297727   0.06326289   -3.2149293    1.4851567   394532 
 6434000   0.88948975    -3.216139   -1.7312925  0.053187767    -3.216139    1.4848465   394525 
 6435000   0.89170863   -3.2202192   -1.7315971  0.059530541   -3.2202192    1.4886222   394506 
 6436000   0.89088192   -3.2188183   -1.7315498  0.055564642   -3.2188183    1.4872685   394499 
 6437000   0.89012835   -3.2161964   -1.7302613   0.05948898   -3.2161964    1.4859351   394519 
 6438000   0.89138357   -3.2182603   -1.7301204  0.056824026   -3.2182603    1.4881399   394490 
 6439000    0.8918735   -3.2187419   -1.7298634  0.052753006   -3.2187419    1.4888786   394511 
 6440000   0.89163611    -3.217999   -1.7295657  0.060487814    -3.217999    1.4884332   394524 
 6441000   0.89093135   -3.2179768   -1.7307879  0.060806096   -3.2179768    1.4871889   394542 
 6442000   0.89115026   -3.2189379   -1.7313534  0.057518798   -3.2189379    1.4875845   394534 
 6443000   0.89232284   -3.2215136   -1.7318358  0.059376969   -3.2215136    1.4896778   394498 
 6444000   0.89102136   -3.2205834   -1.7329237  0.059019609   -3.2205834    1.4876596   394457 
 6445000   0.89024378   -3.2174802   -1.7310924  0.055908328   -3.2174802    1.4863878   394450 
 6446000   0.89105304   -3.2190221   -1.7311663   0.05843335   -3.2190221    1.4878559   394419 
 6447000   0.89215026   -3.2192709   -1.7294507  0.058642502   -3.2192709    1.4898202   394384 
 6448000   0.89121796   -3.2193889   -1.7311142  0.056717268   -3.2193889    1.4882746   394381 
 6449000   0.89067022   -3.2181129   -1.7307492  0.059114121   -3.2181129    1.4873637   394380 
 6450000    0.8919419   -3.2209244   -1.7313162  0.054152635   -3.2209244    1.4896082   394348 
 6451000   0.89159066   -3.2193198   -1.7301585  0.056528553   -3.2193198    1.4891613   394311 
 6452000   0.89250834   -3.2191834   -1.7284402  0.056265471   -3.2191834    1.4907432   394298 
 6453000    0.8915568   -3.2180422   -1.7288695  0.057078025   -3.2180422    1.4891728   394293 
 6454000    0.8917733   -3.2192105   -1.7296459  0.055485085   -3.2192105    1.4895646   394285 
 6455000   0.89113412   -3.2168058   -1.7283239  0.055097423   -3.2168058    1.4884818   394289 
 6456000   0.89053645   -3.2163068   -1.7287026  0.055655504   -3.2163068    1.4876043   394257 
 6457000   0.89185108   -3.2192146   -1.7293047  0.056447433   -3.2192146    1.4899099   394228 
 6458000   0.89036307    -3.217935   -1.7304317  0.057797817    -3.217935    1.4875033   394207 
 6459000   0.89082746   -3.2170024   -1.7287648  0.059883118   -3.2170024    1.4882376   394218 
 6460000   0.89079916   -3.2158723   -1.7276631  0.055575648   -3.2158723    1.4882092   394213 
 6461000   0.88876687   -3.2136176   -1.7288262  0.062851165   -3.2136176    1.4847914   394219 
 6462000   0.89002268   -3.2162366   -1.7293586  0.049642317   -3.2162366     1.486878   394222 
 6463000   0.88954626   -3.2153101   -1.7292393  0.056777451   -3.2153101    1.4860708   394225 
 6464000   0.88780543   -3.2134502   -1.7302048  0.056273656   -3.2134502    1.4832454   394203 
 6465000   0.88804422   -3.2133264   -1.7296632  0.051736332   -3.2133264    1.4836631   394198 
 6466000   0.88910899    -3.214598   -1.7291522  0.059893432    -3.214598    1.4854458   394197 
 6467000   0.89046706   -3.2158013   -1.7279733   0.06077206   -3.2158013     1.487828   394167 
 6468000   0.89026819   -3.2158009    -1.728241  0.057908243   -3.2158009    1.4875599   394150 
 6469000    0.8920049   -3.2186028   -1.7278498  0.060645353   -3.2186028     1.490753   394073 
 6470000   0.89099614   -3.2174191   -1.7281971  0.054400798   -3.2174191    1.4892221   394032 
 6471000   0.89085422   -3.2167121   -1.7277423  0.061005845   -3.2167121    1.4889697   394036 
 6472000   0.89019708   -3.2169951   -1.7290407   0.05607756   -3.2169951    1.4879545   394014 
 6473000   0.89035012   -3.2174538   -1.7292813  0.056211522   -3.2174538    1.4881725   394024 
 6474000   0.88834831   -3.2155591   -1.7307136  0.054365529   -3.2155591    1.4848454   394019 
 6475000   0.89036427   -3.2190411   -1.7307769  0.057508734   -3.2190411    1.4882641   394006 
 6476000   0.88874268   -3.2171635   -1.7314854  0.061037024   -3.2171635    1.4856781   393973 
 6477000   0.89004128   -3.2193817   -1.7314799  0.054132661   -3.2193817    1.4879017   393959 
 6478000   0.88929751   -3.2172514   -1.7303439  0.056938961   -3.2172514    1.4869075   393893 
 6479000   0.88944928   -3.2189323   -1.7316805  0.054597061   -3.2189323    1.4872519   393869 
 6480000   0.88816412   -3.2191259   -1.7339928  0.057331341   -3.2191259    1.4851331   393861 
 6481000   0.88869728   -3.2195461   -1.7336497   0.05998139   -3.2195461    1.4858963   393895 
 6482000   0.88861771   -3.2186114   -1.7326104  0.054594594   -3.2186114     1.486001   393832 
 6483000   0.88774858   -3.2176656   -1.7331859  0.058633685   -3.2176656    1.4844797   393850 
 6484000   0.88995816   -3.2215031   -1.7334004  0.051468925   -3.2215031    1.4881028   393869 
 6485000   0.88846013   -3.2184905   -1.7328926  0.055710166   -3.2184905    1.4855979   393869 
 6486000   0.88943872   -3.2201808   -1.7329882  0.052812692   -3.2201808    1.4871927   393880 
 6487000   0.89018738   -3.2224822   -1.7340264  0.055952246   -3.2224822    1.4884558   393877 
 6488000   0.88846807   -3.2198988   -1.7343932  0.054691834   -3.2198988    1.4855056   393897 
 6489000   0.89047122   -3.2208949   -1.7320137   0.05775429   -3.2208949    1.4888813   393890 
 6490000   0.88818479   -3.2190573   -1.7340216  0.052348705   -3.2190573    1.4850357   393896 
 6491000    0.8903018   -3.2219179   -1.7334106  0.057174873   -3.2219179    1.4885073   393914 
 6492000   0.88870303    -3.219953   -1.7340885  0.059286228    -3.219953    1.4858645   393906 
 6493000    0.8892181   -3.2191658   -1.7324213  0.057277703   -3.2191658    1.4867445   393901 
 6494000    0.8907433   -3.2212724   -1.7318455  0.062008536   -3.2212724    1.4894269   393866 
 6495000   0.88951085   -3.2190219   -1.7314405  0.053463529   -3.2190219    1.4875814   393809 
 6496000   0.89075066     -3.22215   -1.7325179  0.056055581     -3.22215    1.4896321   393815 
 6497000   0.89135684    -3.222936   -1.7323886  0.052312996    -3.222936    1.4905475   393841 
 6498000   0.89030672   -3.2198734   -1.7310669  0.059207448   -3.2198734    1.4888065   393837 
 6499000   0.88997583   -3.2197991   -1.7313947  0.064631516   -3.2197991    1.4884044   393797 
 6500000   0.89103975   -3.2225335   -1.7322401  0.054635695   -3.2225335    1.4902934   393768 
 6501000   0.88887115   -3.2192032   -1.7327255  0.059951968   -3.2192032    1.4864776   393818 
 6502000   0.88835876   -3.2181056   -1.7325188  0.058228716   -3.2181056    1.4855868   393827 
 6503000   0.88855856   -3.2196132   -1.7336847  0.053654929   -3.2196132    1.4859285   393825 
 6504000   0.89009148   -3.2209555   -1.7324484  0.055352965   -3.2209555    1.4885071   393821 
 6505000   0.88839015   -3.2174177   -1.7318199  0.057399622   -3.2174177    1.4855978   393838 
 6506000   0.88784369   -3.2168892   -1.7322505  0.055898233   -3.2168892    1.4846388   393850 
 6507000   0.88763269   -3.2155134   -1.7312463  0.057694005   -3.2155134    1.4842671   393855 
 6508000   0.88708893   -3.2161385   -1.7326828  0.054297071   -3.2161385    1.4834558   393829 
 6509000    0.8871471   -3.2165409   -1.7330406  0.056356391   -3.2165409    1.4835003   393843 
 6510000   0.88767409    -3.216818   -1.7323723  0.055407393    -3.216818    1.4844456   393826 
 6511000   0.88882327   -3.2188735   -1.7323929  0.053004262   -3.2188735    1.4864806   393796 
 6512000   0.88785264   -3.2174986   -1.7324716  0.053075101   -3.2174986     1.485027   393751 
 6513000   0.88897047   -3.2189292   -1.7321005  0.054033695   -3.2189292    1.4868287   393769 
 6514000   0.88885844   -3.2175566   -1.7308096  0.057418897   -3.2175566    1.4867471   393741 
 6515000   0.88825228   -3.2161416    -1.730382  0.052878662   -3.2161416    1.4857596   393734 
 6516000   0.88986501   -3.2170012   -1.7283966  0.061777883   -3.2170012    1.4886046   393695 
 6517000   0.89023854   -3.2169044   -1.7276106  0.056541728   -3.2169044    1.4892938   393678 
 6518000   0.89014294   -3.2181259   -1.7289921  0.058977801   -3.2181259    1.4891339   393678 
 6519000   0.88809723   -3.2155029   -1.7298517  0.056623465   -3.2155029    1.4856512   393694 
 6520000   0.88825654   -3.2169149   -1.7308915  0.053580996   -3.2169149    1.4860234   393666 
 6521000   0.88895494   -3.2183776   -1.7310914  0.055198439   -3.2183776    1.4872862   393641 
 6522000    0.8905954   -3.2197661   -1.7297315  0.053273048   -3.2197661    1.4900346   393640 
 6523000   0.89018472   -3.2183948   -1.7290586  0.055850204   -3.2183948    1.4893362   393643 
 6524000    0.8897238   -3.2179819   -1.7292618  0.056967215   -3.2179819    1.4887201   393602 
 6525000     0.888629   -3.2164819   -1.7297939  0.053035537   -3.2164819     1.486688   393655 
 6526000   0.88767057   -3.2151305   -1.7300686  0.059877328   -3.2151305    1.4850619   393661 
 6527000   0.88832088   -3.2156017   -1.7293952  0.057378822   -3.2156017    1.4862065   393646 
 6528000   0.88840865    -3.217794   -1.7313916  0.056763294    -3.217794    1.4864024   393633 
 6529000   0.88745504   -3.2171081   -1.7319918  0.059028395   -3.2171081    1.4851163   393551 
 6530000   0.88834861   -3.2187126    -1.732116  0.055106235   -3.2187126    1.4865966   393555 
 6531000   0.88733663   -3.2162373   -1.7314398  0.055644282   -3.2162373    1.4847974   393583 
 6532000    0.8883495   -3.2189156   -1.7323251  0.053478584   -3.2189156    1.4865905   393557 
 6533000   0.88844864   -3.2196813   -1.7327624  0.058963064   -3.2196813    1.4869189   393514 
 6534000   0.88814129   -3.2189133    -1.732437  0.050921801   -3.2189133    1.4864763   393495 
 6535000   0.88679109   -3.2159116   -1.7316537  0.056269361   -3.2159116    1.4842579   393484 
 6536000   0.88643073   -3.2152151   -1.7315151  0.054566588   -3.2152151       1.4837   393472 
 6537000   0.88824531   -3.2193117    -1.732616  0.057604771   -3.2193117    1.4866957   393483 
 6538000   0.88642687   -3.2168427   -1.7331793  0.056491245   -3.2168427    1.4836634   393480 
 6539000   0.88868712   -3.2202945   -1.7328253  0.056182722   -3.2202945    1.4874692   393474 
 6540000    0.8886401   -3.2213202   -1.7338616  0.056470815   -3.2213202    1.4874585   393456 
 6541000   0.88954855    -3.223288   -1.7341839  0.057677611    -3.223288     1.489104   393423 
 6542000   0.88960383   -3.2231989   -1.7339796  0.056776927   -3.2231989    1.4892193   393417 
 6543000   0.88836041   -3.2229579   -1.7356765  0.057354276   -3.2229579    1.4872814   393379 
 6544000   0.88755714   -3.2227564   -1.7366309   0.05912421   -3.2227564    1.4861255   393329 
 6545000   0.88849504   -3.2236975   -1.7360243  0.059566607   -3.2236975    1.4876732   393335 
 6546000   0.88779354   -3.2225145   -1.7358722  0.054000281   -3.2225145    1.4866423   393297 
 6547000   0.88990777   -3.2261228   -1.7360159  0.057935864   -3.2261228    1.4901069   393317 
 6548000   0.88728562   -3.2218613   -1.7361639  0.062571366   -3.2218613    1.4856973   393322 
 6549000   0.88717868    -3.221804   -1.7361951   0.05851178    -3.221804    1.4856089   393298 
 6550000   0.88803004     -3.22339   -1.7362723  0.058181708     -3.22339    1.4871177   393276 
 6551000   0.88729498   -3.2228366   -1.7367873  0.059759495   -3.2228366    1.4860492   393233 
 6552000   0.88859579    -3.222032   -1.7337019  0.059003413    -3.222032      1.48833   393206 
 6553000   0.88942335   -3.2242937   -1.7345851  0.061400204   -3.2242937    1.4897086   393208 
 6554000   0.89114143   -3.2277248   -1.7349602  0.056450705   -3.2277248    1.4927646   393161 
 6555000   0.88953177    -3.222925   -1.7329174  0.056536731    -3.222925    1.4900076   393177 
 6556000   0.88929348   -3.2247938   -1.7352156  0.056713323   -3.2247938    1.4895782   393185 
 6557000   0.88960164   -3.2235795   -1.7334738  0.055096632   -3.2235795    1.4901057   393182 
 6558000   0.88926407   -3.2226247   -1.7329329  0.058067189   -3.2226247    1.4896918   393142 
 6559000   0.88804874   -3.2218429    -1.734134  0.057699488   -3.2218429    1.4877089   393128 
 6560000   0.88709675   -3.2200442   -1.7340285  0.054819473   -3.2200442    1.4860158   393154 
 6561000   0.88794755   -3.2215764   -1.7341505  0.058964583   -3.2215764    1.4874259   393158 
 6562000   0.88756675   -3.2199826   -1.7332287  0.052443262   -3.2199826    1.4867539   393167 
 6563000   0.88710257   -3.2186722   -1.7326164  0.054285212   -3.2186722    1.4860558   393146 
 6564000   0.88751638   -3.2198853    -1.733072  0.056345373   -3.2198853    1.4868133   393129 
 6565000   0.88696401   -3.2182172   -1.7322953  0.051607331   -3.2182172    1.4859219   393120 
 6566000   0.88723715   -3.2184278   -1.7320672  0.060049682   -3.2184278    1.4863606   393125 
 6567000    0.8866688   -3.2197052   -1.7340511    0.0569067   -3.2197052    1.4856541   393060 
 6568000   0.88627265   -3.2181619   -1.7331035  0.054216881   -3.2181619    1.4850583   393042 
 6569000   0.88603616   -3.2175337   -1.7327659  0.055963995   -3.2175337    1.4847679   393014 
 6570000   0.88629239   -3.2182796   -1.7330332  0.053978345   -3.2182796    1.4852464   393001 
 6571000   0.88451816   -3.2154188    -1.733123  0.058306109   -3.2154188    1.4822957   392995 
 6572000    0.8864486   -3.2171896   -1.7316588   0.05362159   -3.2171896    1.4855308   392995 
 6573000   0.88805331   -3.2193784   -1.7310827  0.051123697   -3.2193784    1.4882958   392975 
 6574000   0.88680282   -3.2180128   -1.7318278  0.057233849   -3.2180128    1.4861849   392979 
 6575000   0.88787349   -3.2192076   -1.7312322  0.057725283   -3.2192076    1.4879755   392980 
 6576000   0.88735506   -3.2177695   -1.7307007  0.057713285   -3.2177695    1.4870688   392990 
 6577000   0.88851709   -3.2207774   -1.7315415  0.056682769   -3.2207774     1.489236   392932 
 6578000   0.88716749   -3.2199974    -1.732891  0.054296962   -3.2199974    1.4871064   392897 
 6579000   0.88620944   -3.2186511   -1.7329919  0.058221319   -3.2186511    1.4856593   392855 
 6580000   0.88635816   -3.2202201   -1.7343758  0.057170646   -3.2202201    1.4858443   392872 
 6581000   0.88569509   -3.2190265   -1.7342711  0.056497887   -3.2190265    1.4847554   392866 
 6582000    0.8857314    -3.218203     -1.73333  0.055729173    -3.218203     1.484873   392851 
 6583000   0.88619391   -3.2184263   -1.7326682  0.062626298   -3.2184263     1.485758   392822 
 6584000   0.88722463   -3.2213388   -1.7336293  0.055575888   -3.2213388    1.4877096   392763 
 6585000   0.88683763   -3.2205788   -1.7336431  0.057799534   -3.2205788    1.4869357   392796 
 6586000   0.88670559   -3.2202602   -1.7334588  0.059508874   -3.2202602    1.4868014   392773 
 6587000   0.88668502   -3.2203679   -1.7335253  0.062076593   -3.2203679    1.4868426   392753 
 6588000   0.88629893   -3.2196073   -1.7333175  0.060561027   -3.2196073    1.4862898   392728 
 6589000   0.88694619    -3.221085   -1.7337098  0.056381535    -3.221085    1.4873752   392728 
 6590000   0.88565297   -3.2199604   -1.7348068  0.054636402   -3.2199604    1.4851536   392742 
 6591000   0.88664641    -3.221711   -1.7348272  0.055684656    -3.221711    1.4868838   392725 
 6592000   0.88512268   -3.2195873   -1.7352511  0.052325587   -3.2195873    1.4843361   392723 
 6593000   0.88663065   -3.2195718   -1.7327976  0.057860389   -3.2195718    1.4867741   392747 
 6594000   0.88719486   -3.2203097   -1.7324985  0.057580985   -3.2203097    1.4878112   392723 
 6595000   0.88700849   -3.2197795   -1.7323793  0.060307949   -3.2197795    1.4874002   392749 
 6596000   0.88578609   -3.2190942   -1.7336342  0.060079883   -3.2190942      1.48546   392720 
 6597000   0.88569191   -3.2184522   -1.7331917  0.056320672   -3.2184522    1.4852605   392731 
 6598000   0.88622668   -3.2191643   -1.7331319  0.057213258   -3.2191643    1.4860324   392764 
 6599000   0.88749108    -3.220119   -1.7319134  0.055312097    -3.220119    1.4882056   392750 
 6600000   0.88683515   -3.2191642   -1.7319335  0.059939809   -3.2191642    1.4872306   392717 
 6601000    0.8867066   -3.2173657   -1.7303696  0.058722235   -3.2173657    1.4869961   392722 
 6602000   0.88715219   -3.2191848   -1.7314186  0.050979702   -3.2191848    1.4877661   392716 
 6603000   0.88646842   -3.2183454   -1.7316616  0.057587695   -3.2183454    1.4866838   392699 
 6604000   0.88745386   -3.2205385   -1.7322399  0.057921704   -3.2205385    1.4882986   392709 
 6605000   0.88660748   -3.2189486   -1.7319256   0.05748829   -3.2189486     1.487023   392671 
 6606000   0.88604203   -3.2172184   -1.7311134  0.055102562   -3.2172184    1.4861049   392663 
 6607000     0.886621   -3.2190096   -1.7319033  0.057707789   -3.2190096    1.4871063   392655 
 6608000   0.88475235   -3.2162925   -1.7321277  0.054629319   -3.2162925    1.4841648   392604 
 6609000   0.88536626   -3.2176406   -1.7324459  0.054604059   -3.2176406    1.4851947   392604 
 6610000   0.88554059   -3.2176917   -1.7323862  0.053368484   -3.2176917    1.4853055   392652 
 6611000   0.88463784   -3.2165394   -1.7327405  0.054924168   -3.2165394    1.4837989   392650 
 6612000   0.88448959   -3.2161147   -1.7326135  0.050066065   -3.2161147    1.4835011   392663 
 6613000   0.88509568   -3.2173946   -1.7327295  0.052491797   -3.2173946    1.4846651   392624 
 6614000   0.88639526   -3.2186852   -1.7319235  0.057496502   -3.2186852    1.4867618   392646 
 6615000   0.88578608   -3.2176615   -1.7318913  0.058271549   -3.2176615    1.4857702   392638 
 6616000   0.88509052   -3.2182976    -1.733558  0.050926527   -3.2182976    1.4847397   392602 
 6617000    0.8859057   -3.2187549   -1.7325909    0.0532586   -3.2187549    1.4861639   392587 
 6618000    0.8855807   -3.2180944   -1.7323924  0.053931516   -3.2180944     1.485702   392565 
 6619000   0.88691239    -3.220108   -1.7321454  0.060524196    -3.220108    1.4879626   392558 
 6620000   0.88566619    -3.218716   -1.7327722  0.061585749    -3.218716    1.4859438   392539 
 6621000   0.88521301   -3.2199252   -1.7346433  0.051065617   -3.2199252    1.4852819   392513 
 6622000   0.88481595   -3.2184847   -1.7339674  0.057313393   -3.2184847    1.4845173   392539 
 6623000   0.88561724   -3.2207567   -1.7347247  0.055992372   -3.2207567     1.486032   392494 
 6624000   0.88455239   -3.2190502    -1.734786  0.058642926   -3.2190502    1.4842642   392489 
 6625000   0.88637429    -3.221262   -1.7338953  0.060049747    -3.221262    1.4873668   392477 
 6626000   0.88678805    -3.220556   -1.7325594  0.060390533    -3.220556    1.4879966   392494 
 6627000   0.88860136   -3.2232271   -1.7320207  0.065305423   -3.2232271    1.4912064   392450 
 6628000   0.88729795   -3.2223821   -1.7333251  0.063093538   -3.2223821    1.4890571   392440 
 6629000   0.88738565   -3.2232481   -1.7340438  0.061620381   -3.2232481    1.4892042   392440 
 6630000   0.88753688   -3.2250856   -1.7354681  0.058122241   -3.2250856    1.4896175   392398 
 6631000   0.88729303   -3.2245537   -1.7352506  0.055548304   -3.2245537    1.4893031   392373 
 6632000   0.88908038   -3.2241084   -1.7318699  0.057403073   -3.2241084    1.4922384   392390 
 6633000   0.88638565   -3.2213882   -1.7335891  0.055652041   -3.2213882     1.487799   392368 
 6634000   0.88658085   -3.2217597   -1.7336065  0.059952748   -3.2217597    1.4881532   392361 
 6635000   0.88447773   -3.2200364   -1.7355306  0.060048238   -3.2200364    1.4845058   392392 
 6636000   0.88624192   -3.2221829   -1.7347237  0.059972431   -3.2221829    1.4874592   392394 
 6637000   0.88543336   -3.2196635    -1.733622  0.053422595   -3.2196635    1.4860415   392410 
 6638000   0.88490946   -3.2187328   -1.7336916  0.056298527   -3.2187328    1.4850412   392442 
 6639000   0.88579377   -3.2193506   -1.7329201   0.05486102   -3.2193506    1.4864305   392467 
 6640000   0.88510639    -3.218811   -1.7335227  0.053627159    -3.218811    1.4852884   392464 
 6641000   0.88419564   -3.2166672    -1.732926  0.052799098   -3.2166672    1.4837412   392469 
 6642000   0.88564171   -3.2176466    -1.731547  0.053061555   -3.2176466    1.4860996   392487 
 6643000   0.88585848   -3.2164156   -1.7300545  0.054115116   -3.2164156    1.4863611   392514 
 6644000    0.8858957   -3.2172727   -1.7307772  0.054827624   -3.2172727    1.4864955   392495 
 6645000   0.88530581   -3.2156084   -1.7300157  0.054944085   -3.2156084    1.4855927   392472 
 6646000   0.88550608   -3.2155359   -1.7295314  0.051683054   -3.2155359    1.4860045   392452 
 6647000   0.88689693   -3.2160813   -1.7275948   0.05791205   -3.2160813    1.4884865   392413 
 6648000   0.88839279   -3.2179043   -1.7267097  0.058516767   -3.2179043    1.4911946   392361 
 6649000   0.88870772   -3.2186431   -1.7269693  0.054968421   -3.2186431    1.4916738   392374 
 6650000   0.88676874   -3.2147899   -1.7262909  0.062958651   -3.2147899    1.4884989   392353 
 6651000   0.88614543    -3.215392    -1.727636  0.058172635    -3.215392     1.487756   392273 
 6652000   0.88656996   -3.2162742   -1.7277333  0.058435716   -3.2162742    1.4885409   392254 
 6653000   0.88624009   -3.2157212   -1.7277114   0.05913972   -3.2157212    1.4880098   392248 
 6654000   0.88556584   -3.2144622   -1.7275352    0.0571085   -3.2144622     1.486927   392235 
 6655000   0.88381198   -3.2117749   -1.7277473  0.053797013   -3.2117749    1.4840275   392223 
 6656000   0.88569129   -3.2157164    -1.728412  0.057420493   -3.2157164    1.4873045   392191 
 6657000    0.8856021   -3.2149869   -1.7279421  0.055552373   -3.2149869    1.4870447   392220 
 6658000   0.88696064   -3.2165879   -1.7271519  0.056288554   -3.2165879     1.489436   392191 
 6659000   0.88620738   -3.2147231   -1.7264116  0.054982568   -3.2147231    1.4883115   392154 
 6660000   0.88603757   -3.2150254   -1.7270484   0.06007575   -3.2150254     1.487977   392167 
 6661000   0.88676689   -3.2146668   -1.7254422  0.055075502   -3.2146668    1.4892246   392161 
 6662000   0.88660546   -3.2162346   -1.7271368  0.059237924   -3.2162346    1.4890978   392123 
 6663000   0.88792073    -3.218294   -1.7270974  0.056536939    -3.218294    1.4911966   392152 
 6664000   0.88598833   -3.2155017   -1.7274404  0.056384283   -3.2155017    1.4880613   392123 
 6665000   0.88588329   -3.2161346   -1.7282612  0.052647648   -3.2161346    1.4878735   392126 
 6666000   0.88474551   -3.2136121   -1.7277595  0.054142264   -3.2136121    1.4858526   392155 
 6667000   0.88594481   -3.2161566    -1.728377  0.055493554   -3.2161566    1.4877795   392178 
 6668000   0.88511847   -3.2158401   -1.7292739  0.057168051   -3.2158401    1.4865662   392132 
 6669000   0.88697745   -3.2193808   -1.7297684  0.055464658   -3.2193808    1.4896124   392152 
 6670000   0.88725579   -3.2179453   -1.7279832  0.057727403   -3.2179453    1.4899621   392183 
 6671000    0.8866678   -3.2183611   -1.7294776  0.058670455   -3.2183611    1.4888835   392207 
 6672000   0.88695427   -3.2175982   -1.7281577  0.061706654   -3.2175982    1.4894405   392187 
 6673000    0.8874294   -3.2192139   -1.7290705  0.055012677   -3.2192139    1.4901434   392212 
 6674000    0.8856091   -3.2163967   -1.7292189  0.057544739   -3.2163967    1.4871778   392188 
 6675000   0.88589804   -3.2183784   -1.7304991  0.052834352   -3.2183784    1.4878793   392131 
 6676000   0.88533949   -3.2182797   -1.7312323  0.056343238   -3.2182797    1.4870474   392103 
 6677000   0.88639466   -3.2192976   -1.7305197  0.058219558   -3.2192976    1.4887779   392114 
 6678000   0.88717526    -3.220763   -1.7307006  0.058757084    -3.220763    1.4900624   392121 
 6679000   0.88550749     -3.21851   -1.7311387  0.056783244     -3.21851    1.4873713   392092 
 6680000   0.88627317   -3.2195195   -1.7309229  0.061780956   -3.2195195    1.4885966   392108 
 6681000   0.88584097   -3.2206163   -1.7326735  0.059093556   -3.2206163    1.4879428   392089 
 6682000   0.88490453   -3.2207093   -1.7342144  0.054424854   -3.2207093     1.486495   392056 
 6683000   0.88515043   -3.2206294   -1.7335696  0.057065997   -3.2206294    1.4870598   392016 
 6684000   0.88470931   -3.2198042   -1.7334894  0.059449387   -3.2198042    1.4863149   392017 
 6685000   0.88487449   -3.2190954   -1.7325788  0.057801358   -3.2190954    1.4865166   392037 
 6686000   0.88506343   -3.2199795   -1.7330432  0.053809354   -3.2199795    1.4869364   392010 
 6687000   0.88774781   -3.2227322   -1.7312327  0.056518984   -3.2227322    1.4914995   391996 
 6688000   0.88650133    -3.221269   -1.7318942  0.054555091    -3.221269    1.4893749   392004 
 6689000   0.88490081   -3.2188261   -1.7319088  0.059507853   -3.2188261    1.4869173   391943 
 6690000   0.88469036   -3.2186581   -1.7319959  0.060470141   -3.2186581    1.4866623   391917 
 6691000   0.88570037   -3.2190671   -1.7306848  0.055597578   -3.2190671    1.4883823   391911 
 6692000   0.88515328   -3.2195826   -1.7319982  0.057549467   -3.2195826    1.4875844   391879 
 6693000    0.8841528   -3.2176319   -1.7318464  0.061205715   -3.2176319    1.4857855   391910 
 6694000   0.88593035   -3.2216294    -1.732701  0.051947716   -3.2216294    1.4889284   391869 
 6695000   0.88485895   -3.2192637   -1.7319993  0.054873707   -3.2192637    1.4872644   391833 
 6696000   0.88415298   -3.2184552   -1.7322978  0.052568742   -3.2184552    1.4861574   391812 
 6697000   0.88476188   -3.2180771   -1.7308127  0.056395022   -3.2180771    1.4872644   391790 
 6698000    0.8844509   -3.2173769   -1.7305821  0.059270993   -3.2173769    1.4867948   391776 
 6699000   0.88625357   -3.2213969   -1.7315337  0.055290954   -3.2213969    1.4898632   391766 
 6700000   0.88535029    -3.221289   -1.7328873  0.055583916    -3.221289    1.4884017   391751 
 6701000   0.88579679   -3.2211364   -1.7320639  0.056971385   -3.2211364    1.4890725   391772 
 6702000   0.88494367    -3.219233   -1.7314846  0.055197256    -3.219233    1.4877485   391743 
 6703000   0.88493645   -3.2194569   -1.7315193  0.056325011   -3.2194569    1.4879376   391690 
 6704000   0.88270928   -3.2166813   -1.7324391  0.056905741   -3.2166813    1.4842421   391677 
 6705000    0.8836039    -3.219161   -1.7332894  0.051894699    -3.219161    1.4858716   391644 
 6706000   0.88368225   -3.2179665   -1.7319936  0.052888796   -3.2179665     1.485973   391652 
 6707000   0.88473523   -3.2189086    -1.731222  0.057192389   -3.2189086    1.4876867   391667 
 6708000   0.88365488   -3.2171678   -1.7311915  0.057083355   -3.2171678    1.4859763   391639 
 6709000   0.88311698   -3.2176117   -1.7323769  0.055147775   -3.2176117    1.4852348   391596 
 6710000   0.88277793   -3.2179183    -1.733011  0.053679762   -3.2179183    1.4849073   391532 
 6711000   0.88321248   -3.2170977   -1.7314519  0.055263577   -3.2170977    1.4856458   391530 
 6712000   0.88463124   -3.2178896   -1.7297243  0.055923834   -3.2178896    1.4881653   391495 
 6713000   0.88516797    -3.216754   -1.7278075   0.05701671    -3.216754    1.4889465   391527 
 6714000   0.88260243   -3.2142542   -1.7296914   0.05332685   -3.2142542    1.4845628   391545 
 6715000    0.8837101   -3.2164562   -1.7298556  0.054737709   -3.2164562    1.4866006   391499 
 6716000   0.88216656    -3.214567   -1.7305516  0.052181403    -3.214567    1.4840153   391496 
 6717000   0.88348789   -3.2170933   -1.7308058  0.055262267   -3.2170933    1.4862875   391483 
 6718000   0.88157392   -3.2145873   -1.7314136   0.05733033   -3.2145873    1.4831737   391455 
 6719000   0.88371569   -3.2169412   -1.7302021  0.049664864   -3.2169412    1.4867391   391465 
 6720000   0.88278731   -3.2165519   -1.7313596   0.05545219   -3.2165519    1.4851924   391461 
 6721000   0.88258132   -3.2140256    -1.729085  0.056201393   -3.2140256    1.4849407   391436 
 6722000   0.88443888   -3.2170431   -1.7287565  0.055495951   -3.2170431    1.4882865   391378 
 6723000    0.8835852   -3.2146981   -1.7279431  0.061469114   -3.2146981     1.486755   391403 
 6724000   0.88423858   -3.2180672   -1.7301253  0.060048204   -3.2180672    1.4879419   391380 
 6725000   0.88260211   -3.2159661   -1.7308728  0.055122287   -3.2159661    1.4850933   391405 
 6726000   0.88394232   -3.2172984     -1.72995  0.055218934   -3.2172984    1.4873483   391405 
 6727000   0.88403034   -3.2174777   -1.7299775   0.05350337   -3.2174777    1.4875002   391404 
 6728000   0.88280668   -3.2157983   -1.7303495  0.056588943   -3.2157983    1.4854489   391402 
 6729000   0.88439051    -3.217542   -1.7294281  0.057800271    -3.217542    1.4881139   391402 
 6730000   0.88393349   -3.2167106   -1.7291719  0.057104392   -3.2167106    1.4875387   391351 
 6731000   0.88317508   -3.2170191   -1.7306883   0.05580742   -3.2170191    1.4863308   391333 
 6732000   0.88317216   -3.2181088   -1.7316462  0.056368119   -3.2181088    1.4864626   391297 
 6733000   0.88335532   -3.2179654   -1.7311299  0.061632976   -3.2179654    1.4868355   391280 
 6734000   0.88470243   -3.2199617   -1.7307675  0.054783465   -3.2199617    1.4891942   391256 
 6735000   0.88274973   -3.2169116   -1.7309512  0.058777234   -3.2169116    1.4859605   391242 
 6736000   0.88407877    -3.217914   -1.7298799  0.052229957    -3.217914    1.4880341   391285 
 6737000     0.883378   -3.2157096   -1.7289271  0.054296667   -3.2157096    1.4867824   391304 
 6738000   0.88397124   -3.2166457   -1.7287318   0.05983303   -3.2166457     1.487914   391269 
 6739000   0.88365823   -3.2170729   -1.7296895  0.058077123   -3.2170729    1.4873833   391270 
 6740000   0.88403876   -3.2193695   -1.7312848  0.053122953   -3.2193695    1.4880847   391254 
 6741000    0.8844941   -3.2183907   -1.7293835  0.057988897   -3.2183907    1.4890072   391213 
 6742000   0.88227225   -3.2160586   -1.7307577  0.060541891   -3.2160586     1.485301   391204 
 6743000   0.88297493   -3.2179092    -1.731448  0.057377037   -3.2179092    1.4864611   391210 
 6744000   0.88331725   -3.2171663   -1.7302733  0.051434612   -3.2171663     1.486893   391248 
 6745000    0.8828085   -3.2175061   -1.7315075  0.058194141   -3.2175061    1.4859986   391258 
 6746000   0.88202149   -3.2177696   -1.7328908  0.053935777   -3.2177696    1.4848788   391204 
 6747000   0.88245274   -3.2189072   -1.7332417  0.054694375   -3.2189072    1.4856656   391188 
 6748000    0.8825291   -3.2186674   -1.7328353  0.056345341   -3.2186674    1.4858321   391178 
 6749000   0.88267684   -3.2182747   -1.7320077   0.05269025   -3.2182747     1.486267   391129 
 6750000   0.88299632   -3.2175046   -1.7306654   0.05650087   -3.2175046    1.4868392   391120 
 6751000    0.8819936   -3.2172648   -1.7320989  0.056455924   -3.2172648    1.4851659   391116 
 6752000   0.88351419   -3.2186441   -1.7308454  0.050350536   -3.2186441    1.4877987   391097 
 6753000   0.88242655    -3.217377   -1.7312844  0.053553056    -3.217377    1.4860926   391064 
 6754000   0.88168255    -3.218524   -1.7336692  0.052911828    -3.218524    1.4848548   391060 
 6755000   0.88066634   -3.2147336   -1.7316434  0.053788635   -3.2147336    1.4830903   391074 
 6756000   0.88198108    -3.217144   -1.7316991    0.0539775    -3.217144    1.4854449   391037 
 6757000   0.88330255   -3.2194484   -1.7317513  0.049390997   -3.2194484    1.4876972   391030 
 6758000   0.88369532   -3.2187778   -1.7303468  0.053779392   -3.2187778     1.488431   391011 
 6759000   0.88216782   -3.2181615   -1.7322387  0.052286375   -3.2181615    1.4859228   390994 
 6760000    0.8829422   -3.2188636   -1.7316212  0.054564497   -3.2188636    1.4872424   390990 
 6761000   0.88350327   -3.2189346    -1.730671  0.058227456   -3.2189346    1.4882636   390970 
 6762000   0.88328778    -3.219873   -1.7320067  0.056415671    -3.219873    1.4878663   390979 
 6763000   0.88365069   -3.2190547   -1.7305162  0.057190271   -3.2190547    1.4885386   390963 
 6764000   0.88402979   -3.2198858    -1.730602  0.061850505   -3.2198858    1.4892839   390935 
 6765000   0.88241859   -3.2200189   -1.7333087  0.060227296   -3.2200189    1.4867102   390898 
 6766000    0.8827559   -3.2195661   -1.7322343  0.055394992   -3.2195661    1.4873318   390884 
 6767000   0.88269066   -3.2194649   -1.7324142  0.055250904   -3.2194649    1.4870507   390929 
 6768000   0.88440908   -3.2218153   -1.7319915  0.057453825   -3.2218153    1.4898237   390961 
 6769000    0.8831947   -3.2210997   -1.7331732  0.059854022   -3.2210997    1.4879265   390922 
 6770000   0.88344188   -3.2212974   -1.7328859  0.057816015   -3.2212974    1.4884115   390904 
 6771000   0.88248513   -3.2195803   -1.7328797  0.053327533   -3.2195803    1.4867006   390930 
 6772000   0.88292373   -3.2195442   -1.7321808  0.055823445   -3.2195442    1.4873634   390950 
 6773000   0.88188744   -3.2193535   -1.7336712  0.055076176   -3.2193535    1.4856823   390933 
 6774000   0.88138434   -3.2186235   -1.7338381  0.055791391   -3.2186235    1.4847854   390946 
 6775000   0.88088811   -3.2186255   -1.7345697  0.053965433   -3.2186255    1.4840557   390918 
 6776000   0.88043448   -3.2160612   -1.7327622  0.055608299   -3.2160612    1.4832991   390916 
 6777000   0.88156039   -3.2184272   -1.7331287  0.053821746   -3.2184272    1.4852985   390889 
 6778000   0.88119147   -3.2190777   -1.7345831  0.054088758   -3.2190777    1.4844947   390937 
 6779000    0.8810667   -3.2189245   -1.7345793  0.059918528   -3.2189245    1.4843452   390921 
 6780000   0.88185903   -3.2204366   -1.7346957   0.05512271   -3.2204366    1.4857409   390905 
 6781000   0.88235779   -3.2198565   -1.7332296  0.055677533   -3.2198565    1.4866268   390893 
 6782000    0.8827972   -3.2198766   -1.7326083  0.057937363   -3.2198766    1.4872682   390919 
 6783000   0.88298978   -3.2195443   -1.7319973  0.054513339   -3.2195443     1.487547   390931 
 6784000   0.88189052   -3.2163639   -1.7308056  0.059593382   -3.2163639    1.4855583   390967 
 6785000   0.88376884   -3.2190239   -1.7301187  0.058383968   -3.2190239    1.4889052   390919 
 6786000    0.8829867   -3.2190346   -1.7314243  0.060024427   -3.2190346    1.4876103   390913 
 6787000   0.88217351   -3.2181886   -1.7319635  0.057616941   -3.2181886    1.4862251   390917 
 6788000   0.88243454   -3.2182992   -1.7315887  0.056751591   -3.2182992    1.4867105   390905 
 6789000   0.88043823   -3.2171128   -1.7337809  0.057551594   -3.2171128     1.483332   390909 
 6790000   0.88030036   -3.2167418   -1.7335852  0.058584013   -3.2167418    1.4831566   390894 
 6791000    0.8809005   -3.2181564   -1.7340456  0.052894541   -3.2181564    1.4841108   390909 
 6792000    0.8827675   -3.2203495   -1.7330819  0.056193738   -3.2203495    1.4872677   390906 
 6793000   0.88066588   -3.2166487   -1.7328232  0.056440874   -3.2166487    1.4838256   390880 
 6794000   0.88166497   -3.2186272   -1.7331107  0.051637103   -3.2186272    1.4855165   390878 
 6795000   0.88211276   -3.2188828   -1.7326536  0.060582255   -3.2188828    1.4862292   390889 
 6796000   0.88304665   -3.2204176   -1.7325236  0.058757998   -3.2204176     1.487894   390865 
 6797000   0.88396398    -3.222052   -1.7325971   0.05216303    -3.222052    1.4894549   390861 
 6798000    0.8827867   -3.2198267   -1.7323288  0.063347615   -3.2198267    1.4874979   390854 
 6799000   0.88160936   -3.2186264   -1.7330211  0.056777969   -3.2186264    1.4856053   390830 
 6800000   0.88343242   -3.2229304   -1.7341579  0.053734904   -3.2229304    1.4887726   390805 
 6801000    0.8810997   -3.2173831   -1.7326139  0.056931265   -3.2173831    1.4847692   390824 
 6802000   0.88233584   -3.2198566   -1.7329701  0.061440948   -3.2198566    1.4868865   390815 
 6803000   0.88364241   -3.2219719   -1.7328188  0.058288583   -3.2219719    1.4891531   390798 
 6804000   0.88270276   -3.2200893   -1.7324817  0.057879236   -3.2200893    1.4876076   390788 
 6805000   0.88204241   -3.2205887    -1.733957  0.055293603   -3.2205887    1.4866317   390752 
 6806000   0.88329114   -3.2228464   -1.7340109    0.0496328   -3.2228464    1.4888354   390726 
 6807000   0.88120539    -3.219233   -1.7338144  0.059934056    -3.219233    1.4854186   390700 
 6808000   0.88153343   -3.2195991   -1.7334297  0.056867079   -3.2195991    1.4861694   390648 
 6809000   0.88049769   -3.2192569   -1.7349248  0.054330184   -3.2192569    1.4843321   390672 
 6810000   0.88059389   -3.2190361   -1.7345381  0.053783238   -3.2190361     1.484498   390671 
 6811000   0.88021197   -3.2186595   -1.7347293  0.053382763   -3.2186595    1.4839302   390651 
 6812000   0.88227523   -3.2214263   -1.7340406  0.054718656   -3.2214263    1.4873857   390657 
 6813000   0.88240411   -3.2219438   -1.7342532  0.057362112   -3.2219438    1.4876906   390634 
 6814000   0.88036424   -3.2188565   -1.7345063  0.059054218   -3.2188565    1.4843503   390608 
 6815000   0.88123356   -3.2198845       -1.734  0.058263514   -3.2198845    1.4858845   390590 
 6816000   0.88159547   -3.2201596   -1.7337029   0.05750238   -3.2201596    1.4864566   390600 
 6817000   0.88203996   -3.2204806   -1.7331907  0.054164057   -3.2204806    1.4872899   390578 
 6818000   0.87946481   -3.2168211   -1.7338506  0.059615851   -3.2168211    1.4829704   390572 
 6819000    0.8807809   -3.2185641   -1.7332527  0.054193261   -3.2185641    1.4853113   390540 
 6820000   0.88062138   -3.2197724   -1.7346616  0.056008251   -3.2197724    1.4851108   390522 
 6821000   0.88001566   -3.2185749   -1.7344628  0.054427351   -3.2185749    1.4841121   390516 
 6822000    0.8807789   -3.2205679   -1.7349252  0.056740958   -3.2205679    1.4856427   390452 
 6823000   0.88097553    -3.219564   -1.7337532  0.055850847    -3.219564    1.4858108   390495 
 6824000   0.88298854   -3.2203098   -1.7310925  0.058182448   -3.2203098    1.4892173   390492 
 6825000   0.88068861   -3.2173075   -1.7320453  0.053795478   -3.2173075    1.4852622   390512 
 6826000     0.881377   -3.2199305   -1.7333475  0.054090685   -3.2199305     1.486583   390470 
 6827000   0.88161742   -3.2185487   -1.7314916  0.056133365   -3.2185487    1.4870571   390452 
 6828000   0.88073577   -3.2173092    -1.731705  0.055647353   -3.2173092    1.4856042   390443 
 6829000   0.88160989   -3.2182734   -1.7311376  0.053647584   -3.2182734    1.4871358   390428 
 6830000   0.88046849   -3.2176752   -1.7323621  0.059318613   -3.2176752    1.4853132   390401 
 6831000   0.88026216   -3.2185153   -1.7335198  0.062656136   -3.2185153    1.4849955   390393 
 6832000   0.87962377   -3.2157928   -1.7319578  0.052399154   -3.2157928    1.4838349   390415 
 6833000     0.879559   -3.2163758   -1.7325019  0.055306933   -3.2163758    1.4838739   390376 
 6834000   0.88135014   -3.2171982   -1.7302987  0.051743374   -3.2171982    1.4868995   390375 
 6835000   0.87998974   -3.2168547   -1.7323187  0.053028279   -3.2168547     1.484536   390393 
 6836000   0.88082145   -3.2154493   -1.7294646  0.051559167   -3.2154493    1.4859847   390381 
 6837000   0.88063409   -3.2172296   -1.7315267  0.056788523   -3.2172296    1.4857029   390372 
 6838000   0.88136715   -3.2181244   -1.7310934  0.053838592   -3.2181244     1.487031   390348 
 6839000   0.88127416   -3.2179225   -1.7310559  0.054479231   -3.2179225    1.4868665   390350 
 6840000   0.88063826   -3.2155186   -1.7297783  0.055457913   -3.2155186    1.4857404   390364 
 6841000   0.88175187   -3.2165556   -1.7289288  0.051488249   -3.2165556    1.4876268   390362 
 6842000   0.88175282   -3.2162811   -1.7287251  0.057078991   -3.2162811     1.487556   390381 
 6843000   0.88140137   -3.2168853   -1.7298765  0.053952359   -3.2168853    1.4870088   390369 
 6844000   0.88156424   -3.2160321   -1.7288248  0.053148996   -3.2160321    1.4872074   390389 
 6845000   0.87989378   -3.2156107   -1.7310921  0.053918304   -3.2156107    1.4845186   390355 
 6846000   0.88156461   -3.2176348    -1.730282  0.055888762   -3.2176348    1.4873528   390351 
 6847000     0.880811   -3.2172639   -1.7312854  0.053433263   -3.2172639    1.4859785   390378 
 6848000   0.88228795   -3.2194223   -1.7308186  0.054612385   -3.2194223    1.4886037   390343 
 6849000   0.87992851   -3.2163592    -1.731706  0.059381282   -3.2163592    1.4846532   390335 
 6850000   0.87999257   -3.2180417   -1.7331434  0.050360835   -3.2180417    1.4848983   390299 
 6851000   0.88032633   -3.2193123   -1.7337747  0.051430618   -3.2193123    1.4855376   390279 
 6852000   0.88044267   -3.2176218   -1.7317966  0.057846553   -3.2176218    1.4858253   390255 
 6853000   0.88014372   -3.2177914   -1.7325924  0.054767089   -3.2177914     1.485199   390287 
 6854000   0.88002499    -3.218847   -1.7338027  0.052540363    -3.218847    1.4850443   390275 
 6855000   0.87953234   -3.2182447   -1.7339709  0.045984076   -3.2182447    1.4842738   390259 
 6856000   0.87967662   -3.2193769    -1.734833  0.058724089   -3.2193769    1.4845439   390252 
 6857000    0.8803309   -3.2212837   -1.7356584  0.054856484   -3.2212837    1.4856252   390258 
 6858000   0.87955675   -3.2207289   -1.7364139  0.055998606   -3.2207289     1.484315   390259 
 6859000   0.87889705   -3.2199307   -1.7366682   0.06060354   -3.2199307    1.4832625   390243 
 6860000   0.87947678   -3.2198847   -1.7356438  0.056040606   -3.2198847    1.4842409   390243 
 6861000   0.88055188   -3.2210468   -1.7351514  0.054442441   -3.2210468    1.4858953   390285 
 6862000   0.87914585   -3.2189696   -1.7355609  0.057346936   -3.2189696    1.4834087   390315 
 6863000   0.87998191   -3.2192855   -1.7345878  0.059376405   -3.2192855    1.4846977   390347 
 6864000   0.87952689   -3.2208151   -1.7368813  0.056176316   -3.2208151    1.4839338   390346 
 6865000   0.87892532   -3.2212796      -1.7383  0.057915755   -3.2212796    1.4829796   390330 
 6866000    0.8796319   -3.2222903   -1.7380843  0.059410507   -3.2222903     1.484206   390321 
 6867000   0.88090241   -3.2228776   -1.7366078  0.048969844   -3.2228776    1.4862698   390342 
 6868000   0.88053822   -3.2213772   -1.7357219  0.055167595   -3.2213772    1.4856553   390342 
 6869000   0.88012177   -3.2221786   -1.7371232  0.060906621   -3.2221786    1.4850554   390315 
 6870000   0.88091258   -3.2237543   -1.7375092  0.061131756   -3.2237543    1.4862451   390353 
 6871000   0.87967984   -3.2210151   -1.7367967  0.055269071   -3.2210151    1.4842184   390339 
 6872000     0.880506    -3.221281   -1.7357257  0.058222243    -3.221281    1.4855553   390354 
 6873000   0.87894694   -3.2207847   -1.7378028  0.055879395   -3.2207847    1.4829819   390339 
 6874000   0.88015924   -3.2219652   -1.7368351  0.055804332   -3.2219652      1.48513   390312 
 6875000   0.87968288   -3.2213595    -1.737117  0.060090061   -3.2213595    1.4842426   390334 
 6876000   0.87982012   -3.2200064   -1.7355969  0.060052664   -3.2200064    1.4844095   390351 
 6877000   0.88006988   -3.2203485   -1.7356242  0.055675143   -3.2203485    1.4847244   390379 
 6878000   0.87961676   -3.2189901   -1.7349845  0.053313188   -3.2189901    1.4840056   390367 
 6879000   0.88219177   -3.2236892   -1.7353089  0.055614201   -3.2236892    1.4883804   390359 
 6880000   0.88068141    -3.220812   -1.7350141  0.060841438    -3.220812    1.4857979   390368 
 6881000   0.88226393   -3.2215944   -1.7330999  0.061912085   -3.2215944    1.4884945   390361 
 6882000    0.8801322   -3.2187364   -1.7338308   0.05848805   -3.2187364    1.4849056   390359 
 6883000   0.88023433    -3.218493   -1.7334988  0.055916473    -3.218493    1.4849942   390381 
 6884000    0.8817021   -3.2189429   -1.7316134  0.053099399   -3.2189429    1.4873294   390418 
 6885000   0.88146935   -3.2202269   -1.7331529  0.055363818   -3.2202269    1.4870739   390382 
 6886000   0.87966582   -3.2181575   -1.7339855  0.058443066   -3.2181575     1.484172   390345 
 6887000   0.87900866   -3.2176373   -1.7345855  0.061590254   -3.2176373    1.4830518   390348 
 6888000   0.87997808   -3.2193667   -1.7346678  0.056237017   -3.2193667    1.4846988   390345 
 6889000   0.88132674   -3.2193844   -1.7324939  0.054007319   -3.2193844    1.4868905   390367 
 6890000   0.87986137   -3.2167413   -1.7323268   0.05874913   -3.2167413    1.4844144   390368 
 6891000    0.8801514   -3.2159248   -1.7309069   0.06055329   -3.2159248    1.4850179   390338 
 6892000   0.88124445   -3.2176044   -1.7306242  0.055569821   -3.2176044    1.4869802   390307 
 6893000   0.88029804   -3.2170978    -1.731745  0.060558299   -3.2170978    1.4853528   390315 
 6894000   0.88141682   -3.2197922   -1.7323687  0.058358703   -3.2197922    1.4874235   390267 
 6895000   0.88072402   -3.2187919   -1.7323928  0.055070245   -3.2187919    1.4863991   390229 
 6896000   0.88142075   -3.2202306   -1.7326366  0.058891609   -3.2202306     1.487594   390224 
 6897000   0.87989739    -3.217883   -1.7330122   0.05624324    -3.217883    1.4848708   390264 
 6898000   0.88144805   -3.2198138   -1.7321318  0.052993369   -3.2198138     1.487682   390213 
 6899000   0.88289882   -3.2200226   -1.7298882  0.059734615   -3.2200226    1.4901344   390212 
 6900000   0.88105452   -3.2191503   -1.7320486  0.057907389   -3.2191503    1.4871017   390191 
 6901000   0.87968354   -3.2182975   -1.7334147  0.059986429   -3.2182975    1.4848828   390166 
 6902000   0.87945024    -3.217285   -1.7327541  0.055556944    -3.217285    1.4845308   390155 
 6903000   0.87901571   -3.2167912    -1.733108  0.054950308   -3.2167912    1.4836833   390185 
 6904000   0.87949509   -3.2164039   -1.7318506  0.054006282   -3.2164039    1.4845533   390169 
 6905000   0.88115661   -3.2188374   -1.7314643  0.057422998   -3.2188374    1.4873731   390165 
 6906000   0.88072447   -3.2181836   -1.7314675   0.05551885   -3.2181836    1.4867161   390146 
 6907000   0.88081692    -3.217712   -1.7308627  0.058756925    -3.217712    1.4868493   390152 
 6908000    0.8791822   -3.2147552   -1.7305285  0.063762967   -3.2147552    1.4842268   390116 
 6909000   0.88150449   -3.2174144    -1.729126  0.055385267   -3.2174144    1.4882884   390079 
 6910000   0.88010875   -3.2158023   -1.7297866  0.051331466   -3.2158023    1.4860157   390057 
 6911000   0.88055096   -3.2175527   -1.7308056  0.056822728   -3.2175527    1.4867471   390061 
 6912000   0.88069177   -3.2171268     -1.73018  0.057914141   -3.2171268    1.4869467   390071 
 6913000   0.87966092   -3.2163911   -1.7311049  0.057814975   -3.2163911    1.4852862   390050 
 6914000   0.88000228   -3.2165363   -1.7305289  0.062474294   -3.2165363    1.4860074   390012 
 6915000   0.88228175   -3.2196546   -1.7298324  0.056531022   -3.2196546    1.4898222   390021 
 6916000   0.88005193   -3.2144639   -1.7284146   0.05711961   -3.2144639    1.4860493   390023 
 6917000    0.8801912   -3.2142966   -1.7280312  0.058711876   -3.2142966    1.4862654   390028 
 6918000   0.87928255   -3.2142973   -1.7296271  0.057233631   -3.2142973    1.4846702   390044 
 6919000   0.88030823   -3.2150274   -1.7287016   0.05227776   -3.2150274    1.4863258   390064 
 6920000   0.87872821   -3.2127888   -1.7290622  0.054407312   -3.2127888    1.4837266   390046 
 6921000   0.88079417   -3.2143526   -1.7270919  0.056680587   -3.2143526    1.4872607   390034 
 6922000   0.87967808   -3.2130546   -1.7275795  0.057392037   -3.2130546    1.4854751   390008 
 6923000   0.87985196   -3.2124652   -1.7266546  0.063279762   -3.2124652    1.4858107   389997 
 6924000   0.88046305   -3.2146566   -1.7277339  0.058984835   -3.2146566    1.4869227   389976 
 6925000   0.88124301   -3.2160575   -1.7278024   0.05582273   -3.2160575    1.4882551   389972 
 6926000   0.88227748   -3.2170383   -1.7270247   0.05452087   -3.2170383    1.4900136   389969 
 6927000   0.88029376   -3.2131851   -1.7264835   0.05731623   -3.2131851    1.4867016   389959 
 6928000   0.87817915   -3.2111732   -1.7279098  0.052501595   -3.2111732    1.4832634   389924 
 6929000    0.8795497   -3.2126246   -1.7270425  0.057626373   -3.2126246    1.4855821   389923 
 6930000   0.87713133   -3.2096286   -1.7281426  0.052988298   -3.2096286     1.481486   389926 
 6931000   0.87742654   -3.2102139   -1.7283129   0.05540695   -3.2102139     1.481901   389948 
 6932000   0.87957405   -3.2136521    -1.728166  0.047268911   -3.2136521    1.4854861   389959 
 6933000   0.88076399   -3.2151108   -1.7276074  0.056809293   -3.2151108    1.4875034   389957 
 6934000   0.88050009   -3.2138706   -1.7267977  0.052185287   -3.2138706    1.4870729   389953 
 6935000   0.87934836   -3.2119438   -1.7267474  0.058631363   -3.2119438    1.4851963   389935 
 6936000   0.88067796   -3.2146259   -1.7271381   0.05661958   -3.2146259    1.4874878   389923 
 6937000    0.8810867   -3.2161653   -1.7280482  0.058417684   -3.2161653    1.4881171   389939 
 6938000   0.88019699   -3.2141489   -1.7274697  0.055190981   -3.2141489    1.4866792   389922 
 6939000   0.88042586   -3.2139716   -1.7269783  0.059776699   -3.2139716    1.4869933   389941 
 6940000   0.88015321   -3.2150404   -1.7285686  0.057298954   -3.2150404    1.4864719   389957 
 6941000   0.88117956   -3.2176833   -1.7292453  0.055515539   -3.2176833    1.4884381   389896 
 6942000   0.88024548   -3.2161305   -1.7292741  0.058562499   -3.2161305    1.4868564   389897 
 6943000   0.88142206   -3.2178174   -1.7289698  0.052983088   -3.2178174    1.4888477   389896 
 6944000   0.88114358   -3.2172314   -1.7289267  0.057550625   -3.2172314    1.4883048   389915 
 6945000   0.88092148   -3.2158648   -1.7278397    0.0591889   -3.2158648     1.488025   389890 
 6946000   0.88066207   -3.2165253    -1.728885  0.053303912   -3.2165253    1.4876403   389876 
 6947000   0.88108697   -3.2171192   -1.7287192  0.055838648   -3.2171192       1.4884   389865 
 6948000   0.88084323   -3.2167345    -1.728708    0.0561782   -3.2167345    1.4880264   389855 
 6949000   0.87934995   -3.2160255   -1.7305331  0.057762573   -3.2160255    1.4854924   389858 
 6950000   0.87973673   -3.2157134   -1.7295715   0.06144839   -3.2157134    1.4861419   389859 
 6951000    0.8800465   -3.2177948   -1.7311219  0.059331899   -3.2177948    1.4866729   389857 
 6952000   0.87948184   -3.2167665    -1.730857  0.052731833   -3.2167665    1.4859096   389807 
 6953000   0.87956431   -3.2162243   -1.7301945  0.058619617   -3.2162243    1.4860298   389812 
 6954000   0.88115887   -3.2165093    -1.727667  0.053170428   -3.2165093    1.4888423   389781 
 6955000   0.87950563   -3.2149572   -1.7288358  0.058037703   -3.2149572    1.4861213   389762 
 6956000   0.88122849   -3.2166081   -1.7274457  0.052980735   -3.2166081    1.4891624   389728 
 6957000   0.88066768   -3.2167425   -1.7283674  0.056217799   -3.2167425    1.4883751   389686 
 6958000   0.87872813   -3.2142879   -1.7290688  0.062140555   -3.2142879    1.4852191   389654 
 6959000   0.88036182   -3.2164775     -1.72852  0.052431358   -3.2164775    1.4879574   389660 
 6960000   0.88022903   -3.2165424   -1.7287483  0.055723484   -3.2165424    1.4877941   389644 
 6961000   0.87942823   -3.2150977    -1.728619  0.057852047   -3.2150977    1.4864787   389634 
 6962000   0.88008396   -3.2154868   -1.7279264  0.056913332   -3.2154868    1.4875603   389641 
 6963000   0.87915192   -3.2149542   -1.7286793  0.060483362   -3.2149542    1.4862749   389565 
 6964000   0.88016569   -3.2141331   -1.7260145  0.057103077   -3.2141331    1.4881186   389531 
 6965000   0.87793232   -3.2134497   -1.7289585  0.056951513   -3.2134497    1.4844912   389492 
 6966000   0.87973561   -3.2144845   -1.7269976   0.05045721   -3.2144845    1.4874869   389506 
 6967000   0.87814192   -3.2134173   -1.7285335  0.055010928   -3.2134173    1.4848837   389482 
 6968000   0.87971331   -3.2156507   -1.7281519  0.053382108   -3.2156507    1.4874989   389493 
 6969000    0.8799256   -3.2147485   -1.7268334  0.055458882   -3.2147485    1.4879151   389478 
 6970000   0.87944937   -3.2139241   -1.7267952  0.053370326   -3.2139241    1.4871289   389473 
 6971000   0.87832474   -3.2109931   -1.7258727  0.055455434   -3.2109931    1.4851204   389501 
 6972000   0.87984309   -3.2137566   -1.7260956  0.052648052   -3.2137566     1.487661   389508 
 6973000   0.87829905   -3.2114718   -1.7264787  0.058426144   -3.2114718    1.4849931   389523 
 6974000   0.87959124   -3.2140487   -1.7267792  0.053606054   -3.2140487    1.4872695   389499 
 6975000   0.87916166   -3.2135029   -1.7269483  0.055100922   -3.2135029    1.4865546   389496 
 6976000   0.87894732   -3.2145194   -1.7282547  0.053795354   -3.2145194    1.4862647   389477 
 6977000   0.87797435   -3.2137987   -1.7291793  0.054178588   -3.2137987    1.4846194   389477 
 6978000   0.87857516    -3.214997   -1.7294074  0.051969832    -3.214997    1.4855896   389489 
 6979000   0.87683746   -3.2122928   -1.7294968  0.050225162   -3.2122928     1.482796   389451 
 6980000   0.87855249   -3.2133695   -1.7277572  0.058159109   -3.2133695    1.4856123   389473 
 6981000   0.87866176   -3.2144086    -1.728581   0.05602097   -3.2144086    1.4858276   389465 
 6982000   0.87926815   -3.2154156   -1.7285473  0.057149344   -3.2154156    1.4868683   389461 
 6983000   0.87974171   -3.2157009   -1.7278599  0.059734572   -3.2157009     1.487841   389416 
 6984000   0.87994578   -3.2168986   -1.7287087  0.057100362   -3.2168986      1.48819   389415 
 6985000   0.88033918   -3.2190236   -1.7298356  0.054754476   -3.2190236     1.489188   389328 
 6986000   0.87925746   -3.2174456    -1.729992  0.059838205   -3.2174456    1.4874536   389303 
 6987000   0.88006026   -3.2184467   -1.7296808  0.054416793   -3.2184467    1.4887659   389315 
 6988000   0.88162456   -3.2202369   -1.7289244  0.054583098   -3.2202369    1.4913125   389341 
 6989000   0.88055426   -3.2191387   -1.7296098  0.062168941   -3.2191387    1.4895289   389334 
 6990000   0.87909627   -3.2180222    -1.730929  0.061994491   -3.2180222    1.4870931   389326 
 6991000   0.88030501   -3.2191715    -1.730003  0.061080301   -3.2191715    1.4891684   389318 
 6992000   0.87790172   -3.2159773   -1.7307714  0.062514844   -3.2159773    1.4852059   389291 
 6993000   0.87919737   -3.2177904    -1.730446  0.059015183   -3.2177904    1.4873444   389305 
 6994000   0.87786938   -3.2156279   -1.7304538  0.062434757   -3.2156279    1.4851741   389285 
 6995000   0.87915428   -3.2186159    -1.731268  0.051800781   -3.2186159    1.4873479   389285 
 6996000   0.87671066   -3.2144571   -1.7312357  0.057788199   -3.2144571    1.4832214   389283 
 6997000   0.87731021   -3.2152094   -1.7311071  0.056807069   -3.2152094    1.4841023   389318 
 6998000   0.87660831   -3.2131837   -1.7304097  0.052247057   -3.2131837     1.482774   389355 
 6999000   0.87878848   -3.2158104   -1.7294823  0.053959606   -3.2158104    1.4863281   389390 
 7000000   0.87800239   -3.2135765   -1.7283987  0.053726159   -3.2135765    1.4851778   389343 
 7001000   0.87715577   -3.2136152   -1.7297894  0.053920254   -3.2136152    1.4838258   389322 
 7002000   0.87822953   -3.2160543   -1.7304502  0.052600085   -3.2160543     1.485604   389332 
 7003000   0.87834609   -3.2147938   -1.7289659  0.058358011   -3.2147938    1.4858279   389325 
 7004000   0.87822546   -3.2155208   -1.7298817  0.056520741   -3.2155208    1.4856391   389321 
 7005000    0.8790383   -3.2150519   -1.7281676  0.059271123   -3.2150519    1.4868843   389355 
 7006000   0.87953114   -3.2148709   -1.7270192  0.061084753   -3.2148709    1.4878517   389320 
 7007000   0.87986558   -3.2159834   -1.7274436  0.055674132   -3.2159834    1.4885398   389288 
 7008000   0.87911601    -3.214862   -1.7274681  0.057904294    -3.214862    1.4873939   389256 
 7009000   0.87867358   -3.2160904   -1.7295328  0.055079574   -3.2160904    1.4865575   389279 
 7010000   0.87980185   -3.2172041   -1.7286536  0.054577245   -3.2172041    1.4885505   389257 
 7011000   0.87824369    -3.214763   -1.7287113  0.052522607    -3.214763    1.4860517   389221 
 7012000   0.87825949   -3.2137994   -1.7276561  0.056524845   -3.2137994    1.4861433   389204 
 7013000   0.87864951   -3.2145811   -1.7276938  0.058981552   -3.2145811    1.4868873   389182 
 7014000   0.88028871   -3.2171222   -1.7274724  0.059815738   -3.2171222    1.4896498   389185 
 7015000   0.87976194   -3.2164299   -1.7276715  0.056041393   -3.2164299    1.4887583   389185 
 7016000   0.87886529     -3.21528   -1.7280314  0.058370247     -3.21528    1.4872487   389183 
 7017000   0.87838137   -3.2133458   -1.7269122  0.061053605   -3.2133458    1.4864336   389182 
 7018000    0.8779493   -3.2129208   -1.7271535  0.055459379   -3.2129208    1.4857673   389165 
 7019000   0.87866878   -3.2153933   -1.7283167  0.056973961   -3.2153933    1.4870766   389141 
 7020000   0.87776671   -3.2141403   -1.7285637  0.060435201   -3.2141403    1.4855766   389134 
 7021000   0.87864834   -3.2157515   -1.7284879  0.058837722   -3.2157515    1.4872637   389083 
 7022000   0.87806635   -3.2153665   -1.7289542  0.058096561   -3.2153665    1.4864123   389048 
 7023000   0.87724119   -3.2130778   -1.7281044   0.05551948   -3.2130778    1.4849734   389059 
 7024000   0.87909628   -3.2161661   -1.7280142  0.059417465   -3.2161661    1.4881519   389049 
 7025000   0.87835767   -3.2158592   -1.7289233  0.051166177   -3.2158592     1.486936   389040 
 7026000   0.87870618    -3.215191   -1.7275656  0.058628172    -3.215191    1.4876254   389014 
 7027000   0.87804787   -3.2152445   -1.7285273  0.055346335   -3.2152445    1.4867173   388960 
 7028000   0.87628907   -3.2127905   -1.7289559  0.058180739   -3.2127905    1.4838346   388935 
 7029000   0.87811251   -3.2131726   -1.7262388  0.058300502   -3.2131726    1.4869338   388932 
 7030000   0.87922169   -3.2147841   -1.7261099  0.055980288   -3.2147841    1.4886742   388968 
 7031000   0.87791346   -3.2126249   -1.7261773  0.058475432   -3.2126249    1.4864476   388971 
 7032000   0.87831859   -3.2121849   -1.7249404  0.056256259   -3.2121849    1.4872445   388942 
 7033000   0.87773756   -3.2117786   -1.7256517  0.056995302   -3.2117786    1.4861269   388977 
 7034000   0.87941858   -3.2130864   -1.7240023  0.057747977   -3.2130864    1.4890841   388948 
 7035000   0.87758968   -3.2125958   -1.7264633  0.059222829   -3.2125958    1.4861325   388910 
 7036000   0.87864062   -3.2126081   -1.7246883  0.060078013   -3.2126081    1.4879198   388908 
 7037000   0.87908398   -3.2140799   -1.7251375  0.056318835   -3.2140799    1.4889425   388837 
 7038000   0.87959458   -3.2137995   -1.7240037  0.056542476   -3.2137995    1.4897958   388840 
 7039000   0.87740886   -3.2108366    -1.724781  0.059417169   -3.2108366    1.4860556   388850 
 7040000    0.8784203   -3.2120068   -1.7244103  0.057623512   -3.2120068    1.4875965   388895 
 7041000   0.87804747   -3.2131106    -1.726092  0.060653663   -3.2131106    1.4870186   388881 
 7042000   0.87850787   -3.2143369   -1.7263013  0.056319315   -3.2143369    1.4880356   388819 
 7043000   0.87681821   -3.2147507   -1.7296076  0.052846521   -3.2147507     1.485143   388827 
 7044000   0.87656816   -3.2141547   -1.7295078   0.05133854   -3.2141547    1.4846469   388846 
 7045000    0.8775377   -3.2145083    -1.728139  0.054608925   -3.2145083    1.4863693   388825 
 7046000   0.87721346   -3.2128738   -1.7270881  0.056819826   -3.2128738    1.4857857   388834 
 7047000    0.8780464   -3.2143941   -1.7272128  0.056654745   -3.2143941    1.4871812   388838 
 7048000   0.87681613   -3.2130991   -1.7279367  0.059399963   -3.2130991    1.4851624   388821 
 7049000   0.87782939   -3.2142969   -1.7274335   0.05580455   -3.2142969    1.4868634   388825 
 7050000   0.87699792   -3.2130806   -1.7275338  0.051605685   -3.2130806    1.4855468   388801 
 7051000   0.87592082   -3.2147861   -1.7308501  0.055439466   -3.2147861     1.483936   388745 
 7052000   0.87672096   -3.2141654   -1.7288471  0.052197255   -3.2141654    1.4853183   388738 
 7053000   0.87727345   -3.2165524   -1.7302178  0.050663312   -3.2165524    1.4863346   388717 
 7054000   0.87665989   -3.2161623   -1.7308061  0.056958271   -3.2161623    1.4853562   388701 
 7055000   0.87671952   -3.2167112   -1.7311584  0.055293599   -3.2167112    1.4855528   388676 
 7056000   0.87797471   -3.2196444   -1.7318615  0.056991241   -3.2196444     1.487783   388649 
 7057000   0.87649912   -3.2162489   -1.7309091  0.060257908   -3.2162489    1.4853398   388634 
 7058000   0.87693909   -3.2164325   -1.7303815  0.061455577   -3.2164325     1.486051   388643 
 7059000   0.87851288   -3.2196285   -1.7306539  0.054165046   -3.2196285    1.4889746   388576 
 7060000   0.87818804   -3.2177582   -1.7292997  0.060290639   -3.2177582    1.4884585   388567 
 7061000   0.87813932   -3.2169889   -1.7286168  0.058119803   -3.2169889    1.4883721   388568 
 7062000   0.87719773   -3.2164541   -1.7296052   0.05603657   -3.2164541    1.4868489   388549 
 7063000   0.87757633   -3.2186988    -1.731235  0.060094834   -3.2186988    1.4874638   388556 
 7064000   0.87837331   -3.2203698   -1.7316739  0.047537342   -3.2203698    1.4886959   388587 
 7065000    0.8771521   -3.2173389   -1.7306401  0.057905658   -3.2173389    1.4866989   388568 
 7066000   0.87655397   -3.2173073   -1.7315036  0.063516107   -3.2173073    1.4858036   388537 
 7067000   0.87755371   -3.2197639    -1.732281  0.051645756   -3.2197639    1.4874829   388541 
 7068000   0.87629996   -3.2155405    -1.730221  0.059277453   -3.2155405    1.4853195   388551 
 7069000   0.87699076   -3.2169185   -1.7303247  0.056517819   -3.2169185    1.4865937   388524 
 7070000   0.87682468   -3.2176978   -1.7313932  0.053982589   -3.2176978    1.4863046   388526 
 7071000   0.87747233   -3.2184413   -1.7309699  0.059990713   -3.2184413    1.4874713   388508 
 7072000   0.87793224   -3.2179587   -1.7296848  0.057817345   -3.2179587    1.4882739   388502 
 7073000   0.87757987   -3.2176329   -1.7298146  0.059552503   -3.2176329    1.4878183   388465 
 7074000   0.87805638   -3.2177986   -1.7291686  0.059249222   -3.2177986      1.48863   388464 
 7075000   0.87837792   -3.2176863   -1.7284039  0.060592482   -3.2176863    1.4892824   388436 
 7076000   0.87582015   -3.2150862   -1.7301748  0.057466777   -3.2150862    1.4849114   388445 
 7077000   0.87650001    -3.216214   -1.7301691  0.053633392    -3.216214    1.4860449   388450 
 7078000   0.87743604    -3.219027   -1.7313798  0.056703326    -3.219027    1.4876472   388446 
 7079000    0.8765624   -3.2175107   -1.7312759  0.053324215   -3.2175107    1.4862349   388428 
 7080000   0.87612471   -3.2160875    -1.730545  0.059938635   -3.2160875    1.4855425   388415 
 7081000   0.87679933   -3.2171259   -1.7303285  0.057010282   -3.2171259    1.4867973   388386 
 7082000   0.87649935   -3.2159743   -1.7297009  0.055587836   -3.2159743    1.4862734   388390 
 7083000   0.87631216    -3.217161   -1.7312165  0.055968182    -3.217161    1.4859445   388393 
 7084000   0.87653279   -3.2163984   -1.7300568  0.051838335   -3.2163984    1.4863415   388387 
 7085000   0.87564902   -3.2146534   -1.7297684  0.057867323   -3.2146534     1.484885   388376 
 7086000   0.87636322   -3.2146885   -1.7286078  0.057228592   -3.2146885    1.4860808   388380 
 7087000   0.87601002   -3.2130743   -1.7275581  0.058781744   -3.2130743    1.4855163   388371 
 7088000    0.8759365   -3.2141129   -1.7285453  0.058757987   -3.2141129    1.4855676   388325 
 7089000   0.87550973   -3.2139526   -1.7291356  0.057552731   -3.2139526     1.484817   388332 
 7090000   0.87479744   -3.2131734   -1.7294651  0.056689091   -3.2131734    1.4837083   388306 
 7091000   0.87619227    -3.216192   -1.7302251  0.052529773    -3.216192    1.4859669   388334 
 7092000   0.87599811   -3.2139903   -1.7284063  0.056700506   -3.2139903     1.485584   388348 
 7093000   0.87621527   -3.2159496   -1.7299438  0.056361576   -3.2159496    1.4860059   388334 
 7094000   0.87701331   -3.2168835   -1.7294552   0.05241964   -3.2168835    1.4874283   388316 
 7095000   0.87536962   -3.2143043   -1.7295605  0.051253981   -3.2143043    1.4847438   388289 
 7096000   0.87567779   -3.2144465   -1.7293177  0.056520253   -3.2144465    1.4851288   388325 
 7097000   0.87561402   -3.2151824    -1.730047  0.057487204   -3.2151824    1.4851354   388295 
 7098000   0.87732942   -3.2178701   -1.7299057  0.056869042   -3.2178701    1.4879644   388316 
 7099000   0.87690459   -3.2169227   -1.7296788   0.05996678   -3.2169227    1.4872439   388316 
 7100000   0.87712141   -3.2171934   -1.7295435  0.060586883   -3.2171934    1.4876499   388306 
 7101000   0.87607479   -3.2167661   -1.7307842  0.057788865   -3.2167661    1.4859819   388278 
 7102000   0.87547267   -3.2163129   -1.7312452  0.056263833   -3.2163129    1.4850677   388250 
 7103000   0.87607927   -3.2162857    -1.730166  0.057627653   -3.2162857    1.4861197   388244 
 7104000   0.87654563   -3.2181162   -1.7309795   0.05375634   -3.2181162    1.4871368   388185 
 7105000   0.87683509   -3.2191754   -1.7314211  0.058444916   -3.2191754    1.4877543   388152 
 7106000   0.87625683   -3.2190288   -1.7321177   0.06008373   -3.2190288    1.4869111   388116 
 7107000     0.876385   -3.2190702   -1.7318688  0.059609546   -3.2190702    1.4872014   388097 
 7108000   0.87647553   -3.2193364   -1.7319814  0.059319681   -3.2193364     1.487355   388097 
 7109000   0.87487415    -3.217037   -1.7324072  0.056156379    -3.217037    1.4846299   388099 
 7110000   0.87672783   -3.2180089   -1.7303139  0.057611487   -3.2180089     1.487695   388120 
 7111000   0.87530426   -3.2150395   -1.7298252   0.06283361   -3.2150395    1.4852143   388137 
 7112000     0.876082   -3.2177993   -1.7312538  0.058669903   -3.2177993    1.4865455   388134 
 7113000   0.87700718   -3.2174542   -1.7294347   0.06185854   -3.2174542    1.4880195   388159 
 7114000   0.87754245   -3.2182931   -1.7294651  0.061436732   -3.2182931     1.488828   388185 
 7115000    0.8758435    -3.217036   -1.7311364  0.059153768    -3.217036    1.4858996   388197 
 7116000   0.87700832   -3.2184035   -1.7304012  0.055129658   -3.2184035    1.4880023   388164 
 7117000   0.87756049   -3.2189814   -1.7301037   0.05445771   -3.2189814    1.4888777   388180 
 7118000   0.87501188   -3.2134679   -1.7288988  0.058900371   -3.2134679     1.484569   388176 
 7119000   0.87743641   -3.2168839   -1.7281669  0.056291626   -3.2168839    1.4887171   388167 
 7120000    0.8768479   -3.2162612   -1.7285848  0.056757826   -3.2162612    1.4876764   388178 
 7121000   0.87669498   -3.2163863   -1.7289425   0.05474399   -3.2163863    1.4874438   388171 
 7122000   0.87758474   -3.2162606   -1.7271921  0.056530775   -3.2162606    1.4890685   388141 
 7123000   0.87719692   -3.2155952   -1.7271925  0.057023296   -3.2155952    1.4884028   388143 
 7124000   0.87796641   -3.2165023   -1.7267708  0.050979281   -3.2165023    1.4897315   388137 
 7125000   0.87571316   -3.2139655   -1.7279157  0.053139769   -3.2139655    1.4860498   388100 
 7126000   0.87517298   -3.2130214   -1.7278155  0.058841101   -3.2130214    1.4852058   388081 
 7127000   0.87470579   -3.2139327   -1.7295159  0.059859735   -3.2139327    1.4844168   388080 
 7128000   0.87475559   -3.2121805    -1.727595  0.057641193   -3.2121805    1.4845855   388058 
 7129000   0.87501597   -3.2129996   -1.7280449  0.055493973   -3.2129996    1.4849547   388077 
 7130000   0.87398673   -3.2113318   -1.7280894  0.053506895   -3.2113318    1.4832424   388068 
 7131000   0.87498145   -3.2123067   -1.7274067  0.056491272   -3.2123067    1.4848999   388076 
 7132000    0.8732062   -3.2101922   -1.7282553  0.055281842   -3.2101922    1.4819369   388063 
 7133000   0.87545875   -3.2125988   -1.7266477  0.053689277   -3.2125988    1.4859512   388013 
 7134000   0.87435862   -3.2109227   -1.7267699  0.057978608   -3.2109227    1.4841527   387995 
 7135000   0.87431738   -3.2120276   -1.7279219  0.054756213   -3.2120276    1.4841057   387989 
 7136000   0.87643899    -3.213957   -1.7262653  0.054841926    -3.213957    1.4876917   387993 
 7137000   0.87276018   -3.2077206   -1.7261971  0.051936008   -3.2077206    1.4815235   387973 
 7138000   0.87437225   -3.2102565   -1.7258396  0.056220087   -3.2102565    1.4844169   387932 
 7139000   0.87477739   -3.2120203   -1.7269653   0.05373766   -3.2120203    1.4850549   387945 
 7140000   0.87520124   -3.2140861   -1.7282082  0.053644373   -3.2140861    1.4858779   387918 
 7141000   0.87370174   -3.2104702   -1.7271304  0.056485772   -3.2104702    1.4833398   387916 
 7142000   0.87342042   -3.2096362   -1.7267053  0.055900378   -3.2096362     1.482931   387898 
 7143000   0.87474149   -3.2108845   -1.7256684    0.0570912   -3.2108845    1.4852161   387887 
 7144000   0.87578999   -3.2144979   -1.7273291  0.051593801   -3.2144979    1.4871688   387842 
 7145000   0.87466548   -3.2126625   -1.7274032  0.061106564   -3.2126625    1.4852593   387842 
 7146000    0.8761006   -3.2139504   -1.7263692  0.056774825   -3.2139504    1.4875812   387872 
 7147000   0.87677785   -3.2145293   -1.7257137  0.054186488   -3.2145293    1.4888156   387850 
 7148000   0.87602641   -3.2132861   -1.7257925  0.060250295   -3.2132861    1.4874936   387862 
 7149000   0.87717963   -3.2161653   -1.7266982  0.058836987   -3.2161653    1.4894671   387858 
 7150000   0.87641673   -3.2150287    -1.726715  0.055081906   -3.2150287    1.4883137   387821 
 7151000   0.87587345   -3.2148488    -1.727404  0.056412792   -3.2148488    1.4874448   387807 
 7152000   0.87534648   -3.2143949   -1.7277645  0.055536508   -3.2143949    1.4866303   387786 
 7153000   0.87439383    -3.214049   -1.7290442  0.057518818    -3.214049    1.4850048   387788 
 7154000   0.87318916   -3.2125882    -1.729549  0.061507495   -3.2125882    1.4830392   387767 
 7155000   0.87498061   -3.2144535   -1.7283449  0.058860443   -3.2144535    1.4861086   387760 
 7156000   0.87363409   -3.2130333   -1.7292768  0.061111752   -3.2130333    1.4837566   387777 
 7157000    0.8737611    -3.213952   -1.7300486  0.056019999    -3.213952    1.4839034   387795 
 7158000   0.87489039   -3.2158076   -1.7299786  0.059212805   -3.2158076    1.4858289   387793 
 7159000    0.8745038   -3.2155329   -1.7302647  0.056592052   -3.2155329    1.4852681   387768 
 7160000   0.87438575   -3.2159404   -1.7309264  0.057434251   -3.2159404     1.485014   387782 
 7161000   0.87484054   -3.2154759   -1.7296359  0.057565296   -3.2154759    1.4858401   387768 
 7162000   0.87484582   -3.2158778   -1.7300632  0.054183067   -3.2158778    1.4858146   387777 
 7163000   0.87494947   -3.2170792    -1.731058     0.055734   -3.2170792    1.4860212   387769 
 7164000   0.87478619   -3.2159028   -1.7301972  0.058528671   -3.2159028    1.4857056   387779 
 7165000   0.87440793   -3.2167921   -1.7317136  0.057709662   -3.2167921    1.4850785   387775 
 7166000   0.87435353   -3.2146115   -1.7296598  0.054488601   -3.2146115    1.4849517   387784 
 7167000   0.87450047   -3.2131736   -1.7280489  0.056951213   -3.2131736    1.4851246   387804 
 7168000    0.8754075    -3.215455   -1.7287249  0.056480365    -3.215455    1.4867302   387787 
 7169000   0.87614526   -3.2163677   -1.7285265  0.055654693   -3.2163677    1.4878411   387824 
 7170000   0.87663162   -3.2174284   -1.7287229  0.057286107   -3.2174284    1.4887055   387814 
 7171000   0.87612288   -3.2163493    -1.728619  0.060666069   -3.2163493    1.4877303   387843 
 7172000   0.87433114   -3.2141984   -1.7294188  0.058817332   -3.2141984    1.4847796   387819 
 7173000    0.8751617   -3.2148586   -1.7285229  0.054400623   -3.2148586    1.4863357   387781 
 7174000   0.87536424   -3.2135558   -1.7268531  0.056633721   -3.2135558    1.4867027   387775 
 7175000   0.87441769   -3.2141634   -1.7290339  0.061707817   -3.2141634    1.4851296   387766 
 7176000   0.87419339   -3.2145226   -1.7297778   0.05780373   -3.2145226    1.4847448   387767 
 7177000   0.87519418   -3.2174656   -1.7309866  0.055251535   -3.2174656     1.486479   387758 
 7178000   0.87386645   -3.2152537   -1.7309877  0.061086064   -3.2152537     1.484266   387747 
 7179000   0.87377685    -3.215913   -1.7318068  0.060325538    -3.215913    1.4841062   387749 
 7180000   0.87468649   -3.2162584   -1.7306876  0.057415207   -3.2162584    1.4855708   387770 
 7181000   0.87475198   -3.2160296   -1.7302863  0.055219172   -3.2160296    1.4857433   387754 
 7182000   0.87478609   -3.2158505   -1.7300569   0.05662483   -3.2158505    1.4857936   387756 
 7183000   0.87630978   -3.2167854   -1.7283809  0.056014515   -3.2167854    1.4884045   387750 
 7184000   0.87480534   -3.2147613   -1.7290308  0.061672998   -3.2147613    1.4857305   387781 
 7185000   0.87584969   -3.2151401   -1.7274825  0.059051789   -3.2151401    1.4876576   387741 
 7186000   0.87719722   -3.2174659   -1.7274426   0.05481505   -3.2174659    1.4900233   387721 
 7187000   0.87667536   -3.2170834   -1.7279965  0.061054395   -3.2170834    1.4890869   387734 
 7188000   0.87619122   -3.2154004   -1.7270591  0.057637312   -3.2154004    1.4883413   387714 
 7189000   0.87498792   -3.2145347   -1.7284596  0.061687161   -3.2145347    1.4860751   387772 
 7190000   0.87411011   -3.2129264   -1.7282963  0.052791931   -3.2129264    1.4846301   387760 
 7191000   0.87542394   -3.2133188   -1.7265415  0.061303509   -3.2133188    1.4867772   387782 
 7192000   0.87547423   -3.2133673   -1.7265353  0.055292219   -3.2133673     1.486832   387790 
 7193000   0.87498045    -3.212135   -1.7262566  0.054730213    -3.212135    1.4858784   387820 
 7194000    0.8757536   -3.2129332   -1.7256536  0.056943835   -3.2129332    1.4872796   387797 
 7195000   0.87422181   -3.2113757   -1.7266937  0.060399122   -3.2113757     1.484682   387796 
 7196000   0.87659243    -3.215963   -1.7273625  0.056501761    -3.215963    1.4886005   387824 
 7197000   0.87626153   -3.2140916   -1.7259111  0.055954603   -3.2140916    1.4881806   387787 
 7198000   0.87598949   -3.2125416   -1.7250417  0.054110144   -3.2125416    1.4874999   387844 
 7199000   0.87683576   -3.2128376   -1.7240311  0.057297208   -3.2128376    1.4888064   387878 
 7200000   0.87473664    -3.208658   -1.7235114  0.058938187    -3.208658    1.4851465   387903 
 7201000   0.87610649   -3.2115039   -1.7241351  0.060832427   -3.2115039    1.4873688   387930 
 7202000   0.87416531   -3.2103455   -1.7262684  0.059390679   -3.2103455    1.4840771   387929 
 7203000   0.87555243   -3.2116107   -1.7251596  0.054257879   -3.2116107    1.4864511   387924 
 7204000   0.87394082    -3.210273   -1.7264777  0.055208861    -3.210273    1.4837954   387903 
 7205000   0.87410621   -3.2091716   -1.7251069  0.055475091   -3.2091716    1.4840647   387906 
 7206000   0.87427539   -3.2093774   -1.7250943  0.052910346   -3.2093774    1.4842831   387924 
 7207000    0.8740196   -3.2093655   -1.7253905  0.053762193   -3.2093655    1.4839751   387891 
 7208000   0.87389338   -3.2077804   -1.7239814  0.057613212   -3.2077804     1.483799   387881 
 7209000   0.87568821   -3.2096253   -1.7225948   0.05399327   -3.2096253    1.4870305   387833 
 7210000   0.87526099   -3.2103777     -1.72395  0.055930832   -3.2103777    1.4864277   387801 
 7211000   0.87546695   -3.2105548   -1.7235895  0.054137011   -3.2105548    1.4869653   387752 
 7212000    0.8751867   -3.2094664   -1.7228544  0.054591627   -3.2094664     1.486612   387720 
 7213000    0.8748797   -3.2086625   -1.7226333  0.053693193   -3.2086625    1.4860292   387736 
 7214000   0.87436724   -3.2080576   -1.7229946  0.057164903   -3.2080576     1.485063   387761 
 7215000   0.87506825   -3.2099938     -1.72379  0.053058673   -3.2099938    1.4862038   387774 
 7216000   0.87392025   -3.2091658    -1.724862  0.059674737   -3.2091658    1.4843038   387761 
 7217000    0.8741735   -3.2100195   -1.7251247  0.050424323   -3.2100195    1.4848948   387719 
 7218000   0.87430505   -3.2102341   -1.7251427  0.052766004   -3.2102341    1.4850914   387726 
 7219000   0.87481605   -3.2092269   -1.7232904  0.053657507   -3.2092269    1.4859364   387732 
 7220000   0.87432609    -3.208175   -1.7231589  0.050320001    -3.208175    1.4850161   387755 
 7221000   0.87341696   -3.2065675   -1.7230075  0.053765995   -3.2065675      1.48356   387732 
 7222000   0.87451161    -3.208402   -1.7229712  0.055778134    -3.208402    1.4854308   387729 
 7223000    0.8747422   -3.2081238   -1.7222936  0.051413215   -3.2081238    1.4858301   387727 
 7224000   0.87387021   -3.2062085   -1.7219552  0.058755562   -3.2062085    1.4842533   387752 
 7225000   0.87480105    -3.207668   -1.7219256  0.057316312    -3.207668    1.4857424   387776 
 7226000   0.87617858   -3.2102458   -1.7220871  0.052691118   -3.2102458    1.4881587   387756 
 7227000   0.87537313    -3.209197   -1.7222223  0.055400967    -3.209197    1.4869747   387708 
 7228000   0.87386457   -3.2074777   -1.7230885  0.055580242   -3.2074777    1.4843892   387714 
 7229000   0.87514299   -3.2093488   -1.7226347  0.053927474   -3.2093488    1.4867142   387674 
 7230000   0.87302097   -3.2077892   -1.7246264  0.061012716   -3.2077892    1.4831628   387660 
 7231000   0.87463441   -3.2082565   -1.7223757  0.052711228   -3.2082565    1.4858808   387666 
 7232000   0.87570551   -3.2092937   -1.7214858  0.054518434   -3.2092937    1.4878079   387638 
 7233000   0.87605625   -3.2099238   -1.7214854  0.058630734   -3.2099238    1.4884384   387629 
 7234000   0.87597335   -3.2105021   -1.7222084  0.053257504   -3.2105021    1.4882937   387630 
 7235000   0.87522333    -3.208737   -1.7215756  0.056826541    -3.208737    1.4871614   387593 
 7236000   0.87512473   -3.2099351   -1.7230525  0.056899158   -3.2099351    1.4868826   387622 
 7237000   0.87415885    -3.207613    -1.722406  0.056141312    -3.207613     1.485207   387631 
 7238000   0.87459776   -3.2093715   -1.7233498  0.058325402   -3.2093715    1.4860217   387613 
 7239000   0.87481289   -3.2097156   -1.7233475  0.056420998   -3.2097156    1.4863681   387618 
 7240000   0.87421511   -3.2086996   -1.7232897   0.05194848   -3.2086996    1.4854099   387603 
 7241000   0.87414672   -3.2088114   -1.7234718   0.05678425   -3.2088114    1.4853397   387591 
 7242000   0.87332295   -3.2080186   -1.7240327  0.059486169   -3.2080186    1.4839859   387579 
 7243000   0.87393606   -3.2090615   -1.7239649  0.061563587   -3.2090615    1.4850967   387561 
 7244000    0.8734895   -3.2100313   -1.7256207  0.056194486   -3.2100313    1.4844106   387542 
 7245000   0.87378152   -3.2110555   -1.7260605  0.057522048   -3.2110555     1.484995   387519 
 7246000   0.87451303   -3.2113136   -1.7251252  0.058897851   -3.2113136    1.4861883   387532 
 7247000   0.87411849    -3.210715   -1.7251512  0.058950006    -3.210715    1.4855638   387520 
 7248000   0.87514368    -3.210116   -1.7228636  0.060231827    -3.210116    1.4872524   387534 
 7249000   0.87451657   -3.2081561    -1.722004  0.061933311   -3.2081561    1.4861522   387543 
 7250000    0.8754414   -3.2093599   -1.7216284  0.062502936   -3.2093599    1.4877315   387541 
 7251000   0.87591155    -3.212057   -1.7234344  0.057533018    -3.212057    1.4886227   387517 
 7252000   0.87401568   -3.2108876   -1.7253452  0.052745628   -3.2108876    1.4855424   387480 
 7253000   0.87398108   -3.2101565   -1.7246192  0.055710289   -3.2101565    1.4855373   387466 
 7254000   0.87406885   -3.2112804   -1.7255824  0.054087519   -3.2112804     1.485698   387463 
 7255000    0.8732099   -3.2110852    -1.726786   0.05517453   -3.2110852    1.4842993   387447 
 7256000   0.87270884   -3.2105628   -1.7270846  0.057316611   -3.2105628    1.4834782   387439 
 7257000   0.87446088   -3.2109242   -1.7245177  0.059804977   -3.2109242    1.4864065   387452 
 7258000   0.87497896   -3.2114338   -1.7242886  0.054668648   -3.2114338    1.4871452   387489 
 7259000   0.87501264   -3.2105456   -1.7235044  0.058096452   -3.2105456    1.4870412   387531 
 7260000   0.87521948   -3.2097686   -1.7225102  0.057732613   -3.2097686    1.4872584   387566 
 7261000    0.8750647   -3.2088148   -1.7218233  0.060622431   -3.2088148    1.4869916   387567 
 7262000    0.8751142   -3.2090283   -1.7219718  0.059726847   -3.2090283    1.4870565   387572 
 7263000    0.8754477   -3.2090296     -1.72151  0.058368936   -3.2090296    1.4875196   387599 
 7264000   0.87691127   -3.2113923    -1.721359   0.05737234   -3.2113923    1.4900333   387592 
 7265000   0.87716246   -3.2118829   -1.7212612  0.055420304   -3.2118829    1.4906217   387550 
 7266000   0.87573501   -3.2111692   -1.7228466  0.057033813   -3.2111692    1.4883226   387517 
 7267000   0.87753846   -3.2131898   -1.7217291  0.060323435   -3.2131898    1.4914607   387498 
 7268000   0.87460801   -3.2078801   -1.7214844  0.059864994   -3.2078801    1.4863958   387520 
 7269000   0.87528689    -3.211948   -1.7242795  0.055457768    -3.211948    1.4876685   387489 
 7270000   0.87441012   -3.2090097   -1.7229349  0.058316223   -3.2090097    1.4860748   387516 
 7271000   0.87533849    -3.210439   -1.7228747  0.059047423    -3.210439    1.4875643   387539 
 7272000   0.87454457   -3.2089445   -1.7228176  0.057658768   -3.2089445    1.4861269   387562 
 7273000   0.87467933   -3.2078029   -1.7215007  0.054692412   -3.2078029    1.4863022   387576 
 7274000   0.87460286   -3.2063188   -1.7199739   0.05269002   -3.2063188    1.4863448   387531 
 7275000    0.8736146    -3.205477   -1.7207427  0.055371638    -3.205477    1.4847343   387513 
 7276000   0.87651604   -3.2105376   -1.7209106  0.058670237   -3.2105376    1.4896269   387523 
 7277000   0.87495676   -3.2087572   -1.7217687  0.058106921   -3.2087572    1.4869885   387520 
 7278000    0.8749722   -3.2085433   -1.7215094  0.058629821   -3.2085433    1.4870339   387515 
 7279000   0.87638471    -3.209375   -1.7200327  0.055961383    -3.209375    1.4893423   387539 
 7280000   0.87661143   -3.2090157   -1.7194496  0.055360536   -3.2090157    1.4895661   387581 
 7281000   0.87552083   -3.2064742   -1.7188841  0.060800791   -3.2064742    1.4875901   387613 
 7282000    0.8759754   -3.2066327   -1.7182587  0.060479908   -3.2066327     1.488374   387610 
 7283000   0.87466478   -3.2059596   -1.7196055   0.05935162   -3.2059596    1.4863542   387556 
 7284000   0.87593985   -3.2092452   -1.7206936  0.057019976   -3.2092452    1.4885517   387548 
 7285000   0.87442473   -3.2081975    -1.722209  0.059241348   -3.2081975    1.4859884   387545 
 7286000    0.8757729   -3.2090876   -1.7206813  0.060553727   -3.2090876    1.4884062   387512 
 7287000   0.87614994   -3.2100045   -1.7209767  0.061077222   -3.2100045    1.4890278   387517 
 7288000   0.87603424   -3.2084001   -1.7194883     0.060549   -3.2084001    1.4889119   387496 
 7289000   0.87526219   -3.2083498    -1.720658  0.058119464   -3.2083498    1.4876918   387472 
 7290000   0.87513229   -3.2092309   -1.7214796    0.0574944   -3.2092309    1.4877513   387399 
 7291000   0.87676644   -3.2117553   -1.7211759  0.060669181   -3.2117553    1.4905794   387386 
 7292000   0.87438518   -3.2083082   -1.7217464  0.060352557   -3.2083082    1.4865618   387378 
 7293000   0.87559779   -3.2107667   -1.7221356  0.056518271   -3.2107667    1.4886311   387376 
 7294000   0.87473337   -3.2097336   -1.7224877  0.056614981   -3.2097336    1.4872459   387354 
 7295000   0.87469709   -3.2085401   -1.7212944   0.05883702   -3.2085401    1.4872457   387338 
 7296000    0.8748562    -3.210325    -1.722805  0.056965365    -3.210325      1.48752   387337 
 7297000   0.87682532   -3.2123837   -1.7215194  0.056933017   -3.2123837    1.4908643   387338 
 7298000   0.87628197   -3.2129805   -1.7229016  0.051047271   -3.2129805    1.4900789   387302 
 7299000    0.8744619   -3.2101704    -1.723221  0.065320889   -3.2101704    1.4869494   387311 
 7300000    0.8741537   -3.2097626   -1.7233948  0.058458831   -3.2097626    1.4863678   387326 
 7301000   0.87325065   -3.2076647   -1.7228938  0.060753294   -3.2076647    1.4847709   387342 
 7302000   0.87382562   -3.2091126   -1.7235634  0.054443845   -3.2091126    1.4855491   387394 
 7303000   0.87365824   -3.2066868   -1.7215296  0.062499427   -3.2066868    1.4851572   387422 
 7304000   0.87409052   -3.2066349    -1.720716  0.062298453   -3.2066349    1.4859189   387415 
 7305000   0.87311536   -3.2061395   -1.7219856  0.057525881   -3.2061395    1.4841539   387443 
 7306000   0.87417249   -3.2082846   -1.7223721  0.061027487   -3.2082846    1.4859125   387453 
 7307000   0.87477208   -3.2074085   -1.7202811  0.061321528   -3.2074085    1.4871274   387402 
 7308000   0.87515173   -3.2067142   -1.7187148  0.058681216   -3.2067142    1.4879995   387343 
 7309000   0.87418036   -3.2054554   -1.7190615  0.061202041   -3.2054554    1.4863939   387331 
 7310000   0.87471732   -3.2064244   -1.7190329  0.062375558   -3.2064244    1.4873914   387309 
 7311000   0.87537467   -3.2082283   -1.7197537  0.056255643   -3.2082283    1.4884746   387318 
 7312000   0.87527397   -3.2097719   -1.7214109  0.058235024   -3.2097719     1.488361   387303 
 7313000   0.87492059   -3.2074298   -1.7195814  0.060282692   -3.2074298    1.4878485   387280 
 7314000     0.875285   -3.2083691   -1.7198395  0.057908678   -3.2083691    1.4885297   387264 
 7315000   0.87508881   -3.2072034   -1.7189881  0.063794859   -3.2072034    1.4882152   387259 
 7316000   0.87667773     -3.21024    -1.719311  0.059040041     -3.21024     1.490929   387256 
 7317000     0.875654   -3.2086877   -1.7194805  0.058838948   -3.2086877    1.4892072   387251 
 7318000   0.87473456   -3.2076957   -1.7197871  0.051394956   -3.2076957    1.4879086   387182 
 7319000   0.87544166   -3.2086377   -1.7193301  0.055181194   -3.2086377    1.4893076   387131 
 7320000   0.87254765   -3.2026325   -1.7182061   0.06082966   -3.2026325    1.4844264   387120 
 7321000   0.87455011   -3.2066704    -1.718622   0.05537596   -3.2066704    1.4880484   387064 
 7322000   0.87567142    -3.206884   -1.7170201  0.055183893    -3.206884    1.4898639   387088 
 7323000   0.87535138   -3.2050134   -1.7158172   0.05763456   -3.2050134    1.4891963   387120 
 7324000   0.87550686   -3.2071288   -1.7175487  0.054979014   -3.2071288    1.4895801   387089 
 7325000   0.87454137   -3.2055656   -1.7177666  0.054544379   -3.2055656     1.487799   387125 
 7326000   0.87426769   -3.2033687   -1.7160544  0.057284675   -3.2033687    1.4873142   387130 
 7327000   0.87460307   -3.2039288   -1.7159441  0.061702866   -3.2039288    1.4879847   387104 
 7328000   0.87453422   -3.2031345   -1.7151593  0.055350499   -3.2031345    1.4879752   387076 
 7329000   0.87417669   -3.2022713   -1.7148929  0.058437746   -3.2022713    1.4873784   387073 
 7330000   0.87539979   -3.2042988     -1.71467  0.051018483   -3.2042988    1.4896288   387029 
 7331000   0.87446472   -3.2029564   -1.7149226  0.058089177   -3.2029564    1.4880338   387030 
 7332000   0.87378083   -3.2033145   -1.7163523  0.056005716   -3.2033145    1.4869623   387006 
 7333000   0.87302408   -3.2030732   -1.7173143  0.056126804   -3.2030732    1.4857589   386984 
 7334000   0.87384224   -3.2039251   -1.7167469  0.051541903   -3.2039251    1.4871782   386977 
 7335000   0.87447604   -3.2061847   -1.7179009  0.055602818   -3.2061847    1.4882838   386970 
 7336000   0.87440733   -3.2042967   -1.7160453  0.055770351   -3.2042967    1.4882515   386948 
 7337000   0.87353412   -3.2031379    -1.716461  0.054939132   -3.2031379    1.4866769   386971 
 7338000   0.87377617   -3.2041003   -1.7171806  0.056387082   -3.2041003    1.4869197   387015 
 7339000   0.87322431   -3.2027518   -1.7166483  0.060176593   -3.2027518    1.4861035   386983 
 7340000     0.874883   -3.2047404    -1.715714  0.056891857   -3.2047404    1.4890264   386957 
 7341000   0.87495003    -3.205297   -1.7160141  0.059347643    -3.205297    1.4892829   386920 
 7342000   0.87482676   -3.2060401     -1.71694  0.058942929   -3.2060401       1.4891   386913 
 7343000   0.87453437   -3.2072504   -1.7187058  0.057648047   -3.2072504    1.4885446   386928 
 7344000    0.8749603   -3.2073025   -1.7181253  0.058681856   -3.2073025    1.4891772   386952 
 7345000   0.87487197   -3.2081737   -1.7190468  0.055641637   -3.2081737    1.4891269   386926 
 7346000   0.87570188   -3.2099608   -1.7194483  0.054781389   -3.2099608    1.4905126   386933 
 7347000   0.87483494   -3.2086612    -1.719578  0.058355183   -3.2086612    1.4890832   386921 
 7348000   0.87493932   -3.2089777   -1.7195129  0.054244198   -3.2089777    1.4894648   386868 
 7349000   0.87481805   -3.2105275   -1.7212344  0.060822109   -3.2105275     1.489293   386859 
 7350000   0.87479652   -3.2102118   -1.7209208  0.058238878   -3.2102118     1.489291   386850 
 7351000   0.87662406   -3.2112394   -1.7188178  0.059101398   -3.2112394    1.4924216   386845 
 7352000   0.87531915   -3.2094086   -1.7192163   0.05922371   -3.2094086    1.4901923   386847 
 7353000   0.87530262   -3.2081886   -1.7180475   0.06082658   -3.2081886    1.4901411   386853 
 7354000   0.87590276   -3.2085517   -1.7173889  0.059763842   -3.2085517    1.4911628   386853 
 7355000   0.87565626   -3.2091424   -1.7182181  0.054955293   -3.2091424    1.4909243   386806 
 7356000   0.87360643   -3.2052648   -1.7179998  0.057206214   -3.2052648     1.487265   386850 
 7357000   0.87522493   -3.2076483   -1.7176086  0.060618451   -3.2076483    1.4900396   386845 
 7358000    0.8737863   -3.2058569   -1.7181358  0.058786313   -3.2058569    1.4877212   386811 
 7359000   0.87336294   -3.2068558    -1.719817   0.05681392   -3.2068558    1.4870388   386801 
 7360000   0.87301289   -3.2064185   -1.7198181  0.054570582   -3.2064185    1.4866004   386760 
 7361000    0.8732823   -3.2051477   -1.7179348  0.060726748   -3.2051477    1.4872129   386720 
 7362000   0.87311483    -3.205899   -1.7189444  0.055682526    -3.205899    1.4869547   386713 
 7363000   0.87396363   -3.2057911   -1.7173408  0.054549346   -3.2057911    1.4884502   386700 
 7364000    0.8738796   -3.2052725   -1.7170154  0.056598319   -3.2052725    1.4882571   386713 
 7365000   0.87362652   -3.2040827   -1.7161989  0.056737698   -3.2040827    1.4878838   386698 
 7366000   0.87404063   -3.2034618   -1.7149536  0.059762411   -3.2034618    1.4885082   386719 
 7367000   0.87339806   -3.2036102   -1.7160463  0.057314144   -3.2036102    1.4875639   386680 
 7368000   0.87342317   -3.2032566   -1.7156307  0.053302692   -3.2032566    1.4876259   386675 
 7369000   0.87405453   -3.2038412   -1.7151284  0.056980319   -3.2038412    1.4887128   386672 
 7370000   0.87248253   -3.2027259   -1.7165214  0.055851113   -3.2027259    1.4862045   386628 
 7371000   0.87209031   -3.2020465   -1.7165831  0.049560252   -3.2020465    1.4854634   386647 
 7372000   0.87316695   -3.2016328   -1.7143547  0.053715141   -3.2016328     1.487278   386652 
 7373000   0.87312701   -3.2006981   -1.7134459  0.052632242   -3.2006981    1.4872523   386641 
 7374000    0.8734281   -3.2012341   -1.7135421   0.05458778   -3.2012341    1.4876921   386660 
 7375000   0.87343499   -3.2015211   -1.7138058  0.056522479   -3.2015211    1.4877153   386657 
 7376000   0.87351136   -3.2034536   -1.7154158  0.057300722   -3.2034536    1.4880378   386607 
 7377000   0.87336999   -3.2032639   -1.7153976  0.059675756   -3.2032639    1.4878663   386589 
 7378000   0.87307119   -3.2020795    -1.714653  0.057426122   -3.2020795    1.4874265   386571 
 7379000    0.8740234   -3.2042441   -1.7153225   0.05358637   -3.2042441    1.4889217   386604 
 7380000   0.87349477   -3.2052166   -1.7172686  0.049200667   -3.2052166     1.487948   386623 
 7381000   0.87376787   -3.2045894     -1.71613  0.056502618   -3.2045894    1.4884594   386611 
 7382000   0.87409558   -3.2065421   -1.7174821  0.056600965   -3.2065421      1.48906   386600 
 7383000   0.87410571   -3.2067175   -1.7173821  0.059724234   -3.2067175    1.4893354   386533 
 7384000   0.87298869   -3.2068224   -1.7191978  0.053508687   -3.2068224    1.4876246   386483 
 7385000    0.8721855   -3.2056055   -1.7193457   0.05775553   -3.2056055    1.4862598   386482 
 7386000   0.87293343   -3.2073668    -1.719894  0.058085873   -3.2073668    1.4874727   386498 
 7387000   0.87288832   -3.2071177   -1.7196372  0.056250158   -3.2071177    1.4874805   386476 
 7388000   0.87465397   -3.2101499   -1.7195449  0.054180391   -3.2101499    1.4906051   386446 
 7389000   0.87338554   -3.2083149   -1.7198908  0.058027062   -3.2083149    1.4884241   386451 
 7390000   0.87300305   -3.2102524   -1.7224917  0.055827905   -3.2102524    1.4877607   386454 
 7391000   0.87374557   -3.2089039   -1.7198161  0.055192162   -3.2089039    1.4890878   386438 
 7392000   0.87335728    -3.208026   -1.7196385  0.066617027    -3.208026    1.4883875   386448 
 7393000   0.87459729    -3.209813   -1.7193007  0.056670903    -3.209813    1.4905123   386445 
 7394000   0.87492891   -3.2107038   -1.7195878  0.061361012   -3.2107038    1.4911161   386435 
 7395000   0.87505715   -3.2096728    -1.718261  0.059898278   -3.2096728    1.4914118   386415 
 7396000   0.87391655   -3.2070246   -1.7176223  0.059331901   -3.2070246    1.4894023   386432 
 7397000   0.87305591   -3.2081749   -1.7201624  0.060563896   -3.2081749    1.4880125   386412 
 7398000   0.87294399   -3.2087041    -1.720917  0.058968584   -3.2087041    1.4877871   386421 
 7399000    0.8720862   -3.2079596   -1.7215575  0.059742596   -3.2079596    1.4864021   386401 
 7400000   0.87300164   -3.2092741   -1.7212347  0.059738093   -3.2092741    1.4880394   386381 
 7401000   0.87258723   -3.2083428   -1.7210252  0.054154865   -3.2083428    1.4873176   386385 
 7402000   0.87151144   -3.2067863   -1.7211563  0.056095707   -3.2067863    1.4856301   386347 
 7403000   0.87131489   -3.2071463   -1.7218859  0.056490085   -3.2071463    1.4852604   386356 
 7404000   0.87156997   -3.2063691   -1.7207161  0.056098576   -3.2063691    1.4856529   386367 
 7405000   0.87119869   -3.2056571   -1.7206678   0.05496244   -3.2056571    1.4849893   386375 
 7406000   0.87143329   -3.2053789   -1.7199474  0.055587935   -3.2053789    1.4854315   386364 
 7407000   0.87128408   -3.2038102   -1.7187714  0.058721044   -3.2038102    1.4850388   386400 
 7408000   0.87182515   -3.2050705   -1.7190018  0.056824039   -3.2050705    1.4860687   386372 
 7409000   0.87152625   -3.2054736   -1.7196453  0.055280093   -3.2054736    1.4858284   386302 
 7410000   0.87216624   -3.2062566   -1.7193794  0.056525615   -3.2062566    1.4868771   386313 
 7411000   0.87303216   -3.2076229   -1.7191269  0.055178304   -3.2076229    1.4884959   386276 
 7412000   0.87208431   -3.2051031    -1.718177  0.054290596   -3.2051031    1.4869261   386264 
 7413000   0.86974527   -3.2029054   -1.7198907  0.057436332   -3.2029054    1.4830147   386244 
 7414000   0.87191699   -3.2048917   -1.7180122  0.055420579   -3.2048917    1.4868794   386202 
 7415000   0.87016355   -3.2043105   -1.7203597  0.051594203   -3.2043105    1.4839508   386186 
 7416000   0.87214197   -3.2077357   -1.7204418  0.055135788   -3.2077357    1.4872939   386194 
 7417000   0.87227402   -3.2062884      -1.7187  0.054285761   -3.2062884    1.4875884   386176 
 7418000   0.87270118   -3.2061801   -1.7177977  0.055653673   -3.2061801    1.4883824   386159 
 7419000    0.8717127   -3.2054716   -1.7186672  0.060098538   -3.2054716    1.4868044   386131 
 7420000   0.87354865   -3.2073924   -1.7173871   0.05812057   -3.2073924    1.4900053   386113 
 7421000   0.87430594   -3.2093274   -1.7179416  0.061350494   -3.2093274    1.4913858   386090 
 7422000   0.87319097   -3.2061407   -1.7166992  0.058485888   -3.2061407    1.4894415   386101 
 7423000   0.87416877   -3.2071368   -1.7160583  0.058367051   -3.2071368    1.4910785   386109 
 7424000   0.87346727   -3.2067144   -1.7167283   0.05945858   -3.2067144    1.4899861   386082 
 7425000   0.87356642   -3.2067473   -1.7167233   0.05792935   -3.2067473     1.490024   386116 
 7426000   0.87198818   -3.2054994   -1.7182175  0.060973271   -3.2054994     1.487282   386129 
 7427000   0.87339433   -3.2078374   -1.7180954  0.057774975   -3.2078374     1.489742   386113 
 7428000   0.87201192   -3.2049752   -1.7176451   0.05785016   -3.2049752    1.4873302   386127 
 7429000   0.87121696   -3.2042722    -1.718321  0.055971527   -3.2042722    1.4859512   386133 
 7430000   0.87130496   -3.2054776   -1.7193225  0.055499621   -3.2054776    1.4861551   386119 
 7431000   0.87120015    -3.204989    -1.719082   0.05360563    -3.204989    1.4859071   386137 
 7432000   0.87139054    -3.204042    -1.717687  0.055815512    -3.204042     1.486355   386105 
 7433000   0.87348985   -3.2076885   -1.7178646   0.05808363   -3.2076885     1.489824   386134 
 7434000   0.87294068   -3.2038298   -1.7150505  0.061262812   -3.2038298    1.4887793   386162 
 7435000   0.87267151   -3.2042756   -1.7159707  0.054719597   -3.2042756    1.4883048   386166 
 7436000   0.87300439   -3.2050128   -1.7159474  0.055238039   -3.2050128    1.4890654   386116 
 7437000   0.87207353   -3.2036867   -1.7162091  0.054911159   -3.2036867    1.4874776   386116 
 7438000   0.87259134   -3.2036938   -1.7153137  0.055305654   -3.2036938    1.4883801   386111 
 7439000   0.87371102   -3.2041117   -1.7138334  0.055788442   -3.2041117    1.4902784   386114 
 7440000   0.87290604   -3.2019324   -1.7130425  0.058659563   -3.2019324    1.4888899   386118 
 7441000   0.87243138   -3.2029066   -1.7147376  0.056695582   -3.2029066    1.4881689   386095 
 7442000   0.87151383   -3.2016552    -1.715009  0.060200553   -3.2016552    1.4866462   386084 
 7443000   0.87313831   -3.2025669   -1.7132461  0.057141743   -3.2025669    1.4893208   386109 
 7444000   0.87302869   -3.2039067   -1.7147767  0.054136912   -3.2039067    1.4891299   386110 
 7445000   0.87278712   -3.2048323   -1.7159679  0.054908408   -3.2048323    1.4888644   386072 
 7446000   0.87120033   -3.2035632    -1.717525  0.052457595   -3.2035632    1.4860383   386103 
 7447000   0.87171017     -3.20331   -1.7164367  0.056660882     -3.20331    1.4868732   386112 
 7448000   0.87197358   -3.2037185    -1.716315  0.054896096   -3.2037185    1.4874034   386091 
 7449000   0.87238658   -3.2038971   -1.7156311  0.053113972   -3.2038971     1.488266   386050 
 7450000   0.87141202   -3.2025754   -1.7160259  0.060539236   -3.2025754    1.4865495   386064 
 7451000   0.87163556   -3.2035424   -1.7164652  0.054891085   -3.2035424    1.4870772   386026 
 7452000   0.87172156   -3.2045147   -1.7171328  0.053810697   -3.2045147    1.4873819   385985 
 7453000   0.87253382   -3.2040414   -1.7152234   0.05240623   -3.2040414     1.488818   385972 
 7454000   0.87286264   -3.2049359   -1.7155453  0.055929752   -3.2049359    1.4893906   385969 
 7455000   0.87152847   -3.2048793   -1.7176805  0.054368083   -3.2048793    1.4871988   385947 
 7456000   0.87187345      -3.2055   -1.7175737  0.054501732      -3.2055    1.4879263   385911 
 7457000   0.87205886   -3.2058808   -1.7174182  0.058488845   -3.2058808    1.4884626   385854 
 7458000    0.8727403   -3.2076259   -1.7178612  0.055637141   -3.2076259    1.4897647   385818 
 7459000   0.87158675   -3.2064877   -1.7186381  0.053998208   -3.2064877    1.4878496   385804 
 7460000   0.87214026   -3.2071876   -1.7183199  0.056144316   -3.2071876    1.4888678   385785 
 7461000   0.87322772   -3.2084872   -1.7177012  0.060300194   -3.2084872    1.4907861   385769 
 7462000   0.87260913   -3.2071962   -1.7173117  0.054815451   -3.2071962    1.4898845   385729 
 7463000   0.87266978   -3.2094161   -1.7193701  0.057620479   -3.2094161     1.490046   385714 
 7464000    0.8713981   -3.2066468   -1.7186912  0.056366235   -3.2066468    1.4879556   385693 
 7465000    0.8701501   -3.2056272     -1.71961  0.055303041   -3.2056272    1.4860173   385643 
 7466000   0.87226368   -3.2088111   -1.7192808   0.06514203   -3.2088111    1.4895302   385668 
 7467000   0.87225468   -3.2083665   -1.7187435  0.057989896   -3.2083665     1.489623   385640 
 7468000   0.87112688   -3.2074393   -1.7196651  0.058232009   -3.2074393    1.4877741   385620 
 7469000   0.87155824   -3.2075809   -1.7191589  0.056230572   -3.2075809     1.488422   385643 
 7470000   0.87199811   -3.2078075   -1.7186613  0.054418596   -3.2078075    1.4891462   385650 
 7471000   0.87005072    -3.205678   -1.7197534   0.05826539    -3.205678    1.4859246   385623 
 7472000   0.87133289   -3.2075015   -1.7194025  0.054970196   -3.2075015    1.4880989   385627 
 7473000   0.87036304   -3.2060695    -1.719573  0.056209278   -3.2060695    1.4864965   385613 
 7474000   0.86956783   -3.2047994   -1.7195339   0.05805882   -3.2047994    1.4852655   385580 
 7475000   0.87045353   -3.2044517   -1.7175885  0.058555774   -3.2044517    1.4868632   385558 
 7476000   0.86878889   -3.2031795   -1.7191559  0.058114937   -3.2031795    1.4840236   385557 
 7477000   0.87045832   -3.2052358   -1.7183721  0.059550607   -3.2052358    1.4868636   385560 
 7478000   0.87113646   -3.2055889   -1.7176402  0.057805852   -3.2055889    1.4879487   385579 
 7479000   0.87084921   -3.2053128   -1.7177854  0.056108678   -3.2053128    1.4875275   385561 
 7480000   0.87080822   -3.2041663   -1.7168014  0.051797961   -3.2041663    1.4873649   385585 
 7481000   0.87048665   -3.2052453   -1.7182793  0.056102974   -3.2052453     1.486966   385546 
 7482000   0.87173074   -3.2064214   -1.7172182  0.059081946   -3.2064214    1.4892032   385517 
 7483000   0.87135449   -3.2056915    -1.717355  0.059035654   -3.2056915    1.4883365   385575 
 7484000   0.87084578   -3.2027945   -1.7153346  0.058250132   -3.2027945    1.4874599   385577 
 7485000   0.87103708   -3.2035152   -1.7155819  0.055478231   -3.2035152    1.4879333   385539 
 7486000   0.87072378   -3.2052148   -1.7178668  0.052995805   -3.2052148    1.4873479   385552 
 7487000   0.86949444   -3.2033714    -1.718081  0.051988926   -3.2033714    1.4852904   385541 
 7488000     0.869592   -3.2037656     -1.71822  0.057499949   -3.2037656    1.4855457   385518 
 7489000   0.87028322   -3.2051585   -1.7184436  0.053226033   -3.2051585    1.4867149   385521 
 7490000   0.87101321   -3.2052022   -1.7172943  0.052201283   -3.2052022     1.487908   385535 
 7491000   0.87070435   -3.2042178    -1.716822  0.051293271   -3.2042178    1.4873958   385531 
 7492000     0.869463    -3.203972   -1.7186198  0.055495903    -3.203972    1.4853523   385511 
 7493000   0.86956749   -3.2028325   -1.7172478  0.053440289   -3.2028325    1.4855847   385497 
 7494000   0.87021004   -3.2030702   -1.7163261  0.057777695   -3.2030702    1.4867442   385481 
 7495000   0.87069761    -3.204493   -1.7167885  0.058681777    -3.204493    1.4877045   385448 
 7496000   0.86936754   -3.2033527   -1.7179362  0.058319386   -3.2033527    1.4854165   385452 
 7497000   0.87136278   -3.2069003   -1.7180978  0.056568605   -3.2069003    1.4888025   385458 
 7498000    0.8693071    -3.204817   -1.7193458  0.059275157    -3.204817    1.4854713   385411 
 7499000   0.87014998   -3.2050226   -1.7181496  0.059889754   -3.2050226     1.486873   385421 
 7500000   0.87043647    -3.206505    -1.719073  0.055829366    -3.206505     1.487432   385403 
 7501000   0.86940441   -3.2059628   -1.7202096  0.052461302   -3.2059628    1.4857532   385381 
 7502000   0.86951497   -3.2057118   -1.7198159  0.052772927   -3.2057118    1.4858959   385393 
 7503000   0.86993399   -3.2073168   -1.7206161  0.060130124   -3.2073168    1.4867006   385370 
 7504000   0.86873591   -3.2068221   -1.7219108  0.054421321   -3.2068221    1.4849113   385303 
 7505000   0.87057417   -3.2093896   -1.7213323  0.061433625   -3.2093896    1.4880573   385302 
 7506000   0.87159725   -3.2105155   -1.7205665  0.052506903   -3.2105155    1.4899491   385265 
 7507000   0.87175464   -3.2106941   -1.7203561  0.057160294   -3.2106941     1.490338   385234 
 7508000   0.87086259   -3.2093693   -1.7205679  0.060541438   -3.2093693    1.4888014   385237 
 7509000   0.87021316   -3.2084212    -1.720676  0.057885401   -3.2084212    1.4877452   385223 
 7510000   0.87131819   -3.2103618   -1.7207969  0.059617102   -3.2103618    1.4895648   385241 
 7511000   0.87032143    -3.209803   -1.7221623  0.059433021    -3.209803    1.4876407   385298 
 7512000   0.87204644   -3.2113973   -1.7206843  0.054215645   -3.2113973    1.4907131   385266 
 7513000   0.87031836   -3.2085514   -1.7206882  0.057104239   -3.2085514    1.4878633   385239 
 7514000    0.8697608    -3.207038    -1.720178  0.059800341    -3.207038    1.4868599   385252 
 7515000   0.87176031   -3.2090936   -1.7187188  0.057785807   -3.2090936    1.4903748   385227 
 7516000   0.87055595    -3.209037   -1.7206903  0.055618963    -3.209037    1.4883467   385219 
 7517000   0.86944785   -3.2061376   -1.7196274  0.059839539   -3.2061376    1.4865102   385204 
 7518000   0.87073807   -3.2102973   -1.7214382  0.056411497   -3.2102973    1.4888591   385167 
 7519000   0.87055671   -3.2093192   -1.7207587  0.053170711   -3.2093192    1.4885606   385164 
 7520000   0.86965297   -3.2073529   -1.7203145  0.056167927   -3.2073529    1.4870384   385158 
 7521000   0.87042855   -3.2079047   -1.7194048  0.053318111   -3.2079047    1.4884999   385123 
 7522000   0.86936638   -3.2057776    -1.719152  0.048603289   -3.2057776    1.4866256   385138 
 7523000   0.86947824   -3.2054525   -1.7185006  0.052372218   -3.2054525     1.486952   385103 
 7524000   0.86979537   -3.2043345   -1.7168633  0.056892446   -3.2043345    1.4874712   385109 
 7525000   0.86995237   -3.2058229   -1.7180794  0.057916061   -3.2058229    1.4877435   385108 
 7526000    0.8708551   -3.2063611   -1.7171048  0.056332593   -3.2063611    1.4892564   385116 
 7527000   0.86936773   -3.2049038   -1.7181138  0.056168565   -3.2049038      1.48679   385096 
 7528000   0.86912406   -3.2059504   -1.7195887    0.0547434   -3.2059504    1.4863617   385099 
 7529000   0.86884126   -3.2055702    -1.719561   0.05503358   -3.2055702    1.4860093   385065 
 7530000   0.86938469   -3.2049774   -1.7179653  0.056856494   -3.2049774    1.4870121   385046 
 7531000   0.87069977   -3.2076937   -1.7184323  0.056849017   -3.2076937    1.4892614   385046 
 7532000   0.86790444   -3.2024187   -1.7179847  0.054981771   -3.2024187     1.484434   385058 
 7533000   0.87123601   -3.2061574   -1.7159246  0.056202996   -3.2061574    1.4902328   385032 
 7534000   0.86946591   -3.2039431   -1.7166067   0.05684224   -3.2039431    1.4873364   384998 
 7535000   0.86978803   -3.2064198   -1.7184202  0.055654186   -3.2064198    1.4879996   384969 
 7536000   0.86950185   -3.2057198    -1.718063  0.057016572   -3.2057198    1.4876568   384931 
 7537000   0.87030624   -3.2057849    -1.716748  0.052729389   -3.2057849    1.4890369   384930 
 7538000   0.86885919   -3.2036259   -1.7170571  0.056758092   -3.2036259    1.4865688   384928 
 7539000   0.87018017   -3.2054608   -1.7166241  0.054363122   -3.2054608    1.4888367   384926 
 7540000   0.86910634   -3.2051158   -1.7180236   0.05355525   -3.2051158    1.4870922   384902 
 7541000   0.86889281    -3.205219    -1.718496  0.052090613    -3.205219    1.4867229   384903 
 7542000   0.86801626   -3.2039396   -1.7186664  0.052640574   -3.2039396    1.4852733   384890 
 7543000   0.86948092   -3.2052698   -1.7174014  0.052509744   -3.2052698    1.4878684   384867 
 7544000   0.86780418   -3.2032549   -1.7182712  0.054748665   -3.2032549    1.4849837   384871 
 7545000   0.86852859   -3.2021298   -1.7160185  0.056243401   -3.2021298    1.4861113   384900 
 7546000   0.86870476   -3.2037431   -1.7172878   0.05001925   -3.2037431    1.4864552   384889 
 7547000   0.86855415   -3.2029197   -1.7166218   0.05814563   -3.2029197    1.4862979   384863 
 7548000   0.87029272   -3.2037252   -1.7144096  0.055929806   -3.2037252    1.4893156   384852 
 7549000   0.87070499   -3.2055286   -1.7155075  0.054816475   -3.2055286    1.4900211   384852 
 7550000   0.87028781   -3.2054149   -1.7160458  0.056998884   -3.2054149    1.4893691   384836 
 7551000   0.87049612   -3.2051967   -1.7153821  0.057187663   -3.2051967    1.4898146   384813 
 7552000   0.86899718   -3.2028838   -1.7156577  0.059510342   -3.2028838    1.4872261   384819 
 7553000   0.87048769   -3.2062925   -1.7164032  0.053372323   -3.2062925    1.4898893   384790 
 7554000   0.86892858   -3.2024745   -1.7152151  0.055181584   -3.2024745    1.4872594   384780 
 7555000   0.86885442   -3.2037371   -1.7166201  0.056696786   -3.2037371     1.487117   384784 
 7556000   0.86793075   -3.2018705   -1.7164233  0.051340148   -3.2018705    1.4854473   384807 
 7557000   0.86872033   -3.2046637   -1.7178612  0.056140715   -3.2046637    1.4868025   384806 
 7558000   0.87134597   -3.2083931   -1.7169495  0.054373135   -3.2083931    1.4914435   384768 
 7559000   0.87051565   -3.2055514   -1.7155678  0.056962182   -3.2055514    1.4899836   384778 
 7560000    0.8702893   -3.2060522   -1.7164367   0.05968102   -3.2060522    1.4896155   384773 
 7561000   0.86788624   -3.2024252   -1.7170078   0.06203069   -3.2024252    1.4854174   384795 
 7562000   0.86966755   -3.2053823   -1.7166956  0.058041075   -3.2053823    1.4886867   384738 
 7563000   0.86911737   -3.2045248   -1.7168572  0.064097029   -3.2045248    1.4876676   384758 
 7564000   0.86887133   -3.2049558   -1.7177983   0.06226868   -3.2049558    1.4871576   384781 
 7565000   0.87037989   -3.2061259   -1.7164483  0.053783308   -3.2061259    1.4896777   384797 
 7566000   0.86865097   -3.2034664   -1.7167401  0.056613219   -3.2034664    1.4867263   384795 
 7567000   0.86905695   -3.2028975   -1.7154106  0.054244695   -3.2028975    1.4874868   384778 
 7568000   0.86928578   -3.2038914   -1.7161404  0.058998722   -3.2038914    1.4877509   384811 
 7569000   0.87052136    -3.206491   -1.7165596  0.057886876    -3.206491    1.4899314   384794 
 7570000   0.87052348    -3.205545   -1.7154977  0.058377258    -3.205545    1.4900473   384765 
 7571000    0.8694416   -3.2048127   -1.7166558  0.062359355   -3.2048127    1.4881568   384775 
 7572000   0.87166774   -3.2076269   -1.7155667  0.059085425   -3.2076269    1.4920602   384751 
 7573000   0.86886369   -3.2034054   -1.7161952  0.059058922   -3.2034054    1.4872102   384764 
 7574000   0.87018855   -3.2052251   -1.7156891  0.060812089   -3.2052251     1.489536   384749 
 7575000   0.87052351   -3.2056114   -1.7155098  0.056572726   -3.2056114    1.4901016   384751 
 7576000   0.86954424   -3.2045744   -1.7160833  0.055743275   -3.2045744    1.4884911   384734 
 7577000   0.86986108   -3.2043684   -1.7152962  0.058426063   -3.2043684    1.4890722   384724 
 7578000   0.87034015   -3.2042582    -1.714366  0.055664936   -3.2042582    1.4898923   384724 
 7579000   0.86896939   -3.2038938   -1.7163441  0.057968131   -3.2038938    1.4875496   384723 
 7580000   0.86805872   -3.2031145   -1.7172512   0.05504377   -3.2031145    1.4858632   384756 
 7581000   0.86853139   -3.2051697   -1.7183467  0.059945459   -3.2051697     1.486823   384717 
 7582000    0.8691703     -3.20576   -1.7177891  0.053176888     -3.20576    1.4879709   384703 
 7583000   0.86758325   -3.2033615   -1.7180959  0.052071591   -3.2033615    1.4852655   384700 
 7584000   0.86847936   -3.2042228   -1.7173922   0.05384115   -3.2042228    1.4868306   384692 
 7585000   0.86873873   -3.2049666   -1.7175219  0.052410251   -3.2049666    1.4874447   384648 
 7586000   0.86863454   -3.2039147   -1.7166947  0.052672979   -3.2039147    1.4872199   384660 
 7587000   0.86845853   -3.2020524   -1.7153464  0.058459446   -3.2020524     1.486706   384715 
 7588000   0.86865269   -3.2033174   -1.7161282  0.055799409   -3.2033174    1.4871892   384676 
 7589000   0.86832508   -3.2027211   -1.7160541  0.052145586   -3.2027211    1.4866669   384666 
 7590000   0.86859098   -3.2041204   -1.7170214  0.058840075   -3.2041204     1.487099   384672 
 7591000   0.86909798   -3.2049724   -1.7168855  0.054974431   -3.2049724    1.4880869   384641 
 7592000   0.86749629   -3.2025034    -1.717186  0.060170617   -3.2025034    1.4853174   384648 
 7593000   0.86795178   -3.2014568   -1.7152358  0.061039696   -3.2014568     1.486221   384616 
 7594000   0.86965491    -3.205686   -1.7166223  0.057206391    -3.205686    1.4890637   384635 
 7595000   0.86832633   -3.2017155   -1.7149692  0.059075936   -3.2017155    1.4867464   384646 
 7596000   0.87012031   -3.2042596   -1.7144571  0.056989426   -3.2042596    1.4898025   384650 
 7597000   0.86846842   -3.2044176   -1.7172771  0.055392165   -3.2044176    1.4871404   384607 
 7598000    0.8672866   -3.2016618   -1.7166107  0.060868362   -3.2016618    1.4850511   384624 
 7599000   0.86934493   -3.2061117   -1.7174472  0.057041409   -3.2061117    1.4886646   384601 
 7600000   0.86931643   -3.2056996    -1.717138  0.052302103   -3.2056996    1.4885616   384615 
 7601000   0.86821217   -3.2034468   -1.7167529   0.06036999   -3.2034468    1.4866939   384609 
 7602000   0.86752004   -3.2032759   -1.7177981  0.055980622   -3.2032759    1.4854778   384617 
 7603000   0.86814262   -3.2055265   -1.7189594  0.057596507   -3.2055265    1.4865671   384611 
 7604000   0.86849938   -3.2055847   -1.7183951  0.057972132   -3.2055847    1.4871896   384608 
 7605000   0.86684389   -3.2032459   -1.7187097  0.064211046   -3.2032459    1.4845362   384561 
 7606000   0.86789099   -3.2054357   -1.7190174  0.056676653   -3.2054357    1.4864183   384538 
 7607000   0.86980039   -3.2071076   -1.7174114   0.04911444   -3.2071076    1.4896963   384536 
 7608000   0.86968073   -3.2064533   -1.7171131  0.052988003   -3.2064533    1.4893403   384575 
 7609000   0.86981813   -3.2073474   -1.7176711  0.056884577   -3.2073474    1.4896763   384549 
 7610000   0.86877571   -3.2056939   -1.7178184   0.05400315   -3.2056939    1.4878755   384553 
 7611000   0.86920553   -3.2064379   -1.7176172  0.055741343   -3.2064379    1.4888207   384499 
 7612000   0.86808682   -3.2055306   -1.7185023  0.055470491   -3.2055306    1.4870283   384467 
 7613000   0.86745879   -3.2046642   -1.7187852  0.054836674   -3.2046642     1.485879   384486 
 7614000   0.86731233   -3.2048847   -1.7191909  0.055295825   -3.2048847    1.4856938   384469 
 7615000   0.86707642   -3.2042341   -1.7188942  0.055708859   -3.2042341      1.48534   384456 
 7616000   0.86938612   -3.2069796   -1.7178225  0.053885087   -3.2069796    1.4891571   384492 
 7617000   0.86889139     -3.20627   -1.7179797  0.060877459     -3.20627    1.4882904   384497 
 7618000   0.86933584   -3.2067722   -1.7176431  0.051904922   -3.2067722    1.4891291   384477 
 7619000   0.86849791   -3.2048342   -1.7171714  0.057794284   -3.2048342    1.4876628   384485 
 7620000   0.86807516   -3.2048503   -1.7176911  0.059816164   -3.2048503    1.4871592   384428 
 7621000   0.86779642   -3.2042572   -1.7175756  0.059482342   -3.2042572    1.4866816   384428 
 7622000   0.86825541   -3.2058498   -1.7182851  0.053130239   -3.2058498    1.4875647   384403 
 7623000   0.86767672   -3.2052612    -1.718804   0.05294571   -3.2052612    1.4864572   384433 
 7624000    0.8661814   -3.2026746   -1.7188794  0.057471098   -3.2026746    1.4837952   384459 
 7625000   0.86764212   -3.2028728   -1.7165019  0.057069629   -3.2028728    1.4863709   384440 
 7626000   0.86694684   -3.2014012   -1.7163528  0.056973772   -3.2014012    1.4850485   384474 
 7627000   0.86738701   -3.2025991   -1.7169164  0.057712102   -3.2025991    1.4856827   384505 
 7628000   0.86812188   -3.2037357   -1.7167054  0.060319238   -3.2037357    1.4870303   384482 
 7629000   0.86880877   -3.2054784   -1.7171863  0.052653053   -3.2054784    1.4882921   384460 
 7630000   0.86748221   -3.2039675   -1.7177701  0.054888141   -3.2039675    1.4861975   384414 
 7631000   0.86797333   -3.2050704   -1.7180161  0.057193677   -3.2050704    1.4870543   384410 
 7632000    0.8692065   -3.2081046   -1.7187903  0.050310786   -3.2081046    1.4893143   384372 
 7633000   0.86775308   -3.2061946   -1.7191733  0.058269642   -3.2061946    1.4870213   384321 
 7634000   0.86732529   -3.2062285   -1.7199364  0.056924485   -3.2062285    1.4862921   384320 
 7635000   0.86649799   -3.2046358   -1.7197421   0.05615114   -3.2046358    1.4848937   384315 
 7636000   0.86726922   -3.2039146   -1.7176374  0.059067397   -3.2039146    1.4862772   384299 
 7637000   0.86795129   -3.2049609   -1.7174026   0.05904981   -3.2049609    1.4875583   384270 
 7638000   0.86863317   -3.2057125   -1.7169739  0.058222672   -3.2057125    1.4887386   384267 
 7639000   0.86915256   -3.2071453   -1.7174235  0.055204113   -3.2071453    1.4897218   384243 
 7640000   0.86865937   -3.2080951   -1.7191915  0.054372256   -3.2080951    1.4889036   384236 
 7641000   0.86909029   -3.2093086   -1.7196004  0.060331251   -3.2093086    1.4897081   384219 
 7642000   0.86847035    -3.207706   -1.7189287  0.059356578    -3.207706    1.4887772   384185 
 7643000   0.86926203   -3.2089896   -1.7187777  0.057117729   -3.2089896     1.490212   384165 
 7644000   0.86782255   -3.2079002   -1.7200592  0.059185948   -3.2079002     1.487841   384140 
 7645000    0.8669294   -3.2080091   -1.7218695  0.056181401   -3.2080091    1.4861395   384184 
 7646000   0.86680015   -3.2069343   -1.7209196  0.058710278   -3.2069343    1.4860147   384159 
 7647000   0.86632786   -3.2065606   -1.7213866  0.053731247   -3.2065606    1.4851741   384167 
 7648000   0.86598216   -3.2078581   -1.7231646  0.055260243   -3.2078581    1.4846935   384138 
 7649000   0.86604724   -3.2075519   -1.7226541  0.059750662   -3.2075519    1.4848978   384114 
 7650000   0.86592557   -3.2074627   -1.7227271  0.054780762   -3.2074627    1.4847356   384102 
 7651000   0.86545486   -3.2065165   -1.7225532  0.059900639   -3.2065165    1.4839633   384093 
 7652000   0.86728049    -3.209908   -1.7227137  0.058204954    -3.209908    1.4871943   384067 
 7653000   0.86572373   -3.2079119   -1.7234257  0.059205671   -3.2079119    1.4844862   384077 
 7654000    0.8682507   -3.2101483   -1.7214104  0.056400827   -3.2101483    1.4887378   384098 
 7655000   0.86646174   -3.2071996   -1.7216684  0.055900271   -3.2071996    1.4855312   384134 
 7656000   0.86519166   -3.2048752   -1.7215022  0.059823748   -3.2048752     1.483373   384129 
 7657000   0.86685492    -3.207861   -1.7214197  0.054710259    -3.207861    1.4864413   384073 
 7658000   0.86743914   -3.2087361   -1.7211574  0.055272253   -3.2087361    1.4875787   384038 
 7659000   0.86720007   -3.2092924   -1.7220501   0.05191707   -3.2092924    1.4872423   384019 
 7660000   0.86765676   -3.2103203   -1.7223103  0.057914996   -3.2103203      1.48801   384023 
 7661000    0.8652022   -3.2055541   -1.7216338  0.059671665   -3.2055541    1.4839203   383992 
 7662000   0.86738353   -3.2102642   -1.7224051  0.062498005   -3.2102642    1.4878591   383941 
 7663000    0.8681748   -3.2121476   -1.7228536  0.052583048   -3.2121476     1.489294   383921 
 7664000   0.86762863   -3.2096052   -1.7212908  0.058711353   -3.2096052    1.4883144   383932 
 7665000   0.86870942    -3.211413   -1.7212562  0.060352087    -3.211413    1.4901568   383935 
 7666000   0.86538092   -3.2074836   -1.7230906  0.058680001   -3.2074836     1.484393   383949 
 7667000    0.8672479    -3.211298   -1.7237296  0.052965229    -3.211298    1.4875683   383956 
 7668000   0.86707158    -3.211359   -1.7241473  0.054527952    -3.211359    1.4872117   383970 
 7669000   0.86736094   -3.2112552    -1.723462  0.052731961   -3.2112552    1.4877933   383948 
 7670000    0.8659863   -3.2090612   -1.7235407  0.057460756   -3.2090612    1.4855204   383926 
 7671000   0.86591947   -3.2093367   -1.7238032  0.055988129   -3.2093367    1.4855335   383893 
 7672000   0.86581171   -3.2087314   -1.7232821   0.05644171   -3.2087314    1.4854492   383867 
 7673000   0.86653651   -3.2094637   -1.7226819  0.057218572   -3.2094637    1.4867818   383844 
 7674000   0.86543814   -3.2085005   -1.7237503  0.055260651   -3.2085005    1.4847503   383882 
 7675000   0.86516718    -3.207904   -1.7236805  0.053965915    -3.207904    1.4842236   383898 
 7676000   0.86650746   -3.2081602   -1.7215677  0.055080767   -3.2081602    1.4865926   383880 
 7677000   0.86625139   -3.2078259   -1.7215139  0.055433519   -3.2078259     1.486312   383839 
 7678000   0.86764783   -3.2087984   -1.7201292  0.054183236   -3.2087984    1.4886692   383849 
 7679000   0.86617077   -3.2059601   -1.7197438  0.058050125   -3.2059601    1.4862162   383828 
 7680000   0.86563839   -3.2054927   -1.7202054  0.057855501   -3.2054927    1.4852873   383832 
 7681000   0.86764101   -3.2092435   -1.7202834  0.051932819   -3.2092435    1.4889601   383771 
 7682000   0.86799705   -3.2101984   -1.7203362  0.054557777   -3.2101984    1.4898622   383696 
 7683000   0.86624306   -3.2065689   -1.7198684  0.060157239   -3.2065689    1.4867005   383735 
 7684000   0.86633605   -3.2080552   -1.7210943  0.054988209   -3.2080552    1.4869608   383709 
 7685000   0.86574133   -3.2075962   -1.7216949  0.063008566   -3.2075962    1.4859014   383719 
 7686000   0.86729193   -3.2092695   -1.7206408  0.060010873   -3.2092695    1.4886286   383702 
 7687000   0.86702875   -3.2074456   -1.7192143  0.055812432   -3.2074456    1.4882312   383688 
 7688000   0.86672188   -3.2066103   -1.7189833  0.057575607   -3.2066103     1.487627   383708 
 7689000   0.86576468   -3.2048029   -1.7186988  0.060751033   -3.2048029    1.4861041   383677 
 7690000   0.86488003   -3.2050679   -1.7203701  0.058159146   -3.2050679    1.4846978   383648 
 7691000     0.867177   -3.2074191   -1.7188558  0.054518844   -3.2074191    1.4885633   383668 
 7692000   0.86578493   -3.2054685   -1.7192987  0.055154322   -3.2054685    1.4861698   383669 
 7693000   0.86678667   -3.2051968   -1.7172647  0.058503449   -3.2051968     1.487932   383658 
 7694000   0.86576973   -3.2057626   -1.7194406  0.060910046   -3.2057626     1.486322   383623 
 7695000   0.86581668   -3.2047142   -1.7183969  0.059217245   -3.2047142    1.4863173   383645 
 7696000   0.86607395   -3.2049938   -1.7183317  0.056363841   -3.2049938    1.4866621   383670 
 7697000   0.86646522   -3.2053062   -1.7179298  0.057563499   -3.2053062    1.4873764   383659 
 7698000   0.86681129    -3.206467   -1.7184888  0.055782789    -3.206467    1.4879782   383657 
 7699000   0.86607931   -3.2041221   -1.7173965  0.057629229   -3.2041221    1.4867255   383656 
 7700000   0.86761078   -3.2082203   -1.7187067  0.050669692   -3.2082203    1.4895137   383615 
 7701000   0.86587649   -3.2041604   -1.7176513  0.060394407   -3.2041604    1.4865091   383622 
 7702000   0.86539813   -3.2041673   -1.7183787  0.058120438   -3.2041673    1.4857886   383596 
 7703000   0.86665169   -3.2060037   -1.7179698  0.051927945   -3.2060037    1.4880339   383572 
 7704000   0.86516008   -3.2030103    -1.717491  0.056341241   -3.2030103    1.4855193   383560 
 7705000   0.86608421   -3.2043832   -1.7173624  0.055676595   -3.2043832    1.4870208   383582 
 7706000   0.86750297   -3.2067767   -1.7172229  0.053810716   -3.2067767    1.4895538   383557 
 7707000   0.86742412   -3.2058012   -1.7162197  0.060757265   -3.2058012    1.4895815   383515 
 7708000   0.86729295   -3.2055136   -1.7160602  0.056803848   -3.2055136    1.4894533   383490 
 7709000    0.8675626   -3.2054844   -1.7155174  0.057294788   -3.2054844    1.4899669   383477 
 7710000   0.86601346   -3.2024425   -1.7151011  0.060045447   -3.2024425    1.4873413   383468 
 7711000   0.86625754   -3.2033253   -1.7153941  0.059048401   -3.2033253    1.4879313   383424 
 7712000   0.86624266   -3.2025744   -1.7146066  0.056012652   -3.2025744    1.4879678   383408 
 7713000    0.8650653   -3.2006138   -1.7147227  0.056834735   -3.2006138    1.4858911   383422 
 7714000   0.86570126    -3.202822   -1.7157881  0.054105269    -3.202822    1.4870339   383409 
 7715000   0.86418276   -3.1995742   -1.7151913  0.056108983   -3.1995742     1.484383   383420 
 7716000   0.86545667   -3.2007594   -1.7141263  0.055663414   -3.2007594    1.4866332   383404 
 7717000   0.86761524   -3.2044365   -1.7141654  0.050036743   -3.2044365    1.4902711   383422 
 7718000   0.86630844   -3.2002515   -1.7123725   0.05601325   -3.2002515     1.487879   383460 
 7719000   0.86641883    -3.201241   -1.7131065   0.05859478    -3.201241    1.4881346   383443 
 7720000    0.8658422   -3.1996728   -1.7125907  0.058779359   -3.1996728    1.4870821   383459 
 7721000   0.86610748   -3.2005842    -1.713062  0.056315844   -3.2005842    1.4875222   383463 
 7722000    0.8657171   -3.2006197   -1.7137486  0.055828832   -3.2006197    1.4868711   383458 
 7723000   0.86649648   -3.2025875   -1.7143351  0.053369398   -3.2025875    1.4882524   383447 
 7724000   0.86645334   -3.2034492   -1.7151972  0.056411321   -3.2034492     1.488252   383428 
 7725000   0.86583825   -3.2026124   -1.7153625  0.054552489   -3.2026124    1.4872498   383414 
 7726000   0.86502676    -3.202015   -1.7161241  0.051734123    -3.202015    1.4858908   383405 
 7727000   0.86645691   -3.2025434    -1.714095  0.051849108   -3.2025434    1.4884484   383379 
 7728000   0.86595512   -3.2028281    -1.715102  0.056624988   -3.2028281    1.4877261   383343 
 7729000   0.86635541    -3.204331   -1.7159366   0.05780228    -3.204331    1.4883944   383348 
 7730000   0.86598686   -3.2050541    -1.717289  0.056641671   -3.2050541    1.4877651   383347 
 7731000   0.86678853   -3.2045253   -1.7153868   0.05557348   -3.2045253    1.4891385   383348 
 7732000   0.86465649   -3.2031674    -1.717622  0.054595278   -3.2031674    1.4855454   383330 
 7733000    0.8661972   -3.2053703   -1.7171507  0.056368154   -3.2053703    1.4882196   383323 
 7734000   0.86399469   -3.2044452   -1.7200097  0.050872246   -3.2044452    1.4844355   383323 
 7735000   0.86455973   -3.2064566   -1.7207867  0.056419156   -3.2064566    1.4856698   383255 
 7736000   0.86377569   -3.2056405    -1.721194  0.061939162   -3.2056405    1.4844465   383223 
 7737000   0.86504962   -3.2061965   -1.7195335  0.054968067   -3.2061965    1.4866629   383216 
 7738000   0.86491352   -3.2066368   -1.7202892  0.054517384   -3.2066368    1.4863476   383237 
 7739000   0.86531233   -3.2056031   -1.7185702  0.058605892   -3.2056031    1.4870329   383237 
 7740000   0.86638936   -3.2094709   -1.7205094  0.055137037   -3.2094709    1.4889615   383217 
 7741000   0.86546152   -3.2066613   -1.7193642  0.059115242   -3.2066613    1.4872971   383235 
 7742000   0.86685731   -3.2076514   -1.7180062  0.057320726   -3.2076514    1.4896452   383248 
 7743000   0.86871379   -3.2099679   -1.7172103  0.061779186   -3.2099679    1.4927576   383268 
 7744000   0.86797919   -3.2084877   -1.7169963  0.061243722   -3.2084877    1.4914914   383269 
 7745000   0.86834355   -3.2089731   -1.7167816  0.062494784   -3.2089731    1.4921915   383250 
 7746000   0.86632285   -3.2078398   -1.7189615  0.061460197   -3.2078398    1.4888783   383209 
 7747000   0.86787683   -3.2094078   -1.7178977  0.062502867   -3.2094078    1.4915101   383219 
 7748000   0.86795737   -3.2096187   -1.7179508  0.063842957   -3.2096187     1.491668   383214 
 7749000   0.86810049   -3.2102014    -1.718159  0.055748046   -3.2102014    1.4920424   383181 
 7750000   0.86666303   -3.2092817   -1.7197449  0.056398083   -3.2092817    1.4895368   383190 
 7751000   0.86574116   -3.2066446   -1.7187659  0.060642269   -3.2066446    1.4878786   383209 
 7752000   0.86536419   -3.2062423   -1.7188718  0.055566483   -3.2062423    1.4873705   383173 
 7753000    0.8655351   -3.2065007   -1.7187821  0.058132023   -3.2065007    1.4877186   383159 
 7754000   0.86611088   -3.2070315   -1.7184437  0.058155032   -3.2070315    1.4885878   383190 
 7755000   0.86320976   -3.2036962   -1.7201914  0.055313779   -3.2036962    1.4835049   383215 
 7756000   0.86449029   -3.2048665   -1.7190834  0.061303203   -3.2048665    1.4857831   383195 
 7757000   0.86493019   -3.2038761   -1.7174184   0.05661816   -3.2038761    1.4864577   383216 
 7758000   0.86577424   -3.2035017   -1.7155429   0.05632165   -3.2035017    1.4879587   383203 
 7759000   0.86425537   -3.2022044   -1.7169258  0.057623977   -3.2022044    1.4852786   383221 
 7760000    0.8665645   -3.2055861    -1.716172   0.05483536   -3.2055861    1.4894141   383178 
 7761000   0.86468821   -3.2019978    -1.715638  0.060439414   -3.2019978    1.4863599   383134 
 7762000   0.86473876   -3.2030605   -1.7166214  0.051519565   -3.2030605     1.486439   383136 
 7763000   0.86426669    -3.202445   -1.7168562  0.059013577    -3.202445    1.4855888   383146 
 7764000   0.86523905   -3.2036983   -1.7164343  0.054561005   -3.2036983    1.4872641   383145 
 7765000    0.8638879   -3.2017112   -1.7167153  0.055451906   -3.2017112    1.4849958   383131 
 7766000   0.86586048   -3.2030945    -1.714836  0.055504404   -3.2030945    1.4882584   383164 
 7767000   0.86514855   -3.2024037   -1.7154116  0.054777298   -3.2024037    1.4869921   383175 
 7768000   0.86509454   -3.2020155   -1.7150387  0.053598686   -3.2020155    1.4869768   383155 
 7769000   0.86459392   -3.2012887   -1.7151685  0.063572992   -3.2012887    1.4861202   383154 
 7770000   0.86501287   -3.2032008   -1.7161781  0.054023675   -3.2032008    1.4870228   383107 
 7771000   0.86506148    -3.202612   -1.7154242  0.055719368    -3.202612    1.4871878   383086 
 7772000   0.86495788   -3.2022671   -1.7152535  0.060946333   -3.2022671    1.4870136   383085 
 7773000   0.86555811   -3.2052638   -1.7172105  0.059665209   -3.2052638    1.4880533   383083 
 7774000   0.86564598   -3.2057821   -1.7174651  0.057424229   -3.2057821     1.488317   383054 
 7775000   0.86713623    -3.206715   -1.7157852  0.055504954    -3.206715    1.4909298   383041 
 7776000   0.86502077   -3.2023234   -1.7150736  0.060522477   -3.2023234    1.4872498   383052 
 7777000   0.86680246   -3.2051562   -1.7147886  0.063140872   -3.2051562    1.4903676   383038 
 7778000   0.86415394   -3.2024394   -1.7165131  0.057740321   -3.2024394    1.4859263   383009 
 7779000   0.86453858   -3.2041388   -1.7176016  0.058737128   -3.2041388    1.4865372   383022 
 7780000   0.86632806   -3.2068349   -1.7172557  0.059665212   -3.2068349    1.4895792   383031 
 7781000   0.86484771   -3.2072382   -1.7199947  0.054565379   -3.2072382    1.4872435   382977 
 7782000   0.86396756    -3.206837   -1.7212467  0.057076812    -3.206837    1.4855903   383013 
 7783000   0.86214064   -3.2041073   -1.7216932  0.061496143   -3.2041073    1.4824141   383022 
 7784000    0.8633111   -3.2035547   -1.7190738  0.058822156   -3.2035547    1.4844809   383008 
 7785000   0.86426364   -3.2044566    -1.718493  0.055284221   -3.2044566    1.4859636   383048 
 7786000   0.86407449   -3.2044836    -1.718853  0.057419805   -3.2044836    1.4856306   383050 
 7787000    0.8643599   -3.2050684   -1.7189044  0.058818426   -3.2050684     1.486164   383039 
 7788000   0.86488725   -3.2065148   -1.7194945  0.057654279   -3.2065148    1.4870203   383052 
 7789000   0.86540092   -3.2076696   -1.7197079  0.056804196   -3.2076696    1.4879617   383037 
 7790000   0.86496031   -3.2062672   -1.7189505  0.059948344   -3.2062672    1.4873167   383008 
 7791000   0.86472108   -3.2072548   -1.7202135  0.055124031   -3.2072548    1.4870413   382973 
 7792000   0.86436147   -3.2056846   -1.7194131  0.056575869   -3.2056846    1.4862715   383012 
 7793000   0.86535721   -3.2089736   -1.7209938  0.053670216   -3.2089736    1.4879798   383013 
 7794000   0.86417452   -3.2051396     -1.71924   0.05501333   -3.2051396    1.4858996   383025 
 7795000   0.86491329   -3.2060013   -1.7187033  0.053968355   -3.2060013     1.487298   382992 
 7796000   0.86531204   -3.2052231   -1.7172239  0.060963014   -3.2052231    1.4879993   382988 
 7797000    0.8657853   -3.2059995   -1.7170698    0.0615077   -3.2059995    1.4889297   382958 
 7798000   0.86528505   -3.2058538   -1.7178039  0.063146141   -3.2058538      1.48805   382963 
 7799000   0.86523775   -3.2054525   -1.7174139  0.059170752   -3.2054525    1.4880386   382945 
 7800000   0.86470084   -3.2060334   -1.7188793  0.057723066   -3.2060334     1.487154   382935 
 7801000   0.86383778     -3.20501   -1.7193286  0.056473054     -3.20501    1.4856813   382932 
 7802000   0.86248963    -3.200719   -1.7174957   0.06001201    -3.200719    1.4832233   382968 
 7803000   0.86472546   -3.2040504   -1.7169705  0.050603133   -3.2040504    1.4870799   382965 
 7804000   0.86352007   -3.2025797   -1.7175301  0.054106759   -3.2025797    1.4850496   382954 
 7805000   0.86404928   -3.2034366   -1.7173527  0.052471686   -3.2034366    1.4860839   382922 
 7806000   0.86399029   -3.2034565   -1.7173692  0.058256476   -3.2034565    1.4860872   382895 
 7807000   0.86277024   -3.2036012   -1.7194381  0.056293353   -3.2036012    1.4841631   382850 
 7808000     0.864929   -3.2049516   -1.7170088   0.06124657   -3.2049516    1.4879428   382833 
 7809000   0.86496638   -3.2041002   -1.7160426  0.057317008   -3.2041002    1.4880576   382820 
 7810000   0.86618963   -3.2059542   -1.7158739    0.0529676   -3.2059542    1.4900803   382841 
 7811000   0.86518076   -3.2045435   -1.7162415  0.062355951   -3.2045435     1.488302   382852 
 7812000   0.86495727   -3.2042972   -1.7164185  0.057736935   -3.2042972    1.4878787   382862 
 7813000   0.86424441   -3.2055867   -1.7189653  0.054478827   -3.2055867    1.4866214   382870 
 7814000   0.86355154   -3.2045257   -1.7189371  0.052890733   -3.2045257    1.4855886   382829 
 7815000   0.86355866   -3.2033845      -1.7179  0.058430388   -3.2033845    1.4854845   382859 
 7816000   0.86530494   -3.2054944   -1.7169322  0.056505684   -3.2054944    1.4885623   382840 
 7817000   0.86487235    -3.206129    -1.718066  0.056452391    -3.206129     1.488063   382777 
 7818000   0.86330958   -3.2040129   -1.7186349   0.05357532   -3.2040129     1.485378   382776 
 7819000   0.86486648   -3.2048011   -1.7166782  0.055277721   -3.2048011    1.4881229   382759 
 7820000   0.86441898   -3.2040341   -1.7166657  0.055490112   -3.2040341    1.4873684   382755 
 7821000   0.86427541   -3.2045763   -1.7172879  0.059201614   -3.2045763    1.4872885   382712 
 7822000   0.86456588   -3.2057946   -1.7179635   0.05654014   -3.2057946    1.4878311   382701 
 7823000   0.86497104   -3.2064169   -1.7177836  0.056780589   -3.2064169    1.4886333   382674 
 7824000   0.86263188   -3.2023068   -1.7176255  0.053577511   -3.2023068    1.4846813   382655 
 7825000   0.86340776   -3.2043201   -1.7182685  0.051629134   -3.2043201    1.4860516   382646 
 7826000   0.86328444   -3.2032645   -1.7174368  0.052992703   -3.2032645    1.4858277   382649 
 7827000   0.86250635   -3.2027144   -1.7181288  0.055578416   -3.2027144    1.4845855   382624 
 7828000   0.86383804   -3.2048566   -1.7180256  0.058354773   -3.2048566    1.4868311   382636 
 7829000   0.86313389   -3.2036914   -1.7179907  0.057756527   -3.2036914    1.4857006   382615 
 7830000   0.86195642   -3.2019787   -1.7182621  0.053238795   -3.2019787    1.4837165   382604 
 7831000   0.86198014   -3.2047739   -1.7209389  0.055859715   -3.2047739    1.4838349   382584 
 7832000   0.86145135   -3.2034562   -1.7205355  0.051860299   -3.2034562    1.4829208   382585 
 7833000   0.86111656   -3.2020854   -1.7197874  0.052760246   -3.2020854     1.482298   382597 
 7834000   0.86172604   -3.2034439   -1.7199727  0.054016844   -3.2034439    1.4834712   382565 
 7835000   0.86255199    -3.204575   -1.7196625  0.053457242    -3.204575    1.4849125   382560 
 7836000   0.86270254   -3.2041581   -1.7189321  0.058059337   -3.2041581     1.485226   382546 
 7837000   0.86241417   -3.2025663   -1.7178368  0.062296574   -3.2025663    1.4847295   382546 
 7838000    0.8637611    -3.204339   -1.7172051  0.056534771    -3.204339    1.4871339   382524 
 7839000   0.86560051    -3.208093    -1.717874  0.056732667    -3.208093     1.490219   382545 
 7840000   0.86424731   -3.2067188   -1.7188489  0.056974624   -3.2067188    1.4878699   382550 
 7841000   0.86310992   -3.2046538   -1.7186332  0.058257655   -3.2046538    1.4860206   382522 
 7842000   0.86398003   -3.2056329   -1.7181142  0.059144393   -3.2056329    1.4875186   382522 
 7843000   0.86370469   -3.2063261    -1.719266   0.05416934   -3.2063261    1.4870601   382518 
 7844000   0.86462738   -3.2078921   -1.7193172  0.056231944   -3.2078921    1.4885748   382537 
 7845000   0.86384881   -3.2063992   -1.7191454  0.060668347   -3.2063992    1.4872538   382532 
 7846000   0.86363008   -3.2074054   -1.7204815  0.055862538   -3.2074054    1.4869239   382520 
 7847000   0.86372859   -3.2078834   -1.7207276  0.056233818   -3.2078834    1.4871557   382504 
 7848000   0.86279333   -3.2076713   -1.7220133   0.05952784   -3.2076713     1.485658   382475 
 7849000    0.8625721   -3.2081514   -1.7228471  0.057034191   -3.2081514    1.4853043   382468 
 7850000   0.86250076   -3.2076741   -1.7224461  0.056646273   -3.2076741     1.485228   382456 
 7851000   0.86353032   -3.2071475   -1.7203332  0.057149834   -3.2071475    1.4868143   382504 
 7852000   0.86304117   -3.2061705   -1.7201401  0.063638409   -3.2061705    1.4860304   382489 
 7853000   0.86189683   -3.2048776   -1.7209068  0.060610272   -3.2048776    1.4839708   382512 
 7854000   0.86438322   -3.2078472   -1.7195838  0.056578168   -3.2078472    1.4882634   382509 
 7855000   0.86413715   -3.2096766   -1.7218485  0.054583572   -3.2096766    1.4878281   382512 
 7856000   0.86273343   -3.2074385   -1.7219651  0.055822433   -3.2074385    1.4854733   382496 
 7857000   0.86326442   -3.2080616   -1.7216157  0.053003693   -3.2080616    1.4864459   382481 
 7858000   0.86195016   -3.2069384   -1.7226352  0.054767795   -3.2069384    1.4843032   382450 
 7859000   0.86237826    -3.206418   -1.7213621  0.061273215    -3.206418    1.4850559   382446 
 7860000   0.86208181   -3.2064813   -1.7219126   0.05693923   -3.2064813    1.4845687   382440 
 7861000   0.86426615   -3.2102482   -1.7218128  0.057459818   -3.2102482    1.4884354   382413 
 7862000   0.86409762   -3.2096274   -1.7215367  0.056525972   -3.2096274    1.4880907   382427 
 7863000   0.86441166   -3.2087067   -1.7200947  0.061450813   -3.2087067     1.488612   382432 
 7864000   0.86459492   -3.2066377   -1.7177724   0.05858356   -3.2066377    1.4888653   382448 
 7865000   0.86448077   -3.2064178   -1.7178619  0.056184368   -3.2064178    1.4885559   382477 
 7866000   0.86546488   -3.2083287   -1.7177704  0.057944613   -3.2083287    1.4905583   382398 
 7867000   0.86371973   -3.2048743    -1.717446  0.063946577   -3.2048743    1.4874282   382430 
 7868000   0.86410319   -3.2056413   -1.7177083  0.061208906   -3.2056413     1.487933   382470 
 7869000   0.86437306   -3.2071705   -1.7186093  0.055090774   -3.2071705    1.4885611   382428 
 7870000   0.86353452   -3.2064419   -1.7191537  0.055454424   -3.2064419    1.4872882   382384 
 7871000   0.86316457   -3.2061362   -1.7191935  0.057999361   -3.2061362    1.4869426   382309 
 7872000   0.86400247   -3.2068304   -1.7185066  0.054999616   -3.2068304    1.4883238   382325 
 7873000   0.86225522   -3.2038447   -1.7185774  0.056834032   -3.2038447    1.4852674   382337 
 7874000   0.86121991   -3.2012751   -1.7178299  0.056230799   -3.2012751    1.4834452   382347 
 7875000   0.86261515   -3.2028878   -1.7168217  0.059343175   -3.2028878    1.4860661   382291 
 7876000   0.86221481   -3.2038657   -1.7184659  0.051237042   -3.2038657    1.4853998   382285 
 7877000   0.85999825   -3.2019309   -1.7202296  0.056442089   -3.2019309    1.4817013   382254 
 7878000   0.86160549   -3.2018697   -1.7174576  0.056160787   -3.2018697    1.4844122   382269 
 7879000   0.86268282   -3.2037668   -1.7175841  0.051674351   -3.2037668    1.4861827   382291 
 7880000   0.86237029   -3.2044085   -1.7186592  0.055308758   -3.2044085    1.4857492   382264 
 7881000   0.86160373   -3.2012425   -1.7167402  0.057864878   -3.2012425    1.4845023   382245 
 7882000   0.86125546   -3.2015311   -1.7176288  0.058580199   -3.2015311    1.4839023   382245 
 7883000   0.86368646   -3.2045375   -1.7164389  0.054671074   -3.2045375    1.4880986   382243 
 7884000   0.86418199   -3.2039145   -1.7150049  0.057563696   -3.2039145    1.4889095   382254 
 7885000   0.86466629   -3.2053128   -1.7154598  0.058123044   -3.2053128    1.4898531   382226 
 7886000   0.86481124   -3.2059432   -1.7156337  0.051484525   -3.2059432    1.4903094   382173 
 7887000   0.86359513   -3.2042655   -1.7160011  0.055448411   -3.2042655    1.4882644   382160 
 7888000   0.86420202   -3.2061665    -1.716942  0.062150634   -3.2061665    1.4892245   382182 
 7889000   0.86370379   -3.2064105   -1.7178653  0.054505488   -3.2064105    1.4885451   382136 
 7890000   0.86308315   -3.2054762   -1.7179657  0.058550484   -3.2054762    1.4875105   382127 
 7891000   0.86233998   -3.2053217   -1.7189325  0.061930738   -3.2053217    1.4863892   382086 
 7892000   0.86308959   -3.2067791   -1.7192069  0.054510004   -3.2067791    1.4875722   382114 
 7893000   0.86152871   -3.2056016   -1.7205797  0.058176846   -3.2056016    1.4850219   382078 
 7894000   0.86314558   -3.2076685   -1.7197779  0.051882747   -3.2076685    1.4878907   382057 
 7895000   0.86259217   -3.2062598   -1.7192764    0.0528665   -3.2062598    1.4869834   382045 
 7896000   0.86255044   -3.2071729   -1.7202069  0.055551845   -3.2071729     1.486966   382031 
 7897000   0.86285793   -3.2052671   -1.7178022  0.059134826   -3.2052671    1.4874649   382039 
 7898000   0.86230882    -3.205508   -1.7188846  0.054847254    -3.205508    1.4866234   382012 
 7899000   0.86223198   -3.2057663   -1.7190692  0.058536972   -3.2057663    1.4866972   381959 
 7900000   0.86314089   -3.2059267    -1.717752  0.060845952   -3.2059267    1.4881747   381982 
 7901000   0.86442607   -3.2080871   -1.7176614  0.058233303   -3.2080871    1.4904257   381973 
 7902000    0.8618828   -3.2045389   -1.7184438  0.061240966   -3.2045389    1.4860951   381959 
 7903000   0.86166196   -3.2044989   -1.7187068  0.060612741   -3.2044989    1.4857921   381939 
 7904000   0.86224156   -3.2056191   -1.7188042  0.057081812   -3.2056191    1.4868149   381933 
 7905000    0.8627301   -3.2050116   -1.7173971  0.055625193   -3.2050116    1.4876145   381944 
 7906000   0.86248509   -3.2044365   -1.7173846   0.05945973   -3.2044365    1.4870518   381980 
 7907000   0.86265817   -3.2060572   -1.7186797  0.056894033   -3.2060572    1.4873775   381973 
 7908000   0.86489642   -3.2094642   -1.7180636  0.058011395   -3.2094642    1.4914006   381931 
 7909000   0.86155316   -3.2053501   -1.7196016  0.057306379   -3.2053501    1.4857484   381902 
 7910000   0.86183539   -3.2042725    -1.717944  0.054287349   -3.2042725    1.4863285   381878 
 7911000   0.86191198   -3.2038792   -1.7173291  0.055589006   -3.2038792    1.4865502   381855 
 7912000   0.86282383   -3.2039897   -1.7159604  0.055950669   -3.2039897    1.4880293   381879 
 7913000   0.86254091   -3.2049216   -1.7173334  0.053084236   -3.2049216    1.4875881   381867 
 7914000   0.86225357   -3.2053965   -1.7182923  0.057095742   -3.2053965    1.4871043   381864 
 7915000   0.86209001   -3.2046041   -1.7178443  0.057779352   -3.2046041    1.4867599   381880 
 7916000   0.86033803   -3.2008708   -1.7170819  0.060868665   -3.2008708    1.4837889   381867 
 7917000   0.86376406   -3.2040798   -1.7144017  0.059135272   -3.2040798    1.4896781   381872 
 7918000   0.86310907   -3.2000118   -1.7114399  0.060389268   -3.2000118    1.4885719   381866 
 7919000   0.86507957   -3.2032834   -1.7113912  0.057989202   -3.2032834    1.4918922   381886 
 7920000    0.8642073   -3.2021927   -1.7118126  0.053827101   -3.2021927    1.4903801   381888 
 7921000   0.86392176   -3.1993497   -1.7096336  0.063562126   -3.1993497    1.4897161   381932 
 7922000   0.86407437   -3.2013718   -1.7115252  0.053915233   -3.2013718    1.4898466   381966 
 7923000    0.8633395   -3.1994661   -1.7108632   0.06212835   -3.1994661    1.4886029   381960 
 7924000    0.8633552    -3.199074   -1.7103661  0.061615188    -3.199074    1.4887079   381940 
 7925000   0.86135346   -3.1969042    -1.711574  0.053770093   -3.1969042    1.4853301   381921 
 7926000   0.86219854   -3.1976269   -1.7108122   0.05714227   -3.1976269    1.4868147   381914 
 7927000   0.86104235   -3.1981962   -1.7133481  0.054929967   -3.1981962    1.4848481   381907 
 7928000   0.86046625   -3.1975724   -1.7136246  0.050675839   -3.1975724    1.4839479   381883 
 7929000   0.86038364   -3.1979137   -1.7139645  0.050430356   -3.1979137    1.4839492   381846 
 7930000   0.85997929   -3.1965333   -1.7134758  0.058164217   -3.1965333    1.4830576   381896 
 7931000   0.85926321   -3.1960834     -1.71409  0.058060388   -3.1960834    1.4819934   381852 
 7932000   0.86162612   -3.1997796   -1.7137536  0.054824641   -3.1997796     1.486026   381863 
 7933000   0.86126404   -3.1982261   -1.7128518  0.060539646   -3.1982261    1.4853743   381870 
 7934000   0.86294395   -3.2008451   -1.7125501   0.05088711   -3.2008451    1.4882949   381864 
 7935000   0.86215259   -3.2006287   -1.7137998  0.054723086   -3.2006287    1.4868289   381890 
 7936000   0.86243121   -3.2001527   -1.7128978  0.053011641   -3.2001527    1.4872548   381904 
 7937000   0.86250015   -3.2004962   -1.7132744  0.054703781   -3.2004962    1.4872218   381943 
 7938000   0.86285369   -3.2016185   -1.7138182  0.053806683   -3.2016185    1.4878003   381951 
 7939000   0.86346587   -3.2030981   -1.7141448  0.059117191   -3.2030981    1.4889533   381926 
 7940000   0.86342855   -3.2011978   -1.7122971  0.059787238   -3.2011978    1.4889007   381923 
 7941000   0.86293091   -3.2000536   -1.7118163  0.063069336   -3.2000536    1.4882374   381873 
 7942000   0.86423327   -3.2045212   -1.7139987  0.057072561   -3.2045212    1.4905225   381863 
 7943000   0.86357446   -3.2014823   -1.7120258  0.057734097   -3.2014823    1.4894565   381845 
 7944000   0.86378444   -3.2006894   -1.7109449  0.062133924   -3.2006894    1.4897445   381864 
 7945000   0.86279706   -3.2007374   -1.7128633  0.062162545   -3.2007374    1.4878741   381907 
 7946000   0.86329018   -3.2027888   -1.7140449  0.060584308   -3.2027888    1.4887439   381902 
 7947000   0.86367616   -3.2038958   -1.7144199  0.057243644   -3.2038958    1.4894758   381885 
 7948000   0.86339156   -3.2048467   -1.7158383  0.056665985   -3.2048467    1.4890084   381879 
 7949000   0.86299137   -3.2029853   -1.7145579  0.055203631   -3.2029853    1.4884274   381851 
 7950000   0.86231502   -3.2022502    -1.715001  0.056209096   -3.2022502    1.4872492   381854 
 7951000   0.86222514   -3.2010859   -1.7140618  0.058897577   -3.2010859    1.4870241   381872 
 7952000   0.86449275   -3.2057962   -1.7148106  0.053345838   -3.2057962    1.4909856   381859 
 7953000   0.86297502   -3.2024568   -1.7140225   0.06159769   -3.2024568    1.4884343   381842 
 7954000   0.86273204   -3.2011566   -1.7131726  0.060787248   -3.2011566     1.487984   381850 
 7955000   0.86246467    -3.199752   -1.7123265  0.062110048    -3.199752    1.4874255   381875 
 7956000   0.86141271   -3.1991902    -1.713754  0.061110865   -3.1991902    1.4854362   381920 
 7957000   0.86169103   -3.1979405   -1.7120205  0.055448477   -3.1979405      1.48592   381919 
 7958000   0.86241324   -3.1967839   -1.7096107  0.057761636   -3.1967839    1.4871732   381917 
 7959000   0.86341679   -3.1987345   -1.7099126  0.054629175   -3.1987345    1.4888219   381938 
 7960000   0.86157614   -3.1971046   -1.7113282  0.061269896   -3.1971046    1.4857764   381905 
 7961000   0.86282588   -3.1982483    -1.710157   0.05683861   -3.1982483    1.4880913   381864 
 7962000   0.86101609   -3.1951466   -1.7103127   0.06147928   -3.1951466    1.4848339   381899 
 7963000   0.86134467   -3.1972665   -1.7116831  0.056054259   -3.1972665    1.4855834   381852 
 7964000   0.86147909   -3.1981354   -1.7121723  0.059497902   -3.1981354    1.4859631   381814 
 7965000   0.86247158    -3.198108   -1.7102459  0.057382424    -3.198108    1.4878621   381766 
 7966000    0.8618343    -3.197626   -1.7108711  0.052996938    -3.197626    1.4867549   381768 
 7967000   0.86136262   -3.1952354   -1.7093564  0.054257395   -3.1952354    1.4858789   381784 
 7968000   0.86142123      -3.1969   -1.7108655  0.054865103      -3.1969    1.4860345   381770 
 7969000   0.86116424   -3.1980789   -1.7123865  0.052454177   -3.1980789    1.4856924   381744 
 7970000    0.8612352    -3.196813   -1.7108191  0.055815964    -3.196813    1.4859939   381698 
 7971000   0.86153678   -3.1974228   -1.7107606   0.05666659   -3.1974228    1.4866622   381660 
 7972000   0.86114124   -3.1959472   -1.7100064  0.055564334   -3.1959472    1.4859408   381670 
 7973000   0.86104464   -3.1962723   -1.7104164  0.055769763   -3.1962723    1.4858558   381649 
 7974000   0.86299186   -3.1994758   -1.7103183  0.052283301   -3.1994758    1.4891575   381664 
 7975000   0.86053265    -3.197829   -1.7127399  0.056331678    -3.197829    1.4850891   381619 
 7976000   0.86113892   -3.1976461   -1.7113355  0.055840968   -3.1976461    1.4863106   381574 
 7977000    0.8614385   -3.1993772   -1.7125573  0.053390914   -3.1993772    1.4868199   381576 
 7978000   0.86303901   -3.2002555   -1.7106888  0.055368646   -3.2002555    1.4895667   381580 
 7979000   0.86360624   -3.1994994     -1.70911  0.057615635   -3.1994994    1.4903895   381620 
 7980000   0.86306347   -3.1998525   -1.7103645  0.059591625   -3.1998525    1.4894879   381611 
 7981000   0.86265949   -3.1993594   -1.7105492  0.058733706   -3.1993594    1.4888102   381606 
 7982000    0.8647165   -3.1995263   -1.7072052  0.059042521   -3.1995263    1.4923212   381616 
 7983000   0.86522695   -3.2015482   -1.7083735  0.054151596   -3.2015482    1.4931747   381623 
 7984000   0.86280024   -3.1990541    -1.709919  0.063866343   -3.1990541    1.4891351   381585 
 7985000   0.86348484   -3.2005308   -1.7101243  0.059355656   -3.2005308    1.4904065   381562 
 7986000    0.8628869   -3.2013724   -1.7117754  0.056642396   -3.2013724    1.4895969   381505 
 7987000   0.86177272   -3.1985353   -1.7108657   0.05728546   -3.1985353    1.4876696   381506 
 7988000   0.86044809   -3.1962591   -1.7108178  0.057078989   -3.1962591    1.4854413   381491 
 7989000   0.86028566   -3.1972065   -1.7120689  0.055878711   -3.1972065    1.4851376   381497 
 7990000   0.86172446   -3.1990679   -1.7114698  0.056193997   -3.1990679     1.487598   381503 
 7991000   0.86159589   -3.1999253   -1.7123308  0.055151552   -3.1999253    1.4875944   381447 
 7992000   0.86118112   -3.1991064   -1.7122047  0.050574326   -3.1991064    1.4869017   381441 
 7993000   0.86115719   -3.1981734   -1.7112233  0.059174397   -3.1981734      1.48695   381418 
 7994000   0.86045762   -3.1983764   -1.7125876  0.054812333   -3.1983764    1.4857889   381406 
 7995000    0.8610212   -3.1997043   -1.7127474   0.05392741   -3.1997043    1.4869569   381356 
 7996000   0.85922893   -3.1968116   -1.7130782  0.052983652   -3.1968116    1.4837334   381389 
 7997000   0.85931046   -3.1970026   -1.7130389  0.054781747   -3.1970026    1.4839636   381366 
 7998000   0.86166571   -3.1995005    -1.711532  0.049917894   -3.1995005    1.4879685   381382 
 7999000   0.86017225   -3.1979377   -1.7125131  0.060828248   -3.1979377    1.4854246   381373 
 8000000   0.86022695   -3.1967541   -1.7112584  0.056949404   -3.1967541    1.4854957   381379 
Loop time of 9879.43 on 192 procs for 5000000 steps with 381379 atoms

Performance: 218636.084 tau/day, 506.102 timesteps/s
99.1% CPU use with 192 MPI tasks x 1 OpenMP threads

MPI task timing breakdown:
Section |  min time  |  avg time  |  max time  |%varavg|  %CPU | %total
-----------------------------------------------------------------------
Pair    | 1265.9     | 2907.6     | 3191.6     |1102.0 |  99.0 | 29.43
Bond    | 3.283      | 3.429      | 3.5822     |   3.1 | 100.0 |  0.03
Neigh   | 820.36     | 1427.9     | 1569.8     | 573.4 |  99.5 | 14.45
Comm    | 1307.6     | 1940.4     | 4247.1     |1906.0 |  98.9 | 19.64
Output  | 283.74     | 288.75     | 288.79     |   2.1 |  98.7 |  2.92
Modify  | 3126.5     | 3209.1     | 3579.3     | 264.9 |  99.2 | 32.48
Other   |            | 102.2      |            |       |       |  1.03

Nlocal:        1986.35 ave        2318 max        1620 min
Histogram: 1 1 3 6 53 105 17 2 2 2
Nghost:        3120.88 ave        3453 max        2177 min
Histogram: 2 6 32 6 2 0 2 6 54 82
Neighs:        53069.2 ave       63047 max       10014 min
Histogram: 7 7 7 3 0 0 0 0 80 88

Total # of neighbors = 10189283
Ave neighs/atom = 26.716948
Ave special neighs/atom = 0.0000000
Neighbor list builds = 505000
Dangerous builds = 450000

write_restart   restart_write.dat
System init for write_restart ...
write_data	data.write
System init for write_data ...
WARNING: Not all mixed pair coeffs generated from mixing. Use write_data with 'pair ij' option to store all pair coeffs. (src/write_data.cpp:312)

Total wall time: 2:44:43
