LAMMPS (3 Mar 2020)
  using 1 OpenMP thread(s) per MPI task
# Simple rigid body system


units		lj
atom_style	full
dimension 	3
boundary	p p f
pair_style	lj/cut/opt 4.4

variable 	sigma		equal 1.0
variable 	epsilon 	equal 1.0


region		box block 0 40 0 40 0 40
create_box 	3 box
Created orthogonal box = (0 0 0) to (40 40 40)
  4 by 4 by 8 MPI processor grid
lattice 	sc 1.0
Lattice spacing in x,y,z = 1 1 1

create_atoms 	3 region box
Created 64000 atoms
  create_atoms CPU = 0.197455 secs

mass		1 1.0
mass		2 1.0
mass		3 1.0
group		solvent type 3
64000 atoms in group solvent
velocity 	solvent create 1.0 563435 loop geom

replicate 	2 2 2
Replicating atoms ...
WARNING: Replicating in a non-periodic dimension (src/replicate.cpp:72)
  orthogonal box = (0 0 0) to (80 80 80)
  4 by 4 by 8 MPI processor grid
  512000 atoms
Finding 1-2 1-3 1-4 neighbors ...
  special bond factors lj:   0          0          0         
  special bond factors coul: 0          0          0         
  0 = max # of 1-2 neighbors
  0 = max # of 1-3 neighbors
  0 = max # of 1-4 neighbors
  1 = max # of special neighbors
  special bonds CPU = 2.90805 secs
  replicate CPU = 3.85319 secs
read_data	data.vac add append
Reading data file ...
  orthogonal box = (0 0 0) to (80 80 160)
  4 by 4 by 8 MPI processor grid
Finding 1-2 1-3 1-4 neighbors ...
  special bond factors lj:   0          0          0         
  special bond factors coul: 0          0          0         
  0 = max # of 1-2 neighbors
  0 = max # of 1-3 neighbors
  0 = max # of 1-4 neighbors
  1 = max # of special neighbors
  special bonds CPU = 0.0180722 secs
  read_data CPU = 0.0238355 secs

neighbor 	0.4 bin
pair_coeff	1 1 0.0 0.0
pair_coeff	2 2 0.0 0.0
pair_coeff	1 2 0.0 0.0
pair_coeff	1*2 3 0.0 0.0
pair_coeff	3 3 1.0 1.0
pair_modify 	shift yes

balance 	1.05 shift z 10 1.05
Balancing ...
Neighbor list info ...
  update every 1 steps, delay 10 steps, check yes
  max neighbors/atom: 2000, page size: 100000
  master list distance cutoff = 4.8
  ghost atom cutoff = 4.8
  binsize = 2.4, bins = 34 34 67
  1 neighbor lists, perpetual/occasional/extra = 1 0 0
  (1) pair lj/cut/opt, perpetual
      attributes: half, newton on
      pair build: half/bin/newton
      stencil: half/bin/3d/newton
      bin: standard
  rebalancing time: 0.00892555 seconds
  iteration count = 5
  initial/final max load/proc = 8000 4800
  initial/final imbalance factor = 2 1.2
  x cuts: 0 0.25 0.5 0.75 1
  y cuts: 0 0.25 0.5 0.75 1
  z cuts: 0 0.0625 0.128906 0.1875 0.257812 0.308594 0.386719 0.4375 1

####################### WALLS ###########################

region	       low block  EDGE EDGE EDGE EDGE 0 1

region 	       top block  EDGE EDGE EDGE EDGE 159 160

delete_atoms   region low
WARNING: Ignoring 'compress yes' for molecular system (src/delete_atoms.cpp:125)
Deleted 12800 atoms, new total = 499200

variable       epsilonWall equal 2*${epsilon}
variable       epsilonWall equal 2*1

variable       cutoffTop   equal   0.7147*${sigma}
variable       cutoffTop   equal   0.7147*1

variable       cutoffLow   equal   3*${sigma}
variable       cutoffLow   equal   3*1

fix            topWall all wall/lj93 zhi EDGE                ${epsilonWall} ${sigma} ${cutoffTop} units box
fix            topWall all wall/lj93 zhi EDGE                2 ${sigma} ${cutoffTop} units box
fix            topWall all wall/lj93 zhi EDGE                2 1 ${cutoffTop} units box
fix            topWall all wall/lj93 zhi EDGE                2 1 0.7147 units box

fix            lowWall all wall/lj93 zlo EDGE                ${epsilonWall} ${sigma} ${cutoffLow} units box
fix            lowWall all wall/lj93 zlo EDGE                2 ${sigma} ${cutoffLow} units box
fix            lowWall all wall/lj93 zlo EDGE                2 1 ${cutoffLow} units box
fix            lowWall all wall/lj93 zlo EDGE                2 1 3 units box



######################	FIXES ############################

#fix		1 cube rigid/nvt/small molecule temp 1.0 1.0 0.25

fix 		2 solvent nve

## Thermostat
region		regthermo block EDGE EDGE EDGE EDGE 0 20

group 		thermo dynamic solvent region regthermo every 1000
dynamic group thermo defined

fix 		3 thermo langevin 1.0 1.0 0.1 156453

#### Load balancing


fix 		bal all balance 1000 1.05 shift z 10 1.05


############### Diagnostics and computes ###################
#compute 	com cube	  rigid/local	1 mol x y z
#compute 	quat cube	  rigid/local	1 mol quatw quati quatj quatk

thermo 		1000
thermo_style 	custom step temp epair evdwl etotal press pe ke vol

dump		1 all custom 100000 dump.lammpstrj id mol type x y z
dump 		2 all image 10000 image.*.png type type
#dump 		3 all movie 100 movie.avi type type
#dump 		com cube local 1000 dump.*.xyz c_com[*]
#dump		quat cube      local 1000 dump.*.quat c_quat[*]


restart 	100000 restart.dat
timestep 	0.0025
timer 		full
New timer settings: style=full  mode=nosync  timeout=off


run		1000000
Setting up Verlet run ...
  Unit style    : lj
  Current step  : 0
  Time step     : 0.0025
Per MPI rank memory allocation (min/avg/max) = 12.18 | 15.39 | 20.73 Mbytes
Step Temp E_pair E_vdwl TotEng Press PotEng KinEng Volume 
       0    0.9999782   -4.1582862   -4.1582862   -2.6583219    8.3781089   -4.1582862    1.4999643      1024000 
    1000    1.5249898   -5.4574321   -5.4574321   -3.1699521    4.1242467   -5.4574321    2.2874801      1024000 
    2000    1.5161117   -5.5246913   -5.5246913   -3.2505283    2.6863393   -5.5246913     2.274163      1024000 
    3000    1.5017082   -5.5190322   -5.5190322   -3.2664744     1.503484   -5.5190322    2.2525578      1024000 
    4000    1.4423887   -5.3943466   -5.3943466   -3.2307678   0.76039999   -5.3943466    2.1635787      1024000 
    5000     1.356296    -5.231009    -5.231009   -3.1965691   0.39031489    -5.231009    2.0344399      1024000 
    6000    1.2859922    -5.100336    -5.100336   -3.1713516   0.24670212    -5.100336    1.9289845      1024000 
    7000    1.2710513   -5.0580906   -5.0580906   -3.1515175   0.28700496   -5.0580906    1.9065731      1024000 
    8000    1.2815229   -5.0607566   -5.0607566   -3.1384761   0.35804964   -5.0607566    1.9222805      1024000 
    9000    1.2872606   -5.0614581   -5.0614581   -3.1305711   0.37883524   -5.0614581     1.930887      1024000 
   10000    1.3035652   -5.0782425   -5.0782425   -3.1228987    0.4265069   -5.0782425    1.9553439      1024000 
   11000    1.3213888   -5.0985801   -5.0985801   -3.1165009   0.50350078   -5.0985801    1.9820792      1024000 
   12000    1.3361319   -5.1159216   -5.1159216   -3.1117278   0.56322439   -5.1159216    2.0041939      1024000 
   13000    1.3387034   -5.1138583   -5.1138583   -3.1058072   0.57668888   -5.1138583    2.0080511      1024000 
   14000    1.3340899   -5.1007753   -5.1007753   -3.0996444   0.53962631   -5.1007753    2.0011308      1024000 
   15000    1.3252156    -5.081884    -5.081884   -3.0940645   0.46728382    -5.081884    1.9878195      1024000 
   16000    1.3162426   -5.0606541   -5.0606541   -3.0862942   0.42374522   -5.0606541    1.9743599      1024000 
   17000    1.3109358   -5.0494925   -5.0494925   -3.0830927    0.4003261   -5.0494925    1.9663998      1024000 
   18000      1.31404   -5.0469522   -5.0469522   -3.0758962   0.41720472   -5.0469522     1.971056      1024000 
   19000    1.3200861    -5.054694    -5.054694   -3.0745688   0.44074889    -5.054694    1.9801252      1024000 
   20000    1.3284164   -5.0623726   -5.0623726   -3.0697521   0.48672803   -5.0623726    1.9926206      1024000 
   21000    1.3439832   -5.0810261   -5.0810261   -3.0650554   0.89166641   -5.0810261    2.0159708      1024000 
   22000    1.3459768   -5.0786413   -5.0786413   -3.0596802    1.6665109   -5.0786413    2.0189612      1024000 
   23000    1.3553994   -5.0869574   -5.0869574   -3.0538623    2.3185364   -5.0869574     2.033095      1024000 
   24000    1.3599871   -5.0908178   -5.0908178   -3.0508413    1.8804655   -5.0908178    2.0399765      1024000 
   25000    1.3433105      -5.0621      -5.0621   -3.0471382     1.197645      -5.0621    2.0149618      1024000 
   26000    1.3091189   -5.0029985   -5.0029985   -3.0393241   0.71117444   -5.0029985    1.9636744      1024000 
   27000     1.258371   -4.9240634   -4.9240634   -3.0365107   0.49253133   -4.9240634    1.8875528      1024000 
   28000    1.2302223   -4.8774942   -4.8774942   -3.0321645   0.49041895   -4.8774942    1.8453297      1024000 
   29000    1.2323086   -4.8751557   -4.8751557   -3.0266965   0.86087523   -4.8751557    1.8484592      1024000 
   30000    1.2497491   -4.8973668   -4.8973668   -3.0227469   0.91173118   -4.8973668    1.8746199      1024000 
   31000    1.2475247   -4.8893602   -4.8893602    -3.018077     0.925053   -4.8893602    1.8712833      1024000 
   32000     1.232107   -4.8617719   -4.8617719   -3.0136152    1.0022879   -4.8617719    1.8481568      1024000 
   33000    1.1767115   -4.7771897   -4.7771897    -3.012126   0.53464045   -4.7771897    1.7650637      1024000 
   34000    1.1013034   -4.6589078   -4.6589078    -3.006956   0.17865461   -4.6589078    1.6519519      1024000 
   35000    1.0361089   -4.5572577   -4.5572577   -3.0030975  0.014288698   -4.5572577    1.5541602      1024000 
   36000   0.99903562   -4.4971428   -4.4971428   -2.9985924 -0.030125268   -4.4971428    1.4985504      1024000 
   37000   0.99158466   -4.4836486   -4.4836486   -2.9962746 -0.0050759089   -4.4836486     1.487374      1024000 
   38000   0.99526905   -4.4862081   -4.4862081   -2.9933075  0.041834902   -4.4862081    1.4929006      1024000 
   39000    1.0007328   -4.4920616   -4.4920616   -2.9909654  0.068772853   -4.4920616    1.5010963      1024000 
   40000    1.0089908   -4.5030492   -4.5030492    -2.989566  0.091048594   -4.5030492    1.5134832      1024000 
   41000    1.0143504    -4.508839    -4.508839   -2.9873164   0.11167333    -4.508839    1.5215226      1024000 
   42000     1.018362   -4.5115828   -4.5115828   -2.9840428   0.12632485   -4.5115828      1.52754      1024000 
   43000    1.0193382   -4.5129149   -4.5129149   -2.9839107    0.1308599   -4.5129149    1.5290042      1024000 
   44000    1.0201941   -4.5124014   -4.5124014   -2.9821133   0.12839431   -4.5124014    1.5302881      1024000 
   45000    1.0249819   -4.5152711   -4.5152711   -2.9778013   0.14127887   -4.5152711    1.5374697      1024000 
   46000    1.0255782   -4.5187175   -4.5187175   -2.9803533   0.14534737   -4.5187175    1.5383642      1024000 
   47000    1.0246911   -4.5149567   -4.5149567   -2.9779231   0.14148183   -4.5149567    1.5370336      1024000 
   48000    1.0251643   -4.5170082   -4.5170082   -2.9792648   0.13984742   -4.5170082    1.5377434      1024000 
   49000    1.0252467   -4.5176598   -4.5176598   -2.9797929    0.1365934   -4.5176598    1.5378669      1024000 
   50000    1.0247243   -4.5159356   -4.5159356   -2.9788523   0.14053642   -4.5159356    1.5370833      1024000 
   51000    1.0254985   -4.5171577   -4.5171577    -2.978913   0.13877938   -4.5171577    1.5382447      1024000 
   52000    1.0285037   -4.5234293   -4.5234293   -2.9806769    0.1448994   -4.5234293    1.5427524      1024000 
   53000    1.0302305   -4.5300924   -4.5300924   -2.9847498   0.15704192   -4.5300924    1.5453426      1024000 
   54000    1.0337818   -4.5434752   -4.5434752   -2.9928057   0.16239336   -4.5434752    1.5506696      1024000 
   55000    1.0359336   -4.5551221   -4.5551221   -3.0012248   0.17457506   -4.5551221    1.5538973      1024000 
   56000    1.0374992   -4.5668203   -4.5668203   -3.0105746    0.1875908   -4.5668203    1.5562457      1024000 
   57000    1.0414181   -4.5845109   -4.5845109   -3.0223869    0.2050765   -4.5845109     1.562124      1024000 
   58000    1.0426156   -4.6017567   -4.6017567   -3.0378364   0.22066084   -4.6017567    1.5639203      1024000 
   59000    1.0443018   -4.6162368   -4.6162368   -3.0497873   0.23324658   -4.6162368    1.5664495      1024000 
   60000    1.0421017    -4.623172    -4.623172   -3.0600226   0.24228006    -4.623172    1.5631494      1024000 
   61000    1.0389447   -4.6243637   -4.6243637   -3.0659497   0.23567091   -4.6243637    1.5584139      1024000 
   62000    1.0355434   -4.6240295   -4.6240295   -3.0707175   0.22256405   -4.6240295     1.553312      1024000 
   63000    1.0308189   -4.6182405   -4.6182405   -3.0720153   0.20430781   -4.6182405    1.5462253      1024000 
   64000     1.027447   -4.6130923   -4.6130923   -3.0719248   0.19242733   -4.6130923    1.5411674      1024000 
   65000    1.0240537     -4.60788     -4.60788   -3.0718025    0.1673097     -4.60788    1.5360775      1024000 
   66000    1.0207837   -4.5998476   -4.5998476   -3.0686752    0.1620778   -4.5998476    1.5311725      1024000 
   67000     1.017915   -4.5912815   -4.5912815    -3.064412   0.14479469   -4.5912815    1.5268695      1024000 
   68000    1.0146474   -4.5857317   -4.5857317   -3.0637637   0.14363621   -4.5857317     1.521968      1024000 
   69000    1.0140998   -4.5821673   -4.5821673   -3.0610205   0.12363115   -4.5821673    1.5211467      1024000 
   70000    1.0121162   -4.5785652   -4.5785652    -3.060394   0.11968111   -4.5785652    1.5181712      1024000 
   71000    1.0129937    -4.577579    -4.577579   -3.0580915   0.12090914    -4.577579    1.5194875      1024000 
   72000    1.0146281   -4.5779684   -4.5779684   -3.0560293   0.12746954   -4.5779684    1.5219391      1024000 
   73000    1.0174007   -4.5814274   -4.5814274   -3.0553294    0.1299171   -4.5814274     1.526098      1024000 
   74000    1.0173317    -4.584959    -4.584959   -3.0589646   0.12994038    -4.584959    1.5259944      1024000 
   75000     1.019278   -4.5857649   -4.5857649    -3.056851   0.13110469   -4.5857649    1.5289139      1024000 
   76000    1.0203603    -4.586963    -4.586963   -3.0564256   0.13812047    -4.586963    1.5305374      1024000 
   77000    1.0223549   -4.5897022   -4.5897022   -3.0561729   0.13728178   -4.5897022    1.5335292      1024000 
   78000    1.0237106   -4.5937486   -4.5937486   -3.0581859   0.14155387   -4.5937486    1.5355628      1024000 
   79000    1.0263309   -4.5980229   -4.5980229   -3.0585296   0.14494525   -4.5980229    1.5394933      1024000 
   80000    1.0256863   -4.5971711   -4.5971711   -3.0586447   0.15368275   -4.5971711    1.5385264      1024000 
   81000    1.0260315   -4.6003445   -4.6003445   -3.0613003    0.1532188   -4.6003445    1.5390441      1024000 
   82000    1.0266535    -4.601283    -4.601283   -3.0613058   0.15609396    -4.601283    1.5399771      1024000 
   83000    1.0280897   -4.6039092   -4.6039092   -3.0617777   0.15565518   -4.6039092    1.5421315      1024000 
   84000    1.0273161   -4.6038505   -4.6038505   -3.0628794   0.15880768   -4.6038505    1.5409711      1024000 
   85000    1.0273465   -4.6061079   -4.6061079   -3.0650913   0.15665727   -4.6061079    1.5410166      1024000 
   86000    1.0285465   -4.6060894   -4.6060894   -3.0632728   0.15992704   -4.6060894    1.5428166      1024000 
   87000    1.0298426   -4.6083461   -4.6083461   -3.0635853   0.15348035   -4.6083461    1.5447608      1024000 
   88000    1.0275008   -4.6069994   -4.6069994   -3.0657513   0.15029277   -4.6069994    1.5412481      1024000 
   89000    1.0252208   -4.6044574   -4.6044574   -3.0666293   0.15222017   -4.6044574    1.5378281      1024000 
   90000    1.0271603   -4.6039151   -4.6039151   -3.0631777   0.15377735   -4.6039151    1.5407374      1024000 
   91000    1.0258673   -4.6039803   -4.6039803   -3.0651824   0.14448647   -4.6039803    1.5387979      1024000 
   92000    1.0253452   -4.6021071   -4.6021071   -3.0640923   0.14634908   -4.6021071    1.5380147      1024000 
   93000    1.0255199   -4.6038961   -4.6038961   -3.0656193   0.14108722   -4.6038961    1.5382768      1024000 
   94000     1.025841   -4.6026918   -4.6026918   -3.0639334   0.14520732   -4.6026918    1.5387585      1024000 
   95000    1.0275001   -4.6051225   -4.6051225   -3.0638755   0.14332898   -4.6051225    1.5412471      1024000 
   96000    1.0280183   -4.6059278   -4.6059278   -3.0639034   0.14822154   -4.6059278    1.5420244      1024000 
   97000    1.0299119    -4.607318    -4.607318   -3.0624532   0.14835313    -4.607318    1.5448648      1024000 
   98000    1.0312624   -4.6101764   -4.6101764   -3.0632859   0.15693941   -4.6101764    1.5468905      1024000 
   99000    1.0332803   -4.6140491   -4.6140491   -3.0641318   0.16529421   -4.6140491    1.5499173      1024000 
  100000    1.0353694   -4.6189998   -4.6189998   -3.0659488   0.16452886   -4.6189998     1.553051      1024000 
  101000     1.036261   -4.6197584   -4.6197584     -3.06537   0.16911839   -4.6197584    1.5543884      1024000 
  102000    1.0376031   -4.6220345   -4.6220345    -3.065633   0.18032471   -4.6220345    1.5564015      1024000 
  103000    1.0387113   -4.6221214   -4.6221214   -3.0640577   0.18102327   -4.6221214    1.5580638      1024000 
  104000    1.0360483   -4.6232418   -4.6232418   -3.0691725   0.16619662   -4.6232418    1.5540693      1024000 
  105000    1.0349884   -4.6220139   -4.6220139   -3.0695345   0.16870917   -4.6220139    1.5524794      1024000 
  106000    1.0332597   -4.6215047   -4.6215047   -3.0716182   0.16392463   -4.6215047    1.5498865      1024000 
  107000    1.0293586   -4.6205851   -4.6205851   -3.0765502   0.15338264   -4.6205851    1.5440349      1024000 
  108000    1.0273929   -4.6173154   -4.6173154   -3.0762291   0.15409676   -4.6173154    1.5410863      1024000 
  109000    1.0253569   -4.6148326   -4.6148326   -3.0768004   0.14326972   -4.6148326    1.5380322      1024000 
  110000    1.0217033    -4.609868    -4.609868   -3.0773161   0.14327772    -4.609868    1.5325519      1024000 
  111000    1.0218868    -4.607375    -4.607375   -3.0745478   0.13864289    -4.607375    1.5328272      1024000 
  112000    1.0202985   -4.6032663   -4.6032663   -3.0728216   0.13226483   -4.6032663    1.5304447      1024000 
  113000    1.0192571   -4.6012243   -4.6012243   -3.0723418   0.11163301   -4.6012243    1.5288825      1024000 
  114000     1.017325   -4.5945803   -4.5945803   -3.0685959   0.11074419   -4.5945803    1.5259844      1024000 
  115000    1.0133745   -4.5875147   -4.5875147   -3.0674559   0.10202086   -4.5875147    1.5200587      1024000 
  116000    1.0084725   -4.5800982   -4.5800982   -3.0673924  0.087333518   -4.5800982    1.5127058      1024000 
  117000    1.0057037   -4.5753306   -4.5753306   -3.0667781  0.072342799   -4.5753306    1.5085525      1024000 
  118000     1.004006   -4.5692524   -4.5692524   -3.0632464  0.067293838   -4.5692524     1.506006      1024000 
  119000   0.99903132   -4.5625821   -4.5625821   -3.0640381  0.055706491   -4.5625821     1.498544      1024000 
  120000    0.9956617   -4.5560619   -4.5560619   -3.0625724  0.047884659   -4.5560619    1.4934896      1024000 
  121000   0.99469868   -4.5543914   -4.5543914   -3.0623464  0.036618861   -4.5543914     1.492045      1024000 
  122000   0.99290888   -4.5469161   -4.5469161   -3.0575558  0.038191199   -4.5469161    1.4893603      1024000 
  123000    0.9910635   -4.5440618   -4.5440618   -3.0574695  0.026991784   -4.5440618    1.4865923      1024000 
  124000   0.99106069   -4.5434707   -4.5434707   -3.0568826  0.025989576   -4.5434707     1.486588      1024000 
  125000   0.98910058   -4.5406417   -4.5406417   -3.0569938  0.021170408   -4.5406417    1.4836479      1024000 
  126000   0.99070669   -4.5402702   -4.5402702   -3.0542131  0.017044579   -4.5402702    1.4860571      1024000 
  127000   0.99024216   -4.5379345   -4.5379345   -3.0525743  0.021928025   -4.5379345    1.4853603      1024000 
  128000   0.99046223   -4.5379225   -4.5379225   -3.0522322  0.022021655   -4.5379225    1.4856904      1024000 
  129000   0.99193172   -4.5368424   -4.5368424   -3.0489478  0.024855535   -4.5368424    1.4878946      1024000 
  130000   0.99159591   -4.5357102   -4.5357102   -3.0483193  0.031661767   -4.5357102    1.4873909      1024000 
  131000   0.99314388   -4.5382822   -4.5382822   -3.0485693  0.030303805   -4.5382822    1.4897128      1024000 
  132000   0.99544795   -4.5379482   -4.5379482   -3.0447793  0.035851956   -4.5379482    1.4931689      1024000 
  133000   0.99856129   -4.5402884   -4.5402884   -3.0424495  0.036042277   -4.5402884    1.4978389      1024000 
  134000   0.99889001   -4.5403192   -4.5403192   -3.0419872  0.051170477   -4.5403192     1.498332      1024000 
  135000     1.001457   -4.5448535   -4.5448535    -3.042671  0.043624373   -4.5448535    1.5021825      1024000 
  136000    1.0017522    -4.545751    -4.545751   -3.0431258  0.050950548    -4.545751    1.5026252      1024000 
  137000    1.0033788   -4.5501547   -4.5501547   -3.0450895  0.050525045   -4.5501547    1.5050651      1024000 
  138000    1.0062112   -4.5517979   -4.5517979   -3.0424841   0.06404162   -4.5517979    1.5093138      1024000 
  139000     1.008114   -4.5592074   -4.5592074   -3.0470394  0.065772412   -4.5592074     1.512168      1024000 
  140000    1.0099806   -4.5618496   -4.5618496   -3.0468817  0.072951583   -4.5618496    1.5149679      1024000 
  141000    1.0124367   -4.5656113   -4.5656113   -3.0469593  0.083980748   -4.5656113     1.518652      1024000 
  142000    1.0140689   -4.5679836   -4.5679836   -3.0468833  0.091684416   -4.5679836    1.5211003      1024000 
  143000    1.0143112    -4.571335    -4.571335   -3.0498713   0.09177291    -4.571335    1.5214637      1024000 
  144000    1.0154001   -4.5739224   -4.5739224   -3.0508253  0.098321027   -4.5739224    1.5230971      1024000 
  145000      1.01956   -4.5818614   -4.5818614   -3.0525244  0.094928454   -4.5818614     1.529337      1024000 
  146000    1.0186013   -4.5811957   -4.5811957   -3.0532968   0.10949407   -4.5811957    1.5278989      1024000 
  147000    1.0207562   -4.5852633   -4.5852633   -3.0541321   0.10868392   -4.5852633    1.5311312      1024000 
  148000    1.0185217   -4.5843769   -4.5843769   -3.0565974   0.11497627   -4.5843769    1.5277795      1024000 
  149000    1.0221366    -4.589849    -4.589849   -3.0566472   0.11988284    -4.589849    1.5332018      1024000 
  150000    1.0214295   -4.5895124   -4.5895124   -3.0573712   0.12163785   -4.5895124    1.5321412      1024000 
  151000    1.0206626   -4.5901669   -4.5901669   -3.0591761   0.11746043   -4.5901669    1.5309908      1024000 
  152000    1.0208372   -4.5898076   -4.5898076   -3.0585548   0.11772469   -4.5898076    1.5312528      1024000 
  153000    1.0207995   -4.5904086   -4.5904086   -3.0592124   0.11355861   -4.5904086    1.5311962      1024000 
  154000    1.0211744   -4.5919471   -4.5919471   -3.0601886   0.11425898   -4.5919471    1.5317585      1024000 
  155000    1.0190792   -4.5891305   -4.5891305   -3.0605148   0.11453846   -4.5891305    1.5286157      1024000 
  156000    1.0179687   -4.5898463   -4.5898463   -3.0628962   0.10495028   -4.5898463    1.5269501      1024000 
  157000     1.017087   -4.5886974   -4.5886974     -3.06307   0.10152063   -4.5886974    1.5256274      1024000 
  158000    1.0148938   -4.5836003   -4.5836003   -3.0612626   0.10228015   -4.5836003    1.5223377      1024000 
  159000    1.0147283   -4.5825787   -4.5825787   -3.0604892   0.09186965   -4.5825787    1.5220894      1024000 
  160000    1.0112357   -4.5779554   -4.5779554   -3.0611049  0.091952805   -4.5779554    1.5168504      1024000 
  161000    1.0103805   -4.5758606   -4.5758606   -3.0602929  0.083930321   -4.5758606    1.5155677      1024000 
  162000    1.0085091   -4.5717801   -4.5717801   -3.0590194  0.075692053   -4.5717801    1.5127607      1024000 
  163000    1.0077408    -4.567939    -4.567939   -3.0563309  0.072498387    -4.567939    1.5116082      1024000 
  164000     1.005286   -4.5653822   -4.5653822   -3.0574561  0.063065456   -4.5653822    1.5079261      1024000 
  165000    1.0026341   -4.5615824   -4.5615824   -3.0576344   0.06330874   -4.5615824    1.5039481      1024000 
  166000    1.0014289   -4.5614382   -4.5614382   -3.0592979  0.054215093   -4.5614382    1.5021404      1024000 
  167000    1.0018381   -4.5578793   -4.5578793   -3.0551252  0.054732349   -4.5578793    1.5027541      1024000 
  168000     1.001136    -4.556376    -4.556376    -3.054675  0.049414414    -4.556376    1.5017009      1024000 
  169000    1.0000478   -4.5528956   -4.5528956    -3.052827  0.053479125   -4.5528956    1.5000687      1024000 
  170000   0.99969924    -4.549533    -4.549533   -3.0499872  0.056255879    -4.549533    1.4995459      1024000 
  171000   0.99909553   -4.5506873   -4.5506873    -3.052047  0.040157329   -4.5506873    1.4986403      1024000 
  172000   0.99858091   -4.5482668   -4.5482668   -3.0503984   0.04218866   -4.5482668    1.4978684      1024000 
  173000     0.998882   -4.5477006   -4.5477006   -3.0493806  0.040063739   -4.5477006      1.49832      1024000 
  174000   0.99894266   -4.5478446   -4.5478446   -3.0494336  0.033099518   -4.5478446     1.498411      1024000 
  175000   0.99692847   -4.5472589   -4.5472589   -3.0518692   0.03103995   -4.5472589    1.4953897      1024000 
  176000   0.99653721   -4.5453284   -4.5453284   -3.0505256  0.041916967   -4.5453284    1.4948028      1024000 
  177000   0.99650145   -4.5451687   -4.5451687   -3.0504195  0.045574766   -4.5451687    1.4947492      1024000 
  178000   0.99935086   -4.5476903   -4.5476903    -3.048667  0.040332332   -4.5476903    1.4990233      1024000 
  179000    1.0002817   -4.5498689   -4.5498689   -3.0494493  0.039434248   -4.5498689    1.5004195      1024000 
  180000   0.99934703   -4.5482503   -4.5482503   -3.0492327  0.050218892   -4.5482503    1.4990175      1024000 
  181000    1.0018496   -4.5491919   -4.5491919   -3.0464205  0.050773742   -4.5491919    1.5027714      1024000 
  182000    1.0025247   -4.5527745   -4.5527745   -3.0489905  0.047810152   -4.5527745    1.5037841      1024000 
  183000    1.0034616   -4.5544543   -4.5544543   -3.0492649  0.050465544   -4.5544543    1.5051894      1024000 
  184000    1.0061513   -4.5578428   -4.5578428   -3.0486189  0.058600726   -4.5578428    1.5092239      1024000 
  185000     1.004727   -4.5577826   -4.5577826   -3.0506951  0.069319533   -4.5577826    1.5070875      1024000 
  186000    1.0067949   -4.5616418   -4.5616418   -3.0514525  0.067504676   -4.5616418    1.5101893      1024000 
  187000    1.0087055   -4.5644253   -4.5644253     -3.05137   0.07339319   -4.5644253    1.5130553      1024000 
  188000    1.0098621   -4.5657816   -4.5657816   -3.0509914  0.074757644   -4.5657816    1.5147902      1024000 
  189000     1.010102   -4.5671426   -4.5671426   -3.0519927  0.081350375   -4.5671426      1.51515      1024000 
  190000    1.0103225   -4.5679021   -4.5679021   -3.0524214  0.088131888   -4.5679021    1.5154807      1024000 
  191000    1.0114335   -4.5711446   -4.5711446   -3.0539973  0.083501125   -4.5711446    1.5171473      1024000 
  192000    1.0119663   -4.5713243   -4.5713243   -3.0533778  0.090682912   -4.5713243    1.5179465      1024000 
  193000     1.012424   -4.5750702   -4.5750702   -3.0564373  0.089756745   -4.5750702     1.518633      1024000 
  194000    1.0137256    -4.578156    -4.578156   -3.0575706  0.087710189    -4.578156    1.5205853      1024000 
  195000    1.0131854   -4.5781925   -4.5781925   -3.0584175  0.090002805   -4.5781925     1.519775      1024000 
  196000    1.0126046    -4.578352    -4.578352   -3.0594481  0.096698195    -4.578352    1.5189039      1024000 
  197000    1.0140987   -4.5801597   -4.5801597   -3.0590147  0.092823561   -4.5801597     1.521145      1024000 
  198000    1.0126199   -4.5786681   -4.5786681   -3.0597413     0.097746   -4.5786681    1.5189269      1024000 
  199000     1.011906   -4.5794551   -4.5794551   -3.0615992  0.094371023   -4.5794551    1.5178559      1024000 
  200000     1.012417   -4.5796549   -4.5796549   -3.0610325  0.093813692   -4.5796549    1.5186224      1024000 
  201000    1.0118234   -4.5789224   -4.5789224   -3.0611903   0.10014539   -4.5789224    1.5177321      1024000 
  202000    1.0121344   -4.5788512   -4.5788512   -3.0606527  0.090510107   -4.5788512    1.5181985      1024000 
  203000    1.0094672     -4.57539     -4.57539   -3.0611922  0.087899798     -4.57539    1.5141978      1024000 
  204000    1.0088844   -4.5767462   -4.5767462   -3.0634226  0.083757987   -4.5767462    1.5133236      1024000 
  205000    1.0089912   -4.5758488   -4.5758488   -3.0623651  0.076686832   -4.5758488    1.5134837      1024000 
  206000     1.007101   -4.5738224   -4.5738224   -3.0631739  0.075923538   -4.5738224    1.5106485      1024000 
  207000    1.0070869    -4.571525    -4.571525   -3.0608977  0.074045267    -4.571525    1.5106273      1024000 
  208000     1.004974   -4.5694691   -4.5694691   -3.0620112  0.067077243   -4.5694691    1.5074579      1024000 
  209000    1.0027398   -4.5673065   -4.5673065   -3.0631999  0.065446956   -4.5673065    1.5041066      1024000 
  210000    1.0034123   -4.5653767   -4.5653767   -3.0602613  0.066071253   -4.5653767    1.5051155      1024000 
  211000    1.0027018   -4.5646362   -4.5646362   -3.0605865  0.060691676   -4.5646362    1.5040497      1024000 
  212000     1.001952   -4.5616772   -4.5616772   -3.0587522  0.063930011   -4.5616772     1.502925      1024000 
  213000    1.0019468   -4.5633336   -4.5633336   -3.0604164  0.053134776   -4.5633336    1.5029172      1024000 
  214000    1.0009343   -4.5601213   -4.5601213   -3.0587228   0.05612445   -4.5601213    1.5013984      1024000 
  215000    1.0004356    -4.560625    -4.560625   -3.0599747  0.053316818    -4.560625    1.5006503      1024000 
  216000    1.0008755   -4.5597082   -4.5597082   -3.0583979  0.054208451   -4.5597082    1.5013103      1024000 
  217000    1.0014137   -4.5593256   -4.5593256   -3.0572081  0.054751679   -4.5593256    1.5021175      1024000 
  218000   0.99943597   -4.5582328   -4.5582328   -3.0590818  0.053935334   -4.5582328     1.499151      1024000 
  219000    1.0003047   -4.5583526   -4.5583526   -3.0578987  0.049938707   -4.5583526     1.500454      1024000 
  220000   0.99916495   -4.5573274   -4.5573274    -3.058583   0.05205335   -4.5573274    1.4987444      1024000 
  221000    1.0006787   -4.5587957   -4.5587957   -3.0577807  0.050549063   -4.5587957     1.501015      1024000 
  222000    1.0007492   -4.5584415   -4.5584415   -3.0573207  0.054192497   -4.5584415    1.5011208      1024000 
  223000    0.9998964     -4.55704     -4.55704   -3.0571984  0.061564296     -4.55704    1.4998416      1024000 
  224000    1.0012415   -4.5593697   -4.5593697   -3.0575106  0.059080621   -4.5593697    1.5018592      1024000 
  225000    1.0017095   -4.5593818   -4.5593818   -3.0568205  0.059232265   -4.5593818    1.5025612      1024000 
  226000    1.0025605   -4.5602858   -4.5602858   -3.0564481  0.059955527   -4.5602858    1.5038378      1024000 
  227000    1.0026825   -4.5612457   -4.5612457   -3.0572249   0.06312598   -4.5612457    1.5040208      1024000 
  228000    1.0030924   -4.5623918   -4.5623918   -3.0577562  0.068148909   -4.5623918    1.5046356      1024000 
  229000    1.0036775   -4.5632031   -4.5632031   -3.0576899  0.069451697   -4.5632031    1.5055132      1024000 
  230000    1.0053751   -4.5658092   -4.5658092   -3.0577496   0.06519504   -4.5658092    1.5080596      1024000 
  231000     1.005039   -4.5664194   -4.5664194   -3.0588639   0.07103998   -4.5664194    1.5075555      1024000 
  232000    1.0069822   -4.5691537   -4.5691537   -3.0586834  0.069774849   -4.5691537    1.5104703      1024000 
  233000    1.0074485   -4.5699041   -4.5699041   -3.0587344  0.073453222   -4.5699041    1.5111697      1024000 
  234000    1.0087062    -4.572303    -4.572303   -3.0592468  0.076002898    -4.572303    1.5130562      1024000 
  235000    1.0085298   -4.5737039   -4.5737039   -3.0609122  0.070059406   -4.5737039    1.5127917      1024000 
  236000    1.0081279   -4.5724488   -4.5724488     -3.06026  0.076619757   -4.5724488    1.5121889      1024000 
  237000    1.0068207   -4.5702777   -4.5702777   -3.0600496  0.084330413   -4.5702777    1.5102281      1024000 
  238000    1.0081838   -4.5728038   -4.5728038   -3.0605312  0.076319205   -4.5728038    1.5122726      1024000 
  239000    1.0092923   -4.5753612   -4.5753612   -3.0614258  0.074615481   -4.5753612    1.5139354      1024000 
  240000    1.0080697    -4.574938    -4.574938   -3.0628365  0.075374247    -4.574938    1.5121015      1024000 
  241000      1.00867   -4.5753614   -4.5753614   -3.0623595  0.080947966   -4.5753614    1.5130019      1024000 
  242000    1.0071205   -4.5741239   -4.5741239   -3.0634462  0.081993169   -4.5741239    1.5106777      1024000 
  243000    1.0072035   -4.5755495   -4.5755495   -3.0647472  0.083618591   -4.5755495    1.5108022      1024000 
  244000    1.0072829   -4.5765455   -4.5765455   -3.0656242  0.079119297   -4.5765455    1.5109213      1024000 
  245000    1.0082308   -4.5758651   -4.5758651    -3.063522  0.080206376   -4.5758651    1.5123432      1024000 
  246000    1.0069518   -4.5737894   -4.5737894   -3.0633647   0.08160793   -4.5737894    1.5104247      1024000 
  247000    1.0061104   -4.5751354   -4.5751354   -3.0659728  0.079670144   -4.5751354    1.5091626      1024000 
  248000    1.0055304   -4.5735192   -4.5735192   -3.0652266  0.075512061   -4.5735192    1.5082926      1024000 
  249000    1.0047242   -4.5721559   -4.5721559   -3.0650726  0.073327747   -4.5721559    1.5070833      1024000 
  250000    1.0048901   -4.5722316   -4.5722316   -3.0648994  0.067281768   -4.5722316    1.5073322      1024000 
  251000    1.0054464   -4.5727079   -4.5727079   -3.0645413  0.071103481   -4.5727079    1.5081666      1024000 
  252000    1.0042566   -4.5712358   -4.5712358   -3.0648539  0.071057801   -4.5712358    1.5063819      1024000 
  253000    1.0045399   -4.5721029   -4.5721029    -3.065296  0.066506495   -4.5721029    1.5068069      1024000 
  254000    1.0016987   -4.5687873   -4.5687873   -3.0662422  0.069904388   -4.5687873    1.5025451      1024000 
  255000    1.0042076    -4.569848    -4.569848   -3.0635397   0.05811779    -4.569848    1.5063083      1024000 
  256000    1.0031478   -4.5671097   -4.5671097    -3.062391  0.064561851   -4.5671097    1.5047187      1024000 
  257000    1.0029287   -4.5662611   -4.5662611   -3.0618711  0.066988361   -4.5662611      1.50439      1024000 
  258000    1.0018954   -4.5671545   -4.5671545   -3.0643144  0.059885162   -4.5671545    1.5028401      1024000 
  259000    1.0033994   -4.5676258   -4.5676258   -3.0625296  0.062392812   -4.5676258    1.5050961      1024000 
  260000    1.0024947    -4.565268    -4.565268   -3.0615291  0.066114293    -4.565268     1.503739      1024000 
  261000    1.0030973   -4.5671667   -4.5671667   -3.0625237  0.061534996   -4.5671667    1.5046429      1024000 
  262000    1.0031801    -4.565259    -4.565259   -3.0604919   0.06566477    -4.565259    1.5047671      1024000 
  263000    1.0034801   -4.5670825   -4.5670825   -3.0618653  0.059183282   -4.5670825    1.5052172      1024000 
  264000     1.002798   -4.5663476   -4.5663476   -3.0621536  0.054627026   -4.5663476     1.504194      1024000 
  265000    1.0019039   -4.5635919   -4.5635919   -3.0607391  0.064981813   -4.5635919    1.5028528      1024000 
  266000    1.0011253    -4.563993    -4.563993   -3.0623081  0.056476935    -4.563993     1.501685      1024000 
  267000    1.0028066   -4.5659604   -4.5659604   -3.0617534   0.05260222   -4.5659604    1.5042069      1024000 
  268000    1.0016666   -4.5646396   -4.5646396   -3.0621427   0.05866821   -4.5646396    1.5024969      1024000 
  269000    1.0015022   -4.5653354   -4.5653354    -3.063085  0.059099957   -4.5653354    1.5022503      1024000 
  270000    1.0000863   -4.5632173   -4.5632173   -3.0630909  0.061624558   -4.5632173    1.5001264      1024000 
  271000    1.0014966   -4.5655679   -4.5655679    -3.063326  0.063301594   -4.5655679    1.5022419      1024000 
  272000     1.003459   -4.5689232   -4.5689232   -3.0637377  0.055386124   -4.5689232    1.5051855      1024000 
  273000    1.0030038   -4.5677864   -4.5677864   -3.0632838  0.065957595   -4.5677864    1.5045026      1024000 
  274000    1.0034212   -4.5678027   -4.5678027   -3.0626739  0.072001857   -4.5678027    1.5051287      1024000 
  275000    1.0034987   -4.5667763   -4.5667763   -3.0615313  0.066668475   -4.5667763     1.505245      1024000 
  276000    1.0039216   -4.5679089   -4.5679089   -3.0620295  0.064455594   -4.5679089    1.5058793      1024000 
  277000    1.0048175    -4.569355    -4.569355   -3.0621317  0.069512572    -4.569355    1.5072233      1024000 
  278000    1.0045328    -4.569766    -4.569766   -3.0629698  0.072853866    -4.569766    1.5067962      1024000 
  279000    1.0051903   -4.5716888   -4.5716888   -3.0639064  0.070518681   -4.5716888    1.5077824      1024000 
  280000     1.004431   -4.5708192   -4.5708192   -3.0641758  0.070188245   -4.5708192    1.5066434      1024000 
  281000     1.004845   -4.5727293   -4.5727293   -3.0654649  0.066843088   -4.5727293    1.5072644      1024000 
  282000    1.0050109   -4.5706935   -4.5706935   -3.0631802  0.078502314   -4.5706935    1.5075133      1024000 
  283000    1.0049963    -4.571582    -4.571582   -3.0640905  0.071433962    -4.571582    1.5074915      1024000 
  284000    1.0051948   -4.5739845   -4.5739845   -3.0661952  0.070954226   -4.5739845    1.5077892      1024000 
  285000    1.0051123   -4.5742457   -4.5742457   -3.0665802  0.070599011   -4.5742457    1.5076655      1024000 
  286000    1.0054779    -4.574316    -4.574316   -3.0661021   0.06899753    -4.574316    1.5082139      1024000 
  287000     1.004741   -4.5732147   -4.5732147   -3.0661062  0.074458721   -4.5732147    1.5071084      1024000 
  288000    1.0049825   -4.5746764   -4.5746764   -3.0672056   0.07212125   -4.5746764    1.5074708      1024000 
  289000    1.0063166   -4.5766702   -4.5766702   -3.0671982  0.070661316   -4.5766702    1.5094719      1024000 
  290000    1.0035372   -4.5721195   -4.5721195   -3.0668167  0.079677134   -4.5721195    1.5053028      1024000 
  291000    1.0049313   -4.5740297   -4.5740297   -3.0666357  0.071109295   -4.5740297    1.5073939      1024000 
  292000    1.0043591    -4.574504    -4.574504   -3.0679684  0.065590954    -4.574504    1.5065357      1024000 
  293000     1.004726   -4.5748934   -4.5748934   -3.0678074  0.067390939   -4.5748934     1.507086      1024000 
  294000    1.0050223   -4.5768499   -4.5768499   -3.0693195  0.062917883   -4.5768499    1.5075304      1024000 
  295000    1.0041334   -4.5752369   -4.5752369   -3.0690398  0.074865001   -4.5752369    1.5061971      1024000 
  296000    1.0020992   -4.5722478   -4.5722478    -3.069102  0.073518173   -4.5722478    1.5031458      1024000 
  297000    1.0035843   -4.5736129   -4.5736129   -3.0682395  0.069190004   -4.5736129    1.5053734      1024000 
  298000    1.0028889   -4.5736018   -4.5736018   -3.0692714  0.064971279   -4.5736018    1.5043303      1024000 
  299000    1.0025546   -4.5734374   -4.5734374   -3.0696085  0.060162182   -4.5734374    1.5038289      1024000 
  300000    1.0028452   -4.5716567   -4.5716567   -3.0673919  0.068455755   -4.5716567    1.5042648      1024000 
  301000    1.0027123   -4.5725782   -4.5725782   -3.0685128  0.061816287   -4.5725782    1.5040654      1024000 
  302000    1.0019709   -4.5711376   -4.5711376   -3.0681843   0.07023472   -4.5711376    1.5029533      1024000 
  303000     1.002044   -4.5717209   -4.5717209   -3.0686579   0.06534439   -4.5717209     1.503063      1024000 
  304000    1.0024289   -4.5690843   -4.5690843    -3.065444  0.077626506   -4.5690843    1.5036403      1024000 
  305000    1.0001156   -4.5686277   -4.5686277   -3.0684573  0.068034449   -4.5686277    1.5001704      1024000 
  306000    1.0024107   -4.5705802   -4.5705802   -3.0669672  0.062496498   -4.5705802     1.503613      1024000 
  307000    1.0023696   -4.5711215   -4.5711215     -3.06757  0.062120897   -4.5711215    1.5035514      1024000 
  308000    1.0006029    -4.568705    -4.568705   -3.0678037  0.065923067    -4.568705    1.5009013      1024000 
  309000    1.0003809   -4.5684008   -4.5684008   -3.0678325  0.068812277   -4.5684008    1.5005683      1024000 
  310000    1.0013056   -4.5709243   -4.5709243    -3.068969  0.061956934   -4.5709243    1.5019553      1024000 
  311000    1.0013255    -4.569854    -4.569854   -3.0678688  0.069057961    -4.569854    1.5019852      1024000 
  312000    1.0006084   -4.5696171   -4.5696171   -3.0687075   0.06293098   -4.5696171    1.5009096      1024000 
  313000    1.0012917   -4.5719868   -4.5719868   -3.0700524  0.059540052   -4.5719868    1.5019345      1024000 
  314000    1.0017669    -4.571395    -4.571395   -3.0687477   0.05947351    -4.571395    1.5026473      1024000 
  315000    1.0018948   -4.5709634   -4.5709634   -3.0681242  0.062809907   -4.5709634    1.5028392      1024000 
  316000    1.0006704   -4.5691373   -4.5691373   -3.0681346  0.067557739   -4.5691373    1.5010026      1024000 
  317000    1.0024472   -4.5704583   -4.5704583   -3.0667904  0.069787545   -4.5704583    1.5036679      1024000 
  318000    1.0014192   -4.5695429   -4.5695429    -3.067417  0.071359756   -4.5695429    1.5021259      1024000 
  319000    1.0017717   -4.5705793   -4.5705793   -3.0679247    0.0676116   -4.5705793    1.5026546      1024000 
  320000    1.0028753   -4.5720474   -4.5720474   -3.0677374  0.065965107   -4.5720474      1.50431      1024000 
  321000    1.0005053    -4.569059    -4.569059    -3.068304  0.071219196    -4.569059     1.500755      1024000 
  322000    1.0027087   -4.5736036   -4.5736036   -3.0695436  0.060674558   -4.5736036    1.5040601      1024000 
  323000    1.0013973   -4.5692203   -4.5692203   -3.0671273  0.082043049   -4.5692203     1.502093      1024000 
  324000    1.0020344   -4.5718529   -4.5718529   -3.0688043  0.071431793   -4.5718529    1.5030486      1024000 
  325000    1.0030978   -4.5729483   -4.5729483   -3.0683047  0.069613399   -4.5729483    1.5046436      1024000 
  326000    1.0026015   -4.5734827   -4.5734827   -3.0695835  0.070374255   -4.5734827    1.5038992      1024000 
  327000    1.0030495   -4.5739311   -4.5739311   -3.0693598  0.071025571   -4.5739311    1.5045713      1024000 
  328000    1.0034631   -4.5744389   -4.5744389   -3.0692473  0.071064968   -4.5744389    1.5051916      1024000 
  329000    1.0021741   -4.5720448   -4.5720448   -3.0687867  0.076981916   -4.5720448    1.5032581      1024000 
  330000    1.0032473   -4.5743894   -4.5743894   -3.0695215  0.069727238   -4.5743894    1.5048679      1024000 
  331000    1.0030773   -4.5740031   -4.5740031   -3.0693902  0.069902196   -4.5740031    1.5046129      1024000 
  332000    1.0036599    -4.573522    -4.573522   -3.0680353  0.076256672    -4.573522    1.5054868      1024000 
  333000    1.0026856    -4.573445    -4.573445   -3.0694196  0.072111896    -4.573445    1.5040253      1024000 
  334000     1.002603   -4.5738281   -4.5738281   -3.0699266  0.070633891   -4.5738281    1.5039015      1024000 
  335000     1.002093   -4.5740576   -4.5740576   -3.0709211  0.065200181   -4.5740576    1.5031365      1024000 
  336000    1.0023795    -4.573028    -4.573028   -3.0694617  0.069048177    -4.573028    1.5035663      1024000 
  337000    1.0046167   -4.5762064   -4.5762064   -3.0692843  0.060260827   -4.5762064    1.5069221      1024000 
  338000    1.0019619   -4.5723615   -4.5723615   -3.0694217  0.070124772   -4.5723615    1.5029398      1024000 
  339000    1.0025763   -4.5742192   -4.5742192   -3.0703577  0.070895704   -4.5742192    1.5038615      1024000 
  340000    1.0035591   -4.5742252   -4.5742252   -3.0688896  0.068829489   -4.5742252    1.5053356      1024000 
  341000    1.0040623   -4.5763109   -4.5763109   -3.0702205  0.066390786   -4.5763109    1.5060904      1024000 
  342000    1.0033379   -4.5753397   -4.5753397   -3.0703359  0.066905946   -4.5753397    1.5050038      1024000 
  343000    1.0016571   -4.5724146   -4.5724146    -3.069932  0.070561728   -4.5724146    1.5024826      1024000 
  344000    1.0006427   -4.5724613   -4.5724613   -3.0715003  0.065171677   -4.5724613     1.500961      1024000 
  345000     1.000558   -4.5705595   -4.5705595   -3.0697255  0.074038994   -4.5705595     1.500834      1024000 
  346000    1.0024123   -4.5745096   -4.5745096   -3.0708942  0.063009605   -4.5745096    1.5036154      1024000 
  347000    1.0012337   -4.5718311   -4.5718311   -3.0699835  0.065847808   -4.5718311    1.5018476      1024000 
  348000   0.99936207   -4.5710387   -4.5710387   -3.0719986   0.06499438   -4.5710387    1.4990401      1024000 
  349000    1.0011993   -4.5740778   -4.5740778   -3.0722818  0.058884887   -4.5740778     1.501796      1024000 
  350000   0.99994715   -4.5718389   -4.5718389   -3.0719211  0.068820414   -4.5718389    1.4999177      1024000 
  351000    1.0004305   -4.5725652   -4.5725652   -3.0719224  0.065895877   -4.5725652    1.5006428      1024000 
  352000    1.0006824   -4.5726942   -4.5726942   -3.0716735  0.063600425   -4.5726942    1.5010206      1024000 
  353000    1.0006102   -4.5725634   -4.5725634   -3.0716512  0.071189023   -4.5725634    1.5009123      1024000 
  354000    1.0015676   -4.5730428   -4.5730428   -3.0706944  0.062224686   -4.5730428    1.5023484      1024000 
  355000    1.0001882   -4.5718275   -4.5718275   -3.0715481   0.07295868   -4.5718275    1.5002794      1024000 
  356000    1.0015124   -4.5737093   -4.5737093   -3.0714438  0.071746817   -4.5737093    1.5022655      1024000 
  357000    1.0009918   -4.5738839   -4.5738839   -3.0723992  0.066975139   -4.5738839    1.5014847      1024000 
  358000    1.0001611   -4.5747081   -4.5747081   -3.0744694  0.066337992   -4.5747081    1.5002387      1024000 
  359000    1.0017953   -4.5752093   -4.5752093   -3.0725193  0.068075083   -4.5752093      1.50269      1024000 
  360000   0.99981846   -4.5728767   -4.5728767    -3.073152  0.069596347   -4.5728767    1.4997247      1024000 
  361000    1.0022501   -4.5748903   -4.5748903   -3.0715181  0.073222604   -4.5748903    1.5033722      1024000 
  362000    1.0012601   -4.5749176   -4.5749176   -3.0730304   0.07576116   -4.5749176    1.5018872      1024000 
  363000    1.0031033   -4.5768591   -4.5768591   -3.0722071  0.069668495   -4.5768591    1.5046519      1024000 
  364000    1.0023482   -4.5754578   -4.5754578   -3.0719385  0.069385337   -4.5754578    1.5035192      1024000 
  365000    1.0011482    -4.574736    -4.574736   -3.0730167  0.070374089    -4.574736    1.5017194      1024000 
  366000    1.0024187   -4.5764492   -4.5764492   -3.0728241  0.068585999   -4.5764492    1.5036251      1024000 
  367000    1.0017296   -4.5752405   -4.5752405   -3.0726491   0.07285398   -4.5752405    1.5025913      1024000 
  368000     1.002488   -4.5776116   -4.5776116   -3.0738826  0.064172264   -4.5776116     1.503729      1024000 
  369000     1.001713   -4.5776283   -4.5776283   -3.0750618  0.066024499   -4.5776283    1.5025665      1024000 
  370000    1.0018214   -4.5769486   -4.5769486   -3.0742196  0.069250038   -4.5769486     1.502729      1024000 
  371000    1.0014563   -4.5768646   -4.5768646   -3.0746831   0.07404703   -4.5768646    1.5021815      1024000 
  372000    1.0014892   -4.5764046   -4.5764046   -3.0741737  0.071824219   -4.5764046    1.5022309      1024000 
  373000     1.001796   -4.5782899   -4.5782899   -3.0755989  0.068103235   -4.5782899    1.5026909      1024000 
  374000    1.0003107   -4.5780433   -4.5780433   -3.0775803  0.071277844   -4.5780433    1.5004631      1024000 
  375000    1.0014593   -4.5778029   -4.5778029   -3.0756169  0.068780586   -4.5778029    1.5021859      1024000 
  376000   0.99984373   -4.5748788   -4.5748788   -3.0751162  0.069414819   -4.5748788    1.4997626      1024000 
  377000    1.0001639   -4.5767992   -4.5767992   -3.0765563  0.068808775   -4.5767992    1.5002429      1024000 
  378000    1.0011509    -4.577007    -4.577007   -3.0752836  0.069669476    -4.577007    1.5017234      1024000 
  379000    1.0018417   -4.5774954   -4.5774954   -3.0747359  0.068689531   -4.5774954    1.5027595      1024000 
  380000    1.0021159   -4.5780449   -4.5780449    -3.074874  0.066468694   -4.5780449    1.5031709      1024000 
  381000    1.0014685   -4.5764266   -4.5764266   -3.0742268  0.071465342   -4.5764266    1.5021998      1024000 
  382000    1.0034064   -4.5776061   -4.5776061   -3.0724996  0.070741152   -4.5776061    1.5051065      1024000 
  383000    1.0015615   -4.5763237   -4.5763237   -3.0739844  0.072776934   -4.5763237    1.5023392      1024000 
  384000    1.0011324   -4.5769771   -4.5769771   -3.0752815  0.072372435   -4.5769771    1.5016956      1024000 
  385000    1.0008181   -4.5755705   -4.5755705   -3.0743464  0.072713128   -4.5755705    1.5012241      1024000 
  386000    1.0020339   -4.5771228   -4.5771228   -3.0740749  0.069459265   -4.5771228    1.5030479      1024000 
  387000    1.0007672   -4.5763144   -4.5763144   -3.0751666  0.066430187   -4.5763144    1.5011478      1024000 
  388000    1.0009485   -4.5758474   -4.5758474   -3.0744275  0.072675586   -4.5758474    1.5014198      1024000 
  389000    1.0010027   -4.5741977   -4.5741977   -3.0726966  0.071657443   -4.5741977     1.501501      1024000 
  390000    1.0001775   -4.5736369   -4.5736369   -3.0733736  0.067702623   -4.5736369    1.5002632      1024000 
  391000   0.99998707    -4.575302    -4.575302   -3.0753244  0.066672211    -4.575302    1.4999776      1024000 
  392000    1.0003685   -4.5750759   -4.5750759   -3.0745261  0.063804998   -4.5750759    1.5005498      1024000 
  393000    1.0002401   -4.5755769   -4.5755769   -3.0752198  0.067159695   -4.5755769    1.5003572      1024000 
  394000   0.99973122   -4.5759442   -4.5759442   -3.0763504  0.067830101   -4.5759442    1.4995938      1024000 
  395000   0.99949511   -4.5758489   -4.5758489   -3.0766092   0.06472871   -4.5758489    1.4992397      1024000 
  396000    1.0013001   -4.5760334   -4.5760334   -3.0740863  0.069689237   -4.5760334    1.5019472      1024000 
  397000   0.99994305   -4.5754253   -4.5754253   -3.0755137  0.067223434   -4.5754253    1.4999116      1024000 
  398000    0.9996216   -4.5732819   -4.5732819   -3.0738525  0.065061486   -4.5732819    1.4994294      1024000 
  399000   0.99960415   -4.5745797   -4.5745797   -3.0751765  0.062349556   -4.5745797    1.4994032      1024000 
  400000   0.99827354   -4.5721559   -4.5721559   -3.0747486  0.073030182   -4.5721559    1.4974073      1024000 
  401000   0.99933814    -4.573258    -4.573258   -3.0742538  0.067126316    -4.573258    1.4990042      1024000 
  402000   0.99873402   -4.5738595   -4.5738595   -3.0757615  0.064155737   -4.5738595     1.498098      1024000 
  403000   0.99988563   -4.5750746   -4.5750746   -3.0752491  0.065551176   -4.5750746    1.4998254      1024000 
  404000   0.99928064   -4.5750129   -4.5750129   -3.0760949  0.070237147   -4.5750129     1.498918      1024000 
  405000   0.99926378   -4.5748296   -4.5748296    -3.075937  0.070149245   -4.5748296    1.4988927      1024000 
  406000    1.0002384   -4.5752715   -4.5752715   -3.0749169  0.069449631   -4.5752715    1.5003546      1024000 
  407000    1.0015818   -4.5758059   -4.5758059   -3.0734363  0.067639851   -4.5758059    1.5023696      1024000 
  408000    1.0000493   -4.5739229   -4.5739229   -3.0738519  0.071828206   -4.5739229     1.500071      1024000 
  409000    1.0012242   -4.5739556   -4.5739556   -3.0721223  0.068749009   -4.5739556    1.5018333      1024000 
  410000    1.0022118   -4.5754341   -4.5754341   -3.0721194  0.069552362   -4.5754341    1.5033147      1024000 
  411000    1.0015513   -4.5757657   -4.5757657   -3.0734418  0.070558464   -4.5757657    1.5023239      1024000 
  412000    1.0006385    -4.575582    -4.575582   -3.0746273  0.070850049    -4.575582    1.5009547      1024000 
  413000    1.0020347   -4.5768424   -4.5768424   -3.0737934  0.072145467   -4.5768424     1.503049      1024000 
  414000    1.0012471   -4.5759107   -4.5759107    -3.074043  0.074755404   -4.5759107    1.5018677      1024000 
  415000     1.001621   -4.5785657   -4.5785657   -3.0761372  0.067378918   -4.5785657    1.5024285      1024000 
  416000    1.0002249   -4.5772425   -4.5772425   -3.0769081  0.069371089   -4.5772425    1.5003344      1024000 
  417000   0.99971428    -4.575978    -4.575978   -3.0764096  0.072521626    -4.575978    1.4995684      1024000 
  418000    1.0015564   -4.5783575   -4.5783575   -3.0760259  0.065630232   -4.5783575    1.5023316      1024000 
  419000    1.0010544   -4.5760815   -4.5760815   -3.0745029  0.070750458   -4.5760815    1.5015786      1024000 
  420000    1.0011878   -4.5781158   -4.5781158   -3.0763371  0.063994787   -4.5781158    1.5017787      1024000 
  421000    1.0017122    -4.578545    -4.578545   -3.0759797  0.063537931    -4.578545    1.5025653      1024000 
  422000    1.0007951   -4.5768168   -4.5768168   -3.0756272  0.069432865   -4.5768168    1.5011896      1024000 
  423000      1.00129   -4.5780146   -4.5780146   -3.0760825  0.064372076   -4.5780146    1.5019321      1024000 
  424000     1.000927   -4.5762484   -4.5762484    -3.074861  0.067252621   -4.5762484    1.5013874      1024000 
  425000    1.0024117   -4.5780008   -4.5780008   -3.0743862  0.065795323   -4.5780008    1.5036146      1024000 
  426000   0.99976477    -4.576208    -4.576208   -3.0765638    0.0715282    -4.576208    1.4996442      1024000 
  427000   0.99956622   -4.5762461   -4.5762461   -3.0768998  0.066949134   -4.5762461    1.4993463      1024000 
  428000    1.0020449   -4.5772724   -4.5772724   -3.0742081  0.063258686   -4.5772724    1.5030643      1024000 
  429000    1.0003054   -4.5756126   -4.5756126   -3.0751575  0.069426728   -4.5756126    1.5004552      1024000 
  430000    1.0021263   -4.5773469   -4.5773469   -3.0741605  0.069688897   -4.5773469    1.5031864      1024000 
  431000    1.0002956   -4.5758449   -4.5758449   -3.0754045  0.069488295   -4.5758449    1.5004404      1024000 
  432000   0.99927607   -4.5754363   -4.5754363   -3.0765252  0.072383391   -4.5754363    1.4989111      1024000 
  433000    1.0004046   -4.5780556   -4.5780556   -3.0774518  0.065462413   -4.5780556    1.5006039      1024000 
  434000    1.0006079   -4.5773354   -4.5773354   -3.0764265  0.065470911   -4.5773354    1.5009089      1024000 
  435000   0.99982909   -4.5757885   -4.5757885   -3.0760478  0.071302075   -4.5757885    1.4997406      1024000 
  436000   0.99980826   -4.5767016   -4.5767016   -3.0769922  0.067534502   -4.5767016    1.4997094      1024000 
  437000    0.9985682   -4.5742434   -4.5742434   -3.0763941  0.074008565   -4.5742434    1.4978493      1024000 
  438000   0.99995166   -4.5758607   -4.5758607   -3.0759362  0.065600399   -4.5758607    1.4999245      1024000 
  439000    1.0006768   -4.5757977   -4.5757977   -3.0747855  0.064826477   -4.5757977    1.5010122      1024000 
  440000   0.99998828   -4.5744333   -4.5744333   -3.0744539  0.065447075   -4.5744333    1.4999794      1024000 
  441000   0.99877011   -4.5746965   -4.5746965   -3.0765443  0.067203235   -4.5746965    1.4981522      1024000 
  442000     1.000926   -4.5754314   -4.5754314   -3.0740455  0.067455102   -4.5754314    1.5013859      1024000 
  443000   0.99940847   -4.5754055   -4.5754055   -3.0762958  0.069488946   -4.5754055    1.4991097      1024000 
  444000    0.9999213    -4.577746    -4.577746   -3.0778671  0.068333005    -4.577746     1.499879      1024000 
  445000    1.0013581   -4.5770255   -4.5770255   -3.0749914  0.066599261   -4.5770255    1.5020341      1024000 
  446000    1.0011135   -4.5770454   -4.5770454   -3.0753782   0.06980524   -4.5770454    1.5016672      1024000 
  447000    1.0009134   -4.5766665   -4.5766665   -3.0752993  0.070569934   -4.5766665    1.5013671      1024000 
  448000    1.0014683   -4.5777054   -4.5777054   -3.0755059   0.06456652   -4.5777054    1.5021995      1024000 
  449000    1.0000762   -4.5766193   -4.5766193   -3.0765081  0.064425471   -4.5766193    1.5001112      1024000 
  450000    1.0004799   -4.5754846   -4.5754846   -3.0747678   0.06926767   -4.5754846    1.5007168      1024000 
  451000     1.000638   -4.5773633   -4.5773633   -3.0764093  0.066138217   -4.5773633    1.5009539      1024000 
  452000   0.99981037   -4.5742144   -4.5742144   -3.0745019  0.073283665   -4.5742144    1.4997125      1024000 
  453000     1.000129   -4.5760129   -4.5760129   -3.0758224  0.068017362   -4.5760129    1.5001905      1024000 
  454000    1.0001232   -4.5749413   -4.5749413   -3.0747596  0.069170051   -4.5749413    1.5001818      1024000 
  455000    1.0014326   -4.5774939   -4.5774939    -3.075348  0.063789019   -4.5774939     1.502146      1024000 
  456000    1.0007649   -4.5758182   -4.5758182   -3.0746738   0.07305145   -4.5758182    1.5011443      1024000 
  457000    1.0021327   -4.5783673   -4.5783673   -3.0751712  0.067147004   -4.5783673    1.5031961      1024000 
  458000    1.0015619   -4.5776842   -4.5776842   -3.0753444  0.064932474   -4.5776842    1.5023398      1024000 
  459000    1.0012138   -4.5767422   -4.5767422   -3.0749245   0.06187691   -4.5767422    1.5018177      1024000 
  460000    1.0009712   -4.5757047   -4.5757047   -3.0742508  0.070040922   -4.5757047    1.5014538      1024000 
  461000   0.99965576   -4.5746464   -4.5746464   -3.0751657  0.073629451   -4.5746464    1.4994806      1024000 
  462000     1.000119   -4.5745965   -4.5745965   -3.0744209  0.076074252   -4.5745965    1.5001756      1024000 
  463000    1.0005234   -4.5760624   -4.5760624   -3.0752802  0.071277297   -4.5760624    1.5007822      1024000 
  464000    1.0011418   -4.5748415   -4.5748415   -3.0731318   0.07420969   -4.5748415    1.5017097      1024000 
  465000   0.99977837   -4.5757274   -4.5757274   -3.0760628   0.07338716   -4.5757274    1.4996645      1024000 
  466000    1.0013163   -4.5756249   -4.5756249   -3.0736535  0.074110313   -4.5756249    1.5019714      1024000 
  467000    1.0021634   -4.5776674   -4.5776674   -3.0744253  0.064181093   -4.5776674    1.5032421      1024000 
  468000    1.0001147   -4.5765248   -4.5765248   -3.0763557  0.064704199   -4.5765248     1.500169      1024000 
  469000     1.000079   -4.5748771   -4.5748771   -3.0747615  0.073114286   -4.5748771    1.5001155      1024000 
  470000    1.0000072   -4.5735296   -4.5735296   -3.0735218  0.072398835   -4.5735296    1.5000078      1024000 
  471000    0.9992916   -4.5745097   -4.5745097   -3.0755753  0.069166592   -4.5745097    1.4989344      1024000 
  472000   0.99904505   -4.5750049   -4.5750049   -3.0764403  0.065784257   -4.5750049    1.4985646      1024000 
  473000    1.0001217   -4.5760909   -4.5760909   -3.0759114  0.067424056   -4.5760909    1.5001795      1024000 
  474000   0.99799178    -4.574109    -4.574109   -3.0771243  0.064919166    -4.574109    1.4969847      1024000 
  475000   0.99968463   -4.5757572   -4.5757572   -3.0762333  0.067554413   -4.5757572    1.4995239      1024000 
  476000   0.99885078   -4.5740258   -4.5740258   -3.0757526  0.064730441   -4.5740258    1.4982732      1024000 
  477000   0.99810577   -4.5734766   -4.5734766    -3.076321  0.067649998   -4.5734766    1.4971557      1024000 
  478000   0.99955363   -4.5758264   -4.5758264    -3.076499  0.066412271   -4.5758264    1.4993274      1024000 
  479000    1.0003558   -4.5759149   -4.5759149   -3.0753842  0.067480703   -4.5759149    1.5005307      1024000 
  480000   0.99943414   -4.5764072   -4.5764072    -3.077259  0.067120394   -4.5764072    1.4991482      1024000 
  481000   0.99885893   -4.5749799   -4.5749799   -3.0766946  0.069765382   -4.5749799    1.4982854      1024000 
  482000    0.9994067   -4.5757398   -4.5757398   -3.0766327  0.064887297   -4.5757398     1.499107      1024000 
  483000   0.99948354   -4.5759834   -4.5759834   -3.0767611  0.064732748   -4.5759834    1.4992223      1024000 
  484000   0.99997699   -4.5768882   -4.5768882   -3.0769257  0.068715748   -4.5768882    1.4999625      1024000 
  485000   0.99915976   -4.5762583   -4.5762583   -3.0775217  0.072944872   -4.5762583    1.4987366      1024000 
  486000   0.99938739   -4.5767185   -4.5767185   -3.0776404  0.070182635   -4.5767185    1.4990781      1024000 
  487000   0.99926686   -4.5758136   -4.5758136   -3.0769163  0.071417508   -4.5758136    1.4988973      1024000 
  488000     1.000119   -4.5767452   -4.5767452   -3.0765698  0.068747019   -4.5767452    1.5001754      1024000 
  489000    1.0000085   -4.5768262   -4.5768262   -3.0768165  0.070729851   -4.5768262    1.5000098      1024000 
  490000     1.000548   -4.5774024   -4.5774024   -3.0765834  0.069893987   -4.5774024     1.500819      1024000 
  491000    1.0008434   -4.5766557   -4.5766557   -3.0753937  0.074056885   -4.5766557    1.5012621      1024000 
  492000    1.0014486   -4.5778804   -4.5778804   -3.0757105  0.070152399   -4.5778804    1.5021698      1024000 
  493000     1.001486    -4.578436    -4.578436     -3.07621  0.067627726    -4.578436     1.502226      1024000 
  494000    1.0009532   -4.5781091   -4.5781091   -3.0766823  0.067790768   -4.5781091    1.5014267      1024000 
  495000    1.0005287   -4.5776283   -4.5776283   -3.0768383  0.069727703   -4.5776283      1.50079      1024000 
  496000    1.0012029   -4.5787321   -4.5787321   -3.0769307  0.069073213   -4.5787321    1.5018014      1024000 
  497000    1.0003971   -4.5782973   -4.5782973   -3.0777046  0.066556905   -4.5782973    1.5005927      1024000 
  498000   0.99824513   -4.5753208   -4.5753208   -3.0779562  0.070263046   -4.5753208    1.4973647      1024000 
  499000   0.99955032   -4.5783807   -4.5783807   -3.0790582  0.072096597   -4.5783807    1.4993225      1024000 
  500000    1.0006617    -4.579038    -4.579038   -3.0780485  0.065452121    -4.579038    1.5009895      1024000 
  501000   0.99938862   -4.5766863   -4.5766863   -3.0776064  0.069738763   -4.5766863    1.4990799      1024000 
  502000   0.99931574   -4.5763572   -4.5763572   -3.0773866  0.071325661   -4.5763572    1.4989706      1024000 
  503000   0.99935957   -4.5767858   -4.5767858   -3.0777494   0.06887798   -4.5767858    1.4990364      1024000 
  504000   0.99999515   -4.5774856   -4.5774856   -3.0774959  0.066285123   -4.5774856    1.4999897      1024000 
  505000    1.0000139   -4.5765157   -4.5765157   -3.0764978  0.068070159   -4.5765157    1.5000179      1024000 
  506000   0.99748254   -4.5742608   -4.5742608     -3.07804  0.071595857   -4.5742608    1.4962208      1024000 
  507000    1.0009307   -4.5785294   -4.5785294   -3.0771363  0.065274587   -4.5785294    1.5013931      1024000 
  508000    1.0000032   -4.5785388   -4.5785388   -3.0785371  0.067630598   -4.5785388    1.5000017      1024000 
  509000   0.99937239   -4.5758602   -4.5758602   -3.0768046  0.068047374   -4.5758602    1.4990556      1024000 
  510000   0.99773551   -4.5756184   -4.5756184   -3.0790182  0.066860233   -4.5756184    1.4966003      1024000 
  511000   0.99734718   -4.5753446   -4.5753446   -3.0793269  0.066919122   -4.5753446    1.4960178      1024000 
  512000   0.99848498   -4.5746394   -4.5746394    -3.076915  0.066884629   -4.5746394    1.4977245      1024000 
  513000   0.99774035   -4.5758411   -4.5758411   -3.0792336  0.068717296   -4.5758411    1.4966075      1024000 
  514000    1.0000937   -4.5782554   -4.5782554   -3.0781178  0.065987131   -4.5782554    1.5001375      1024000 
  515000   0.99919317   -4.5770726   -4.5770726   -3.0782858  0.069846482   -4.5770726    1.4987868      1024000 
  516000    1.0007045   -4.5777364   -4.5777364   -3.0766827   0.06778225   -4.5777364    1.5010537      1024000 
  517000   0.99994742   -4.5776986   -4.5776986   -3.0777805  0.066287924   -4.5776986    1.4999181      1024000 
  518000    1.0004077   -4.5772988   -4.5772988   -3.0766903  0.070744488   -4.5772988    1.5006085      1024000 
  519000   0.99932085   -4.5773273   -4.5773273    -3.078349  0.072920268   -4.5773273    1.4989783      1024000 
  520000   0.99798764    -4.576271    -4.576271   -3.0792925  0.073475238    -4.576271    1.4969785      1024000 
  521000   0.99909236   -4.5777741   -4.5777741   -3.0791386  0.068065474   -4.5777741    1.4986355      1024000 
  522000   0.99979138    -4.577734    -4.577734     -3.07805   0.07147374    -4.577734    1.4996841      1024000 
  523000   0.99865823   -4.5769711   -4.5769711   -3.0789867  0.069826978   -4.5769711    1.4979843      1024000 
  524000   0.99912177   -4.5773645   -4.5773645   -3.0786848  0.069528822   -4.5773645    1.4986797      1024000 
  525000     0.998904   -4.5781793   -4.5781793   -3.0798263  0.065043734   -4.5781793     1.498353      1024000 
  526000   0.99817082   -4.5771297   -4.5771297   -3.0798764  0.069262205   -4.5771297    1.4972532      1024000 
  527000   0.99811525   -4.5777752   -4.5777752   -3.0806054  0.071955223   -4.5777752    1.4971699      1024000 
  528000    1.0007773    -4.580543    -4.580543     -3.07938  0.064547011    -4.580543     1.501163      1024000 
  529000     1.000654   -4.5797776   -4.5797776   -3.0787996  0.072835492   -4.5797776    1.5009779      1024000 
  530000    0.9991414    -4.578999    -4.578999   -3.0802899   0.07265047    -4.578999    1.4987091      1024000 
  531000   0.99964567   -4.5800322   -4.5800322   -3.0805667  0.074952797   -4.5800322    1.4994655      1024000 
  532000   0.99877419   -4.5779147   -4.5779147   -3.0797564  0.075582834   -4.5779147    1.4981583      1024000 
  533000   0.99922359   -4.5785812   -4.5785812   -3.0797488   0.07697355   -4.5785812    1.4988324      1024000 
  534000   0.99869136   -4.5771787   -4.5771787   -3.0791446  0.076654142   -4.5771787     1.498034      1024000 
  535000   0.99814298   -4.5763148   -4.5763148   -3.0791034  0.076669104   -4.5763148    1.4972115      1024000 
  536000   0.99892305   -4.5781064   -4.5781064   -3.0797249  0.064933473   -4.5781064    1.4983816      1024000 
  537000    1.0008999   -4.5786443   -4.5786443   -3.0772975  0.070731526   -4.5786443    1.5013468      1024000 
  538000     1.000391   -4.5795899   -4.5795899   -3.0790063  0.064064739   -4.5795899    1.5005835      1024000 
  539000   0.99749901   -4.5745152   -4.5745152   -3.0782697  0.074405263   -4.5745152    1.4962455      1024000 
  540000   0.99860056   -4.5773414   -4.5773414   -3.0794436  0.073720438   -4.5773414    1.4978978      1024000 
  541000    1.0009699   -4.5783369   -4.5783369    -3.076885   0.06850067   -4.5783369    1.5014519      1024000 
  542000    1.0000633    -4.578331    -4.578331    -3.078239  0.069908818    -4.578331     1.500092      1024000 
  543000    0.9990927    -4.578984    -4.578984    -3.080348  0.067259276    -4.578984    1.4986361      1024000 
  544000   0.99943089   -4.5777847   -4.5777847   -3.0786414  0.071810724   -4.5777847    1.4991433      1024000 
  545000   0.99968791   -4.5762947   -4.5762947   -3.0767659  0.076709564   -4.5762947    1.4995289      1024000 
  546000   0.99939075   -4.5751496   -4.5751496   -3.0760665  0.076486533   -4.5751496    1.4990831      1024000 
  547000    0.9994041    -4.575198    -4.575198   -3.0760948  0.074219139    -4.575198    1.4991031      1024000 
  548000    1.0011936   -4.5781275   -4.5781275   -3.0763401  0.066621893   -4.5781275    1.5017873      1024000 
  549000   0.99973595   -4.5760504   -4.5760504   -3.0764495   0.07151087   -4.5760504    1.4996009      1024000 
  550000   0.99970102   -4.5758737   -4.5758737   -3.0763252  0.073719575   -4.5758737    1.4995485      1024000 
  551000   0.99987424   -4.5783109   -4.5783109   -3.0785025  0.064489337   -4.5783109    1.4998084      1024000 
  552000   0.99862763   -4.5763542   -4.5763542   -3.0784158  0.070114352   -4.5763542    1.4979384      1024000 
  553000   0.99921457   -4.5764254   -4.5764254   -3.0776065  0.067013569   -4.5764254    1.4988188      1024000 
  554000   0.99871181    -4.576727    -4.576727   -3.0786623  0.065204658    -4.576727    1.4980647      1024000 
  555000   0.99964336   -4.5797876   -4.5797876   -3.0803255   0.06269554   -4.5797876     1.499462      1024000 
  556000   0.99906631   -4.5765676   -4.5765676   -3.0779711  0.068325347   -4.5765676    1.4985965      1024000 
  557000   0.99866517   -4.5760983   -4.5760983   -3.0781036  0.068880301   -4.5760983    1.4979947      1024000 
  558000   0.99919961   -4.5782707   -4.5782707   -3.0794743  0.059178943   -4.5782707    1.4987964      1024000 
  559000   0.99799032   -4.5787981   -4.5787981   -3.0818156  0.060147633   -4.5787981    1.4969825      1024000 
  560000   0.99668318   -4.5752801   -4.5752801   -3.0802584  0.061899826   -4.5752801    1.4950218      1024000 
  561000   0.99702053   -4.5764808   -4.5764808    -3.080953  0.065339359   -4.5764808    1.4955278      1024000 
  562000   0.99794579   -4.5767523   -4.5767523   -3.0798366  0.066923172   -4.5767523    1.4969157      1024000 
  563000   0.99914719   -4.5776571   -4.5776571   -3.0789393  0.069928737   -4.5776571    1.4987178      1024000 
  564000   0.99821785   -4.5787752   -4.5787752   -3.0814515  0.065600752   -4.5787752    1.4973238      1024000 
  565000   0.99869555   -4.5799507   -4.5799507   -3.0819103  0.066684669   -4.5799507    1.4980403      1024000 
  566000   0.99960347   -4.5794864   -4.5794864   -3.0800842  0.066490575   -4.5794864    1.4994022      1024000 
  567000   0.99899763   -4.5784793   -4.5784793   -3.0799859  0.071503498   -4.5784793    1.4984934      1024000 
  568000   0.99954224   -4.5802006   -4.5802006   -3.0808902   0.07026702   -4.5802006    1.4993104      1024000 
  569000    1.0001167   -4.5811518   -4.5811518   -3.0809798  0.071855423   -4.5811518     1.500172      1024000 
  570000   0.99994812   -4.5806636   -4.5806636   -3.0807444  0.071889553   -4.5806636    1.4999192      1024000 
  571000    1.0015058   -4.5821274   -4.5821274   -3.0798717  0.067387349   -4.5821274    1.5022557      1024000 
  572000   0.99873321   -4.5809621   -4.5809621   -3.0828653  0.072038259   -4.5809621    1.4980968      1024000 
  573000    1.0018457   -4.5829135   -4.5829135   -3.0801479  0.071973898   -4.5829135    1.5027656      1024000 
  574000   0.99928426   -4.5804533   -4.5804533   -3.0815299  0.074850044   -4.5804533    1.4989234      1024000 
  575000   0.99877576   -4.5816436   -4.5816436    -3.083483  0.070284596   -4.5816436    1.4981606      1024000 
  576000   0.99899287   -4.5797056   -4.5797056   -3.0812193  0.074984154   -4.5797056    1.4984863      1024000 
  577000    1.0008585   -4.5821793   -4.5821793   -3.0808946  0.072324862   -4.5821793    1.5012847      1024000 
  578000    1.0014428   -4.5823083   -4.5823083   -3.0801472  0.074133957   -4.5823083    1.5021611      1024000 
  579000   0.99989002   -4.5802798   -4.5802798   -3.0804477  0.077380401   -4.5802798     1.499832      1024000 
  580000    1.0003906   -4.5835714   -4.5835714   -3.0829885  0.070827859   -4.5835714    1.5005829      1024000 
  581000     1.000381   -4.5810761   -4.5810761   -3.0805076   0.07518296   -4.5810761    1.5005685      1024000 
  582000   0.99784878   -4.5824678   -4.5824678   -3.0856976    0.0699305   -4.5824678    1.4967702      1024000 
  583000   0.99910806   -4.5809183   -4.5809183   -3.0822593  0.080568987   -4.5809183    1.4986591      1024000 
  584000     1.000002   -4.5828517   -4.5828517   -3.0828517  0.068448345   -4.5828517    1.4999999      1024000 
  585000   0.99914909    -4.581254    -4.581254   -3.0825333  0.070231933    -4.581254    1.4987206      1024000 
  586000   0.99838437   -4.5807843   -4.5807843   -3.0832107  0.067017428   -4.5807843    1.4975735      1024000 
  587000   0.99726815   -4.5796223   -4.5796223    -3.083723  0.068684533   -4.5796223    1.4958992      1024000 
  588000   0.99928522   -4.5799185   -4.5799185   -3.0809937  0.068374352   -4.5799185    1.4989248      1024000 
  589000   0.99714246    -4.578365    -4.578365   -3.0826543  0.065437966    -4.578365    1.4957107      1024000 
  590000   0.99732206   -4.5774761   -4.5774761    -3.081496  0.071822821   -4.5774761    1.4959801      1024000 
  591000   0.99838252   -4.5778296   -4.5778296   -3.0802589  0.072322662   -4.5778296    1.4975708      1024000 
  592000   0.99766176   -4.5782523   -4.5782523   -3.0817627  0.065537734   -4.5782523    1.4964896      1024000 
  593000   0.99844975   -4.5786058   -4.5786058   -3.0809342  0.068232752   -4.5786058    1.4976716      1024000 
  594000   0.99891239   -4.5787267   -4.5787267   -3.0803612  0.065725485   -4.5787267    1.4983656      1024000 
  595000    0.9984986   -4.5793693   -4.5793693   -3.0816244  0.072243307   -4.5793693    1.4977449      1024000 
  596000    0.9998021   -4.5801265   -4.5801265   -3.0804264  0.066299377   -4.5801265    1.4997001      1024000 
  597000   0.99903863   -4.5795351   -4.5795351   -3.0809802  0.063758356   -4.5795351    1.4985549      1024000 
  598000   0.99948122   -4.5795614   -4.5795614   -3.0803426  0.067123673   -4.5795614    1.4992188      1024000 
  599000   0.99834784   -4.5771741   -4.5771741   -3.0796554  0.067625031   -4.5771741    1.4975188      1024000 
  600000   0.99921352   -4.5774398   -4.5774398   -3.0786225  0.068478787   -4.5774398    1.4988173      1024000 
  601000   0.99893521   -4.5782336   -4.5782336   -3.0798337  0.062278834   -4.5782336    1.4983998      1024000 
  602000   0.99849988   -4.5777084   -4.5777084   -3.0799615  0.070216463   -4.5777084    1.4977468      1024000 
  603000   0.99906068   -4.5784485   -4.5784485   -3.0798605  0.063259829   -4.5784485     1.498588      1024000 
  604000   0.99936546   -4.5785016   -4.5785016   -3.0794564  0.065436802   -4.5785016    1.4990452      1024000 
  605000    1.0008074   -4.5808188   -4.5808188   -3.0796107  0.065321875   -4.5808188    1.5012081      1024000 
  606000   0.99891281   -4.5765114   -4.5765114   -3.0781452  0.074035338   -4.5765114    1.4983662      1024000 
  607000   0.99959786   -4.5788684   -4.5788684   -3.0794746  0.073809734   -4.5788684    1.4993938      1024000 
  608000   0.99967607   -4.5784193   -4.5784193   -3.0789082  0.078555102   -4.5784193    1.4995111      1024000 
  609000    1.0007425   -4.5794199   -4.5794199   -3.0783092  0.073897637   -4.5794199    1.5011107      1024000 
  610000    1.0006055    -4.580502    -4.580502   -3.0795968  0.064384846    -4.580502    1.5009052      1024000 
  611000   0.99896779   -4.5788576   -4.5788576   -3.0804089  0.071651752   -4.5788576    1.4984487      1024000 
  612000   0.99886077   -4.5773268   -4.5773268   -3.0790386  0.077268642   -4.5773268    1.4982882      1024000 
  613000    1.0003513   -4.5789635   -4.5789635   -3.0784395  0.069773216   -4.5789635    1.5005239      1024000 
  614000    0.9984511   -4.5770908   -4.5770908   -3.0794171  0.073335242   -4.5770908    1.4976737      1024000 
  615000   0.99935811   -4.5781931   -4.5781931   -3.0791589  0.068766866   -4.5781931    1.4990342      1024000 
  616000   0.99832125   -4.5779975   -4.5779975   -3.0805186  0.071821653   -4.5779975    1.4974789      1024000 
  617000   0.99890664   -4.5786319   -4.5786319    -3.080275  0.067010892   -4.5786319     1.498357      1024000 
  618000    1.0004334   -4.5789793   -4.5789793   -3.0783322  0.070669803   -4.5789793     1.500647      1024000 
  619000    1.0006468   -4.5787652   -4.5787652    -3.077798  0.076926343   -4.5787652    1.5009673      1024000 
  620000   0.99792303   -4.5770499   -4.5770499   -3.0801683  0.078916554   -4.5770499    1.4968816      1024000 
  621000    1.0000045   -4.5791326   -4.5791326   -3.0791289  0.075257088   -4.5791326    1.5000037      1024000 
  622000    1.0001454   -4.5813085   -4.5813085   -3.0810934  0.064539558   -4.5813085    1.5002152      1024000 
  623000   0.99960334   -4.5779339   -4.5779339   -3.0785319  0.068360653   -4.5779339     1.499402      1024000 
  624000   0.99919254   -4.5776591   -4.5776591   -3.0788733  0.070626995   -4.5776591    1.4987858      1024000 
  625000   0.99868395   -4.5777003   -4.5777003   -3.0796774  0.070979829   -4.5777003    1.4980229      1024000 
  626000   0.99925642   -4.5778098   -4.5778098   -3.0789282  0.068637069   -4.5778098    1.4988816      1024000 
  627000   0.99901466   -4.5772736   -4.5772736   -3.0787546  0.066678795   -4.5772736     1.498519      1024000 
  628000    0.9990252   -4.5768609   -4.5768609   -3.0783261  0.073883084   -4.5768609    1.4985348      1024000 
  629000    1.0000665   -4.5784649   -4.5784649   -3.0783683   0.07286683   -4.5784649    1.5000967      1024000 
  630000   0.99998632   -4.5812901   -4.5812901   -3.0813136   0.06714858   -4.5812901    1.4999765      1024000 
  631000   0.99840514   -4.5774939   -4.5774939   -3.0798892  0.069570941   -4.5774939    1.4976047      1024000 
  632000   0.99915356   -4.5781036   -4.5781036   -3.0793763  0.069671127   -4.5781036    1.4987273      1024000 
  633000   0.99797977   -4.5772805   -4.5772805   -3.0803139  0.073311825   -4.5772805    1.4969667      1024000 
  634000   0.99888021   -4.5768157   -4.5768157   -3.0784984  0.070998212   -4.5768157    1.4983173      1024000 
  635000   0.99918752   -4.5779966   -4.5779966   -3.0792184  0.064986243   -4.5779966    1.4987783      1024000 
  636000   0.99826642   -4.5774329   -4.5774329   -3.0800363  0.068034138   -4.5774329    1.4973966      1024000 
  637000   0.99895867   -4.5775001   -4.5775001   -3.0790651  0.067800928   -4.5775001     1.498435      1024000 
  638000   0.99946207   -4.5784585   -4.5784585   -3.0792684  0.063731708   -4.5784585    1.4991901      1024000 
  639000   0.99873756   -4.5789807   -4.5789807   -3.0808774    0.0659212   -4.5789807    1.4981033      1024000 
  640000   0.99844985   -4.5781368   -4.5781368    -3.080465  0.066396432   -4.5781368    1.4976718      1024000 
  641000   0.99937336    -4.577657    -4.577657      -3.0786  0.070466602    -4.577657     1.499057      1024000 
  642000   0.99881754   -4.5779219   -4.5779219   -3.0796986  0.069895233   -4.5779219    1.4982233      1024000 
  643000   0.99927994   -4.5782006   -4.5782006   -3.0792837  0.070711134   -4.5782006    1.4989169      1024000 
  644000   0.99911532    -4.577022    -4.577022    -3.078352  0.067709849    -4.577022      1.49867      1024000 
  645000    1.0006429   -4.5791841   -4.5791841   -3.0782228   0.06614899   -4.5791841    1.5009613      1024000 
  646000   0.99928277    -4.577498    -4.577498   -3.0785769  0.072984994    -4.577498    1.4989211      1024000 
  647000   0.99911513   -4.5775641   -4.5775641   -3.0788944  0.066934631   -4.5775641    1.4986697      1024000 
  648000    1.0021001   -4.5807092   -4.5807092    -3.077562  0.068498288   -4.5807092    1.5031471      1024000 
  649000    1.0002576   -4.5786561   -4.5786561   -3.0782726  0.067464238   -4.5786561    1.5003834      1024000 
  650000    1.0001925   -4.5798606   -4.5798606   -3.0795748  0.070015627   -4.5798606    1.5002858      1024000 
  651000    1.0009387   -4.5794871   -4.5794871   -3.0780821  0.069400509   -4.5794871     1.501405      1024000 
  652000     0.998066   -4.5754121   -4.5754121   -3.0783161  0.074952949   -4.5754121     1.497096      1024000 
  653000   0.99974387   -4.5780138   -4.5780138    -3.078401  0.067353443   -4.5780138    1.4996128      1024000 
  654000   0.99955396   -4.5775767   -4.5775767   -3.0782487  0.067917957   -4.5775767    1.4993279      1024000 
  655000     1.000047   -4.5769482   -4.5769482   -3.0768806  0.075251304   -4.5769482    1.5000675      1024000 
  656000    0.9993354   -4.5772039   -4.5772039   -3.0782038  0.069397543   -4.5772039    1.4990001      1024000 
  657000    1.0000468   -4.5791119   -4.5791119   -3.0790447  0.065711202   -4.5791119    1.5000672      1024000 
  658000    1.0011844   -4.5787358   -4.5787358   -3.0769621  0.068734164   -4.5787358    1.5017737      1024000 
  659000    1.0011662   -4.5792926   -4.5792926   -3.0775464  0.069907278   -4.5792926    1.5017462      1024000 
  660000    1.0006629   -4.5785782   -4.5785782   -3.0775869  0.077701134   -4.5785782    1.5009913      1024000 
  661000   0.99982694   -4.5794534   -4.5794534    -3.079716  0.068252064   -4.5794534    1.4997374      1024000 
  662000    1.0001134   -4.5785927   -4.5785927   -3.0784256  0.070926966   -4.5785927    1.5001671      1024000 
  663000   0.99888621   -4.5776955   -4.5776955   -3.0793692   0.06763064   -4.5776955    1.4983263      1024000 
  664000    1.0001808   -4.5794246   -4.5794246   -3.0791564  0.060530347   -4.5794246    1.5002682      1024000 
  665000   0.99903896    -4.578605    -4.578605   -3.0800496   0.06479702    -4.578605    1.4985554      1024000 
  666000   0.99772831   -4.5765295   -4.5765295     -3.07994  0.064454839   -4.5765295    1.4965895      1024000 
  667000   0.99931783   -4.5775928   -4.5775928   -3.0786191  0.061618206   -4.5775928    1.4989737      1024000 
  668000    0.9979407    -4.578023    -4.578023    -3.081115   0.06208253    -4.578023     1.496908      1024000 
  669000   0.99694472   -4.5771992   -4.5771992   -3.0817851  0.066505006   -4.5771992    1.4954141      1024000 
  670000    0.9977964   -4.5777343   -4.5777343   -3.0810427  0.065567871   -4.5777343    1.4966916      1024000 
  671000   0.99812134   -4.5761456   -4.5761456   -3.0789666  0.071210027   -4.5761456     1.497179      1024000 
  672000     1.000491   -4.5801734   -4.5801734     -3.07944  0.064759949   -4.5801734    1.5007335      1024000 
  673000   0.99945593   -4.5797408   -4.5797408   -3.0805599  0.067236589   -4.5797408    1.4991809      1024000 
  674000   0.99897349   -4.5787934   -4.5787934   -3.0803362  0.073334024   -4.5787934    1.4984572      1024000 
  675000   0.99902882   -4.5774759   -4.5774759   -3.0789356  0.068244147   -4.5774759    1.4985402      1024000 
  676000   0.99944334   -4.5796614   -4.5796614   -3.0804994  0.067150068   -4.5796614     1.499162      1024000 
  677000   0.99883798   -4.5795872   -4.5795872   -3.0813332  0.064701612   -4.5795872     1.498254      1024000 
  678000    0.9987595   -4.5778441   -4.5778441   -3.0797079  0.071706667   -4.5778441    1.4981363      1024000 
  679000     0.999317   -4.5787408   -4.5787408   -3.0797684   0.07067671   -4.5787408    1.4989725      1024000 
  680000    1.0002831   -4.5804192   -4.5804192   -3.0799976  0.072989512   -4.5804192    1.5004216      1024000 
  681000   0.99974219   -4.5800812   -4.5800812   -3.0804709  0.064592934   -4.5800812    1.4996103      1024000 
  682000   0.99993297   -4.5810246   -4.5810246   -3.0811281  0.068674493   -4.5810246    1.4998964      1024000 
  683000   0.99941135   -4.5791747   -4.5791747   -3.0800607  0.073962606   -4.5791747     1.499114      1024000 
  684000   0.99906775   -4.5806434   -4.5806434   -3.0820448  0.067816429   -4.5806434    1.4985986      1024000 
  685000   0.99749249   -4.5766413   -4.5766413   -3.0804056  0.077891233   -4.5766413    1.4962357      1024000 
  686000   0.99981354   -4.5802636   -4.5802636   -3.0805463  0.069966793   -4.5802636    1.4997173      1024000 
  687000    1.0002796   -4.5815877   -4.5815877   -3.0811713  0.065574678   -4.5815877    1.5004164      1024000 
  688000      1.00036    -4.580998    -4.580998    -3.080461  0.071636247    -4.580998     1.500537      1024000 
  689000   0.99986787    -4.580116    -4.580116   -3.0803172   0.07662209    -4.580116    1.4997988      1024000 
  690000    1.0000084   -4.5801219   -4.5801219   -3.0801123  0.077650439   -4.5801219    1.5000096      1024000 
  691000    1.0014198   -4.5816822   -4.5816822   -3.0795555  0.067622472   -4.5816822    1.5021267      1024000 
  692000   0.99917455   -4.5792406   -4.5792406   -3.0804818  0.071805997   -4.5792406    1.4987588      1024000 
  693000     1.000648   -4.5798132   -4.5798132   -3.0788443  0.073521208   -4.5798132    1.5009689      1024000 
  694000   0.99908495    -4.579013    -4.579013   -3.0803886  0.071987227    -4.579013    1.4986244      1024000 
  695000    1.0002173    -4.581099    -4.581099    -3.080776  0.070347653    -4.581099     1.500323      1024000 
  696000   0.99860037   -4.5801839   -4.5801839   -3.0822864  0.073468281   -4.5801839    1.4978976      1024000 
  697000   0.99865865   -4.5786239   -4.5786239    -3.080639  0.071412911   -4.5786239     1.497985      1024000 
  698000   0.99778891   -4.5778168   -4.5778168   -3.0811365  0.070378243   -4.5778168    1.4966804      1024000 
  699000   0.99911962    -4.579329    -4.579329   -3.0806526   0.06778327    -4.579329    1.4986764      1024000 
  700000   0.99713225   -4.5781887   -4.5781887   -3.0824934  0.068247309   -4.5781887    1.4956954      1024000 
  701000   0.99787012   -4.5778301   -4.5778301   -3.0810279   0.06694609   -4.5778301    1.4968022      1024000 
  702000   0.99914014   -4.5806309   -4.5806309   -3.0819237   0.06505665   -4.5806309    1.4987072      1024000 
  703000   0.99854028   -4.5769103   -4.5769103   -3.0791029  0.069061287   -4.5769103    1.4978074      1024000 
  704000    0.9976955   -4.5778058   -4.5778058   -3.0812656  0.068971983   -4.5778058    1.4965403      1024000 
  705000   0.99834275   -4.5788034   -4.5788034   -3.0812922  0.066702669   -4.5788034    1.4975111      1024000 
  706000   0.99937798    -4.577817    -4.577817    -3.078753  0.069288982    -4.577817     1.499064      1024000 
  707000   0.99793534   -4.5767308   -4.5767308   -3.0798308  0.072985221   -4.5767308       1.4969      1024000 
  708000   0.99874165   -4.5783172   -4.5783172   -3.0802077  0.067908197   -4.5783172    1.4981095      1024000 
  709000   0.99995089   -4.5797868   -4.5797868   -3.0798635   0.06560991   -4.5797868    1.4999233      1024000 
  710000   0.99967423   -4.5789262   -4.5789262   -3.0794178  0.067661609   -4.5789262    1.4995083      1024000 
  711000   0.99856645   -4.5775044   -4.5775044   -3.0796578  0.075755083   -4.5775044    1.4978467      1024000 
  712000   0.99826001   -4.5773399   -4.5773399   -3.0799529   0.07034661   -4.5773399     1.497387      1024000 
  713000   0.99834755   -4.5806744   -4.5806744   -3.0831561  0.066842481   -4.5806744    1.4975183      1024000 
  714000   0.99760166   -4.5777946   -4.5777946   -3.0813951  0.072234571   -4.5777946    1.4963995      1024000 
  715000    0.9982986   -4.5789085   -4.5789085   -3.0814636  0.068367763   -4.5789085    1.4974449      1024000 
  716000   0.99789016   -4.5792921   -4.5792921   -3.0824599  0.069384593   -4.5792921    1.4968322      1024000 
  717000    1.0003226   -4.5808973   -4.5808973   -3.0804164  0.068611273   -4.5808973    1.5004809      1024000 
  718000   0.99963318   -4.5790066   -4.5790066   -3.0795598  0.071098251   -4.5790066    1.4994468      1024000 
  719000   0.99852176   -4.5784638   -4.5784638   -3.0806841  0.073354926   -4.5784638    1.4977796      1024000 
  720000    1.0012444    -4.580781    -4.580781   -3.0789174  0.069381041    -4.580781    1.5018637      1024000 
  721000    1.0000561   -4.5823252   -4.5823252    -3.082244  0.070671259   -4.5823252    1.5000812      1024000 
  722000    1.0002558   -4.5808438   -4.5808438   -3.0804632  0.070226652   -4.5808438    1.5003806      1024000 
  723000   0.99960015   -4.5810091   -4.5810091   -3.0816119  0.071964466   -4.5810091    1.4993972      1024000 
  724000   0.99953917   -4.5809635   -4.5809635   -3.0816578  0.070940111   -4.5809635    1.4993057      1024000 
  725000    1.0000167   -4.5800248   -4.5800248   -3.0800027  0.072790634   -4.5800248    1.5000221      1024000 
  726000   0.99924526   -4.5789919   -4.5789919    -3.080127  0.076630457   -4.5789919    1.4988649      1024000 
  727000   0.99866346   -4.5794023   -4.5794023   -3.0814101  0.071591213   -4.5794023    1.4979922      1024000 
  728000   0.99890321   -4.5802742   -4.5802742   -3.0819224  0.073064503   -4.5802742    1.4983518      1024000 
  729000   0.99904686   -4.5796106   -4.5796106   -3.0810433  0.074267805   -4.5796106    1.4985673      1024000 
  730000    0.9988907   -4.5796018   -4.5796018   -3.0812687    0.0704051   -4.5796018    1.4983331      1024000 
  731000   0.99752147   -4.5782739   -4.5782739   -3.0819947  0.072490833   -4.5782739    1.4962792      1024000 
  732000   0.99840839    -4.578839    -4.578839   -3.0812294  0.070764221    -4.578839    1.4976096      1024000 
  733000    0.9996182   -4.5795044   -4.5795044   -3.0800801   0.06804191   -4.5795044    1.4994243      1024000 
  734000   0.99896274   -4.5791143   -4.5791143   -3.0806732  0.067512501   -4.5791143    1.4984411      1024000 
  735000   0.99827932    -4.577799    -4.577799    -3.080383  0.069463231    -4.577799     1.497416      1024000 
  736000   0.99704575   -4.5771024   -4.5771024   -3.0815368  0.069390283   -4.5771024    1.4955656      1024000 
  737000   0.99861352    -4.578592    -4.578592   -3.0806748  0.069079583    -4.578592    1.4979173      1024000 
  738000   0.99814934   -4.5793604   -4.5793604   -3.0821394  0.061348481   -4.5793604     1.497221      1024000 
  739000   0.99854391     -4.57912     -4.57912   -3.0813071  0.067334954     -4.57912    1.4978129      1024000 
  740000    1.0000665   -4.5807153   -4.5807153   -3.0806185  0.065748891   -4.5807153    1.5000968      1024000 
  741000    0.9984978   -4.5799329   -4.5799329   -3.0821892  0.063153424   -4.5799329    1.4977437      1024000 
  742000   0.99949085   -4.5793939   -4.5793939   -3.0801606  0.069838981   -4.5793939    1.4992333      1024000 
  743000   0.99882457   -4.5797861   -4.5797861   -3.0815522  0.066637264   -4.5797861    1.4982339      1024000 
  744000   0.99891776   -4.5793428   -4.5793428   -3.0809692  0.073076915   -4.5793428    1.4983736      1024000 
  745000   0.99953323   -4.5806577   -4.5806577   -3.0813609  0.066048721   -4.5806577    1.4992968      1024000 
  746000   0.99916415   -4.5798791   -4.5798791   -3.0811359  0.073240703   -4.5798791    1.4987432      1024000 
  747000   0.99950141    -4.580537    -4.580537   -3.0812879  0.068492056    -4.580537    1.4992491      1024000 
  748000   0.99897178   -4.5798282   -4.5798282   -3.0813735  0.070864504   -4.5798282    1.4984547      1024000 
  749000   0.99809925   -4.5773103   -4.5773103   -3.0801644  0.071341908   -4.5773103    1.4971459      1024000 
  750000    0.9984689   -4.5776026   -4.5776026   -3.0799023  0.072091763   -4.5776026    1.4977003      1024000 
  751000   0.99836193   -4.5799421   -4.5799421   -3.0824022  0.068523114   -4.5799421    1.4975399      1024000 
  752000   0.99904824   -4.5795457   -4.5795457   -3.0809764  0.070505748   -4.5795457    1.4985694      1024000 
  753000   0.99853149   -4.5799362   -4.5799362   -3.0821419  0.066596589   -4.5799362    1.4977942      1024000 
  754000    1.0000489   -4.5798141   -4.5798141   -3.0797437  0.072215248   -4.5798141    1.5000704      1024000 
  755000    1.0001939   -4.5809747   -4.5809747   -3.0806869  0.069983965   -4.5809747    1.5002878      1024000 
  756000    1.0008518   -4.5823846   -4.5823846   -3.0811099  0.070895474   -4.5823846    1.5012747      1024000 
  757000    1.0009345    -4.581795    -4.581795   -3.0803962  0.070826259    -4.581795    1.5013988      1024000 
  758000    1.0001514   -4.5810823   -4.5810823   -3.0808582  0.072083382   -4.5810823     1.500224      1024000 
  759000   0.99970508   -4.5809564   -4.5809564   -3.0814018  0.073673359   -4.5809564    1.4995546      1024000 
  760000   0.99953204   -4.5792217   -4.5792217   -3.0799267  0.072712081   -4.5792217    1.4992951      1024000 
  761000    1.0004608   -4.5812507   -4.5812507   -3.0805626   0.06403409   -4.5812507    1.5006882      1024000 
  762000    0.9993733   -4.5803339   -4.5803339   -3.0812769  0.069495869   -4.5803339    1.4990569      1024000 
  763000   0.99849322   -4.5782896   -4.5782896   -3.0805528  0.071991778   -4.5782896    1.4977368      1024000 
  764000   0.99894054   -4.5790873   -4.5790873   -3.0806795  0.074109308   -4.5790873    1.4984078      1024000 
  765000    0.9997212    -4.578504    -4.578504   -3.0789252  0.073162623    -4.578504    1.4995788      1024000 
  766000   0.99893642   -4.5800804   -4.5800804   -3.0816788  0.069408904   -4.5800804    1.4984016      1024000 
  767000   0.99911843   -4.5796516   -4.5796516    -3.080977  0.073434389   -4.5796516    1.4986746      1024000 
  768000   0.99906022   -4.5795553   -4.5795553   -3.0809679  0.068103454   -4.5795553    1.4985873      1024000 
  769000    1.0007775   -4.5792148   -4.5792148   -3.0780516  0.072828167   -4.5792148    1.5011632      1024000 
  770000    1.0006401   -4.5792558   -4.5792558   -3.0782986  0.069587944   -4.5792558    1.5009572      1024000 
  771000   0.99893512   -4.5787338   -4.5787338   -3.0803341  0.069413069   -4.5787338    1.4983997      1024000 
  772000    0.9989182   -4.5793379   -4.5793379   -3.0809636  0.067003166   -4.5793379    1.4983743      1024000 
  773000   0.99799746   -4.5775002   -4.5775002    -3.080507   0.07112861   -4.5775002    1.4969932      1024000 
  774000   0.99875263   -4.5776033   -4.5776033   -3.0794773  0.071866012   -4.5776033    1.4981259      1024000 
  775000   0.99793755    -4.576964    -4.576964   -3.0800607  0.069218774    -4.576964    1.4969033      1024000 
  776000   0.99739909   -4.5787184   -4.5787184   -3.0826228  0.061677005   -4.5787184    1.4960956      1024000 
  777000   0.99790847   -4.5797222   -4.5797222   -3.0828625  0.061482373   -4.5797222    1.4968597      1024000 
  778000   0.99792178   -4.5788772   -4.5788772   -3.0819975  0.069694226   -4.5788772    1.4968797      1024000 
  779000   0.99768572   -4.5778274   -4.5778274   -3.0813018  0.068324746   -4.5778274    1.4965256      1024000 
  780000   0.99752292   -4.5758381   -4.5758381   -3.0795568  0.073182365   -4.5758381    1.4962814      1024000 
  781000   0.99912934   -4.5780692   -4.5780692   -3.0793782  0.063901852   -4.5780692     1.498691      1024000 
  782000   0.99795277   -4.5785107   -4.5785107   -3.0815846  0.066643375   -4.5785107    1.4969262      1024000 
  783000   0.99981664   -4.5796608   -4.5796608   -3.0799388  0.068772652   -4.5796608     1.499722      1024000 
  784000    1.0002375   -4.5802125   -4.5802125   -3.0798592  0.072415414   -4.5802125    1.5003533      1024000 
  785000    1.0000415   -4.5803949   -4.5803949   -3.0803356  0.071225954   -4.5803949    1.5000592      1024000 
  786000    1.0000781   -4.5799429   -4.5799429   -3.0798288  0.075343749   -4.5799429    1.5001141      1024000 
  787000    1.0004819   -4.5806131   -4.5806131   -3.0798932  0.073260337   -4.5806131    1.5007199      1024000 
  788000   0.99997967   -4.5804488   -4.5804488   -3.0804823  0.071546354   -4.5804488    1.4999665      1024000 
  789000   0.99916747   -4.5804565   -4.5804565   -3.0817083  0.068296958   -4.5804565    1.4987482      1024000 
  790000    0.9987491   -4.5793883   -4.5793883   -3.0812677  0.074005745   -4.5793883    1.4981206      1024000 
  791000    0.9991193   -4.5808163   -4.5808163   -3.0821404  0.069038634   -4.5808163    1.4986759      1024000 
  792000   0.99888283    -4.579368    -4.579368   -3.0810468  0.070119239    -4.579368    1.4983212      1024000 
  793000   0.99914035   -4.5784357   -4.5784357   -3.0797282  0.074286245   -4.5784357    1.4987075      1024000 
  794000   0.99947012   -4.5787236   -4.5787236   -3.0795214  0.072319843   -4.5787236    1.4992022      1024000 
  795000    0.9982366   -4.5773549   -4.5773549    -3.080003  0.076625963   -4.5773549    1.4973519      1024000 
  796000   0.99978619   -4.5816385   -4.5816385   -3.0819622   0.06766943   -4.5816385    1.4996763      1024000 
  797000    1.0003988   -4.5795778   -4.5795778   -3.0789827  0.077137291   -4.5795778    1.5005951      1024000 
  798000    0.9995179   -4.5802811   -4.5802811   -3.0810073  0.073376999   -4.5802811    1.4992738      1024000 
  799000    0.9994083    -4.580134    -4.580134   -3.0810246  0.075217849    -4.580134    1.4991094      1024000 
  800000    1.0008883   -4.5816336   -4.5816336   -3.0803043  0.073946226   -4.5816336    1.5013294      1024000 
  801000   0.99944704   -4.5801521   -4.5801521   -3.0809846  0.073326276   -4.5801521    1.4991676      1024000 
  802000   0.99893759   -4.5807868   -4.5807868   -3.0823834  0.064885551   -4.5807868    1.4984034      1024000 
  803000   0.99706902    -4.577097    -4.577097   -3.0814965  0.071937243    -4.577097    1.4956005      1024000 
  804000   0.99773891   -4.5775471   -4.5775471   -3.0809418  0.068241191   -4.5775471    1.4966054      1024000 
  805000   0.99641611   -4.5748389   -4.5748389   -3.0802177   0.07183658   -4.5748389    1.4946212      1024000 
  806000   0.99703716   -4.5790272   -4.5790272   -3.0834744  0.064222106   -4.5790272    1.4955527      1024000 
  807000   0.99766685   -4.5774071   -4.5774071   -3.0809098  0.065715669   -4.5774071    1.4964973      1024000 
  808000   0.99851219   -4.5777929   -4.5777929   -3.0800276  0.070241701   -4.5777929    1.4977653      1024000 
  809000   0.99801841   -4.5782965   -4.5782965   -3.0812719  0.068948333   -4.5782965    1.4970246      1024000 
  810000   0.99803877    -4.578086    -4.578086   -3.0810308  0.072929744    -4.578086    1.4970552      1024000 
  811000   0.99938292   -4.5817145   -4.5817145   -3.0826431  0.058140242   -4.5817145    1.4990714      1024000 
  812000   0.99802381   -4.5786636   -4.5786636   -3.0816309  0.072415255   -4.5786636    1.4970327      1024000 
  813000   0.99734906   -4.5778183   -4.5778183   -3.0817977  0.075055469   -4.5778183    1.4960206      1024000 
  814000   0.99668083    -4.577209    -4.577209   -3.0821908  0.072228181    -4.577209    1.4950182      1024000 
  815000   0.99842736   -4.5788013   -4.5788013   -3.0811632  0.069562061   -4.5788013     1.497638      1024000 
  816000   0.99836548   -4.5780888   -4.5780888   -3.0805436  0.065883957   -4.5780888    1.4975452      1024000 
  817000   0.99746831   -4.5778684   -4.5778684   -3.0816689  0.069278396   -4.5778684    1.4961995      1024000 
  818000   0.99835426   -4.5783625   -4.5783625   -3.0808341  0.072442936   -4.5783625    1.4975284      1024000 
  819000    0.9988087   -4.5794091   -4.5794091   -3.0811991  0.073896142   -4.5794091      1.49821      1024000 
  820000   0.99869784   -4.5778284   -4.5778284   -3.0797847  0.074227528   -4.5778284    1.4980438      1024000 
  821000   0.99874633   -4.5809235   -4.5809235    -3.082807  0.068843277   -4.5809235    1.4981165      1024000 
  822000      0.99952   -4.5820534   -4.5820534   -3.0827764  0.071539991   -4.5820534     1.499277      1024000 
  823000   0.99820176   -4.5799033   -4.5799033   -3.0826036  0.070951224   -4.5799033    1.4972996      1024000 
  824000    1.0003359   -4.5796342   -4.5796342   -3.0791333   0.07447825   -4.5796342    1.5005009      1024000 
  825000   0.99870186   -4.5783082   -4.5783082   -3.0802584  0.076681123   -4.5783082    1.4980498      1024000 
  826000    1.0007661    -4.581457    -4.581457   -3.0803109  0.072131296    -4.581457    1.5011461      1024000 
  827000   0.99965211   -4.5789248   -4.5789248   -3.0794496  0.079385353   -4.5789248    1.4994752      1024000 
  828000   0.99833304   -4.5805184   -4.5805184   -3.0830219  0.068669721   -4.5805184    1.4974966      1024000 
  829000   0.99749863   -4.5804497   -4.5804497   -3.0842048  0.067433373   -4.5804497     1.496245      1024000 
  830000   0.99795644   -4.5796304   -4.5796304   -3.0826987  0.069221963   -4.5796304    1.4969317      1024000 
  831000   0.99986507   -4.5799771   -4.5799771   -3.0801825  0.073729797   -4.5799771    1.4997946      1024000 
  832000    0.9980795   -4.5801025   -4.5801025   -3.0829862  0.067599335   -4.5801025    1.4971163      1024000 
  833000   0.99914127   -4.5811955   -4.5811955   -3.0824866  0.064614939   -4.5811955    1.4987089      1024000 
  834000   0.99959764   -4.5804156   -4.5804156   -3.0810221  0.069263249   -4.5804156    1.4993935      1024000 
  835000   0.99853972    -4.578131    -4.578131   -3.0803245  0.074190102    -4.578131    1.4978066      1024000 
  836000    1.0014118    -4.581865    -4.581865   -3.0797503  0.070772819    -4.581865    1.5021147      1024000 
  837000   0.99932465   -4.5797815   -4.5797815   -3.0807976  0.069499908   -4.5797815     1.498984      1024000 
  838000   0.99815604   -4.5784468   -4.5784468   -3.0812157  0.075498889   -4.5784468    1.4972311      1024000 
  839000   0.99961175   -4.5800071   -4.5800071   -3.0805925  0.073430974   -4.5800071    1.4994146      1024000 
  840000   0.99952121   -4.5803984   -4.5803984   -3.0811196  0.073202479   -4.5803984    1.4992788      1024000 
  841000   0.99948803   -4.5783229   -4.5783229   -3.0790938  0.074751294   -4.5783229     1.499229      1024000 
  842000   0.99770883   -4.5777097   -4.5777097   -3.0811495  0.071236557   -4.5777097    1.4965603      1024000 
  843000   0.99785482   -4.5781179   -4.5781179   -3.0813386  0.067398589   -4.5781179    1.4967792      1024000 
  844000   0.99694378    -4.577379    -4.577379   -3.0819663    0.0686535    -4.577379    1.4954127      1024000 
  845000   0.99787101   -4.5776658   -4.5776658   -3.0808623  0.065466834   -4.5776658    1.4968035      1024000 
  846000   0.99798066   -4.5768647   -4.5768647   -3.0798967   0.06758772   -4.5768647     1.496968      1024000 
  847000   0.99826205     -4.57704     -4.57704   -3.0796499  0.068080911     -4.57704    1.4973901      1024000 
  848000   0.99953832   -4.5780455   -4.5780455    -3.078741  0.069908842   -4.5780455    1.4993045      1024000 
  849000   0.99824338   -4.5761921   -4.5761921     -3.07883   0.07500575   -4.5761921    1.4973621      1024000 
  850000   0.99924203   -4.5774645   -4.5774645   -3.0786045  0.065322736   -4.5774645      1.49886      1024000 
  851000   0.99919826   -4.5788322   -4.5788322   -3.0800378  0.064067632   -4.5788322    1.4987944      1024000 
  852000   0.99845023   -4.5765198   -4.5765198   -3.0788474  0.074650388   -4.5765198    1.4976723      1024000 
  853000   0.99785503    -4.577985    -4.577985   -3.0812054  0.066477289    -4.577985    1.4967795      1024000 
  854000    0.9982702   -4.5777839   -4.5777839   -3.0803816  0.067032084   -4.5777839    1.4974023      1024000 
  855000   0.99812449   -4.5759314   -4.5759314   -3.0787476  0.078112347   -4.5759314    1.4971837      1024000 
  856000    1.0001145   -4.5786702   -4.5786702   -3.0785015  0.064976548   -4.5786702    1.5001687      1024000 
  857000   0.99770938   -4.5771158   -4.5771158   -3.0805548  0.064855265   -4.5771158    1.4965611      1024000 
  858000   0.99670011   -4.5757495   -4.5757495   -3.0807023   0.06817799   -4.5757495    1.4950472      1024000 
  859000   0.99782661   -4.5756746   -4.5756746   -3.0789377  0.064411854   -4.5756746    1.4967369      1024000 
  860000   0.99861327   -4.5755281   -4.5755281   -3.0776112  0.067886536   -4.5755281    1.4979169      1024000 
  861000   0.99693058   -4.5761165   -4.5761165   -3.0807237  0.072160553   -4.5761165    1.4953929      1024000 
  862000   0.99931433   -4.5761379   -4.5761379   -3.0771694  0.073499979   -4.5761379    1.4989685      1024000 
  863000    0.9968948   -4.5754397   -4.5754397   -3.0801005  0.072977272   -4.5754397    1.4953392      1024000 
  864000   0.99910397   -4.5774923   -4.5774923   -3.0788393  0.070488137   -4.5774923     1.498653      1024000 
  865000   0.99782839   -4.5774926   -4.5774926    -3.080753  0.069172538   -4.5774926    1.4967396      1024000 
  866000   0.99819372   -4.5761634   -4.5761634   -3.0788758   0.07221227   -4.5761634    1.4972876      1024000 
  867000   0.99917154   -4.5776956   -4.5776956   -3.0789413  0.071989236   -4.5776956    1.4987543      1024000 
  868000   0.99748682   -4.5793175   -4.5793175   -3.0830902  0.067570383   -4.5793175    1.4962272      1024000 
  869000    1.0011755   -4.5783979   -4.5783979   -3.0766376   0.06926948   -4.5783979    1.5017602      1024000 
  870000   0.99932859   -4.5780073   -4.5780073   -3.0790174  0.072547047   -4.5780073    1.4989899      1024000 
  871000   0.99941336   -4.5793725   -4.5793725   -3.0802555  0.064546037   -4.5793725     1.499117      1024000 
  872000   0.99918687    -4.577469    -4.577469   -3.0786917  0.072842682    -4.577469    1.4987773      1024000 
  873000   0.99846419   -4.5781854   -4.5781854   -3.0804921  0.070908745   -4.5781854    1.4976933      1024000 
  874000   0.99842709   -4.5783137   -4.5783137    -3.080676  0.073403182   -4.5783137    1.4976376      1024000 
  875000   0.99734806   -4.5773097   -4.5773097   -3.0812906  0.076113243   -4.5773097    1.4960191      1024000 
  876000   0.99764525   -4.5775287   -4.5775287   -3.0810638  0.072846522   -4.5775287    1.4964649      1024000 
  877000   0.99825993   -4.5779686   -4.5779686   -3.0805817  0.073049833   -4.5779686    1.4973869      1024000 
  878000   0.99898688   -4.5798452   -4.5798452   -3.0813679  0.072672922   -4.5798452    1.4984773      1024000 
  879000    1.0001612   -4.5796508   -4.5796508    -3.079412   0.07407379   -4.5796508    1.5002388      1024000 
  880000   0.99939761   -4.5796811   -4.5796811   -3.0805876  0.070896817   -4.5796811    1.4990934      1024000 
  881000   0.99834139   -4.5790223   -4.5790223   -3.0815132  0.073828338   -4.5790223    1.4975091      1024000 
  882000    1.0008849   -4.5806803   -4.5806803   -3.0793559  0.071500442   -4.5806803    1.5013244      1024000 
  883000   0.99803678   -4.5782946   -4.5782946   -3.0812424  0.070185074   -4.5782946    1.4970522      1024000 
  884000   0.99872422   -4.5785055   -4.5785055   -3.0804222  0.073048377   -4.5785055    1.4980833      1024000 
  885000   0.99951629   -4.5802833   -4.5802833   -3.0810118  0.068232151   -4.5802833    1.4992714      1024000 
  886000   0.99994217   -4.5813578   -4.5813578   -3.0814475  0.069146418   -4.5813578    1.4999103      1024000 
  887000    0.9987428   -4.5801531   -4.5801531   -3.0820419  0.075673003   -4.5801531    1.4981112      1024000 
  888000   0.99892139   -4.5799071   -4.5799071    -3.081528  0.074154752   -4.5799071    1.4983791      1024000 
  889000   0.99990924   -4.5813025   -4.5813025   -3.0814416  0.067962357   -4.5813025    1.4998609      1024000 
  890000   0.99717712    -4.579338    -4.579338   -3.0835753  0.070331757    -4.579338    1.4957627      1024000 
  891000   0.99885389   -4.5794255   -4.5794255   -3.0811476  0.068893401   -4.5794255    1.4982778      1024000 
  892000   0.99933162   -4.5791612   -4.5791612   -3.0801668  0.065197337   -4.5791612    1.4989944      1024000 
  893000   0.99829286   -4.5784235   -4.5784235   -3.0809872  0.067968746   -4.5784235    1.4974363      1024000 
  894000   0.99912418    -4.580852    -4.580852   -3.0821688  0.067376439    -4.580852    1.4986833      1024000 
  895000   0.99869738   -4.5797332   -4.5797332   -3.0816901  0.071380928   -4.5797332    1.4980431      1024000 
  896000   0.99852255   -4.5789643   -4.5789643   -3.0811835    0.0668119   -4.5789643    1.4977808      1024000 
  897000   0.99867669   -4.5800388   -4.5800388   -3.0820267  0.069709199   -4.5800388     1.498012      1024000 
  898000   0.99927626   -4.5800625   -4.5800625   -3.0811511  0.068874887   -4.5800625    1.4989114      1024000 
  899000   0.99935222   -4.5784856   -4.5784856   -3.0794603   0.07215935   -4.5784856    1.4990253      1024000 
  900000   0.99927263   -4.5807199   -4.5807199   -3.0818139  0.068833501   -4.5807199    1.4989059      1024000 
  901000    1.0003567   -4.5795763   -4.5795763   -3.0790443  0.070113614   -4.5795763     1.500532      1024000 
  902000    1.0003154   -4.5787189   -4.5787189   -3.0782488  0.075139111   -4.5787189    1.5004701      1024000 
  903000    1.0000005   -4.5795362   -4.5795362   -3.0795385  0.071956406   -4.5795362    1.4999977      1024000 
  904000   0.99960245   -4.5771744   -4.5771744   -3.0777737  0.076552577   -4.5771744    1.4994007      1024000 
  905000   0.99865156   -4.5773745   -4.5773745   -3.0794001  0.069463704   -4.5773745    1.4979743      1024000 
  906000   0.99712517    -4.574824    -4.574824   -3.0791392  0.073664219    -4.574824    1.4956848      1024000 
  907000   0.99847573     -4.57504     -4.57504   -3.0773294  0.075839705     -4.57504    1.4977106      1024000 
  908000   0.99807096   -4.5749129   -4.5749129   -3.0778094  0.073925565   -4.5749129    1.4971034      1024000 
  909000   0.99960228   -4.5762184   -4.5762184    -3.076818  0.074276281   -4.5762184    1.4994004      1024000 
  910000   0.99959583   -4.5775044   -4.5775044   -3.0781136  0.072336239   -4.5775044    1.4993907      1024000 
  911000    1.0000298   -4.5775509   -4.5775509   -3.0775093  0.071602331   -4.5775509    1.5000417      1024000 
  912000    1.0007538   -4.5789367   -4.5789367    -3.077809  0.072140534   -4.5789367    1.5011277      1024000 
  913000    1.0000279   -4.5785974   -4.5785974   -3.0785586  0.070986405   -4.5785974    1.5000388      1024000 
  914000   0.99817419    -4.576539    -4.576539   -3.0792807  0.076662352    -4.576539    1.4972583      1024000 
  915000   0.99888506   -4.5756819   -4.5756819   -3.0773573  0.081468895   -4.5756819    1.4983246      1024000 
  916000   0.99952286   -4.5781102   -4.5781102   -3.0788289  0.070089707   -4.5781102    1.4992813      1024000 
  917000   0.99933508    -4.577681    -4.577681   -3.0786813  0.066381019    -4.577681    1.4989996      1024000 
  918000     0.998516   -4.5757053   -4.5757053   -3.0779343  0.070607096   -4.5757053     1.497771      1024000 
  919000   0.99787881   -4.5764364   -4.5764364   -3.0796212  0.063545696   -4.5764364    1.4968152      1024000 
  920000   0.99816937   -4.5757221   -4.5757221   -3.0784711  0.067729541   -4.5757221    1.4972511      1024000 
  921000   0.99836905   -4.5771477   -4.5771477   -3.0795972  0.061693719   -4.5771477    1.4975506      1024000 
  922000   0.99824104   -4.5756101   -4.5756101   -3.0782515  0.071635581   -4.5756101    1.4973586      1024000 
  923000   0.99910351   -4.5777258   -4.5777258   -3.0790736  0.062918448   -4.5777258    1.4986523      1024000 
  924000   0.99829886   -4.5748023   -4.5748023    -3.077357   0.07072773   -4.5748023    1.4974453      1024000 
  925000   0.99996854   -4.5747698   -4.5747698     -3.07482  0.071704893   -4.5747698    1.4999498      1024000 
  926000    0.9992773   -4.5766917   -4.5766917   -3.0777787  0.072268451   -4.5766917     1.498913      1024000 
  927000   0.99836431   -4.5746726   -4.5746726   -3.0771291  0.073432106   -4.5746726    1.4975435      1024000 
  928000   0.99813693   -4.5755177   -4.5755177   -3.0783153  0.070156679   -4.5755177    1.4972024      1024000 
  929000   0.99902614   -4.5752027   -4.5752027   -3.0766664  0.071735028   -4.5752027    1.4985362      1024000 
  930000    1.0004465   -4.5764871   -4.5764871   -3.0758203  0.069911642   -4.5764871    1.5006667      1024000 
  931000   0.99928431   -4.5760427   -4.5760427   -3.0771192  0.071144866   -4.5760427    1.4989235      1024000 
  932000    1.0000062   -4.5765159   -4.5765159   -3.0765095  0.071945735   -4.5765159    1.5000063      1024000 
  933000    0.9993863   -4.5763532   -4.5763532   -3.0772768  0.067267844   -4.5763532    1.4990764      1024000 
  934000   0.99996095   -4.5761986   -4.5761986   -3.0762602   0.07234529   -4.5761986    1.4999384      1024000 
  935000   0.99809074   -4.5756314   -4.5756314   -3.0784983  0.069762638   -4.5756314    1.4971331      1024000 
  936000   0.99843433     -4.57609     -4.57609   -3.0784415  0.066430433     -4.57609    1.4976485      1024000 
  937000   0.99747438   -4.5743494   -4.5743494   -3.0781408  0.072886896   -4.5743494    1.4962086      1024000 
  938000    1.0003264   -4.5767884   -4.5767884   -3.0763018  0.068367722   -4.5767884    1.5004866      1024000 
  939000   0.99682355     -4.57297     -4.57297   -3.0777376   0.07674928     -4.57297    1.4952323      1024000 
  940000   0.99896183   -4.5763676   -4.5763676   -3.0779278  0.069039528   -4.5763676    1.4984397      1024000 
  941000   0.99930045    -4.576432    -4.576432   -3.0774843  0.076615208    -4.576432    1.4989477      1024000 
  942000    1.0011091   -4.5768117   -4.5768117    -3.075151  0.076538198   -4.5768117    1.5016607      1024000 
  943000    1.0001852   -4.5774427   -4.5774427   -3.0771679  0.076439884   -4.5774427    1.5002747      1024000 
  944000   0.99927614   -4.5761673   -4.5761673   -3.0772561  0.072667502   -4.5761673    1.4989112      1024000 
  945000   0.99827703   -4.5751372   -4.5751372   -3.0777247  0.074878422   -4.5751372    1.4974125      1024000 
  946000   0.99913124   -4.5768498   -4.5768498   -3.0781559  0.069372979   -4.5768498    1.4986939      1024000 
  947000   0.99906235   -4.5751738   -4.5751738   -3.0765833  0.073841969   -4.5751738    1.4985905      1024000 
  948000   0.99911064   -4.5763438   -4.5763438   -3.0776808  0.072096086   -4.5763438     1.498663      1024000 
  949000    0.9985437   -4.5757519   -4.5757519   -3.0779393  0.073514096   -4.5757519    1.4978126      1024000 
  950000    0.9994706    -4.577015    -4.577015   -3.0778121  0.073070656    -4.577015    1.4992029      1024000 
  951000   0.99786521   -4.5752355   -4.5752355   -3.0784407  0.075028212   -4.5752355    1.4967948      1024000 
  952000   0.99912138   -4.5760861   -4.5760861    -3.077407  0.069980093   -4.5760861    1.4986791      1024000 
  953000   0.99928701   -4.5777944   -4.5777944   -3.0788669  0.069609391   -4.5777944    1.4989275      1024000 
  954000   0.99990378   -4.5782946   -4.5782946   -3.0784419  0.073304496   -4.5782946    1.4998527      1024000 
  955000   0.99971342   -4.5765359   -4.5765359   -3.0769688  0.074295085   -4.5765359    1.4995671      1024000 
  956000    1.0012741   -4.5771525   -4.5771525   -3.0752443  0.072433596   -4.5771525    1.5019081      1024000 
  957000    1.0010563   -4.5780168   -4.5780168   -3.0764354  0.070165478   -4.5780168    1.5015814      1024000 
  958000     1.001096   -4.5784818   -4.5784818   -3.0768407  0.069778548   -4.5784818     1.501641      1024000 
  959000    1.0002707    -4.576962    -4.576962   -3.0765589  0.075695654    -4.576962    1.5004031      1024000 
  960000   0.99956574   -4.5765423   -4.5765423   -3.0771967  0.078387822   -4.5765423    1.4993456      1024000 
  961000    1.0005846   -4.5750078   -4.5750078   -3.0741338  0.076288974   -4.5750078    1.5008739      1024000 
  962000    1.0008761   -4.5757042   -4.5757042    -3.074393  0.076285776   -4.5757042    1.5013112      1024000 
  963000    1.0002283   -4.5748109   -4.5748109   -3.0744715  0.074198155   -4.5748109    1.5003394      1024000 
  964000   0.99909065   -4.5737831   -4.5737831   -3.0751501  0.073617619   -4.5737831     1.498633      1024000 
  965000   0.99994239   -4.5734272   -4.5734272   -3.0735166  0.071041138   -4.5734272    1.4999106      1024000 
  966000   0.99802923    -4.572709    -4.572709   -3.0756682  0.067942859    -4.572709    1.4970408      1024000 
  967000   0.99856076   -4.5729656   -4.5729656   -3.0751275  0.066078501   -4.5729656    1.4978381      1024000 
  968000   0.99859999   -4.5736517   -4.5736517   -3.0757548   0.06532793   -4.5736517     1.497897      1024000 
  969000   0.99805023    -4.573047    -4.573047   -3.0759746  0.067033556    -4.573047    1.4970723      1024000 
  970000   0.99795025   -4.5710434   -4.5710434    -3.074121  0.073772294   -4.5710434    1.4969224      1024000 
  971000   0.99869787   -4.5739678   -4.5739678    -3.075924  0.071532984   -4.5739678    1.4980438      1024000 
  972000    1.0001794   -4.5743918   -4.5743918   -3.0741257  0.066286012   -4.5743918    1.5002661      1024000 
  973000   0.99968128   -4.5744729   -4.5744729    -3.074954  0.064309549   -4.5744729    1.4995189      1024000 
  974000   0.99880383   -4.5733252   -4.5733252   -3.0751225  0.068673528   -4.5733252    1.4982027      1024000 
  975000   0.99974902   -4.5721596   -4.5721596   -3.0725391  0.074814981   -4.5721596    1.4996205      1024000 
  976000   0.99818559   -4.5718071   -4.5718071   -3.0745317  0.068729283   -4.5718071    1.4972754      1024000 
  977000   0.99746628   -4.5713211   -4.5713211   -3.0751247  0.069144419   -4.5713211    1.4961964      1024000 
  978000   0.99814084   -4.5717965   -4.5717965   -3.0745883   0.06601266   -4.5717965    1.4972083      1024000 
  979000   0.99930763   -4.5717403   -4.5717403   -3.0727819  0.070083559   -4.5717403    1.4989584      1024000 
  980000   0.99958657   -4.5737242   -4.5737242   -3.0743474  0.072628429   -4.5737242    1.4993769      1024000 
  981000   0.99847387   -4.5731182   -4.5731182   -3.0754104  0.066912908   -4.5731182    1.4977078      1024000 
  982000   0.99854426   -4.5727572   -4.5727572   -3.0749438  0.071889075   -4.5727572    1.4978134      1024000 
  983000   0.99873799   -4.5727083   -4.5727083   -3.0746043  0.067575056   -4.5727083     1.498104      1024000 
  984000   0.99789832   -4.5717264   -4.5717264   -3.0748819  0.072835213   -4.5717264    1.4968445      1024000 
  985000   0.99900201   -4.5717791   -4.5717791   -3.0732791  0.071450416   -4.5717791       1.4985      1024000 
  986000    1.0000549   -4.5751603   -4.5751603   -3.0750809  0.072355659   -4.5751603    1.5000794      1024000 
  987000    1.0002538   -4.5757839   -4.5757839   -3.0754062  0.071305917   -4.5757839    1.5003778      1024000 
  988000   0.99916599   -4.5749099   -4.5749099   -3.0761639  0.076489119   -4.5749099     1.498746      1024000 
  989000   0.99841882   -4.5754475   -4.5754475   -3.0778223  0.072696689   -4.5754475    1.4976252      1024000 
  990000    1.0002226   -4.5748096   -4.5748096   -3.0744787  0.077405456   -4.5748096    1.5003309      1024000 
  991000    1.0003851   -4.5744928   -4.5744928   -3.0739182  0.078549555   -4.5744928    1.5005747      1024000 
  992000    1.0000898   -4.5770426   -4.5770426   -3.0769109  0.069434224   -4.5770426    1.5001316      1024000 
  993000    1.0001385   -4.5759013   -4.5759013   -3.0756965  0.071171025   -4.5759013    1.5002048      1024000 
  994000   0.99999449   -4.5762227   -4.5762227    -3.076234  0.075232557   -4.5762227    1.4999887      1024000 
  995000     0.999528    -4.575737    -4.575737    -3.076448  0.076866063    -4.575737     1.499289      1024000 
  996000    0.9987121   -4.5751943   -4.5751943   -3.0771292  0.077124841   -4.5751943    1.4980651      1024000 
  997000   0.99942101   -4.5775108   -4.5775108   -3.0783823  0.071662416   -4.5775108    1.4991285      1024000 
  998000   0.99948758   -4.5763596   -4.5763596   -3.0771312  0.076132875   -4.5763596    1.4992284      1024000 
  999000    1.0002674   -4.5780324   -4.5780324   -3.0776343  0.076890942   -4.5780324    1.5003981      1024000 
 1000000    1.0009131   -4.5781918   -4.5781918   -3.0768252  0.074108497   -4.5781918    1.5013667      1024000 
Loop time of 15943.3 on 128 procs for 1000000 steps with 499200 atoms

Performance: 13547.979 tau/day, 62.722 timesteps/s
99.5% CPU use with 128 MPI tasks x 1 OpenMP threads

MPI task timing breakdown:
Section |  min time  |  avg time  |  max time  |%varavg|  %CPU | %total
-----------------------------------------------------------------------
Pair    | 5299.8     | 7633.8     | 11875      |1211.8 |  99.5 | 47.88
Bond    | 0.362      | 0.90002    | 1.4368     |  36.6 | 100.0 |  0.01
Neigh   | 856.83     | 1285.6     | 1922.4     | 513.2 |  99.8 |  8.06
Comm    | 1734.5     | 6664.1     | 9334.6     |1519.1 |  99.2 | 41.80
Output  | 20.393     | 20.624     | 20.93      |   3.9 |  99.4 |  0.13
Modify  | 58.85      | 104.27     | 318.95     | 704.3 | 100.0 |  0.65
Other   |            | 234        |            |       |       |  1.47

Nlocal:    3900 ave 4087 max 3594 min
Histogram: 1 0 0 2 6 35 69 11 0 4
Nghost:    9746.52 ave 10684 max 7412 min
Histogram: 24 8 0 0 0 0 0 0 11 85
Neighs:    601650 ave 666789 max 397078 min
Histogram: 3 8 5 0 0 0 0 20 76 16

Total # of neighbors = 77011147
Ave neighs/atom = 154.269
Ave special neighs/atom = 0
Neighbor list builds = 66743
Dangerous builds = 449
Total wall time: 4:25:48
