LAMMPS (29 Oct 2020)
  using 1 OpenMP thread(s) per MPI task
units           lj
atom_style      full
atom_modify     map array first cubes
dimension       3
boundary        p p f

variable        sigma           equal 1.0
variable        epsilon         equal 1.0

read_data       data.rigid
Reading data file ...
  orthogonal box = (0.0000000 0.0000000 0.0000000) to (20.000000 20.000000 20.000000)
  4 by 4 by 4 MPI processor grid
  reading atoms ...
  1143 atoms
Finding 1-2 1-3 1-4 neighbors ...
  special bond factors lj:    0.0      0.0      0.0     
  special bond factors coul:  0.0      0.0      0.0     
     0 = max # of 1-2 neighbors
     0 = max # of 1-3 neighbors
     0 = max # of 1-4 neighbors
     1 = max # of special neighbors
  special bonds CPU = 8.524 seconds
  read_data CPU = 8.799 seconds
replicate       8 8 8
Replicating atoms ...
WARNING: Replicating in a non-periodic dimension (src/replicate.cpp:75)
  orthogonal box = (0.0000000 0.0000000 0.0000000) to (160.00000 160.00000 160.00000)
  4 by 4 by 4 MPI processor grid
  585216 atoms
Finding 1-2 1-3 1-4 neighbors ...
  special bond factors lj:    0.0      0.0      0.0     
  special bond factors coul:  0.0      0.0      0.0     
     0 = max # of 1-2 neighbors
     0 = max # of 1-3 neighbors
     0 = max # of 1-4 neighbors
     1 = max # of special neighbors
  special bonds CPU = 0.017 seconds
  replicate CPU = 0.036 seconds
group           cubes type 2 3
585216 atoms in group cubes

velocity        cubes create 10.0 45345 loop geom

pair_style      soft 1.12
pair_coeff      1 1 0.0 0.0
pair_coeff      2 2 0.0
pair_coeff      3 3 0.0
pair_coeff      1 3 0.0 0.0
pair_coeff      2 3 0.0
pair_coeff      1 2 0.0 0.0

variable        prefactor equal ramp(0,60)
fix             soft all adapt 1 pair soft a * * v_prefactor

neighbor        0.3 bin
neigh_modify    delay 0 every 1 check yes


#fix             1     cubes rigid molecule

dump 		1 all movie 100 movie.avi type type

compute         tbig all temp
thermo_modify   temp tbig

thermo          100
run             1000
Neighbor list info ...
  update every 1 steps, delay 0 steps, check yes
  max neighbors/atom: 2000, page size: 100000
  master list distance cutoff = 1.42
  ghost atom cutoff = 1.42
  binsize = 0.71, bins = 226 226 226
  1 neighbor lists, perpetual/occasional/extra = 1 0 0
  (1) pair soft, perpetual
      attributes: half, newton on
      pair build: half/bin/newton
      stencil: half/bin/3d/newton
      bin: standard
Setting up Verlet run ...
  Unit style    : lj
  Current step  : 0
  Time step     : 0.005
Per MPI rank memory allocation (min/avg/max) = 9.893 | 9.893 | 9.893 Mbytes
Step Temp E_pair E_mol TotEng Press 
       0           10            0            0    14.999974    1.4287476 
     100           10   0.90670399            0    15.906678    2.1416359 
     200           10     1.813408            0    16.813382    2.8545243 
     300           10     2.720112            0    17.720086    3.5674126 
     400           10    3.6268159            0     18.62679     4.280301 
     500           10    4.5335199            0    19.533494    4.9931893 
     600           10    5.4402239            0    20.440198    5.7060776 
     700           10    6.3469279            0    21.346902     6.418966 
     800           10    7.2536319            0    22.253606    7.1318543 
     900           10    8.1603359            0     23.16031    7.8447427 
    1000           10    9.0670399            0    24.067014     8.557631 
Loop time of 2.23498 on 64 procs for 1000 steps with 585216 atoms

Performance: 193290.281 tau/day, 447.431 timesteps/s
99.8% CPU use with 64 MPI tasks x 1 OpenMP threads

MPI task timing breakdown:
Section |  min time  |  avg time  |  max time  |%varavg| %total
---------------------------------------------------------------
Pair    | 0.93125    | 1.0205     | 1.7948     |  18.8 | 45.66
Bond    | 8.3213e-05 | 0.00010908 | 0.00018132 |   0.0 |  0.00
Neigh   | 0          | 0          | 0          |   0.0 |  0.00
Comm    | 0.00037041 | 0.00047013 | 0.00085801 |   0.0 |  0.02
Output  | 0.35697    | 0.36944    | 0.3709     |   0.5 | 16.53
Modify  | 0.0015701  | 0.0020471  | 0.0056468  |   1.4 |  0.09
Other   |            | 0.8424     |            |       | 37.69

Nlocal:        9144.00 ave        9144 max        9144 min
Histogram: 64 0 0 0 0 0 0 0 0 0
Nghost:        0.00000 ave           0 max           0 min
Histogram: 64 0 0 0 0 0 0 0 0 0
Neighs:        70416.0 ave       70416 max       70416 min
Histogram: 64 0 0 0 0 0 0 0 0 0

Total # of neighbors = 4506624
Ave neighs/atom = 7.7007874
Ave special neighs/atom = 0.0000000
Neighbor list builds = 0
Dangerous builds = 0


unfix 		soft

reset_timestep 	0

pair_style	lj/cut/opt 2.5
pair_modify	shift yes

pair_coeff	1 1 0.0 0.0

pair_coeff	2 2 1.0 1.0

pair_coeff	1 2 0.0 0.0

pair_coeff	1 3 0.0 0.0

pair_coeff	2 3 0.0 0.0

pair_coeff	3 3 0.0 0.0

comm_modify	cutoff 6.93

fix 		1 cubes rigid/small molecule
  create bodies CPU = 0.016 seconds
  512 rigid bodies with 585216 atoms
  6.9282032 = max distance from body owner to body atom


####################### WALLS ###########################

variable       epsilonWall equal 2*${epsilon}
variable       epsilonWall equal 2*1

variable       cutoffTop   equal   0.7147*${sigma}
variable       cutoffTop   equal   0.7147*1

variable       cutoffLow   equal   3*${sigma}
variable       cutoffLow   equal   3*1

region         lowWall block EDGE EDGE EDGE EDGE EDGE 2

delete_atoms   region lowWall
WARNING: Ignoring 'compress yes' for molecular system (src/delete_atoms.cpp:125)
Deleted 0 atoms, new total = 585216



fix            topWall all wall/lj93 zhi EDGE                ${epsilonWall} ${sigma} ${cutoffTop} units box
fix            topWall all wall/lj93 zhi EDGE                2 ${sigma} ${cutoffTop} units box
fix            topWall all wall/lj93 zhi EDGE                2 1 ${cutoffTop} units box
fix            topWall all wall/lj93 zhi EDGE                2 1 0.7147 units box

fix            lowWall all wall/lj93 zlo EDGE                ${epsilonWall} ${sigma} ${cutoffLow} units box
fix            lowWall all wall/lj93 zlo EDGE                2 ${sigma} ${cutoffLow} units box
fix            lowWall all wall/lj93 zlo EDGE                2 1 ${cutoffLow} units box
fix            lowWall all wall/lj93 zlo EDGE                2 1 3 units box





velocity	all create ${temp} ${seed} loop geom
velocity	all create 10.0 ${seed} loop geom
velocity	all create 10.0 12571 loop geom
WARNING: Changing velocities of atoms in rigid bodies. This has no effect unless rigid bodies are rebuild (src/velocity.cpp:71)
WARNING: Cannot count rigid body degrees-of-freedom before bodies are fully initialized (src/RIGID/fix_rigid_small.cpp:1166)

dump 		2 all movie 100 movie_cubes.avi type type



run 		500000
Neighbor list info ...
  update every 1 steps, delay 0 steps, check yes
  max neighbors/atom: 2000, page size: 100000
  master list distance cutoff = 2.8
  ghost atom cutoff = 6.93
  binsize = 1.4, bins = 115 115 115
  1 neighbor lists, perpetual/occasional/extra = 1 0 0
  (1) pair lj/cut/opt, perpetual
      attributes: half, newton on
      pair build: half/bin/newton
      stencil: half/bin/3d/newton
      bin: standard
Setting up Verlet run ...
  Unit style    : lj
  Current step  : 0
  Time step     : 0.005
Per MPI rank memory allocation (min/avg/max) = 15.72 | 15.73 | 15.73 Mbytes
Step Temp E_pair E_mol TotEng Press 
       0    9.4444301  -0.36619638            0  -0.34143206  -0.38876339 
     100    9.4444301  -0.36619638            0  -0.34143206 0.0011397255 
     200    9.4444301  -0.36619638            0  -0.34143206 0.0011397255 
     300    9.4444301  -0.36619638            0  -0.34143206 0.0011397255 
     400    9.4444301  -0.36619638            0  -0.34143206 0.0011397255 
     500    9.4444301  -0.36619638            0  -0.34143206 0.0011397255 
     600    9.4444301  -0.36619638            0  -0.34143206 0.0011397255 
     700    9.4444301  -0.36619638            0  -0.34143206 0.0011397255 
     800    9.4444301  -0.36619638            0  -0.34143206 0.0011397255 
     900    9.4444301  -0.36619638            0  -0.34143206 0.0011397255 
    1000    9.4444301  -0.36619638            0  -0.34143206 0.0011397255 
    1100    9.4444301  -0.36619638            0  -0.34143206 0.0011397255 
    1200    9.4444301  -0.36619638            0  -0.34143206 0.0011397255 
    1300    9.4444362  -0.36619638            0  -0.34143204  0.001139618 
    1400    9.4444723  -0.36619638            0  -0.34143195 0.0011394537 
    1500    9.4445465  -0.36619638            0  -0.34143176  0.001139259 
    1600    9.4446675  -0.36619638            0  -0.34143144 0.0011389926 
    1700     9.444844  -0.36619638            0  -0.34143098 0.0011387091 
    1800    9.4450994  -0.36619638            0  -0.34143031   0.00113819 
    1900    9.4454816  -0.36619638            0   -0.3414293 0.0011374436 
    2000    9.4460344  -0.36619638            0  -0.34142785 0.0011365612 
    2100    9.4468019  -0.36619638            0  -0.34142584 0.0011352699 
    2200    9.4478591  -0.36619638            0  -0.34142307 0.0011336898 
    2300    9.4493247  -0.36619638            0  -0.34141923 0.0011313709 
    2400    9.4513982  -0.36619638            0  -0.34141379 0.0011281201 
    2500    9.4543995  -0.36619638            0  -0.34140592 0.0011234082 
    2600    9.4588075  -0.36619638            0  -0.34139436   0.00111742 
    2700    9.4644488  -0.36619638            0  -0.34137957 0.0011216449 
    2800     9.454196  -0.36619638            0  -0.34140645  0.001385864 
    2900    9.4315561  -0.36619638            0  -0.34146582 0.0017719627 
    3000    9.4566209   -0.3661964            0  -0.34140011 0.0013288638 
    3100    9.4641208   -0.3661965            0  -0.34138054 0.0011512716 
    3200    9.4629591  -0.36619677            0  -0.34138386 0.0011087831 
    3300    9.4579801  -0.36619755            0   -0.3413977 0.0011960688 
    3400    9.4492132  -0.36619928            0  -0.34142242 0.0013650009 
    3500     9.466066  -0.36620293            0  -0.34138188 0.0011751239 
    3600    9.4682738  -0.36621037            0  -0.34138353 0.0012223426 
    3700    9.4758181  -0.36622495            0  -0.34137832 0.0012568115 
    3800    9.4725648  -0.36625202            0  -0.34141393 0.0014899481 
    3900    9.5072014  -0.36627728            0  -0.34134836  0.001297832 
    4000    9.4553702  -0.36612117            0  -0.34132816 0.0029583255 
    4100    9.5255824  -0.36630202            0  -0.34132491 0.0014210485 
    4200    9.5338075  -0.36632116            0  -0.34132248 0.0010371415 
    4300    9.5378854  -0.36632101            0  -0.34131164 0.00099548127 
    4400    9.5133457  -0.36626906            0  -0.34132404 0.0018990178 
    4500    9.4664563  -0.36622913            0  -0.34140705 0.0029389989 
    4600    9.5554711  -0.36634319            0  -0.34128771 0.0012159418 
    4700    9.5672211  -0.36635682            0  -0.34127052 0.00099339772 
    4800    9.5663913  -0.36636873            0  -0.34128461 0.0012383973 
    4900    9.5963394  -0.36645387            0  -0.34129122 0.00091198001 
    5000    9.5717101  -0.36639558            0  -0.34129752 0.0023324452 
    5100     9.539321  -0.36636097            0  -0.34134784 0.0037097393 
    5200    9.6098825  -0.36652157            0  -0.34132342 0.0023921642 
    5300    9.6033891  -0.36648372            0  -0.34130258 0.0024181353 
    5400    9.6047746  -0.36649347            0  -0.34130871 0.0022885735 
    5500    9.6240801  -0.36655387            0  -0.34131849 0.0014994466 
    5600    9.6208972  -0.36654551            0  -0.34131847 0.0016032841 
    5700    9.6441297  -0.36659398            0  -0.34130602 0.0013642147 
    5800    9.6148197  -0.36651381            0  -0.34130271  0.002694298 
    5900    9.6328305   -0.3665687            0  -0.34131037 0.0026310155 
    6000     9.608691  -0.36647556            0  -0.34128052 0.0036326284 
    6100    9.6648028  -0.36659848            0  -0.34125632 0.0021372998 
    6200    9.6762574  -0.36660391            0  -0.34123171 0.0015174032 
    6300    9.6688515  -0.36657111            0  -0.34121833 0.0016202557 
    6400    9.6761823  -0.36663778            0  -0.34126578 0.0012884248 
    6500    9.6439606  -0.36653737            0  -0.34124986 0.0022506057 
    6600    9.6672723  -0.36661121            0  -0.34126257 0.0015858682 
    6700    9.7045516  -0.36667381            0  -0.34122742 0.00061970328 
    6800    9.6662839  -0.36657384            0  -0.34122779 0.0017067092 
    6900    9.6725914  -0.36659536            0  -0.34123277 0.0019190485 
    7000    9.7105993  -0.36668704            0  -0.34122479 0.0012911595 
    7100     9.701192  -0.36666169            0  -0.34122411 0.0017575555 
    7200    9.7416861  -0.36676545            0  -0.34122169 0.0013779757 
    7300    9.7642006  -0.36677303            0  -0.34117024 0.0015530579 
    7400    9.8036498  -0.36688997            0  -0.34118374 0.0012077221 
    7500    9.8140776  -0.36688925            0  -0.34115567 0.0021324374 
    7600    9.8380989  -0.36701586            0   -0.3412193 0.0021051464 
    7700    9.8801992  -0.36700828            0  -0.34110133 0.0023951933 
    7800    9.9143907  -0.36711304            0  -0.34111643 0.0015987604 
    7900    9.9472757    -0.367205            0  -0.34112216 0.0015987329 
    8000    9.9245373  -0.36712989            0  -0.34110667   0.00326425 
    8100    10.007092  -0.36734708            0   -0.3411074 0.0021485556 
    8200    10.009511  -0.36743333            0  -0.34118731 0.0020885404 
    8300    10.052931  -0.36750201            0  -0.34114213 0.0021011704 
    8400    10.073559  -0.36753973            0  -0.34112576 0.0030756858 
    8500    10.114579  -0.36766139            0  -0.34113986 0.0016023811 
    8600    10.045165  -0.36752203            0  -0.34118252 0.0022612346 
    8700    10.058361  -0.36754105            0  -0.34116694 0.0017128838 
    8800    10.104463  -0.36763537            0  -0.34114037 0.0008732838 
    8900      10.1376  -0.36773282            0  -0.34115093 0.00082931059 
    9000    10.134049  -0.36768748            0   -0.3411149 0.0020728152 
    9100    10.134693  -0.36763142            0  -0.34105716 0.0028026049 
    9200    10.147163  -0.36768774            0  -0.34108078 0.0023598347 
    9300    10.237343  -0.36782979            0  -0.34098636 0.0009628406 
    9400    10.211512  -0.36778206            0  -0.34100637 0.0022830417 
    9500    10.235881  -0.36780032            0  -0.34096073 0.0023516608 
    9600    10.247287  -0.36782518            0  -0.34095568 0.0024132778 
    9700    10.281458  -0.36789219            0  -0.34093309 0.0019776572 
    9800     10.26351  -0.36787626            0  -0.34096422 0.0024073545 
    9900    10.259438  -0.36783258            0  -0.34093122 0.0025817976 
   10000    10.286952  -0.36792421            0   -0.3409507 0.0018612839 
   10100    10.298357  -0.36802401            0   -0.3410206 0.0019759234 
   10200    10.282011  -0.36803023            0  -0.34106968 0.0030207629 
   10300     10.35009  -0.36810813            0  -0.34096907 0.0015060372 
   10400    10.360367  -0.36810196            0  -0.34093595 0.0014440542 
   10500    10.318835  -0.36808013            0  -0.34102302 0.0028238428 
   10600    10.327687  -0.36807727            0  -0.34099696 0.0033767051 
   10700    10.365394  -0.36825549            0  -0.34107629 0.0029311145 
   10800    10.342636  -0.36815614            0  -0.34103662 0.0042599704 
   10900    10.382348  -0.36827219            0  -0.34104855 0.00070804431 
   11000    10.269898  -0.36803541            0  -0.34110663 0.0019017029 
   11100    10.291314  -0.36809247            0  -0.34110752 0.00093768693 
   11200    10.255758  -0.36801522            0  -0.34112351 0.0014992243 
   11300    10.314109  -0.36816471            0     -0.34112 0.0011310887 
   11400    10.375602  -0.36832097            0  -0.34111501 0.0017390995 
   11500    10.395127  -0.36836625            0  -0.34110909 0.0036574497 
   11600    10.493701  -0.36862177            0  -0.34110614 0.00088413385 
   11700    10.353425  -0.36826486            0  -0.34111705 0.0036738992 
   11800     10.44521  -0.36846683            0  -0.34107836 0.0018374706 
   11900    10.509799  -0.36867066            0  -0.34111283 0.0010596305 
   12000    10.592921  -0.36882864            0  -0.34105285 0.0022054096 
   12100    10.584239  -0.36877484            0  -0.34102182 0.0043782303 
   12200    10.633222  -0.36894679            0  -0.34106532 0.0017739158 
   12300    10.607051  -0.36887317            0  -0.34106033 0.0018865768 
   12400    10.617678  -0.36880669            0  -0.34096598 0.0024500419 
   12500     10.64609  -0.36893486            0  -0.34101965 0.0036481402 
   12600    10.715134  -0.36914958            0  -0.34105334 0.0014632367 
   12700    10.655077  -0.36891519            0  -0.34097641 0.0044394783 
   12800    10.722811  -0.36905146            0  -0.34093508 0.0031910368 
   12900    10.764234  -0.36928371            0  -0.34105872 0.00075920037 
   13000    10.766928  -0.36923857            0  -0.34100651 0.0006196056 
   13100    10.723423  -0.36915284            0  -0.34103486  0.001732935 
   13200    10.728824  -0.36914964            0  -0.34101749 0.0021958294 
   13300     10.77657  -0.36924468            0  -0.34098734 0.0022425016 
   13400    10.763747  -0.36917611            0   -0.3409524 0.0044070921 
   13500    10.729758  -0.36912213            0  -0.34098754 0.0056176235 
   13600    10.770188  -0.36914297            0  -0.34090237 0.0030567251 
   13700    10.771857  -0.36917557            0  -0.34093059 0.00056338164 
   13800    10.710315  -0.36902127            0  -0.34093766 0.0013259253 
   13900    10.690148  -0.36895199            0  -0.34092126 0.0017688508 
   14000    10.808609   -0.3692499            0  -0.34090855 0.00084149641 
   14100    10.748082  -0.36912598            0  -0.34094334 0.0043896548 
   14200    10.700831  -0.36905442            0  -0.34099568 0.0049524577 
   14300    10.754257  -0.36913072            0  -0.34093189 0.00094779472 
   14400    10.674809  -0.36890595            0  -0.34091544 0.0012350932 
   14500    10.615442  -0.36877028            0  -0.34093544 0.0023772049 
   14600    10.593339  -0.36872151            0  -0.34094462 0.0018849912 
   14700    10.583522  -0.36870153            0  -0.34095039 0.00040942305 
   14800    10.633544  -0.36883781            0   -0.3409555 -0.00053925946 
   14900    10.683669  -0.36897447            0  -0.34096072 0.00042338914 
   15000    10.659665  -0.36889192            0  -0.34094111 0.0040109276 
   15100    10.726567  -0.36906129            0  -0.34093506 0.0031188593 
   15200    10.723921  -0.36892006            0  -0.34080077 0.0031814299 
   15300    10.712042  -0.36896523            0  -0.34087709 0.0028844916 
   15400    10.749266  -0.36893328            0  -0.34074754 0.0025545222 
   15500    10.786341  -0.36902087            0  -0.34073791 0.0011249536 
   15600    10.677019  -0.36891991            0   -0.3409236 0.0015405944 
   15700    10.692983   -0.3688832            0  -0.34084504 0.00084746033 
   15800    10.668656  -0.36888797            0   -0.3409136 0.0016909351 
   15900    10.685738  -0.36893482            0  -0.34091566 0.0016708469 
   16000    10.705917  -0.36901451            0  -0.34094243 0.0020912779 
   16100    10.739172  -0.36911473            0  -0.34095545 0.0023580968 
   16200    10.722298   -0.3691257            0  -0.34101067 0.0035334403 
   16300    10.766489  -0.36922142            0  -0.34099052 0.0024007341 
   16400     10.84038  -0.36933749            0  -0.34091283 0.0004578311 
   16500    10.814264  -0.36920354            0  -0.34084736 0.0022250511 
   16600    10.781939  -0.36913543            0  -0.34086402 0.0036543069 
   16700    10.839096   -0.3692367            0  -0.34081541  0.001477942 
   16800    10.906303  -0.36932848            0  -0.34073097 0.00048353529 
   16900    10.882619  -0.36928123            0  -0.34074582 0.0021341306 
   17000     10.73972  -0.36899685            0  -0.34083613 0.0042205603 
   17100    10.748262  -0.36898429            0  -0.34080117 0.0020540871 
   17200    10.742311  -0.36891965            0  -0.34075214 0.0014475873 
   17300    10.716651  -0.36885815            0  -0.34075793 0.0023669167 
   17400    10.713632  -0.36892395            0  -0.34083164 0.0019915254 
   17500    10.784683  -0.36902546            0  -0.34074685 0.0010584913 
   17600    10.825095  -0.36918159            0  -0.34079701 0.0010854557 
   17700     10.74677  -0.36901617            0  -0.34083697 0.0050531789 
   17800    10.826342  -0.36929744            0  -0.34090959 0.0043705412 
   17900    10.881679  -0.36939485            0   -0.3408619 0.0021509087 
   18000    10.825786  -0.36920817            0  -0.34082178 0.0028561772 
   18100    10.855464  -0.36930525            0  -0.34084104 0.0014802629 
   18200    10.830286  -0.36925545            0  -0.34085726 0.0029486284 
   18300    10.885115  -0.36941528            0  -0.34087332 0.00095635436 
   18400    10.886311  -0.36940438            0  -0.34085929  0.001300762 
   18500    10.940635  -0.36949285            0  -0.34080531 0.00089889256 
   18600    10.881769  -0.36930368            0   -0.3407705 0.0015572443 
   18700    10.842142  -0.36915824            0  -0.34072896 0.0024369092 
   18800    10.864369  -0.36928717            0  -0.34079961 0.0018717594 
   18900    10.866295  -0.36912012            0  -0.34062751 0.0028909847 
   19000    10.942638  -0.36937734            0  -0.34068455 0.0014159025 
   19100    10.975542  -0.36956001            0  -0.34078094 0.0013855976 
   19200    11.015222  -0.36966218            0  -0.34077906 0.0013249147 
   19300    11.114122  -0.36999011            0  -0.34084767 0.00044790003 
   19400    11.087439  -0.36993604            0  -0.34086357 0.0032959384 
   19500    11.050606  -0.36994464            0  -0.34096874 0.0055396688 
   19600    11.212767  -0.37029063            0  -0.34088953 0.0027175598 
   19700    11.282409  -0.37047812            0  -0.34089442 0.0027838181 
   19800    11.300937  -0.37053767            0  -0.34090539 0.0017987889 
   19900     11.25593   -0.3704266            0  -0.34091233 0.00098094507 
   20000    11.176701  -0.37024817            0  -0.34094164 0.00094938999 
   20100     11.16642  -0.37020758            0  -0.34092801 0.0018045586 
   20200    11.255746  -0.37041909            0   -0.3409053 0.00073458176 
   20300    11.286424  -0.37045565            0  -0.34086142  0.001889488 
   20400    11.301387  -0.37051717            0   -0.3408837 0.0030124954 
   20500    11.264845  -0.37043604            0  -0.34089839 0.0044537134 
   20600    11.340137  -0.37053174            0  -0.34079667 0.0013774186 
   20700    11.315337  -0.37046031            0  -0.34079026  0.001002847 
   20800    11.227423  -0.37019318            0  -0.34075366 0.0051039953 
   20900    11.295606  -0.37045458            0  -0.34083627 0.0031540111 
   21000    11.280935  -0.37036383            0  -0.34078399 0.0019977252 
   21100     11.29122  -0.37039601            0   -0.3407892 0.0016206159 
   21200    11.327036   -0.3704933            0  -0.34079258 0.00015495128 
   21300    11.238794  -0.37038123            0  -0.34091189 0.0012489646 
   21400    11.273725  -0.37037734            0   -0.3408164 0.00089135294 
   21500    11.342627  -0.37062396            0  -0.34088236 0.00058912674 
   21600    11.457534  -0.37100103            0  -0.34095813 0.0032033057 
   21700    11.595088   -0.3713996            0  -0.34099601 0.0015284844 
   21800    11.490414  -0.37105875            0  -0.34092964 0.0045038176 
   21900     11.53147  -0.37110908            0  -0.34087231 0.0014303236 
   22000    11.458562  -0.37092608            0  -0.34088049 0.0015329217 
   22100    11.374176  -0.37080599            0  -0.34098166 0.0046963955 
   22200     11.45833  -0.37089814            0  -0.34085316 0.0033667606 
   22300    11.537536  -0.37110711            0  -0.34085443 5.8889421e-05 
   22400    11.418151  -0.37080222            0  -0.34086258 0.0036737433 
   22500    11.457547  -0.37094934            0  -0.34090641 0.00023370982 
   22600    11.471127   -0.3709707            0  -0.34089216 0.00019028366 
   22700    11.472573  -0.37095694            0   -0.3408746 0.00084295864 
   22800    11.473629  -0.37093574            0  -0.34085064 0.0016034817 
   22900    11.434189   -0.3707954            0  -0.34081371  0.002564289 
   23000    11.475758  -0.37084911            0  -0.34075842 0.0011274414 
   23100    11.479755  -0.37091101            0  -0.34080985 0.0024979908 
   23200    11.489537  -0.37080167            0  -0.34067486 0.0040788701 
   23300    11.508146  -0.37087984            0  -0.34070423 0.0023460018 
   23400    11.583416  -0.37106549            0  -0.34069251 0.0014673986 
   23500    11.531524   -0.3709217            0  -0.34068479 0.0057939348 
   23600    11.629527  -0.37109979            0   -0.3406059 0.0030732029 
   23700    11.446955   -0.3708311            0  -0.34081593 0.0032264497 
   23800    11.580668  -0.37091937            0   -0.3405536 -0.00015846822 
   23900    11.613036  -0.37105283            0  -0.34060218 -0.00027126029 
   24000     11.62119  -0.37108968            0  -0.34061766 0.0024230756 
   24100     11.61622  -0.37112737            0  -0.34066838 0.0052377469 
   24200    11.788766    -0.371676            0  -0.34076458 0.0023971361 
   24300    11.548505  -0.37105992            0  -0.34077848 0.0086359064 
   24400    11.609283  -0.37125677            0  -0.34081596 0.0035569969 
   24500    11.593891  -0.37122104            0  -0.34082059 0.00063966862 
   24600    11.602094  -0.37123984            0  -0.34081789 0.00098815499 
   24700    11.516695    -0.371111            0  -0.34091298  0.001936092 
   24800    11.597059  -0.37124145            0   -0.3408327 -0.0014318439 
   24900    11.607617  -0.37126684            0   -0.3408304 0.00099102344 
   25000    11.725233  -0.37159865            0  -0.34085381 0.0024080293 
   25100    11.763741  -0.37164521            0   -0.3407994 0.0019885168 
   25200    11.711875  -0.37154857            0  -0.34083876 0.0034853503 
   25300    11.755157  -0.37166603            0  -0.34084273 0.0027347667 
   25400    11.728157   -0.3715197            0   -0.3407672 0.0023406809 
   25500       11.874  -0.37189943            0  -0.34076451 -0.0017586176 
   25600    11.756413  -0.37155096            0  -0.34072436 0.0047010487 
   25700    11.937443  -0.37203532            0  -0.34073405 0.00067692778 
   25800     11.86349   -0.3716958            0  -0.34058844 0.0031852761 
   25900    11.852244  -0.37180966            0  -0.34073179 0.0028339568 
   26000    11.772547  -0.37160228            0  -0.34073338 0.0052343068 
   26100    11.750421  -0.37156893            0  -0.34075804  0.004313231 
   26200    11.835337  -0.37185176            0  -0.34081822 0.00083366954 
   26300    11.744229  -0.37163723            0  -0.34084258 0.0029017253 
   26400    11.756771  -0.37173165            0  -0.34090412 0.0019229362 
   26500    11.801707  -0.37190014            0  -0.34095478 0.00018995204 
   26600    11.734989  -0.37173425            0  -0.34096383 0.0031307402 
   26700    11.799797  -0.37190623            0  -0.34096588 0.0017957815 
   26800     11.75795  -0.37179482            0   -0.3409642  0.002562435 
   26900    11.744454   -0.3718043            0  -0.34100906 0.0041914619 
   27000    11.826841  -0.37206588            0  -0.34105462 0.0033769258 
   27100    11.942108  -0.37232638            0  -0.34101288 0.00060111488 
   27200    11.872272  -0.37211288            0  -0.34098249  0.005396314 
   27300    12.065979  -0.37258784            0  -0.34094953 0.0018570332 
   27400    12.034477  -0.37244805            0  -0.34089235 0.0033469028 
   27500    12.151714  -0.37273917            0  -0.34087605 0.0013112396 
   27600    12.030906  -0.37232915            0   -0.3407828 0.0046188246 
   27700    12.177113  -0.37260993            0  -0.34068022 -0.0010317318 
   27800    12.024205  -0.37229088            0  -0.34076211 0.0028858845 
   27900     12.07755  -0.37235024            0  -0.34068159 0.0024282914 
   28000     12.03707  -0.37230886            0  -0.34074635 0.0014585002 
   28100    11.985412  -0.37219023            0  -0.34076318 0.0011532694 
   28200    12.147931  -0.37266483            0  -0.34081163 -0.00051147738 
   28300     12.14819  -0.37256309            0  -0.34070921 0.0057815725 
   28400    12.368563  -0.37322016            0  -0.34078844 0.0016507976 
   28500    12.416192  -0.37331326            0  -0.34075666 0.0009944126 
   28600    12.426847   -0.3733842            0  -0.34079966 0.00025990449 
   28700    12.354859  -0.37323182            0  -0.34083603 0.0029774402 
   28800    12.317837  -0.37315793            0  -0.34085922 0.0063649983 
   28900    12.224441  -0.37289531            0  -0.34084149 0.0063495341 
   29000    12.234413  -0.37285314            0  -0.34077317 -0.0003495156 
   29100    12.278227   -0.3729676            0  -0.34077276 -0.00066964118 
   29200    12.224626  -0.37286181            0  -0.34080751 0.0036494694 
   29300    12.284697  -0.37285297            0  -0.34064116 0.0014830748 
   29400    12.212683  -0.37264294            0  -0.34061995 0.0028162155 
   29500    12.171894  -0.37261443            0   -0.3406984 0.0028256107 
   29600    12.294877   -0.3729679            0  -0.34072939 -0.00080835106 
   29700    12.291179  -0.37299894            0  -0.34077013 0.0021712767 
   29800    12.180183  -0.37271758            0  -0.34077981 0.0059754652 
   29900    12.255138  -0.37295491            0  -0.34082061 0.0032128471 
   30000    12.330061  -0.37321413            0  -0.34088337 0.00083401137 
   30100     12.31526  -0.37322513            0  -0.34093318 0.0021242735 
   30200    12.230656  -0.37298824            0  -0.34091813 0.0049737625 
   30300     12.17319  -0.37282295            0  -0.34090352 0.0038003532 
   30400    12.200345  -0.37289062            0  -0.34089999 -0.00047877368 
   30500    12.060616  -0.37251585            0   -0.3408916 0.0015178515 
   30600    12.094557  -0.37263461            0  -0.34092136 0.0031822041 
   30700    11.986426  -0.37231654            0  -0.34088683  0.006710516 
   30800     12.23743  -0.37289545            0  -0.34080758 -0.0014086792 
   30900    12.225644  -0.37285299            0  -0.34079602 0.00050941707 
   31000    12.276188  -0.37292135            0  -0.34073185 0.0037564477 
   31100    12.295423  -0.37294822            0  -0.34070829 0.0031509053 
   31200    12.279927  -0.37291522            0  -0.34071591 0.0015203508 
   31300    12.130693  -0.37251668            0  -0.34070868 0.0049500794 
   31400     12.16782  -0.37258144            0  -0.34067609 0.00072348231 
   31500    12.113622  -0.37245839            0  -0.34069516 0.00086028442 
   31600    12.163068  -0.37257338            0  -0.34068049 0.0030992414 
   31700    12.127758  -0.37250692            0  -0.34070662 0.0068266056 
   31800    12.221798  -0.37267418            0   -0.3406273 0.0032415386 
   31900    12.179047  -0.37266165            0  -0.34072686 0.0035047664 
   32000    12.314554   -0.3729079            0   -0.3406178 0.0022356647 
   32100    12.281149  -0.37286546            0  -0.34066295 0.0034080459 
   32200    12.369222  -0.37312898            0  -0.34069554 0.00078345103 
   32300    12.360016   -0.3731306            0  -0.34072129 0.0008842825 
   32400    12.400816  -0.37323783            0  -0.34072154 0.00097950726 
   32500    12.292819  -0.37290205            0  -0.34066894 0.0028923858 
   32600    12.340929  -0.37299733            0  -0.34063807 0.00038483661 
   32700    12.243536  -0.37280336            0  -0.34069948 0.0022432112 
   32800    12.292543  -0.37272835            0  -0.34049596 0.0037398237 
   32900    12.373847  -0.37292546            0  -0.34047989 0.0058143201 
   33000    12.478448  -0.37315675            0  -0.34043691 0.0032948266 
   33100      12.4291  -0.37311972            0  -0.34052927 0.0024696527 
   33200    12.354633  -0.37289993            0  -0.34050474 0.0036550403 
   33300    12.409571  -0.37313783            0  -0.34059858 0.0029428626 
   33400     12.32052  -0.37297779            0  -0.34067204  0.004276745 
   33500    12.375734   -0.3730534            0  -0.34060288 0.00025622503 
   33600    12.294413  -0.37289925            0  -0.34066196 0.0020108541 
   33700    12.283707  -0.37291596            0  -0.34070674 0.0025508498 
   33800    12.290727   -0.3729521            0  -0.34072448 0.0018388922 
   33900    12.335616  -0.37307324            0  -0.34072791 0.0034232292 
   34000     12.41809  -0.37327731            0  -0.34071572 0.0026951028 
   34100    12.468287  -0.37334085            0  -0.34064765 0.0043090867 
   34200    12.470175  -0.37325255            0   -0.3405544  0.004258628 
   34300    12.519526  -0.37336901            0  -0.34054145 0.0019652917 
   34400    12.591294  -0.37350775            0  -0.34049201 0.0025025427 
   34500    12.507671  -0.37345593            0  -0.34065945  0.005847255 
   34600    12.577375  -0.37348549            0  -0.34050624 0.0014436149 
   34700    12.573897  -0.37354421            0  -0.34057408 -0.00055823052 
   34800    12.650692   -0.3737876            0  -0.34061611 0.00037807998 
   34900    12.560584  -0.37356613            0  -0.34063092 0.0046516879 
   35000    12.638461  -0.37375704            0  -0.34061763 0.0010165638 
   35100    12.634504  -0.37375395            0  -0.34062491  0.000648758 
   35200    12.661485  -0.37380503            0  -0.34060524 0.0050948105 
   35300    12.718869  -0.37384616            0  -0.34049591  0.005389804 
   35400    12.598206   -0.3735751            0  -0.34054123 0.0033971311 
   35500    12.538912  -0.37350946            0  -0.34063107 0.0024722797 
   35600    12.565196  -0.37356329            0  -0.34061598 0.0034737247 
   35700    12.523537  -0.37346136            0  -0.34062328 0.0039574533 
   35800    12.607098  -0.37372302            0  -0.34066583 -0.0020850487 
   35900    12.486491  -0.37345354            0   -0.3407126 0.0021399045 
   36000    12.399226  -0.37325322            0   -0.3407411 0.0050888508 
   36100    12.483281  -0.37347781            0  -0.34074529 -0.00016665689 
   36200    12.457756  -0.37339454            0  -0.34072895 0.0019820823 
   36300    12.415144  -0.37326803            0  -0.34071417 0.0044931275 
   36400    12.469849  -0.37347157            0  -0.34077427 0.0013789982 
   36500    12.381935   -0.3732091            0  -0.34074232  0.004236982 
   36600    12.497454  -0.37349109            0   -0.3407214 0.0025173772 
   36700    12.454939  -0.37340139            0  -0.34074319 0.0028001788 
   36800    12.442621  -0.37340735            0  -0.34078145 0.00011675931 
   36900    12.432716  -0.37335229            0  -0.34075235 0.0023471347 
   37000    12.433454  -0.37335636            0  -0.34075449 0.0035476401 
   37100    12.477141  -0.37351969            0  -0.34080327 0.0029743199 
   37200    12.444765  -0.37340201            0  -0.34077048 0.0048709269 
   37300    12.570594  -0.37369776            0   -0.3407363 0.0015937884 
   37400    12.523036  -0.37359214            0  -0.34075538  0.004045621 
   37500    12.507498  -0.37358847            0  -0.34079245 0.0032098272 
   37600    12.393808  -0.37326708            0  -0.34076917 0.0035405303 
   37700    12.389108  -0.37328618            0  -0.34080059 0.0023715033 
   37800    12.429599  -0.37333327            0  -0.34074151 0.0032962226 
   37900    12.418038  -0.37331571            0  -0.34075427 0.0031392603 
   38000     12.33228  -0.37310532            0  -0.34076874 0.0025697519 
   38100    12.416427  -0.37331074            0  -0.34075351 -0.00035677921 
   38200    12.266771   -0.3728953            0   -0.3407305 0.0032077844 
   38300    12.245734  -0.37279394            0  -0.34068429 0.0026462793 
   38400    12.289697  -0.37288511            0  -0.34066018  0.001256651 
   38500    12.345549  -0.37307644            0  -0.34070507 0.00045716413 
   38600    12.429347  -0.37324365            0  -0.34065255  0.004221784 
   38700    12.458909  -0.37335673            0  -0.34068812 0.0058773048 
   38800    12.610606  -0.37374339            0  -0.34067701 0.0010915713 
   38900    12.542719  -0.37354355            0  -0.34065518 0.0032500845 
   39000    12.660107  -0.37384556            0  -0.34064938 -1.9708193e-05 
   39100    12.640612  -0.37390033            0  -0.34075527 0.0023176345 
   39200    12.672335  -0.37391177            0  -0.34068353  0.001384457 
   39300    12.687189  -0.37401763            0  -0.34075044 0.0010485541 
   39400    12.817848  -0.37436143            0  -0.34075164 0.0015386464 
   39500    12.743617  -0.37413501            0  -0.34071986 0.0054320857 
   39600    12.806163  -0.37430798            0  -0.34072883  0.003742075 
   39700    12.874175  -0.37450672            0  -0.34074923 0.0014497575 
   39800    12.859441   -0.3744059            0  -0.34068705 0.0031645302 
   39900    12.951607  -0.37465231            0  -0.34069178 0.0011231801 
   40000    12.980717  -0.37470876            0  -0.34067191 0.00080381573 
   40100    12.934228  -0.37454307            0  -0.34062811 0.0018545298 
   40200    12.965264  -0.37457712            0  -0.34058079 0.0022607705 
   40300    13.011006   -0.3747261            0  -0.34060983 0.0016478043 
   40400    12.853607  -0.37438698            0  -0.34068342 0.0046200449 
   40500    12.925478  -0.37442626            0  -0.34053425 0.0027186209 
   40600    12.928574  -0.37439024            0  -0.34049012 0.0031300138 
   40700     13.01654  -0.37458584            0  -0.34045506 0.0001562697 
   40800    13.060673  -0.37471205            0  -0.34046554 0.0006316437 
   40900    13.010211  -0.37469066            0  -0.34057647 0.0059087701 
   41000    13.126117   -0.3748005            0  -0.34038239  0.002057464 
   41100    13.014146  -0.37453364            0  -0.34040913  0.004381408 
   41200    13.119595  -0.37486363            0  -0.34046263 0.0020648058 
   41300     13.05862  -0.37483006            0  -0.34058894 0.0034401977 
   41400    13.047035  -0.37471594            0   -0.3405052 0.0034617747 
   41500    13.149052  -0.37505323            0  -0.34057498 -0.00097802985 
   41600    13.087245  -0.37495718            0    -0.340641 0.0037357232 
   41700    13.151065  -0.37516043            0  -0.34067691 0.0030494154 
   41800    13.088326  -0.37496737            0  -0.34064835 0.0021558863 
   41900    13.152958  -0.37513643            0  -0.34064794 0.0021293526 
   42000    13.054485  -0.37492453            0  -0.34069425 0.0037040215 
   42100    13.191583  -0.37530254            0  -0.34071277 0.0001452293 
   42200    13.220505  -0.37543588            0  -0.34077028  0.003645042 
   42300    13.201129  -0.37533918            0  -0.34072439 0.0094372346 
   42400    13.289184  -0.37560094            0  -0.34075526 0.0047941598 
   42500    13.225799  -0.37546162            0  -0.34078214 -0.00027613619 
   42600    12.978991  -0.37486582            0   -0.3408335 0.0010476247 
   42700    13.052676  -0.37503916            0  -0.34081363 -0.0015514952 
   42800    13.028099  -0.37497068            0  -0.34080959 0.0012413423 
   42900    13.144931  -0.37525556            0  -0.34078812  0.002501271 
   43000    13.199748  -0.37536075            0  -0.34074957 0.0040634607 
   43100    13.165833  -0.37527154            0  -0.34074929 0.0023724801 
   43200    13.144819  -0.37520135            0   -0.3407342 0.0021672443 
   43300    13.281352    -0.375558            0  -0.34073285 0.00046193352 
   43400    13.169912  -0.37532026            0  -0.34078732 0.0051072815 
   43500    13.294275  -0.37562259            0  -0.34076356 0.0010688891 
   43600    13.146754  -0.37518418            0  -0.34071196 0.0045107693 
   43700    13.297307  -0.37558494            0  -0.34071795 0.0015153985 
   43800    13.338816  -0.37568577            0  -0.34070994 0.0025362052 
   43900    13.200282  -0.37540072            0  -0.34078815 0.0072380994 
   44000    13.428709  -0.37597012            0  -0.34075859 0.00096275503 
   44100    13.164706  -0.37531453            0  -0.34079524 0.0062556144 
   44200    13.084629  -0.37513265            0  -0.34082333 0.0030784845 
   44300    13.012895  -0.37493521            0  -0.34081399 0.00027684051 
   44400    12.929223  -0.37467846            0  -0.34077663 0.00018802291 
   44500    12.858906  -0.37447828            0  -0.34076083 0.00090816526 
   44600    12.856983  -0.37455632            0  -0.34084391  0.001701322 
   44700    12.940698  -0.37474949            0  -0.34081757 0.0024542675 
   44800     13.03454   -0.3750043            0  -0.34082632 0.00031378758 
   44900    12.958325  -0.37480812            0  -0.34082998 0.0024979761 
   45000    13.157187  -0.37531699            0  -0.34081741 0.0013785086 
   45100    12.952512  -0.37479618            0  -0.34083329 0.0069810363 
   45200    12.984445  -0.37483905            0  -0.34079242 -0.00026787913 
   45300    12.764872  -0.37430597            0  -0.34083509 0.0044937428 
   45400    12.813682  -0.37433985            0  -0.34074099 0.0013147009 
   45500     12.76109   -0.3741721            0  -0.34071113 0.0010518159 
   45600    12.744306  -0.37408007            0  -0.34066311 0.0027488679 
   45700    12.787671  -0.37416051            0  -0.34062985 0.0047476029 
   45800    13.037399  -0.37477898            0   -0.3405935 0.0024858087 
   45900    13.008459  -0.37483997            0  -0.34073037 0.0052126485 
   46000    12.900546  -0.37446704            0   -0.3406404 0.0051992289 
   46100    12.971531  -0.37458654            0  -0.34057377 -0.0022815369 
   46200    12.890552  -0.37442741            0  -0.34062697 -8.1104334e-05 
   46300    12.976492  -0.37475135            0  -0.34072558 0.0042346787 
   46400    13.075003  -0.37504247            0  -0.34075839 0.0042753342 
   46500    12.971817  -0.37475637            0  -0.34074285 0.0045707403 
   46600    12.975601  -0.37475471            0  -0.34073127 0.0015184622 
   46700    12.858646  -0.37441742            0  -0.34070065 0.0034601522 
   46800    13.011617  -0.37478267            0   -0.3406648 -0.0010155762 
   46900      12.8627  -0.37445353            0  -0.34072614 0.0052921074 
   47000    12.782841  -0.37434574            0  -0.34082774 0.0070559716 
   47100    13.000509  -0.37477787            0  -0.34068912 0.0015105085 
   47200    12.891667  -0.37449603            0  -0.34069268 0.0044928232 
   47300    12.923218   -0.3745966            0  -0.34071052 0.0030545198 
   47400    12.811622  -0.37440376            0   -0.3408103 0.0011619786 
   47500    12.764236  -0.37418345            0  -0.34071424 0.00035913814 
   47600    12.780248  -0.37422382            0  -0.34071262 0.00030641638 
   47700    12.792262   -0.3742391            0   -0.3406964 0.0021246336 
   47800     12.98514  -0.37469978            0  -0.34065133 0.00057890144 
   47900    12.917937    -0.374598            0  -0.34072576 0.0063724421 
   48000    12.943489  -0.37464328            0  -0.34070405 0.0063367576 
   48100    13.220521  -0.37518575            0   -0.3405201 -0.0028036874 
   48200    13.072681  -0.37490028            0  -0.34062229  0.002209639 
   48300    13.097045  -0.37488613            0  -0.34054425 0.0051793876 
   48400    13.168872  -0.37498893            0  -0.34045872 0.0027517347 
   48500    13.154809  -0.37513132            0  -0.34063798 0.0023761177 
   48600    13.157903  -0.37502617            0  -0.34052472 0.00027074672 
   48700    13.159229  -0.37523284            0  -0.34072791 0.0012287761 
   48800    13.202812  -0.37531552            0  -0.34069631 0.0024802356 
   48900    13.085391  -0.37498362            0   -0.3406723 0.0053380416 
   49000    13.032803  -0.37490198            0  -0.34072855 0.0047595937 
   49100    13.002551  -0.37483455            0  -0.34074045 -0.0017233614 
   49200    12.907722  -0.37457946            0  -0.34073401 -3.5809368e-06 
   49300    12.756934  -0.37430158            0  -0.34085151 0.0071878796 
   49400    12.918512   -0.3746597            0  -0.34078596 0.0018723115 
   49500    12.976569  -0.37473755            0  -0.34071157 -0.001142582 
   49600    12.999973  -0.37486119            0  -0.34077385 2.4774088e-05 
   49700    13.176802  -0.37531252            0  -0.34076151  0.000554007 
   49800    13.124972  -0.37517942            0  -0.34076432 0.0064151761 
   49900    13.089532  -0.37510602            0  -0.34078384 0.0073842125 
   50000    13.219795  -0.37542384            0   -0.3407601 0.0019198173 
   50100    13.234236  -0.37556357            0  -0.34086197 0.0017034531 
   50200    13.278135    -0.375549            0  -0.34073229 0.0042129896 
   50300    13.395678  -0.37587911            0  -0.34075419 0.00068366131 
   50400    13.288259  -0.37554699            0  -0.34070373 0.0022940445 
   50500     13.25717  -0.37545175            0  -0.34069001 0.00092964376 
   50600    13.130379  -0.37512278            0   -0.3406935 0.0050129547 
   50700     13.25773   -0.3754198            0  -0.34065659 0.00054102076 
   50800    13.195263  -0.37525679            0  -0.34065738  0.003359787 
   50900     13.27422  -0.37548019            0  -0.34067374 0.0021903403 
   51000    13.419946  -0.37580343            0  -0.34061487 0.0024187089 
   51100    13.440231  -0.37585963            0  -0.34061789 0.0069174015 
   51200     13.54416  -0.37606798            0  -0.34055372  0.003233645 
   51300    13.477877  -0.37596314            0  -0.34062268 0.0012473222 
   51400    13.417757  -0.37577645            0  -0.34059363 0.0010195607 
   51500      13.3637  -0.37557312            0  -0.34053205 0.0033180148 
   51600    13.518036  -0.37585335            0  -0.34040759 0.00056193116 
   51700     13.43547  -0.37590408            0  -0.34067482 0.0043171136 
   51800    13.574118  -0.37609239            0  -0.34049958 0.0046567263 
   51900    13.529121  -0.37599663            0  -0.34052181  0.004684919 
   52000    13.346759  -0.37565149            0  -0.34065483 0.0030416467 
   52100     13.26054  -0.37543906            0  -0.34066848  0.001769372 
   52200    13.261363  -0.37539767            0  -0.34062493 0.00077825955 
   52300     13.18826  -0.37522708            0  -0.34064603 0.0028624687 
   52400    13.336203  -0.37558978            0  -0.34062081 0.0014840476 
   52500    13.444532  -0.37582477            0  -0.34057175 0.0024673139 
   52600    13.369848  -0.37558911            0  -0.34053191 0.0046904938 
   52700    13.306983   -0.3754206            0  -0.34052825 0.00057679906 
   52800    13.111792  -0.37484514            0   -0.3404646 0.0017820235 
   52900     13.13626  -0.37483685            0  -0.34039215 0.0013051995 
   53000    13.089169  -0.37488206            0  -0.34056084 0.0044229993 
   53100    13.169305   -0.3750123            0  -0.34048095 0.0027516706 
   53200    13.254137  -0.37525319            0   -0.3404994 -0.001408519 
   53300    13.242747  -0.37535422            0   -0.3406303 0.0036492729 
   53400    13.389197  -0.37570344            0  -0.34059551 0.0058840591 
   53500    13.472288   -0.3759249            0  -0.34059909 0.0016236068 
   53600    13.354972  -0.37561665            0  -0.34059847 0.0048819144 
   53700    13.339638  -0.37559321            0  -0.34061523 0.0063272248 
   53800     13.39505  -0.37568076            0  -0.34055748 0.0030669809 
   53900    13.318211  -0.37558809            0   -0.3406663 0.0030965366 
   54000    13.492802  -0.37587271            0  -0.34049311 -0.0007205035 
   54100    13.384428  -0.37552539            0  -0.34042996 0.0056998757 
   54200    13.352581   -0.3755272            0  -0.34051528 0.0043525769 
   54300    13.462307  -0.37575103            0  -0.34045139 -0.0011662372 
   54400    13.500308  -0.37577793            0  -0.34037865 0.00015874417 
   54500    13.449273  -0.37564307            0  -0.34037762 0.0041672732 
   54600    13.523517  -0.37588497            0  -0.34042484 0.00034478282 
   54700    13.531148  -0.37586913            0  -0.34038899 -0.0009275518 
   54800    13.418229  -0.37562599            0  -0.34044193 0.0050114296 
   54900    13.419669  -0.37557958            0  -0.34039175 0.0049664659 
   55000    13.383165  -0.37551534            0  -0.34042322 0.0020949054 
   55100    13.358667  -0.37549369            0  -0.34046581  0.002494761 
   55200    13.282486  -0.37535709            0  -0.34052897 0.0010719252 
   55300    13.308914  -0.37538861            0  -0.34049119 -0.00018709951 
   55400    13.396534  -0.37560312            0  -0.34047595 0.0025755068 
   55500    13.373734  -0.37560413            0  -0.34053674 0.0068167755 
   55600    13.396677  -0.37565704            0  -0.34052949 0.0068956071 
   55700    13.403459  -0.37572871            0  -0.34058338 0.0025783796 
   55800    13.516282  -0.37589271            0  -0.34045155 -0.00063539538 
   55900    13.479349   -0.3757506            0  -0.34040628 0.0018498461 
   56000    13.391949  -0.37557077            0  -0.34045562 0.0049954859 
   56100      13.4818  -0.37576691            0  -0.34041616   0.00242209 
   56200    13.614195  -0.37610176            0  -0.34040386 0.0027843266 
   56300    13.544482  -0.37598174            0  -0.34046663 0.0075268337 
   56400    13.455654  -0.37569353            0  -0.34041134 0.0047190526 
   56500    13.444036  -0.37576265            0  -0.34051093 0.0013171034 
   56600    13.333744  -0.37536684            0  -0.34040432 0.0039452934 
   56700    13.435607  -0.37559737            0  -0.34036774 -0.00021382431 
   56800     13.39706  -0.37540945            0   -0.3402809 0.0037028253 
   56900    13.460026   -0.3756496            0  -0.34035594 0.0036294819 
   57000    13.448633  -0.37548086            0  -0.34021708  0.003592019 
   57100    13.331397  -0.37526524            0  -0.34030887 0.0054817339 
   57200     13.47381  -0.37550874            0  -0.34017894 0.0023230204 
   57300    13.422584  -0.37556522            0  -0.34036974 0.00050477158 
   57400    13.326061  -0.37529394            0  -0.34035156 0.0032672949 
   57500    13.318999  -0.37535918            0  -0.34043531 0.0026368757 
   57600      13.4437  -0.37570097            0  -0.34045013 0.00032763265 
   57700    13.254612  -0.37532667            0  -0.34057164 0.0051671883 
   57800    13.261664   -0.3753182            0  -0.34054468  0.001729683 
   57900    13.231696  -0.37519318            0  -0.34049824 0.0028046593 
   58000    13.281391  -0.37533029            0  -0.34050504 0.00024114373 
   58100    13.133745  -0.37491568            0  -0.34047757 0.0021201361 
   58200    13.178025  -0.37509031            0  -0.34053609 -6.0187253e-05 
   58300    13.292137  -0.37518431            0  -0.34033088 -0.0011078314 
   58400    13.259036  -0.37512441            0  -0.34035778 0.0036789424 
   58500    13.354587  -0.37538581            0  -0.34036863 0.0038636719 
   58600    13.485769  -0.37564873            0  -0.34028757 0.0017866811 
   58700    13.429247  -0.37551794            0    -0.340305 0.0085830377 
   58800    13.575302  -0.37598157            0  -0.34038565 0.0035914857 
   58900    13.454083  -0.37563542            0  -0.34035735 0.0040841336 
   59000    13.344676   -0.3754012            0  -0.34041001 0.0030977505 
   59100    13.439176  -0.37552387            0  -0.34028489 -0.0015465903 
   59200    13.423398  -0.37552278            0  -0.34032517  0.002381451 
   59300    13.548103  -0.37578312            0  -0.34025852 0.0045904524 
   59400     13.62874  -0.37593841            0  -0.34020238 0.0050574942 
   59500    13.718457  -0.37600009            0   -0.3400288 0.0023162413 
   59600    13.627661  -0.37587948            0  -0.34014627 0.0025835888 
   59700    13.746269   -0.3758515            0  -0.33980729 0.0024219644 
   59800    13.798061   -0.3760687            0  -0.33988868 0.0040004078 
   59900    13.894252  -0.37624265            0  -0.33981041 0.0046163968 
   60000      13.8377  -0.37619875            0   -0.3399148 0.0074489915 
   60100    13.910225  -0.37642476            0  -0.33995064  0.004367136 
   60200    13.793216  -0.37618977            0  -0.34002246 0.0013064519 
   60300    13.553151  -0.37578929            0  -0.34025146 0.0012343743 
   60400    13.675314  -0.37598501            0  -0.34012685 -0.0013206193 
   60500     13.79952  -0.37638429            0  -0.34020045 0.00050105143 
   60600     13.84221  -0.37661564            0  -0.34031986 0.0064740704 
   60700    13.963112  -0.37692578            0  -0.34031298 0.0026455165 
   60800    13.853555  -0.37661371            0  -0.34028818 0.0016054469 
   60900    13.789252  -0.37653994            0  -0.34038302 0.0060527736 
   61000    13.933614  -0.37690987            0  -0.34037441 0.0049805457 
   61100    14.039812   -0.3771525            0  -0.34033859 0.0044835987 
   61200    14.013018  -0.37714983            0  -0.34040617 0.0037922973 
   61300    14.039108  -0.37714297            0   -0.3403309 0.00021160253 
   61400    13.795092  -0.37654613            0   -0.3403739 0.0036173718 
   61500    13.729025  -0.37643154            0  -0.34043254 0.0066448966 
   61600    13.961939  -0.37701895            0  -0.34040922 0.0047502759 
   61700    13.930621  -0.37688986            0  -0.34036225 0.0045041593 
   61800    13.931593   -0.3768172            0  -0.34028705 -0.00067144436 
   61900    13.836629  -0.37652297            0  -0.34024182 0.0021198426 
   62000    13.899228  -0.37665098            0  -0.34020569 0.0033769672 
   62100    13.943196  -0.37664534            0  -0.34008477 0.0013337695 
   62200    13.810226  -0.37632313            0  -0.34011121 0.0041866166 
   62300    13.848924  -0.37634101            0  -0.34002763 0.0017674877 
   62400    13.871035  -0.37635543            0  -0.33998407 0.0010545249 
   62500     13.86065  -0.37642361            0  -0.34007947 0.0022312669 
   62600    13.962823  -0.37676813            0  -0.34015609 0.0009180399 
   62700    13.971672  -0.37681586            0  -0.34018061 0.0034141306 
   62800    13.946225  -0.37685133            0  -0.34028281 0.0047272768 
   62900    13.869831  -0.37673151            0  -0.34036331 0.0045380616 
   63000    13.915392  -0.37688568            0  -0.34039801 0.00034146445 
   63100    13.720013  -0.37645617            0   -0.3404808 0.0050644579 
   63200    13.785667   -0.3766612            0  -0.34051368 0.0022402965 
   63300    13.752425   -0.3765881            0  -0.34052774 0.0019059986 
   63400    13.686307    -0.376438            0  -0.34055101 0.0020838201 
   63500    13.826387  -0.37678523            0  -0.34053094 0.0016099091 
   63600    13.889679  -0.37686801            0  -0.34044777 0.0022931754 
   63700    13.981272  -0.37704858            0  -0.34038817 0.00036649995 
   63800    13.876324  -0.37672075            0  -0.34033552 0.0053788719 
   63900    14.034256  -0.37718423            0  -0.34038488 0.0035879928 
   64000    14.088535  -0.37721139            0  -0.34026972 0.0062846426 
   64100    14.138399  -0.37731039            0  -0.34023797  0.004268308 
   64200    13.997444  -0.37680726            0  -0.34010444 0.0043919571 
   64300    14.071029  -0.37691533            0  -0.34001956 6.5895591e-05 
   64400    14.008713  -0.37689586            0  -0.34016349 -0.00078336112 
   64500    14.010322  -0.37684299            0   -0.3401064 0.0019431576 
   64600    14.122933  -0.37723649            0  -0.34020462 0.0032422709 
   64700    14.264294  -0.37767432            0  -0.34027179 0.0012620867 
   64800    14.112259  -0.37718399            0  -0.34018011 0.0053460977 
   64900    14.162423  -0.37727152            0  -0.34013611 -8.7638574e-05 
   65000      14.0422  -0.37713584            0  -0.34031567 0.0014715542 
   65100    14.202047  -0.37741246            0  -0.34017315 0.0016059675 
   65200    14.202829   -0.3774648            0  -0.34022344 0.0057436406 
   65300    14.132203  -0.37729119            0  -0.34023502 0.0054547915 
   65400    14.134999  -0.37736992            0  -0.34030642 0.00086855929 
   65500    14.030819  -0.37693342            0  -0.34014309 0.0033070624 
   65600    14.104605  -0.37708373            0  -0.34009992 -0.00053517323 
   65700    14.060206  -0.37704993            0  -0.34018254 0.0044968021 
   65800     14.38512  -0.37780991            0  -0.34009056 0.0014298262 
   65900    14.182569  -0.37726011            0  -0.34007187 0.0079777039 
   66000    14.204989  -0.37741217            0  -0.34016514 0.00075885439 
   66100    14.007203  -0.37702318            0  -0.34029477 0.0019947228 
   66200    13.935209  -0.37682442            0  -0.34028478 0.0017319993 
   66300    14.103304  -0.37724161            0  -0.34026121 -0.0011253468 
   66400    14.180288  -0.37740522            0  -0.34022296 0.0023078229 
   66500    14.120847  -0.37724969            0   -0.3402233 0.0053046327 
   66600    14.131368  -0.37727167            0  -0.34021768 0.0035632574 
   66700    14.220639  -0.37738803            0  -0.34009997 0.0015402734 
   66800    14.218511  -0.37726414            0  -0.33998166 0.00090510647 
   66900     14.23688  -0.37735289            0  -0.34002224 -0.00014683981 
   67000    14.027293  -0.37685839            0   -0.3400773  0.009036814 
   67100    14.423509  -0.37767474            0  -0.33985473 0.00027536984 
   67200    14.487337  -0.37786189            0  -0.33987452 0.0016675159 
   67300    14.604581  -0.37824718            0  -0.33995238 0.0033812928 
   67400    14.508514  -0.37795369            0  -0.33991079 0.0053089833 
   67500    14.469628    -0.377896            0  -0.33995506 0.0001306485 
   67600    14.391845  -0.37787732            0  -0.34014034 0.0020341374 
   67700    14.397715  -0.37777161            0  -0.34001923 0.0043273204 
   67800    14.542609  -0.37822963            0  -0.34009733 0.00030342202 
   67900    14.401936  -0.37778786            0  -0.34002442 0.0079523385 
   68000    14.592129  -0.37837833            0  -0.34011618 0.00095590068 
   68100      14.4939  -0.37812501            0  -0.34012043 0.0029133399 
   68200    14.403159  -0.37792043            0  -0.34015378 0.0056608679 
   68300    14.429993  -0.37794122            0  -0.34010421 -6.0324422e-05 
   68400    14.303495  -0.37760258            0  -0.34009726 -5.5519142e-05 
   68500    14.172025  -0.37736522            0  -0.34020462 0.0056801796 
   68600    14.397596  -0.37775222            0  -0.34000016 0.0023870641 
   68700    14.297818  -0.37765567            0  -0.34016523 0.0023931812 
   68800    14.456303  -0.37796519            0  -0.34005919 0.00098779069 
   68900    14.578181   -0.3783445            0  -0.34011893 0.0046957536 
   69000    14.497037   -0.3782667            0  -0.34025389 0.0047304376 
   69100    14.316194  -0.37788131            0   -0.3403427 -7.1112391e-07 
   69200    14.287921  -0.37781057            0  -0.34034609  0.001942553 
   69300    14.289856  -0.37777723            0  -0.34030767 0.0051591846 
   69400    14.296833   -0.3778116            0  -0.34032375  0.001379075 
   69500    14.270279  -0.37777177            0  -0.34035355 0.0017591757 
   69600    14.297525  -0.37775005            0  -0.34026039 0.0044639866 
   69700    14.437339  -0.37812627            0     -0.34027 0.0029620233 
   69800    14.355486    -0.377887            0  -0.34024535 0.0056502919 
   69900    14.505386  -0.37822063            0  -0.34018593 0.0012390762 
   70000    14.501157   -0.3781835            0  -0.34015989 0.0019039926 
   70100    14.310874  -0.37763744            0  -0.34011277 0.0063372221 
   70200    14.465477  -0.37799895            0   -0.3400689 0.0010303671 
   70300    14.316807  -0.37774996            0  -0.34020973 0.0048415487 
   70400    14.319849  -0.37769549            0  -0.34014729 0.0036406684 
   70500     14.28881  -0.37766162            0   -0.3401948 0.0022737631 
   70600    14.252656  -0.37763709            0  -0.34026508 0.0027117314 
   70700    14.273498  -0.37760221            0  -0.34017555  0.002948069 
   70800    14.384108  -0.37794053            0  -0.34022384 0.0032023113 
   70900    14.633341  -0.37855751            0   -0.3401873 0.0044561818 
   71000    14.536608  -0.37835847            0   -0.3402419 0.0050643116 
   71100    14.521465  -0.37817496            0   -0.3400981 -0.0025498252 
   71200    14.465605  -0.37791879            0   -0.3399884 -0.0013360184 
   71300    14.496756  -0.37820982            0  -0.34019775 0.0037922724 
   71400    14.669097  -0.37853589            0  -0.34007192 0.0034359711 
   71500    14.464906  -0.37804798            0  -0.34011942  0.003579964 
   71600    14.334997   -0.3776745            0  -0.34008658 0.0023046237 
   71700    14.396896   -0.3778358            0  -0.34008558 0.0013530462 
   71800    14.305986  -0.37773019            0  -0.34021834 0.0073515908 
   71900    14.400547  -0.37800104            0  -0.34024124  0.001734222 
   72000    14.124546  -0.37739256            0  -0.34035646 0.0072987639 
   72100    14.179685  -0.37752616            0  -0.34034549 0.0042856932 
   72200    14.112631  -0.37743344            0  -0.34042858 0.0020059792 
   72300    14.028496  -0.37714604            0   -0.3403618  0.002103242 
   72400    14.261958  -0.37766529            0  -0.34026889 0.00026108141 
   72500    14.263415  -0.37760431            0  -0.34020409  0.003202174 
   72600    14.272986  -0.37770182            0  -0.34027649 0.0036021148 
   72700    14.388385  -0.37793371            0   -0.3402058  0.001064739 
   72800     14.35423   -0.3777999            0  -0.34016155  0.004715798 
   72900    14.410648  -0.37808767            0  -0.34030139 0.0029906086 
   73000    14.359225  -0.37792771            0  -0.34027626  0.002817952 
   73100    14.507709  -0.37820919            0  -0.34016839 -0.0010637643 
   73200    14.473814  -0.37812366            0  -0.34017174 0.0037834142 
   73300    14.345394  -0.37793045            0  -0.34031527 0.0054127912 
   73400    14.390317  -0.37797953            0  -0.34024655 0.00092461898 
   73500    14.336336  -0.37788979            0  -0.34029836 0.0030551055 
   73600    14.366977  -0.37799715            0  -0.34032537 0.0042831047 
   73700    14.456288  -0.37823145            0  -0.34032549 0.0030290499 
   73800    14.382208  -0.37812405            0  -0.34041234 0.0074547471 
   73900    14.622992  -0.37871334            0  -0.34037027 -0.00033287567 
   74000    14.432582  -0.37824684            0  -0.34040304 0.0042604388 
   74100    14.418156  -0.37822281            0  -0.34041683 0.0030537436 
   74200      14.4099  -0.37820142            0  -0.34041709 0.0023744812 
   74300    14.457798  -0.37838283            0  -0.34047291 0.0034489926 
   74400    14.415387  -0.37826093            0  -0.34046222  0.006696443 
   74500    14.613517  -0.37868219            0  -0.34036396 0.0014052931 
   74600    14.414591  -0.37822643            0   -0.3404298 0.0060390232 
   74700    14.354489  -0.37794567            0  -0.34030664 0.0015690473 
   74800    14.344793  -0.37800526            0  -0.34039165 -0.0011878244 
   74900    14.293731  -0.37784034            0  -0.34036062 0.0044098562 
   75000    14.404622  -0.37801926            0  -0.34024878 0.0035749929 
   75100    14.329097   -0.3779058            0  -0.34033335 0.0056985118 
   75200     14.21376  -0.37752987            0  -0.34025984 0.0094942009 
   75300    14.322283  -0.37794861            0  -0.34039402 0.0016445855 
   75400    14.307384  -0.37785419            0  -0.34033867 0.00040736833 
   75500    14.335927  -0.37787507            0  -0.34028471 0.0013946911 
   75600    14.287748  -0.37778221            0  -0.34031818 0.0048943323 
   75700    14.464124  -0.37815399            0  -0.34022748 0.00072641536 
   75800    14.358525  -0.37793742            0   -0.3402878 0.0068106348 
   75900    14.608641  -0.37846164            0  -0.34015619 0.0072093674 
   76000    14.563457  -0.37833707            0   -0.3401501 0.0086252191 
   76100    14.453757  -0.37798325            0  -0.34008392 0.0014728363 
   76200    14.309079  -0.37780647            0  -0.34028651 0.00062953505 
   76300    14.343765  -0.37786945            0  -0.34025854 0.0025267711 
   76400    14.234267   -0.3776919            0  -0.34036811 0.0037972865 
   76500    14.257406  -0.37773182            0  -0.34034735 -0.00023174597 
   76600    14.174807  -0.37744145            0  -0.34027357 0.0021624633 
   76700    14.240797  -0.37755421            0  -0.34021329 0.00079267184 
   76800    14.303958  -0.37787522            0  -0.34036868 0.0032648826 
   76900    14.412644  -0.37800932            0   -0.3402178  0.003176914 
   77000     14.48058  -0.37823129            0  -0.34026164 0.0018161492 
   77100    14.285977  -0.37784648            0   -0.3403871 0.0051469103 
   77200    14.148944  -0.37747131            0  -0.34037124  0.003789761 
   77300    14.161476  -0.37742519            0  -0.34029226 0.0016361708 
   77400    14.227274  -0.37758594            0  -0.34028048 0.00072710813 
   77500    14.090444  -0.37722254            0  -0.34027587 0.0059326839 
   77600    14.284239  -0.37775675            0  -0.34030192 0.0011060605 
   77700    14.162837  -0.37740744            0  -0.34027094 0.0017134632 
   77800    14.061422  -0.37724814            0  -0.34037756 0.0037391402 
   77900    14.309756  -0.37789949            0  -0.34037776  0.001996599 
   78000     14.22032   -0.3775943            0  -0.34030708 0.0063831568 
   78100     14.20012  -0.37761482            0  -0.34038056 0.0011289229 
   78200    14.249612  -0.37760925            0  -0.34024522 -0.00070243605 
   78300    14.010882   -0.3770433            0  -0.34030524  0.010839707 
   78400    14.175918  -0.37738103            0  -0.34021023 0.0025215267 
   78500    14.111299  -0.37737095            0  -0.34036959 -0.00032461753 
   78600    14.183745  -0.37749554            0  -0.34030422 0.0027105321 
   78700    14.234271   -0.3777403            0   -0.3404165 0.0057693905 
   78800    14.427855  -0.37820513            0  -0.34037373 0.0019164176 
   78900    14.349361  -0.37802003            0  -0.34039445 0.0054784444 
   79000     14.20819  -0.37770819            0  -0.34045277 0.0054112932 
   79100    14.058215  -0.37732351            0  -0.34046134 0.00091273309 
   79200    14.078529  -0.37725302            0  -0.34033759 -0.0026538239 
   79300    14.094085  -0.37715335            0  -0.34019713 0.0013758091 
   79400    14.409474  -0.37792751            0   -0.3401443 0.00072676633 
   79500    14.586715   -0.3784574            0  -0.34020945 0.0041695667 
   79600    14.459741  -0.37823877            0  -0.34032376 0.0097569997 
   79700    14.647649   -0.3786509            0  -0.34024317 -0.0011172088 
   79800    14.462798  -0.37827091            0  -0.34034788 -0.0012005468 
   79900    14.286755  -0.37786113            0   -0.3403997 0.0065342552 
   80000    14.237509  -0.37774607            0  -0.34041378 0.0081335258 
   80100    14.424935  -0.37823948            0  -0.34041573 0.0024903542 
   80200    14.481117  -0.37830333            0  -0.34033226 0.0045322327 
   80300    14.541573  -0.37840538            0  -0.34027579 0.0029316115 
   80400    14.416244  -0.37805694            0  -0.34025598 -0.00030332072 
   80500    14.294756  -0.37785926            0  -0.34037685 0.0033544957 
   80600    14.489298   -0.3783218            0  -0.34032929 0.00068541828 
   80700    14.348391  -0.37788784            0   -0.3402648  0.007193077 
   80800    14.716992  -0.37879371            0  -0.34020416 0.0017514783 
   80900    14.722167  -0.37868092            0   -0.3400778 0.0069466054 
   81000    14.804733   -0.3789653            0  -0.34014568 0.0036215212 
   81100    14.719125  -0.37882422            0  -0.34022908 0.0016753341 
   81200    14.659358  -0.37861066            0  -0.34017223   0.00333457 
   81300    14.639054  -0.37871726            0  -0.34033207 0.0018347654 
   81400    14.551402  -0.37865008            0  -0.34049472 0.0044941185 
   81500     14.66582  -0.37888352            0  -0.34042814 -0.00035249308 
   81600    14.553238  -0.37854067            0   -0.3403805 0.0021080721 
   81700    14.529526  -0.37846779            0  -0.34036979 0.0032695252 
   81800    14.584206  -0.37867025            0  -0.34042887 0.0012692786 
   81900    14.605875  -0.37862594            0  -0.34032775 0.0021276492 
   82000    14.549059  -0.37841748            0  -0.34026826 0.0033276347 
   82100    14.407127  -0.37796619            0  -0.34018913 0.0049663056 
   82200    14.385831   -0.3781278            0  -0.34040659  0.003989247 
   82300    14.450183  -0.37796884            0  -0.34007889 0.0042691739 
   82400    14.316227  -0.37756111            0  -0.34002241 0.0040589907 
   82500    14.298935  -0.37749834            0  -0.34000497 0.00094176827 
   82600    14.364087   -0.3776199            0   -0.3399557 0.0018365139 
   82700    14.271514  -0.37739124            0  -0.33996978   0.00587734 
   82800    14.510616  -0.37797949            0  -0.33993107 -0.0024417068 
   82900      14.3215  -0.37765507            0  -0.34010254 0.0038325024 
   83000    14.325224  -0.37770033            0  -0.34013803 0.0045314699 
   83100    14.333123  -0.37774676            0  -0.34016375 0.0024115395 
   83200    14.246231  -0.37766327            0   -0.3403081 0.0036042781 
   83300    14.419961  -0.37802895            0  -0.34021825 -0.00099792573 
   83400    14.400811  -0.37800044            0  -0.34023995 0.00096738169 
   83500    14.559452  -0.37848616            0  -0.34030969  0.002245213 
   83600    14.637736  -0.37871776            0  -0.34033602 0.0019463433 
   83700    14.369273  -0.37801233            0  -0.34033454 0.0073191607 
   83800    14.672214  -0.37876429            0  -0.34029215 0.00034376424 
   83900    14.740768  -0.37885249            0   -0.3402006  0.001697233 
   84000     14.61844  -0.37854221            0  -0.34021107 0.0078150852 
   84100    14.753849  -0.37883412            0  -0.34014792  0.001691161 
   84200    14.524438  -0.37838294            0  -0.34029828 0.0021267846 
   84300    14.646185  -0.37867182            0  -0.34026793 -0.0010699684 
   84400    14.610101  -0.37858671            0  -0.34027744 0.0030603272 
   84500    14.573048  -0.37853292            0   -0.3403208 0.0055993715 
   84600    14.582836  -0.37861273            0  -0.34037495 0.0016638117 
   84700    14.439939  -0.37825286            0  -0.34038977 0.0026483435 
   84800    14.563926  -0.37851087            0  -0.34032267 0.0020774307 
   84900     14.59826  -0.37850821            0  -0.34022998 0.0030458626 
   85000    14.579698  -0.37850316            0  -0.34027361 0.0015844478 
   85100    14.562212  -0.37829615            0  -0.34011245 0.0029739659 
   85200    14.602677  -0.37836513            0  -0.34007532 0.0034502615 
   85300    14.808982  -0.37894549            0  -0.34011473 0.00014795063 
   85400    14.754452  -0.37883297            0   -0.3401452 0.0029942137 
   85500    14.697994  -0.37879161            0  -0.34025187 0.0032222627 
   85600    14.728945  -0.37882173            0  -0.34020083  0.002815654 
   85700    14.869915  -0.37917966            0  -0.34018913 0.0031294059 
   85800    14.842827  -0.37907503            0  -0.34015552 0.0036261371 
   85900    14.728501  -0.37889242            0  -0.34027269 0.00085496169 
   86000     14.77407  -0.37896013            0  -0.34022091 0.00051229737 
   86100    14.907975  -0.37933962            0  -0.34024928 0.0038774109 
   86200     14.87959  -0.37927437            0  -0.34025846 0.0037033428 
   86300    14.657177  -0.37871125            0  -0.34027854  0.003148328 
   86400    14.550453  -0.37840474            0  -0.34025187 -0.00038681062 
   86500    14.611322  -0.37857305            0  -0.34026057 -0.0010195008 
   86600     14.54144  -0.37838677            0  -0.34025753 0.0064370104 
   86700    14.741962  -0.37886763            0  -0.34021261 0.0015634331 
   86800    14.653563  -0.37870059            0  -0.34027736 0.0051233743 
   86900    14.671211   -0.3787607            0  -0.34029119 0.0040888076 
   87000    14.678605  -0.37882672            0  -0.34033782 0.0028685417 
   87100    14.543692   -0.3784601            0  -0.34032495 0.0055694382 
   87200    14.612579   -0.3785731            0  -0.34025732 0.00023850854 
   87300    14.686893  -0.37872249            0  -0.34021186 0.0010631138 
   87400    14.868677  -0.37930335            0  -0.34031606 0.0024755383 
   87500    15.152259  -0.37995018            0   -0.3402193 0.0025327184 
   87600    15.104217   -0.3798724            0   -0.3402675 0.0073926958 
   87700    15.007808  -0.37949699            0  -0.34014488  0.004168381 
   87800    15.020175  -0.37944352            0  -0.34005899 -0.00066426044 
   87900    15.122787  -0.37971282            0  -0.34005923 0.00076713078 
   88000    15.152992  -0.37975042            0  -0.34001763 0.0079984791 
   88100    15.389574   -0.3803671            0  -0.34001396 0.0028726323 
   88200    15.221293  -0.37986838            0  -0.33995649 0.0046353062 
   88300    15.207014   -0.3798595            0  -0.33998506 -0.00027567312 
   88400    14.963816  -0.37923809            0  -0.34000134 0.0038829376 
   88500    14.999301  -0.37926317            0  -0.33993337 0.0020069507 
   88600    15.032224  -0.37944321            0  -0.34002709 0.0023936936 
   88700    15.154934  -0.37972535            0  -0.33998746 0.0020974424 
   88800    15.105638  -0.37966899            0  -0.34006036 0.0057024137 
   88900    15.200786   -0.3798835            0  -0.34002538 0.0046685075 
   89000    15.172214  -0.37989723            0  -0.34011403 0.0022641694 
   89100    15.054362  -0.37948338            0  -0.34000921 0.0042605729 
   89200     15.05279  -0.37954791            0  -0.34007786 0.0018424667 
   89300    14.997414  -0.37936659            0  -0.34004174 0.0035271822 
   89400    15.114681  -0.37973528            0  -0.34010295 0.0024912634 
   89500    15.070763   -0.3797049            0  -0.34018772 0.0019056145 
   89600    15.169106  -0.37998088            0  -0.34020583 -0.0014393567 
   89700    15.075429  -0.37985454            0  -0.34032513  0.003422879 
   89800     14.90436  -0.37943498            0  -0.34035413  0.005895375 
   89900    14.918397  -0.37948066            0    -0.340363 -0.00067590626 
   90000    14.888807  -0.37939069            0  -0.34035062 0.00090107223 
   90100    15.068145  -0.37979797            0  -0.34028766  0.002215439 
   90200    15.065929  -0.37972051            0  -0.34021601 0.0048791119 
   90300    14.930106  -0.37943368            0  -0.34028532 0.0045215831 
   90400    14.855952  -0.37914683            0  -0.34019291 0.0028962661 
   90500    14.887353  -0.37910203            0  -0.34006577 -0.000401914 
   90600    14.874518   -0.3791619            0   -0.3401593 0.0022797067 
   90700    14.829649   -0.3790442            0  -0.34015924 0.0047935978 
   90800     14.94868  -0.37932624            0  -0.34012917 0.0016249926 
   90900    15.018056  -0.37954689            0  -0.34016792 0.00014620371 
   91000    15.053366  -0.37957922            0  -0.34010766  0.002419536 
   91100    15.036091  -0.37953816            0  -0.34011189 0.0059866914 
   91200     15.18574  -0.37981862            0  -0.33999995  0.003462596 
   91300    15.075791  -0.37969471            0  -0.34016435  0.006155389 
   91400    15.167759  -0.37982679            0  -0.34005528  0.002819204 
   91500    14.978844  -0.37935841            0  -0.34008225 0.0034620859 
   91600    15.019238  -0.37951287            0   -0.3401308 -0.0013840325 
   91700     14.91889  -0.37928377            0  -0.34016482 0.0017625727 
   91800    15.042073  -0.37948319            0  -0.34004124 0.0028001092 
   91900    15.248123   -0.3800648            0  -0.34008257 0.0037264923 
   92000    15.459342  -0.38049702            0  -0.33996095 0.0078227688 
   92100    15.499979  -0.38071011            0  -0.34006748 0.0045461308 
   92200    15.332613  -0.38023466            0  -0.34003088 -0.00029708084 
   92300    15.308264   -0.3801648            0  -0.34002487  -0.00148884 
   92400    15.185582  -0.37985962            0  -0.34004138 0.0044465424 
   92500    15.207822  -0.38005221            0  -0.34017565 0.0029416505 
   92600    15.216095  -0.38005765            0   -0.3401594 0.0048790141 
   92700    15.235306  -0.38010647            0  -0.34015784 0.0044309398 
   92800    15.444093  -0.38070025            0  -0.34020416 0.00017085442 
   92900     15.28998  -0.38030256            0  -0.34021057 0.0081220425 
   93000    15.419751  -0.38062252            0  -0.34019025 0.0018938553 
   93100    15.368384  -0.38039207            0   -0.3400945  0.002263108 
   93200    15.135127  -0.37975922            0  -0.34007327 0.0066526611 
   93300    15.249537  -0.38011338            0  -0.34012744 -0.0002847105 
   93400    15.231569  -0.38004725            0  -0.34010842 0.0029536671 
   93500    15.286564  -0.38004179            0  -0.33995876 0.0042715946 
   93600    15.219435  -0.37983328            0  -0.33992627 0.0044660892 
   93700    15.308643  -0.38020054            0  -0.34005961 9.025922e-05 
   93800    15.391802  -0.38028549            0  -0.33992651 0.0019939041 
   93900    15.124861  -0.37975432            0  -0.34009528 0.0096469961 
   94000    15.196902  -0.37982755            0  -0.33997962 -0.00056902599 
   94100    15.218566  -0.37989593            0   -0.3399912 -0.0013477371 
   94200    15.283442  -0.37997972            0  -0.33990487  0.002005124 
   94300    15.327269  -0.37998717            0   -0.3397974 0.0016376902 
   94400    15.233146  -0.37974665            0  -0.33980368  0.004977188 
   94500    15.324691  -0.37980336            0  -0.33962035 0.0053901797 
   94600    15.478862  -0.38024826            0    -0.339661 0.0028170065 
   94700    15.499463  -0.38022408            0   -0.3395828 0.0032694658 
   94800    15.480626  -0.38015066            0  -0.33955878 0.0020589108 
   94900    15.486153  -0.38028041            0  -0.33967403 0.00067017136 
   95000    15.459487  -0.38034833            0  -0.33981187 0.0016353382 
   95100    15.450583  -0.38037438            0  -0.33986127 0.0019810019 
   95200    15.300713  -0.38021597            0  -0.34009583 0.0069674484 
   95300    15.248284  -0.38003007            0  -0.34004741   0.00415372 
   95400    15.241496  -0.38002698            0  -0.34006212 0.0021775177 
   95500    15.095582  -0.37970304            0  -0.34012078 0.0026443191 
   95600    15.167632   -0.3799302            0  -0.34015902 0.00082291708 
   95700    15.203635  -0.37999696            0  -0.34013138 0.0045330851 
   95800    15.365552  -0.38038716            0  -0.34009701 0.0035462512 
   95900    15.328875   -0.3803069            0  -0.34011292 0.0050784303 
   96000    15.174341  -0.37997568            0  -0.34018691 0.0046475098 
   96100    15.226483  -0.38003359            0   -0.3401081 -0.0015147568 
   96200    15.157864  -0.37988837            0   -0.3401428 0.0014130824 
   96300    15.171734  -0.37983619            0  -0.34005425 0.0032667741 
   96400    15.240784  -0.38003725            0  -0.34007426 7.6452612e-05 
   96500    15.404449  -0.38050164            0   -0.3401095 7.7796588e-06 
   96600    15.402321  -0.38052403            0  -0.34013747 0.0052121602 
   96700    15.291027  -0.38027864            0   -0.3401839 0.0054816229 
   96800    15.364754  -0.38042203            0  -0.34013398 0.0031863741 
   96900    15.468827  -0.38072533            0  -0.34016438 0.0033288266 
   97000     15.44046  -0.38058524            0  -0.34009868  0.006523052 
   97100    15.494679   -0.3806486            0  -0.34001986 0.0010639566 
   97200    15.474165  -0.38052881            0  -0.33995386 0.0020979447 
   97300    15.626908  -0.38091268            0  -0.33993723 0.0054858002 
   97400    15.840825  -0.38134492            0  -0.33980856 0.0025207781 
   97500    15.660461  -0.38081796            0  -0.33975453 0.0051206877 
   97600    15.747058   -0.3809749            0   -0.3396844 0.0023825086 
   97700    15.812391  -0.38101664            0  -0.33955483 0.0012228213 
   97800    15.786297  -0.38109035            0  -0.33969696 0.0041629842 
   97900    15.879694  -0.38104802            0  -0.33940973 0.00047228866 
   98000    15.735381  -0.38099285            0  -0.33973297 -0.0005178513 
   98100    15.857305   -0.3811051            0  -0.33952552 0.0055417879 
   98200    15.986952  -0.38146427            0  -0.33954474 0.0078650455 
   98300    16.051606  -0.38157443            0  -0.33948538 0.0037213036 
   98400     16.05921  -0.38165722            0  -0.33954822 0.0022392316 
   98500    15.954013  -0.38134988            0  -0.33951672 0.0064187457 
   98600    16.132077  -0.38167934            0  -0.33937928 -4.5205974e-06 
   98700    15.914683   -0.3812693            0  -0.33953927 0.0051693393 
   98800    16.019724  -0.38151131            0  -0.33950585 0.0011966662 
   98900    15.975313  -0.38144314            0  -0.33955413 0.0019976902 
   99000    15.893008   -0.3812984            0   -0.3396252 0.0047423759 
   99100    15.885634  -0.38136574            0  -0.33971188 0.0019231239 
   99200    15.662348  -0.38079107            0  -0.33972269 0.0045454109 
   99300    15.820983  -0.38124291            0  -0.33975857 0.0013633099 
   99400    15.855128  -0.38133239            0  -0.33975852 0.0028004256 
   99500     15.67816  -0.38100156            0  -0.33989172 0.0072225664 
   99600    15.915639  -0.38149738            0  -0.33976485 0.0035624223 
   99700    15.928685  -0.38156757            0  -0.33980082  0.002168254 
   99800    15.722675  -0.38087935            0  -0.33965279 0.0044535455 
   99900    15.816078  -0.38113814            0  -0.33966667 -0.00058781032 
  100000    15.628003  -0.38066236            0  -0.33968404 0.0065656088 
  100100    15.706646  -0.38083664            0  -0.33965211 0.0056098051 
  100200    15.851762  -0.38132234            0   -0.3397573 0.0008024295 
  100300    15.827366  -0.38137407            0  -0.33987299 0.0034394612 
  100400     15.83892  -0.38149148            0  -0.33996011  0.004148406 
  100500    15.608901   -0.3809392            0  -0.34001096  0.005698256 
  100600    15.653645  -0.38114128            0  -0.34009572 0.00056011064 
  100700    15.557202   -0.3808825            0  -0.34008982 0.0025744088 
  100800    15.859322  -0.38165236            0  -0.34006749 -0.0011019567 
  100900    15.752251  -0.38134381            0   -0.3400397 0.0084196239 
  101000    15.784662  -0.38137452            0  -0.33998541 0.0063041593 
  101100    15.790561   -0.3813358            0  -0.33993123 0.00035877683 
  101200    15.794972  -0.38118749            0  -0.33977136 0.0011764519 
  101300    15.936558  -0.38161948            0  -0.33983209 0.0044147476 
  101400    15.938015  -0.38152251            0   -0.3397313 0.0072365078 
  101500     15.94658  -0.38158163            0  -0.33976797 0.0065365339 
  101600    16.058955  -0.38189039            0  -0.33978207 0.0028055435 
  101700    16.027665  -0.38178344            0  -0.33975716 0.0023883555 
  101800    15.952382  -0.38155799            0  -0.33972911  0.005869521 
  101900    15.973365  -0.38176311            0  -0.33987921 0.0052575514 
  102000    16.021978  -0.38173775            0  -0.33972639 0.0047671029 
  102100    15.905365  -0.38142729            0   -0.3397217 0.0060873288 
  102200    15.968045  -0.38152318            0  -0.33965323 0.0016214131 
  102300    15.969235   -0.3814948            0  -0.33962173 0.00033536355 
  102400    15.938586  -0.38134173            0  -0.33954902 0.0011510372 
  102500    15.895229  -0.38129072            0   -0.3396117  0.002098444 
  102600    15.979568  -0.38147155            0  -0.33957138 0.0012693628 
  102700    15.938462   -0.3814569            0  -0.33966452 0.0029363345 
  102800    15.850488  -0.38128422            0  -0.33972251 0.0016731799 
  102900    15.707123  -0.38112104            0  -0.33993525 -0.0016732763 
  103000    15.671604  -0.38100893            0  -0.33991628 0.0019761073 
  103100    15.765178  -0.38124554            0  -0.33990752 0.0050051787 
  103200     15.81928  -0.38143218            0  -0.33995231 0.0061058483 
  103300    15.905603  -0.38165701            0  -0.33995079 0.0022239768 
  103400    15.798881  -0.38131892            0  -0.33989254 0.0012237982 
  103500    15.763712  -0.38122343            0  -0.33988926 0.0037787879 
  103600     15.82406  -0.38130289            0  -0.33981048 0.0014846348 
  103700    15.800913  -0.38118931            0   -0.3397576 0.0054663419 
  103800    16.071509   -0.3818268            0  -0.33968555 0.0011623166 
  103900    16.008993  -0.38162552            0   -0.3396482 0.0054071128 
  104000    15.978662  -0.38158144            0  -0.33968365 0.0076085523 
  104100    16.105398  -0.38180496            0  -0.33957485 0.00097350316 
  104200    15.921428  -0.38141714            0  -0.33966942 0.00088764068 
  104300    16.012767  -0.38167949            0  -0.33969227  0.001763775 
  104400    16.010901  -0.38169044            0  -0.33970812 0.0047512881 
  104500    15.979764  -0.38158963            0  -0.33968895 0.0047179247 
  104600    15.966609  -0.38161766            0  -0.33975148 0.0037638634 
  104700     16.00723  -0.38172844            0  -0.33975574 0.0040312658 
  104800    16.000052  -0.38169495            0  -0.33974108 0.0035584537 
  104900    16.081337   -0.3818808            0  -0.33971378 0.0012615455 
  105000    16.155309  -0.38198441            0  -0.33962343 0.0026778059 
  105100    16.013792  -0.38141593            0  -0.33942602 0.0069365243 
  105200    15.926278  -0.38126222            0  -0.33950178 0.0039185677 
  105300    16.023192   -0.3813655            0  -0.33935095 0.0014354964 
  105400    16.045496   -0.3813589            0  -0.33928587 0.0033322156 
  105500    15.964124  -0.38127903            0  -0.33941936 0.0058842135 
  105600    15.968123  -0.38125616            0    -0.339386 -0.00044426469 
  105700    15.836521  -0.38109247            0  -0.33956739 -0.00025463021 
  105800    15.728493  -0.38082919            0  -0.33958737 0.0053918977 
  105900    15.840716  -0.38114999            0  -0.33961391 6.8541732e-05 
  106000    15.726185   -0.3809291            0  -0.33969333 0.0019236864 
  106100    15.807247  -0.38113771            0  -0.33968939 0.0015660371 
  106200     15.72834  -0.38093767            0  -0.33969625 0.0057008128 
  106300    15.856127  -0.38125508            0  -0.33967859 0.0038256042 
  106400     15.83857   -0.3811673            0  -0.33963685 0.0018943561 
  106500    15.732038   -0.3807929            0  -0.33954179 0.0037788872 
  106600    15.766774  -0.38084394            0  -0.33950174 0.00090515564 
  106700      15.5995  -0.38062768            0   -0.3397241 0.0036825517 
  106800    15.823805   -0.3810876            0  -0.33959586 0.00087943066 
  106900    15.816892  -0.38119311            0   -0.3397195 0.0029442553 
  107000    15.624359  -0.38076628            0  -0.33979752  0.006656908 
  107100     15.70761  -0.38100817            0  -0.33982111 0.00059497637 
  107200    15.786571  -0.38116329            0  -0.33976919 2.7673921e-07 
  107300    15.832081  -0.38124584            0   -0.3397324 0.0093040211 
  107400    15.982639  -0.38170444            0  -0.33979623 0.0064774985 
  107500      15.9894  -0.38157641            0  -0.33965047 0.0019467787 
  107600    15.954543   -0.3813074            0  -0.33947285 0.0023694251 
  107700    16.071021   -0.3814325            0  -0.33929253 0.0012540053 
  107800    15.957796  -0.38113207            0    -0.339289  0.005587786 
  107900    16.024016  -0.38132129            0  -0.33930458 0.0049076887 
  108000    16.076215  -0.38132225            0  -0.33916866  0.002066543 
  108100    16.030427  -0.38134585            0  -0.33931232 0.0039190099 
  108200    16.113654  -0.38166818            0  -0.33941642 0.0028934894 
  108300    16.051438  -0.38149638            0  -0.33940777 0.0040037388 
  108400    16.182137  -0.38182723            0   -0.3393959 -0.00031719978 
  108500     16.22135  -0.38195451            0  -0.33942037 0.0028252621 
  108600    16.230481  -0.38200614            0  -0.33944806 0.0070915848 
  108700    16.402269  -0.38239181            0  -0.33938328 0.0061492052 
  108800    16.364274  -0.38236074            0  -0.33945184 0.0044648523 
  108900    16.390088  -0.38231511            0  -0.33933852  0.001800413 
  109000    16.195118  -0.38185944            0  -0.33939408 0.0067801709 
  109100    16.258319  -0.38217117            0  -0.33954009  0.001767006 
  109200    16.251636  -0.38215187            0  -0.33953832 0.0018994271 
  109300    16.122873   -0.3819712            0  -0.33969528 0.0048659249 
  109400    16.376378  -0.38268934            0   -0.3397487 -3.9601598e-05 
  109500    16.407641  -0.38283958            0  -0.33981696 0.0044732577 
  109600    16.358656  -0.38269091            0  -0.33979674 0.0063892981 
  109700     16.20799  -0.38234011            0  -0.33984099 0.0026618304 
  109800    16.030139  -0.38180478            0  -0.33977201 0.0022274405 
  109900      16.1224  -0.38194534            0  -0.33967066 -0.0009029611 
  110000    15.994168  -0.38173866            0  -0.33980021 0.0032006442 
  110100    16.057135  -0.38172146            0   -0.3396179 0.0051419001 
  110200    15.944312  -0.38147203            0  -0.33966431 0.0049999392 
  110300    15.960886  -0.38153587            0  -0.33968469 -0.0020624311 
  110400    16.062004  -0.38174719            0  -0.33963087 0.00075334547 
  110500    16.167119  -0.38201717            0  -0.33962522 0.0047675408 
  110600    16.125891  -0.38202709            0  -0.33974325 0.0019045507 
  110700    15.960538  -0.38163737            0   -0.3397871 0.0030582016 
  110800    16.104902  -0.38189632            0  -0.33966751 0.00097354355 
  110900    15.989058  -0.38156599            0  -0.33964094 0.0060097299 
  111000    16.142358  -0.38191394            0  -0.33958692  0.002303757 
  111100    16.086925  -0.38189609            0  -0.33971443 0.0058145566 
  111200    16.255411  -0.38216318            0  -0.33953972 0.0001514431 
  111300    16.315896  -0.38231602            0  -0.33953397  0.001311163 
  111400    16.139324  -0.38187585            0  -0.33955679 0.0083309979 
  111500    16.164931   -0.3818736            0  -0.33948739 0.0034855207 
  111600     16.14543  -0.38194685            0  -0.33961178  0.001096871 
  111700    16.015251   -0.3816768            0  -0.33968307  0.006795406 
  111800    16.070995  -0.38182622            0  -0.33968632 0.0031532496 
  111900     15.97638  -0.38163297            0  -0.33974116 0.0015294854 
  112000    15.998523  -0.38174231            0  -0.33979244 -0.0033550461 
  112100    15.963108  -0.38159736            0  -0.33974036 0.0026450421 
  112200    16.071775  -0.38197162            0  -0.33982968 0.0043911948 
  112300    16.026888  -0.38193939            0  -0.33991515 0.0050452262 
  112400    16.158731  -0.38215963            0  -0.33978968 0.0042048468 
  112500    16.045132  -0.38191345            0  -0.33984137  0.006154205 
  112600    16.212381  -0.38240496            0  -0.33989433 -0.00084616878 
  112700    16.097459  -0.38207962            0  -0.33987033 0.0040034288 
  112800     16.16506  -0.38222612            0  -0.33983958  0.001264545 
  112900    16.189291  -0.38233468            0   -0.3398846 -6.4773963e-05 
  113000    15.960825  -0.38173499            0  -0.33988397 0.0082688798 
  113100    15.982156  -0.38180178            0  -0.33989483 0.0022094016 
  113200      16.0266  -0.38197895            0  -0.33995546 -0.00056778828 
  113300    16.188028  -0.38240401            0  -0.33995724 0.0045483591 
  113400    16.213618  -0.38246349            0  -0.33994962 0.0077964582 
  113500    16.091891  -0.38214531            0  -0.33995062 0.00062559082 
  113600    16.025588  -0.38196473            0   -0.3399439 -0.00025936979 
  113700    15.853104   -0.3813868            0  -0.33981824 0.0059686074 
  113800     15.85262   -0.3813234            0  -0.33975611 0.00064441288 
  113900    15.891906  -0.38125552            0  -0.33958521 -0.0015347628 
  114000    15.654699  -0.38102032            0    -0.339972 0.0056802458 
  114100    15.842693  -0.38117797            0  -0.33963671 0.0050763252 
  114200    16.055693   -0.3817789            0  -0.33967913 0.0021136015 
  114300    15.936497  -0.38143491            0  -0.33964769 0.0093453243 
  114400    16.012746  -0.38163933            0  -0.33965216 0.0014367921 
  114500    15.950273  -0.38130526            0  -0.33948191 0.00016098345 
  114600     15.94203  -0.38144509            0  -0.33964335 0.00088190912 
  114700    15.957218  -0.38133391            0  -0.33949234 0.0038470884 
  114800    15.980391   -0.3815288            0  -0.33962648 0.0034181741 
  114900    16.101946    -0.381783            0  -0.33956195 0.0017794278 
  115000    16.078507  -0.38171921            0  -0.33955962  0.003509401 
  115100    15.974209  -0.38149134            0  -0.33960523 0.0073648213 
  115200    16.210956   -0.3820936            0  -0.33958671 0.0005152621 
  115300    15.997328  -0.38164252            0  -0.33969579 0.0028551662 
  115400    15.733266  -0.38088698            0  -0.33963265   0.00406371 
  115500    15.757892  -0.38085426            0  -0.33953536 -0.0019261407 
  115600    15.737347  -0.38092382            0  -0.33965878 0.0039937063 
  115700    16.011466  -0.38141854            0  -0.33943473 -0.00026502471 
  115800    16.020123  -0.38150343            0  -0.33949692 0.0013105923 
  115900    16.156446  -0.38183602            0  -0.33947206 0.0016566398 
  116000    16.059827  -0.38163478            0  -0.33952416 0.0050215287 
  116100    16.128961   -0.3817724            0  -0.33948051 0.0017697585 
  116200     16.13807  -0.38185294            0  -0.33953717 0.0036613634 
  116300    16.346487  -0.38229816            0  -0.33943589 0.0058051183 
  116400    16.409693  -0.38238516            0  -0.33935717 0.0050173932 
  116500    16.268757  -0.38221841            0  -0.33955997 0.0034584102 
  116600    16.261341  -0.38216318            0  -0.33952417 0.0024953447 
  116700     16.34076  -0.38244382            0  -0.33959657 0.0032426454 
  116800    16.387336  -0.38256385            0  -0.33959448 0.0022898201 
  116900    16.433654  -0.38273939            0  -0.33964857  0.004098389 
  117000    16.549929  -0.38299809            0  -0.33960237  0.005021079 
  117100    16.587473  -0.38312352            0  -0.33962936 0.0020106462 
  117200    16.403887  -0.38268252            0  -0.33966974 0.0048082603 
  117300    16.407853  -0.38262747            0  -0.33960429 0.0019714656 
  117400    16.411793  -0.38255961            0  -0.33952611 -0.00016317132 
  117500    16.449269  -0.38264596            0  -0.33951418 0.00054722055 
  117600    16.553663  -0.38291187            0  -0.33950636  0.003217276 
  117700     16.66146  -0.38311843            0  -0.33943027 0.0068103066 
  117800    16.588859  -0.38296167            0  -0.33946387   0.00991357 
  117900    16.551575  -0.38278798            0  -0.33938795 0.0013474006 
  118000    16.428725  -0.38249542            0  -0.33941751  0.001018249 
  118100    16.260882  -0.38227279            0  -0.33963499 0.0060257093 
  118200    16.449257  -0.38266583            0  -0.33953409  0.001654634 
  118300    16.384106   -0.3825426            0  -0.33958169 0.0015556562 
  118400    16.335304  -0.38239622            0  -0.33956328 0.0017318302 
  118500    16.288881   -0.3822524            0  -0.33954118 0.0050814378 
  118600    16.345453  -0.38241745            0  -0.33955789 0.0043890141 
  118700    16.399539  -0.38236042            0  -0.33935905  0.001971199 
  118800    16.590659  -0.38266526            0  -0.33916274 -0.0015226873 
  118900    16.414814    -0.382587            0  -0.33954557 0.0074228322 
  119000     16.71382  -0.38322256            0   -0.3393971 0.0038703817 
  119100    16.316666   -0.3824718            0  -0.33968773 0.0096824819 
  119200    16.562906  -0.38315227            0  -0.33972253 -0.0021705893 
  119300    16.513107  -0.38304383            0  -0.33974467 0.0018092925 
  119400    16.654271  -0.38348884            0  -0.33981953  0.001913013 
  119500    16.847229  -0.38400418            0  -0.33982891 0.0081211441 
  119600    16.874878  -0.38393243            0  -0.33968467 0.0072627913 
  119700    16.831141  -0.38381756            0  -0.33968447 -0.000981826 
  119800    16.716206  -0.38362356            0  -0.33979185 0.0024426013 
  119900    16.769713  -0.38377241            0   -0.3398004 0.0053136832 
  120000    16.730184  -0.38359878            0  -0.33973042 0.0064236091 
  120100     16.61745  -0.38338171            0  -0.33980895 0.0044912095 
  120200    16.556817  -0.38340128            0   -0.3399875 0.0040020664 
  120300    16.495488  -0.38309041            0  -0.33983745 0.0067828305 
  120400    16.464846  -0.38302514            0  -0.33985252  0.004237553 
  120500    16.478295  -0.38297195            0  -0.33976407 0.00089757523 
  120600    16.374544  -0.38262327            0  -0.33968744 0.0030483029 
  120700    16.388819  -0.38248777            0  -0.33951451 0.0016124242 
  120800    16.527371  -0.38268923            0  -0.33935267 -0.0017341365 
  120900    16.560319   -0.3828975            0  -0.33947454 0.0035772855 
  121000    16.753895  -0.38327406            0  -0.33934353 0.0060064477 
  121100    16.702389  -0.38321426            0  -0.33941878 0.0032216949 
  121200    16.587406  -0.38309683            0  -0.33960285 0.0030665755 
  121300    16.476735  -0.38289347            0  -0.33968968 0.0043621053 
  121400    16.300496  -0.38257411            0  -0.33983244 0.0069174718 
  121500    16.366165  -0.38277633            0  -0.33986247 0.0016618789 
  121600    16.451996  -0.38301117            0  -0.33987225 0.00019827261 
  121700    16.454831  -0.38306465            0   -0.3399183 0.0042196875 
  121800    16.568494  -0.38344293            0  -0.33999854 0.0035741168 
  121900     16.61062  -0.38347757            0  -0.33992272 0.0026127194 
  122000     16.40409  -0.38294733            0  -0.33993402 0.0018912311 
  122100    16.245508  -0.38251446            0  -0.33991697 0.0087327465 
  122200    16.680438  -0.38362073            0   -0.3398828 0.0039620631 
  122300    16.590082  -0.38348252            0  -0.33998152  0.009319713 
  122400    16.671587  -0.38365724            0  -0.33994253 0.0025195862 
  122500    16.571782   -0.3834173            0  -0.33996428 0.0040480157 
  122600    16.658848  -0.38360009            0  -0.33991878 0.0018329141 
  122700    16.464063  -0.38307691            0  -0.33990635 0.0041371884 
  122800    16.381111  -0.38291489            0  -0.33996184 0.0037902946 
  122900    16.533424  -0.38321149            0  -0.33985906  0.000661457 
  123000    16.460694  -0.38289632            0  -0.33973459 0.0053724988 
  123100    16.535735  -0.38305171            0  -0.33969321 0.0014340641 
  123200    16.417949  -0.38289207            0  -0.33984242 0.0017246014 
  123300    16.683867  -0.38336765            0  -0.33962074 0.0031860664 
  123400    16.764578  -0.38377513            0  -0.33981659 0.0071594712 
  123500    16.849011  -0.38388627            0  -0.33970633 0.00014434569 
  123600    16.734081  -0.38353561            0  -0.33965702 -0.00092384407 
  123700    16.757215  -0.38376818            0  -0.33982894 0.0013279617 
  123800    16.711991  -0.38344684            0  -0.33962618 0.0071430844 
  123900    16.853126  -0.38381491            0  -0.33962418 -0.00015377623 
  124000    16.490633   -0.3829813            0  -0.33974107 0.0067199777 
  124100    16.542641  -0.38323945            0  -0.33986284 0.0045864018 
  124200    16.592133  -0.38341715            0  -0.33991077 0.0044385316 
  124300    16.757421  -0.38374973            0  -0.33980995 0.00063129625 
  124400    16.774905   -0.3838813            0  -0.33989567  0.001952923 
  124500    16.711227  -0.38376903            0  -0.33995037 0.0056745005 
  124600    16.744024  -0.38384493            0  -0.33994028 0.0052978571 
  124700    16.816127  -0.38395562            0  -0.33986191 0.00011628684 
  124800    16.526238  -0.38322105            0  -0.33988746 0.0037838927 
  124900    16.449748  -0.38301109            0  -0.33987806 0.00089547538 
  125000    16.390626  -0.38278167            0  -0.33980367 0.0043821476 
  125100    16.683811  -0.38364204            0  -0.33989527 0.0020429157 
  125200    16.647056  -0.38353953            0  -0.33988914 0.0046637895 
  125300    16.718399  -0.38361597            0  -0.33977851 0.0016540113 
  125400    16.739832  -0.38374425            0  -0.33985059 0.0019379757 
  125500    16.829947  -0.38377516            0  -0.33964521 0.0027052525 
  125600    16.890591  -0.38394592            0  -0.33965696  0.001905066 
  125700     16.93606  -0.38386468            0  -0.33945649 0.0063393084 
  125800    17.047055  -0.38436927            0  -0.33967004 0.0035191365 
  125900    16.897256  -0.38397439            0  -0.33966795 0.0091552035 
  126000    17.019849  -0.38426136            0  -0.33963346 -0.00078389218 
  126100    16.863981  -0.38392567            0  -0.33970648 -0.00068328316 
  126200    16.838172  -0.38392715            0  -0.33977563 0.0049477256 
  126300    17.072192  -0.38462663            0  -0.33986149 0.0033228099 
  126400    16.947428  -0.38429484            0  -0.33985684 0.0048174314 
  126500    16.876926  -0.38413291            0  -0.33987978 0.0029865692 
  126600    16.777179  -0.38381536            0  -0.33982378 3.9132779e-05 
  126700    16.784651  -0.38368076            0  -0.33966958 -0.0012266245 
  126800    16.847812  -0.38379567            0  -0.33961887  0.005697106 
  126900    16.780168  -0.38370322            0   -0.3397038 0.0088708322 
  127000    16.994609  -0.38427629            0  -0.33971458 -0.0010070757 
  127100    16.885852  -0.38374733            0  -0.33947078 0.0039011034 
  127200    17.005321   -0.3840256            0   -0.3394358 0.0071069613 
  127300    17.135796  -0.38437914            0  -0.33944722 0.0063212481 
  127400     17.09379  -0.38439798            0   -0.3395762  0.005426538 
  127500     16.97833   -0.3840516            0  -0.33953258 0.0018473562 
  127600    16.825949  -0.38351289            0  -0.33939342 0.0047827849 
  127700    16.736863  -0.38330432            0  -0.33941844 0.0069303373 
  127800    16.966873  -0.38383688            0  -0.33934789 -0.00058810901 
  127900    16.874843  -0.38362802            0  -0.33938035 0.0066473311 
  128000    16.910963  -0.38373002            0  -0.33938764 0.00054970014 
  128100    16.732321   -0.3832479            0  -0.33937394 -0.0016269496 
  128200    16.674491  -0.38305786            0  -0.33933553 0.0047400474 
  128300    16.904979  -0.38356717            0  -0.33924048 0.0006897766 
  128400    16.807507  -0.38333279            0  -0.33926168 0.0043184925 
  128500    16.854192  -0.38361287            0  -0.33941935 0.0023143842 
  128600    16.821426  -0.38354585            0  -0.33943824 0.0041419927 
  128700    16.887815  -0.38369871            0  -0.33941702 0.00020349386 
  128800    16.732859   -0.3832482            0  -0.33937283   0.00477771 
  128900    16.696535  -0.38310526            0  -0.33932513 0.0057681667 
  129000    16.815285  -0.38334606            0  -0.33925455 0.0034162398 
  129100     16.91197  -0.38361998            0  -0.33927496 0.0011275446 
  129200    17.000997  -0.38389716            0   -0.3393187 0.0022370768 
  129300    16.996473  -0.38386935            0  -0.33930275 0.0063885855 
  129400    17.120551   -0.3841036            0  -0.33921165 0.0035391842 
  129500    17.211327  -0.38432391            0  -0.33919393 0.0036511211 
  129600    17.187824  -0.38422371            0  -0.33915536 0.0062946175 
  129700    17.092395  -0.38405418            0  -0.33923606 0.0049824337 
  129800    17.166781  -0.38420945            0  -0.33919628 0.0006331274 
  129900    17.178027  -0.38425287            0  -0.33921021  0.003964068 
  130000    17.216437  -0.38431877            0   -0.3391754 0.0043751427 
  130100    17.203652  -0.38429172            0  -0.33918187 0.0027897828 
  130200     17.22145  -0.38426718            0  -0.33911066 0.0024408979 
  130300    17.352146  -0.38438835            0  -0.33888914 0.0014303541 
  130400    17.248866  -0.38417494            0  -0.33894653 0.0036720754 
  130500    17.296247  -0.38432163            0  -0.33896899 0.0015464188 
  130600     17.30876   -0.3843223            0  -0.33893685 0.0019489835 
  130700    17.326005  -0.38446661            0  -0.33903594 0.0032456109 
  130800    17.300461  -0.38438477            0  -0.33902108 0.0073411928 
  130900    17.341384  -0.38455223            0  -0.33908123 0.0032288883 
  131000    17.213373  -0.38436395            0  -0.33922862 0.00052345795 
  131100    17.168501  -0.38428425            0  -0.33926658 0.0028256558 
  131200    17.130477  -0.38420995            0  -0.33929197 0.0060730709 
  131300    17.241406  -0.38443486            0  -0.33922601 0.0045832638 
  131400    17.334304  -0.38480224            0  -0.33934981 0.0054201439 
  131500    17.562054  -0.38535031            0   -0.3393007 0.0050167302 
  131600    17.329331  -0.38484697            0  -0.33940758 0.0098174585 
  131700    17.415657   -0.3851199            0  -0.33945415 -0.00079810428 
  131800    17.102412  -0.38427785            0  -0.33943346 0.0040270491 
  131900    17.295343  -0.38481397            0   -0.3394637 0.0014942345 
  132000    17.310111  -0.38472747            0  -0.33933848 0.0069726642 
  132100    17.438326  -0.38502764            0  -0.33930245 0.0021540667 
  132200    17.160287  -0.38431348            0  -0.33931734 0.0045365657 
  132300    17.444909  -0.38480976            0  -0.33906731 0.00065395549 
  132400    17.392972  -0.38473298            0  -0.33912672 0.0075119922 
  132500    17.322764  -0.38467688            0  -0.33925471 0.0054846033 
  132600     17.34126  -0.38475177            0   -0.3392811 0.0023917705 
  132700    17.306845  -0.38474323            0   -0.3393628 0.0041792207 
  132800    17.337686  -0.38474122            0  -0.33927992 0.0041974541 
  132900    17.417081  -0.38488695            0  -0.33921747  0.002066022 
  133000    17.311991  -0.38457778            0  -0.33918386 0.0057180644 
  133100    17.454418  -0.38509958            0  -0.33933219 0.0021459373 
  133200    17.382463  -0.38467748            0  -0.33909877 0.0075036931 
  133300     17.56339  -0.38516206            0  -0.33910894 -0.0018298564 
  133400    17.360106  -0.38478281            0  -0.33926273  0.001178691 
  133500    17.432785  -0.38507533            0  -0.33936467 0.0021901274 
  133600    17.598464  -0.38552106            0  -0.33937598  0.006067234 
  133700    17.517296  -0.38524404            0  -0.33931178 0.0038999565 
  133800    17.435196   -0.3849633            0  -0.33924632 -0.00020847538 
  133900    17.222119  -0.38434941            0  -0.33919114  0.010209771 
  134000    17.428068  -0.38486484            0  -0.33916655 0.0071624082 
  134100    17.503334   -0.3849187            0  -0.33902305 0.0031524461 
  134200    17.189202  -0.38426638            0  -0.33919442 0.0055638416 
  134300    17.140299   -0.3841035            0  -0.33915977 0.00072970389 
  134400    16.794269  -0.38342021            0  -0.33938381 0.0024041197 
  134500    16.823625   -0.3834759            0  -0.33936252 0.0021005426 
  134600     16.98167  -0.38395048            0   -0.3394227 -0.00053449583 
  134700    16.906801  -0.38391523            0  -0.33958376  0.003999746 
  134800     16.89373  -0.38375259            0  -0.33945539 0.0054482427 
  134900    16.993955  -0.38397142            0  -0.33941142 0.0012834057 
  135000    16.949905  -0.38386858            0  -0.33942408 0.0022965617 
  135100      16.9567  -0.38392124            0  -0.33945893 0.0019057275 
  135200    17.085964  -0.38433899            0  -0.33953773 0.0018760526 
  135300    17.098089  -0.38423617            0  -0.33940312 0.0087128349 
  135400    17.093827  -0.38419678            0  -0.33937491 0.0051919682 
  135500    16.985839  -0.38417158            0  -0.33963286 -0.0023704327 
  135600    16.970416   -0.3839677            0  -0.33946942 0.00029514288 
  135700    16.820501  -0.38370971            0  -0.33960453 0.0084431591 
  135800    16.847963  -0.38390422            0  -0.33972702 0.0020221198 
  135900    16.868954  -0.38390495            0  -0.33967271 0.00043492297 
  136000    16.676118  -0.38348692            0  -0.33976032 0.0074452884 
  136100    16.839839  -0.38385157            0  -0.33969568 0.00020299281 
  136200     16.79426  -0.38375907            0   -0.3397227 0.0032688385 
  136300    17.177731  -0.38459568            0   -0.3395538 0.0025920902 
  136400    17.107234  -0.38448603            0    -0.339629 0.0049453448 
  136500    16.954818  -0.38387684            0  -0.33941946 0.0031423476 
  136600    16.886453  -0.38354651            0   -0.3392684 0.00017566412 
  136700    16.754246  -0.38335279            0  -0.33942133   0.00569761 
  136800    16.900163  -0.38377813            0  -0.33946406 0.0026102771 
  136900    16.852863  -0.38363336            0  -0.33944332 0.0047652318 
  137000    16.810812  -0.38370733            0  -0.33962755 0.0013676361 
  137100    16.838559  -0.38384134            0   -0.3396888 0.0024379383 
  137200     16.71198  -0.38343149            0  -0.33961087 0.0082986044 
  137300    16.799208   -0.3837237            0  -0.33967434 0.0029903806 
  137400    16.807377  -0.38367427            0   -0.3396035 -0.0013600724 
  137500    16.925669  -0.38399083            0  -0.33960988 0.0022357226 
  137600    17.134697  -0.38463137            0  -0.33970233 0.0056104231 
  137700    17.365402  -0.38519818            0  -0.33966421 0.00028881298 
  137800    17.402356  -0.38522796            0  -0.33959709   0.00292098 
  137900    17.273257  -0.38483768            0  -0.33954532 0.0041814213 
  138000    17.143201  -0.38446892            0  -0.33951758 0.0018792326 
  138100    17.276153  -0.38475603            0  -0.33945608 0.00079556857 
  138200    17.158082  -0.38445849            0  -0.33946813 0.0067902072 
  138300     17.27534  -0.38468964            0  -0.33939182 0.0013249151 
  138400    17.307852  -0.38474123            0  -0.33935816 0.00072969598 
  138500    17.151406  -0.38436454            0  -0.33939169 0.0059316637 
  138600     17.32919  -0.38467124            0  -0.33923222 0.0023467578 
  138700    17.059234  -0.38416912            0  -0.33943796 0.0082422341 
  138800    17.136344  -0.38429089            0  -0.33935753  0.001923569 
  138900    17.123592  -0.38410542            0   -0.3392055 -0.00018067034 
  139000    17.028141   -0.3840615            0  -0.33941186  0.002658338 
  139100    17.349413  -0.38487768            0  -0.33938563 -0.0008938024 
  139200    17.331015  -0.38489469            0  -0.33945089  0.008597971 
  139300    17.390042  -0.38495431            0  -0.33935573 0.0032267308 
  139400    17.152782  -0.38435084            0  -0.33937438 0.0040578233 
  139500    17.155753  -0.38418342            0  -0.33919917 0.0048625908 
  139600    17.178689  -0.38436837            0  -0.33932398 0.0035170254 
  139700     17.03614  -0.38408707            0  -0.33941645 0.0053407451 
  139800    16.965154  -0.38394495            0  -0.33946047 0.0035560629 
  139900    17.108979  -0.38430047            0  -0.33943887 0.00023694135 
  140000    16.952417   -0.3839154            0  -0.33946431 0.0063796957 
  140100    17.005149  -0.38411315            0   -0.3395238 0.0014022309 
  140200    16.931673  -0.38404213            0  -0.33964544 0.0034738754 
  140300    16.900661  -0.38398884            0  -0.33967346 0.0052705919 
  140400    16.964805  -0.38413251            0  -0.33964895 -3.5344729e-05 
  140500    16.792689  -0.38374054            0  -0.33970828 0.0014091571 
  140600     16.61387  -0.38326632            0  -0.33970294 0.0076796162 
  140700    16.757059   -0.3837476            0  -0.33980877   0.00399874 
  140800    16.736404  -0.38363895            0  -0.33975428 0.0087586868 
  140900    17.072033  -0.38445641            0  -0.33969168  0.001283901 
  141000     16.85575  -0.38392839            0  -0.33973078 0.0053999316 
  141100    16.897867  -0.38400835            0   -0.3397003 0.00087739275 
  141200    16.948401  -0.38422693            0  -0.33978638 0.00044719977 
  141300    16.862973  -0.38387892            0  -0.33966237    0.0106884 
  141400    17.093393  -0.38450695            0  -0.33968621 0.0032197763 
  141500     16.97854  -0.38418367            0   -0.3396641 -0.0007440425 
  141600    16.752691  -0.38356662            0  -0.33963924 0.0035628912 
  141700     16.66012  -0.38327517            0  -0.33959052 0.0032279189 
  141800    16.603234  -0.38317678            0  -0.33964129 0.0010667433 
  141900      16.6528  -0.38319341            0  -0.33952795 0.0028194328 
  142000    16.698349  -0.38332128            0   -0.3395364 0.0051415595 
  142100    16.667278  -0.38324162            0  -0.33953821 0.0023195029 
  142200    16.617474  -0.38326214            0  -0.33968932 0.0015832214 
  142300    16.615879  -0.38320995            0  -0.33964131 0.0022838204 
  142400    16.544659  -0.38302284            0  -0.33964095 0.0026807815 
  142500    16.553618  -0.38316337            0  -0.33975798 0.0029032069 
  142600    16.763859   -0.3835202            0  -0.33956354 -0.00074119558 
  142700    16.733061  -0.38338119            0  -0.33950528 0.0032814007 
  142800    16.688245  -0.38331222            0  -0.33955383 0.0053328598 
  142900    16.586493  -0.38296882            0  -0.33947723 0.0071301971 
  143000    16.573568  -0.38289715            0  -0.33943945 0.0030173198 
  143100    16.618965  -0.38302271            0  -0.33944598 0.0028977922 
  143200    16.787475  -0.38350331            0  -0.33948472 -0.00018380553 
  143300    16.608492  -0.38309466            0  -0.33954539 0.0068942343 
  143400    16.801673  -0.38351973            0  -0.33946392  0.002589173 
  143500    16.760741  -0.38342877            0  -0.33948028 0.0052655659 
  143600    16.862581  -0.38373652            0    -0.339521 0.0069663116 
  143700    16.905371  -0.38367636            0  -0.33934864 0.0042852851 
  143800    16.825851  -0.38360719            0  -0.33948798 0.00021884126 
  143900    16.798404  -0.38356025            0  -0.33951301 0.0032649675 
  144000    16.811401  -0.38350918            0  -0.33942786 0.0018431344 
  144100    16.964824  -0.38383126            0  -0.33934764 0.0014572198 
  144200    17.019142  -0.38386299            0  -0.33923695 0.0085336963 
  144300    17.086324  -0.38407537            0  -0.33927317 0.0044141157 
  144400     16.95256  -0.38381201            0  -0.33936055 0.0049671582 
  144500    16.949079  -0.38361525            0  -0.33917292 0.0019133078 
  144600    16.935025  -0.38355905            0  -0.33915357 -0.00083606566 
  144700    16.915356  -0.38356237            0  -0.33920846 0.0029438289 
  144800     16.85379  -0.38346487            0   -0.3392724  0.007107003 
  144900    17.149233  -0.38428409            0  -0.33931694 -0.0026293416 
  145000    17.058499  -0.38407938            0  -0.33935014 0.0047120305 
  145100    17.079652  -0.38422632            0  -0.33944161  0.002324332 
  145200    16.750574  -0.38330993            0   -0.3393881 0.0047652088 
  145300    16.710583  -0.38331119            0  -0.33949422 0.0032936186 
  145400     16.67531  -0.38310405            0  -0.33937958 0.0052786038 
  145500    16.778594  -0.38339064            0  -0.33939534 0.0018357016 
  145600    16.693524  -0.38314309            0  -0.33937085 0.0032349507 
  145700    16.668341  -0.38302171            0  -0.33931551 0.0036624439 
  145800    16.807332  -0.38343293            0  -0.33936228 0.00097466474 
  145900    16.860473  -0.38364796            0  -0.33943797 0.0020663135 
  146000    16.908832  -0.38367058            0  -0.33933378 0.0043649761 
  146100    17.003332  -0.38392784            0  -0.33934325 0.0010106563 
  146200    16.750772  -0.38325053            0  -0.33932818 0.0063855474 
  146300    16.796837  -0.38337582            0  -0.33933269 0.0012873431 
  146400    16.787361  -0.38324023            0  -0.33922194 0.00054346776 
  146500    16.909141    -0.383626            0  -0.33928839 -0.00029379989 
  146600    16.765342  -0.38334086            0  -0.33938032 0.0081262152 
  146700    17.016906  -0.38391091            0  -0.33929074 0.0054808878 
  146800     16.97356  -0.38381063            0  -0.33930411 0.0040036582 
  146900    16.915616  -0.38366799            0  -0.33931341 -0.0009731431 
  147000    16.702548  -0.38309316            0  -0.33929726 0.0042173552 
  147100    16.904981  -0.38356098            0  -0.33923428 -0.00094663984 
  147200    16.807833  -0.38324665            0  -0.33917469 0.0020055649 
  147300    16.942244  -0.38343152            0  -0.33900711 0.00039420378 
  147400     16.76391  -0.38319539            0   -0.3392386 0.0082377072 
  147500    16.914847   -0.3834465            0  -0.33909394 0.0048458677 
  147600    16.899722  -0.38351629            0  -0.33920338  0.003659339 
  147700    16.773695  -0.38321888            0  -0.33923643 0.0048546675 
  147800    16.978143  -0.38377014            0  -0.33925161 0.0023780001 
  147900    16.945316  -0.38367823            0  -0.33924577 0.0072355187 
  148000    16.931999  -0.38380037            0  -0.33940283 0.0015390958 
  148100    16.892533  -0.38355841            0  -0.33926435 0.0037757645 
  148200    16.930465  -0.38357746            0  -0.33918394 0.0075308119 
  148300    17.055978  -0.38396697            0  -0.33924434 0.0039803021 
  148400    17.066813  -0.38390435            0  -0.33915331 0.0055605009 
  148500    17.066105  -0.38398207            0  -0.33923289 0.00055882797 
  148600    17.019049  -0.38369043            0  -0.33906463 -0.00022709197 
  148700    17.140432  -0.38415126            0  -0.33920718 9.0457739e-06 
  148800    16.914117  -0.38359792            0  -0.33924727  0.011938034 
  148900    17.083761   -0.3840025            0  -0.33920702 -0.0010149743 
  149000     17.08552  -0.38401433            0  -0.33921424 -0.0014689503 
  149100    16.917638   -0.3836434            0  -0.33928351 0.0083395475 
  149200     17.01553  -0.38395537            0   -0.3393388 0.0051332795 
  149300    17.168164   -0.3842667            0  -0.33924991 0.00015092045 
  149400    17.281007  -0.38451892            0  -0.33920624 0.0013820354 
  149500    17.211922  -0.38438383            0   -0.3392523 0.0053942566 
  149600    17.049852  -0.38391627            0   -0.3392097 0.0032974064 
  149700    16.799569  -0.38322809            0   -0.3391778 0.0032379968 
  149800    17.010677  -0.38381788            0  -0.33921403 -0.00095566657 
  149900    17.205011  -0.38416956            0  -0.33905615  0.005732377 
  150000    17.385798  -0.38484336            0  -0.33925591 0.0072995497 
  150100    17.445522  -0.38471632            0  -0.33897226 0.0085936966 
  150200    17.473708  -0.38486367            0  -0.33904571 2.2370302e-05 
  150300    17.105926  -0.38412396            0  -0.33927036 0.0026812745 
  150400    16.941172  -0.38364636            0  -0.33922477 0.0035823813 
  150500     17.02944  -0.38387256            0  -0.33921952 -0.001148553 
  150600    17.111901   -0.3841036            0  -0.33923434 0.0047606478 
  150700    17.152811  -0.38422097            0  -0.33924444  0.007295378 
  150800    17.074428  -0.38395168            0  -0.33918067 0.0034444182 
  150900    17.035627  -0.38402442            0  -0.33935516 -0.0014571993 
  151000    17.075952  -0.38406278            0  -0.33928777 0.0057056389 
  151100    17.345683  -0.38477466            0   -0.3392924 0.0055379893 
  151200    17.327537  -0.38472588            0  -0.33929119 -0.00080237201 
  151300    17.248223  -0.38455744            0  -0.33933072 0.0022438484 
  151400    17.304587  -0.38470507            0  -0.33933056 0.0068367625 
  151500    17.340934  -0.38480862            0  -0.33933881 0.0035846804 
  151600    17.179991  -0.38451639            0  -0.33946859 0.0038465094 
  151700     17.20841  -0.38458974            0  -0.33946742 -0.00080088818 
  151800     16.91035  -0.38386405            0  -0.33952327 0.0035602196 
  151900    16.975586  -0.38418366            0  -0.33967183 -0.00026614928 
  152000    17.116904  -0.38448199            0   -0.3395996 0.0016276869 
  152100    17.329993  -0.38505143            0   -0.3396103 0.0055026287 
  152200    17.333487  -0.38514539            0   -0.3396951 0.0097029646 
  152300    17.296728   -0.3850086            0   -0.3396547 0.0024157554 
  152400    17.209277  -0.38478143            0  -0.33965684  0.001319358 
  152500    17.235581  -0.38493355            0  -0.33973998 0.0064429257 
  152600    17.387183  -0.38522728            0  -0.33963619 0.0041892712 
  152700     17.26758  -0.38494201            0  -0.33966454 0.0022591007 
  152800    17.261538  -0.38487013            0   -0.3396085 0.0033259225 
  152900    17.154866  -0.38473357            0  -0.33975165 0.0088636902 
  153000    17.119731  -0.38465741            0  -0.33976761  0.005328056 
  153100    17.080104  -0.38446338            0  -0.33967749 -0.0006727239 
  153200    16.769769   -0.3837699            0  -0.33979774 0.0067557841 
  153300    17.050569  -0.38447501            0  -0.33976657 0.0012763752 
  153400    17.026715  -0.38434771            0  -0.33970182 0.0036912447 
  153500    17.141163  -0.38465106            0  -0.33970507 0.0017019243 
  153600    16.904293  -0.38418561            0  -0.33986072 0.0077537632 
  153700    17.038989  -0.38434538            0   -0.3396673 0.0016851875 
  153800    17.115509  -0.38462476            0  -0.33974603 0.0013390965 
  153900    17.125765  -0.38462067            0  -0.33971505 0.0082987574 
  154000    17.195974  -0.38464021            0   -0.3395505 0.0042629522 
  154100    17.172935  -0.38465306            0  -0.33962376 0.00015599575 
  154200    17.156928  -0.38472224            0   -0.3397349 0.0015123978 
  154300    17.123442  -0.38455411            0  -0.33965458 0.0057479592 
  154400     17.14267  -0.38457474            0   -0.3396248 0.0051897062 
  154500    17.222799  -0.38482368            0  -0.33966363 0.0040144641 
  154600    17.100774  -0.38451373            0  -0.33967364 0.0065444212 
  154700    17.039707  -0.38449267            0   -0.3398127 0.0048615385 
  154800    17.138958   -0.3846815            0  -0.33974129 0.0016588788 
  154900    17.154483  -0.38470665            0  -0.33972573 0.0017332076 
  155000    17.324208   -0.3852377            0  -0.33981174 0.00051381725 
  155100    17.468725  -0.38541443            0  -0.33960954 0.0061684251 
  155200    17.440181  -0.38523431            0  -0.33950426 0.0051652406 
  155300    17.046617  -0.38433858            0  -0.33964049 0.0024842391 
  155400    16.920119  -0.38394291            0  -0.33957652 0.0014392581 
  155500    17.116565  -0.38452486            0  -0.33964336 -0.0019867177 
  155600    17.089945  -0.38446748            0  -0.33965579 0.0075596921 
  155700    17.101895   -0.3844979            0  -0.33965487 0.0073449329 
  155800    17.026911  -0.38427688            0  -0.33963047 0.0008188539 
  155900    17.159456  -0.38457043            0  -0.33957647 -0.0021565997 
  156000    17.139266  -0.38430272            0   -0.3393617 0.0065166336 
  156100    17.282565   -0.3846302            0  -0.33931343 0.00050401513 
  156200    17.218976  -0.38482058            0  -0.33967055 0.0027078537 
  156300    17.561069  -0.38539649            0  -0.33934946 0.0082428736 
  156400    17.821513  -0.38607409            0  -0.33934415 0.0059648216 
  156500     17.82724  -0.38607143            0  -0.33932647 0.0027569693 
  156600    17.641835  -0.38569574            0  -0.33943693 0.0015948797 
  156700     17.50139  -0.38526995            0   -0.3393794 0.0010346731 
  156800    17.306053  -0.38486145            0   -0.3394831 0.0051843977 
  156900    17.359412  -0.38494072            0  -0.33942245 0.0048978681 
  157000    17.485729  -0.38523589            0   -0.3393864 0.0014959551 
  157100    17.689856  -0.38577432            0  -0.33938959 -0.0012517192 
  157200    17.377879  -0.38511308            0  -0.33954639 0.0094316988 
  157300    17.599522  -0.38565285            0  -0.33950499 0.00051053894 
  157400    17.492025  -0.38540267            0  -0.33953668  0.002206663 
  157500    17.123888  -0.38450444            0  -0.33960374  0.011941337 
  157600    17.380624  -0.38511718            0  -0.33954329 0.0032363472 
  157700    17.656194  -0.38587605            0  -0.33957959 -0.0014489516 
  157800    17.575113  -0.38569261            0  -0.33960875 0.0080924006 
  157900    17.478099  -0.38550319            0  -0.33967372 0.0090779501 
  158000    17.459449  -0.38550839            0  -0.33972781 0.0015870047 
  158100    17.046828  -0.38453566            0  -0.33983702  0.007422316 
  158200    17.085867  -0.38460115            0  -0.33980015 7.4657249e-05 
  158300    16.939709  -0.38419063            0  -0.33977288 -0.00039937632 
  158400     16.93987   -0.3841397            0  -0.33972152 0.00072258875 
  158500    17.079233  -0.38454117            0  -0.33975756 0.00066781682 
  158600    17.144398   -0.3846596            0  -0.33970513 0.0034791419 
  158700    17.206447  -0.38482147            0   -0.3397043 0.0055846109 
  158800    17.101167  -0.38451111            0  -0.33966999 0.0074670458 
  158900    17.136623  -0.38457953            0  -0.33964544 0.0023170392 
  159000    17.254529  -0.38477202            0  -0.33952877 -0.0012988464 
  159100    17.196984   -0.3845487            0  -0.33945634 0.0084893933 
  159200    17.357902  -0.38496556            0  -0.33945125  0.006776613 
  159300    17.434619  -0.38514013            0  -0.33942466 0.0032427303 
  159400    17.486042   -0.3851566            0  -0.33930629 0.0016418662 
  159500    17.291749  -0.38486482            0  -0.33952397 0.0091389369 
  159600    17.505841  -0.38541135            0  -0.33950913 0.0055047675 
  159700    17.339882  -0.38508608            0  -0.33961903 0.00071327428 
  159800    17.284168   -0.3849247            0  -0.33960374 -0.0009635114 
  159900    17.206342    -0.384542            0   -0.3394251  0.005314392 
  160000    17.229926  -0.38455745            0  -0.33937871 0.0051778282 
  160100    17.307452  -0.38473486            0  -0.33935284 0.0028107358 
  160200    17.317334   -0.3846964            0  -0.33928846  0.004330125 
  160300    17.497329  -0.38518732            0  -0.33930742 0.00031839979 
  160400    17.440676  -0.38517555            0   -0.3394442 0.0029706739 
  160500    17.180163  -0.38456463            0  -0.33951637 0.0055669066 
  160600    17.127039  -0.38427984            0  -0.33937088 0.0016340638 
  160700    17.214674  -0.38439012            0  -0.33925137  0.002692441 
  160800    17.264122  -0.38435482            0  -0.33908642 0.0017286537 
  160900    17.211772  -0.38428832            0  -0.33915718 0.0040852025 
  161000    17.402342  -0.38462081            0  -0.33898997 0.0051330026 
  161100    17.501076  -0.38473282            0   -0.3388431 0.0074550223 
  161200    17.592739  -0.38498418            0   -0.3388541 0.0061232135 
  161300    17.454903  -0.38468837            0  -0.33891972 0.0077924873 
  161400     17.53575  -0.38477683            0  -0.33879619 0.0017874709 
  161500    17.276209  -0.38447392            0  -0.33917382 0.0036178651 
  161600    17.166932  -0.38401726            0   -0.3390037 0.0059498347 
  161700    17.264451  -0.38445008            0  -0.33918081 -0.00035367876 
  161800    17.105012  -0.38418182            0  -0.33933062 0.0031890664 
  161900    17.178713  -0.38438736            0  -0.33934291 0.0024517909 
  162000    17.122783  -0.38441501            0  -0.33951721 0.0052269124 
  162100    17.234847  -0.38455639            0  -0.33936475 0.0034666988 
  162200    17.282755  -0.38463569            0  -0.33931842 0.0017271707 
  162300    17.112894  -0.38415714            0  -0.33928527 0.0054164716 
  162400    17.083298  -0.38426272            0  -0.33946845 0.0058451972 
  162500    17.085057  -0.38425581            0  -0.33945694 0.0054418778 
  162600    17.049842   -0.3841045            0  -0.33939796 0.0037686213 
  162700    17.002387  -0.38391646            0  -0.33933436 0.0046214772 
  162800    17.160321  -0.38435012            0  -0.33935389 0.0021062517 
  162900    17.021247  -0.38398905            0  -0.33935748 0.0054466052 
  163000    16.982094  -0.38376563            0  -0.33923673 0.0035870643 
  163100    17.133001  -0.38417042            0  -0.33924583 0.0016567784 
  163200    17.124224  -0.38413149            0  -0.33922992 0.0067197878 
  163300    17.276264   -0.3845286            0  -0.33922836 0.0010105303 
  163400    17.211961  -0.38428512            0  -0.33915348 0.0025182729 
  163500    17.244873  -0.38445849            0  -0.33924056 0.0036150601 
  163600    17.184771    -0.384338            0  -0.33927766 0.0058749284 
  163700    17.231209  -0.38439389            0  -0.33921178 0.0041525158 
  163800    17.085596  -0.38412703            0  -0.33932674 0.0050521648 
  163900    17.035012  -0.38402832            0  -0.33936067 0.0042013947 
  164000    17.017574  -0.38396185            0  -0.33933992 0.0010859512 
  164100    17.039463   -0.3839758            0  -0.33929648 0.0011499465 
  164200    16.862244  -0.38359908            0  -0.33938444 0.0059845082 
  164300    17.095083   -0.3841936            0  -0.33936843   0.00189816 
  164400    17.062336  -0.38417054            0  -0.33943124 0.0073782201 
  164500     17.16541  -0.38462478            0   -0.3396152  0.002093784 
  164600    16.902357  -0.38379523            0  -0.33947541  0.010416346 
  164700    17.074354   -0.3841432            0  -0.33937238 0.0022390235 
  164800     17.06836  -0.38410404            0  -0.33934895  0.001538438 
  164900    16.942382  -0.38378076            0  -0.33935599 0.0052912746 
  165000    16.963661  -0.38385697            0   -0.3393764 0.0037753027 
  165100     16.99389  -0.38390565            0  -0.33934582 0.0031116079 
  165200    17.071861  -0.38411769            0  -0.33935341 0.0054891158 
  165300    16.983825  -0.38382899            0  -0.33929556 0.0037577282 
  165400    16.905348  -0.38355504            0  -0.33922738 -0.0026257568 
  165500    17.018043   -0.3837775            0  -0.33915434 0.0015873479 
  165600      17.2204  -0.38425166            0   -0.3390979 0.0056979884 
  165700    17.148048  -0.38400656            0  -0.33904251 0.0058886521 
  165800    17.002551  -0.38354717            0  -0.33896463 0.0046567872 
  165900    16.969578    -0.383522            0  -0.33902592 0.0031057118 
  166000    16.887809  -0.38346717            0  -0.33918549 0.0060171687 
  166100    17.082423  -0.38396064            0  -0.33916867 0.0011189654 
  166200    17.131371  -0.38421204            0  -0.33929172 0.00019792459 
  166300    16.922843  -0.38366106            0  -0.33928753 0.0089975195 
  166400    16.987226  -0.38398549            0  -0.33944314 0.00024238633 
  166500    16.834374  -0.38359384            0  -0.33945228 0.0014138816 
  166600    16.816682  -0.38348673            0  -0.33939156 0.0024981818 
  166700    16.791105  -0.38348459            0  -0.33945649 0.0045370592 
  166800    16.962179  -0.38393526            0  -0.33945858 0.0019431008 
  166900    16.987472  -0.38399118            0  -0.33944818  0.005630446 
  167000    16.973354  -0.38396814            0  -0.33946216 0.0068665314 
  167100    16.867957  -0.38367403            0  -0.33944441 0.0015966878 
  167200    16.931081  -0.38372634            0   -0.3393312 0.00043535461 
  167300    17.019224  -0.38405766            0  -0.33943141 0.0066283146 
  167400    17.136276  -0.38433568            0  -0.33940251  0.001773664 
  167500    16.990838  -0.38395944            0  -0.33940762 0.0004149092 
  167600     16.96394  -0.38398123            0  -0.33949994 0.0033697675 
  167700     17.08506  -0.38438067            0  -0.33958178 0.0060266411 
  167800     17.17186  -0.38454921            0  -0.33952273 0.0050302087 
  167900    17.152216  -0.38446033            0  -0.33948535 -0.00056471221 
  168000     17.09414  -0.38431669            0    -0.339494 -0.00019312479 
  168100    17.095877  -0.38418771            0  -0.33936046 0.0049522012 
  168200    17.051292  -0.38408098            0  -0.33937064 0.0080799007 
  168300    17.069218  -0.38417139            0  -0.33941404 0.0031844666 
  168400    16.931291  -0.38380155            0  -0.33940586 0.0057125938 
  168500    17.045957  -0.38409393            0  -0.33939758 0.0016378698 
  168600    16.867816   -0.3836684            0  -0.33943915 0.0036609182 
  168700    16.875758  -0.38371617            0  -0.33946609 0.0049701826 
  168800     16.74341  -0.38325387            0  -0.33935083 0.0016971235 
  168900    16.636339  -0.38296299            0   -0.3393407 6.1350905e-05 
  169000    16.792031  -0.38329662            0  -0.33926608 -0.00084120466 
  169100    16.917049  -0.38360755            0  -0.33924921 0.0022994109 
  169200    17.000146  -0.38376904            0  -0.33919281 0.0033029299 
  169300    17.144318  -0.38410715            0  -0.33915288 0.00031218135 
  169400    17.091895  -0.38399795            0  -0.33918114 0.0044135129 
  169500    16.979813  -0.38360408            0  -0.33908117 0.0086374236 
  169600    17.151401  -0.38419408            0  -0.33922124 -0.00095638873 
  169700    17.149596  -0.38425102            0  -0.33928292 0.0020126886 
  169800    16.979186  -0.38387999            0  -0.33935872 0.0075577089 
  169900      17.0569  -0.38416014            0  -0.33943509 0.00067091402 
  170000    17.003443  -0.38407268            0  -0.33948781 0.00046851541 
  170100    16.935827  -0.38377627            0  -0.33936869 0.0030781875 
  170200    16.884435  -0.38374832            0  -0.33947549 0.0052168991 
  170300     16.80447  -0.38353762            0  -0.33947448  0.006318765 
  170400    17.049679  -0.38402555            0  -0.33931944 -0.00099277613 
  170500    16.878838  -0.38366802            0  -0.33940987 0.0058258295 
  170600    17.077136  -0.38414027            0  -0.33936216 0.0052611637 
  170700     17.14971  -0.38431172            0  -0.33934331 0.0059545971 
  170800    17.286227  -0.38449127            0   -0.3391649 -0.0013036094 
  170900    17.242124  -0.38430913            0  -0.33909841 0.0021453793 
  171000    17.037235  -0.38376963            0  -0.33909615 0.0094307721 
  171100    17.165014  -0.38422795            0  -0.33921942 -0.001348973 
  171200    17.032095  -0.38385467            0  -0.33919467 0.0032470176 
  171300    17.179641  -0.38430845            0  -0.33926156 0.0041701678 
  171400    17.317754  -0.38459992            0  -0.33919089 0.0066517361 
  171500    17.411662  -0.38483992            0  -0.33918465 0.0017210192 
  171600    17.144638  -0.38408853            0  -0.33913342 0.0029283268 
  171700    17.049067  -0.38407543            0  -0.33937092 0.00029085541 
  171800    17.012416  -0.38395379            0  -0.33934538 0.0036976683 
  171900     16.98102  -0.38390317            0  -0.33937709 0.00098758858 
  172000    16.979634   -0.3839762            0  -0.33945376 -0.00062175796 
  172100    17.007766  -0.38413761            0   -0.3395414 0.0024043718 
  172200    17.085881  -0.38421927            0  -0.33941823 0.0028569508 
  172300    17.145696     -0.38429            0  -0.33933212 0.00044289834 
  172400     17.17507  -0.38426652            0  -0.33923162 0.0011993577 
  172500    17.278218  -0.38457681            0  -0.33927144 0.0022153168 
  172600    17.422472  -0.38477978            0  -0.33909616 0.0057000533 
  172700     17.78372  -0.38571259            0  -0.33908174 0.0019944288 
  172800    17.639257  -0.38539923            0  -0.33914718 0.0075980543 
  172900    17.586696  -0.38516081            0  -0.33904658 0.0092991149 
  173000    17.599901  -0.38518693            0  -0.33903808 0.0069593669 
  173100    17.682642   -0.3854817            0  -0.33911589 0.00069123363 
  173200    17.458445  -0.38496883            0  -0.33919089 0.0013877346 
  173300    17.243127  -0.38445449            0  -0.33924114 0.0052309504 
  173400    17.528272  -0.38519776            0  -0.33923672 0.0004537858 
  173500    17.473847  -0.38501122            0  -0.33919289 0.0076106132 
  173600    17.551007  -0.38521941            0  -0.33919876  0.003033835 
  173700    17.465033  -0.38504663            0  -0.33925141 0.0038948684 
  173800    17.398902  -0.38494562            0  -0.33932381 0.0052833127 
  173900    17.267634  -0.38464234            0  -0.33936472 0.0060372935 
  174000    17.285912  -0.38474259            0  -0.33941705 0.00018676828 
  174100    17.174617  -0.38458698            0  -0.33955326 0.0012123094 
  174200    17.189028  -0.38458927            0  -0.33951777 -0.00012553992 
  174300    17.196378  -0.38466026            0  -0.33956949 0.0010728064 
  174400    17.259504  -0.38483454            0  -0.33957824 0.0043856009 
  174500    17.098827  -0.38431893            0  -0.33948395 0.0080717761 
  174600    17.243622   -0.3847347            0  -0.33952004 -0.0016096929 
  174700    17.100063  -0.38424236            0  -0.33940413 0.0063626918 
  174800    17.238175  -0.38450331            0  -0.33930294 0.0048395293 
  174900    17.124858  -0.38422061            0  -0.33931737 0.0033921793 
  175000    17.123158  -0.38408539            0   -0.3391866 -0.0020292356 
  175100    16.923257  -0.38360327            0  -0.33922865 0.0012343511 
  175200    16.894005   -0.3835443            0  -0.33924639 0.0034968093 
  175300     17.08295  -0.38396064            0  -0.33916729 0.0062235267 
  175400    17.314542  -0.38453321            0  -0.33913259 0.0033159559 
  175500     17.45017  -0.38494646            0  -0.33919022 -0.0004962809 
  175600    17.475127  -0.38506144            0  -0.33923976 0.0045597371 
  175700    17.588027  -0.38534726            0  -0.33922954 0.0036101755 
  175800    17.613186  -0.38537666            0  -0.33919297 0.0029743064 
  175900    17.544242  -0.38524621            0   -0.3392433 0.0056594818 
  176000    17.627491  -0.38550349            0  -0.33928229 0.0049937386 
  176100    17.316145  -0.38461046            0  -0.33920564  0.011876808 
  176200    17.518781  -0.38518483            0  -0.33924868 0.0013806911 
  176300    17.281788  -0.38453606            0  -0.33922133 0.0032409646 
  176400    17.448672  -0.38484795            0  -0.33909563 -0.0036903097 
  176500    17.433073  -0.38494087            0  -0.33922946 0.0012836897 
  176600    17.356161  -0.38455638            0  -0.33904664 0.0079067426 
  176700    17.523492  -0.38512865            0  -0.33918015  0.001241307 
  176800    17.460728   -0.3848389            0  -0.33905497 0.0030576862 
  176900    17.472703  -0.38485612            0   -0.3390408 0.0017325078 
  177000     17.72365  -0.38554519            0  -0.33907185 0.00026066297 
  177100    17.759518  -0.38563153            0  -0.33906414 0.0078709991 
  177200    17.754621   -0.3857241            0  -0.33916956 0.0083405003 
  177300    17.737821   -0.3855234            0   -0.3390129 0.0030606829 
  177400    17.526934  -0.38497972            0  -0.33902219 0.0028829614 
  177500    17.378888  -0.38448743            0   -0.3389181 0.0067727374 
  177600    17.334829  -0.38458441            0  -0.33913061 0.0049807427 
  177700    17.330647   -0.3844297            0  -0.33898686 0.0022822871 
  177800     17.32305  -0.38456159            0  -0.33913866 -0.00027964612 
  177900    17.050057  -0.38395988            0  -0.33925277 0.0047718606 
  178000    17.257171  -0.38445411            0  -0.33920393 0.00054842766 
  178100    17.318547    -0.384669            0  -0.33925789 0.0035332109 
  178200    17.368799  -0.38478481            0  -0.33924193 0.0051741655 
  178300    17.181144  -0.38436342            0  -0.33931259 0.0072308758 
  178400    17.283972   -0.3845295            0  -0.33920905 -0.00020499516 
  178500    17.403252  -0.38486781            0   -0.3392346 -0.0022176687 
  178600    17.343745  -0.38465759            0  -0.33918041 0.0045369558 
  178700    17.345118  -0.38464329            0   -0.3391625 0.0051390432 
  178800    17.424964  -0.38479627            0  -0.33910612 0.00082987707 
  178900    17.282159  -0.38442528            0  -0.33910958  0.006697997 
  179000     17.22578  -0.38416631            0  -0.33899844 0.0070307926 
  179100    17.373262  -0.38467577            0  -0.33912119 0.00026439321 
  179200    17.247354  -0.38450176            0  -0.33927732 0.0053412691 
  179300    17.460529  -0.38498182            0  -0.33919842 0.00061884457 
  179400    17.372961  -0.38473662            0  -0.33918283 0.0024884584 
  179500    17.290771  -0.38465683            0  -0.33931855 0.0033819628 
  179600    17.452693  -0.38495644            0  -0.33919358 0.0018027252 
  179700    17.394749  -0.38482074            0  -0.33920982 0.0062263114 
  179800     17.45974  -0.38502722            0  -0.33924588 0.0043204291 
  179900    17.508743  -0.38529227            0  -0.33938244 0.0028645179 
  180000    17.406336  -0.38499545            0  -0.33935414 0.0057652844 
  180100     17.43589  -0.38516092            0  -0.33944212 0.0030281841 
  180200    17.497301  -0.38526665            0  -0.33938683  0.002301634 
  180300    17.571338  -0.38537242            0  -0.33929846 0.0049859284 
  180400    17.767737  -0.38578023            0  -0.33919129 0.0038301021 
  180500    17.705992   -0.3855915            0  -0.33916447 0.0030398464 
  180600    17.671777  -0.38542894            0  -0.33909162 0.0042892476 
  180700    17.486482  -0.38508804            0  -0.33923658 0.0061567343 
  180800    17.495093  -0.38491077            0  -0.33903674 0.00096997554 
  180900    17.361752  -0.38484388            0  -0.33931948 0.0054924405 
  181000    17.574832  -0.38536329            0  -0.33928017 0.00029511382 
  181100    17.527841  -0.38530648            0  -0.33934658 0.0041695337 
  181200    17.579842  -0.38542376            0   -0.3393275 0.0070377175 
  181300      17.8212  -0.38602744            0  -0.33929831 -9.6833475e-05 
  181400    17.798584  -0.38598534            0  -0.33931552 0.0025771529 
  181500    17.498968  -0.38521454            0  -0.33933034 0.0075811744 
  181600    17.540054  -0.38526337            0  -0.33927144 0.0017567739 
  181700    17.493458   -0.3851456            0  -0.33927585  0.002297338 
  181800     17.24042   -0.3845748            0  -0.33936854 0.0097041408 
  181900    17.458503  -0.38507466            0  -0.33929656 -0.0018693957 
  182000    17.309455  -0.38466282            0  -0.33927555 0.00060871545 
  182100     17.38963  -0.38468635            0  -0.33908885 0.0048361654 
  182200    17.304805  -0.38462385            0  -0.33924877 0.0068244418 
  182300    17.390338  -0.38484413            0  -0.33924477 0.0020356958 
  182400    17.448922  -0.38495247            0   -0.3391995 0.0023518146 
  182500    17.339976  -0.38481129            0  -0.33934398 0.0091898833 
  182600    17.480622  -0.38515028            0  -0.33931418 0.0044923028 
  182700    17.560257  -0.38542123            0  -0.33937632 -0.0023114443 
  182800    17.437669  -0.38500104            0  -0.33927758 0.0042764007 
  182900    17.498832  -0.38500063            0  -0.33911679 0.0032040377 
  183000    17.326727  -0.38454741            0  -0.33911485 0.0061957528 
  183100    17.303508  -0.38450753            0  -0.33913585 0.0061311175 
  183200    17.622886  -0.38519439            0  -0.33898526 -0.0034530701 
  183300    17.447076  -0.38493625            0  -0.33918812 0.0068506587 
  183400    17.549571  -0.38520857            0  -0.33919168 0.0066791276 
  183500    17.426787  -0.38500028            0  -0.33930535  0.005652561 
  183600    17.554146  -0.38525166            0  -0.33922278 0.0017028614 
  183700    17.447414  -0.38500687            0  -0.33925786 0.0046763218 
  183800    17.283167  -0.38466086            0  -0.33934252 0.0038365471 
  183900    17.262107  -0.38448767            0  -0.33922455 0.0018598486 
  184000    17.232367  -0.38446427            0  -0.33927913 0.00050221307 
  184100    17.206768  -0.38427132            0   -0.3391533 0.0043983593 
  184200    17.341504  -0.38477404            0  -0.33930273 0.0057027383 
  184300    17.586975  -0.38521592            0  -0.33910096  0.003350467 
  184400     17.43474  -0.38491797            0  -0.33920219 0.0047057377 
  184500     17.33413  -0.38464589            0  -0.33919391 0.0075712659 
  184600    17.371277  -0.38473978            0   -0.3391904 0.0022257552 
  184700    17.357111  -0.38467131            0  -0.33915908 -0.00047095188 
  184800    17.286613  -0.38443974            0  -0.33911236 0.0051413118 
  184900    17.444544  -0.38505597            0  -0.33931448 0.0044705646 
  185000    17.490157  -0.38521778            0  -0.33935668  0.003914686 
  185100    17.651828  -0.38573677            0  -0.33945176 0.0024003125 
  185200    17.368902   -0.3850771            0  -0.33953395 0.0094438728 
  185300     17.39942  -0.38520152            0  -0.33957835 0.0030812112 
  185400     17.57454  -0.38559834            0  -0.33951598 0.00080179989 
  185500    17.512253  -0.38536865            0  -0.33944961 0.0076451816 
  185600    17.756649  -0.38597414            0  -0.33941428 0.00011281653 
  185700    17.389099  -0.38507259            0  -0.33947648 0.0088173442 
  185800    17.543347  -0.38540296            0  -0.33940239 0.0048141418 
  185900    17.412292  -0.38522236            0  -0.33956544 0.0026686683 
  186000    17.429386  -0.38520369            0  -0.33950195 -0.0016387206 
  186100    17.290496  -0.38495454            0  -0.33961698 0.00056158733 
  186200    17.206077  -0.38466389            0  -0.33954769 0.0042067262 
  186300    17.265767  -0.38479909            0  -0.33952637 0.0012748837 
  186400    17.200733  -0.38465118            0  -0.33954899 0.0049277524 
  186500    17.496156  -0.38537527            0  -0.33949845 -0.0040413449 
  186600    17.198649  -0.38458938            0  -0.33949265  0.007926679 
  186700    17.207314  -0.38461191            0  -0.33949246 0.0068323198 
  186800    17.330439   -0.3849775            0   -0.3395352  0.001617121 
  186900    17.389883  -0.38501885            0  -0.33942068 0.00059557606 
  187000    17.288724  -0.38477482            0   -0.3394419 0.0036571481 
  187100    17.224461  -0.38461105            0  -0.33944664 0.0044841824 
  187200    17.183923  -0.38459893            0  -0.33954082 0.0011449088 
  187300    17.163261  -0.38444681            0  -0.33944287 0.0044640964 
  187400      17.0436  -0.38436804            0  -0.33967787 0.0070334728 
  187500    17.261302  -0.38473382            0  -0.33947281 -0.0019979164 
  187600    17.213105  -0.38454616            0  -0.33941153 0.0029722588 
  187700    17.426119  -0.38506564            0  -0.33937246 0.0019970938 
  187800    17.549695  -0.38541492            0  -0.33939771 0.0049051131 
  187900    17.496289  -0.38535417            0    -0.339477 0.0080349498 
  188000    17.451556  -0.38510395            0  -0.33934407 0.0030836828 
  188100    17.218754  -0.38458096            0  -0.33943152 0.0014121094 
  188200    17.176061  -0.38439891            0  -0.33936141 -0.00019304512 
  188300    17.172825  -0.38448236            0  -0.33945335 0.0013970386 
  188400    17.140196  -0.38451097            0  -0.33956751 0.0057390898 
  188500    17.257117  -0.38470681            0  -0.33945677 0.0029624384 
  188600    17.350565   -0.3850824            0  -0.33958733 0.00051551476 
  188700    17.381383  -0.38518645            0  -0.33961057 0.0053732825 
  188800    17.484522  -0.38545647            0  -0.33961015 0.0058166356 
  188900     17.42906  -0.38531213            0  -0.33961124 0.0030189513 
  189000    17.152812  -0.38458604            0  -0.33960951 0.0046172023 
  189100    17.144456  -0.38447577            0  -0.33952115 0.0035878935 
  189200    17.257563  -0.38486385            0  -0.33961264 0.0034539357 
  189300    17.218838  -0.38480865            0  -0.33965899 0.0057605056 
  189400    17.338387   -0.3851064            0  -0.33964326 0.0017926861 
  189500    17.274498  -0.38500786            0  -0.33971225 0.0031462704 
  189600    17.186169  -0.38478577            0  -0.33972176 0.0077355819 
  189700    17.319456  -0.38514293            0  -0.33972943 0.0028884674 
  189800    17.376627  -0.38525301            0   -0.3396896 0.0021886083 
  189900    17.277193  -0.38503249            0  -0.33972981 0.0039162294 
  190000    17.114557    -0.384672            0  -0.33979577 0.0015792199 
  190100    16.915079  -0.38415127            0   -0.3397981 0.0037849693 
  190200     17.00637  -0.38437221            0  -0.33977966 0.0014350095 
  190300    16.950919  -0.38417734            0  -0.33973018  0.006967177 
  190400    17.221806  -0.38480255            0  -0.33964511 0.0013035709 
  190500    17.170271  -0.38451192            0   -0.3394896 0.00026311584 
  190600    17.003089  -0.38413712            0  -0.33955317 0.0056945542 
  190700    17.078919  -0.38429262            0  -0.33950984 0.0069500096 
  190800    17.167104   -0.3845122            0  -0.33949818 0.0034154001 
  190900    17.073524  -0.38444904            0  -0.33968041 0.0019557029 
  191000     17.13436  -0.38461523            0  -0.33968707  0.004827067 
  191100    17.103226  -0.38463214            0  -0.33978562 0.0053711115 
  191200    17.026954  -0.38432658            0  -0.33968006 -0.00090596007 
  191300    16.997336   -0.3843578            0  -0.33978894 0.0025665797 
  191400    17.061745  -0.38454456            0  -0.33980681 0.0085034635 
  191500    17.217005  -0.38494292            0  -0.33979806 0.0038576027 
  191600    17.047704   -0.3844676            0  -0.33976667 0.0056571931 
  191700    17.127158  -0.38470656            0  -0.33979729 0.0020202515 
  191800    17.093758  -0.38463098            0  -0.33980929 0.0030087145 
  191900    17.228228  -0.38492833            0  -0.33975404 0.0019220472 
  192000    17.282725  -0.38509946            0  -0.33978228 0.0066613471 
  192100    17.479415  -0.38562182            0  -0.33978889  0.005073026 
  192200    17.496595  -0.38569892            0  -0.33982094 0.0037144143 
  192300     17.48737  -0.38546567            0  -0.33961189 0.00091660366 
  192400    17.390534  -0.38534156            0  -0.33974169 0.0020633426 
  192500    17.432296  -0.38524882            0  -0.33953945 0.00082927934 
  192600    17.406265   -0.3852271            0  -0.33958598 0.0012181339 
  192700    17.402064  -0.38511401            0  -0.33948391  0.004995764 
  192800    17.392867   -0.3852809            0  -0.33967491 0.0037355516 
  192900    17.378526  -0.38526416            0  -0.33969577 -0.00097614504 
  193000    17.344199  -0.38509183            0  -0.33961345 0.0044659346 
  193100    17.431154  -0.38533078            0   -0.3396244  0.006536366 
  193200    17.240025  -0.38486649            0  -0.33966127 0.0060520787 
  193300    17.192399  -0.38481421            0  -0.33973387 0.0020559434 
  193400    17.273491  -0.38502131            0  -0.33972834  0.002863587 
  193500    17.334274  -0.38515766            0   -0.3397053 0.0054300141 
  193600    17.505415  -0.38560221            0  -0.33970111 0.0021779477 
  193700     17.50811  -0.38555398            0  -0.33964581 0.00030347025 
  193800    17.354378  -0.38503273            0  -0.33952766 0.0010080162 
  193900    16.979457  -0.38429441            0  -0.33977243 0.0080684177 
  194000    17.420957  -0.38507168            0  -0.33939203 0.00026558665 
  194100    17.414872  -0.38498621            0  -0.33932252 0.0080467017 
  194200    17.462224  -0.38524066            0  -0.33945281  0.004123743 
  194300    17.340331  -0.38484938            0  -0.33938115 0.00098468166 
  194400    17.174458  -0.38448177            0  -0.33944847 0.0029280878 
  194500    17.414108  -0.38514604            0  -0.33948435 -0.0016343872 
  194600    17.140235  -0.38450432            0  -0.33956075  0.010174585 
  194700    17.246326  -0.38485958            0  -0.33963784 0.0011357058 
  194800    17.296763  -0.38501991            0  -0.33966592 0.0002279981 
  194900     17.46682  -0.38553499            0  -0.33973509 0.0059480382 
  195000    17.436904  -0.38549428            0  -0.33977282 0.0069134855 
  195100    17.426457  -0.38526311            0  -0.33956905 0.0043032151 
  195200     17.31003  -0.38491788            0   -0.3395291 0.0033227633 
  195300    17.364205  -0.38500409            0  -0.33947325 -0.0018565392 
  195400    17.208753  -0.38468483            0  -0.33956161 0.0059828899 
  195500    17.654225  -0.38588906            0  -0.33959776 0.00016091458 
  195600     17.88298  -0.38638713            0  -0.33949601 0.0041263133 
  195700    17.838519  -0.38622981            0  -0.33945527 0.0069042364 
  195800    17.607332  -0.38564518            0  -0.33947684   0.00839352 
  195900    17.558715  -0.38546515            0  -0.33942429 0.0024695055 
  196000    17.441717  -0.38518407            0  -0.33944999 -0.00020011115 
  196100     17.39715  -0.38512007            0  -0.33950285 0.0048451578 
  196200    17.587679  -0.38568624            0  -0.33956943 0.0021862316 
  196300    17.499174   -0.3855605            0  -0.33967576 0.0023396022 
  196400    17.556593  -0.38571066            0  -0.33967536  0.003465946 
  196500     17.55016  -0.38563276            0  -0.33961433 0.0065196194 
  196600    17.417118  -0.38526985            0  -0.33960027 0.0044182216 
  196700    17.468258   -0.3853842            0  -0.33958053 -0.0004784144 
  196800    17.664002  -0.38594023            0   -0.3396233 0.0049881999 
  196900    17.782226   -0.3860702            0  -0.33944327  0.010473503 
  197000    17.970138  -0.38658828            0  -0.33946862 -0.0028169924 
  197100    17.429494  -0.38522382            0   -0.3395218 0.0047812436 
  197200    17.398496  -0.38511376            0  -0.33949301 0.0020487789 
  197300    17.475216  -0.38541388            0  -0.33959197 0.0055582656 
  197400    17.892274  -0.38651033            0  -0.33959484  0.003058207 
  197500    17.755969  -0.38614797            0  -0.33958989 0.0070016272 
  197600    17.547175  -0.38564261            0  -0.33963201 0.0036747888 
  197700    17.367862  -0.38515501            0  -0.33961459  0.003340441 
  197800    17.544471  -0.38552918            0  -0.33952567 0.0008871546 
  197900    17.665246   -0.3858629            0   -0.3395427 0.0072562344 
  198000    17.902065  -0.38632811            0  -0.33938695 0.0048555639 
  198100    17.636733  -0.38572799            0  -0.33948256 0.0080747519 
  198200    17.450344  -0.38535838            0  -0.33960168 0.00044562601 
  198300    17.472862  -0.38537343            0  -0.33955768 -0.0017557862 
  198400    17.418622  -0.38522345            0  -0.33954993 0.0062459706 
  198500    17.333854    -0.384995            0  -0.33954375 0.0052929903 
  198600    17.351831   -0.3850056            0  -0.33950722 -0.0030304788 
  198700    17.140793  -0.38450042            0   -0.3395554 0.0029130413 
  198800    17.278694  -0.38481172            0   -0.3395051 0.0054673055 
  198900    17.494065  -0.38536881            0  -0.33949747 0.0030259077 
  199000    17.463091  -0.38522613            0  -0.33943601 0.0045379891 
  199100      17.5036   -0.3852542            0  -0.33935785 0.0075541831 
  199200    17.390972  -0.38523463            0  -0.33963361 0.0056767764 
  199300    17.439311  -0.38503545            0  -0.33930768 0.0025910998 
  199400    17.517002  -0.38520042            0  -0.33926894 0.0010130275 
  199500    17.351351  -0.38487936            0  -0.33938223 0.0073914689 
  199600    17.468192  -0.38520362            0  -0.33940012  0.005572964 
  199700    17.271784  -0.38472355            0  -0.33943506 0.0048120193 
  199800    17.026237  -0.38411113            0  -0.33946648 0.0015698629 
  199900    16.891316  -0.38377873            0  -0.33948786  0.003448489 
  200000    17.110278  -0.38431223            0  -0.33944722 -9.0448581e-05 
  200100    17.311026  -0.38499597            0  -0.33960458 0.0018505763 
  200200    17.199655  -0.38463606            0  -0.33953669  0.010424882 
  200300    17.241406  -0.38469921            0  -0.33949037 0.0037735443 
  200400    17.227582  -0.38466279            0  -0.33949019  0.001562465 
  200500    17.116815  -0.38431116            0  -0.33942901 0.0058576858 
  200600    17.422932  -0.38495686            0  -0.33927204 0.0034998471 
  200700    17.296695  -0.38475154            0  -0.33939773 0.0084883171 
  200800    17.381942  -0.38493526            0  -0.33935792 0.00082844684 
  200900    17.317366  -0.38498104            0  -0.33957302  0.003852225 
  201000    17.465408  -0.38534237            0  -0.33954617 0.0057088416 
  201100    17.566381  -0.38568701            0  -0.33962605 0.0037487844 
  201200    17.666573  -0.38597096            0  -0.33964728 0.0051581938 
  201300    17.569077  -0.38568148            0  -0.33961345 0.0055487076 
  201400    17.344552  -0.38507845            0  -0.33959915 0.0012391783 
  201500    17.398771  -0.38517535            0  -0.33955388 -0.001405424 
  201600    17.464695  -0.38529328            0  -0.33949895 0.0033700315 
  201700    17.589339  -0.38555963            0  -0.33943847 0.0076524543 
  201800    17.731426  -0.38577428            0  -0.33928056 0.0049675393 
  201900     17.75249   -0.3857464            0  -0.33919744 -9.8870186e-05 
  202000    17.462271  -0.38502398            0    -0.339236 0.0088892776 
  202100    17.510364  -0.38529898            0   -0.3393849 0.0085269788 
  202200    17.646289  -0.38555733            0  -0.33928684 0.0040498573 
  202300    17.415478  -0.38502673            0  -0.33936146 0.0052216717 
  202400    17.386232  -0.38491132            0  -0.33932273 0.0002180478 
  202500     17.09244   -0.3841578            0  -0.33933956 0.0023559599 
  202600     17.13575  -0.38431798            0  -0.33938618 0.0026701908 
  202700    17.252008  -0.38472351            0  -0.33948686 0.0038150522 
  202800    17.283603  -0.38476415            0  -0.33944467 0.0042976997 
  202900    17.231608  -0.38477275            0   -0.3395896 0.00091519326 
  203000    16.959463  -0.38414533            0  -0.33967577 0.0034408331 
  203100    16.967662  -0.38412749            0  -0.33963644 -1.1745149e-05 
  203200    17.249309  -0.38489977            0   -0.3396702 -0.00033722908 
  203300    17.416656  -0.38521734            0  -0.33954897 0.0062817448 
  203400    17.470499  -0.38527457            0  -0.33946502 0.0049675216 
  203500    17.352328  -0.38506663            0  -0.33956694 0.0081064607 
  203600    17.474608  -0.38527196            0  -0.33945163 0.0060423368 
  203700    17.526032  -0.38541258            0  -0.33945741 -0.0010003737 
  203800     17.42024  -0.38499966            0   -0.3393219 0.0021244522 
  203900    17.425749  -0.38511412            0  -0.33942191 0.0019997801 
  204000    17.457697   -0.3851274            0  -0.33935142 0.00014070827 
  204100    17.474068   -0.3851217            0   -0.3393028 0.0058270337 
  204200    17.772352  -0.38586084            0   -0.3392598 0.0052040615 
  204300     17.92475  -0.38628722            0  -0.33928658 0.0031923802 
  204400    17.782132    -0.386025            0  -0.33939832 0.0053343124 
  204500    17.711048  -0.38593638            0  -0.33949609 0.0018228102 
  204600     17.53934  -0.38545197            0  -0.33946191 0.0028220001 
  204700    17.541979  -0.38554246            0  -0.33954549 0.0011993509 
  204800    17.429062  -0.38518018            0  -0.33947928 0.0092091421 
  204900    17.711141  -0.38594621            0  -0.33950567 0.0019353944 
  205000    17.645827   -0.3858258            0  -0.33955652 0.0022430985 
  205100    17.745711  -0.38594821            0  -0.33941703 0.0026046875 
  205200     17.73397  -0.38581176            0  -0.33931136 0.0069053783 
  205300    17.738616  -0.38590227            0  -0.33938969 0.0068629693 
  205400    17.838227  -0.38614197            0   -0.3393682 0.0034056245 
  205500     17.67852  -0.38565219            0  -0.33929718   0.00692867 
  205600    17.686972  -0.38562807            0  -0.33925091 0.00060194103 
  205700    17.481267  -0.38527617            0  -0.33943838 0.0036805122 
  205800    17.688602  -0.38555045            0  -0.33916901 0.0025055064 
  205900    17.614189  -0.38537362            0   -0.3391873  0.004518484 
  206000    17.640006  -0.38558718            0  -0.33933317 0.0038214808 
  206100    17.754283  -0.38571516            0   -0.3391615 0.0046247579 
  206200    17.722258  -0.38565622            0  -0.33918654 0.0059023349 
  206300    17.772894  -0.38583757            0   -0.3392351 2.2044004e-06 
  206400    17.528124  -0.38527993            0  -0.33931929 0.0051074849 
  206500    17.659601  -0.38564115            0  -0.33933576 0.0024500448 
  206600    17.600107  -0.38561213            0  -0.33946273 0.0057361888 
  206700    17.662313   -0.3857512            0  -0.33943869 0.0062999786 
  206800    18.064146  -0.38684602            0  -0.33947986 -0.00034233251 
  206900    17.897914  -0.38641922            0  -0.33948894 0.0085918065 
  207000    17.951852  -0.38658052            0  -0.33950881 3.0703459e-05 
  207100    17.623369  -0.38573694            0  -0.33952655 0.0080935017 
  207200    17.713904  -0.38583808            0   -0.3393903 0.0047456851 
  207300    17.613361  -0.38562192            0  -0.33943777 0.0012146587 
  207400    17.418912  -0.38505756            0  -0.33938328  0.005112659 
  207500    17.284231  -0.38484157            0  -0.33952044 0.0072876355 
  207600    17.435073  -0.38515486            0   -0.3394382 0.00076686801 
  207700    17.293944  -0.38480668            0  -0.33946008  0.003225112 
  207800    17.517439  -0.38535198            0  -0.33941935 -0.0021985976 
  207900    17.481803  -0.38526916            0  -0.33942997  0.002855102 
  208000    17.592949  -0.38558433            0   -0.3394537 0.0039213319 
  208100    17.472432  -0.38524704            0  -0.33943243 0.0062018882 
  208200    17.556384  -0.38547445            0   -0.3394397 -0.00060849104 
  208300    17.447733   -0.3851685            0  -0.33941865 0.0074500307 
  208400    17.497765  -0.38533698            0  -0.33945594 0.0025916291 
  208500    17.425522  -0.38519092            0  -0.33949931 0.00062329178 
  208600    17.232605  -0.38466925            0  -0.33948349   0.00579214 
  208700    17.373159  -0.38494877            0  -0.33939446 0.0021208808 
  208800     17.53129  -0.38538105            0  -0.33941211 -0.00074993592 
  208900    17.477393  -0.38516292            0  -0.33933529  0.005926643 
  209000    17.388431  -0.38504375            0  -0.33944939 0.0046116694 
  209100    17.390531  -0.38496297            0  -0.33936311 -0.0021881296 
  209200    17.367299   -0.3849351            0  -0.33939616  0.002072664 
  209300    17.290253   -0.3846754            0  -0.33933847  0.006481869 
  209400     17.24286   -0.3846333            0  -0.33942064 -0.0041870459 
  209500     17.18969  -0.38447688            0  -0.33940364 -0.0014609577 
  209600    17.210197  -0.38455969            0  -0.33943268  0.007491318 
  209700    17.250853  -0.38474196            0  -0.33950835 0.0049347959 
  209800    17.348461  -0.38504153            0  -0.33955198 -0.0024030736 
  209900    17.457701  -0.38529075            0  -0.33951476 0.0002791619 
  210000    17.557568  -0.38556967            0  -0.33953181 0.0032368131 
  210100    17.493346  -0.38533322            0  -0.33946376 0.0069111812 
  210200    17.571608  -0.38541364            0  -0.33933897 0.0013212845 
  210300    17.517462  -0.38532522            0  -0.33939253 0.0019978798 
  210400    17.529148  -0.38526719            0  -0.33930386 0.0047404822 
  210500    17.590645  -0.38544327            0  -0.33931868 0.0026822891 
  210600    17.554427  -0.38544671            0  -0.33941709 0.0011359799 
  210700    17.580379  -0.38564722            0  -0.33954955 0.0025108385 
  210800    17.616282  -0.38572187            0  -0.33953006 0.0056521407 
  210900    17.702203  -0.38593348            0  -0.33951638 0.0024244924 
  211000    17.777948  -0.38614284            0  -0.33952712 0.0022546475 
  211100    17.822644   -0.3862208            0  -0.33948789 0.0018261725 
  211200    17.724418  -0.38605085            0   -0.3395755 0.0028982858 
  211300    17.991601   -0.3865817            0  -0.33940577 0.0033326135 
  211400    17.933661  -0.38646084            0  -0.33943684  0.011065011 
  211500    18.195182  -0.38704443            0  -0.33933468 0.0038889617 
  211600    17.998949  -0.38656782            0  -0.33937262 0.0028572584 
  211700    17.838916  -0.38618225            0  -0.33940667 0.0019597623 
  211800    17.887084  -0.38634641            0  -0.33944453  -0.00197152 
  211900    17.920485  -0.38636408            0  -0.33937462 0.0040491243 
  212000    18.003981  -0.38656775            0  -0.33935936 0.0099964651 
  212100    17.981088  -0.38655577            0   -0.3394074 0.0076594936 
  212200    17.885854  -0.38624783            0  -0.33934918 0.0014240541 
  212300    17.871209  -0.38617032            0  -0.33931007 -0.00058500879 
  212400    17.719311  -0.38570897            0  -0.33924701 0.0052780961 
  212500    17.805436  -0.38589779            0     -0.33921 0.00066453435 
  212600     17.62277  -0.38538982            0    -0.339181 0.0036784534 
  212700    17.540576  -0.38527816            0  -0.33928486 0.0025998321 
  212800    17.692162  -0.38543685            0  -0.33904607 0.0032900741 
  212900    17.482931  -0.38508713            0  -0.33924499 0.0092591652 
  213000    17.582435  -0.38530162            0  -0.33919856 0.0025135346 
  213100    17.486729  -0.38508668            0  -0.33923457 0.0013978664 
  213200    17.520775  -0.38526475            0  -0.33932337 0.0013586032 
  213300    17.603949  -0.38544393            0  -0.33928446 0.0046634906 
  213400    17.620029  -0.38554561            0  -0.33934398 0.0064758261 
  213500    17.766496   -0.3859754            0  -0.33938972 0.00083222685 
  213600    17.628958  -0.38554953            0  -0.33932448 0.0077724882 
  213700    17.620196  -0.38562184            0  -0.33941977 0.0089231106 
  213800    17.705592  -0.38576396            0  -0.33933797 0.0016630799 
  213900    17.692292  -0.38578519            0  -0.33939408 0.0016409343 
  214000    17.554441  -0.38544325            0   -0.3394136 0.0070455429 
  214100     17.40765  -0.38510393            0  -0.33945917 0.0037540967 
  214200    17.407118  -0.38488961            0  -0.33924625 -0.00066781814 
  214300    17.263303  -0.38462016            0   -0.3393539 0.0065895876 
  214400    17.566925  -0.38541492            0  -0.33935253 0.0047566125 
  214500    17.568299  -0.38548357            0  -0.33941758 0.0049202513 
  214600    17.614771  -0.38549328            0  -0.33930544 0.00099315802 
  214700    17.600105  -0.38553002            0  -0.33938063 0.00057429887 
  214800    17.473989  -0.38509111            0  -0.33927241 0.0074888579 
  214900    17.522265  -0.38519055            0  -0.33924526 0.0019799068 
  215000    17.690446  -0.38557448            0  -0.33918821 -0.0010098684 
  215100    17.715879  -0.38588729            0  -0.33943433 0.0068092602 
  215200    17.815302  -0.38604109            0  -0.33932743 0.0062390199 
  215300    17.678145  -0.38579059            0  -0.33943657 0.0041500648 
  215400    17.544141  -0.38542674            0  -0.33942409 0.0035129024 
  215500    17.597758  -0.38561705            0  -0.33947381 0.0029053853 
  215600    17.684528  -0.38579869            0  -0.33942794 0.0064774405 
  215700    17.805133  -0.38602068            0  -0.33933368 0.0024290818 
  215800    17.767688  -0.38597108            0  -0.33938227 0.0010678399 
  215900    17.891964  -0.38618754            0  -0.33927287 0.0024680783 
  216000    17.776241  -0.38589607            0  -0.33928483 0.0079251971 
  216100    18.007955  -0.38654633            0  -0.33932751 -0.0025314543 
  216200    17.759563  -0.38583932            0  -0.33927181 0.0057071157 
  216300    17.955751  -0.38618091            0  -0.33909898 0.0019134919 
  216400    17.914689  -0.38612176            0   -0.3391475 0.0024223261 
  216500    18.003049  -0.38626166            0  -0.33905571  0.003979383 
  216600    18.132454  -0.38652014            0  -0.33897487 0.0049908103 
  216700    17.823372  -0.38586743            0  -0.33913261 0.0058219178 
  216800    17.826467  -0.38569069            0  -0.33894776 0.0022972998 
  216900    17.675233  -0.38544712            0  -0.33910074  0.007588142 
  217000    17.666926  -0.38541065            0  -0.33908605 0.0070575366 
  217100    17.646103  -0.38547501            0  -0.33920501 0.0027861906 
  217200    17.644088  -0.38534442            0  -0.33907971  0.003494493 
  217300     17.57334  -0.38515028            0  -0.33907107 0.0019118337 
  217400    17.633208  -0.38520285            0  -0.33896666 -0.00030196405 
  217500    17.633723  -0.38536307            0  -0.33912553 0.0070100215 
  217600    17.748016  -0.38553882            0  -0.33900159 0.0095317035 
  217700    17.736591  -0.38552872            0  -0.33902145 0.0035145996 
  217800     17.56224  -0.38535759            0  -0.33930748 0.0030512211 
  217900    17.507671  -0.38507496            0  -0.33916794 0.0022603784 
  218000    17.452207  -0.38486479            0  -0.33910321 0.0050482526 
  218100    17.735417  -0.38546113            0  -0.33895694 0.00077162839 
  218200    17.436659  -0.38485995            0  -0.33913913 0.0094656033 
  218300    17.527866  -0.38486187            0   -0.3389019 0.0039065792 
  218400    17.436007  -0.38463862            0  -0.33891951 0.00025655561 
  218500    17.274047  -0.38435871            0  -0.33906428 0.0030017424 
  218600    17.412263  -0.38472588            0  -0.33906903 0.00044277008 
  218700    17.366293  -0.38467529            0  -0.33913898 0.0060869329 
  218800    17.429256  -0.38484498            0  -0.33914358  0.006315235 
  218900    17.443417  -0.38483993            0  -0.33910139 -0.0012302104 
  219000    17.266827  -0.38440171            0  -0.33912622 -0.0016498412 
  219100    17.448536   -0.3847204            0  -0.33896845 0.00060880198 
  219200    17.451661  -0.38471313            0  -0.33895297 0.0082070595 
  219300    17.348371  -0.38447541            0   -0.3389861 0.0068746357 
  219400    17.517381  -0.38485991            0  -0.33892743 -0.0013796513 
  219500    17.538241  -0.38489845            0  -0.33891128 0.0036303606 
  219600    17.757301  -0.38543102            0  -0.33886944  0.004803987 
  219700     17.73635  -0.38552702            0  -0.33902038 0.0071655174 
  219800    17.532644  -0.38503862            0  -0.33906612 0.0072179221 
  219900    17.717636  -0.38538442            0  -0.33892685  -0.00124394 
  220000    17.616103  -0.38511803            0  -0.33892669 0.0030518338 
  220100    17.687291  -0.38529951            0  -0.33892151 0.0019720184 
  220200    17.724897  -0.38540512            0  -0.33892852 0.00075602063 
  220300    17.904941  -0.38577472            0  -0.33882602 0.0050352262 
  220400    17.911288  -0.38604244            0  -0.33907709 0.0071762865 
  220500    17.870564  -0.38600166            0   -0.3391431 0.0034867603 
  220600    17.783687   -0.3856966            0  -0.33906584 0.0040872799 
  220700    17.630479  -0.38543323            0   -0.3392042 0.0038091378 
  220800    17.651257  -0.38544938            0  -0.33916587 -0.0006670095 
  220900    17.536432  -0.38538395            0  -0.33940152 0.0022671009 
  221000    17.592842  -0.38544725            0  -0.33931691 0.0033433896 
  221100    17.603124  -0.38544414            0  -0.33928684 0.0027110268 
  221200    17.491705  -0.38526914            0  -0.33940399 0.0013729813 
  221300    17.286884  -0.38477404            0  -0.33944595 0.0036783914 
  221400    17.419168  -0.38511416            0  -0.33943921 -0.00043281172 
  221500    17.578094  -0.38549351            0  -0.33940184 0.0048984589 
  221600    17.743594  -0.38592564            0  -0.33940001 0.0077563424 
  221700    17.898526  -0.38621847            0  -0.33928659 0.0031213327 
  221800    17.636676  -0.38548606            0  -0.33924078 0.0054006999 
  221900    17.839738  -0.38591926            0  -0.33914152 0.00012452775 
  222000    17.635597  -0.38537622            0  -0.33913376  0.010376458 
  222100     17.69737  -0.38558836            0  -0.33918393 0.0049529357 
  222200    17.679543  -0.38553507            0  -0.33917739 -0.00014662626 
  222300    17.518973  -0.38521697            0  -0.33928031 0.0054328116 
  222400    17.667126  -0.38555064            0  -0.33922552 0.0030186104 
  222500    17.610126   -0.3853997            0  -0.33922404 -0.00010755923 
  222600    17.569859  -0.38525173            0  -0.33918165  0.003239613 
  222700    17.747529  -0.38573028            0  -0.33919433 0.0039930085 
  222800    17.800138  -0.38581137            0  -0.33913747 0.0066103616 
  222900     17.85484  -0.38601363            0   -0.3391963 0.0027872871 
  223000    17.810767  -0.38583439            0  -0.33913262 0.0033081856 
  223100    17.645461  -0.38530204            0  -0.33903372 0.0016718568 
  223200    17.588306  -0.38532216            0  -0.33920371 -0.0014096516 
  223300    17.643354  -0.38552962            0  -0.33926682 0.0047946276 
  223400    17.906467  -0.38607004            0  -0.33911734 0.0057943957 
  223500    17.861886  -0.38600497            0  -0.33916916  0.005772239 
  223600    17.612703  -0.38540292            0   -0.3392205 0.0043329347 
  223700    17.507757  -0.38516768            0  -0.33926044 0.0017542747 
  223800    17.421997  -0.38494802            0  -0.33926565 0.0030961492 
  223900    17.463071   -0.3851395            0  -0.33934942 0.0016636104 
  224000    17.382691  -0.38492264            0  -0.33934333 0.0031191332 
  224100    17.466982  -0.38513861            0  -0.33933828 0.0012047044 
  224200    17.467536  -0.38513532            0  -0.33933354 0.0035994753 
  224300    17.424613  -0.38521469            0  -0.33952546 0.0046579371 
  224400    17.653526  -0.38549696            0   -0.3392075 0.0032788886 
  224500    17.678936  -0.38552363            0  -0.33916754  0.006433486 
  224600     17.74593  -0.38571456            0   -0.3391828  0.002249732 
  224700    17.700733  -0.38546854            0  -0.33905529 0.0045762275 
  224800    17.706971  -0.38555475            0  -0.33912515 0.0037103614 
  224900    17.731115  -0.38567617            0  -0.33918326 0.0011743432 
  225000    17.649748  -0.38549592            0  -0.33921637 0.0063033271 
  225100    17.703153  -0.38547625            0  -0.33905665 0.0055704888 
  225200    17.757348  -0.38560992            0  -0.33904822 0.0010508824 
  225300    17.674134  -0.38545629            0  -0.33911279 0.00049550593 
  225400    17.608537  -0.38521863            0  -0.33904714 0.0015853877 
  225500    17.475355  -0.38489701            0  -0.33907473 0.0050841647 
  225600    17.600751  -0.38520007            0  -0.33904899 0.0052215854 
  225700    17.555077  -0.38508713            0  -0.33905581 0.0085229515 
  225800    17.554052  -0.38497355            0  -0.33894492 0.0034848438 
  225900    17.408742  -0.38461444            0  -0.33896683 0.0024393621 
  226000     17.39673  -0.38458667            0  -0.33897055 0.0017925177 
  226100    17.498782  -0.38500686            0  -0.33912315 0.0023631079 
  226200    17.553544  -0.38511168            0  -0.33908438   0.00463774 
  226300    17.472897   -0.3849147            0  -0.33909887 0.0044746313 
  226400    17.477449  -0.38486215            0  -0.33903438 0.0055558745 
  226500    17.477968  -0.38509137            0  -0.33926224 0.0040264741 
  226600    17.534361  -0.38506808            0  -0.33909108 0.0014700117 
  226700    17.663055  -0.38543743            0  -0.33912298  0.001135127 
  226800    17.423481  -0.38491661            0  -0.33923035 0.0066302407 
  226900    17.440958  -0.38491096            0  -0.33917888 -0.00020799285 
  227000    17.549787  -0.38510289            0  -0.33908544 -0.000557558 
  227100     17.62836   -0.3853041            0  -0.33908062 0.0061766287 
  227200    17.663486   -0.3853096            0  -0.33899402 0.0082227577 
  227300    17.817565  -0.38566679            0   -0.3389472 -0.001049698 
  227400    17.727051   -0.3854956            0  -0.33901335 0.0036572938 
  227500       17.934  -0.38587785            0  -0.33885295  0.006410865 
  227600    17.930027  -0.38602079            0  -0.33900631 0.0032555552 
  227700     17.76622  -0.38558768            0  -0.33900271 0.0021803258 
  227800    17.699635  -0.38549768            0  -0.33908731 0.0034367571 
  227900    17.516563  -0.38504696            0  -0.33911662 0.0034865044 
  228000    17.500899  -0.38502723            0  -0.33913797 0.00042152924 
  228100    17.518093  -0.38508193            0  -0.33914759 0.0030083283 
  228200    17.578651  -0.38529775            0  -0.33920461 0.0045286746 
  228300    17.669247  -0.38546159            0   -0.3391309 0.0017650593 
  228400     17.69831  -0.38554072            0  -0.33913382 0.0015029356 
  228500     17.65729  -0.38538599            0  -0.33908666 0.0037292482 
  228600    17.510062  -0.38497163            0  -0.33905834  0.006601635 
  228700    17.710265  -0.38538764            0   -0.3389494 0.00060892487 
  228800    17.652245  -0.38516673            0  -0.33888062 0.0033187368 
  228900    17.689801  -0.38526641            0  -0.33888183  0.002777237 
  229000    17.777116   -0.3855185            0  -0.33890497 0.0032297544 
  229100    17.778555  -0.38534741            0   -0.3387301  0.005543359 
  229200    17.845113  -0.38553528            0  -0.33874345 0.0055270972 
  229300    17.703296  -0.38533274            0  -0.33891278 0.0088261489 
  229400     17.75257  -0.38531391            0  -0.33876474 0.00054659813 
  229500    17.674034  -0.38504164            0   -0.3386984 0.0019632523 
  229600    17.787074  -0.38554626            0  -0.33890662 0.0027112801 
  229700    17.861285  -0.38568702            0  -0.33885279 0.0054599035 
  229800     17.80807  -0.38549334            0  -0.33879864 0.0037887843 
  229900    17.755626  -0.38542538            0   -0.3388682 0.0043793482 
  230000     17.85551  -0.38566843            0  -0.33884934 0.0038321769 
  230100    17.842426  -0.38564118            0  -0.33885639  0.004004247 
  230200    17.639826  -0.38523178            0  -0.33897824 0.0093485436 
  230300    17.925742  -0.38587253            0  -0.33886928 0.0028715222 
  230400    17.715643  -0.38531041            0  -0.33885806 0.0066061591 
  230500    17.910332   -0.3857655            0  -0.33880266 -0.0012845635 
  230600     17.88728  -0.38563113            0  -0.33872874 0.0039879308 
  230700    17.945021  -0.38578501            0  -0.33873122 0.0042828144 
  230800      17.7694  -0.38524875            0  -0.33865545 0.0056976835 
  230900    17.663519  -0.38505544            0  -0.33873977 0.0035689537 
  231000    17.622172  -0.38492809            0  -0.33872084 0.0027121338 
  231100    17.533018  -0.38468501            0  -0.33871153 0.0028287055 
  231200    17.678695  -0.38500096            0   -0.3386455 -0.00028784489 
  231300     17.45352  -0.38462486            0  -0.33885984 0.0088314407 
  231400    17.706576  -0.38503694            0  -0.33860838 0.0024921952 
  231500    17.600451  -0.38482467            0  -0.33867437 0.0036163778 
  231600    17.439479  -0.38459711            0   -0.3388689 0.0067264883 
  231700    17.562737  -0.38468732            0  -0.33863591 0.00061127514 
  231800    17.661648  -0.38500685            0  -0.33869608 -0.00083195004 
  231900    17.715845  -0.38506762            0  -0.33861475 0.0056425948 
  232000    17.914576  -0.38554801            0  -0.33857405 0.0043855535 
  232100    18.041502  -0.38588844            0  -0.33858167 0.0038158919 
  232200    18.005946  -0.38576883            0  -0.33855529  0.003278723 
  232300     17.98349  -0.38555899            0  -0.33840432 0.0019042958 
  232400    17.898147  -0.38524393            0  -0.33831304 0.0046120466 
  232500    18.047474  -0.38581843            0    -0.338496  0.005176196 
  232600     18.04748  -0.38578509            0  -0.33846263 0.0099419964 
  232700    18.085674  -0.38593197            0  -0.33850936 0.0034558284 
  232800     17.90702  -0.38559876            0   -0.3386446 0.0015429442 
  232900    17.736646  -0.38522306            0  -0.33871565 0.0041923161 
  233000    17.709343  -0.38535241            0  -0.33891659 0.0020950727 
  233100    17.501928  -0.38472514            0  -0.33883318 0.0080392574 
  233200    17.738933  -0.38539462            0  -0.33888121 0.0047890501 
  233300    17.782498  -0.38549449            0  -0.33886685 0.0066824779 
  233400    17.712476   -0.3855273            0  -0.33908327 0.0066782628 
  233500    17.923689  -0.38593689            0  -0.33893902 0.00084992395 
  233600    17.871557  -0.38579708            0  -0.33893592 0.0027631779 
  233700     17.76763  -0.38543673            0  -0.33884807 0.0073377707 
  233800    17.954407  -0.38613435            0  -0.33905594 0.0024772344 
  233900    17.703395  -0.38538063            0  -0.33896041  0.011071604 
  234000    17.689955   -0.3853433            0  -0.33895832 0.0017659832 
  234100    17.714421  -0.38545342            0  -0.33900428 8.8367603e-05 
  234200    17.843085  -0.38578598            0  -0.33899947 0.0050344275 
  234300    17.822014  -0.38582568            0  -0.33909442 0.0047247117 
  234400    17.698735  -0.38544316            0  -0.33903516 0.0047196995 
  234500    17.663786   -0.3854543            0  -0.33913793 0.0052100972 
  234600     17.86962  -0.38597734            0  -0.33912125 0.0022672114 
  234700    17.814347  -0.38583394            0  -0.33912278 0.0057058775 
  234800    17.741124  -0.38564986            0  -0.33913071 0.0052484707 
  234900    17.698607  -0.38548572            0  -0.33907805 2.5910371e-05 
  235000    17.736761  -0.38569109            0  -0.33918337 -0.0004428273 
  235100    17.813831  -0.38582343            0  -0.33911362 0.0057042469 
  235200    17.982488  -0.38630304            0    -0.339151 0.0023855508 
  235300    17.660113  -0.38561658            0  -0.33930984 0.0065406215 
  235400    17.638415  -0.38549024            0   -0.3392404 0.0058683305 
  235500     17.56219  -0.38538241            0  -0.33933244 0.0029382846 
  235600    17.561626   -0.3853177            0   -0.3392692 -1.727356e-05 
  235700    17.571841  -0.38534763            0  -0.33927235 0.0037061018 
  235800    17.537956  -0.38523963            0   -0.3392532 0.0051423907 
  235900    17.470352  -0.38511992            0  -0.33931076 0.00076883381 
  236000    17.591804  -0.38528479            0  -0.33915716 0.00067545486 
  236100    17.621191  -0.38531567            0  -0.33911099 0.0033699705 
  236200     17.56955  -0.38513007            0   -0.3390608 0.0042492513 
  236300    17.674665  -0.38543289            0    -0.339088 0.00032981025 
  236400    17.663067  -0.38538555            0  -0.33907107 0.0048432445 
  236500    17.829904  -0.38583606            0  -0.33908411 0.00092419919 
  236600    17.738825   -0.3856283            0  -0.33911517 0.0079901187 
  236700    17.806887  -0.38590982            0  -0.33921822  0.010531176 
  236800    18.049545  -0.38647857            0   -0.3391507  0.001866459 
  236900    17.864196  -0.38598472            0  -0.33914286 0.0060715403 
  237000    17.853343  -0.38591193            0  -0.33909852 0.0044038273 
  237100    17.934878  -0.38604094            0  -0.33901374 0.0015504005 
  237200     17.87478  -0.38599805            0  -0.33912843 0.0044915574 
  237300    17.770324  -0.38566956            0  -0.33907384 0.0084637734 
  237400    17.863273  -0.38611738            0  -0.33927794 0.0017998512 
  237500    17.773257  -0.38568035            0  -0.33907694 0.0042926291 
  237600    17.769202  -0.38573176            0  -0.33913898 0.0031550569 
  237700     17.58392  -0.38529958            0  -0.33919263 0.0031769389 
  237800    17.460708  -0.38498915            0  -0.33920528 0.0021344634 
  237900    17.518786  -0.38518414            0  -0.33924798 0.00039825049 
  238000    17.556039  -0.38517704            0   -0.3391432 0.0043713066 
  238100    17.596446  -0.38522994            0  -0.33909014 0.0043450567 
  238200    17.931428  -0.38613065            0   -0.3391125 -0.0029159513 
  238300    17.599007  -0.38518245            0  -0.33903594  0.017147803 
  238400     17.70731  -0.38559886            0  -0.33916837 0.0054604049 
  238500    17.554214  -0.38512834            0  -0.33909928 0.00086884982 
  238600    17.659044  -0.38547347            0  -0.33916954 0.0014870792 
  238700    17.661905  -0.38556481            0  -0.33925338 0.0092031717 
  238800    17.766864  -0.38584324            0  -0.33925659 0.0024013524 
  238900    17.702744  -0.38569847            0  -0.33927995 -0.00061775742 
  239000     17.70706  -0.38572433            0  -0.33929449  0.005966412 
  239100    17.801636  -0.38596075            0  -0.33928293 0.0076494054 
  239200     17.81866  -0.38603817            0  -0.33931571 0.0044468858 
  239300     17.66799  -0.38552106            0  -0.33919367 0.0045152456 
  239400    17.462716  -0.38484662            0  -0.33905748 0.0033813733 
  239500    17.494109   -0.3848322            0  -0.33896074 0.0026772368 
  239600    17.564023  -0.38500295            0  -0.33894817  0.004960746 
  239700    17.592908   -0.3850589            0  -0.33892838 0.0043308389 
  239800    17.404468  -0.38458775            0  -0.33895134  0.006606757 
  239900    17.365176  -0.38446108            0   -0.3389277 0.0059007331 
  240000    17.632198  -0.38534069            0  -0.33910715 -0.00016226804 
  240100    17.533297  -0.38502491            0   -0.3390507 0.0077172155 
  240200    17.492818  -0.38479377            0   -0.3389257 0.0068230375 
  240300      17.4417  -0.38488794            0   -0.3391539  0.001271008 
  240400    17.541387  -0.38492567            0  -0.33893024 0.0036093483 
  240500    17.659419    -0.385504            0  -0.33919908 0.0038380586 
  240600    17.694842  -0.38556367            0  -0.33916587 0.0058028069 
  240700    17.765042  -0.38579347            0   -0.3392116  0.001267232 
  240800    17.569343  -0.38544316            0  -0.33937443 0.0076080834 
  240900    17.744994  -0.38572163            0  -0.33919233 0.0059249819 
  241000    17.777284  -0.38583802            0  -0.33922405 0.0084252992 
  241100    17.962456   -0.3862413            0  -0.33914179 0.00054540239 
  241200     17.90276  -0.38614234            0  -0.33919936  0.007388018 
  241300    17.977143  -0.38646511            0  -0.33932709 0.0023552733 
  241400     17.77613  -0.38607224            0  -0.33946129 -0.00075480387 
  241500    17.586418    -0.385472            0  -0.33935849 0.0029072127 
  241600    17.586627  -0.38549178            0  -0.33937773 0.0020691839 
  241700    17.539793  -0.38536093            0  -0.33936969 0.0039182202 
  241800    17.468256  -0.38531656            0  -0.33951289 0.0061509459 
  241900    17.618511  -0.38552906            0   -0.3393314 0.0051752248 
  242000    17.699133  -0.38561926            0  -0.33921021 0.0020068616 
  242100    17.669459  -0.38560259            0  -0.33927134 0.0027447819 
  242200    17.771893   -0.3858924            0  -0.33929256 0.0082510417 
  242300    17.832088  -0.38598019            0  -0.33922252 0.0088753421 
  242400    17.672875  -0.38562793            0  -0.33928773 0.0028414123 
  242500    17.698968  -0.38561455            0  -0.33920593 -0.0032277241 
  242600    17.471735  -0.38511183            0  -0.33929904 0.0050974583 
  242700    17.603061   -0.3855951            0  -0.33943796 0.0051111637 
  242800    17.752842  -0.38581015            0  -0.33926027 0.0024116545 
  242900    17.699422  -0.38574268            0  -0.33933287 0.0041176977 
  243000    17.711877  -0.38561799            0  -0.33917552 0.0041144962 
  243100    17.619323  -0.38567106            0  -0.33947128 0.0029053765 
  243200    17.832639  -0.38603212            0    -0.339273 0.0037688645 
  243300    17.757043   -0.3858932            0  -0.33933231 0.0093076882 
  243400    17.656109  -0.38570703            0  -0.33941079 0.0044836667 
  243500    17.628858   -0.3856364            0  -0.33941162 0.0022394314 
  243600     17.73103  -0.38593819            0   -0.3394455 0.0024842433 
  243700    17.762875  -0.38594804            0  -0.33937185 0.0031765422 
  243800    17.789894   -0.3859692            0  -0.33932217 0.0042031613 
  243900    17.684883  -0.38574992            0  -0.33937823 0.0068684592 
  244000    17.682572  -0.38574454            0  -0.33937892 0.00015440205 
  244100    17.853686  -0.38623415            0  -0.33941984 -0.0021576466 
  244200    17.835893   -0.3862006            0  -0.33943295 0.0093280804 
  244300     17.88422    -0.386283            0  -0.33938863 0.0074124425 
  244400    17.842739  -0.38608881            0  -0.33930321 0.0017336178 
  244500    17.540796  -0.38541195            0  -0.33941808 0.0054392008 
  244600    17.549937  -0.38528613            0  -0.33926829 0.0058645658 
  244700    17.687344  -0.38553301            0  -0.33915487 0.00039097782 
  244800    17.573112  -0.38523827            0  -0.33915966 0.0027095936 
  244900    17.692904  -0.38556992            0   -0.3391772 0.0024174829 
  245000    17.876332  -0.38613291            0  -0.33925922 0.0044534619 
  245100    17.995685  -0.38647302            0  -0.33928638 0.0084878982 
  245200    17.960913  -0.38623179            0  -0.33913632 0.0066151578 
  245300    17.663729  -0.38548416            0  -0.33916794 0.0037660245 
  245400    17.656652  -0.38536076            0   -0.3390631 -0.0007626031 
  245500    17.653162  -0.38531363            0  -0.33902512 0.0047219712 
  245600    17.913957   -0.3860822            0  -0.33910986 0.0023673709 
  245700    17.798543  -0.38569814            0  -0.33902842  0.010189211 
  245800    17.981676  -0.38617161            0   -0.3390217 0.0026330922 
  245900     17.93164  -0.38610296            0  -0.33908425 0.0016856229 
  246000    17.962351  -0.38614991            0  -0.33905067 0.00012926609 
  246100    18.007198  -0.38619975            0  -0.33898291 0.0020159032 
  246200    18.103443  -0.38658259            0  -0.33911339 0.0049750587 
  246300    18.055841  -0.38634058            0  -0.33899621  0.007526892 
  246400     18.05394  -0.38626621            0  -0.33892682 0.0039075198 
  246500    18.059722   -0.3863245            0  -0.33896994 0.0016752901 
  246600    18.054069  -0.38631108            0  -0.33897135 0.0049439512 
  246700    18.018017  -0.38621909            0  -0.33897389 0.0061511066 
  246800     17.86534  -0.38577056            0   -0.3389257 0.0033214991 
  246900    17.861058  -0.38579108            0  -0.33895745 0.00032896211 
  247000    17.693911  -0.38542718            0  -0.33903182 0.0062387086 
  247100    17.814627  -0.38568022            0  -0.33896833 0.00044203047 
  247200     17.70983  -0.38546487            0  -0.33902777 0.0026516586 
  247300    17.887316  -0.38599546            0  -0.33909297 0.0031507525 
  247400    18.088751  -0.38648261            0  -0.33905193 4.7162745e-05 
  247500    18.062001  -0.38631578            0  -0.33895525 0.0090547689 
  247600    17.933426  -0.38605182            0  -0.33902843 0.0056889161 
  247700    17.863498  -0.38579235            0  -0.33895232 -0.0018659813 
  247800    17.877748   -0.3858573            0   -0.3389799 0.0019530058 
  247900     17.84107  -0.38579486            0  -0.33901364 0.0091389134 
  248000    17.880041  -0.38595747            0  -0.33907406 0.0016285802 
  248100    17.844784  -0.38595501            0  -0.33916405 0.00013895741 
  248200    17.904434  -0.38609647            0  -0.33914909 0.0044341563 
  248300    17.933066  -0.38619654            0  -0.33917409 0.0028105542 
  248400     17.72394  -0.38575356            0  -0.33927946 0.0067251647 
  248500    17.882986  -0.38615221            0  -0.33926107 0.0024502707 
  248600    17.906125  -0.38623524            0  -0.33928343 0.0015586989 
  248700    17.763421  -0.38586559            0  -0.33928797 0.0041738731 
  248800    17.706425  -0.38589132            0  -0.33946315 0.00040097491 
  248900    17.761428  -0.38580185            0  -0.33922945 0.0055238463 
  249000    17.868705  -0.38613408            0   -0.3392804 0.0061646532 
  249100    17.843817  -0.38606822            0  -0.33927979 0.0049119883 
  249200    17.756804  -0.38573188            0   -0.3391716 0.0068600505 
  249300     17.91915   -0.3861931            0  -0.33920714 0.0033028679 
  249400    17.811946  -0.38602241            0  -0.33931756 0.0078519949 
  249500    18.080698  -0.38668131            0  -0.33927175 -0.0028318759 
  249600    18.090693   -0.3867616            0  -0.33932584 0.0064895724 
  249700    18.268871  -0.38729275            0  -0.33938978  0.010786279 
  249800    18.297294  -0.38740112            0  -0.33942362 1.5398227e-05 
  249900    17.960062  -0.38649141            0  -0.33939818 0.0037619171 
  250000    18.042295  -0.38666915            0  -0.33936029 0.0038344892 
  250100    18.017453  -0.38658113            0  -0.33933741 0.0048475288 
  250200    18.089017  -0.38675081            0  -0.33931944 0.0012950763 
  250300    17.991061  -0.38655626            0  -0.33938174 0.0024321928 
  250400    17.900416  -0.38634934            0   -0.3394125 0.0070586797 
  250500    17.920894  -0.38637352            0  -0.33938299 0.0037922439 
  250600    17.840568  -0.38611878            0  -0.33933887 0.0055398876 
  250700    17.953002  -0.38655254            0  -0.33947782  0.002213449 
  250800    17.824104  -0.38616184            0  -0.33942509 0.0044639347 
  250900     17.73325  -0.38591823            0  -0.33941972 0.0030153317 
  251000    17.932964  -0.38650033            0  -0.33947815 -0.0022867025 
  251100    17.979811   -0.3866695            0  -0.33952448 0.0055210919 
  251200    17.966087  -0.38675407            0  -0.33964504 0.0034513478 
  251300    17.849828  -0.38631713            0  -0.33951294 0.0026827699 
  251400    17.608409  -0.38569734            0  -0.33952618  0.010622673 
  251500    17.803666  -0.38614754            0   -0.3394644 0.0011617699 
  251600     17.72917   -0.3859352            0  -0.33944739 -0.00076638672 
  251700    17.777752  -0.38605772            0  -0.33944252 0.0012091921 
  251800    17.936868  -0.38648756            0  -0.33945514 0.0032368899 
  251900    18.007292  -0.38660462            0  -0.33938754  0.004462436 
  252000    17.936966  -0.38644787            0  -0.33941519 0.0023847763 
  252100    17.872507  -0.38634911            0  -0.33948545  0.002559675 
  252200    17.980457  -0.38661912            0  -0.33947241 0.0046266217 
  252300    17.958033  -0.38649062            0  -0.33940271 0.0066491613 
  252400    18.004064  -0.38666485            0  -0.33945624 -0.0035775723 
  252500    17.863005  -0.38629551            0  -0.33945677 0.0036572471 
  252600    17.990545  -0.38662641            0  -0.33945324 0.0064727377 
  252700    18.091343  -0.38686825            0  -0.33943078 0.0030912216 
  252800     18.14002  -0.38693701            0   -0.3393719 0.0047198357 
  252900    18.129062  -0.38690508            0  -0.33936871 0.0072004805 
  253000    18.164866  -0.38688156            0  -0.33925131  0.003419957 
  253100    18.160628  -0.38687478            0  -0.33925564 -8.8854179e-06 
  253200    17.982413  -0.38651158            0  -0.33935974 0.0066535675 
  253300     17.83142  -0.38614067            0  -0.33938475 0.0089885052 
  253400    17.817692  -0.38619504            0  -0.33947511 0.0024610122 
  253500    17.792494   -0.3861215            0  -0.33946765 0.0040607517 
  253600     17.71564  -0.38594439            0  -0.33949206 0.0097434732 
  253700    17.957023  -0.38652568            0  -0.33944041 0.0017762068 
  253800    17.842935  -0.38614799            0  -0.33936188 0.0014946002 
  253900    17.637229  -0.38562218            0  -0.33937544 0.0042172788 
  254000    17.954312  -0.38643876            0   -0.3393606 -0.0003076673 
  254100    17.943153  -0.38636016            0  -0.33931126 0.0039249477 
  254200    17.705239  -0.38582798            0  -0.33940292 0.0043448401 
  254300    17.687241  -0.38579847            0   -0.3394206 0.0027922988 
  254400    17.683723  -0.38580085            0   -0.3394322 0.0048054824 
  254500    18.004955  -0.38659566            0  -0.33938471 0.0040545094 
  254600       18.142  -0.38700749            0  -0.33943719 0.0092490069 
  254700     18.16996  -0.38707315            0  -0.33942954 0.0065666348 
  254800    18.105728   -0.3869376            0  -0.33946241 -0.0031451449 
  254900    17.806641  -0.38623028            0  -0.33953933  0.002701559 
  255000    17.903874   -0.3864301            0   -0.3394842 0.0027646252 
  255100    18.111501  -0.38688554            0  -0.33939522 -0.0018302906 
  255200    18.050491  -0.38686935            0    -0.339539 0.0050738247 
  255300    18.109763  -0.38692643            0  -0.33944066  0.007127449 
  255400    18.305373  -0.38746285            0  -0.33946417 0.00027865927 
  255500    18.115533  -0.38696422            0  -0.33946332 0.0074510197 
  255600    18.091742  -0.38703966            0  -0.33960115 0.0061924805 
  255700    18.064147  -0.38690884            0  -0.33954268  0.003512833 
  255800    18.063848  -0.38688122            0  -0.33951584 -0.00048984515 
  255900    18.015928  -0.38682802            0   -0.3395883 0.0041759682 
  256000    17.963575  -0.38669956            0  -0.33959711 0.0056516213 
  256100    18.003524   -0.3868189            0   -0.3396117 -0.0010236969 
  256200     17.74352  -0.38610657            0  -0.33958113 0.0063633566 
  256300    18.084592  -0.38697271            0  -0.33955294 -0.0020756097 
  256400    18.099578  -0.38695128            0  -0.33949222 0.0067782173 
  256500    18.172278  -0.38712639            0   -0.3394767  0.010583264 
  256600    18.218887  -0.38713297            0  -0.33936107 -0.00015563171 
  256700      17.8221  -0.38610236            0  -0.33937087 -8.0209247e-05 
  256800    17.662794  -0.38572797            0  -0.33941421 0.0066675677 
  256900    17.740854  -0.38584779            0  -0.33932934 0.0034281008 
  257000    17.733091  -0.38590937            0  -0.33941128 0.00072858797 
  257100    17.733238  -0.38591434            0  -0.33941586 0.0040338768 
  257200    17.829765  -0.38613696            0  -0.33938538 0.0061369219 
  257300    17.946088  -0.38627459            0  -0.33921799 0.0037325647 
  257400    17.995738  -0.38642789            0  -0.33924111 0.0044459234 
  257500    18.088876  -0.38667529            0  -0.33924429 -0.00023445523 
  257600    17.879849  -0.38606269            0  -0.33917978 0.0048708728 
  257700    17.957499  -0.38618421            0  -0.33909769 0.0047400114 
  257800    17.919413  -0.38619355            0   -0.3392069 0.0059183769 
  257900    18.150641  -0.38690826            0   -0.3393153 0.0004269617 
  258000     17.99749  -0.38648052            0  -0.33928915 0.0043273413 
  258100    18.024163  -0.38659099            0  -0.33932968 -0.0014289996 
  258200    17.775921  -0.38601538            0  -0.33940498 0.0024974157 
  258300    17.818353  -0.38604413            0  -0.33932247 0.0035332504 
  258400    17.843642  -0.38603405            0  -0.33924608  0.006867272 
  258500    18.052084  -0.38658995            0  -0.33925543 0.0047087878 
  258600    18.299711  -0.38711591            0  -0.33913208 0.0021839903 
  258700    18.315098    -0.387194            0  -0.33916982 0.0046769765 
  258800    18.216757   -0.3869324            0  -0.33916608 0.0082146815 
  258900     18.27863  -0.38718507            0  -0.33925651 0.0015292723 
  259000     18.15387  -0.38689942            0    -0.339298 0.0033871815 
  259100    18.201806  -0.38710987            0  -0.33938276 0.0048362761 
  259200    18.263712  -0.38711237            0  -0.33922293 0.0031462937 
  259300    18.094221  -0.38669711            0   -0.3392521 0.0015287527 
  259400    17.938705    -0.386253            0  -0.33921577 2.3291112e-05 
  259500    17.866693  -0.38604411            0  -0.33919569 0.0011110328 
  259600    17.844432  -0.38605292            0  -0.33926288 0.0033578827 
  259700    17.627366  -0.38561404            0  -0.33939316  0.011355765 
  259800    18.143556  -0.38684425            0  -0.33926987 -0.002341274 
  259900    17.958337  -0.38651516            0  -0.33942645 0.0044476584 
  260000    17.981004  -0.38656897            0  -0.33942082  0.006061443 
  260100    18.039491  -0.38678467            0  -0.33948316  0.004134153 
  260200    18.085004  -0.38684686            0  -0.33942601 0.0033806345 
  260300    17.876809  -0.38640109            0  -0.33952615 0.0074899581 
  260400    18.160772  -0.38716004            0  -0.33954052 0.00087003988 
  260500    17.992885   -0.3866668            0   -0.3394875 0.0095176103 
  260600    18.154752  -0.38701929            0  -0.33941555 0.0007209928 
  260700    18.177846  -0.38707823            0  -0.33941394 -0.0016386525 
  260800     18.10609  -0.38676026            0  -0.33928412 0.0065181169 
  260900     18.18054  -0.38701541            0  -0.33934405 0.0028255938 
  261000    18.123391  -0.38667344            0  -0.33915193 0.0017669026 
  261100    18.083651  -0.38668632            0  -0.33926902 0.0033129323 
  261200    18.248247  -0.38725153            0  -0.33940264 -0.0011296449 
  261300    18.208517  -0.38692953            0  -0.33918482 0.0061700817 
  261400    18.160667  -0.38692753            0  -0.33930829 0.0047998134 
  261500    18.098568  -0.38674742            0  -0.33929101 0.00053817863 
  261600    18.085681   -0.3867648            0  -0.33934218  0.002637817 
  261700    17.926669  -0.38636355            0  -0.33935787 0.0092147033 
  261800    18.178912  -0.38697015            0  -0.33930307 -0.0012219851 
  261900    17.973068  -0.38657591            0  -0.33944857 0.0037939737 
  262000    18.041994   -0.3866548            0  -0.33934673 0.0038521925 
  262100    18.090345  -0.38684846            0  -0.33941361  0.001811073 
  262200    18.125343  -0.38681103            0  -0.33928441 -0.0011657539 
  262300    18.113286   -0.3866733            0  -0.33917829 0.0025351958 
  262400     18.23167  -0.38713287            0  -0.33932745 0.0058694411 
  262500    18.257021   -0.3870576            0  -0.33918571 0.0036096484 
  262600    18.139035  -0.38688542            0   -0.3393229 0.0014498707 
  262700    18.125765  -0.38697275            0  -0.33944502 0.0026552153 
  262800    18.001925  -0.38671414            0  -0.33951113 0.0095776246 
  262900    18.230866  -0.38717743            0  -0.33937412 0.0037762771 
  263000    18.092431  -0.38691044            0  -0.33947012 0.0049591516 
  263100    18.225279  -0.38704338            0  -0.33925471 0.00018422566 
  263200    18.039426  -0.38667428            0  -0.33937295 0.0058493981 
  263300    18.053259  -0.38665148            0  -0.33931387 0.00041677328 
  263400    18.197235  -0.38701087            0  -0.33929574 -0.0018386316 
  263500    17.977458  -0.38645664            0  -0.33931779   0.01082715 
  263600    17.934305  -0.38639584            0  -0.33937015 0.0056069411 
  263700    18.068516  -0.38674028            0  -0.33936267 -0.0023315592 
  263800    18.074216  -0.38657588            0  -0.33918332  0.003709518 
  263900    18.027556  -0.38637254            0  -0.33910233 0.0059756086 
  264000    18.047654  -0.38641739            0  -0.33909447 -0.00088739532 
  264100    17.875313  -0.38603095            0  -0.33915994 0.0041177068 
  264200    17.923244  -0.38619869            0  -0.33920199 0.0055140959 
  264300     17.82728  -0.38588226            0  -0.33913719 0.0047270768 
  264400    17.711154  -0.38560599            0  -0.33916542   0.00362771 
  264500    17.815896  -0.38580302            0  -0.33908781 0.00089580445 
  264600    17.839513  -0.38584971            0  -0.33907256 0.0011716246 
  264700    17.813442  -0.38589445            0  -0.33918567 0.0061464944 
  264800    17.791582  -0.38575507            0   -0.3391036 0.0079365366 
  264900    17.763863  -0.38569968            0   -0.3391209 0.0033091505 
  265000    17.684138  -0.38547754            0   -0.3391078 0.0031384755 
  265100    17.755395  -0.38583032            0  -0.33927374 0.0010714464 
  265200    17.921993  -0.38616921            0  -0.33917579 0.0050221715 
  265300    18.091573  -0.38669747            0   -0.3392594 0.0044870342 
  265400    17.832964  -0.38610938            0  -0.33934941 0.0044261022 
  265500    17.815342   -0.3859743            0  -0.33926054 -0.0011446891 
  265600     17.74685  -0.38580815            0  -0.33927398 0.0027576498 
  265700    17.918901   -0.3861513            0  -0.33916599 0.0014632474 
  265800    17.868622  -0.38612432            0  -0.33927085 0.0047339749 
  265900    17.851939  -0.38610046            0  -0.33929074 0.0018246215 
  266000    17.744483  -0.38576861            0  -0.33924064 0.0037519356 
  266100     17.74876  -0.38604871            0  -0.33950953 0.0049989192 
  266200    17.948656  -0.38649853            0  -0.33943521 0.0015406243 
  266300    18.095667  -0.38687637            0  -0.33942756 0.0020416657 
  266400    17.987425  -0.38655232            0  -0.33938733  0.010345872 
  266500    18.114864  -0.38695497            0  -0.33945583 -0.00079162357 
  266600    17.849898  -0.38624722            0  -0.33944285 0.0022033682 
  266700    17.994547    -0.386636            0  -0.33945234 0.0042879591 
  266800    17.848882  -0.38615832            0  -0.33935661 0.0099889802 
  266900     17.79489  -0.38606103            0  -0.33940089 0.0027718013 
  267000    17.840544  -0.38596557            0  -0.33918572 0.00031719167 
  267100    17.864179  -0.38603041            0  -0.33918859 0.0026192684 
  267200    17.983818  -0.38646935            0  -0.33931382 0.0018178738 
  267300    17.927908  -0.38619958            0  -0.33919065 0.0047740378 
  267400    17.813522  -0.38595839            0   -0.3392494 0.0021038878 
  267500    17.789731  -0.38598706            0  -0.33934045 0.0033556677 
  267600    17.948222  -0.38636477            0  -0.33930258 0.00072803155 
  267700    17.841334  -0.38609742            0   -0.3393155 0.0075166636 
  267800    17.821916  -0.38615676            0  -0.33942576 0.0063548756 
  267900    17.982432  -0.38647709            0   -0.3393252 -3.5142218e-05 
  268000    17.878589  -0.38653719            0  -0.33965758 0.0036897997 
  268100    17.886193  -0.38625897            0  -0.33935942 0.0050823362 
  268200     17.85152  -0.38617748            0  -0.33936885  0.002939816 
  268300     17.75904  -0.38599228            0  -0.33942614 0.0047462308 
  268400    17.847456  -0.38629656            0  -0.33949859 0.0049491428 
  268500    18.119274  -0.38690564            0  -0.33939493 0.00090672742 
  268600    18.008959  -0.38667516            0  -0.33945371 0.0050389442 
  268700    18.085227  -0.38690066            0  -0.33947923 -0.00031780833 
  268800    17.976814  -0.38671941            0  -0.33958225 0.0034827162 
  268900    17.965043  -0.38671706            0  -0.33961076 0.0059796727 
  269000    18.167877  -0.38714259            0  -0.33950444 0.0024035344 
  269100    17.982313  -0.38670826            0  -0.33955669 0.0076305105 
  269200     17.98918  -0.38653699            0  -0.33936741 0.0043075535 
  269300    18.045167  -0.38672532            0  -0.33940893 0.0015118302 
  269400    18.009673  -0.38675004            0  -0.33952672 0.0036375212 
  269500    17.996096  -0.38649884            0  -0.33931112 0.0071271511 
  269600    18.051299  -0.38665752            0  -0.33932505 0.0049210908 
  269700    17.980023  -0.38659605            0  -0.33945047  0.002096169 
  269800     17.77528  -0.38612343            0  -0.33951471 0.0054971318 
  269900    17.901914  -0.38640559            0  -0.33946483 0.00035454249 
  270000    17.866994   -0.3864239            0   -0.3395747 0.0065674929 
  270100    17.886008  -0.38653006            0    -0.339631 0.0057059619 
  270200    18.008377  -0.38678207            0  -0.33956215 -0.0010170971 
  270300    17.835946   -0.3863961            0  -0.33962831 0.0059732318 
  270400    17.865258  -0.38641499            0  -0.33957034 0.0063796619 
  270500    17.976091  -0.38655018            0  -0.33941492 0.0033422177 
  270600    17.917324  -0.38649079            0  -0.33950962 0.0028087448 
  270700    18.017258  -0.38670261            0   -0.3394594 0.0019795202 
  270800    17.730099  -0.38608627            0  -0.33959602  0.010598226 
  270900     17.95382  -0.38651751            0  -0.33944064 0.0015537942 
  271000    17.996321  -0.38662892            0  -0.33944061 0.0030635055 
  271100    17.954492  -0.38664092            0  -0.33956229 0.0049603023 
  271200    17.863271   -0.3863344            0  -0.33949496  0.000646347 
  271300    17.805197  -0.38622029            0  -0.33953312 -0.00061099928 
  271400    17.710294  -0.38614937            0  -0.33971105 0.0089031998 
  271500    18.172714  -0.38718295            0  -0.33953212 0.0031897571 
  271600    18.340568  -0.38756557            0  -0.33947461 0.0019591831 
  271700    18.034307  -0.38705801            0  -0.33977009  0.010045143 
  271800    18.351053  -0.38753418            0  -0.33941572 0.0045309319 
  271900    18.233132  -0.38713489            0  -0.33932563 0.0043443432 
  272000    17.818442  -0.38631368            0  -0.33959179 0.00051048434 
  272100    17.791051  -0.38599778            0  -0.33934771 0.00049621628 
  272200     17.71196  -0.38580908            0   -0.3393664 0.0075131719 
  272300    17.941999  -0.38655986            0  -0.33951399 0.00098382353 
  272400    17.879075   -0.3864248            0  -0.33954392 0.0089974169 
  272500    18.105819  -0.38709787            0  -0.33962245 0.0015724599 
  272600    18.015538  -0.38697916            0  -0.33974046 0.0014204708 
  272700    18.018506  -0.38689729            0   -0.3396508 0.0012083262 
  272800    17.969001  -0.38666855            0  -0.33955188 0.0040935303 
  272900    17.790232  -0.38620626            0  -0.33955834 0.0030853486 
  273000    17.846116  -0.38624825            0   -0.3394538 0.00023118891 
  273100      17.9495  -0.38642077            0  -0.33935523 0.0070080522 
  273200    18.051752  -0.38664093            0  -0.33930727 0.0095985645 
  273300    18.243056  -0.38714939            0  -0.33931411 0.00035879988 
  273400    18.056082  -0.38656775            0  -0.33922274 0.0065834283 
  273500    18.116336  -0.38682777            0  -0.33932477 0.0014363596 
  273600    17.999384  -0.38667214            0  -0.33947579  0.005056909 
  273700    18.186018   -0.3871354            0  -0.33944968 -9.479755e-05 
  273800    17.968018  -0.38667256            0  -0.33955847 -0.00018154825 
  273900    17.844693  -0.38633643            0  -0.33954571 0.0047189978 
  274000    17.927886  -0.38664738            0  -0.33963851 0.0090331337 
  274100    18.175737   -0.3872359            0  -0.33957714 0.0069077403 
  274200    18.242851   -0.3873271            0  -0.33949236  0.005514597 
  274300    18.222544  -0.38731336            0  -0.33953187 0.0058073444 
  274400    18.209219  -0.38725821            0  -0.33951165 0.0071338701 
  274500     18.25458  -0.38722118            0  -0.33935569 0.0016965652 
  274600    18.259095  -0.38733722            0  -0.33945989 -0.0020391234 
  274700    17.938442  -0.38670679            0  -0.33967024   0.01055255 
  274800    18.098765  -0.38699799            0  -0.33954106 0.0047842039 
  274900    18.153902   -0.3871416            0   -0.3395401 -0.0029591883 
  275000    17.770348  -0.38625466            0  -0.33965888  0.007094702 
  275100    17.828117  -0.38625862            0  -0.33951136 0.0043564342 
  275200    17.745028  -0.38623551            0  -0.33970612 0.0017516927 
  275300    17.907365  -0.38644275            0  -0.33948769 -0.0005662257 
  275400    17.854243  -0.38629172            0  -0.33947596 0.0045233185 
  275500    17.921983  -0.38654288            0  -0.33954949 0.0063785597 
  275600    17.956065  -0.38666996            0   -0.3395872 0.0051154308 
  275700    17.906074  -0.38661109            0  -0.33965942 0.0014828572 
  275800    17.822166  -0.38634735            0  -0.33961569 0.0025070705 
  275900    18.094739  -0.38711054            0  -0.33966417 -0.0007974805 
  276000    18.086556   -0.3870717            0  -0.33964679 0.0060987552 
  276100    18.197245  -0.38740725            0   -0.3396921 0.0037913623 
  276200    17.919226  -0.38670065            0  -0.33971449 0.0055993831 
  276300    17.845392  -0.38663114            0  -0.33983858 0.00047660138 
  276400     17.92241  -0.38657449            0  -0.33957998 0.0018163026 
  276500    17.955271  -0.38663405            0  -0.33955337 0.0041889799 
  276600    18.089763  -0.38701922            0  -0.33958589 0.0041937317 
  276700     17.99572  -0.38659883            0  -0.33941209 0.0063880203 
  276800    18.221304  -0.38701563            0  -0.33923738 0.0031017882 
  276900    18.328286  -0.38729106            0   -0.3392323 0.0024430982 
  277000    18.197483  -0.38703746            0  -0.33932168 0.0077080302 
  277100    18.172626  -0.38702156            0  -0.33937096 0.0074608887 
  277200    18.284539  -0.38730267            0  -0.33935861 0.0018744048 
  277300    18.191126  -0.38722051            0   -0.3395214 0.0096011449 
  277400    18.231266   -0.3872387            0  -0.33943434 0.0062355649 
  277500     18.11196  -0.38695427            0  -0.33946274 -0.002934481 
  277600    17.911684  -0.38630763            0  -0.33934125 0.00052208023 
  277700    17.842302  -0.38609892            0  -0.33931446 0.0060313044 
  277800    18.018132  -0.38665828            0  -0.33941278 0.00037051555 
  277900    18.049861  -0.38650614            0  -0.33917744  0.007451476 
  278000    17.960299  -0.38643662            0  -0.33934276   0.01023665 
  278100    18.176901   -0.3868051            0  -0.33914329 -0.0052058749 
  278200    17.822193  -0.38600641            0  -0.33927468 0.0037879299 
  278300    17.948499  -0.38627074            0  -0.33920782 0.0015569618 
  278400    18.131747  -0.38672971            0   -0.3391863 0.0017826069 
  278500    18.139541  -0.38694033            0  -0.33937648  0.010500281 
  278600    18.156714  -0.38700384            0  -0.33939496 0.0093687114 
  278700    18.074555  -0.38680945            0  -0.33941601 0.0043127814 
  278800    17.948584   -0.3864766            0  -0.33941346 0.0042982533 
  278900    18.032669  -0.38669792            0   -0.3394143 0.0054703214 
  279000    18.164741  -0.38704367            0  -0.33941374 0.0030742705 
  279100    18.264732  -0.38721781            0  -0.33932569 0.0031181201 
  279200    18.428801  -0.38758792            0   -0.3392656 0.0034830916 
  279300    18.162498  -0.38697447            0  -0.33935042 0.0066466007 
  279400    18.212454  -0.38692304            0    -0.339168 0.0008303306 
  279500    18.122214  -0.38671816            0  -0.33919975 0.0019228294 
  279600    17.932929  -0.38609675            0  -0.33907466 0.0061152591 
  279700    17.913924  -0.38606144            0  -0.33908918 0.0033441294 
  279800    17.892806  -0.38600615            0  -0.33908927 0.0065383121 
  279900     18.11137  -0.38658747            0  -0.33909749 0.0018558531 
  280000    18.111097  -0.38656477            0   -0.3390755 0.0024204657 
  280100    18.102983  -0.38673218            0  -0.33926419 0.0062439916 
  280200    18.039924  -0.38655973            0  -0.33925709 0.0059359011 
  280300    17.937999  -0.38637352            0  -0.33933813 0.0010382371 
  280400     17.84676  -0.38614211            0  -0.33934597 0.00071112079 
  280500    17.798367  -0.38596889            0  -0.33929964 0.0039654587 
  280600    18.044633  -0.38661051            0  -0.33929552 0.0026835721 
  280700    18.033076  -0.38655739            0   -0.3392727 0.0064415863 
  280800     18.03795  -0.38649418            0  -0.33919672 0.0068425967 
  280900    18.214172  -0.38685667            0  -0.33909713 0.0001489545 
  281000    18.207831  -0.38688013            0  -0.33913721 0.0014224949 
  281100    18.217284  -0.38682393            0  -0.33905623 0.0052295028 
  281200    18.084737    -0.386585            0  -0.33916485 0.0059647852 
  281300    18.202585  -0.38686725            0  -0.33913809 -8.6851748e-05 
  281400    18.003795  -0.38641471            0   -0.3392068 0.0044959888 
  281500    17.769387  -0.38593203            0  -0.33933877 0.0040666566 
  281600    17.838802  -0.38611961            0  -0.33934433 -0.00060906424 
  281700    17.828365  -0.38606442            0  -0.33931651 0.0041973011 
  281800    17.991715  -0.38650609            0  -0.33932986 0.0020423515 
  281900    17.957808  -0.38643327            0  -0.33934594 0.0037870245 
  282000    18.139184  -0.38678118            0  -0.33921827 0.0035120715 
  282100    18.228833  -0.38704642            0  -0.33924844 0.0053219613 
  282200    18.136237  -0.38669809            0  -0.33914291 0.0046899446 
  282300    18.182358  -0.38682616            0  -0.33915004 0.0017195224 
  282400    18.159812  -0.38672007            0  -0.33910307 0.0091039154 
  282500    18.278995  -0.38698891            0   -0.3390594 0.0030066885 
  282600    18.043772  -0.38635796            0  -0.33904523 0.0043622299 
  282700    18.107579  -0.38644078            0  -0.33896074 0.0016252198 
  282800    17.901008  -0.38589891            0  -0.33896052 0.0068946668 
  282900    18.111857  -0.38636806            0  -0.33887681 -7.6368535e-05 
  283000    17.808261  -0.38582272            0  -0.33912752 0.0065141103 
  283100    17.805606  -0.38567807            0  -0.33898984 0.0042944978 
  283200     17.98505   -0.3862515            0  -0.33909274 0.0013576825 
  283300    17.982654   -0.3861874            0  -0.33903492  0.005874978 
  283400    17.868285  -0.38587643            0  -0.33902384 0.0016619953 
  283500    17.922737  -0.38607195            0  -0.33907658 0.00083871393 
  283600    18.086923  -0.38640432            0  -0.33897844 0.0044854049 
  283700    18.071617  -0.38653765            0  -0.33915191 0.0069188767 
  283800    18.277634  -0.38689877            0  -0.33897283 0.0010474648 
  283900    18.084405  -0.38649508            0   -0.3390758 0.0069371816 
  284000     18.31388  -0.38706294            0  -0.33904195 0.0011501578 
  284100    18.214238  -0.38691457            0  -0.33915486  0.004962356 
  284200    18.293877     -0.38706            0  -0.33909146 0.0027265624 
  284300    18.364251  -0.38725557            0  -0.33910251 0.0018889326 
  284400    18.211665  -0.38691158            0  -0.33915861  0.005629362 
  284500     18.13293  -0.38655288            0  -0.33900637 0.0036570811 
  284600    18.289065  -0.38694959            0  -0.33899368 0.0022797799 
  284700    18.340886  -0.38701424            0  -0.33892244 0.0060030901 
  284800    18.413671  -0.38734097            0  -0.33905832 0.0041744177 
  284900    18.225139    -0.386776            0  -0.33898771 0.0093337184 
  285000    18.182401  -0.38664978            0  -0.33897355 0.0027254998 
  285100    18.019813  -0.38638236            0  -0.33913245 0.0001273379 
  285200    17.924713  -0.38606585            0  -0.33906531 0.0055428097 
  285300    18.199397  -0.38684434            0  -0.33912354 0.0031652287 
  285400    18.229288  -0.38682858            0   -0.3390294 0.0042255825 
  285500    18.177098  -0.38660842            0  -0.33894609 0.0038493184 
  285600     18.06788  -0.38655833            0  -0.33918238 0.0033807733 
  285700    18.199443  -0.38688256            0  -0.33916164 0.0018625675 
  285800     18.09747  -0.38659169            0  -0.33913815 0.0088960063 
  285900    18.053874  -0.38654315            0  -0.33920393 0.0050374236 
  286000    17.947244  -0.38637013            0   -0.3393105 0.0020380379 
  286100    17.956322  -0.38634234            0  -0.33925891 0.0021073994 
  286200    17.961208  -0.38632376            0  -0.33922752 0.0089690813 
  286300    18.081892  -0.38664136            0  -0.33922868 0.0047626234 
  286400    18.006748  -0.38640752            0  -0.33919187   0.00288319 
  286500    18.061988   -0.3865688            0   -0.3392083 -0.00056462401 
  286600    18.195661  -0.38693719            0  -0.33922619 0.0046076068 
  286700    18.225253  -0.38712951            0  -0.33934091  0.009493739 
  286800    18.238002  -0.38710411            0  -0.33928208 0.0050173007 
  286900    18.162751  -0.38684558            0  -0.33922087 0.0033578503 
  287000    18.132732  -0.38675045            0  -0.33920445 0.0061216185 
  287100    18.160149  -0.38696839            0   -0.3393505 0.0042635318 
  287200    18.204137   -0.3869322            0  -0.33919897 0.0056659199 
  287300    18.194891  -0.38687395            0  -0.33916496  0.004763858 
  287400    18.176301  -0.38688169            0  -0.33922145 -0.00019846974 
  287500    18.106099  -0.38665323            0  -0.33917707  0.004080753 
  287600    18.254273   -0.3871688            0  -0.33930411 0.0041104435 
  287700     18.34261  -0.38729625            0  -0.33919994 0.0042459285 
  287800    18.331702  -0.38722835            0  -0.33916063 0.0050785795 
  287900    18.447213  -0.38746204            0  -0.33909144  0.005973564 
  288000    18.306069  -0.38712638            0  -0.33912588  0.012480576 
  288100    18.449473  -0.38758251            0  -0.33920599 -0.0011328497 
  288200    18.374557  -0.38731905            0  -0.33913897 0.0018116913 
  288300    18.271864  -0.38701743            0  -0.33910661 0.0084333814 
  288400    18.322794  -0.38716679            0  -0.33912243 0.0045501557 
  288500    18.338408  -0.38722583            0  -0.33914053 -0.0018221988 
  288600    18.333424  -0.38716301            0  -0.33909078 0.0042011492 
  288700    18.422636  -0.38756415            0  -0.33925799 0.0051243108 
  288800      18.4702  -0.38754058            0  -0.33910971  0.004054289 
  288900    18.251913   -0.3871696            0   -0.3393111  0.008943654 
  289000    18.120848  -0.38695959            0  -0.33944475 0.0052498305 
  289100    17.892476  -0.38640377            0  -0.33948775 -0.00033751838 
  289200    17.706036  -0.38600656            0  -0.33957941 0.0041502606 
  289300    17.904834  -0.38645409            0  -0.33950567  0.003189499 
  289400    17.930061  -0.38666688            0  -0.33965231 0.0029600751 
  289500    17.846185  -0.38636773            0  -0.33957309  0.005026206 
  289600      17.8347  -0.38631667            0  -0.33955215 0.0033242182 
  289700    17.821447  -0.38632735            0  -0.33959757 -0.0012537391 
  289800    17.662866  -0.38597212            0  -0.33965816 0.0045891208 
  289900    17.912515  -0.38652457            0  -0.33955601 0.0039986023 
  290000    17.966439  -0.38663802            0  -0.33952807 0.0051408003 
  290100    18.091765   -0.3869252            0  -0.33948662 0.00023141405 
  290200      17.8861  -0.38653803            0  -0.33963873 0.0054636227 
  290300    18.034836  -0.38674377            0  -0.33945447 0.0033733728 
  290400    17.966536  -0.38662055            0  -0.33951033 0.0045490725 
  290500    17.944224  -0.38655173            0  -0.33950003 0.00064934868 
  290600    17.819877  -0.38630103            0  -0.33957538 3.0651932e-05 
  290700    17.688514  -0.38588196            0  -0.33950076 0.0020227896 
  290800    17.807613  -0.38616994            0  -0.33947645 -0.0010116735 
  290900    17.791476  -0.38607773            0  -0.33942654 0.0075444529 
  291000    18.114813  -0.38680516            0  -0.33930615 0.0041465308 
  291100    17.974048  -0.38651341            0   -0.3393835 0.0059311938 
  291200    17.890203  -0.38624705            0  -0.33933699 0.0058670187 
  291300    17.732489  -0.38596446            0  -0.33946795 0.0044630583 
  291400    17.702119  -0.38588086            0  -0.33946398 0.00090467064 
  291500    17.674614    -0.385787            0  -0.33944224 0.0029029602 
  291600    17.609319   -0.3856576            0  -0.33948405 0.0049517944 
  291700    17.713521  -0.38580662            0  -0.33935984 0.0038114124 
  291800    17.854284  -0.38609028            0   -0.3392744 0.0050179936 
  291900    17.981426  -0.38643456            0  -0.33928531 0.0040311267 
  292000    17.828142   -0.3860786            0  -0.33933128 0.0036814497 
  292100    17.875161   -0.3860361            0  -0.33916548 -0.0023917275 
  292200    17.733037  -0.38565611            0  -0.33915816 0.0052203082 
  292300    17.873793  -0.38606829            0  -0.33920126 0.0042638856 
  292400    17.853105  -0.38604202            0  -0.33922924 0.0059975704 
  292500    17.794352  -0.38592865            0  -0.33926992 0.0039055635 
  292600    17.814914  -0.38596238            0  -0.33924974 0.0024329841 
  292700    17.643734  -0.38553396            0  -0.33927017 0.0041637643 
  292800    17.570946  -0.38532395            0  -0.33925102 0.0015946257 
  292900    17.645413  -0.38553161            0  -0.33926342 0.0026670755 
  293000    17.872949  -0.38593692            0  -0.33907211 0.0049292991 
  293100     17.94076   -0.3861711            0  -0.33912848 0.0015561023 
  293200    17.821024  -0.38591123            0  -0.33918257 0.0037237623 
  293300     17.78345  -0.38584375            0  -0.33921361 0.0056628737 
  293400    17.664294  -0.38552517            0  -0.33920747 0.0050329687 
  293500     17.61107  -0.38539558            0  -0.33921744 0.00073328005 
  293600    17.524743   -0.3852427            0  -0.33929091 0.0051629643 
  293700    17.595781  -0.38546467            0  -0.33932662  0.003461547 
  293800    17.714941  -0.38587229            0  -0.33942179 0.0025590415 
  293900    17.816066  -0.38605319            0  -0.33933753 0.0046512572 
  294000    17.638734  -0.38568479            0  -0.33943411 0.0079974094 
  294100    17.742774  -0.38612092            0  -0.33959743 -0.0015620365 
  294200    17.640017  -0.38576684            0   -0.3395128 0.0028229241 
  294300    17.683345  -0.38585922            0  -0.33949157 0.0010044922 
  294400     17.50713  -0.38551744            0  -0.33961184 0.0047463059 
  294500     17.67001  -0.38576168            0  -0.33942899 0.00067105379 
  294600    17.509407  -0.38528065            0  -0.33936908 0.0095429899 
  294700    17.642968    -0.385748            0  -0.33948622  0.002199593 
  294800    17.735642  -0.38576536            0  -0.33926058 0.0019617998 
  294900    17.731801  -0.38578169            0  -0.33928698 0.0060751988 
  295000    17.774391  -0.38605194            0  -0.33944556 0.0022528855 
  295100    17.567819  -0.38552005            0  -0.33945531 0.0064536692 
  295200    17.590641  -0.38557624            0  -0.33945166 0.0039141633 
  295300    17.497511  -0.38542855            0  -0.33954817 0.0037104028 
  295400    17.694939  -0.38591534            0  -0.33951729 0.0012318529 
  295500    17.474609  -0.38534404            0  -0.33952371 0.0083556596 
  295600    17.576501  -0.38563739            0   -0.3395499 -3.6345816e-05 
  295700    17.341374  -0.38492042            0  -0.33944945 0.0044586209 
  295800    17.330905  -0.38484942            0   -0.3394059 0.00056399237 
  295900    17.357478    -0.384906            0  -0.33939281 0.00041063871 
  296000    17.435807  -0.38510824            0  -0.33938966 0.0051461639 
  296100    17.688907  -0.38566018            0  -0.33927795 0.0051367648 
  296200    17.722052  -0.38568358            0  -0.33921443 0.0050184502 
  296300    17.787385  -0.38586811            0  -0.33922765 -0.00070047976 
  296400     17.72802  -0.38562713            0  -0.33914233 0.0033689477 
  296500    17.772981  -0.38565301            0  -0.33905032 0.0041479733 
  296600    17.782978  -0.38570182            0  -0.33907292 -0.0020789984 
  296700    17.655192  -0.38531536            0  -0.33902153 0.0030072295 
  296800    17.830301  -0.38570408            0  -0.33895109 0.0042545312 
  296900    17.623254  -0.38534507            0  -0.33913498  0.006459717 
  297000    17.682587  -0.38530404            0  -0.33893837 4.3116267e-05 
  297100    17.541867  -0.38505162            0  -0.33905494 0.0053220275 
  297200    17.509489  -0.38491267            0  -0.33900089 0.0058229358 
  297300    17.423351  -0.38467157            0  -0.33898565 0.0013445168 
  297400    17.547211  -0.38503012            0  -0.33901943 -0.0014516612 
  297500     17.63603  -0.38530475            0  -0.33906116 0.0055081767 
  297600     17.66129  -0.38538019            0  -0.33907037 0.0081395006 
  297700    17.601455  -0.38532409            0  -0.33917116 0.0035278106 
  297800    17.555556  -0.38524194            0  -0.33920937 0.0041602771 
  297900    17.549557  -0.38524092            0  -0.33922407 0.00046728657 
  298000    17.497376  -0.38508646            0  -0.33920643 0.0021580759 
  298100    17.571237  -0.38549597            0  -0.33942227 0.0064538517 
  298200    17.716508  -0.38574367            0  -0.33928905 0.0030368203 
  298300    17.622879  -0.38551145            0  -0.33930234 0.0023350398 
  298400    17.647433  -0.38557886            0  -0.33930537  0.001007706 
  298500    17.570816  -0.38525469            0   -0.3391821  0.002092357 
  298600    17.660325  -0.38541043            0  -0.33910314 0.0041282415 
  298700    17.574701  -0.38532064            0  -0.33923787  0.010318879 
  298800    17.745701  -0.38560282            0  -0.33907166 0.0034987345 
  298900    17.615669  -0.38524008            0  -0.33904988 0.0028756241 
  299000    17.586406  -0.38518328            0  -0.33906982 -4.1275154e-05 
  299100    17.536856  -0.38512932            0  -0.33914577 0.0058899783 
  299200    17.781781  -0.38574925            0  -0.33912349 0.0039196298 
  299300    17.763228  -0.38566067            0  -0.33908356 0.0049775594 
  299400    17.550251  -0.38510312            0  -0.33908445 0.0027165316 
  299500    17.565927  -0.38494197            0   -0.3388822 0.0016295506 
  299600     17.43621  -0.38478693            0  -0.33906729 0.0065848377 
  299700    17.611891  -0.38524201            0  -0.33906172 -0.00079188148 
  299800     17.62267  -0.38496327            0  -0.33875472 0.0063518263 
  299900      17.8602   -0.3856579            0  -0.33882651 0.0057285567 
  300000    17.775695  -0.38560999            0  -0.33900018 0.0032102717 
  300100    17.658236  -0.38508606            0  -0.33878424 0.0019831381 
  300200    17.367875  -0.38443442            0  -0.33889397  0.010021229 
  300300    17.389265  -0.38435446            0  -0.33875792 0.0051557196 
  300400    17.501073  -0.38452279            0  -0.33863307 -0.00093831581 
  300500    17.521614  -0.38482704            0  -0.33888346 0.0027490613 
  300600     17.69847  -0.38527056            0  -0.33886325 0.0034074629 
  300700    17.563363  -0.38493923            0  -0.33888618    0.0049218 
  300800    17.469086  -0.38484788            0  -0.33904204 0.0026909918 
  300900    17.407952  -0.38480998            0  -0.33916443 0.0036509769 
  301000    17.608959  -0.38531015            0  -0.33913754 0.0062812278 
  301100    17.629581  -0.38532342            0  -0.33909674 0.0084392896 
  301200    17.558293  -0.38519727            0  -0.33915752 0.0029345453 
  301300    17.783779  -0.38565594            0  -0.33902494 -0.0018514495 
  301400    17.689645  -0.38544409            0  -0.33905992 0.0063895021 
  301500    17.695668  -0.38540498            0  -0.33900501 0.0060230905 
  301600     17.67146  -0.38535731            0  -0.33902082 -0.0029311436 
  301700    17.579425  -0.38503271            0  -0.33893754 0.0021404378 
  301800    17.643589  -0.38533025            0  -0.33906684 0.0071357848 
  301900     17.78541  -0.38563648            0   -0.3390012 0.0043662282 
  302000     17.92164  -0.38612354            0  -0.33913105 0.00024214717 
  302100    17.881465  -0.38589383            0  -0.33900669 0.0075867072 
  302200     17.79332  -0.38574118            0  -0.33908516 0.0067584027 
  302300    17.858523   -0.3858448            0  -0.33901781 -0.00055365755 
  302400    17.786118  -0.38570509            0  -0.33906796 0.0027952791 
  302500    17.719596  -0.38566144            0  -0.33919873 0.0029390052 
  302600      17.6151  -0.38544077            0  -0.33925206 0.0040972086 
  302700    17.519934  -0.38510393            0  -0.33916475 0.0043528952 
  302800    17.632455  -0.38538675            0  -0.33915253 -0.0022281038 
  302900    17.649621  -0.38548923            0     -0.33921 0.0020037293 
  303000    17.923403  -0.38616335            0  -0.33916624  0.005187964 
  303100    18.101288  -0.38672142            0  -0.33925787 0.0039846385 
  303200    17.653908  -0.38559281            0  -0.33930235 0.0093772407 
  303300    17.572889  -0.38541364            0  -0.33933561 0.0019284854 
  303400    17.645851  -0.38554704            0   -0.3392777 -0.0014186857 
  303500    17.600594  -0.38540613            0  -0.33925546 0.0064114284 
  303600    17.577088  -0.38526361            0  -0.33917458 0.0056560849 
  303700    17.684209  -0.38546839            0  -0.33909847 0.0022280919 
  303800    17.710336  -0.38544729            0  -0.33900886 0.0047436893 
  303900    17.645259  -0.38545488            0   -0.3391871 0.0047785447 
  304000    17.729839   -0.3855436            0  -0.33905403 0.00050266774 
  304100    17.510616  -0.38506434            0   -0.3391496 0.0070128127 
  304200    17.694747  -0.38572405            0   -0.3393265 0.0012983239 
  304300    17.683469  -0.38566621            0  -0.33929823 0.0042640927 
  304400    17.478723  -0.38505914            0  -0.33922803  0.010854956 
  304500    17.778285  -0.38591196            0  -0.33929536 0.00082680684 
  304600    17.647576  -0.38532387            0  -0.33905001 0.0051335155 
  304700    17.663835  -0.38526473            0  -0.33894823 -0.001021586 
  304800    17.353071  -0.38446298            0  -0.33896134 0.0059022787 
  304900    17.390177   -0.3846448            0  -0.33904587 0.0082083126 
  305000    17.570214  -0.38486554            0  -0.33879452 0.0022839135 
  305100    17.504569  -0.38473416            0  -0.33883528 -0.00053309794 
  305200    17.594453  -0.38503469            0  -0.33890012 -0.0013658741 
  305300    17.522614  -0.38493404            0  -0.33898784 0.0046689391 
  305400    17.654577  -0.38524991            0  -0.33895769 0.0010632111 
  305500    17.593743  -0.38509479            0  -0.33896208 0.0063369952 
  305600    17.780825  -0.38555368            0  -0.33893042 0.0022645833 
  305700     17.61774  -0.38547603            0   -0.3392804 0.0034769253 
  305800    17.731099  -0.38560771            0  -0.33911484 0.0046958399 
  305900     17.68925  -0.38556379            0  -0.33918065 0.0076643562 
  306000    17.787072  -0.38591452            0  -0.33927488 -0.0037573937 
  306100    17.505523  -0.38496949            0   -0.3390681 0.0022589007 
  306200    17.323637  -0.38475484            0  -0.33933038  0.008162745 
  306300    17.400922  -0.38480696            0  -0.33917985 0.0035210221 
  306400    17.541975  -0.38521685            0  -0.33921988 0.0026401267 
  306500    17.407226  -0.38496514            0   -0.3393215  0.010545748 
  306600    17.579579  -0.38546509            0  -0.33936952 0.0011159833 
  306700    17.485288   -0.3852812            0  -0.33943287 -8.8482494e-05 
  306800    17.425835  -0.38503569            0  -0.33934325  0.004829738 
  306900    17.624342  -0.38548086            0  -0.33926792 0.0017679095 
  307000    17.570968  -0.38543115            0  -0.33935816 0.0034367254 
  307100    17.464739    -0.385013            0  -0.33921856 0.0050578714 
  307200    17.417248  -0.38482137            0  -0.33915145 0.0035354216 
  307300    17.472669  -0.38497539            0  -0.33916015 0.0022989698 
  307400    17.658538  -0.38537374            0  -0.33907113 0.0024095199 
  307500    17.721687  -0.38552169            0   -0.3390535 0.0099494863 
  307600    17.786731  -0.38573773            0  -0.33909899 0.0053985898 
  307700    17.659296  -0.38536556            0  -0.33906097 0.0042309136 
  307800     17.60946  -0.38519591            0  -0.33902199 0.0029083535 
  307900    17.609342   -0.3852115            0  -0.33903789 0.0031432209 
  308000    17.795001  -0.38557274            0  -0.33891231  0.002546408 
  308100     17.78369  -0.38555857            0   -0.3389278 0.0051995408 
  308200    17.720367  -0.38545073            0    -0.338986 0.0058682184 
  308300    17.524032   -0.3848507            0  -0.33890078 0.0073287931 
  308400    17.768778  -0.38542604            0  -0.33883437 -0.0045909946 
  308500    17.760266   -0.3853532            0  -0.33878385 0.0019177015 
  308600    17.598304  -0.38526116            0   -0.3391165  0.005881241 
  308700    17.725758  -0.38547439            0  -0.33899552 0.00099523505 
  308800    17.928785  -0.38592992            0   -0.3389187 0.0019018469 
  308900    17.822717  -0.38575246            0  -0.33901936 0.0094482094 
  309000    17.733809  -0.38544607            0  -0.33894609 0.0059632687 
  309100    17.692732  -0.38532097            0   -0.3389287 -0.0016545886 
  309200    17.672164  -0.38510296            0  -0.33876463 0.0026767768 
  309300    17.925056  -0.38586382            0  -0.33886237 0.0035507787 
  309400    17.858088  -0.38563745            0   -0.3388116 0.0079815713 
  309500    17.709932  -0.38530485            0  -0.33886748  0.005099034 
  309600    17.604276  -0.38519229            0  -0.33903196 0.00088640081 
  309700    17.594692  -0.38533652            0  -0.33920133 0.0037597511 
  309800    17.503064  -0.38524198            0  -0.33934704  0.008849589 
  309900    17.614938  -0.38547577            0  -0.33928749 -0.00047271306 
  310000    17.477679  -0.38516965            0  -0.33934127 0.00030352601 
  310100    17.481821  -0.38517565            0  -0.33933641 0.0053819806 
  310200    17.516251  -0.38520879            0  -0.33927928 0.0053089196 
  310300    17.531887  -0.38522746            0  -0.33925695 -0.0017809278 
  310400    17.447177  -0.38495384            0  -0.33920545 0.0021392968 
  310500    17.628663   -0.3854323            0  -0.33920803 0.0042694034 
  310600    17.588226  -0.38530412            0  -0.33918588  0.009138006 
  310700    17.645444  -0.38541266            0  -0.33914438 0.0022870942 
  310800     17.43433  -0.38508102            0  -0.33936631 0.0029814566 
  310900    17.536742  -0.38526243            0  -0.33927919 -0.00031926977 
  311000    17.573609  -0.38531989            0  -0.33923997 0.0048464122 
  311100    17.522987  -0.38517499            0  -0.33922781 0.0043471489 
  311200      17.4972  -0.38496417            0  -0.33908461 0.00031894135 
  311300    17.561369  -0.38492997            0  -0.33888215 0.0033088355 
  311400    17.807918   -0.3857091            0   -0.3390148 0.0030173244 
  311500    17.783336  -0.38549494            0   -0.3388651 0.0077164129 
  311600    17.936272  -0.38591756            0   -0.3388867 0.0075185952 
  311700    18.022897  -0.38627566            0  -0.33901766 0.0044366913 
  311800    17.936245  -0.38620515            0  -0.33917437 0.0004198739 
  311900    17.934818  -0.38627146            0  -0.33924442 0.0048909968 
  312000    17.979557  -0.38636015            0  -0.33921579 0.0047533507 
  312100     17.82446  -0.38586367            0  -0.33912599 -0.0012989112 
  312200    17.732899  -0.38551456            0  -0.33901697 0.0050114206 
  312300    17.780826  -0.38575729            0  -0.33913403   0.00670922 
  312400    17.661004  -0.38529834            0  -0.33898927 0.0044190186 
  312500     17.66545  -0.38522804            0  -0.33890731 -0.00097227816 
  312600    17.711854  -0.38529731            0   -0.3388549 0.0017854721 
  312700    17.741637  -0.38544462            0  -0.33892412 0.0049662392 
  312800    17.665657  -0.38530575            0  -0.33898448 0.0082441165 
  312900    17.533275  -0.38506456            0  -0.33909041 0.0032629742 
  313000    17.505054   -0.3849044            0  -0.33900424 -0.00021035327 
  313100    17.604204  -0.38522628            0  -0.33906615 0.0017080412 
  313200    17.653504  -0.38536006            0  -0.33907066 0.0051521176 
  313300    17.748658  -0.38582727            0  -0.33928836 0.0020710959 
  313400    17.717328  -0.38558708            0  -0.33913032 0.0063611229 
  313500     17.76218   -0.3856822            0  -0.33910783 0.0016985583 
  313600    17.532014  -0.38528275            0   -0.3393119 0.0055622304 
  313700    17.795795  -0.38589927            0  -0.33923676 -0.00072087484 
  313800     17.64575  -0.38548226            0  -0.33921318 0.0056247967 
  313900    17.613001  -0.38543909            0  -0.33925589 0.0044681152 
  314000    17.444419  -0.38501316            0    -0.339272 0.0068338637 
  314100    17.640891  -0.38548033            0  -0.33922399 0.00058151479 
  314200    17.610043  -0.38522834            0   -0.3390529 0.0059619767 
  314300    17.583788  -0.38525991            0  -0.33915331 0.0081770802 
  314400    17.670264  -0.38545157            0  -0.33911821 0.0067362859 
  314500    17.687134  -0.38537495            0  -0.33899736 0.0013166381 
  314600    17.655893  -0.38525877            0   -0.3389631  0.001567321 
  314700    17.615121  -0.38521305            0  -0.33902428 0.0014400859 
  314800    17.422773  -0.38485515            0  -0.33917074  0.004901231 
  314900    17.524424  -0.38506863            0  -0.33911768 0.0041825072 
  315000    17.603128  -0.38534006            0  -0.33918275 0.0028983311 
  315100    17.833044   -0.3859429            0  -0.33918271 0.00018827889 
  315200    17.569202  -0.38535499            0  -0.33928663 0.0068475544 
  315300    17.457448   -0.3850927            0  -0.33931737 0.0046491359 
  315400    17.528756  -0.38514873            0  -0.33918643 0.0033584614 
  315500    17.449823  -0.38498719            0  -0.33923185 0.0060586157 
  315600    17.456934  -0.38513127            0  -0.33935729 0.0051033285 
  315700    17.388807  -0.38485938            0  -0.33926403 0.0084390798 
  315800     17.48933  -0.38514688            0  -0.33928796 0.0051540893 
  315900    17.606312  -0.38541255            0  -0.33924688 0.0010715286 
  316000    17.419074  -0.38482725            0  -0.33915255 0.0048841477 
  316100    17.613743  -0.38532804            0  -0.33914289 -0.0014947274 
  316200    17.410589  -0.38490821            0  -0.33925575 0.0082859089 
  316300    17.698001  -0.38548317            0  -0.33907709  0.004890535 
  316400    17.703904  -0.38560069            0  -0.33917913 0.0042668075 
  316500    17.612253  -0.38538326            0  -0.33920202 0.0045729137 
  316600    17.772188  -0.38588212            0  -0.33928151 0.00036764709 
  316700    17.864667  -0.38610744            0  -0.33926434 0.0051651471 
  316800    18.117798   -0.3867888            0  -0.33928197 -0.0010278468 
  316900    17.857173  -0.38604263            0  -0.33921918 0.0088001448 
  317000    17.867156  -0.38606835            0  -0.33921872 0.0074870076 
  317100    17.771266  -0.38588975            0  -0.33929156 0.0043760909 
  317200    17.923022  -0.38623042            0  -0.33923431 -0.0002420805 
  317300    17.655672   -0.3854466            0  -0.33915151 0.0049834476 
  317400    17.618987  -0.38533259            0  -0.33913369 0.00090195007 
  317500    17.648366  -0.38542812            0  -0.33915219 0.0011522406 
  317600    17.492335  -0.38499473            0  -0.33912793 0.0060132775 
  317700    17.384031  -0.38477225            0  -0.33918943 0.0059245616 
  317800    17.401692  -0.38470545            0  -0.33907632 0.0016616582 
  317900    17.295066  -0.38454765            0   -0.3391981 0.0020783839 
  318000     17.32128   -0.3845836            0  -0.33916532 0.0037657778 
  318100    17.252605  -0.38443746            0  -0.33919925 0.0078133909 
  318200    17.422325  -0.38489595            0  -0.33921272 -0.0010536553 
  318300    17.267484  -0.38451944            0  -0.33924222 0.0072497334 
  318400    17.355629  -0.38467386            0  -0.33916551 0.0061842326 
  318500    17.369164  -0.38475472            0  -0.33921089 -0.0036991781 
  318600    16.972083   -0.3838564            0  -0.33935375 0.0034620658 
  318700    17.035921  -0.38396992            0  -0.33929989 0.0021875676 
  318800    17.277119  -0.38466648            0  -0.33936399 -0.0022267331 
  318900    17.414274  -0.38497971            0  -0.33931759 0.0029260914 
  319000    17.346238  -0.38476205            0  -0.33927833  0.011231453 
  319100    17.672187  -0.38552498            0  -0.33918658 0.0025731765 
  319200    17.658452  -0.38547347            0  -0.33917109   0.00247205 
  319300    17.641436  -0.38528952            0  -0.33903176 0.0043084911 
  319400    17.766825  -0.38568856            0  -0.33910201 0.0016692421 
  319500    17.518225  -0.38522053            0  -0.33928584 0.0072173431 
  319600    17.593026  -0.38527653            0   -0.3391457 0.0012077815 
  319700    17.597726  -0.38529589            0  -0.33915274 -3.5359682e-05 
  319800    17.558401  -0.38534829            0  -0.33930826 0.0059228991 
  319900    17.458056  -0.38501895            0  -0.33924203 0.0094651376 
  320000    17.495546  -0.38508831            0  -0.33921308 -0.0016215419 
  320100    17.384214  -0.38490169            0  -0.33931839 0.00026368161 
  320200    17.436931  -0.38502259            0  -0.33930106  0.012387122 
  320300    17.738056  -0.38575934            0  -0.33924823 0.0056982577 
  320400    17.751421   -0.3858124            0  -0.33926624 -0.0037937581 
  320500    17.335565  -0.38469907            0  -0.33924334 0.0078350972 
  320600    17.489272  -0.38514599            0  -0.33928721 0.0034513874 
  320700    17.514607  -0.38513284            0  -0.33920764 0.0025616251 
  320800    17.522761  -0.38522926            0  -0.33928268 0.0052689004 
  320900    17.599804  -0.38535069            0  -0.33920209 0.0024294956 
  321000    17.517415  -0.38502865            0  -0.33909608 0.0051211954 
  321100    17.760597  -0.38570549            0  -0.33913528 0.00050851974 
  321200    17.799797  -0.38571624            0  -0.33904324 0.0068362044 
  321300    17.876364  -0.38598758            0  -0.33911381 0.0013156522 
  321400    17.570128  -0.38522797            0  -0.33915718 0.0049565947 
  321500    17.722766  -0.38548915            0  -0.33901813 0.0011414762 
  321600    17.611561  -0.38536653            0   -0.3391871 0.0095492747 
  321700    17.792947  -0.38587326            0  -0.33921822 0.0038838856 
  321800    17.588673  -0.38531706            0  -0.33919765 0.0041896967 
  321900    17.751908  -0.38581269            0  -0.33926526 -0.0015276916 
  322000    17.760589   -0.3857402            0     -0.33917 0.0088203122 
  322100     17.84004  -0.38594307            0  -0.33916455  0.011396994 
  322200    17.741565  -0.38563766            0  -0.33911735 0.0062860271 
  322300    17.690584   -0.3854003            0  -0.33901366 0.0020708796 
  322400    17.611297  -0.38521655            0  -0.33903782 0.0043988651 
  322500    17.575442  -0.38511432            0   -0.3390296 0.0023627381 
  322600     17.60383  -0.38538988            0  -0.33923073 -0.00064156147 
  322700     17.56082  -0.38520016            0  -0.33915378 0.0037480095 
  322800    17.634727  -0.38537868            0   -0.3391385 0.0022207298 
  322900    17.721006  -0.38559038            0  -0.33912398   0.00383093 
  323000    17.590489  -0.38520201            0  -0.33907784   0.01137437 
  323100    17.721696  -0.38542926            0  -0.33896105 0.00056112131 
  323200    17.669781   -0.3853192            0  -0.33898711 0.0013390964 
  323300    17.721402  -0.38546317            0  -0.33899573 0.0078544138 
  323400     17.92987  -0.38616919            0  -0.33915512 0.0052799278 
  323500    17.803398  -0.38582163            0  -0.33913919 0.0044010766 
  323600    17.565521  -0.38517705            0  -0.33911834 0.0080330343 
  323700    17.671204  -0.38540655            0  -0.33907073 0.0020012562 
  323800    17.505398  -0.38505342            0  -0.33915236 0.0032707688 
  323900    17.396973  -0.38471498            0  -0.33909823  0.003465785 
  324000    17.475609  -0.38492428            0  -0.33910133 -0.0010237595 
  324100    17.440652  -0.38487096            0  -0.33913967 0.0070831484 
  324200    17.624871  -0.38536999            0  -0.33915566 0.0054097812 
  324300    17.542796  -0.38531826            0  -0.33931914 0.0025930776 
  324400    17.403401  -0.38489501            0   -0.3392614 -0.0012585089 
  324500    17.463525   -0.3850504            0  -0.33925914  0.001557016 
  324600    17.618185  -0.38557304            0  -0.33937625  0.003999436 
  324700    17.643229  -0.38560939            0  -0.33934693 0.0058123173 
  324800     17.56916  -0.38534148            0  -0.33927323  0.004678461 
  324900    17.495935  -0.38511228            0  -0.33923604 0.0013201787 
  325000    17.429707  -0.38488549            0   -0.3391829 0.0055145528 
  325100    17.567451  -0.38526128            0  -0.33919751 0.0040982683 
  325200    17.710546  -0.38541299            0  -0.33897401 0.0029368004 
  325300    17.681659  -0.38538695            0  -0.33902372 0.0049325434 
  325400    17.654692  -0.38536927            0  -0.33907675 0.0025972284 
  325500    17.312221  -0.38458781            0  -0.33919328 0.0073195267 
  325600    17.463779  -0.38501861            0  -0.33922669  -0.00109457 
  325700    17.498006  -0.38513455            0  -0.33925288 -0.0016133422 
  325800    17.562264  -0.38531407            0  -0.33926391 0.0040132165 
  325900    17.734652  -0.38566174            0  -0.33915955 0.0042109052 
  326000    17.855101  -0.38579422            0   -0.3389762  0.004905411 
  326100    17.855113  -0.38575619            0  -0.33893814 0.0033280886 
  326200    17.644358  -0.38529324            0  -0.33902782 0.0054713268 
  326300    17.552203  -0.38515498            0   -0.3391312 0.0043049301 
  326400    17.565169  -0.38512115            0  -0.33906337 0.0019141495 
  326500    17.507667  -0.38517677            0  -0.33926976 0.0054016159 
  326600    17.573912  -0.38533935            0  -0.33925864 0.0015410304 
  326700    17.628981  -0.38553929            0  -0.33931419 0.0011036493 
  326800    17.747925  -0.38596543            0  -0.33942844 0.0032082672 
  326900    17.827748  -0.38609016            0  -0.33934387 0.0066764552 
  327000    18.001794  -0.38645554            0  -0.33925287 0.0033128093 
  327100    17.828365  -0.38605442            0   -0.3393065 0.0067622481 
  327200    17.838702  -0.38606841            0   -0.3392934 0.0054534911 
  327300    17.770367  -0.38586673            0   -0.3392709 0.0053855787 
  327400    17.743414  -0.38588982            0  -0.33936466 0.0037653946 
  327500    17.905303  -0.38630871            0  -0.33935906 -0.00039722238 
  327600     17.70679  -0.38565091            0  -0.33922178 0.0068539802 
  327700    17.833226  -0.38607738            0  -0.33931672 0.0001162101 
  327800    17.897405  -0.38609108            0  -0.33916214 0.00037027766 
  327900    17.986449  -0.38624469            0  -0.33908226 0.0031294365 
  328000    17.930759  -0.38599955            0  -0.33898315 0.0063136255 
  328100    18.135714  -0.38658929            0  -0.33903548 0.0016725015 
  328200    18.055563  -0.38636008            0  -0.33901643 0.0082869185 
  328300    18.087687  -0.38640532            0  -0.33897744  0.004856753 
  328400    17.838441    -0.385891            0  -0.33911667 0.0031533367 
  328500    17.798775  -0.38567045            0  -0.33900013 0.00091853203 
  328600    17.590943  -0.38509717            0  -0.33897181  0.004122334 
  328700    17.773794  -0.38549786            0  -0.33889304 0.0028365422 
  328800     17.77552  -0.38564197            0  -0.33903263 0.0064471814 
  328900    17.826602  -0.38573463            0  -0.33899134 0.0013627917 
  329000    17.798725  -0.38572995            0  -0.33905976 0.00035946179 
  329100    17.596681  -0.38532792            0  -0.33918751 0.0059072257 
  329200    17.592387  -0.38533527            0  -0.33920611 0.0056822727 
  329300    17.628287  -0.38546709            0  -0.33924381 -0.0007804363 
  329400    17.490199   -0.3851978            0  -0.33933659 0.0028825636 
  329500    17.611825  -0.38547497            0  -0.33929485 0.0050357641 
  329600    17.827942  -0.38595242            0  -0.33920562 0.0027078967 
  329700    17.629033   -0.3852562            0  -0.33903096  0.010218576 
  329800    17.740661  -0.38562111            0  -0.33910317 0.0053563657 
  329900    17.705378  -0.38539087            0  -0.33896544 0.0039668524 
  330000    17.760686  -0.38558211            0  -0.33901166  0.001273054 
  330100    17.819449  -0.38567361            0  -0.33894908 0.0041904019 
  330200     17.92452  -0.38589744            0   -0.3388974 0.0019878293 
  330300    17.623704  -0.38531402            0  -0.33910275 0.0064797706 
  330400    17.737084  -0.38563507            0   -0.3391265 -0.001879486 
  330500     17.45305  -0.38484531            0  -0.33908151 0.0047921624 
  330600    17.586013   -0.3852401            0  -0.33912766  0.001432114 
  330700    17.620988  -0.38527364            0  -0.33906949 0.0049509222 
  330800    17.951441  -0.38608665            0  -0.33901602 -0.00026490458 
  330900    17.939485   -0.3860912            0  -0.33905192 0.0075584104 
  331000    18.004129  -0.38620096            0  -0.33899218 0.0097332008 
  331100    18.147955  -0.38644435            0  -0.33885843 -0.00042996932 
  331200    17.861905  -0.38577484            0  -0.33893898 0.0023576051 
  331300    17.821287  -0.38576215            0   -0.3390328 0.0030471499 
  331400    17.700414  -0.38538886            0  -0.33897644 0.0063848885 
  331500    17.717017  -0.38541168            0  -0.33895574 0.0046369356 
  331600    17.820332  -0.38559255            0   -0.3388657  0.001809739 
  331700    17.768773  -0.38544307            0  -0.33885141 0.0025232135 
  331800    17.737109  -0.38542123            0   -0.3389126 0.0026613093 
  331900    17.654811  -0.38516206            0  -0.33886923 0.0035903059 
  332000    17.642675  -0.38509402            0  -0.33883301 0.0032936821 
  332100     17.60128  -0.38511348            0  -0.33896101  0.005236792 
  332200    17.550086  -0.38501766            0  -0.33899943 0.0061711918 
  332300    17.755855  -0.38551028            0   -0.3389525 -0.0003917574 
  332400    17.793226   -0.3857774            0  -0.33912163 0.0063785468 
  332500    18.029381  -0.38625803            0  -0.33898303 0.0043255194 
  332600    17.653603  -0.38533737            0   -0.3390477 0.0030618274 
  332700    17.731769  -0.38550191            0  -0.33900728 -0.0030598313 
  332800    17.597848  -0.38510622            0  -0.33896275 0.0049633918 
  332900    17.862802  -0.38581604            0  -0.33897783 0.0040083935 
  333000      18.1287   -0.3864108            0  -0.33887537 0.0035846036 
  333100    17.852707  -0.38578655            0  -0.33897481 0.0094619198 
  333200    17.849631  -0.38576298            0   -0.3389593 0.0012872075 
  333300    17.809621  -0.38574736            0  -0.33904859 0.00072302236 
  333400    17.807031  -0.38563177            0   -0.3389398 0.0048318263 
  333500    17.903811  -0.38574833            0  -0.33880259 0.00030945008 
  333600    17.808538  -0.38544417            0  -0.33874825 0.0051938638 
  333700    17.898601  -0.38554037            0  -0.33860829  0.010444615 
  333800    18.106846  -0.38587446            0  -0.33839634 0.0024220511 
  333900    17.983674  -0.38550566            0  -0.33835051 0.00074778533 
  334000    17.738367  -0.38486803            0  -0.33835611 0.0062143034 
  334100    17.775434  -0.38508968            0  -0.33848056  0.004769025 
  334200    17.749119  -0.38503769            0  -0.33849757 0.0039239025 
  334300    17.888314  -0.38541213            0  -0.33850702 -0.0035316496 
  334400    17.663642  -0.38476261            0  -0.33844662 0.0046013221 
  334500     17.72216  -0.38502676            0  -0.33855733 0.0086814757 
  334600    17.951901  -0.38560302            0  -0.33853118 0.0013829768 
  334700    17.648537  -0.38481327            0  -0.33853689 0.0054240887 
  334800    17.581004  -0.38478735            0  -0.33868805 0.0024826596 
  334900    17.401742  -0.38429526            0    -0.338666 0.00084450866 
  335000    17.288038  -0.38410983            0  -0.33877872 -9.4181253e-05 
  335100    17.351459  -0.38429725            0  -0.33879983 0.0043225819 
  335200     17.53434  -0.38472085            0   -0.3387439 0.0025419229 
  335300    17.567977  -0.38481357            0  -0.33874842 0.0049610387 
  335400    17.342587  -0.38425965            0   -0.3387855 0.0087134904 
  335500    17.274618  -0.38405377            0  -0.33875784  0.001066878 
  335600     17.43871  -0.38429492            0  -0.33856873 0.0019547041 
  335700    17.576729  -0.38450464            0  -0.33841654 0.0068850777 
  335800    17.583681  -0.38451039            0  -0.33840407 0.0034024397 
  335900    17.628986  -0.38451056            0  -0.33828544 0.00048279692 
  336000    17.375437  -0.38420146            0  -0.33864118 0.0072902942 
  336100    17.582838  -0.38458714            0  -0.33848302 0.0037965853 
  336200    17.497593  -0.38463055            0  -0.33874996 0.0063954996 
  336300    17.629322  -0.38505215            0  -0.33882615 -0.0012022662 
  336400    17.490089  -0.38480788            0  -0.33894696 0.0026159865 
  336500    17.526311  -0.38489461            0  -0.33893872 0.0033012227 
  336600    17.477795  -0.38484785            0  -0.33901917 0.0034468741 
  336700    17.705184  -0.38533782            0  -0.33891291 0.0030659819 
  336800    17.634254  -0.38530583            0   -0.3390669 0.0083185921 
  336900    17.625845  -0.38522419            0  -0.33900731 0.0053512849 
  337000    17.387364  -0.38460202            0  -0.33901046 0.0060594961 
  337100    17.411952  -0.38457927            0  -0.33892324 0.0031927123 
  337200    17.433852  -0.38460965            0  -0.33889619 0.0032059737 
  337300    17.516042  -0.38472711            0  -0.33879815 0.0032238182 
  337400    17.525036  -0.38465789            0  -0.33870534 0.0026789247 
  337500    17.506303  -0.38451514            0  -0.33861171 0.0041538561 
  337600    17.550708  -0.38466935            0  -0.33864948 0.0051615249 
  337700    17.513812  -0.38469523            0  -0.33877211 0.0062882975 
  337800    17.549783  -0.38485281            0  -0.33883537 0.0022256002 
  337900    17.381366   -0.3843614            0  -0.33878557  0.002317348 
  338000    17.211333  -0.38385151            0  -0.33872152 0.0034292228 
  338100     17.38133  -0.38428242            0  -0.33870668 -0.0028336864 
  338200    17.340846  -0.38418748            0   -0.3387179 0.0046508061 
  338300     17.56053  -0.38470548            0  -0.33865986 0.0058342398 
  338400    17.462309  -0.38448937            0   -0.3387013 0.0056082989 
  338500    17.588012  -0.38471018            0   -0.3385925 -9.1323259e-05 
  338600    17.381414  -0.38425566            0   -0.3386797 0.0067567411 
  338700    17.371249  -0.38438575            0  -0.33883645 0.0031000211 
  338800    17.562809  -0.38486631            0  -0.33881472 0.00035477229 
  338900     17.36839  -0.38435996            0  -0.33881815 0.0087475821 
  339000    17.364343   -0.3842772            0    -0.338746 0.00063403904 
  339100    17.334193  -0.38419039            0  -0.33873825 1.0321637e-05 
  339200    17.309769  -0.38418449            0  -0.33879639  0.005434465 
  339300    17.323113  -0.38420955            0  -0.33878647 0.0082732075 
  339400    17.467783  -0.38454788            0  -0.33874545 0.0013113514 
  339500    17.351027  -0.38432691            0  -0.33883063 0.0032618058 
  339600    17.344519  -0.38426972            0   -0.3387905 0.0051787286 
  339700    17.278732  -0.38421133            0  -0.33890462 0.0025886583 
  339800    17.196737  -0.38378338            0  -0.33869166 0.0056377642 
  339900     17.33975  -0.38422883            0  -0.33876211 -0.00094310576 
  340000    17.270243   -0.3839402            0  -0.33865575 0.0015836884 
  340100    17.215642  -0.38381277            0  -0.33867149 0.0048982155 
  340200    17.158899   -0.3837181            0  -0.33872561 0.0052782225 
  340300    17.218963  -0.38386334            0  -0.33871334 0.0039454426 
  340400    17.399517  -0.38439793            0  -0.33877451 0.0035373517 
  340500    17.387712  -0.38446519            0  -0.33887271 0.0044035517 
  340600    17.360955   -0.3843664            0  -0.33884409 0.00053759039 
  340700    17.352499  -0.38456995            0  -0.33906981 0.0059908932 
  340800    17.430734  -0.38461612            0  -0.33891084 0.0044605842 
  340900    17.461376  -0.38469526            0  -0.33890963 -0.0011327173 
  341000    17.482287  -0.38463648            0  -0.33879602 0.0058404097 
  341100    17.697954  -0.38524751            0  -0.33884155 0.0040295397 
  341200    17.522394  -0.38497312            0   -0.3390275 0.0080758773 
  341300    17.704979  -0.38528232            0  -0.33885794 0.0026557584 
  341400    17.708738  -0.38537646            0  -0.33894222 0.0047436549 
  341500    17.753185  -0.38541675            0  -0.33886597   0.00568408 
  341600    17.542135  -0.38480504            0  -0.33880765 0.0055507533 
  341700    17.480623  -0.38462811            0  -0.33879201 0.00042531959 
  341800    17.601439  -0.38482186            0  -0.33866898 -0.0015822813 
  341900    17.587417  -0.38473448            0  -0.33861836 0.0033034372 
  342000    17.842062  -0.38552413            0   -0.3387403 -0.0012220552 
  342100      17.7953  -0.38528464            0  -0.33862343 0.0067254882 
  342200    17.874563  -0.38550225            0   -0.3386332 0.0046202204 
  342300    17.815248  -0.38528488            0  -0.33857136 0.0031006101 
  342400    17.706552   -0.3849702            0  -0.33854169 0.0037413033 
  342500    17.894958  -0.38545797            0  -0.33853544 0.00065137807 
  342600    17.692767  -0.38490321            0  -0.33851085 0.0091367564 
  342700    17.898083  -0.38541545            0  -0.33848473 0.0019632858 
  342800    17.872109  -0.38533011            0   -0.3384675 0.0042705476 
  342900     17.81494  -0.38516664            0  -0.33845393 0.0068202594 
  343000    17.816382  -0.38522652            0  -0.33851003 0.0033467904 
  343100    17.846163  -0.38529428            0   -0.3384997 0.0019194289 
  343200    17.698998  -0.38508266            0  -0.33867396 0.0068720703 
  343300    17.745321  -0.38512117            0  -0.33859101 0.0060134566 
  343400    17.681712   -0.3849411            0  -0.33857773 0.0088440304 
  343500    17.831567  -0.38535847            0  -0.33860216 0.0034539955 
  343600     17.77821   -0.3852697            0   -0.3386533 0.0023350774 
  343700    17.732291  -0.38524255            0  -0.33874655  0.003682047 
  343800    17.645236  -0.38495703            0   -0.3386893 0.0071846112 
  343900    17.696366  -0.38504745            0  -0.33864565 0.0041587412 
  344000    17.545694  -0.38483634            0  -0.33882962  0.001792655 
  344100    17.452089  -0.38456096            0  -0.33879968 0.0033628701 
  344200    17.479214  -0.38454366            0  -0.33871126 0.0030718726 
  344300    17.522535  -0.38469157            0  -0.33874558 0.0023957041 
  344400    17.486092   -0.3846483            0  -0.33879786 0.0059184897 
  344500    17.619712  -0.38490534            0  -0.33870454 0.0027001516 
  344600    17.683503  -0.38515134            0  -0.33878327 0.0024167017 
  344700    17.616767  -0.38488957            0  -0.33869649 0.0063703348 
  344800    17.739015  -0.38512406            0  -0.33861043 0.0030435295 
  344900    17.746462  -0.38527185            0  -0.33873869 0.0043568089 
  345000    17.399692  -0.38436572            0  -0.33874184  0.010422947 
  345100    17.652362  -0.38498227            0  -0.33869586 0.0009290355 
  345200     17.69479  -0.38504614            0  -0.33864847 0.0020593153 
  345300    17.513632   -0.3846634            0  -0.33874075 0.0080516443 
  345400    17.658377   -0.3850424            0  -0.33874022 0.0057031088 
  345500    17.708887  -0.38505787            0  -0.33862324 0.0051992289 
  345600    17.668688  -0.38503636            0  -0.33870714 0.0043808089 
  345700     17.64606  -0.38494023            0  -0.33867035 0.0032746284 
  345800     17.46573  -0.38451509            0  -0.33871805 0.0032967041 
  345900    17.500733   -0.3845383            0  -0.33864948 0.0031968097 
  346000    17.549849  -0.38464767            0  -0.33863006 0.0025946745 
  346100    17.622395  -0.38478627            0  -0.33857843 0.00085305412 
  346200    17.623875  -0.38465525            0  -0.33844353 0.0062910486 
  346300    17.709691  -0.38496246            0  -0.33852573 0.0069239106 
  346400    17.730307  -0.38502551            0  -0.33853472 0.0044734066 
  346500    17.534961  -0.38453602            0  -0.33855744 0.0035336655 
  346600    17.304088  -0.38406751            0  -0.33869431 0.0017682964 
  346700    17.327715  -0.38426792            0  -0.33883277 0.0030763819 
  346800    17.544836  -0.38464536            0  -0.33864089 0.0045564287 
  346900    17.539571  -0.38465503            0  -0.33866437 0.0060135547 
  347000    17.446993  -0.38443312            0  -0.33868521 0.0020720504 
  347100    17.440571  -0.38434832            0  -0.33861725 -0.00019956321 
  347200    17.442293  -0.38442407            0  -0.33868848 0.0030376702 
  347300    17.355277  -0.38418026            0  -0.33867283 0.0076797974 
  347400    17.437124  -0.38441064            0  -0.33868861 0.0019509331 
  347500    17.245122  -0.38402669            0   -0.3388081 0.0020509436 
  347600    17.150853  -0.38377701            0   -0.3388056 0.0031105574 
  347700    17.158563  -0.38380461            0  -0.33881299 0.0027049195 
  347800    16.959394  -0.38324185            0  -0.33877248 0.0055937386 
  347900    17.128712  -0.38350694            0   -0.3385936 -0.00089949816 
  348000    17.190139  -0.38389057            0  -0.33881615 0.0052308031 
  348100    17.437565  -0.38406144            0  -0.33833825 0.0059978663 
  348200    17.301106  -0.38377306            0  -0.33840768 0.0018246207 
  348300    17.285928  -0.38373451            0  -0.33840893  0.003689793 
  348400    17.291012  -0.38377317            0  -0.33843426   0.00716133 
  348500    17.494288  -0.38430469            0  -0.33843276 0.0019518544 
  348600    17.583187  -0.38443565            0  -0.33833062 0.0055662409 
  348700    17.494639  -0.38428111            0  -0.33840826 0.0070839756 
  348800    17.544059  -0.38435416            0  -0.33835173 0.0012286025 
  348900    17.364754  -0.38395001            0  -0.33841774 0.0064087716 
  349000    17.641349  -0.38467057            0  -0.33841303 0.0011374573 
  349100    17.667419  -0.38469911            0  -0.33837321 0.0060364316 
  349200      17.5321  -0.38444058            0  -0.33846951 0.0040100486 
  349300    17.256355  -0.38389481            0  -0.33864677 0.0018036302 
  349400     17.39697  -0.38429321            0  -0.33867646 -0.0019729024 
  349500     17.36734  -0.38429312            0  -0.33875407 0.0067985649 
  349600    17.498035  -0.38476204            0  -0.33888029 0.0058920549 
  349700    17.452296  -0.38463134            0  -0.33886952 0.0051410034 
  349800    17.414833  -0.38461616            0  -0.33895257 0.0024449826 
  349900     17.32128  -0.38439399            0  -0.33897571 0.0057196969 
  350000    17.443777  -0.38468417            0  -0.33894469 0.00091014577 
  350100    17.319655  -0.38439082            0   -0.3389768 0.0041637883 
  350200    17.300154  -0.38426535            0  -0.33890246 0.0091017307 
  350300    17.371455  -0.38442719            0  -0.33887734 0.00053365592 
  350400    17.212995  -0.38394336            0  -0.33880901 0.00022680859 
  350500    17.258547  -0.38396294            0  -0.33870916 0.0054841358 
  350600    17.268074  -0.38397131            0  -0.33869254 0.0041823699 
  350700    17.246632  -0.38380306            0  -0.33858051  0.002748787 
  350800    17.248931  -0.38385739            0  -0.33862882 -0.00023694278 
  350900    17.152734  -0.38361014            0   -0.3386338 0.0040125665 
  351000    17.377887  -0.38418006            0  -0.33861335 0.0028860942 
  351100    17.270985  -0.38403058            0  -0.33874418 0.0062669406 
  351200     17.38483  -0.38430171            0  -0.33871679 0.0038901495 
  351300    17.478784  -0.38460697            0   -0.3387757 0.0075249106 
  351400    17.582771   -0.3847602            0  -0.33865626 0.0043878902 
  351500    17.572818  -0.38477987            0  -0.33870203 0.0027026613 
  351600    17.540828  -0.38474726            0   -0.3387533 0.0059422016 
  351700    17.425011  -0.38434918            0  -0.33865891 0.0053844368 
  351800     17.37299  -0.38428063            0  -0.33872676 8.5325014e-05 
  351900     17.29396  -0.38398697            0  -0.33864033 0.0033428069 
  352000    17.372319   -0.3841633            0  -0.33861119 0.0033758941 
  352100    17.540624  -0.38469123            0   -0.3386978 0.0014185589 
  352200    17.564026  -0.38465299            0  -0.33859821 0.0065339263 
  352300    17.507009  -0.38452914            0  -0.33862386 0.0052439685 
  352400    17.366476  -0.38419988            0  -0.33866309 0.0002965822 
  352500    17.300965  -0.38408054            0  -0.33871553 0.0025682014 
  352600    17.442051  -0.38452709            0  -0.33879214 0.0040376018 
  352700    17.404612  -0.38446274            0  -0.33882595 0.0049803085 
  352800    17.399022  -0.38453555            0  -0.33891342 0.00076970377 
  352900    17.357514  -0.38438221            0  -0.33886892 0.0053411422 
  353000    17.401412  -0.38442791            0  -0.33879952 0.0034388286 
  353100    17.385714  -0.38430259            0  -0.33871536 0.0042908184 
  353200    17.278428  -0.38394477            0  -0.33863885 0.0058098707 
  353300    17.184718  -0.38379139            0  -0.33873119 -0.00072384445 
  353400    17.252882  -0.38392645            0  -0.33868751 0.0023529009 
  353500     17.44906  -0.38447179            0  -0.33871845 0.0062470877 
  353600    17.427812  -0.38459636            0  -0.33889875 0.0086090212 
  353700     17.32096  -0.38428405            0  -0.33886661 0.0018146526 
  353800    17.245917  -0.38408752            0  -0.33886685 -0.0018544376 
  353900    17.178654  -0.38392512            0  -0.33888082 0.0041360154 
  354000    17.339524  -0.38440453            0  -0.33893841 0.0035941186 
  354100    17.383294  -0.38432552            0  -0.33874464  0.004793837 
  354200    17.558457  -0.38480559            0  -0.33876541 0.0010585767 
  354300    17.787731  -0.38521606            0  -0.33857469  0.005376058 
  354400    17.767305  -0.38515499            0  -0.33856718 0.0098447734 
  354500    17.712581  -0.38496325            0  -0.33851894 0.0029510376 
  354600    17.511454  -0.38451065            0  -0.33859371 0.0047333178 
  354700    17.552424  -0.38451689            0  -0.33849253 0.0042181371 
  354800    17.463246  -0.38438801            0  -0.33859748 0.0013875719 
  354900     17.49278  -0.38440366            0  -0.33853568 -0.0002989386 
  355000    17.276109  -0.38379904            0  -0.33849921  0.009672454 
  355100    17.472925  -0.38443746            0  -0.33862155 0.00058877083 
  355200    17.292855  -0.38405155            0   -0.3387078 0.0036190144 
  355300    17.374756  -0.38417972            0  -0.33862122 0.0036218684 
  355400    17.572327  -0.38474375            0   -0.3386672 -0.0014085414 
  355500    17.408331  -0.38448978            0  -0.33884324 0.0059185859 
  355600    17.441722  -0.38450008            0  -0.33876599 0.0039935398 
  355700    17.327389  -0.38415356            0  -0.33871927 0.0029308995 
  355800     17.17468  -0.38380454            0  -0.33877067 0.0054458357 
  355900      17.3229  -0.38406071            0  -0.33863818  0.001785029 
  356000    17.400808  -0.38427316            0  -0.33864635 0.00088022474 
  356100    17.347361    -0.384063            0  -0.33857633 0.0088445957 
  356200    17.458778  -0.38436909            0  -0.33859028 0.0081208741 
  356300    17.495495  -0.38434894            0  -0.33847385 0.0031056534 
  356400    17.391329  -0.38420081            0  -0.33859886 3.5987079e-06 
  356500    17.412386  -0.38429371            0  -0.33863655 0.0030715888 
  356600    17.645761  -0.38476523            0  -0.33849613 0.0024700598 
  356700    17.414409  -0.38429236            0  -0.33862989 0.0071979588 
  356800    17.541662  -0.38451816            0  -0.33852202  0.003309369 
  356900     17.56826  -0.38462112            0  -0.33855523 0.0065610507 
  357000    17.651833   -0.3849545            0  -0.33866947 0.0049875244 
  357100    17.515175  -0.38440109            0   -0.3384744  0.007614622 
  357200    17.581479  -0.38465559            0  -0.33855504  0.003221687 
  357300    17.545875  -0.38466503            0  -0.33865784 0.0013774991 
  357400    17.752751  -0.38499305            0  -0.33844341 -0.0016054937 
  357500    17.675423  -0.38467416            0  -0.33832728 0.0066509963 
  357600    17.592295  -0.38458441            0   -0.3384555  0.003552852 
  357700    17.464147  -0.38414695            0  -0.33835405  0.003432019 
  357800     17.53158  -0.38435963            0  -0.33838992 0.0020849563 
  357900    17.586236  -0.38453601            0  -0.33842299 0.00087058394 
  358000    17.503851  -0.38439983            0  -0.33850283 0.0011693025 
  358100    17.294787  -0.38402054            0  -0.33867173  0.007613716 
  358200    17.557087  -0.38472635            0  -0.33868976 0.0055508468 
  358300    17.584569   -0.3847433            0  -0.33863465 0.0012722035 
  358400    17.331817  -0.38410349            0  -0.33865758 0.0052347283 
  358500    17.542824  -0.38462376            0  -0.33862457 0.0052428058 
  358600    17.368863  -0.38402328            0  -0.33848024  0.009238256 
  358700    17.298933  -0.38369162            0  -0.33833194 0.0027605256 
  358800    17.337362  -0.38436729            0  -0.33890684 0.00018979578 
  358900    17.530711   -0.3844537            0  -0.33848627 0.0081961677 
  359000    17.889799  -0.38533671            0  -0.33842771 -0.0003231516 
  359100    17.725409  -0.38497972            0  -0.33850177  0.003637172 
  359200     17.70401  -0.38485409            0  -0.33843225  0.006137203 
  359300    17.785467  -0.38488193            0  -0.33824651 0.0020083924 
  359400    17.720565  -0.38503217            0  -0.33856692 0.0031410259 
  359500    17.805882  -0.38517863            0  -0.33848967 0.0074851685 
  359600    17.839164   -0.3853866            0  -0.33861037 0.0035581509 
  359700    17.640422  -0.38499854            0  -0.33874344 -0.00035628701 
  359800     17.56085  -0.38489463            0  -0.33884817 0.0040934261 
  359900    17.646068  -0.38518927            0  -0.33891936 0.0041632658 
  360000    17.706076  -0.38533852            0  -0.33891126 0.0038573248 
  360100    17.886143  -0.38575785            0  -0.33885844 0.0036630901 
  360200    17.859401  -0.38569602            0  -0.33886672 0.0021320957 
  360300    17.700802  -0.38537366            0  -0.33896024 0.0058396694 
  360400    17.919036  -0.38588968            0  -0.33890402 0.0052615019 
  360500    17.950975  -0.38608059            0  -0.33901118 0.0025376876 
  360600    17.698138  -0.38538156            0  -0.33897512 -0.00050168472 
  360700     17.57319  -0.38496664            0  -0.33888783 0.00088859382 
  360800      17.6319  -0.38512013            0  -0.33888737 0.0049631163 
  360900    17.793063  -0.38538976            0  -0.33873441 0.0044413631 
  361000    18.000641  -0.38586292            0  -0.33866328  0.001240077 
  361100    17.930481   -0.3855459            0  -0.33853023 0.0040512076 
  361200    17.776163  -0.38519042            0  -0.33857938 0.0024191842 
  361300    17.679302  -0.38516805            0    -0.338811 0.0029097418 
  361400    17.857414  -0.38556157            0  -0.33873748 0.0024929739 
  361500    17.874476  -0.38587526            0  -0.33900644 0.0034260071 
  361600    17.803071  -0.38563244            0  -0.33895085 0.0058527496 
  361700    18.032526  -0.38622887            0  -0.33894562 -0.00072104058 
  361800    17.824799  -0.38572796            0   -0.3389894 0.0079491483 
  361900    17.950617  -0.38593892            0  -0.33887045 0.0047278819 
  362000    18.040066  -0.38600525            0  -0.33870224 -0.00097866958 
  362100    17.849143  -0.38560239            0      -0.3388 0.0050443706 
  362200    17.939914  -0.38574747            0  -0.33870706 0.0024039885 
  362300    17.751147  -0.38524303            0  -0.33869759 0.0072197863 
  362400    17.765098  -0.38531088            0  -0.33872886 0.0037992332 
  362500    17.897416  -0.38568773            0  -0.33875876 -0.0016826994 
  362600    17.689789  -0.38512014            0  -0.33873559 0.0067971396 
  362700    17.666595  -0.38513116            0  -0.33880742 0.0040171251 
  362800    17.740481  -0.38518542            0  -0.33866795 -0.0015447046 
  362900    17.749294   -0.3852124            0  -0.33867183 0.0071292051 
  363000    17.901264  -0.38564983            0  -0.33871077 0.0019143425 
  363100    17.685592  -0.38523255            0  -0.33885901 -0.0023962799 
  363200    17.726783  -0.38539268            0  -0.33891113 0.0045664427 
  363300    17.868655  -0.38571008            0  -0.33885652 0.0035848686 
  363400    17.778998  -0.38542115            0  -0.33880269 0.00071712807 
  363500     17.80042  -0.38551943            0  -0.33884479 0.0072282066 
  363600    17.868433  -0.38547894            0  -0.33862596 0.0088315651 
  363700    17.688857  -0.38495147            0  -0.33856937 0.0028396888 
  363800    17.702294  -0.38496776            0  -0.33855042 -0.0020181464 
  363900    17.496706  -0.38434355            0  -0.33846528 0.0062521318 
  364000    17.713748  -0.38496583            0  -0.33851845 -0.0018926007 
  364100     17.64681  -0.38489097            0  -0.33861911 0.0041461024 
  364200    17.607573  -0.38478027            0   -0.3386113 0.0082094812 
  364300    17.815907  -0.38535886            0  -0.33864362 -0.0011448933 
  364400     17.88371  -0.38563389            0  -0.33874086 0.0038737525 
  364500    18.072618  -0.38605714            0  -0.33866877 0.0074356665 
  364600    18.147931  -0.38620508            0  -0.33861923 0.0021534613 
  364700    18.117191  -0.38603489            0  -0.33852964 -0.0024295293 
  364800    17.910708  -0.38558849            0  -0.33862467 0.0043193689 
  364900    17.974866  -0.38570551            0  -0.33857346  0.006848671 
  365000    17.981705  -0.38591201            0  -0.33876202 0.0055129384 
  365100    17.827126  -0.38544277            0  -0.33869811 0.0066257796 
  365200    17.869479  -0.38551682            0   -0.3386611 0.00057535754 
  365300    17.836668  -0.38545566            0  -0.33868597 0.0036174389 
  365400    18.214184  -0.38634103            0  -0.33858145 0.0012067497 
  365500    18.295866  -0.38646717            0  -0.33849342 0.0018883618 
  365600    18.151285  -0.38608421            0  -0.33848957 0.0021854828 
  365700     17.87628  -0.38548638            0  -0.33861283 0.0030337332 
  365800    17.822345  -0.38546118            0  -0.33872905 0.0033410938 
  365900    18.051145  -0.38611862            0  -0.33878655 0.0039801149 
  366000    18.347588  -0.38692308            0  -0.33881371 0.0010387906 
  366100     18.45467  -0.38728352            0  -0.33889337 -0.00040341033 
  366200    18.302417  -0.38675453            0   -0.3387636 0.0077766307 
  366300      18.4224  -0.38699721            0  -0.33869168 2.3800306e-05 
  366400    18.077072  -0.38603627            0  -0.33863622 0.0089376416 
  366500     18.15806  -0.38620455            0  -0.33859214 0.0056266689 
  366600    18.246847  -0.38637042            0   -0.3385252 0.0029524165 
  366700    17.938742  -0.38562098            0  -0.33858365 0.0096789928 
  366800    18.139282  -0.38636135            0  -0.33879818 -0.0020458556 
  366900    18.094073  -0.38612394            0  -0.33867931 0.0024807021 
  367000    18.198411  -0.38652352            0   -0.3388053 0.0042485825 
  367100    17.984166  -0.38589684            0  -0.33874041 0.0067084873 
  367200    17.870594   -0.3854387            0  -0.33858006 0.0030982693 
  367300    17.874037  -0.38533545            0  -0.33846778 0.0021032128 
  367400    17.799526  -0.38519114            0  -0.33851885 0.0050138057 
  367500    17.862062  -0.38537261            0  -0.33853634 0.0030912906 
  367600    17.819288  -0.38527042            0  -0.33854631  0.010468718 
  367700    18.044231  -0.38609252            0  -0.33877858 0.0027417408 
  367800    17.937961  -0.38582179            0  -0.33878651 0.0038936988 
  367900     17.80005   -0.3855736            0  -0.33889994 0.0078325184 
  368000    17.895298  -0.38578629            0  -0.33886288 0.0032471436 
  368100    17.833023  -0.38565091            0  -0.33889078  0.000726201 
  368200    17.614734  -0.38516417            0  -0.33897642 0.0052378749 
  368300     17.72541  -0.38539574            0  -0.33891778 0.0012437107 
  368400    17.868009  -0.38581008            0  -0.33895821 0.0044314171 
  368500    17.918263  -0.38594255            0  -0.33895891 0.0049228709 
  368600     17.97429  -0.38597147            0  -0.33884092 1.0162392e-05 
  368700    17.859371  -0.38554798            0  -0.33871877 0.0052445787 
  368800    17.888457  -0.38580818            0  -0.33890271 0.0018848412 
  368900    18.054185  -0.38605616            0  -0.33871612 -5.3985526e-05 
  369000    18.035078  -0.38595158            0  -0.33866164 0.0070247347 
  369100    17.949959  -0.38590768            0  -0.33884093 0.0032885743 
  369200    17.948784  -0.38586528            0  -0.33880161 0.0016096203 
  369300    17.971889  -0.38598197            0  -0.33885772 0.0039160238 
  369400    17.926634  -0.38588984            0  -0.33888426 0.0055576233 
  369500      17.9995  -0.38607875            0   -0.3388821 0.0019504561 
  369600    17.936051   -0.3859749            0  -0.33894462 0.0031456882 
  369700    18.018052  -0.38605396            0  -0.33880867 0.0058615879 
  369800    18.114451  -0.38623174            0  -0.33873368 0.0081915747 
  369900    18.041677  -0.38608183            0  -0.33877459  0.006979594 
  370000    17.946732  -0.38581009            0  -0.33875181 0.0048734761 
  370100    18.306928  -0.38671419            0  -0.33871143 0.0029124912 
  370200    18.329234  -0.38670656            0  -0.33864531  0.012681824 
  370300    18.384262  -0.38677383            0   -0.3385683 0.0034356876 
  370400    17.982732  -0.38571863            0  -0.33856595  0.002084042 
  370500    17.864331  -0.38553379            0  -0.33869158 -0.0011240615 
  370600    17.486789  -0.38465438            0  -0.33880211 0.0058098292 
  370700    17.749025  -0.38537993            0  -0.33884006 -0.00031995207 
  370800    17.679105  -0.38518035            0  -0.33882382 0.0050185391 
  370900    17.591858   -0.3849728            0  -0.33884503 0.0047339192 
  371000    17.545136   -0.3848843            0  -0.33887905 -0.00066739965 
  371100    17.618898  -0.38509029            0  -0.33889163 0.0025450591 
  371200    17.710664  -0.38529682            0  -0.33885753  0.005718453 
  371300    17.955658  -0.38592933            0  -0.33884764 -0.0004477125 
  371400    17.920751   -0.3858663            0  -0.33887614 0.0044166439 
  371500     17.86121  -0.38564456            0  -0.33881053 0.0087077538 
  371600    17.927671   -0.3856769            0   -0.3386686 0.00055973498 
  371700    17.890352  -0.38556896            0  -0.33865851 0.0021929057 
  371800    17.930201  -0.38588829            0  -0.33887335 0.0077990403 
  371900    18.123033  -0.38634142            0  -0.33882086 0.0043500364 
  372000    17.988992  -0.38597767            0  -0.33880858 0.0029862102 
  372100    17.872857  -0.38562434            0  -0.33875977 0.0068625263 
  372200    17.957494  -0.38576682            0  -0.33868031 0.0034130995 
  372300    17.888543  -0.38557529            0  -0.33866958  0.003399774 
  372400    17.922092  -0.38566032            0  -0.33866664 0.0035499747 
  372500    17.975758  -0.38573042            0  -0.33859603 0.0016423904 
  372600    18.029101  -0.38584345            0  -0.33856918 0.0024306557 
  372700    18.111593  -0.38587197            0   -0.3383814 0.0068945424 
  372800    18.108592  -0.38599076            0  -0.33850807 0.0080444655 
  372900    18.135698   -0.3860423            0  -0.33848853 0.0073636315 
  373000     18.07978  -0.38583953            0  -0.33843238 0.0075002316 
  373100    18.135086  -0.38604133            0  -0.33848916 0.00036661267 
  373200    18.013135  -0.38584947            0  -0.33861707 -0.00044975881 
  373300      18.0588  -0.38586346            0  -0.33851132 0.0041814606 
  373400    18.181226   -0.3862421            0  -0.33856895 0.0048335175 
  373500    18.195601  -0.38624406            0  -0.33853322 0.0051229673 
  373600    18.234561  -0.38620751            0  -0.33839451 0.0039489841 
  373700    18.242604  -0.38612166            0  -0.33828756 0.0055746631 
  373800    18.183595  -0.38619496            0  -0.33851559 0.0044982322 
  373900    18.196638   -0.3859223            0  -0.33820873 0.0050787662 
  374000    18.206277  -0.38603143            0  -0.33829259 0.0027820955 
  374100    18.262439  -0.38618985            0  -0.33830375 -7.6149833e-05 
  374200    18.056387  -0.38586301            0   -0.3385172 0.0051097139 
  374300    17.955077  -0.38554443            0  -0.33846427 0.0065308273 
  374400    17.923857   -0.3854619            0  -0.33846359 0.0018964365 
  374500     17.81172  -0.38525266            0   -0.3385484 0.0037933157 
  374600    17.734433  -0.38506466            0  -0.33856305 0.0077990221 
  374700    17.968063  -0.38553601            0   -0.3384218 9.6263374e-05 
  374800    17.800777  -0.38514359            0  -0.33846802 0.0032447745 
  374900    17.805832  -0.38523342            0  -0.33854459 0.0045391303 
  375000     17.70421  -0.38477542            0  -0.33835306 0.0066611464 
  375100    17.743789  -0.38497826            0  -0.33845211 -0.0025802088 
  375200     17.75671  -0.38502781            0  -0.33846778 0.0039602162 
  375300    17.908545   -0.3856161            0  -0.33865794 0.0051673485 
  375400     17.93152  -0.38569242            0  -0.33867403 -0.0014060172 
  375500    17.603898  -0.38491906            0  -0.33875973  0.005594874 
  375600     17.38173  -0.38437656            0  -0.33879977 0.0076333565 
  375700    17.455208  -0.38458591            0  -0.33881646 0.00040163439 
  375800    17.628589  -0.38518533            0  -0.33896125 0.0017927376 
  375900    17.705936  -0.38531138            0  -0.33888449 0.0071738919 
  376000    17.610597   -0.3852111            0   -0.3390342 0.0032805066 
  376100    17.637174  -0.38534369            0   -0.3390971 -0.0047853729 
  376200    17.394749  -0.38473782            0  -0.33912689 0.0050103008 
  376300    17.384837  -0.38477183            0   -0.3391869 0.0056759332 
  376400    17.559271  -0.38508221            0  -0.33903989 4.6921155e-06 
  376500     17.34124  -0.38436148            0  -0.33889086 0.0054921401 
  376600    17.524007    -0.384712            0  -0.33876215 0.00036745276 
  376700    17.424224  -0.38445517            0  -0.33876695 0.0069369934 
  376800    17.693165  -0.38510211            0  -0.33870871 0.00077496783 
  376900    17.363628  -0.38419607            0  -0.33866675 0.0040807229 
  377000    17.454184  -0.38455738            0  -0.33879061 -0.0022076419 
  377100    17.500039  -0.38454797            0  -0.33866097 0.0026543709 
  377200    17.805152  -0.38527547            0  -0.33858842 -0.00020125978 
  377300    18.014334  -0.38577385            0  -0.33853831 0.00095686053 
  377400    17.916338  -0.38575948            0  -0.33878089 0.0093620906 
  377500    17.816599  -0.38523105            0  -0.33851399 0.0057303901 
  377600    17.805442  -0.38523805            0  -0.33855024  0.000277847 
  377700    17.717054     -0.38519            0  -0.33873396 0.00011209055 
  377800     17.86868  -0.38572299            0  -0.33886936 0.00020333012 
  377900    17.923219  -0.38579787            0  -0.33880124  0.005745584 
  378000    17.829399  -0.38574701            0  -0.33899638 0.0017302602 
  378100    17.880053  -0.38574104            0   -0.3388576 -0.0027281583 
  378200    17.833577  -0.38565487            0  -0.33889329 0.0048837461 
  378300    17.988437  -0.38598645            0  -0.33881882  0.003560225 
  378400    18.159702  -0.38641073            0  -0.33879402 0.0019811974 
  378500    18.100696  -0.38623158            0  -0.33876959 0.0083706066 
  378600    18.092875  -0.38613534            0  -0.33869386 0.0073956408 
  378700    18.211742  -0.38633175            0  -0.33857859 -0.002005106 
  378800    18.130733  -0.38625237            0  -0.33871162 0.0042722194 
  378900    18.260481  -0.38644446            0  -0.33856349 0.0039813761 
  379000    18.158505  -0.38627971            0  -0.33866614 0.0056712958 
  379100     18.18161  -0.38635549            0  -0.33868133 0.00074608614 
  379200    18.117126  -0.38615419            0  -0.33864911 0.0053081966 
  379300    18.092726  -0.38611722            0  -0.33867613 0.0088264319 
  379400    18.198255  -0.38652255            0  -0.33880474 -0.00061718467 
  379500    17.987671  -0.38587115            0  -0.33870552 0.0020231443 
  379600    17.946675  -0.38572782            0  -0.33866969 0.00013526015 
  379700    17.946987   -0.3856985            0  -0.33863954 0.0020256564 
  379800    17.913722   -0.3857066            0  -0.33873487 0.0072951241 
  379900    18.168793   -0.3861307            0  -0.33849015 0.00027857014 
  380000    18.025759  -0.38578719            0  -0.33852169 0.0044168648 
  380100    17.995066  -0.38579024            0  -0.33860522 0.0085555211 
  380200    18.215476  -0.38633009            0  -0.33856713 -0.0024704775 
  380300    17.938913  -0.38575179            0  -0.33871401 0.0034826552 
  380400    17.903769  -0.38573755            0  -0.33879192 0.0062680068 
  380500    17.929654  -0.38587036            0  -0.33885686 0.0026623954 
  380600    18.006323  -0.38608069            0  -0.33886615 0.0019532829 
  380700    18.270277  -0.38669514            0  -0.33878848 0.0024269136 
  380800    18.340994  -0.38672392            0  -0.33863184 0.0050639891 
  380900    18.115821  -0.38618865            0    -0.338687 0.0084372749 
  381000    18.199407  -0.38637552            0  -0.33865469 0.00081772075 
  381100    17.995397  -0.38593774            0  -0.33875185 0.0014013402 
  381200     17.96029  -0.38591081            0  -0.33881698 0.0068709561 
  381300    18.081115  -0.38636025            0   -0.3389496 0.0064783938 
  381400    17.932637  -0.38589995            0  -0.33887863 0.0040350914 
  381500    17.947029   -0.3858693            0  -0.33881024 -0.00096770848 
  381600    17.780767  -0.38552123            0  -0.33889813 0.0057566437 
  381700    18.050247  -0.38591303            0  -0.33858332 0.0024360849 
  381800    18.079987  -0.38603369            0    -0.338626 0.0039212085 
  381900     17.99451  -0.38565219            0  -0.33846862 0.0037313433 
  382000    17.991582  -0.38572945            0  -0.33855356 -0.00071390434 
  382100    18.034925  -0.38579988            0  -0.33851035 0.00078019904 
  382200    17.979835  -0.38582687            0  -0.33868179  0.004002756 
  382300    18.155445  -0.38616514            0  -0.33855959 0.0018951979 
  382400     18.08361  -0.38612136            0  -0.33870417 0.0066606709 
  382500    18.185955  -0.38625545            0   -0.3385699 0.0049216399 
  382600    18.121299  -0.38627632            0   -0.3387603 0.0074686097 
  382700    18.119924  -0.38621582            0  -0.33870341 0.0042519152 
  382800    18.063928  -0.38617982            0  -0.33881424 0.0019935172 
  382900    17.833936   -0.3856794            0  -0.33891688 0.0066206765 
  383000    17.868073  -0.38586904            0  -0.33901701 0.0042751039 
  383100    17.933193  -0.38606569            0   -0.3390429 0.0046883996 
  383200    18.023759  -0.38625882            0  -0.33899856 0.0026636307 
  383300    18.065692  -0.38636051            0   -0.3389903 0.0030721351 
  383400    18.039968  -0.38604504            0  -0.33874229 0.0041624261 
  383500    18.039436  -0.38618859            0  -0.33888722 0.0053441102 
  383600    18.360679  -0.38670371            0  -0.33856001 0.0032922125 
  383700    18.169413  -0.38624247            0  -0.33860029 0.0087597854 
  383800    18.055937  -0.38609742            0  -0.33875279 0.0010157574 
  383900     18.02053  -0.38605087            0  -0.33879908 -0.00090143589 
  384000    17.997851  -0.38608957            0  -0.33889725 0.0049184338 
  384100    17.881698  -0.38574392            0  -0.33885616 0.0083547574 
  384200    17.960337  -0.38587817            0  -0.33878421  0.004954458 
  384300    17.937661   -0.3857803            0   -0.3387458 0.0019616972 
  384400    17.868286  -0.38569502            0  -0.33884244 0.0020596922 
  384500    17.824246  -0.38537683            0  -0.33863972 0.0066607663 
  384600    17.973037  -0.38594667            0  -0.33881942 0.0030528981 
  384700    18.137615  -0.38620644            0  -0.33864764 0.0015900188 
  384800    18.237042  -0.38637204            0  -0.33855253 0.0031372662 
  384900    18.074217  -0.38593754            0  -0.33854497 0.0083317451 
  385000    18.109906  -0.38600481            0  -0.33851867 0.0027959237 
  385100    17.977061  -0.38560683            0  -0.33846902 0.0054609367 
  385200    18.040848  -0.38580474            0  -0.33849967 0.0048712184 
  385300     18.05859  -0.38606828            0  -0.33871669 -0.00016372633 
  385400     17.85358  -0.38563858            0  -0.33882455 0.0077042534 
  385500    18.051611  -0.38607757            0  -0.33874428 0.0043313468 
  385600    18.100202  -0.38641547            0  -0.33895478 0.0018990673 
  385700    18.116068  -0.38632614            0  -0.33882384 0.0038282256 
  385800    18.008065  -0.38600795            0  -0.33878885 0.0082174485 
  385900    18.186374  -0.38634476            0  -0.33865811 0.0038638266 
  386000    18.040324  -0.38589756            0  -0.33859386 0.0059159459 
  386100    17.963945  -0.38584795            0  -0.33874453 -0.0022940222 
  386200     17.94818  -0.38576874            0  -0.33870666 -0.0019372803 
  386300    18.038109  -0.38607258            0   -0.3387747 0.0077286362 
  386400    17.946088  -0.38580546            0  -0.33874887 0.0087601724 
  386500    17.942469  -0.38580763            0  -0.33876053 -0.0022027808 
  386600    17.881518  -0.38552079            0  -0.33863351  0.004542772 
  386700    18.124097   -0.3860499            0  -0.33852654 0.0017972732 
  386800    18.113585  -0.38606308            0  -0.33856729 0.0030337445 
  386900    17.958798  -0.38558158            0  -0.33849166 0.0068192267 
  387000    18.004422  -0.38577182            0  -0.33856226 0.0030245542 
  387100    17.939531  -0.38575811            0  -0.33871871 0.0022390315 
  387200    17.870971  -0.38565824            0  -0.33879861 0.0010794737 
  387300    17.742894  -0.38535434            0  -0.33883054  0.004973749 
  387400    17.702524  -0.38542224            0   -0.3390043 0.00082680144 
  387500    17.790984  -0.38542055            0  -0.33877065  0.005153762 
  387600    17.913198  -0.38579929            0  -0.33882894 0.0089181029 
  387700    18.068114  -0.38611388            0  -0.33873732 0.0028020942 
  387800     18.07305  -0.38591345            0  -0.33852394 0.0091070168 
  387900    18.246161  -0.38619477            0  -0.33835135 0.0038069617 
  388000     18.20389  -0.38623156            0  -0.33849898 0.00073501763 
  388100    18.056694  -0.38589688            0  -0.33855026 0.0048687424 
  388200    18.013337  -0.38576796            0  -0.33853503 0.0038953812 
  388300    17.966191  -0.38572034            0  -0.33861104 0.0031600981 
  388400    18.105331  -0.38597969            0  -0.33850555 0.0041423891 
  388500    18.161734  -0.38593164            0   -0.3383096 0.0034814799 
  388600    18.202711   -0.3861087            0  -0.33837921 -0.0022451516 
  388700    17.968586  -0.38562225            0  -0.33850666 0.0082808703 
  388800    18.242872  -0.38603129            0   -0.3381965 0.0067371796 
  388900      18.1743   -0.3858684            0  -0.33821341 0.0056280474 
  389000    18.069328  -0.38581021            0  -0.33843046 0.0054947057 
  389100    18.071122  -0.38563576            0  -0.33825132 0.0055998109 
  389200    18.207679    -0.386154            0  -0.33841149 -0.00091623717 
  389300     18.07491  -0.38573088            0   -0.3383365 0.0025356189 
  389400     17.95694  -0.38563291            0  -0.33854786 0.0019405543 
  389500     17.95014  -0.38564678            0  -0.33857956 0.0086633401 
  389600    18.058459  -0.38586401            0  -0.33851277 0.0080253926 
  389700    18.131419  -0.38597792            0  -0.33843537 0.00069087822 
  389800    17.955765   -0.3855504            0  -0.33846843  0.001687114 
  389900    17.891279  -0.38538377            0  -0.33847089 0.0056103634 
  390000     17.99422  -0.38568755            0  -0.33850474 0.0049586718 
  390100    17.837534  -0.38517086            0  -0.33839891  0.003103697 
  390200    17.798208  -0.38509942            0  -0.33843058 0.0010323086 
  390300    18.002565  -0.38555441            0  -0.33834973 0.0020215346 
  390400    18.013365  -0.38564601            0  -0.33841301  0.006568144 
  390500    17.935712   -0.3855017            0  -0.33847231 0.0028393716 
  390600    17.934999  -0.38546703            0  -0.33843952 0.00077753074 
  390700    17.689378  -0.38505665            0  -0.33867317 0.0061380959 
  390800    17.748551  -0.38526704            0  -0.33872841  0.001360838 
  390900    17.777632  -0.38541663            0  -0.33880174 0.0020731321 
  391000     17.82187  -0.38550163            0  -0.33877075 0.0050513638 
  391100    17.886691  -0.38573107            0  -0.33883022 0.0029331576 
  391200    17.806732  -0.38551497            0  -0.33882378 0.00021888569 
  391300    17.580854  -0.38478215            0  -0.33868324 0.0063020472 
  391400    17.720017  -0.38521433            0  -0.33875052 -0.00095637105 
  391500    17.802306  -0.38533719            0   -0.3386576 0.0043599788 
  391600    18.039523  -0.38585128            0  -0.33854968 0.0055406682 
  391700    17.863647  -0.38562283            0  -0.33878241 0.0054161605 
  391800    17.895778  -0.38549111            0  -0.33856643 -0.0013115998 
  391900     17.87776  -0.38563856            0  -0.33876112 0.0013806317 
  392000     17.95124  -0.38598227            0  -0.33891216 0.0062554019 
  392100    17.929353  -0.38594978            0  -0.33893707 0.0083307624 
  392200     18.06405  -0.38630589            0  -0.33893999 -0.0001715615 
  392300    17.688778  -0.38530373            0  -0.33892183 0.0068686405 
  392400    17.795346  -0.38561635            0  -0.33895502 0.00049205417 
  392500    17.661612  -0.38524585            0  -0.33893518 0.0055595256 
  392600    17.958078  -0.38592019            0  -0.33883216 0.0061052269 
  392700    18.087663  -0.38624151            0  -0.33881369 0.0046369238 
  392800    17.902208  -0.38571044            0  -0.33876891  0.003175837 
  392900    17.818289   -0.3854796            0  -0.33875811 0.0012025181 
  393000    17.770078  -0.38543064            0  -0.33883557 -9.1027394e-05 
  393100    17.934214  -0.38575325            0  -0.33872779 -0.0022250655 
  393200    17.905977  -0.38564817            0  -0.33869675 0.0053903323 
  393300    17.953033  -0.38568948            0  -0.33861467 0.0077681186 
  393400    18.095151  -0.38610898            0  -0.33866153 0.0039823966 
  393500    18.099009  -0.38610737            0   -0.3386498 0.0042856155 
  393600    17.904199  -0.38570658            0  -0.33875983 0.0063677774 
  393700    17.917432  -0.38581741            0  -0.33883596 0.0033598753 
  393800     18.07056  -0.38608103            0  -0.33869806 0.0017418482 
  393900     18.27735  -0.38656117            0  -0.33863597 0.0021021032 
  394000    18.180079  -0.38621893            0  -0.33854878 0.0091101188 
  394100    18.255268  -0.38646264            0  -0.33859535 0.0028218428 
  394200    17.931851  -0.38543661            0  -0.33841734 0.0082176216 
  394300    18.097043  -0.38581492            0   -0.3383625 0.0029051148 
  394400    18.183662  -0.38609454            0    -0.338415 0.0047599731 
  394500    18.178586   -0.3861775            0  -0.33851127 0.0046463246 
  394600    17.985113   -0.3855535            0  -0.33839457 0.0044645871 
  394700    18.032725  -0.38565948            0  -0.33837572 0.0036427962 
  394800    18.049776  -0.38585246            0  -0.33852399 0.0079709277 
  394900    17.999378  -0.38583849            0  -0.33864216 0.0051811374 
  395000     18.00394  -0.38597887            0  -0.33877058 0.00042131298 
  395100    18.015032  -0.38603226            0  -0.33879489 0.0021901285 
  395200    17.988129  -0.38592398            0  -0.33875715 0.0082157008 
  395300    18.079723  -0.38625104            0  -0.33884404 0.0015195492 
  395400    18.060096  -0.38614404            0   -0.3387885 0.00039217894 
  395500    17.867794  -0.38565836            0  -0.33880706  0.011154966 
  395600    17.918003  -0.38583211            0  -0.33884916 0.0065219263 
  395700    17.898252  -0.38582293            0  -0.33889176 0.00044317407 
  395800    17.724969   -0.3853054            0   -0.3388286  0.010507859 
  395900    17.914834  -0.38574498            0  -0.33877034 0.0013808285 
  396000    17.844169     -0.38552            0  -0.33873064 0.0015161823 
  396100    17.651826  -0.38497409            0  -0.33868908   0.01024417 
  396200    17.773583  -0.38524222            0  -0.33863795 0.0038334424 
  396300    17.862834  -0.38532232            0  -0.33848402 -0.0025356609 
  396400    17.794797  -0.38522313            0  -0.33856324 0.0023190541 
  396500    17.775769  -0.38518305            0  -0.33857305 0.0026005562 
  396600    17.692825  -0.38499656            0  -0.33860405 0.0054070171 
  396700     17.82265  -0.38528572            0   -0.3385528 0.0040488754 
  396800    17.731544  -0.38515438            0  -0.33866035 0.0058947992 
  396900    17.722622  -0.38515749            0  -0.33868684 0.0018172204 
  397000    17.661796  -0.38491867            0  -0.33860752  0.002972811 
  397100     17.74968  -0.38509608            0  -0.33855448 0.0066481335 
  397200    17.906887  -0.38553113            0  -0.33857732 0.0019755501 
  397300    17.990543  -0.38561916            0  -0.33844599 0.0028222947 
  397400    17.840585  -0.38527925            0  -0.33849929 0.0053561028 
  397500    17.546594  -0.38455908            0     -0.33855 0.0048691865 
  397600    17.621267  -0.38469179            0  -0.33848691 -0.0014988989 
  397700    17.607809  -0.38477794            0  -0.33860835 0.0021925725 
  397800    17.772417  -0.38498403            0  -0.33838282 0.0044225294 
  397900    17.909514  -0.38538227            0  -0.33842157  0.002060578 
  398000    17.850727  -0.38527828            0  -0.33847174  0.004078198 
  398100    17.976693  -0.38564029            0  -0.33850344 0.0036580338 
  398200     17.98551  -0.38552241            0  -0.33836245 0.0062824869 
  398300    17.774911  -0.38497124            0  -0.33836349 0.0069679701 
  398400    17.875315  -0.38523258            0  -0.33836156 -0.0043363835 
  398500    17.608576  -0.38463212            0  -0.33846052  0.005914675 
  398600    17.945555  -0.38530755            0  -0.33825236 0.0041272877 
  398700     17.94063  -0.38541645            0  -0.33837417 0.0040999634 
  398800    17.868339  -0.38508663            0   -0.3382339 0.0049875135 
  398900    17.771888  -0.38502643            0   -0.3384266 0.0074374235 
  399000    17.960551  -0.38545512            0   -0.3383606 0.00030945791 
  399100    17.967042  -0.38537674            0   -0.3382652 0.0019866156 
  399200    17.929485  -0.38544761            0  -0.33843455  0.003526283 
  399300     17.83577  -0.38547544            0  -0.33870811 0.0045084205 
  399400    17.755578  -0.38512454            0  -0.33856749 0.0059720314 
  399500    17.760299  -0.38499528            0  -0.33842584 0.0073198446 
  399600     17.89181  -0.38534603            0  -0.33843175 0.0007496166 
  399700    17.676348  -0.38479296            0  -0.33844366 0.0046623885 
  399800    18.028573  -0.38564935            0  -0.33837647 -0.0021603466 
  399900    17.910693  -0.38542671            0  -0.33846292  0.010114002 
  400000    18.048671  -0.38571358            0    -0.338388 0.0068254421 
  400100      18.0114  -0.38560056            0  -0.33837271 0.00024358117 
  400200    17.953376  -0.38552825            0  -0.33845255 0.0019387286 
  400300    18.149324  -0.38582618            0  -0.33823667 0.0019245401 
  400400     17.79572  -0.38518289            0  -0.33852057 0.0079279061 
  400500    17.929936   -0.3852955            0  -0.33828126 -0.0023661483 
  400600     17.80832  -0.38500933            0  -0.33831397 0.00018306851 
  400700    17.909669  -0.38539689            0  -0.33843579 0.0030077772 
  400800    17.902301  -0.38548746            0  -0.33854568 0.0068463324 
  400900    17.989828  -0.38571349            0  -0.33854221 0.0036074042 
  401000    17.835859  -0.38539927            0  -0.33863171 0.0063239115 
  401100    17.836952  -0.38544634            0  -0.33867591 -0.00040443598 
  401200    17.790549  -0.38539867            0  -0.33874991 0.0020410184 
  401300    17.681228   -0.3851081            0  -0.33874599  0.011308135 
  401400     17.82537  -0.38539916            0   -0.3386591  0.004146053 
  401500    17.945812  -0.38561056            0  -0.33855469 -0.00081481626 
  401600    18.078494  -0.38576765            0  -0.33836387 0.0008715715 
  401700    18.058773  -0.38582903            0  -0.33847697  0.002713486 
  401800    17.968233  -0.38553369            0  -0.33841902 0.0071008332 
  401900    18.125948  -0.38572448            0  -0.33819627 0.0018170413 
  402000    18.182184  -0.38599024            0  -0.33831458 -0.0021105921 
  402100    18.065665  -0.38584049            0  -0.33847035 0.0040615962 
  402200    18.025649  -0.38576479            0  -0.33849958 0.0081579992 
  402300    17.984137  -0.38569059            0  -0.33853423 0.0040673376 
  402400    17.906162  -0.38548041            0   -0.3385285 -6.4046767e-05 
  402500    17.877334  -0.38556431            0    -0.338688 0.0040189551 
  402600    18.120435  -0.38610837            0  -0.33859462 0.0053059682 
  402700    18.109961   -0.3860126            0  -0.33852631  0.003014607 
  402800    17.840902  -0.38563511            0  -0.33885433 0.00051036003 
  402900    17.794783  -0.38515931            0  -0.33849946 0.0050755752 
  403000    17.922743   -0.3854684            0  -0.33847302 0.0038902822 
  403100    17.969746  -0.38556687            0  -0.33844824 0.0030975438 
  403200     17.97404  -0.38561528            0  -0.33848539 0.0025604771 
  403300    17.973958  -0.38546447            0  -0.33833479 0.0047312337 
  403400    18.154638  -0.38619009            0  -0.33858665 0.0027092008 
  403500    18.157999  -0.38617427            0  -0.33856202 0.0038838084 
  403600    17.969783  -0.38564802            0  -0.33852929 0.0073595485 
  403700    17.996196  -0.38576702            0  -0.33857903 -0.00058502323 
  403800    17.888168   -0.3853825            0  -0.33847778 0.0037233915 
  403900    17.937231  -0.38560262            0  -0.33856925 0.0034254246 
  404000    17.909792  -0.38558245            0  -0.33862103 0.0048367644 
  404100    18.058366  -0.38571061            0  -0.33835961 -1.9504919e-05 
  404200    18.182835  -0.38622653            0  -0.33854916 0.0017574004 
  404300    18.229123  -0.38627229            0  -0.33847355 0.0067976754 
  404400    18.078013  -0.38582993            0  -0.33842741 0.0048546442 
  404500    17.989845  -0.38578804            0  -0.33861671 -0.0019023804 
  404600    17.914659  -0.38551455            0  -0.33854037 0.0021651554 
  404700    18.017036  -0.38576294            0  -0.33852031 0.00080592289 
  404800    18.184843  -0.38614763            0  -0.33846499 0.0025257921 
  404900    18.261998  -0.38646463            0  -0.33857969 0.0027937608 
  405000    18.141599  -0.38613526            0  -0.33856601 0.0055349587 
  405100    18.365101  -0.38666739            0   -0.3385121 0.0013477636 
  405200    18.293612  -0.38664325            0  -0.33867541  0.004775112 
  405300    18.186303  -0.38637396            0   -0.3386875 0.0031119661 
  405400    18.257055  -0.38651424            0  -0.33864226 0.00044872825 
  405500    18.238622  -0.38650934            0  -0.33868569   0.00635441 
  405600     18.52729  -0.38703872            0  -0.33845815 0.0043144402 
  405700    18.359172  -0.38644736            0  -0.33830762 0.0053760494 
  405800    18.291105   -0.3864871            0  -0.33852583 0.0025866307 
  405900    18.249482  -0.38623516            0  -0.33838303  0.001985252 
  406000    18.038886  -0.38573752            0   -0.3384376 0.0062477878 
  406100    17.952077  -0.38580771            0  -0.33873541 0.0045803751 
  406200    17.801203  -0.38555287            0  -0.33887618 0.0013337152 
  406300    17.883006  -0.38564374            0  -0.33875256 0.0031722149 
  406400    18.030991  -0.38604473            0  -0.33876551 0.00066550286 
  406500    17.828894  -0.38558198            0  -0.33883268 0.0041226888 
  406600    17.942805  -0.38575393            0  -0.33870595 0.0025739307 
  406700    17.896311  -0.38555098            0  -0.33862491 0.0076519295 
  406800    18.092258  -0.38594589            0  -0.33850602 0.00094688221 
  406900    17.782226  -0.38508422            0  -0.33845728   0.00782815 
  407000    17.944834  -0.38555984            0  -0.33850653 -0.0022470729 
  407100    17.845211  -0.38512984            0  -0.33833776 0.0037587741 
  407200    17.879209  -0.38537836            0  -0.33849713 0.0048949258 
  407300    18.049085  -0.38576125            0  -0.33843458 0.0016392154 
  407400    17.958119  -0.38556172            0  -0.33847358 0.0062683576 
  407500    17.949593  -0.38582505            0  -0.33875927  0.005598636 
  407600    18.145599    -0.386083            0  -0.33850326 0.0034588042 
  407700    17.980726  -0.38591418            0  -0.33876676 0.0096226442 
  407800    18.055024  -0.38600527            0  -0.33866304 0.0045889181 
  407900    18.122254  -0.38610965            0  -0.33859113 0.0018099943 
  408000    18.093087  -0.38604861            0  -0.33860657 0.0059118581 
  408100    18.266128  -0.38652739            0  -0.33863161 0.0016108944 
  408200    18.085071  -0.38590289            0  -0.33848187 0.0075468094 
  408300    18.090023  -0.38579725            0  -0.33836324 0.0014051761 
  408400    18.039671  -0.38562425            0  -0.33832227 0.0014859845 
  408500    18.105304  -0.38571424            0  -0.33824016 0.0020228009 
  408600    18.016636  -0.38541184            0  -0.33817026 0.0058269912 
  408700    18.110807  -0.38574651            0    -0.338258 0.0059033481 
  408800    18.101289   -0.3858838            0  -0.33842025 0.0037380453 
  408900    18.038567  -0.38566532            0  -0.33836623 0.0013502447 
  409000    18.205523  -0.38615232            0  -0.33841546 0.0021454518 
  409100    18.102946  -0.38587567            0  -0.33840777  0.011127132 
  409200    18.086483  -0.38587466            0  -0.33844993 0.0078996261 
  409300    18.129652  -0.38580126            0  -0.33826334 -0.00011430226 
  409400    18.065193  -0.38574005            0  -0.33837115 0.00019357754 
  409500     18.19999  -0.38587518            0  -0.33815283 0.0041639714 
  409600    18.201735  -0.38601762            0  -0.33829069 0.0086722745 
  409700     18.35034  -0.38629348            0  -0.33817689 0.0024088426 
  409800    18.117755  -0.38572072            0  -0.33821399  0.005393134 
  409900    18.160939  -0.38623027            0  -0.33861031 0.00089499666 
  410000     17.95939  -0.38546038            0  -0.33836891  0.006777177 
  410100    18.061871  -0.38588663            0  -0.33852644 0.00061027465 
  410200    18.069012  -0.38596721            0   -0.3385883 0.0030943175 
  410300    18.068322  -0.38584332            0  -0.33846622 0.0077085877 
  410400    18.174293  -0.38616157            0   -0.3385066 -0.0013229691 
  410500    17.898044  -0.38551535            0  -0.33858473 0.0023786168 
  410600    18.054589  -0.38593175            0  -0.33859065 0.0002177815 
  410700    18.203666  -0.38628039            0  -0.33854839 0.0040749065 
  410800    17.967246  -0.38573165            0  -0.33861957  0.010789673 
  410900    17.921931  -0.38562101            0  -0.33862776 0.0005742677 
  411000    17.816007  -0.38531197            0  -0.33859647 3.5072396e-05 
  411100    17.909135  -0.38552413            0  -0.33856443  0.004963935 
  411200    18.155617  -0.38610955            0  -0.33850355  0.004786093 
  411300    18.214159  -0.38619059            0  -0.33843108 0.0020204281 
  411400    18.102931  -0.38587655            0  -0.33840869 0.0044706487 
  411500    18.259069  -0.38627526            0  -0.33839799 0.00021089944 
  411600    18.076642  -0.38605216            0  -0.33865323 0.0065163484 
  411700    18.279599  -0.38644937            0  -0.33851827 0.0032239233 
  411800    18.062794  -0.38598373            0  -0.33862112 0.0081304183 
  411900    18.104222  -0.38619218            0  -0.33872095 -0.00050366726 
  412000    18.122463  -0.38626134            0  -0.33874227 -0.00020962512 
  412100    18.114306  -0.38612068            0    -0.338623 0.0080181653 
  412200     18.25776  -0.38647988            0  -0.33860605 0.0021198309 
  412300    18.231547  -0.38633508            0  -0.33852998 0.0018823921 
  412400    18.284073  -0.38628035            0  -0.33833753  0.007079737 
  412500    18.248954  -0.38615726            0  -0.33830652 0.0079181102 
  412600     18.12255  -0.38599663            0  -0.33847733 0.0049518704 
  412700    17.991121  -0.38570017            0   -0.3385255 0.0002385323 
  412800    17.819069  -0.38539077            0  -0.33866723 0.0035722488 
  412900    17.957245  -0.38591365            0   -0.3388278 0.0060837557 
  413000    18.085849  -0.38627934            0  -0.33885628 0.0090161366 
  413100     18.01703  -0.38613931            0   -0.3388967 0.0033974634 
  413200    17.959392  -0.38591323            0  -0.33882175 0.0015766411 
  413300    18.064193  -0.38610707            0   -0.3387408 0.0063488333 
  413400    18.163099  -0.38639787            0  -0.33877225  0.011330831 
  413500    18.232328  -0.38637061            0  -0.33856346 0.0054029387 
  413600    18.168015  -0.38620468            0  -0.33856617 0.00053883057 
  413700    18.039895  -0.38579004            0  -0.33848747 0.0047812844 
  413800    17.854152  -0.38532432            0  -0.33850879  0.010812858 
  413900    17.941381  -0.38563715            0   -0.3385929 0.0028182246 
  414000    17.997168  -0.38556519            0  -0.33837466 0.0015654881 
  414100    17.999443  -0.38570093            0  -0.33850444 0.0022574861 
  414200    18.018774  -0.38568241            0  -0.33843522 0.0063753341 
  414300    18.090712  -0.38596794            0  -0.33853213  0.004935962 
  414400    18.089446  -0.38591989            0  -0.33848739 0.00016586319 
  414500    17.986046  -0.38563066            0   -0.3384693 0.0070157088 
  414600    18.111968  -0.38610548            0  -0.33861393 0.0016617695 
  414700    18.307462  -0.38644024            0  -0.33843609 0.0006296572 
  414800    18.203187  -0.38625843            0  -0.33852769  0.004349124 
  414900    18.209746   -0.3862643            0  -0.33851637 0.0040849658 
  415000    18.308835  -0.38629456            0   -0.3382868 0.0027067355 
  415100    18.102964  -0.38578657            0  -0.33831863 0.0063688483 
  415200    18.186985  -0.38622343            0  -0.33853517 0.0015254718 
  415300    18.285314  -0.38649821            0  -0.33855213 0.00088987076 
  415400    18.222184  -0.38636505            0   -0.3385845 0.0025844738 
  415500    18.252593  -0.38647447            0  -0.33861419 0.0044511402 
  415600    18.070821  -0.38607606            0  -0.33869241 0.0090997365 
  415700    18.154617  -0.38622264            0  -0.33861926  0.001277587 
  415800    18.265589  -0.38651827            0  -0.33862391 0.0033129168 
  415900    18.233894  -0.38644804            0  -0.33863679 0.0087350199 
  416000    18.268166   -0.3863962            0  -0.33849509 -0.0010102044 
  416100    18.122635  -0.38603459            0  -0.33851507 0.0011016908 
  416200    18.152017  -0.38625653            0  -0.33865997 0.0039400659 
  416300    18.316461  -0.38652732            0  -0.33849956 0.0064091879 
  416400    18.507261  -0.38698176            0  -0.33845371 0.0025672136 
  416500    18.447779  -0.38674201            0  -0.33836993 0.0054777371 
  416600    18.384682  -0.38655498            0  -0.33834834 0.0054931499 
  416700    18.368577  -0.38637571            0   -0.3382113 0.0056637848 
  416800    18.515134  -0.38679181            0  -0.33824312  0.002534646 
  416900    18.407676  -0.38661496            0  -0.33834803  0.005882606 
  417000    18.451839  -0.38654842            0  -0.33816569 0.0016215585 
  417100    18.474507  -0.38686927            0  -0.33842711 -0.00029704512 
  417200     18.29854  -0.38630361            0  -0.33832285 0.0059201514 
  417300    18.311867  -0.38650567            0  -0.33848997  0.003475229 
  417400    18.291843  -0.38656063            0  -0.33859742 0.0048548343 
  417500    18.280787  -0.38651068            0  -0.33857647 0.0038822058 
  417600    18.176189  -0.38624663            0  -0.33858669 0.0045664156 
  417700    18.152985   -0.3863022            0   -0.3387031 0.0025052848 
  417800    18.067652  -0.38596528            0  -0.33858993 0.00032210622 
  417900    17.992188  -0.38560931            0  -0.33843184 0.0015221472 
  418000    18.062756  -0.38573363            0  -0.33837112 0.0036612476 
  418100    18.145376  -0.38601433            0  -0.33843518 0.0051536285 
  418200    18.237851   -0.3863369            0  -0.33851528 0.0050367619 
  418300    18.296316  -0.38628622            0  -0.33831129 0.0050128079 
  418400    18.353844  -0.38646655            0  -0.33834077 -0.0010140815 
  418500    18.156214  -0.38601723            0  -0.33840966 0.0026728201 
  418600    18.074923  -0.38572323            0  -0.33832881 0.0029135905 
  418700    18.118306  -0.38589367            0   -0.3383855 0.0041538138 
  418800    18.043438  -0.38560814            0  -0.33829628 0.0064063063 
  418900    18.136301  -0.38599584            0  -0.33844048 0.0015188788 
  419000    18.124487  -0.38596425            0  -0.33843988 0.0020969445 
  419100    18.095534  -0.38596731            0  -0.33851885 0.0074007402 
  419200    18.141462  -0.38611153            0  -0.33854265 0.0056962596 
  419300    18.293106  -0.38644647            0  -0.33847996 -0.0010648465 
  419400     18.33578  -0.38658537            0  -0.33850696 0.0034176597 
  419500    18.280171  -0.38642943            0  -0.33849683 0.0059495468 
  419600     18.24203   -0.3863277            0  -0.33849511 0.0014386198 
  419700    18.138625  -0.38612484            0  -0.33856339 0.0025720775 
  419800    18.004478  -0.38567186            0  -0.33846217 0.0058805169 
  419900    18.090762   -0.3859151            0  -0.33847916 0.0033631346 
  420000    18.095927  -0.38599664            0  -0.33854715 0.0046485972 
  420100    18.151445  -0.38615218            0  -0.33855712 0.0039423482 
  420200    18.102187  -0.38606397            0  -0.33859806 0.0042368747 
  420300     18.12603   -0.3860021            0  -0.33847368   0.00469434 
  420400    18.189098  -0.38627162            0  -0.33857782 0.0033776187 
  420500    18.314449  -0.38649806            0  -0.33847558 0.0029733386 
  420600    18.161134   -0.3860973            0  -0.33847683 0.0080624826 
  420700    18.197928  -0.38632508            0  -0.33860814 0.0010555651 
  420800    18.276612  -0.38650552            0  -0.33858225 0.0053522788 
  420900    18.227578   -0.3863709            0  -0.33857621  0.010155528 
  421000    18.304141  -0.38665777            0  -0.33866232 0.0047740689 
  421100    18.337895   -0.3867244            0  -0.33864045 0.0023736006 
  421200    18.271669  -0.38654029            0  -0.33862999 0.0010466694 
  421300    18.193915   -0.3864146            0  -0.33870818 0.0012294142 
  421400    17.946966  -0.38574444            0  -0.33868554 0.0085957897 
  421500    17.991141  -0.38591699            0  -0.33874226 -0.0019111639 
  421600    17.819228  -0.38556064            0  -0.33883669 -0.0022198993 
  421700    17.715441  -0.38530196            0  -0.33885015 0.0038275484 
  421800    17.929708  -0.38588269            0  -0.33886904 -0.00016889661 
  421900    18.023788  -0.38596894            0  -0.33870861 0.0039517469 
  422000    18.237686  -0.38644313            0  -0.33862193   0.00361168 
  422100    18.272009    -0.386351            0   -0.3384398 0.0029349736 
  422200    18.257586  -0.38636333            0  -0.33848996 0.0011594661 
  422300    18.293147   -0.3865312            0  -0.33856458 0.00097135303 
  422400     18.31434  -0.38660459            0   -0.3385824 0.0063053889 
  422500     18.33779  -0.38674782            0  -0.33866414 0.0066834887 
  422600    18.390833  -0.38689944            0  -0.33867668 0.0042309013 
  422700    18.271721  -0.38673314            0   -0.3388227 0.0025785911 
  422800    18.241326  -0.38656989            0  -0.33873915 0.0030176732 
  422900    18.213207  -0.38653047            0  -0.33877346  0.005263725 
  423000    18.480059  -0.38717791            0  -0.33872119 0.00028674064 
  423100    18.081629  -0.38619429            0  -0.33878229 0.0061465137 
  423200    18.131796  -0.38628003            0  -0.33873649 -0.0028555668 
  423300    18.038662  -0.38625383            0   -0.3389545 -0.0021407534 
  423400    17.865582  -0.38570344            0  -0.33885794  0.012733146 
  423500    18.281994  -0.38683056            0  -0.33889318 0.0015044616 
  423600    18.363817  -0.38692028            0  -0.33876835 0.0031249314 
  423700    18.301936  -0.38664674            0  -0.33865707 0.0089680871 
  423800     18.39048  -0.38688115            0  -0.33865931 -0.0014345721 
  423900    18.285931  -0.38654413            0  -0.33859644 0.0010639447 
  424000    18.397718  -0.38684002            0   -0.3385992 0.0033624463 
  424100    18.091607  -0.38599061            0  -0.33855244  0.011924748 
  424200      18.1998  -0.38629665            0   -0.3385748 0.0016901039 
  424300    18.247854  -0.38646124            0  -0.33861339 -0.0019213172 
  424400    18.250758  -0.38642657            0  -0.33857109 0.0069771756 
  424500    18.546179  -0.38716779            0  -0.33853769  0.003668674 
  424600    18.277665  -0.38655167            0  -0.33862564  0.005936011 
  424700    18.389153  -0.38667677            0  -0.33845841  0.001276905 
  424800     18.48139  -0.38693461            0  -0.33847439 8.9568025e-05 
  424900    18.343483   -0.3865642            0   -0.3384656 0.0047959374 
  425000    18.373851  -0.38672791            0  -0.33854968 0.0014223412 
  425100    18.498776  -0.38697797            0  -0.33847217 0.00010439725 
  425200    18.494584  -0.38706087            0  -0.33856605 0.0046399357 
  425300    18.463339  -0.38690613            0  -0.33849324 0.0053072433 
  425400    18.335552  -0.38656146            0  -0.33848364 0.0060407857 
  425500    18.464435  -0.38687879            0  -0.33846303 0.0031979214 
  425600    18.707865  -0.38733148            0  -0.33827743 0.0023931641 
  425700     18.59709  -0.38688313            0  -0.33811954 0.0074412489 
  425800     18.43944    -0.386513            0  -0.33816278 0.0026711735 
  425900    18.437774  -0.38654791            0  -0.33820206 -0.0015557848 
  426000    18.315067  -0.38621844            0  -0.33819434 0.0056817911 
  426100    18.463772  -0.38671842            0   -0.3383044 0.0034679891 
  426200    18.443334  -0.38662912            0  -0.33826869 0.0035999284 
  426300    18.441664  -0.38679097            0  -0.33843492 0.00071839232 
  426400    18.186125  -0.38596953            0  -0.33828353  0.008676159 
  426500    18.402395  -0.38654912            0  -0.33829604 0.0033319641 
  426600    18.485835  -0.38689641            0  -0.33842454 0.0046329462 
  426700    18.551695  -0.38694711            0  -0.33830255 0.0073849026 
  426800    18.559823  -0.38691906            0  -0.33825318 0.0044312221 
  426900    18.562145  -0.38683184            0  -0.33815988 -0.0018816798 
  427000    18.419894  -0.38640627            0   -0.3381073 0.00035202281 
  427100    18.317718  -0.38622892            0  -0.33819787 0.0035654534 
  427200    18.380209  -0.38620476            0  -0.33800986 0.0047396379 
  427300     18.45421  -0.38657631            0  -0.33818737 0.0041490676 
  427400    18.612187  -0.38716097            0  -0.33835779 0.0028675912 
  427500    18.436629  -0.38670654            0   -0.3383637  0.010884167 
  427600    18.811309  -0.38775658            0  -0.33843129 -0.003044926 
  427700    18.613699  -0.38736556            0  -0.33855842 0.0055583478 
  427800    18.566096  -0.38732018            0  -0.33863786 0.0090394498 
  427900    18.548192  -0.38729376            0  -0.33865839 0.0042156717 
  428000    18.806897  -0.38783071            0  -0.33851698 0.0005234301 
  428100    18.582798  -0.38717485            0  -0.33844874  0.011153955 
  428200    18.672943  -0.38730154            0  -0.33833905 0.0019593006 
  428300    18.422319   -0.3867304            0  -0.33842507 0.0089207279 
  428400     18.49333  -0.38692292            0   -0.3384314 0.0052976892 
  428500    18.334582  -0.38640394            0  -0.33832868 0.0050443071 
  428600    18.320209  -0.38650738            0   -0.3384698 -0.00082591106 
  428700    18.183121  -0.38606012            0    -0.338382 0.0078702858 
  428800    18.448312  -0.38697047            0  -0.33859699 0.0037480569 
  428900    18.463763  -0.38682936            0  -0.33841537 0.0047030494 
  429000    18.486222  -0.38693734            0  -0.33846446 0.0061303185 
  429100    18.473417  -0.38688323            0  -0.33844392 0.0061377832 
  429200    18.626597  -0.38733876            0   -0.3384978 -0.0027918321 
  429300    18.394074  -0.38671931            0  -0.33848805 0.0049187843 
  429400      18.6723  -0.38737889            0  -0.33841809 0.0011130412 
  429500    18.605847  -0.38703718            0  -0.33825062  0.010652451 
  429600    18.814709  -0.38775302            0  -0.33841881 0.0038614473 
  429700    18.498546  -0.38678022            0  -0.33827502 0.0095885136 
  429800     18.51114  -0.38702091            0  -0.33848269 -0.00018078309 
  429900    18.520469  -0.38714871            0  -0.33858602 0.0020012127 
  430000     18.29829  -0.38660311            0    -0.338623  0.011675528 
  430100    18.411181  -0.38681113            0  -0.33853502 1.8458129e-05 
  430200     18.49542  -0.38688741            0   -0.3383904 -0.0021488487 
  430300    18.347766  -0.38644493            0  -0.33833509 0.0074324944 
  430400     18.46942  -0.38674177            0  -0.33831295 0.0036191678 
  430500    18.519073  -0.38679911            0  -0.33824009 0.0033609902 
  430600    18.526785  -0.38684859            0  -0.33826934 0.0050831805 
  430700    18.640549   -0.3870415            0  -0.33816395  0.004478026 
  430800    18.417346  -0.38685727            0  -0.33856498 0.0074168996 
  430900    18.403313  -0.38666269            0   -0.3384072 0.0038989807 
  431000    18.372758  -0.38655142            0  -0.33837605 0.00074742939 
  431100    18.364276  -0.38643956            0  -0.33828643  0.002260249 
  431200    18.412635  -0.38667822            0  -0.33839829 0.0054458952 
  431300    18.527656  -0.38698109            0  -0.33839956 0.0039481611 
  431400    18.537559  -0.38696842            0  -0.33836092 0.0062389282 
  431500     18.66007  -0.38747552            0  -0.33854679 0.0057039681 
  431600    18.577379  -0.38715747            0  -0.33844556   0.00490626 
  431700    18.563114  -0.38712222            0  -0.33844771 -0.0010281936 
  431800    18.324605  -0.38659584            0  -0.33854673 0.0068112453 
  431900    18.646642  -0.38718916            0  -0.33829564 0.0048525339 
  432000    18.635448  -0.38720684            0  -0.33834267 0.0054919526 
  432100    18.453478  -0.38695049            0  -0.33856346  0.006068391 
  432200    18.452474  -0.38685838            0  -0.33847399 0.0039897383 
  432300    18.424904  -0.38673888            0  -0.33842678 -7.0536975e-05 
  432400     18.39868  -0.38669073            0   -0.3384474 0.0012446784 
  432500    18.601651   -0.3870613            0  -0.33828574 0.0042662301 
  432600    18.526572  -0.38719509            0   -0.3386164 0.0081661819 
  432700    18.646272  -0.38732516            0  -0.33843261 0.0019484365 
  432800    18.679559  -0.38754944            0   -0.3385696 0.00065539603 
  432900    18.439462  -0.38708963            0  -0.33873936 0.0089014264 
  433000    18.591551  -0.38745409            0  -0.33870503 0.0044996356 
  433100       18.603  -0.38761717            0  -0.33883808 0.0037743598 
  433200    18.688026  -0.38786835            0  -0.33886632 0.0032519035 
  433300    18.691766  -0.38782201            0  -0.33881016 0.0056037888 
  433400     18.68283  -0.38767154            0  -0.33868313 0.0057902168 
  433500    18.774389  -0.38782798            0  -0.33859949 0.0022490036 
  433600    18.835253  -0.38801399            0  -0.33862591 0.0053647454 
  433700    18.816849  -0.38776038            0  -0.33842055 0.0070050059 
  433800    18.647929  -0.38737797            0  -0.33848107 0.0046053816 
  433900    18.621705  -0.38748353            0  -0.33865539  0.003113584 
  434000    18.866661  -0.38809516            0  -0.33862472  0.004270361 
  434100    18.792556  -0.38814191            0  -0.33886579 0.0065597211 
  434200    18.633309  -0.38763933            0  -0.33878077 0.00062457353 
  434300    18.450975  -0.38711204            0  -0.33873158 -0.0011194615 
  434400    18.307093  -0.38680646            0  -0.33880327 0.0050325642 
  434500    18.410169  -0.38719481            0  -0.33892135 0.0052036784 
  434600    18.478957  -0.38717458            0  -0.33872075 0.0018922465 
  434700    18.285374  -0.38666594            0   -0.3387197 0.0051895076 
  434800    18.336634  -0.38691951            0  -0.33883886 0.0046191704 
  434900    18.609567  -0.38742362            0  -0.33862732 0.0030484925 
  435000    18.620574  -0.38732815            0  -0.33850298 0.0029258914 
  435100    18.590851  -0.38737395            0  -0.33862672 0.0045564618 
  435200    18.841102  -0.38790775            0  -0.33850433 0.0032519604 
  435300     18.58727  -0.38710007            0  -0.33836223 0.0092606061 
  435400    18.544023  -0.38708547            0  -0.33846102 -0.0015286922 
  435500    18.216489  -0.38633622            0  -0.33857061 0.0005806994 
  435600    18.407229  -0.38677773            0  -0.33851197 0.00073856029 
  435700    18.638717  -0.38736011            0  -0.33848737 0.0061521143 
  435800    18.882173  -0.38803882            0  -0.33852771 0.0025250732 
  435900    18.701031  -0.38768837            0  -0.33865224 0.0067230861 
  436000    18.612842  -0.38738124            0  -0.33857634 0.0058196272 
  436100    18.385326  -0.38687485            0  -0.33866653 0.0031976016 
  436200    18.392618   -0.3870148            0  -0.33878736 -0.0032059607 
  436300    18.218328  -0.38658658            0  -0.33881615  0.005533343 
  436400    18.247051  -0.38670078            0  -0.33885503 0.0056485245 
  436500    18.447809  -0.38694374            0  -0.33857158  0.002474815 
  436600    18.480448  -0.38695672            0  -0.33849898 0.0046799387 
  436700    18.658543  -0.38733133            0   -0.3384066 -0.0008450295 
  436800    18.505717   -0.3869692            0  -0.33844519 0.0053045878 
  436900     18.42494  -0.38679232            0  -0.33848012 0.0073010408 
  437000    18.609401  -0.38722929            0  -0.33843341 0.0017689087 
  437100    18.462802  -0.38703257            0  -0.33862109  0.006218149 
  437200    18.628742  -0.38749637            0  -0.33864978 0.0031165098 
  437300    18.438197  -0.38706765            0   -0.3387207 0.0066383612 
  437400    18.356116  -0.38697566            0  -0.33884393  0.005822085 
  437500    18.565909  -0.38744086            0  -0.33875902 0.0018579026 
  437600    18.518634  -0.38732912            0  -0.33877125 0.0046206966 
  437700    18.720826  -0.38780675            0  -0.33871871  0.003933633 
  437800    18.637579  -0.38750992            0  -0.33864016 0.0098389797 
  437900    18.901854  -0.38807831            0  -0.33851559  0.002405087 
  438000    18.687252  -0.38735724            0  -0.33835723 0.0047223904 
  438100    18.788591  -0.38766869            0  -0.33840297 -0.0025690618 
  438200    18.458737  -0.38674889            0  -0.33834808 0.0076190141 
  438300    18.533464  -0.38731384            0  -0.33871708 0.0017726211 
  438400    18.469102  -0.38713576            0  -0.33870777 0.0034393342 
  438500    18.337233  -0.38689186            0  -0.33880964 0.0087582392 
  438600    18.543879  -0.38754128            0  -0.33891721 0.0036770467 
  438700    18.490614  -0.38734661            0  -0.33886221 0.0028278159 
  438800    18.451801   -0.3871447            0  -0.33876207 0.0024449463 
  438900    18.417909   -0.3870891            0  -0.33879534 0.0031306404 
  439000     18.55924  -0.38737643            0  -0.33871208 0.0028492098 
  439100    18.667209  -0.38761095            0   -0.3386635 0.0071000876 
  439200    18.489757  -0.38725903            0  -0.33877688 0.0069975708 
  439300    18.532701  -0.38732337            0  -0.33872861 -0.0021541154 
  439400    18.432919  -0.38714233            0  -0.33880921 -0.00057179641 
  439500    18.483669  -0.38731503            0  -0.33884884 0.0063237913 
  439600    18.712477  -0.38789057            0  -0.33882442 0.0042258569 
  439700    18.612496  -0.38751595            0  -0.33871196 0.0042936331 
  439800    18.670767  -0.38759957            0  -0.33864279 0.00055946258 
  439900    18.640273  -0.38757593            0  -0.33869911 0.0050974126 
  440000     18.64923  -0.38747352            0  -0.33857321 0.0028821477 
  440100    18.558295   -0.3874167            0  -0.33875483 0.0016481585 
  440200    18.462978  -0.38710449            0  -0.33869255 0.0031146958 
  440300    18.351798  -0.38675638            0  -0.33863597 0.0074893882 
  440400    18.463953  -0.38710274            0  -0.33868824 0.0057783151 
  440500    18.584904  -0.38738007            0  -0.33864843 0.00023828697 
  440600    18.404179  -0.38683461            0  -0.33857685 0.0043462794 
  440700    18.360408  -0.38675705            0  -0.33861407 0.0046652558 
  440800    18.650257  -0.38731218            0  -0.33840917 -0.0012627767 
  440900    18.272827  -0.38648465            0  -0.33857131  0.011799518 
  441000    18.505685   -0.3870027            0  -0.33847878 0.00093536748 
  441100    18.391605  -0.38684051            0  -0.33861572 0.0015062772 
  441200    18.207881  -0.38650686            0  -0.33876382 0.0097253569 
  441300    18.460577  -0.38714133            0  -0.33873569 -7.8015966e-05 
  441400    18.249843  -0.38647715            0  -0.33862408 0.0067217412 
  441500    18.278109  -0.38683032            0  -0.33890313 0.0027675818 
  441600    18.255809  -0.38677472            0    -0.338906 0.0011429219 
  441700    18.316886  -0.38690456            0   -0.3388757 -0.00019568108 
  441800    18.200336  -0.38662126            0    -0.338898 0.0034048322 
  441900    18.258905  -0.38677392            0  -0.33889709 0.0043196666 
  442000    18.231818  -0.38661042            0  -0.33880461 0.0069426881 
  442100    18.466701  -0.38706844            0  -0.33864674 0.0012115305 
  442200    18.540762   -0.3870137            0   -0.3383978 0.0035072087 
  442300    18.542633  -0.38704696            0  -0.33842616 0.0053747936 
  442400    18.594807  -0.38720174            0  -0.33844413 0.0016554156 
  442500    18.458042  -0.38704406            0  -0.33864507 0.0070280188 
  442600    18.648208  -0.38753816            0  -0.33864053 0.0067690711 
  442700    18.831702  -0.38808695            0  -0.33870818 -0.00050659178 
  442800    18.416335  -0.38708601            0  -0.33879638  0.010710839 
  442900    18.684021  -0.38777931            0  -0.33878777 0.0020926211 
  443000     18.87311  -0.38818312            0  -0.33869577 0.00046950583 
  443100    18.911109  -0.38836157            0  -0.33877459 0.0040586536 
  443200    18.791127  -0.38793931            0  -0.33866693 0.0044392883 
  443300    18.512753   -0.3872656            0  -0.33872315 0.0078572879 
  443400    18.595277  -0.38758719            0  -0.33882836 0.0023381654 
  443500    18.637919  -0.38762432            0  -0.33875367  0.004374073 
  443600    18.615596  -0.38754115            0  -0.33872903 0.0091670351 
  443700    18.742041  -0.38792207            0   -0.3387784 0.0034366445 
  443800    18.681228  -0.38757669            0  -0.33859248 0.0037993922 
  443900    18.717658  -0.38768087            0  -0.33860114 0.0031119882 
  444000    18.583521  -0.38752264            0  -0.33879462 0.0063037012 
  444100    18.528404  -0.38730999            0   -0.3387265 0.0019455026 
  444200    18.462846  -0.38724525            0  -0.33883366 0.0004645251 
  444300    18.573206  -0.38751843            0  -0.33881746  0.003114358 
  444400    18.489481  -0.38735714            0  -0.33887572 0.0027488006 
  444500    18.523858  -0.38735615            0  -0.33878459 0.0055385529 
  444600    18.623314  -0.38752093            0  -0.33868858 0.0095584298 
  444700    18.809737  -0.38781306            0  -0.33849189 -0.00081333301 
  444800    18.561685  -0.38734104            0  -0.33867028 0.0012637944 
  444900    18.437276  -0.38690987            0  -0.33856533 0.0080885751 
  445000    18.645189  -0.38753413            0  -0.33864442 0.0016970789 
  445100    18.835845  -0.38807216            0  -0.33868252 0.00060779652 
  445200    18.611045   -0.3874538            0  -0.33865362    0.0106649 
  445300    18.641513  -0.38751863            0  -0.33863856 0.0021641351 
  445400    18.444158  -0.38695579            0   -0.3385932 0.0014016273 
  445500    18.487857  -0.38710904            0  -0.33863187  0.007201472 
  445600    18.743262  -0.38777477            0   -0.3386279 0.0054568839 
  445700    18.676172  -0.38742577            0  -0.33845482 0.0053448138 
  445800    18.651983  -0.38755033            0   -0.3386428 0.0086053207 
  445900    18.633836  -0.38735253            0  -0.33849259 0.0069782806 
  446000    18.649457  -0.38743949            0  -0.33853858 -0.0034584653 
  446100     18.35581  -0.38675089            0  -0.33861996 0.0041191445 
  446200    18.446149  -0.38695315            0  -0.33858535 0.0048042736 
  446300     18.39158  -0.38685206            0  -0.33862734 0.0024498815 
  446400    18.500762  -0.38703576            0  -0.33852475 0.00085380671 
  446500    18.666469  -0.38748309            0  -0.33853758 0.0062671478 
  446600    18.701721  -0.38738779            0  -0.33834984 0.0082467769 
  446700    18.559505   -0.3869521            0  -0.33828706 0.0045375207 
  446800    18.429712  -0.38665698            0  -0.33833227 0.00015140192 
  446900    18.443626   -0.3867337            0  -0.33837251 0.0020696937 
  447000    18.452941  -0.38662179            0  -0.33823617 0.0057240922 
  447100    18.531757  -0.38687117            0  -0.33827888 0.00084501567 
  447200    18.417404  -0.38664193            0  -0.33834949 0.0080706239 
  447300     18.44714  -0.38668403            0  -0.33831363 0.0052869601 
  447400    18.396207  -0.38647717            0  -0.33824032 0.0034912335 
  447500    18.573902  -0.38693294            0  -0.33823015 0.0040182311 
  447600    18.448423   -0.3867111            0  -0.33833733   0.01108333 
  447700    18.669095  -0.38732952            0  -0.33837712 -0.0017593356 
  447800    18.591982  -0.38707906            0  -0.33832886 -0.00049501388 
  447900    18.386915  -0.38662724            0  -0.33841475 0.0045485786 
  448000     18.45346  -0.38682918            0   -0.3384422 0.0055606999 
  448100    18.439234  -0.38676774            0  -0.33841806 0.0073805896 
  448200    18.559092  -0.38701827            0  -0.33835431 0.0010352601 
  448300    18.464365  -0.38674706            0  -0.33833149 0.0052520492 
  448400    18.469815  -0.38682778            0  -0.33839792 0.0069169172 
  448500    18.419108  -0.38663924            0  -0.33834234 0.0026803309 
  448600    18.458836  -0.38690729            0  -0.33850622 -0.0016671081 
  448700    18.616001  -0.38714542            0  -0.33833224 0.0014325713 
  448800    18.663776  -0.38738232            0  -0.33844387 0.0037708626 
  448900    18.437126  -0.38671955            0   -0.3383754  0.011100062 
  449000    18.383754   -0.3865238            0  -0.33831959 0.0011991953 
  449100    18.487853  -0.38651137            0  -0.33803421 -0.0046761602 
  449200    18.525824  -0.38671905            0  -0.33814233 0.0066084904 
  449300     18.70118  -0.38709137            0  -0.33805484 0.0081002424 
  449400     18.62165  -0.38706869            0   -0.3382407 0.0034976463 
  449500     18.62745  -0.38715634            0  -0.33831314 0.0016570778 
  449600    18.548556   -0.3870288            0  -0.33839247 0.0019752061 
  449700     18.56979  -0.38707392            0  -0.33838191 0.0016524129 
  449800    18.579865   -0.3869835            0  -0.33826507 0.0057624878 
  449900    18.643514  -0.38722069            0  -0.33833537 0.0037915034 
  450000    18.578126  -0.38699885            0  -0.33828498 0.0059499343 
  450100    18.623161  -0.38711716            0   -0.3382852 0.0087384444 
  450200    18.718951  -0.38747418            0  -0.33839106 0.0044780432 
  450300    18.786918  -0.38777305            0  -0.33851171 -0.0011161065 
  450400    18.384565  -0.38680651            0  -0.33860018  0.011635312 
  450500    18.575694  -0.38744575            0  -0.33873827 0.00085352258 
  450600    18.364097  -0.38682529            0  -0.33867263 0.0035484598 
  450700     18.45068  -0.38703175            0  -0.33865206 0.00094585694 
  450800    18.454226  -0.38695819            0  -0.33856921 -0.0003015742 
  450900    18.501739  -0.38705777            0   -0.3385442 0.0040307761 
  451000    18.801139  -0.38768206            0  -0.33838343 0.0072051106 
  451100    18.670283  -0.38749437            0  -0.33853886 0.0089154451 
  451200    18.737322  -0.38770944            0  -0.33857814 -0.0012314307 
  451300    18.541379  -0.38703338            0  -0.33841587  0.004769522 
  451400    18.677975  -0.38728368            0    -0.338308 0.0015698183 
  451500    18.750393  -0.38745581            0  -0.33829024 -0.0002220758 
  451600    18.430437   -0.3866636            0  -0.33833699  0.008602209 
  451700    18.672976  -0.38716496            0  -0.33820238 0.0033923603 
  451800    18.816866  -0.38754268            0  -0.33820281 0.0046993999 
  451900    18.943605  -0.38795866            0  -0.33828647 0.0012267561 
  452000    18.664691    -0.387123            0  -0.33818215 0.0072357302 
  452100    18.517622  -0.38691562            0   -0.3383604 0.0041516615 
  452200    18.495659  -0.38672912            0  -0.33823149 0.0038114728 
  452300    18.496024  -0.38680006            0  -0.33830147 0.0021601999 
  452400    18.610713  -0.38715691            0   -0.3383576 -0.00046900968 
  452500    18.707855  -0.38733761            0  -0.33828358 0.0037569895 
  452600    18.619482  -0.38723308            0  -0.33841077  0.012236886 
  452700    18.677241  -0.38747034            0  -0.33849659 0.0029775484 
  452800     18.57487  -0.38712412            0  -0.33841879 -0.00082844428 
  452900    18.613386  -0.38724232            0    -0.338436 0.0076683271 
  453000    18.633482  -0.38723181            0  -0.33837279 0.0079427478 
  453100    18.777076  -0.38759265            0  -0.33835711 -0.0048849532 
  453200    18.354001  -0.38646333            0  -0.33833714 0.0088422089 
  453300    18.719806  -0.38710658            0  -0.33802121 0.0026291741 
  453400    18.694364  -0.38703461            0  -0.33801595 0.0017696812 
  453500    18.533103  -0.38681408            0  -0.33821826 0.0068186234 
  453600    18.470004  -0.38669494            0  -0.33826458 0.0037611358 
  453700    18.313561  -0.38630114            0  -0.33828099 0.00030999969 
  453800    18.263992  -0.38635046            0  -0.33846029 0.0030088109 
  453900     18.42192   -0.3868676            0  -0.33856333 0.0056021986 
  454000     18.62809  -0.38727431            0  -0.33842943 0.0051737041 
  454100    18.514554  -0.38683136            0  -0.33828419 0.0073752446 
  454200    18.654082   -0.3872039            0  -0.33829087 -0.0034587711 
  454300    18.572837  -0.38697247            0  -0.33827247  0.002375744 
  454400    18.785799  -0.38732822            0  -0.33806981 0.0036108498 
  454500    18.814585  -0.38750689            0    -0.338173  0.005330967 
  454600     18.60181  -0.38700742            0  -0.33823145 0.0035793344 
  454700    18.536657  -0.38686876            0  -0.33826363 0.0016807655 
  454800    18.633597  -0.38714191            0  -0.33828259 0.0033966292 
  454900    18.690535  -0.38731126            0  -0.33830264 0.0063957333 
  455000      18.7915  -0.38762872            0  -0.33835536 0.0054426162 
  455100     18.70474  -0.38745212            0  -0.33840626 0.0029987927 
  455200    18.642831  -0.38726778            0  -0.33838425 0.0031030735 
  455300    18.607577  -0.38709777            0  -0.33830668  0.004533353 
  455400    18.669657  -0.38732851            0  -0.33837463 0.00055164254 
  455500    18.979532  -0.38796054            0  -0.33819414 -0.00087857806 
  455600    18.991268  -0.38796299            0  -0.33816582 0.0085865309 
  455700    19.137353   -0.3884087            0  -0.33822848 -0.00032725155 
  455800    19.038596  -0.38805705            0  -0.33813578 0.0013971354 
  455900    19.011873  -0.38803087            0  -0.33817967 0.0034735677 
  456000    18.913795  -0.38777224            0  -0.33817821 0.0074820873 
  456100    19.021193   -0.3881693            0  -0.33829366 0.0036749046 
  456200    19.078121  -0.38834739            0  -0.33832248 0.0010910131 
  456300    18.832083  -0.38781291            0  -0.33843314 0.0090313681 
  456400    18.867967   -0.3877665            0  -0.33829264 0.0042113473 
  456500    18.736927  -0.38753012            0  -0.33839986 0.0033289062 
  456600    18.586263  -0.38721279            0  -0.33847759 0.0051145815 
  456700    18.828536  -0.38760421            0  -0.33823375 0.0020616299 
  456800    18.664754  -0.38713395            0  -0.33819294 0.0040167452 
  456900    18.512426  -0.38680175            0  -0.33826015 0.0027835363 
  457000    18.641799   -0.3868398            0  -0.33795897 0.0073742002 
  457100    18.812299  -0.38763157            0  -0.33830368 0.0057529134 
  457200     18.96306  -0.38770079            0  -0.33797759 0.0058003078 
  457300    18.919803  -0.38764816            0  -0.33803838 0.0041687679 
  457400    18.703751  -0.38729818            0  -0.33825491 0.0047329208 
  457500    18.632924  -0.38718141            0  -0.33832386  0.001146524 
  457600    18.641488   -0.3873574            0  -0.33847739 0.0028228523 
  457700    18.721267  -0.38750377            0  -0.33841457 0.0041619716 
  457800    18.555455  -0.38712164            0  -0.33846721 0.0071263783 
  457900     18.84832  -0.38781944            0   -0.3383971 -0.0014597205 
  458000     18.85576  -0.38780668            0  -0.33836483 0.0027988827 
  458100    18.861777  -0.38763192            0  -0.33817429 0.0037582792 
  458200     18.78431  -0.38739736            0  -0.33814286 0.0018625681 
  458300    18.876655  -0.38735799            0  -0.33786134 0.0027465414 
  458400    19.128306  -0.38784692            0  -0.33769042 0.0031916334 
  458500    19.038872  -0.38760638            0  -0.33768439 0.0080284588 
  458600    19.093747  -0.38791412            0  -0.33784824  0.003515569 
  458700    19.078284  -0.38801682            0  -0.33799148 0.0055813476 
  458800    19.260398  -0.38852361            0  -0.33802076 0.00030557705 
  458900    18.989183  -0.38803625            0  -0.33824455 0.0071625409 
  459000    19.032865  -0.38815901            0  -0.33825276 -0.00015201359 
  459100    18.853664  -0.38777511            0  -0.33833875 0.00030064185 
  459200    18.802667   -0.3874674            0  -0.33816476 0.0041884509 
  459300    18.903472   -0.3878218            0  -0.33825484 0.0062001613 
  459400    18.809632   -0.3874036            0   -0.3380827 0.0063615693 
  459500    18.834405   -0.3874949            0  -0.33810904 0.0019583962 
  459600    18.652995  -0.38708266            0  -0.33817247 0.0052924806 
  459700    18.926658  -0.38785976            0    -0.338232 -0.0026359301 
  459800    18.712274  -0.38725315            0  -0.33818753 0.0072941069 
  459900    18.671796  -0.38708273            0  -0.33812325 0.0028493126 
  460000    18.812759  -0.38737803            0  -0.33804893 -0.0019448375 
  460100     18.58435  -0.38670065            0  -0.33797046 0.0095475351 
  460200    18.732454  -0.38710557            0  -0.33798704 0.0015519039 
  460300    18.679463  -0.38684212            0  -0.33786254 0.0027996668 
  460400    18.749248  -0.38731868            0  -0.33815611 0.0030473471 
  460500    18.747149   -0.3871481            0  -0.33799103 0.0037882426 
  460600    18.660568  -0.38706224            0   -0.3381322 0.0034393843 
  460700    18.532684  -0.38687948            0  -0.33828477 0.0028748598 
  460800    18.619115  -0.38704725            0   -0.3382259 0.00067612391 
  460900    18.841695   -0.3876436            0  -0.33823862 0.0038619401 
  461000    18.859941  -0.38768834            0  -0.33823552  0.011522173 
  461100    18.999259  -0.38804421            0  -0.33822609  0.003873368 
  461200    18.920108  -0.38777384            0  -0.33816326 -0.00049325313 
  461300    18.741131  -0.38739817            0  -0.33825688 0.0036921235 
  461400    18.754188  -0.38736111            0  -0.33818559 -5.8968051e-05 
  461500    18.532358  -0.38703418            0  -0.33844032 0.0032033204 
  461600    18.824637  -0.38749122            0  -0.33813098 0.0045692989 
  461700    18.759501  -0.38740268            0  -0.33821323  0.012217913 
  461800    18.792144  -0.38765522            0  -0.33838018 0.0028747149 
  461900    18.574859   -0.3870916            0   -0.3383863 0.0015135203 
  462000    18.681269  -0.38735513            0  -0.33837081 -0.001053207 
  462100    18.550093  -0.38701144            0  -0.33837107 0.0053624882 
  462200    18.741411  -0.38749495            0  -0.33835294  0.006192924 
  462300    18.950251  -0.38796284            0  -0.33827322 0.0013478157 
  462400    18.971356  -0.38790862            0  -0.33816366 0.0040363723 
  462500    19.040952  -0.38816708            0  -0.33823963 0.0083812679 
  462600    19.047916  -0.38813846            0  -0.33819275 0.0065786629 
  462700    19.122214   -0.3883676            0  -0.33822708 -0.0019815142 
  462800    19.125927  -0.38837295            0  -0.33822269 0.0050971379 
  462900    19.157878   -0.3885095            0  -0.33827546 0.0099442232 
  463000    19.056013  -0.38854125            0  -0.33857431 0.0047573337 
  463100    18.823496   -0.3879021            0  -0.33854484 0.0031869076 
  463200    18.677787  -0.38745613            0  -0.33848094 0.0019123411 
  463300    18.806644  -0.38785308            0  -0.33854002 -0.0013812736 
  463400    18.716708  -0.38757624            0    -0.338499  0.008643377 
  463500    18.928241  -0.38823527            0  -0.33860336 0.0038422226 
  463600    19.041293   -0.3883439            0  -0.33841555 0.0029582738 
  463700    18.794866  -0.38756415            0  -0.33828197  0.010845281 
  463800    19.120779  -0.38831061            0  -0.33817385 0.0015944207 
  463900    18.950773  -0.38786282            0  -0.33817184  0.008019525 
  464000     18.99336  -0.38784935            0   -0.3380467 0.0051519321 
  464100     18.91956  -0.38757896            0  -0.33796981 0.0028277446 
  464200    18.770942  -0.38733337            0  -0.33811392 0.0059400461 
  464300    18.777592  -0.38754995            0  -0.33831306 0.0032659585 
  464400    18.817732  -0.38755037            0  -0.33820823 2.1118256e-05 
  464500    18.638228  -0.38728108            0  -0.33840962 0.0056482826 
  464600    18.713289  -0.38749085            0  -0.33842257 0.00098716236 
  464700     18.62157  -0.38744629            0   -0.3386185 0.0035554284 
  464800    18.794975  -0.38772314            0  -0.33844067 0.0018407225 
  464900    18.876269  -0.38793046            0  -0.33843483 0.0012050662 
  465000     18.67347   -0.3873883            0  -0.33842444 0.0070951084 
  465100    18.691618  -0.38742007            0  -0.33840861 0.0051347563 
  465200    18.767775  -0.38764739            0  -0.33843624 0.0028593665 
  465300    18.939884  -0.38804696            0  -0.33838453  0.004294992 
  465400    18.710016  -0.38761481            0  -0.33855511   0.00837921 
  465500    18.722756  -0.38752516            0  -0.33843206 -0.0014750213 
  465600    18.692903  -0.38735375            0  -0.33833893 0.00027889605 
  465700     18.70538  -0.38728402            0  -0.33823648 0.0074354003 
  465800    18.866408  -0.38768061            0  -0.33821084 0.0085697708 
  465900    19.027333  -0.38785473            0  -0.33796299 0.00048157087 
  466000    18.700093  -0.38707966            0  -0.33804599 0.0048123152 
  466100    18.918775  -0.38755623            0  -0.33794914 0.0019067606 
  466200    18.865097  -0.38755408            0  -0.33808774 0.0065930728 
  466300    18.655858  -0.38713782            0  -0.33822013 0.0076223809 
  466400    18.749861  -0.38738031            0  -0.33821613 -0.0034765862 
  466500    18.520585  -0.38692742            0  -0.33836444 0.0045679202 
  466600    18.829062  -0.38771296            0  -0.33834111 0.0016104617 
  466700    18.889823  -0.38783463            0  -0.33830346 0.0047391207 
  466800    18.812734  -0.38770687            0  -0.33837784 0.0045541391 
  466900    18.809072  -0.38767143            0    -0.338352 0.0053848676 
  467000    18.867432  -0.38780712            0  -0.33833466 0.0062984466 
  467100    18.843204  -0.38772672            0  -0.33831779 0.0064476368 
  467200    18.757625  -0.38753256            0  -0.33834803 0.0045269907 
  467300    18.567645  -0.38709926            0  -0.33841288 0.00054614825 
  467400    18.552236  -0.38701689            0  -0.33837091 0.0020414234 
  467500    18.690782  -0.38753907            0  -0.33852981 0.0030300171 
  467600    18.667271   -0.3874639            0  -0.33851628 0.0070271389 
  467700    18.584732  -0.38725558            0  -0.33852439 0.0073254945 
  467800    18.538379  -0.38712558            0  -0.33851593  0.001079832 
  467900    18.408004  -0.38673595            0  -0.33846816 -0.0010556091 
  468000     18.49123  -0.38691337            0  -0.33842735 -0.0013283942 
  468100    18.337809  -0.38640649            0  -0.33832276 0.0090620948 
  468200     18.39904   -0.3866331            0  -0.33838881 0.0042996006 
  468300    18.410928  -0.38648868            0  -0.33821322 0.0018070594 
  468400    18.527391  -0.38673546            0  -0.33815463 0.00093932474 
  468500    18.472057   -0.3866734            0  -0.33823765  0.006137917 
  468600    18.649116  -0.38715312            0  -0.33825311 0.0039159469 
  468700     18.80843  -0.38756226            0  -0.33824452 0.0016932307 
  468800    18.685518  -0.38717509            0  -0.33817963 0.0064613882 
  468900    18.539289  -0.38687419            0  -0.33826215 0.0038087084 
  469000    18.554927  -0.38689394            0   -0.3382409 -0.00059465278 
  469100    18.627907  -0.38698752            0  -0.33814312 0.0025946525 
  469200    18.885677  -0.38766096            0  -0.33814066  0.003240249 
  469300    18.819242  -0.38770735            0  -0.33836125 0.0074140591 
  469400    18.794348  -0.38741905            0  -0.33813822  0.005365077 
  469500    18.684723  -0.38733583            0  -0.33834245 -0.00018746914 
  469600     18.56832  -0.38693592            0  -0.33824777 0.0026706521 
  469700    18.391839  -0.38661619            0  -0.33839079 0.0066774092 
  469800     18.32461  -0.38641708            0  -0.33836796 0.0026918397 
  469900    18.275097  -0.38633605            0  -0.33841676 0.00043310713 
  470000    18.233137  -0.38617616            0  -0.33836689 0.0031890773 
  470100    18.230097  -0.38625481            0  -0.33845351 0.0027539552 
  470200    18.332688  -0.38643206            0  -0.33836175 0.0062067692 
  470300     18.66334  -0.38715318            0  -0.33821587 0.0013104419 
  470400    18.556633  -0.38684202            0  -0.33818451 0.0065579937 
  470500    18.514315  -0.38668426            0  -0.33813771 0.0070183855 
  470600     18.32263  -0.38616441            0  -0.33812048 0.0024600262 
  470700    18.176209  -0.38599706            0  -0.33833706 0.0013921383 
  470800    18.224692  -0.38612767            0  -0.33834055 0.0024233952 
  470900    18.349546  -0.38651807            0  -0.33840356 0.00080974708 
  471000    18.271564  -0.38639287            0  -0.33848285  0.005442472 
  471100    18.365848  -0.38669592            0  -0.33853866 -0.0011399054 
  471200    18.277439   -0.3865219            0  -0.33859647 0.0029179275 
  471300     18.20501  -0.38630941            0   -0.3385739  0.009423278 
  471400    18.491951  -0.38702834            0  -0.33854043 0.0014891469 
  471500    18.518873  -0.38715942            0  -0.33860092 0.0016648257 
  471600    18.206271  -0.38611613            0  -0.33837731  0.012944131 
  471700    18.396461  -0.38646412            0   -0.3382266 -0.0013171483 
  471800    18.312044  -0.38623494            0  -0.33821877 -0.0027685667 
  471900     18.53805  -0.38673482            0  -0.33812604 0.0044551419 
  472000    18.641591  -0.38693189            0  -0.33805161  0.011216416 
  472100    18.650613  -0.38696941            0  -0.33806548 0.0037400878 
  472200    18.479927  -0.38649022            0  -0.33803384 0.0025034137 
  472300    18.651432  -0.38683398            0   -0.3379279 0.0033054421 
  472400    18.709427  -0.38695549            0  -0.33789734 0.0059498325 
  472500    18.441681  -0.38631525            0  -0.33795915  0.004832461 
  472600    18.387933  -0.38630966            0  -0.33809449 -0.0019511454 
  472700     18.43953  -0.38634446            0    -0.337994 0.0019281991 
  472800    18.599384  -0.38686524            0  -0.33809564 0.0060808309 
  472900    18.479661   -0.3864247            0  -0.33796902 0.0075541712 
  473000    18.603344   -0.3868424            0  -0.33806241 -0.0024841141 
  473100    18.427287  -0.38636325            0   -0.3380449  0.004586835 
  473200    18.341458  -0.38627397            0  -0.33818067 0.0093441226 
  473300     18.49233  -0.38662014            0  -0.33813124 0.0029746022 
  473400    18.292223  -0.38608116            0  -0.33811696 0.0064368264 
  473500      18.5901   -0.3867726            0  -0.33802734 -0.0021570443 
  473600    18.499605  -0.38665125            0  -0.33814328 0.0039758574 
  473700    18.427603  -0.38633273            0  -0.33801355 0.0086763308 
  473800    18.681232  -0.38705662            0   -0.3380724 -0.0014369455 
  473900    18.429086  -0.38651442            0  -0.33819135 0.0074281498 
  474000    18.404844   -0.3864733            0   -0.3382138 0.0057774545 
  474100    18.413201  -0.38642541            0  -0.33814399 -8.4979915e-05 
  474200    18.541999  -0.38677924            0   -0.3381601 -0.001562853 
  474300     18.74902  -0.38730635            0  -0.33814438 0.0062516591 
  474400    18.535049  -0.38695718            0  -0.33835626 0.0090610908 
  474500    18.417661   -0.3863975            0  -0.33810439 0.0027787822 
  474600    18.384808  -0.38646812            0  -0.33826115 0.0016743636 
  474700    18.475636  -0.38654096            0  -0.33809583 0.0042948204 
  474800    18.425538  -0.38644872            0  -0.33813496 0.0082543508 
  474900    18.280966  -0.38618747            0  -0.33825278 0.0052890058 
  475000    18.332939  -0.38614017            0  -0.33806921 0.0023328702 
  475100    18.115771  -0.38551988            0  -0.33801835 0.0091225486 
  475200    18.173445  -0.38577667            0  -0.33812392 0.00022468913 
  475300    18.248167  -0.38598152            0  -0.33813284 -0.0029812901 
  475400    18.481147  -0.38661683            0  -0.33815725 0.0040504404 
  475500    18.559044  -0.38684998            0  -0.33818615 0.0099132793 
  475600    18.797969  -0.38737688            0  -0.33808656 -0.00047571912 
  475700    18.577868  -0.38680815            0  -0.33809496 0.0024551776 
  475800    18.466749  -0.38647105            0  -0.33804923 0.0021513197 
  475900    18.271892  -0.38614353            0  -0.33823265 0.0015320287 
  476000    18.439242  -0.38639139            0   -0.3380417 0.0021860151 
  476100    18.286958  -0.38615534            0  -0.33820495 0.0082451492 
  476200    18.326697  -0.38632647            0  -0.33827188 0.00022128358 
  476300    18.187685  -0.38598198            0   -0.3382919   0.00561209 
  476400    18.212804  -0.38601205            0   -0.3382561 0.0092926221 
  476500    18.450735  -0.38659646            0  -0.33821663 0.0023548878 
  476600    18.336273  -0.38627915            0  -0.33819945 0.0045777621 
  476700    18.224086   -0.3861392            0  -0.33835367 0.0029762072 
  476800    18.273246  -0.38619883            0   -0.3382844 -0.0014669248 
  476900    18.106954  -0.38586493            0  -0.33838653 0.0058696896 
  477000    18.195771  -0.38603065            0  -0.33831936 0.0050298956 
  477100    18.251066  -0.38615907            0  -0.33830279 0.0042383285 
  477200    18.299581  -0.38615365            0  -0.33817016 0.0013702445 
  477300     18.13866  -0.38574564            0   -0.3381841 0.0057454679 
  477400    18.308845  -0.38622049            0  -0.33821271 0.0059193921 
  477500    18.266753  -0.38597777            0  -0.33808036 0.0054697339 
  477600    18.155412  -0.38580626            0   -0.3382008 0.00099607193 
  477700    18.069102   -0.3855875            0  -0.33820835 -0.00046120134 
  477800    18.047569  -0.38550706            0  -0.33818437 0.0033297772 
  477900    18.095148  -0.38557992            0  -0.33813248 0.0041548855 
  478000    18.117994  -0.38556722            0  -0.33805987    0.0036001 
  478100    17.963416  -0.38528815            0  -0.33818611 0.0071824133 
  478200    18.036012  -0.38546779            0   -0.3381754 0.0019499562 
  478300    18.083289  -0.38558973            0  -0.33817338 0.0039620743 
  478400    18.261202   -0.3860975            0  -0.33821464 0.0041527346 
  478500    18.103565  -0.38577808            0  -0.33830856  0.010732726 
  478600    18.312929  -0.38637543            0  -0.33835694 0.00062325523 
  478700    18.435181  -0.38643186            0  -0.33809281 -0.00060524747 
  478800    18.099696  -0.38547704            0  -0.33801766  0.010559477 
  478900    18.214094  -0.38564492            0  -0.33788559 0.0027973918 
  479000    18.290192  -0.38589618            0  -0.33793731 0.0020386992 
  479100     18.19039  -0.38569712            0  -0.33799994  0.008478353 
  479200    18.369337  -0.38614909            0  -0.33798269 0.0036550796 
  479300     18.24716  -0.38594818            0  -0.33810215 0.0048276774 
  479400     18.37484  -0.38623167            0  -0.33805084 0.0017643298 
  479500    18.315731   -0.3861863            0  -0.33816046 0.0040576515 
  479600    18.129642  -0.38569144            0  -0.33815354 0.0021500149 
  479700    18.270297  -0.38602528            0  -0.33811857 -0.00027147671 
  479800    18.194128  -0.38578154            0  -0.33807456 0.0080413105 
  479900    18.362215  -0.38606406            0  -0.33791633 0.00014093843 
  480000    18.382664  -0.38612726            0  -0.33792592 0.0014473052 
  480100    18.396411  -0.38600901            0  -0.33777162 0.0078719575 
  480200    18.582909  -0.38643398            0  -0.33770757 0.0042856502 
  480300    18.536502  -0.38642168            0  -0.33781695 0.0053619783 
  480400    18.577453  -0.38669131            0  -0.33797921 0.0043848326 
  480500    18.448088   -0.3863196            0  -0.33794671  0.010789303 
  480600     18.40697  -0.38625898            0   -0.3379939 0.0041236063 
  480700    18.405304    -0.386253            0  -0.33799229 0.0011662243 
  480800    18.488577  -0.38643653            0  -0.33795747 0.0043585019 
  480900    18.341823  -0.38614882            0  -0.33805456  0.011112075 
  481000    18.288398  -0.38593764            0  -0.33798347 0.0030547391 
  481100    18.082963  -0.38545875            0  -0.33804326 -0.0012894865 
  481200    17.996949  -0.38545807            0  -0.33826811 0.0021302867 
  481300    18.147265  -0.38571104            0  -0.33812693 0.0062809799 
  481400    18.222107  -0.38593468            0  -0.33815434 0.0049033544 
  481500    18.341847  -0.38607275            0  -0.33797843 0.0020307607 
  481600    18.124027  -0.38549472            0  -0.33797155 0.0062589784 
  481700    18.210979  -0.38577748            0  -0.33802631 -0.0041919631 
  481800     18.07715  -0.38547456            0   -0.3380743 0.0013242487 
  481900    18.153865  -0.38568192            0  -0.33808051 0.0038288733 
  482000    18.152642  -0.38568681            0  -0.33808861 0.0044595831 
  482100      18.2366  -0.38589094            0  -0.33807259 0.0026027301 
  482200     18.24227  -0.38582946            0  -0.33799624 0.0078754939 
  482300    18.477631  -0.38661974            0  -0.33816938 0.0020559856 
  482400    18.647656   -0.3869102            0  -0.33801401 0.0031546778 
  482500    18.844536  -0.38726706            0  -0.33785464 0.0053397847 
  482600     18.65383  -0.38681205            0  -0.33789968 0.0070713884 
  482700    18.512986  -0.38650142            0  -0.33795836 0.0014936981 
  482800    18.580621   -0.3867433            0  -0.33802289 0.0027344066 
  482900    18.797476  -0.38725227            0  -0.33796324 0.0050441845 
  483000    18.542158  -0.38675239            0  -0.33813284 0.0066836474 
  483100    18.697211  -0.38714775            0  -0.33812163 -0.0025628567 
  483200    18.459193  -0.38658925            0  -0.33818724 0.0075138049 
  483300    18.555031  -0.38690768            0  -0.33825437 0.0040036839 
  483400      18.4934  -0.38668903            0  -0.33819732  0.005737934 
  483500    18.792781  -0.38733325            0  -0.33805654 -0.001276465 
  483600    18.663433  -0.38702518            0  -0.33808763 0.0053768388 
  483700     18.66203  -0.38695837            0   -0.3380245 0.0049661834 
  483800    18.653251  -0.38695183            0  -0.33804098 0.0068235939 
  483900    18.643337  -0.38705576            0   -0.3381709 0.0035390446 
  484000    18.646508   -0.3870613            0  -0.33816813 -0.0015417943 
  484100    18.521205  -0.38678936            0  -0.33822475 0.0044906332 
  484200    18.575457  -0.38691566            0  -0.33820879 0.0084703739 
  484300     18.72324  -0.38720278            0  -0.33810841 0.0058302513 
  484400    18.799701  -0.38724397            0  -0.33794911 0.0017738547 
  484500    18.498034  -0.38647461            0  -0.33797075 0.0066507414 
  484600    18.490378  -0.38636536            0  -0.33788157 0.0048244875 
  484700    18.464078  -0.38629657            0  -0.33788175  0.005806802 
  484800    18.646776  -0.38680968            0  -0.33791581 0.0031862747 
  484900    18.613724  -0.38663303            0  -0.33782582 0.0055997541 
  485000    18.614068  -0.38677698            0  -0.33796887 0.0033256597 
  485100    18.493116  -0.38665348            0  -0.33816252  0.003776751 
  485200    18.407191  -0.38638683            0  -0.33812117 0.0035642911 
  485300    18.379496  -0.38638313            0   -0.3381901 0.0017228594 
  485400    18.163627  -0.38600193            0  -0.33837492 0.0017401627 
  485500     18.13557  -0.38586293            0  -0.33830949 0.0033501434 
  485600    18.263827  -0.38623748            0  -0.33834774 0.0053191386 
  485700    18.563379  -0.38697642            0  -0.33830122 0.0040864281 
  485800    18.540966  -0.38691462            0  -0.33829819 0.0067477412 
  485900    18.680345  -0.38721849            0   -0.3382366 -0.0015170224 
  486000    18.394388  -0.38640849            0   -0.3381764  0.001270082 
  486100    18.417939  -0.38646047            0  -0.33816663 0.0042593625 
  486200    18.627167  -0.38696566            0   -0.3381232 -8.2726347e-05 
  486300     18.60068  -0.38685645            0  -0.33808345 0.0043611772 
  486400     18.70759   -0.3870655            0  -0.33801216 0.0064458374 
  486500    18.577667  -0.38670513            0  -0.33799246 0.0049457892 
  486600     18.48396  -0.38646412            0  -0.33799717 0.0014863516 
  486700    18.647842  -0.38679603            0  -0.33789936 0.0021522762 
  486800    18.518995  -0.38654377            0  -0.33798495  0.009985111 
  486900    18.519229  -0.38656607            0  -0.33800664 0.0021143876 
  487000    18.488755  -0.38669331            0  -0.33821378 0.0032175033 
  487100    18.504719  -0.38668144            0  -0.33816005  0.004257235 
  487200    18.420189  -0.38647275            0  -0.33817301 0.00093611154 
  487300    18.497077  -0.38667324            0  -0.33817189 0.0019745018 
  487400    18.399562  -0.38660305            0   -0.3383574 0.0074704117 
  487500    18.562978   -0.3868507            0  -0.33817656 -0.0031463944 
  487600      18.4039  -0.38634772            0   -0.3380907 0.0052649322 
  487700    18.604671  -0.38707608            0  -0.33829261 0.0073396617 
  487800    19.027192  -0.38807286            0   -0.3381815 4.7359418e-05 
  487900    18.808881  -0.38747116            0  -0.33815223 0.0090452018 
  488000     18.84411  -0.38762234            0  -0.33821104 0.0011502359 
  488100    18.573931  -0.38681672            0  -0.33811385 0.0064174747 
  488200    18.585365  -0.38685528            0  -0.33812243 0.0039612569 
  488300    18.422699  -0.38653598            0  -0.33822966 0.0036172987 
  488400    18.360393  -0.38651788            0  -0.33837493 0.0021274613 
  488500    18.445737  -0.38663333            0   -0.3382666  0.004113443 
  488600    18.589417  -0.38694371            0  -0.33820023 0.0037438103 
  488700    18.477593  -0.38674764            0  -0.33829739 0.0059658739 
  488800    18.551439  -0.38700614            0  -0.33836225 -0.00093436751 
  488900    18.480508  -0.38677506            0  -0.33831716 0.0024273437 
  489000    18.436899   -0.3866673            0  -0.33832375 0.0054645048 
  489100    18.366576  -0.38665444            0  -0.33849528 0.0038370616 
  489200    18.534461  -0.38690887            0   -0.3383095  0.003193402 
  489300    18.602794  -0.38700295            0   -0.3382244 0.0017177331 
  489400     18.44911  -0.38659438            0   -0.3382188 0.0040049854 
  489500    18.433785  -0.38653664            0  -0.33820125 0.0041270332 
  489600    18.632379  -0.38693068            0  -0.33807456 0.0023233182 
  489700    18.826551  -0.38758411            0  -0.33821885 -0.0019261645 
  489800    18.716691  -0.38730761            0  -0.33823041 0.0071021018 
  489900    18.798105   -0.3874699            0  -0.33817922 0.0059432355 
  490000    18.707875   -0.3872435            0  -0.33818941 0.0020395958 
  490100    18.541701  -0.38676473            0  -0.33814638 0.00088740471 
  490200    18.560936  -0.38667819            0  -0.33800939  0.001537319 
  490300    18.376767  -0.38629862            0  -0.33811274 0.0074574428 
  490400    18.473895  -0.38648054            0  -0.33803997 0.0024339568 
  490500    18.529467    -0.386612            0  -0.33802572 0.0008076759 
  490600    18.372091  -0.38630539            0  -0.33813177 0.0081511846 
  490700    18.569608  -0.38679831            0  -0.33810678 0.0017603257 
  490800    18.498412  -0.38674758            0  -0.33824274 0.0034799617 
  490900    18.709118  -0.38708164            0  -0.33802429 0.0062349436 
  491000    18.668087   -0.3869892            0  -0.33803945 0.0071102216 
  491100    18.498193  -0.38666608            0  -0.33816181 0.0063449033 
  491200    18.553264  -0.38672907            0   -0.3380804 -0.0011656458 
  491300     18.43609  -0.38638113            0   -0.3380397  0.005061187 
  491400    18.491964  -0.38657328            0  -0.33808534 0.0045610642 
  491500    18.499572  -0.38661916            0  -0.33811127 0.0028785388 
  491600    18.597037  -0.38706903            0  -0.33830558 0.0028267695 
  491700      18.7814  -0.38744245            0  -0.33819558 0.0048170734 
  491800    18.813635   -0.3874728            0   -0.3381414 0.0045582308 
  491900    18.716905   -0.3871033            0  -0.33802554 0.0021041712 
  492000    18.594099  -0.38667806            0  -0.33792231 0.0034916773 
  492100    18.549249   -0.3866176            0  -0.33797945 0.0049348243 
  492200    18.704474  -0.38677491            0  -0.33772974 0.0049548767 
  492300    18.466091  -0.38627678            0  -0.33785667 0.0089004376 
  492400    18.612979  -0.38669404            0  -0.33788878 0.0030892946 
  492500    18.515062  -0.38650242            0  -0.33795392 0.0056563775 
  492600    18.428668  -0.38634874            0  -0.33802676 0.0029513107 
  492700    18.421156   -0.3864148            0  -0.33811253 -0.0013491312 
  492800    18.294067  -0.38602928            0  -0.33806025 0.0028137643 
  492900    18.538991   -0.3865871            0  -0.33797585 0.0025040382 
  493000    18.609579  -0.38666489            0  -0.33786855 0.0086450729 
  493100    18.712798  -0.38693378            0  -0.33786679 0.0023039589 
  493200     18.46348  -0.38609689            0  -0.33768364 0.0032486994 
  493300    18.430365  -0.38595263            0   -0.3376262 -3.7219507e-06 
  493400    18.331486  -0.38571407            0  -0.33764692 0.0014313104 
  493500    18.404397  -0.38610333            0    -0.337845 0.0057259953 
  493600    18.582019  -0.38646313            0  -0.33773906 0.0029534974 
  493700    18.385595  -0.38596193            0   -0.3377529 0.0061445131 
  493800    18.222125  -0.38563872            0  -0.33785833 0.0038502373 
  493900     18.29348  -0.38579719            0  -0.33782969 -0.0016723278 
  494000    18.308577  -0.38590312            0  -0.33789604 0.0029906511 
  494100    18.237035   -0.3858038            0  -0.33798431 0.0085568089 
  494200    18.321781  -0.38593138            0  -0.33788968 0.0033612358 
  494300    18.260414  -0.38592725            0  -0.33804646 -0.00020575447 
  494400    18.105678   -0.3853856            0  -0.33791054 0.0063427638 
  494500    18.396374  -0.38616792            0  -0.33793062 -0.00046569747 
  494600    18.217385  -0.38570123            0  -0.33793326 0.0051691579 
  494700    18.382598  -0.38609016            0  -0.33788899 0.0018824369 
  494800    18.397592  -0.38612305            0  -0.33788256 0.0049443251 
  494900    18.542748  -0.38638103            0  -0.33775993 0.0072219567 
  495000    18.530718  -0.38646784            0  -0.33787828 0.0039582737 
  495100    18.444672  -0.38631924            0   -0.3379553  0.000426085 
  495200    18.286477  -0.38592388            0  -0.33797475   0.00876852 
  495300    18.392058  -0.38621734            0  -0.33799136 0.0020094203 
  495400    18.223823  -0.38583226            0  -0.33804741 0.0027111262 
  495500    18.326362  -0.38602147            0  -0.33796775 0.0014929304 
  495600    18.449371  -0.38623079            0  -0.33785453 0.0039844063 
  495700    18.432298  -0.38622745            0  -0.33789596 0.0032772963 
  495800    18.459633   -0.3862021            0  -0.33779894 0.0013211729 
  495900    18.523412  -0.38640444            0  -0.33783404 0.0053903526 
  496000    18.443732  -0.38621127            0   -0.3378498 0.0069497581 
  496100    18.440809  -0.38622379            0  -0.33786999 0.00036836694 
  496200    18.379777   -0.3859708            0  -0.33777703 0.00087256731 
  496300     18.31533  -0.38573157            0  -0.33770679 0.0037337601 
  496400     18.32401  -0.38593283            0  -0.33788528 0.0041615422 
  496500    18.311908  -0.38589802            0   -0.3378822  0.003726898 
  496600     18.30972   -0.3859166            0  -0.33790652  0.003070911 
  496700    18.331923  -0.38598232            0  -0.33791403 0.0011849569 
  496800    18.296168  -0.38582578            0  -0.33785124 0.0053861165 
  496900    18.368632  -0.38588071            0  -0.33771616 0.0071456083 
  497000    18.321971   -0.3858647            0   -0.3378225 0.0046451757 
  497100    18.232701  -0.38560505            0  -0.33779692 0.0022938088 
  497200    18.066001  -0.38528995            0  -0.33791893 0.0059878564 
  497300    18.153099  -0.38559839            0  -0.33799899 0.00010336056 
  497400     18.04297  -0.38527909            0  -0.33796847 0.0028171767 
  497500    18.435066  -0.38630031            0  -0.33796156 -0.0027531823 
  497600    18.284387  -0.38599488            0  -0.33805123  0.014223484 
  497700    18.389438  -0.38640986            0  -0.33819076 0.0046065831 
  497800    18.211245  -0.38581975            0  -0.33806788 0.0014178142 
  497900    18.266572  -0.38589062            0  -0.33799368 0.00052213375 
  498000    17.926465  -0.38507317            0  -0.33806803 0.0058948391 
  498100    17.968024  -0.38504155            0  -0.33792744 0.00062029413 
  498200    18.280982  -0.38576726            0  -0.33783254 -0.0010767658 
  498300    18.219916  -0.38577122            0  -0.33799662 0.0074249232 
  498400     18.21926   -0.3857517            0  -0.33797882  0.003461637 
  498500    18.228142  -0.38587193            0  -0.33807576 0.0001263616 
  498600    18.094571  -0.38569837            0  -0.33825244 0.0070352515 
  498700    18.140834  -0.38592922            0  -0.33836198 0.0062659806 
  498800    18.289079  -0.38622386            0  -0.33826791 -0.00020588271 
  498900    18.175137  -0.38566496            0  -0.33800777 0.0055657475 
  499000    18.416395  -0.38609797            0  -0.33780818 0.0063785844 
  499100    18.420087  -0.38625325            0  -0.33795378  0.008159834 
  499200     18.38128  -0.38594801            0   -0.3377503 0.0025326363 
  499300    18.296652  -0.38581898            0  -0.33784317 -6.6921869e-05 
  499400    18.337703  -0.38573258            0  -0.33764912 0.00067089842 
  499500    18.326872  -0.38589588            0  -0.33784083 0.0054098126 
  499600    18.439062    -0.386283            0  -0.33793377  0.006003003 
  499700    18.293099  -0.38601708            0  -0.33805058 0.0052321098 
  499800    18.230292  -0.38582624            0  -0.33802443 0.0029146465 
  499900    18.035544  -0.38535302            0  -0.33806186  0.005131086 
  500000    18.067859  -0.38541128            0  -0.33803539 0.0016025011 
Loop time of 6908.53 on 64 procs for 500000 steps with 585216 atoms

Performance: 31265.699 tau/day, 72.374 timesteps/s
99.1% CPU use with 64 MPI tasks x 1 OpenMP threads

MPI task timing breakdown:
Section |  min time  |  avg time  |  max time  |%varavg| %total
---------------------------------------------------------------
Pair    | 1155.5     | 1912.2     | 4177.5     |1439.0 | 27.68
Bond    | 0.075148   | 0.11627    | 0.23586    |  11.4 |  0.00
Neigh   | 174.93     | 276.61     | 547.58     | 452.4 |  4.00
Comm    | 1283.1     | 3744.7     | 4599.9     |1133.9 | 54.20
Output  | 303.96     | 305.05     | 305.49     |   1.8 |  4.42
Modify  | 393.81     | 487.97     | 617.94     | 282.0 |  7.06
Other   |            | 181.9      |            |       |  2.63

Nlocal:        9144.00 ave       15013 max        4948 min
Histogram: 7 7 5 7 17 7 8 2 3 1
Nghost:        11911.2 ave       16919 max        7578 min
Histogram: 5 8 4 12 7 10 4 8 2 4
Neighs:       282600.0 ave      478589 max      152971 min
Histogram: 7 7 6 12 12 7 8 2 2 1

Total # of neighbors = 18086370
Ave neighs/atom = 30.905461
Ave special neighs/atom = 0.0000000
Neighbor list builds = 16455
Dangerous builds = 0

write_data      data.cubes
System init for write_data ...
WARNING: Not all mixed pair coeffs generated from mixing. Use write_data with 'pair ij' option to store all pair coeffs. (src/write_data.cpp:312)
Total wall time: 1:55:28
