LAMMPS (24 Dec 2020)
OMP_NUM_THREADS environment is not set. Defaulting to 1 thread. (src/comm.cpp:94)
  using 1 OpenMP thread(s) per MPI task
# Simple rigid body system
# needed variables:

#variable	startTemp equal 0.5
#variable 	temp 	  equal 0.8

units		lj
atom_style	full
dimension 	3
boundary	p p f
pair_style	lj/smooth ${cutin} ${cutout}
pair_style	lj/smooth 2.25 ${cutout}
pair_style	lj/smooth 2.25 3.25


variable 	sigma		equal 1.0
variable 	epsilon 	equal 1.0

region		box block 0 80 0 80 0 160
create_box 	3 box
Created orthogonal box = (0.0000000 0.0000000 0.0000000) to (80.000000 80.000000 160.00000)
  3 by 4 by 8 MPI processor grid



lattice 	sc 0.66
Lattice spacing in x,y,z = 1.1485556 1.1485556 1.1485556
region		fluid block EDGE EDGE EDGE EDGE 2 100 units box
create_atoms 	1 region fluid
Created 421400 atoms
  create_atoms CPU = 0.101 seconds

lattice 	sc 0.045
Lattice spacing in x,y,z = 2.8114422 2.8114422 2.8114422
region		gas block EDGE EDGE EDGE EDGE 101 158 units box
create_atoms    1 region gas
Created 17661 atoms
  create_atoms CPU = 0.004 seconds

group		solvent type 1
439061 atoms in group solvent

mass		1 1.0
mass		2 1.0
mass		3 1.0



neighbor 	0.4 bin

pair_coeff	1 1 1.0 1.0
pair_coeff	2 2 0.0 0.0
pair_coeff	3 3 0.0 0.0
pair_coeff	2 3 0.0 0.0
pair_coeff	1 2*3 0.0 0.0

pair_modify 	shift yes

delete_atoms	overlap 0.5 solvent solvent
System init for delete_atoms ...
Neighbor list info ...
  update every 1 steps, delay 10 steps, check yes
  max neighbors/atom: 2000, page size: 100000
  master list distance cutoff = 3.65
  ghost atom cutoff = 3.65
  binsize = 1.825, bins = 44 44 88
  2 neighbor lists, perpetual/occasional/extra = 1 1 0
  (1) command delete_atoms, occasional
      attributes: full, newton on
      pair build: full/bin
      stencil: full/bin/3d
      bin: standard
  (2) pair lj/smooth, perpetual
      attributes: half, newton on
      pair build: half/bin/newton
      stencil: half/bin/3d/newton
      bin: standard
WARNING: Ignoring 'compress yes' for molecular system (src/delete_atoms.cpp:125)
Deleted 0 atoms, new total = 439061

velocity 	solvent create ${startTemp} 563435 loop geom
velocity 	solvent create 1.0 563435 loop geom

balance 	1.05 shift z 10 1.05
Balancing ...
Neighbor list info ...
  update every 1 steps, delay 10 steps, check yes
  max neighbors/atom: 2000, page size: 100000
  master list distance cutoff = 3.65
  ghost atom cutoff = 3.65
  binsize = 1.825, bins = 44 44 88
  1 neighbor lists, perpetual/occasional/extra = 1 0 0
  (1) pair lj/smooth, perpetual
      attributes: half, newton on
      pair build: half/bin/newton
      stencil: half/bin/3d/newton
      bin: standard
 rebalancing time: 0.010 seconds
  iteration count = 5
  initial/final maximal load/proc = 7776.0000 5616.0000
  initial/final imbalance factor  = 1.7002102 1.2279296
  x cuts: 0.0000000 0.33333333 0.66666667 1.0000000
  y cuts: 0.0000000 0.25000000 0.50000000 0.75000000 1.0000000
  z cuts: 0.0000000 0.089843750 0.17578125 0.25390625 0.33593750 0.41406250 0.50390625 0.58203125 1.0000000


####################### WALLS ###########################


variable       epsilonWall equal 2*${epsilon}
variable       epsilonWall equal 2*1

variable       cutoffTop   equal   0.7147*${sigma}
variable       cutoffTop   equal   0.7147*1

variable       cutoffLow   equal   3*${sigma}
variable       cutoffLow   equal   3*1


fix            topWall all wall/lj93 zhi EDGE                ${epsilonWall} ${sigma} ${cutoffTop} units box
fix            topWall all wall/lj93 zhi EDGE                2 ${sigma} ${cutoffTop} units box
fix            topWall all wall/lj93 zhi EDGE                2 1 ${cutoffTop} units box
fix            topWall all wall/lj93 zhi EDGE                2 1 0.7147 units box

fix            lowWall all wall/lj93 zlo EDGE                ${epsilonWall} ${sigma} ${cutoffLow} units box
fix            lowWall all wall/lj93 zlo EDGE                2 ${sigma} ${cutoffLow} units box
fix            lowWall all wall/lj93 zlo EDGE                2 1 ${cutoffLow} units box
fix            lowWall all wall/lj93 zlo EDGE                2 1 3 units box


###################### COMPUTES ##########################

compute        bin1 solvent chunk/atom bin/1d z upper 1.0


######################	FIXES ############################


fix 		peclet solvent ave/chunk 1000 1 1000 bin1 density/number norm 		 none ave one file density.profile

fix 		 temp solvent ave/chunk 1000 1 1000 bin1 temp norm 		 none ave one file temp.profile

fix 		2 solvent nve


## Thermostat


region		regthermo block EDGE EDGE EDGE EDGE 0 20 units box

group 		thermo dynamic solvent region regthermo every 1000
dynamic group thermo defined

fix 		3 thermo langevin ${startTemp} ${temp} 10 156453
fix 		3 thermo langevin 1.0 ${temp} 10 156453
fix 		3 thermo langevin 1.0 1.0 10 156453



#### Load balancing


fix 		bal all balance 1000 1.05 shift z 10 1.05


############### Diagnostics and computes ###################
#compute 	com cube	  rigid/local	1 mol x y z
#compute 	quat cube	  rigid/local	1 mol quatw quati quatj quatk

thermo 		1000
thermo_style 	custom step temp epair evdwl etotal press pe ke atoms

dump		1 all custom 100000 dump.lammpstrj id mol type x y z
dump 		2 all image 10000 image.*.png type type
dump 		3 all movie 1000 movie.avi type type

#dump 		com cube local 1000 dump.*.xyz c_com[*]
#dump		quat cube      local 1000 dump.*.quat c_quat[*]


restart 	1000000 restart.dat
timestep 	0.005
timer 		full
New timer settings: style=full  mode=nosync  timeout=off

run		3000000
Per MPI rank memory allocation (min/avg/max) = 11.21 | 13.74 | 18.19 Mbytes
Step Temp E_pair E_vdwl TotEng Press PotEng KinEng Atoms 
       0            1    -1.366934    -1.366934    0.1330626    3.9321077    -1.366934    1.4999966   439061 
    1000    2.0133054   -3.3636486   -3.3636486  -0.34369727    2.0133364   -3.3636486    3.0199513   439061 
    2000    1.8730966   -3.3376084   -3.3376084  -0.52796991    1.1644102   -3.3376084    2.8096385   439061 
    3000    1.6906727   -3.2193204   -3.2193204  -0.68331718    0.8258229   -3.2193204    2.5360033   439061 
    4000     1.597253   -3.1840935   -3.1840935  -0.78821939   0.64387878   -3.1840935    2.3958741   439061 
    5000    1.5451117   -3.1462859   -3.1462859  -0.82862361   0.50494133   -3.1462859    2.3176622   439061 
    6000    1.5041328   -3.0882356   -3.0882356  -0.83204152   0.39746472   -3.0882356    2.2561941   439061 
    7000    1.4754985   -3.0346666   -3.0346666  -0.82142383   0.36522061   -3.0346666    2.2132427   439061 
    8000    1.4625707   -2.9985534   -2.9985534   -0.8047023   0.38161144   -2.9985534    2.1938511   439061 
    9000    1.4686065   -2.9922371   -2.9922371  -0.78933241   0.42961221   -2.9922371    2.2029047   439061 
   10000    1.4864159   -3.0055491   -3.0055491  -0.77593031   0.48123223   -3.0055491    2.2296188   439061 
   11000    1.5005531   -3.0178071   -3.0178071   -0.7669825   0.51439539   -3.0178071    2.2508246   439061 
   12000    1.5062465    -3.020053    -3.020053  -0.76068837   0.54008776    -3.020053    2.2593646   439061 
   13000    1.5007684   -3.0065026   -3.0065026  -0.75535515   0.53217446   -3.0065026    2.2511475   439061 
   14000    1.4840783   -2.9786119   -2.9786119  -0.75249952   0.48357888   -2.9786119    2.2261124   439061 
   15000    1.4602933   -2.9427186   -2.9427186  -0.75228366   0.43456842   -2.9427186     2.190435   439061 
   16000     1.436448   -2.9049973   -2.9049973  -0.75033011   0.40070108   -2.9049973    2.1546671   439061 
   17000    1.4200327   -2.8795516   -2.8795516  -0.74950729   0.37666038   -2.8795516    2.1300443   439061 
   18000    1.4101172   -2.8674579   -2.8674579  -0.75228687   0.38136621   -2.8674579     2.115171   439061 
   19000    1.4031355   -2.8766587   -2.8766587  -0.77196029   0.39091796   -2.8766587    2.1046984   439061 
   20000    1.3889353   -2.8920505   -2.8920505  -0.80865233   0.42288615   -2.8920505    2.0833982   439061 
   21000    1.3725501   -2.9116845   -2.9116845  -0.85286398   0.42581122   -2.9116845    2.0588205   439061 
   22000    1.3566667   -2.9247135   -2.9247135  -0.88971798    0.4210655   -2.9247135    2.0349955   439061 
   23000    1.3471666    -2.941429    -2.941429  -0.92068372   0.41414478    -2.941429    2.0207453   439061 
   24000    1.3416559   -2.9560816   -2.9560816  -0.94360228   0.42220387   -2.9560816    2.0124793   439061 
   25000    1.3393787   -2.9741355   -2.9741355  -0.96507199   0.43189226   -2.9741355    2.0090635   439061 
   26000    1.3333521   -2.9854346   -2.9854346  -0.98541096   0.42651023   -2.9854346    2.0000236   439061 
   27000    1.3269468   -2.9921641   -2.9921641   -1.0017485   0.41449236   -2.9921641    1.9904156   439061 
   28000    1.3144294   -2.9885728   -2.9885728   -1.0169332   0.39625328   -2.9885728    1.9716397   439061 
   29000    1.3034429   -2.9825844   -2.9825844   -1.0274245   0.37591568   -2.9825844    1.9551599   439061 
   30000    1.2917774   -2.9752525   -2.9752525   -1.0375907   0.35302403   -2.9752525    1.9376617   439061 
   31000    1.2803675   -2.9622867   -2.9622867   -1.0417398   0.33184402   -2.9622867    1.9205469   439061 
   32000    1.2662246   -2.9451315   -2.9451315   -1.0457989   0.31016228   -2.9451315    1.8993326   439061 
   33000    1.2542716    -2.929992    -2.929992   -1.0485888   0.28263423    -2.929992    1.8814032   439061 
   34000    1.2417382   -2.9124245   -2.9124245   -1.0498214   0.26113165   -2.9124245    1.8626031   439061 
   35000    1.2327183   -2.8979148   -2.8979148   -1.0488416   0.24734901   -2.8979148    1.8490732   439061 
   36000    1.2272767   -2.8879231   -2.8879231   -1.0470122   0.22982084   -2.8879231    1.8409109   439061 
   37000    1.2229749   -2.8791587   -2.8791587   -1.0447005   0.23786636   -2.8791587    1.8344582   439061 
   38000    1.2210516   -2.8761998   -2.8761998   -1.0446265   0.22699175   -2.8761998    1.8315732   439061 
   39000    1.2187709   -2.8704018   -2.8704018   -1.0422497   0.21842314   -2.8704018    1.8281521   439061 
   40000    1.2176762   -2.8676904   -2.8676904   -1.0411802   0.22205982   -2.8676904    1.8265102   439061 
   41000    1.2171388   -2.8647599   -2.8647599   -1.0390559   0.22604605   -2.8647599     1.825704   439061 
   42000    1.2214799     -2.87043     -2.87043   -1.0382143   0.21940651     -2.87043    1.8322157   439061 
   43000    1.2196612   -2.8645455   -2.8645455   -1.0350578   0.22843026   -2.8645455    1.8294877   439061 
   44000    1.2214153   -2.8646779   -2.8646779   -1.0325591   0.22737953   -2.8646779    1.8321188   439061 
   45000    1.2206112   -2.8611862   -2.8611862   -1.0302736   0.22615592   -2.8611862    1.8309126   439061 
   46000    1.2191138   -2.8581682   -2.8581682   -1.0295016   0.21654833   -2.8581682    1.8286665   439061 
   47000    1.2146383   -2.8488082   -2.8488082   -1.0268549   0.21923803   -2.8488082    1.8219533   439061 
   48000    1.2135789   -2.8459027   -2.8459027   -1.0255385   0.20709224   -2.8459027    1.8203641   439061 
   49000    1.2127056   -2.8434131   -2.8434131   -1.0243589    0.2088681   -2.8434131    1.8190542   439061 
   50000     1.211238   -2.8404782   -2.8404782   -1.0236254   0.20913566   -2.8404782    1.8168528   439061 
   51000    1.2129678   -2.8480999   -2.8480999   -1.0286523   0.21506624   -2.8480999    1.8194476   439061 
   52000    1.2125485   -2.8558407   -2.8558407   -1.0370221   0.22943223   -2.8558407    1.8188186   439061 
   53000    1.2115398   -2.8638676   -2.8638676    -1.046562   0.22630523   -2.8638676    1.8173056   439061 
   54000    1.2078039   -2.8717982   -2.8717982   -1.0600964   0.23209816   -2.8717982    1.8117017   439061 
   55000    1.2053877   -2.8799045   -2.8799045   -1.0718272   0.23603596   -2.8799045    1.8080774   439061 
   56000    1.2057624   -2.8893695   -2.8893695     -1.08073    0.2361009   -2.8893695    1.8086395   439061 
   57000    1.2042323   -2.8959331   -2.8959331   -1.0895888   0.23503402   -2.8959331    1.8063443   439061 
   58000    1.2036722   -2.9031075   -2.9031075   -1.0976033   0.24216547   -2.9031075    1.8055042   439061 
   59000    1.2033844   -2.9098152   -2.9098152   -1.1047427   0.24386659   -2.9098152    1.8050725   439061 
   60000    1.2027339   -2.9135171   -2.9135171   -1.1094204   0.24046127   -2.9135171    1.8040967   439061 
   61000    1.2012981   -2.9187076   -2.9187076   -1.1167645   0.23421448   -2.9187076    1.8019431   439061 
   62000    1.1987518   -2.9193563   -2.9193563   -1.1212327   0.23757275   -2.9193563    1.7981236   439061 
   63000    1.1949217   -2.9177279   -2.9177279   -1.1253495   0.23126137   -2.9177279    1.7923784   439061 
   64000    1.1920544   -2.9161027   -2.9161027   -1.1280252   0.22687298   -2.9161027    1.7880775   439061 
   65000    1.1899963   -2.9159595   -2.9159595   -1.1309692   0.21759053   -2.9159595    1.7849903   439061 
   66000    1.1846566   -2.9118639   -2.9118639    -1.134883   0.21349655   -2.9118639    1.7769808   439061 
   67000    1.1805018   -2.9069889   -2.9069889   -1.1362403   0.20877873   -2.9069889    1.7707486   439061 
   68000    1.1747478   -2.9020777   -2.9020777   -1.1399601   0.19984535   -2.9020777    1.7621176   439061 
   69000    1.1704724   -2.8973489   -2.8973489   -1.1416444   0.19091317   -2.8973489    1.7557045   439061 
   70000     1.166035   -2.8921075   -2.8921075    -1.143059   0.18465205   -2.8921075    1.7490485   439061 
   71000    1.1640548    -2.886905    -2.886905   -1.1408268   0.17548043    -2.886905    1.7460782   439061 
   72000    1.1630194   -2.8853204   -2.8853204   -1.1407953   0.17319607   -2.8853204    1.7445252   439061 
   73000     1.160557   -2.8816235   -2.8816235   -1.1407919   0.16954759   -2.8816235    1.7408315   439061 
   74000    1.1582522   -2.8797445   -2.8797445   -1.1423701    0.1710049   -2.8797445    1.7373743   439061 
   75000    1.1588529   -2.8788169   -2.8788169   -1.1405415   0.16711271   -2.8788169    1.7382754   439061 
   76000    1.1566417   -2.8739875   -2.8739875   -1.1390289   0.15918254   -2.8739875    1.7349586   439061 
   77000    1.1555659   -2.8720875   -2.8720875   -1.1387425    0.1618995   -2.8720875     1.733345   439061 
   78000    1.1553123   -2.8703308   -2.8703308   -1.1373663    0.1609672   -2.8703308    1.7329645   439061 
   79000    1.1539991   -2.8663376   -2.8663376   -1.1353428   0.16013414   -2.8663376    1.7309947   439061 
   80000    1.1545416   -2.8663716   -2.8663716   -1.1345631   0.15761742   -2.8663716    1.7318085   439061 
   81000    1.1559561   -2.8672688   -2.8672688   -1.1333387   0.15822598   -2.8672688    1.7339302   439061 
   82000    1.1548866   -2.8656175   -2.8656175   -1.1332915   0.16461528   -2.8656175     1.732326   439061 
   83000    1.1552899   -2.8647161   -2.8647161   -1.1317852   0.15459257   -2.8647161    1.7329309   439061 
   84000    1.1553923   -2.8647847   -2.8647847   -1.1317002   0.16610344   -2.8647847    1.7330845   439061 
   85000     1.157359   -2.8688481   -2.8688481   -1.1328136   0.16170797   -2.8688481    1.7360345   439061 
   86000    1.1565907   -2.8682315   -2.8682315   -1.1333495   0.16210135   -2.8682315    1.7348821   439061 
   87000    1.1575078   -2.8716506   -2.8716506   -1.1353928   0.16204008   -2.8716506    1.7362578   439061 
   88000    1.1555032   -2.8719435   -2.8719435   -1.1386927   0.16363888   -2.8719435    1.7332509   439061 
   89000    1.1561168   -2.8790058   -2.8790058   -1.1448345   0.16658572   -2.8790058    1.7341712   439061 
   90000    1.1568656   -2.8832905   -2.8832905   -1.1479961   0.17680237   -2.8832905    1.7352944   439061 
   91000    1.1581069   -2.8910152   -2.8910152   -1.1538588   0.17390212   -2.8910152    1.7371564   439061 
   92000    1.1565131   -2.8940293   -2.8940293   -1.1592635    0.1784984   -2.8940293    1.7347657   439061 
   93000    1.1570459   -2.8993762   -2.8993762   -1.1638114   0.17816149   -2.8993762    1.7355649   439061 
   94000    1.1573847   -2.9038827   -2.9038827   -1.1678097   0.18115995   -2.9038827     1.736073   439061 
   95000    1.1563216   -2.9081662   -2.9081662   -1.1736878   0.17727588   -2.9081662    1.7344784   439061 
   96000    1.1556594   -2.9100754   -2.9100754   -1.1765902   0.18736635   -2.9100754    1.7334852   439061 
   97000    1.1555199   -2.9148239   -2.9148239    -1.181548   0.17624726   -2.9148239    1.7332759   439061 
   98000    1.1542941   -2.9152705   -2.9152705   -1.1838333   0.18337325   -2.9152705    1.7314372   439061 
   99000    1.1524317   -2.9154776   -2.9154776    -1.186834   0.17977386   -2.9154776    1.7286436   439061 
  100000    1.1508813   -2.9172296   -2.9172296   -1.1909115   0.18052781   -2.9172296     1.726318   439061 
  101000      1.15058   -2.9173885   -2.9173885   -1.1915225   0.17740212   -2.9173885     1.725866   439061 
  102000    1.1491954   -2.9168238   -2.9168238   -1.1930346   0.17444748   -2.9168238    1.7237892   439061 
  103000    1.1477059   -2.9175067   -2.9175067   -1.1959517   0.17258256   -2.9175067     1.721555   439061 
  104000     1.146763   -2.9171635   -2.9171635    -1.197023   0.16727409   -2.9171635    1.7201406   439061 
  105000    1.1448183   -2.9146157   -2.9146157   -1.1973922   0.16393207   -2.9146157    1.7172235   439061 
  106000    1.1411167   -2.9097336   -2.9097336   -1.1980624   0.16118595   -2.9097336    1.7116712   439061 
  107000    1.1402048    -2.909614    -2.909614   -1.1993106   0.16008038    -2.909614    1.7103034   439061 
  108000    1.1390449   -2.9074761   -2.9074761   -1.1989126   0.15252235   -2.9074761    1.7085635   439061 
  109000    1.1371691   -2.9069239   -2.9069239   -1.2011741   0.15400893   -2.9069239    1.7057498   439061 
  110000    1.1362559   -2.9049475   -2.9049475   -1.2005674   0.14438392   -2.9049475      1.70438   439061 
  111000    1.1322224    -2.897819    -2.897819   -1.1994893   0.14521492    -2.897819    1.6983297   439061 
  112000    1.1326953   -2.8980497   -2.8980497   -1.1990107   0.14618517   -2.8980497     1.699039   439061 
  113000    1.1317423    -2.896696    -2.896696   -1.1990864   0.14723517    -2.896696    1.6976096   439061 
  114000    1.1305459   -2.8947209   -2.8947209   -1.1989059    0.1454504   -2.8947209    1.6958151   439061 
  115000    1.1316983   -2.8956764   -2.8956764   -1.1981329   0.14658728   -2.8956764    1.6975435   439061 
  116000    1.1292572   -2.8936727   -2.8936727   -1.1997907   0.14215795   -2.8936727     1.693882   439061 
  117000     1.128915   -2.8922661   -2.8922661   -1.1988974   0.14387014   -2.8922661    1.6933687   439061 
  118000    1.1289665   -2.8927662   -2.8927662   -1.1993203    0.1411807   -2.8927662    1.6934459   439061 
  119000    1.1305575   -2.8948101   -2.8948101   -1.1989776   0.14096437   -2.8948101    1.6958325   439061 
  120000    1.1303516   -2.8949052   -2.8949052   -1.1993817   0.13782417   -2.8949052    1.6955235   439061 
  121000    1.1317334   -2.8974605   -2.8974605   -1.1998642   0.13687153   -2.8974605    1.6975963   439061 
  122000     1.130617   -2.8964315   -2.8964315   -1.2005098   0.14369129   -2.8964315    1.6959217   439061 
  123000    1.1293495   -2.8943856   -2.8943856   -1.2003652   0.14640621   -2.8943856    1.6940203   439061 
  124000    1.1298285   -2.8976897   -2.8976897   -1.2029509   0.13811355   -2.8976897    1.6947388   439061 
  125000    1.1307856   -2.9003851   -2.9003851   -1.2042105   0.13876657   -2.9003851    1.6961746   439061 
  126000    1.1305775   -2.9009732   -2.9009732   -1.2051107   0.14535333   -2.9009732    1.6958624   439061 
  127000    1.1321668   -2.9038095   -2.9038095   -1.2055632    0.1433608   -2.9038095    1.6982463   439061 
  128000    1.1313844   -2.9067947   -2.9067947   -1.2097219   0.14783393   -2.9067947    1.6970727   439061 
  129000     1.131478   -2.9087194   -2.9087194   -1.2115062     0.151003   -2.9087194    1.6972131   439061 
  130000    1.1319841   -2.9118799   -2.9118799   -1.2139076   0.14614679   -2.9118799    1.6979723   439061 
  131000    1.1321583   -2.9150129   -2.9150129   -1.2167793   0.14977526   -2.9150129    1.6982336   439061 
  132000    1.1332647   -2.9207052   -2.9207052   -1.2208121   0.14558095   -2.9207052    1.6998931   439061 
  133000    1.1330199   -2.9227578   -2.9227578   -1.2232318   0.15139151   -2.9227578    1.6995259   439061 
  134000    1.1324203   -2.9257137   -2.9257137   -1.2270872   0.15254514   -2.9257137    1.6986266   439061 
  135000    1.1322311   -2.9285695   -2.9285695   -1.2302267   0.15168062   -2.9285695    1.6983428   439061 
  136000    1.1308537   -2.9288161   -2.9288161   -1.2325394   0.15943444   -2.9288161    1.6962767   439061 
  137000    1.1294685   -2.9276875   -2.9276875   -1.2334887   0.15398363   -2.9276875    1.6941988   439061 
  138000    1.1296447   -2.9304667   -2.9304667   -1.2360034   0.14433076   -2.9304667    1.6944633   439061 
  139000    1.1288885   -2.9307292   -2.9307292   -1.2374003   0.15116454   -2.9307292    1.6933288   439061 
  140000    1.1306155   -2.9356197   -2.9356197   -1.2397002   0.14904078   -2.9356197    1.6959194   439061 
  141000    1.1269572   -2.9323966   -2.9323966   -1.2419646   0.14758484   -2.9323966    1.6904319   439061 
  142000    1.1260444   -2.9330568   -2.9330568    -1.243994   0.14769078   -2.9330568    1.6890628   439061 
  143000     1.124865   -2.9324144   -2.9324144   -1.2451207   0.14776141   -2.9324144    1.6872937   439061 
  144000    1.1246719   -2.9322149   -2.9322149   -1.2452109   0.14460443   -2.9322149    1.6870039   439061 
  145000     1.120874    -2.927925    -2.927925   -1.2466179   0.14104971    -2.927925    1.6813071   439061 
  146000     1.121659   -2.9294726   -2.9294726    -1.246988    0.1412814   -2.9294726    1.6824846   439061 
  147000    1.1196259   -2.9265997   -2.9265997   -1.2471646   0.13470536   -2.9265997    1.6794351   439061 
  148000    1.1197415   -2.9264422   -2.9264422   -1.2468337   0.13888151   -2.9264422    1.6796085   439061 
  149000    1.1187574   -2.9265391   -2.9265391   -1.2484069   0.13051007   -2.9265391    1.6781322   439061 
  150000    1.1176905   -2.9245675   -2.9245675   -1.2480356   0.13303618   -2.9245675    1.6765319   439061 
  151000    1.1160406   -2.9216306   -2.9216306   -1.2475735   0.13741743   -2.9216306    1.6740572   439061 
  152000    1.1164276   -2.9222418   -2.9222418   -1.2476043     0.135137   -2.9222418    1.6746375   439061 
  153000    1.1172927   -2.9239871   -2.9239871   -1.2480519   0.13001062   -2.9239871    1.6759352   439061 
  154000    1.1149472   -2.9211326   -2.9211326   -1.2487157   0.13479196   -2.9211326    1.6724169   439061 
  155000    1.1162094   -2.9207158   -2.9207158   -1.2464055   0.13072978   -2.9207158    1.6743103   439061 
  156000    1.1169003   -2.9243341   -2.9243341   -1.2489875   0.13153764   -2.9243341    1.6753466   439061 
  157000    1.1153757   -2.9225807   -2.9225807   -1.2495209   0.12791824   -2.9225807    1.6730598   439061 
  158000    1.1140994   -2.9229453   -2.9229453   -1.2517999   0.12990673   -2.9229453    1.6711453   439061 
  159000    1.1155349   -2.9235781   -2.9235781   -1.2502796   0.12877406   -2.9235781    1.6732986   439061 
  160000    1.1156846   -2.9261826   -2.9261826   -1.2526596   0.13126709   -2.9261826     1.673523   439061 
  161000    1.1150437   -2.9242542   -2.9242542   -1.2516924   0.12951346   -2.9242542    1.6725618   439061 
  162000    1.1147297   -2.9247985   -2.9247985   -1.2527077   0.13119426   -2.9247985    1.6720908   439061 
  163000    1.1156907   -2.9261744   -2.9261744   -1.2526422   0.12897454   -2.9261744    1.6735323   439061 
  164000    1.1162067   -2.9293064   -2.9293064   -1.2550002   0.13389069   -2.9293064    1.6743062   439061 
  165000    1.1155313   -2.9295764   -2.9295764   -1.2562833   0.13520634   -2.9295764    1.6732931   439061 
  166000    1.1146288   -2.9295162   -2.9295162   -1.2575768   0.12971696   -2.9295162    1.6719394   439061 
  167000    1.1160954   -2.9332541   -2.9332541   -1.2591148   0.13515375   -2.9332541    1.6741393   439061 
  168000    1.1156449   -2.9340521   -2.9340521   -1.2605886   0.13174653   -2.9340521    1.6734635   439061 
  169000    1.1160297   -2.9346923   -2.9346923   -1.2606516   0.13839779   -2.9346923    1.6740407   439061 
  170000    1.1153027   -2.9363848   -2.9363848   -1.2634345   0.13709898   -2.9363848    1.6729503   439061 
  171000    1.1158996   -2.9376321   -2.9376321   -1.2637866   0.13761558   -2.9376321    1.6738455   439061 
  172000    1.1154127   -2.9395045   -2.9395045   -1.2663892   0.13268473   -2.9395045    1.6731153   439061 
  173000    1.1168347   -2.9415607   -2.9415607   -1.2663125   0.13423697   -2.9415607    1.6752482   439061 
  174000    1.1171076   -2.9443635   -2.9443635   -1.2687059   0.13091254   -2.9443635    1.6756576   439061 
  175000    1.1149205   -2.9420907   -2.9420907   -1.2697137   0.13314837   -2.9420907    1.6723769   439061 
  176000    1.1161135   -2.9430616   -2.9430616   -1.2688951   0.14292102   -2.9430616    1.6741665   439061 
  177000    1.1147101   -2.9445307   -2.9445307   -1.2724694   0.13956668   -2.9445307    1.6720613   439061 
  178000    1.1142966   -2.9464221   -2.9464221   -1.2749809   0.13400725   -2.9464221    1.6714411   439061 
  179000    1.1136286   -2.9452381   -2.9452381    -1.274799    0.1323294   -2.9452381    1.6704391   439061 
  180000    1.1140088    -2.946709    -2.946709   -1.2756996   0.13553422    -2.946709    1.6710094   439061 
  181000    1.1119272   -2.9460626   -2.9460626   -1.2781756   0.13191283   -2.9460626     1.667887   439061 
  182000    1.1108824   -2.9454317   -2.9454317    -1.279112   0.13111392   -2.9454317    1.6663198   439061 
  183000    1.1108825   -2.9473091   -2.9473091   -1.2809891     0.131613   -2.9473091      1.66632   439061 
  184000    1.1094088   -2.9450672   -2.9450672   -1.2809578   0.13315411   -2.9450672    1.6641094   439061 
  185000    1.1100426   -2.9469951   -2.9469951    -1.281935   0.12408716   -2.9469951    1.6650601   439061 
  186000    1.1090805   -2.9472656   -2.9472656   -1.2836485   0.12106536   -2.9472656     1.663617   439061 
  187000    1.1081508   -2.9467184   -2.9467184    -1.284496   0.12509776   -2.9467184    1.6622224   439061 
  188000    1.1071972   -2.9464194   -2.9464194   -1.2856273   0.12710103   -2.9464194     1.660792   439061 
  189000    1.1057042   -2.9461846   -2.9461846   -1.2876321   0.12397083   -2.9461846    1.6585525   439061 
  190000    1.1046492   -2.9453291   -2.9453291   -1.2883591   0.12049257   -2.9453291    1.6569701   439061 
  191000    1.1080769   -2.9479019   -2.9479019   -1.2857903   0.13021107   -2.9479019    1.6621116   439061 
  192000    1.1061311   -2.9467308   -2.9467308    -1.287538   0.12337766   -2.9467308    1.6591928   439061 
  193000     1.106498   -2.9480926   -2.9480926   -1.2883494   0.12518562   -2.9480926    1.6597432   439061 
  194000    1.1060407   -2.9473398   -2.9473398   -1.2882826   0.12285403   -2.9473398    1.6590572   439061 
  195000    1.1050599   -2.9454147   -2.9454147   -1.2878285   0.12184695   -2.9454147    1.6575861   439061 
  196000    1.1052287   -2.9454293   -2.9454293     -1.28759   0.12628292   -2.9454293    1.6578393   439061 
  197000    1.1046236   -2.9461854   -2.9461854   -1.2892538   0.12355093   -2.9461854    1.6569316   439061 
  198000    1.1051597   -2.9469602   -2.9469602   -1.2892245   0.12620575   -2.9469602    1.6577357   439061 
  199000    1.1057759   -2.9476716   -2.9476716   -1.2890115   0.12281664   -2.9476716    1.6586601   439061 
  200000    1.1066849   -2.9489491   -2.9489491   -1.2889255   0.12341759   -2.9489491    1.6600236   439061 
  201000    1.1062552   -2.9497727   -2.9497727   -1.2903937   0.12523498   -2.9497727     1.659379   439061 
  202000    1.1068755    -2.949481    -2.949481   -1.2891716   0.12355918    -2.949481    1.6603094   439061 
  203000    1.1072314   -2.9532569   -2.9532569   -1.2924135   0.12669961   -2.9532569    1.6608434   439061 
  204000    1.1060231   -2.9519778   -2.9519778   -1.2929469   0.12312935   -2.9519778    1.6590309   439061 
  205000    1.1065735   -2.9514963   -2.9514963   -1.2916399    0.1287903   -2.9514963    1.6598564   439061 
  206000    1.1050118   -2.9529099   -2.9529099    -1.295396   0.12362403   -2.9529099    1.6575139   439061 
  207000    1.1051599   -2.9551853   -2.9551853   -1.2974492    0.1235648   -2.9551853    1.6577361   439061 
  208000    1.1053915   -2.9562419   -2.9562419   -1.2981585   0.12227218   -2.9562419    1.6580834   439061 
  209000    1.1043941   -2.9569049   -2.9569049   -1.3003176   0.12475558   -2.9569049    1.6565873   439061 
  210000    1.1047709   -2.9594175   -2.9594175    -1.302265    0.1273933   -2.9594175    1.6571525   439061 
  211000    1.1052479   -2.9599763   -2.9599763   -1.3021082     0.124287   -2.9599763    1.6578681   439061 
  212000    1.1068995   -2.9629019   -2.9629019   -1.3025565   0.12840232   -2.9629019    1.6603454   439061 
  213000    1.1037888   -2.9616191   -2.9616191   -1.3059397    0.1295648   -2.9616191    1.6556794   439061 
  214000     1.103431   -2.9619315   -2.9619315   -1.3067887   0.12345321   -2.9619315    1.6551428   439061 
  215000    1.1044014   -2.9637351   -2.9637351   -1.3071368   0.12559576   -2.9637351    1.6565983   439061 
  216000    1.1038043   -2.9651813   -2.9651813   -1.3094786   0.13084066   -2.9651813    1.6557027   439061 
  217000    1.1044937   -2.9659547   -2.9659547    -1.309218   0.12176223   -2.9659547    1.6567367   439061 
  218000     1.103496   -2.9658881   -2.9658881   -1.3106479   0.12905829   -2.9658881    1.6552402   439061 
  219000    1.1029201   -2.9679512   -2.9679512   -1.3135747   0.12561469   -2.9679512    1.6543764   439061 
  220000    1.1021805   -2.9675529   -2.9675529   -1.3142859   0.12000613   -2.9675529     1.653267   439061 
  221000    1.1007808   -2.9670667   -2.9670667   -1.3158993   0.12367693   -2.9670667    1.6511674   439061 
  222000    1.1000785   -2.9666263   -2.9666263   -1.3165122   0.12335238   -2.9666263    1.6501141   439061 
  223000    1.1012776   -2.9698411   -2.9698411   -1.3179285   0.12216442   -2.9698411    1.6519126   439061 
  224000    1.1008255   -2.9676122   -2.9676122   -1.3163777   0.12277011   -2.9676122    1.6512345   439061 
  225000    1.1022238   -2.9713076   -2.9713076   -1.3179757   0.12082913   -2.9713076    1.6533319   439061 
  226000    1.1006012   -2.9693826   -2.9693826   -1.3184845   0.12741707   -2.9693826    1.6508981   439061 
  227000    1.0988173   -2.9702698   -2.9702698   -1.3220476   0.11841092   -2.9702698    1.6482221   439061 
  228000    1.0993839   -2.9695598   -2.9695598   -1.3204878   0.12167367   -2.9695598     1.649072   439061 
  229000    1.0986665   -2.9686055   -2.9686055   -1.3206096   0.12507179   -2.9686055    1.6479959   439061 
  230000    1.0988108   -2.9686634   -2.9686634   -1.3204509   0.11914971   -2.9686634    1.6482125   439061 
  231000    1.0979687   -2.9682645   -2.9682645   -1.3213151   0.12298374   -2.9682645    1.6469494   439061 
  232000    1.0976003   -2.9679293   -2.9679293   -1.3215326   0.12184418   -2.9679293    1.6463968   439061 
  233000    1.0977724   -2.9690773   -2.9690773   -1.3224225   0.11815695   -2.9690773    1.6466548   439061 
  234000    1.0978191   -2.9682543   -2.9682543   -1.3215293    0.1168583   -2.9682543     1.646725   439061 
  235000    1.0999403   -2.9707718   -2.9707718   -1.3208652   0.11788508   -2.9707718    1.6499067   439061 
  236000    1.0965384   -2.9678679   -2.9678679    -1.323064   0.11803388   -2.9678679    1.6448039   439061 
  237000    1.0959677   -2.9672467   -2.9672467   -1.3232989   0.11389827   -2.9672467    1.6439478   439061 
  238000     1.095516   -2.9663208   -2.9663208   -1.3230506   0.12004277   -2.9663208    1.6432702   439061 
  239000    1.0986862    -2.969612    -2.969612   -1.3215865   0.11863501    -2.969612    1.6480255   439061 
  240000    1.0977718   -2.9703436   -2.9703436   -1.3236896   0.12292836   -2.9703436     1.646654   439061 
  241000    1.0960293   -2.9689369   -2.9689369   -1.3248967   0.11802046   -2.9689369    1.6440402   439061 
  242000    1.0980613    -2.970955    -2.970955   -1.3238669   0.12119302    -2.970955    1.6470882   439061 
  243000    1.0980738   -2.9730371   -2.9730371   -1.3259301   0.11576315   -2.9730371     1.647107   439061 
  244000    1.0981888   -2.9747915   -2.9747915   -1.3275121   0.11620929   -2.9747915    1.6472794   439061 
  245000    1.0972149   -2.9725784   -2.9725784   -1.3267598   0.11803729   -2.9725784    1.6458186   439061 
  246000    1.0970907   -2.9731712   -2.9731712   -1.3275389    0.1210927   -2.9731712    1.6456323   439061 
  247000    1.0966015    -2.973632    -2.973632   -1.3287335   0.12291663    -2.973632    1.6448985   439061 
  248000    1.0968292   -2.9744532   -2.9744532   -1.3292131   0.11803973   -2.9744532      1.64524   439061 
  249000     1.097139   -2.9756795   -2.9756795   -1.3299748   0.11821447   -2.9756795    1.6457047   439061 
  250000    1.0975983   -2.9782483   -2.9782483   -1.3318546   0.11872232   -2.9782483    1.6463937   439061 
  251000    1.0954365   -2.9757452   -2.9757452   -1.3325941   0.11871046   -2.9757452     1.643151   439061 
  252000    1.0970543   -2.9785643   -2.9785643   -1.3329865   0.11536761   -2.9785643    1.6455778   439061 
  253000    1.0958012   -2.9792447   -2.9792447   -1.3355466   0.11799739   -2.9792447    1.6436981   439061 
  254000    1.0966262   -2.9798538   -2.9798538   -1.3349183   0.11673042   -2.9798538    1.6449355   439061 
  255000    1.0949471   -2.9783618   -2.9783618    -1.335945   0.11806923   -2.9783618    1.6424169   439061 
  256000    1.0951899   -2.9794729   -2.9794729   -1.3366918   0.11618668   -2.9794729    1.6427811   439061 
  257000    1.0935475   -2.9776705   -2.9776705   -1.3373529    0.1207157   -2.9776705    1.6403175   439061 
  258000    1.0965241   -2.9818868   -2.9818868   -1.3371044   0.11583866   -2.9818868    1.6447823   439061 
  259000    1.0952981    -2.981226    -2.981226   -1.3382826    0.1101248    -2.981226    1.6429434   439061 
  260000    1.0963488   -2.9830898   -2.9830898   -1.3385703   0.11486515   -2.9830898    1.6445195   439061 
  261000     1.093444   -2.9807966   -2.9807966   -1.3406344   0.12359319   -2.9807966    1.6401622   439061 
  262000    1.0938254   -2.9827833   -2.9827833    -1.342049   0.11985735   -2.9827833    1.6407343   439061 
  263000    1.0930041   -2.9819949   -2.9819949   -1.3424924   0.11787898   -2.9819949    1.6395025   439061 
  264000    1.0946524   -2.9846419   -2.9846419    -1.342667   0.11669959   -2.9846419    1.6419749   439061 
  265000    1.0940962   -2.9853001   -2.9853001   -1.3441595    0.1167858   -2.9853001    1.6411405   439061 
  266000     1.094624   -2.9879916   -2.9879916   -1.3460594   0.11578611   -2.9879916    1.6419322   439061 
  267000    1.0932444   -2.9858304   -2.9858304   -1.3459676   0.11986001   -2.9858304    1.6398628   439061 
  268000    1.0940874   -2.9864652   -2.9864652   -1.3453378   0.10984979   -2.9864652    1.6411273   439061 
  269000    1.0940699   -2.9870001   -2.9870001   -1.3458989   0.11683473   -2.9870001    1.6411011   439061 
  270000    1.0923244   -2.9857851   -2.9857851   -1.3473023   0.11892606   -2.9857851    1.6384828   439061 
  271000    1.0920203   -2.9854262   -2.9854262   -1.3473994   0.11279212   -2.9854262    1.6380268   439061 
  272000    1.0919525   -2.9855402   -2.9855402   -1.3476151   0.11421361   -2.9855402    1.6379251   439061 
  273000    1.0933704   -2.9883751   -2.9883751   -1.3483233   0.11437573   -2.9883751    1.6400518   439061 
  274000    1.0909506   -2.9841577   -2.9841577   -1.3477354   0.11786149   -2.9841577    1.6364222   439061 
  275000    1.0909913   -2.9851692   -2.9851692    -1.348686    0.1111316   -2.9851692    1.6364832   439061 
  276000    1.0913651   -2.9858019   -2.9858019    -1.348758   0.11823486   -2.9858019    1.6370439   439061 
  277000    1.0921486   -2.9878809   -2.9878809   -1.3496617    0.1157811   -2.9878809    1.6382192   439061 
  278000    1.0931126   -2.9905898   -2.9905898   -1.3509247   0.11125363   -2.9905898    1.6396651   439061 
  279000    1.0900883   -2.9857838   -2.9857838    -1.350655   0.11148567   -2.9857838    1.6351288   439061 
  280000    1.0893215   -2.9863271   -2.9863271   -1.3523485   0.11405615   -2.9863271    1.6339786   439061 
  281000    1.0908091   -2.9898347   -2.9898347   -1.3536248   0.11213891   -2.9898347    1.6362099   439061 
  282000    1.0909025   -2.9896712   -2.9896712   -1.3533212   0.10529801   -2.9896712      1.63635   439061 
  283000    1.0907011    -2.990535    -2.990535   -1.3544871    0.1152261    -2.990535    1.6360479   439061 
  284000    1.0907546    -2.990728    -2.990728   -1.3545997   0.11709454    -2.990728    1.6361282   439061 
  285000    1.0920678   -2.9937918   -2.9937918   -1.3556939   0.11403516   -2.9937918    1.6380979   439061 
  286000    1.0895235   -2.9908883   -2.9908883   -1.3566067   0.11263059   -2.9908883    1.6342815   439061 
  287000    1.0917174   -2.9940225   -2.9940225   -1.3564502   0.11791899   -2.9940225    1.6375723   439061 
  288000    1.0896998   -2.9913573   -2.9913573   -1.3568114   0.11519063   -2.9913573    1.6345459   439061 
  289000    1.0895259   -2.9924242   -2.9924242    -1.358139   0.11732976   -2.9924242    1.6342852   439061 
  290000    1.0906544   -2.9954133   -2.9954133   -1.3594354   0.11663347   -2.9954133    1.6359778   439061 
  291000    1.0916827   -2.9958931   -2.9958931   -1.3583728   0.11087007   -2.9958931    1.6375203   439061 
  292000     1.090425   -2.9957925   -2.9957925   -1.3601587   0.11659945   -2.9957925    1.6356338   439061 
  293000    1.0886463   -2.9945039   -2.9945039   -1.3615382   0.11377888   -2.9945039    1.6329657   439061 
  294000    1.0892744   -2.9948192   -2.9948192   -1.3609114   0.11232989   -2.9948192    1.6339078   439061 
  295000    1.0879823   -2.9944638   -2.9944638    -1.362494   0.11166912   -2.9944638    1.6319698   439061 
  296000    1.0885576   -2.9951106   -2.9951106    -1.362278      0.11249   -2.9951106    1.6328326   439061 
  297000    1.0892832   -2.9965755   -2.9965755   -1.3626545   0.10997425   -2.9965755     1.633921   439061 
  298000    1.0880257    -2.994771    -2.994771   -1.3627361   0.11215568    -2.994771    1.6320349   439061 
  299000    1.0890722    -2.997402    -2.997402   -1.3637974   0.10896411    -2.997402    1.6336045   439061 
  300000    1.0884655   -2.9966834   -2.9966834   -1.3639889   0.11245136   -2.9966834    1.6326945   439061 
  301000    1.0867811   -2.9943782   -2.9943782   -1.3642102   0.11343378   -2.9943782     1.630168   439061 
  302000    1.0879825   -2.9969727   -2.9969727   -1.3650026   0.11036501   -2.9969727    1.6319701   439061 
  303000    1.0872812   -2.9970252   -2.9970252   -1.3661072   0.11019713   -2.9970252    1.6309181   439061 
  304000    1.0889473   -3.0004817   -3.0004817   -1.3670645   0.11092184   -3.0004817    1.6334172   439061 
  305000    1.0858298   -2.9975051   -2.9975051    -1.368764   0.11348003   -2.9975051    1.6287411   439061 
  306000    1.0869519   -2.9980196   -2.9980196   -1.3675954   0.11695627   -2.9980196    1.6304241   439061 
  307000    1.0869649   -3.0005919   -3.0005919   -1.3701482   0.11076603   -3.0005919    1.6304437   439061 
  308000    1.0890369   -3.0035205   -3.0035205   -1.3699688   0.11456182   -3.0035205    1.6335516   439061 
  309000    1.0873972   -3.0005799   -3.0005799   -1.3694879   0.11711962   -3.0005799     1.631092   439061 
  310000    1.0884683   -3.0019006   -3.0019006   -1.3692019   0.11409099   -3.0019006    1.6326987   439061 
  311000    1.0898122   -3.0056042   -3.0056042   -1.3708896   0.11310336   -3.0056042    1.6347146   439061 
  312000    1.0865883    -3.002817    -3.002817   -1.3729382   0.11400119    -3.002817    1.6298788   439061 
  313000    1.0859094   -3.0022756   -3.0022756   -1.3734152   0.11209662   -3.0022756    1.6288604   439061 
  314000     1.086419   -3.0028058   -3.0028058    -1.373181   0.10759994   -3.0028058    1.6296248   439061 
  315000    1.0852309   -3.0023085   -3.0023085   -1.3744659   0.10890857   -3.0023085    1.6278426   439061 
  316000    1.0857323   -3.0024841   -3.0024841   -1.3738893   0.11441791   -3.0024841    1.6285948   439061 
  317000    1.0864584   -3.0047033   -3.0047033   -1.3750194    0.1069969   -3.0047033    1.6296839   439061 
  318000    1.0859646   -3.0026871   -3.0026871   -1.3737439   0.10821635   -3.0026871    1.6289432   439061 
  319000    1.0858877   -3.0030711   -3.0030711   -1.3742433   0.10680209   -3.0030711    1.6288278   439061 
  320000    1.0872107   -3.0042201   -3.0042201   -1.3734078   0.10877691   -3.0042201    1.6308123   439061 
  321000    1.0865869   -3.0038714   -3.0038714   -1.3739948    0.1098972   -3.0038714    1.6298766   439061 
  322000    1.0868117   -3.0042923   -3.0042923   -1.3740784   0.10613886   -3.0042923    1.6302139   439061 
  323000    1.0851985   -3.0043673   -3.0043673   -1.3765732   0.10888026   -3.0043673    1.6277941   439061 
  324000    1.0848258   -3.0030822   -3.0030822   -1.3758473   0.10786268   -3.0030822    1.6272349   439061 
  325000    1.0861746   -3.0058971   -3.0058971   -1.3766389   0.11369768   -3.0058971    1.6292582   439061 
  326000    1.0838992   -3.0038744   -3.0038744   -1.3780294   0.11180624   -3.0038744    1.6258451   439061 
  327000     1.083815   -3.0059578   -3.0059578    -1.380239   0.10634906   -3.0059578    1.6257188   439061 
  328000    1.0853539   -3.0096341   -3.0096341   -1.3816069   0.10592878   -3.0096341    1.6280272   439061 
  329000    1.0844709   -3.0081206   -3.0081206    -1.381418   0.11228091   -3.0081206    1.6267026   439061 
  330000    1.0835583   -3.0069569   -3.0069569   -1.3816231   0.10793226   -3.0069569    1.6253338   439061 
  331000    1.0850079   -3.0112438   -3.0112438   -1.3837357   0.10728891   -3.0112438    1.6275081   439061 
  332000    1.0833045   -3.0093536   -3.0093536   -1.3844005   0.10942927   -3.0093536    1.6249531   439061 
  333000    1.0829882   -3.0095976   -3.0095976   -1.3851189   0.10850454   -3.0095976    1.6244787   439061 
  334000    1.0831025   -3.0093709   -3.0093709   -1.3847209   0.10062611   -3.0093709      1.62465   439061 
  335000    1.0822164   -3.0087524   -3.0087524   -1.3854316    0.1070513   -3.0087524    1.6233209   439061 
  336000    1.0833669   -3.0122387   -3.0122387   -1.3871921   0.10526121   -3.0122387    1.6250466   439061 
  337000    1.0809887   -3.0102547   -3.0102547   -1.3887753   0.10368107   -3.0102547    1.6214793   439061 
  338000    1.0830584   -3.0121943   -3.0121943   -1.3876104   0.10965105   -3.0121943    1.6245839   439061 
  339000    1.0835186   -3.0122647   -3.0122647   -1.3869905   0.10982261   -3.0122647    1.6252742   439061 
  340000     1.082151   -3.0114245   -3.0114245   -1.3882017   0.10574606   -3.0114245    1.6232228   439061 
  341000      1.08177   -3.0124576   -3.0124576   -1.3898063   0.11124467   -3.0124576    1.6226512   439061 
  342000     1.081792   -3.0127583   -3.0127583   -1.3900739   0.10838611   -3.0127583    1.6226844   439061 
  343000    1.0806236   -3.0126725   -3.0126725   -1.3917408   0.10879918   -3.0126725    1.6209317   439061 
  344000    1.0817358   -3.0144969   -3.0144969   -1.3918969   0.10370303   -3.0144969       1.6226   439061 
  345000    1.0816963   -3.0147702   -3.0147702   -1.3922294    0.1054349   -3.0147702    1.6225407   439061 
  346000    1.0822647   -3.0156686   -3.0156686   -1.3922752   0.10951386   -3.0156686    1.6233934   439061 
  347000    1.0815334   -3.0149264   -3.0149264     -1.39263   0.10866439   -3.0149264    1.6222964   439061 
  348000    1.0824974   -3.0164347   -3.0164347   -1.3926924   0.11220325   -3.0164347    1.6237423   439061 
  349000    1.0830472   -3.0187081   -3.0187081   -1.3941411  0.099581783   -3.0187081     1.624567   439061 
  350000    1.0833928   -3.0192419   -3.0192419   -1.3941564   0.10604775   -3.0192419    1.6250856   439061 
  351000    1.0829514   -3.0192773   -3.0192773   -1.3948539   0.11237856   -3.0192773    1.6244234   439061 
  352000    1.0811099   -3.0185868   -3.0185868   -1.3969256   0.10970838   -3.0185868    1.6216612   439061 
  353000    1.0822228   -3.0222839   -3.0222839   -1.3989533   0.11012434   -3.0222839    1.6233305   439061 
  354000    1.0815655   -3.0223472   -3.0223472   -1.4000026   0.10978239   -3.0223472    1.6223446   439061 
  355000    1.0830376   -3.0248016   -3.0248016   -1.4002489    0.1103542   -3.0248016    1.6245527   439061 
  356000    1.0824681   -3.0255931   -3.0255931   -1.4018947   0.10710092   -3.0255931    1.6236984   439061 
  357000    1.0804142   -3.0235961   -3.0235961   -1.4029785   0.10828254   -3.0235961    1.6206176   439061 
  358000    1.0814448   -3.0256995   -3.0256995    -1.403536   0.11176821   -3.0256995    1.6221635   439061 
  359000    1.0798387    -3.025703    -3.025703   -1.4059487   0.10986848    -3.025703    1.6197544   439061 
  360000     1.079063   -3.0235972   -3.0235972   -1.4050063   0.10618953   -3.0235972    1.6185908   439061 
  361000    1.0784553   -3.0239822   -3.0239822   -1.4063029   0.10913788   -3.0239822    1.6176793   439061 
  362000    1.0800261   -3.0266132   -3.0266132   -1.4065777   0.10460847   -3.0266132    1.6200355   439061 
  363000    1.0793985   -3.0255181   -3.0255181    -1.406424   0.10937234   -3.0255181    1.6190941   439061 
  364000    1.0789961   -3.0238854   -3.0238854   -1.4053948   0.10606017   -3.0238854    1.6184905   439061 
  365000    1.0782262   -3.0240996   -3.0240996   -1.4067639   0.10738584   -3.0240996    1.6173357   439061 
  366000    1.0804465    -3.027861    -3.027861   -1.4071949   0.10576941    -3.027861    1.6206661   439061 
  367000    1.0790504   -3.0253962   -3.0253962   -1.4068243   0.10784183   -3.0253962     1.618572   439061 
  368000    1.0793352   -3.0263317   -3.0263317   -1.4073326   0.10382662   -3.0263317    1.6189991   439061 
  369000    1.0799787   -3.0261849   -3.0261849   -1.4062205     0.105527   -3.0261849    1.6199644   439061 
  370000    1.0803869   -3.0288746   -3.0288746   -1.4082978   0.11018071   -3.0288746    1.6205767   439061 
  371000    1.0790624    -3.026743    -3.026743   -1.4081531   0.10643481    -3.026743    1.6185899   439061 
  372000    1.0804789   -3.0298706   -3.0298706   -1.4091559   0.10099752   -3.0298706    1.6207147   439061 
  373000    1.0787098   -3.0266407   -3.0266407   -1.4085796   0.10588579   -3.0266407    1.6180611   439061 
  374000    1.0795148   -3.0290533   -3.0290533   -1.4097848   0.10312836   -3.0290533    1.6192685   439061 
  375000      1.07818    -3.028934    -3.028934   -1.4116676   0.10256453    -3.028934    1.6172663   439061 
  376000    1.0793363   -3.0302904   -3.0302904   -1.4112897  0.099573859   -3.0302904    1.6190007   439061 
  377000    1.0771839   -3.0278612   -3.0278612   -1.4120891   0.10098891   -3.0278612    1.6157721   439061 
  378000     1.076107   -3.0277013   -3.0277013   -1.4135446   0.10550253   -3.0277013    1.6141568   439061 
  379000    1.0785435   -3.0299828   -3.0299828   -1.4121713   0.10693187   -3.0299828    1.6178115   439061 
  380000    1.0788958   -3.0309363   -3.0309363   -1.4125963   0.10694074   -3.0309363      1.61834   439061 
  381000    1.0789084   -3.0324705   -3.0324705   -1.4141115   0.10314379   -3.0324705     1.618359   439061 
  382000    1.0778887   -3.0321326   -3.0321326   -1.4153032    0.1078308   -3.0321326    1.6168294   439061 
  383000    1.0775356   -3.0327275   -3.0327275   -1.4164277   0.10272217   -3.0327275    1.6162998   439061 
  384000    1.0777145    -3.032439    -3.032439    -1.415871    0.1000153    -3.032439     1.616568   439061 
  385000    1.0785455   -3.0332763   -3.0332763   -1.4154618   0.10513828   -3.0332763    1.6178145   439061 
  386000    1.0792187    -3.035163    -3.035163   -1.4163386   0.10479418    -3.035163    1.6188243   439061 
  387000    1.0787631   -3.0348365   -3.0348365   -1.4166955    0.1070227   -3.0348365     1.618141   439061 
  388000    1.0776792   -3.0337109   -3.0337109   -1.4171958   0.11108849   -3.0337109     1.616515   439061 
  389000    1.0785108   -3.0352398   -3.0352398   -1.4174772   0.10203422   -3.0352398    1.6177625   439061 
  390000    1.0801034   -3.0374318   -3.0374318   -1.4172803    0.1053394   -3.0374318    1.6201515   439061 
  391000    1.0768473   -3.0335899   -3.0335899   -1.4183227   0.10790401   -3.0335899    1.6152672   439061 
  392000    1.0791437   -3.0375814   -3.0375814   -1.4188696   0.10539128   -3.0375814    1.6187118   439061 
  393000    1.0782423   -3.0364162   -3.0364162   -1.4190564   0.10342649   -3.0364162    1.6173598   439061 
  394000    1.0783048   -3.0374471   -3.0374471   -1.4199936   0.10491685   -3.0374471    1.6174535   439061 
  395000    1.0774645   -3.0378629   -3.0378629   -1.4216699   0.10336536   -3.0378629     1.616193   439061 
  396000    1.0780024   -3.0394731   -3.0394731   -1.4224731   0.10404346   -3.0394731        1.617   439061 
  397000    1.0758267   -3.0362439   -3.0362439   -1.4225075   0.10129197   -3.0362439    1.6137363   439061 
  398000    1.0757852   -3.0368899   -3.0368899   -1.4232158   0.10270262   -3.0368899    1.6136741   439061 
  399000    1.0738293   -3.0366332   -3.0366332   -1.4258929   0.10526132   -3.0366332    1.6107403   439061 
  400000    1.0750039   -3.0396487   -3.0396487   -1.4271465   0.10082014   -3.0396487    1.6125022   439061 
  401000    1.0758238   -3.0395119   -3.0395119   -1.4257799   0.10959299   -3.0395119     1.613732   439061 
  402000    1.0772356   -3.0410277   -3.0410277    -1.425178   0.10445704   -3.0410277    1.6158497   439061 
  403000    1.0769832    -3.040687    -3.040687   -1.4252159   0.10492045    -3.040687    1.6154711   439061 
  404000    1.0756064   -3.0404353   -3.0404353   -1.4270294    0.1062461   -3.0404353     1.613406   439061 
  405000    1.0748152   -3.0400932   -3.0400932    -1.427874   0.11214396   -3.0400932    1.6122192   439061 
  406000    1.0756312   -3.0422167   -3.0422167   -1.4287736  0.099482519   -3.0422167    1.6134431   439061 
  407000    1.0752264   -3.0428891   -3.0428891   -1.4300532    0.1068971   -3.0428891    1.6128359   439061 
  408000    1.0729689   -3.0412205   -3.0412205   -1.4317708   0.10370555   -3.0412205    1.6094497   439061 
  409000    1.0749864   -3.0435994   -3.0435994   -1.4311234   0.10343433   -3.0435994     1.612476   439061 
  410000    1.0737408   -3.0417185   -3.0417185   -1.4311109  0.099024844   -3.0417185    1.6106076   439061 
  411000    1.0744033   -3.0425842   -3.0425842   -1.4309829   0.10049544   -3.0425842    1.6116013   439061 
  412000    1.0749154   -3.0434979   -3.0434979   -1.4311285   0.10377879   -3.0434979    1.6123694   439061 
  413000    1.0755492    -3.044568    -3.044568   -1.4312479   0.10673608    -3.044568    1.6133201   439061 
  414000    1.0745967   -3.0439302   -3.0439302   -1.4320389    0.1010144   -3.0439302    1.6118914   439061 
  415000    1.0731459   -3.0432702   -3.0432702    -1.433555   0.10430384   -3.0432702    1.6097152   439061 
  416000    1.0751852   -3.0462087   -3.0462087   -1.4334345   0.09983005   -3.0462087    1.6127742   439061 
  417000    1.0746521   -3.0455033   -3.0455033   -1.4335288   0.10131213   -3.0455033    1.6119745   439061 
  418000     1.075914   -3.0473203   -3.0473203    -1.433453   0.10251517   -3.0473203    1.6138673   439061 
  419000    1.0757755   -3.0475519   -3.0475519   -1.4338924   0.10140906   -3.0475519    1.6136596   439061 
  420000    1.0741815   -3.0454287   -3.0454287   -1.4341602   0.10045209   -3.0454287    1.6112685   439061 
  421000    1.0748535   -3.0459962   -3.0459962   -1.4337195   0.10392995   -3.0459962    1.6122767   439061 
  422000    1.0755851   -3.0495006   -3.0495006   -1.4361265   0.10155491   -3.0495006     1.613374   439061 
  423000    1.0732861   -3.0468578   -3.0468578   -1.4369323   0.10200026   -3.0468578    1.6099256   439061 
  424000    1.0741502   -3.0467878   -3.0467878   -1.4355663   0.10349819   -3.0467878    1.6112216   439061 
  425000    1.0728269   -3.0465912   -3.0465912   -1.4373546   0.10099643   -3.0465912    1.6092366   439061 
  426000    1.0720011   -3.0469705   -3.0469705   -1.4389725   0.10466916   -3.0469705     1.607998   439061 
  427000      1.07309   -3.0484041   -3.0484041   -1.4387727   0.10101791   -3.0484041    1.6096314   439061 
  428000    1.0730036   -3.0486773   -3.0486773   -1.4391756   0.10304207   -3.0486773    1.6095018   439061 
  429000    1.0730774   -3.0492481   -3.0492481   -1.4396357  0.097246933   -3.0492481    1.6096124   439061 
  430000    1.0708387   -3.0477218   -3.0477218   -1.4414675   0.10027129   -3.0477218    1.6062543   439061 
  431000    1.0727914   -3.0510465   -3.0510465   -1.4418631   0.09862163   -3.0510465    1.6091835   439061 
  432000    1.0719556   -3.0498088   -3.0498088    -1.441879  0.099788945   -3.0498088    1.6079298   439061 
  433000    1.0711399   -3.0502375   -3.0502375   -1.4435314   0.10355515   -3.0502375    1.6067061   439061 
  434000    1.0713354   -3.0488716   -3.0488716   -1.4418722   0.10164124   -3.0488716    1.6069994   439061 
  435000    1.0736746   -3.0532318   -3.0532318   -1.4427235  0.097914235   -3.0532318    1.6105083   439061 
  436000    1.0725841   -3.0538114   -3.0538114    -1.444939   0.10279785   -3.0538114    1.6088725   439061 
  437000    1.0728188   -3.0540961   -3.0540961   -1.4448716   0.10944921   -3.0540961    1.6092245   439061 
  438000    1.0730607   -3.0547868   -3.0547868   -1.4451993   0.10248502   -3.0547868    1.6095874   439061 
  439000    1.0728272   -3.0540702   -3.0540702    -1.444833   0.10725181   -3.0540702    1.6092372   439061 
  440000    1.0730778   -3.0549003   -3.0549003   -1.4452872   0.10394716   -3.0549003    1.6096131   439061 
  441000     1.073516   -3.0562212   -3.0562212   -1.4459508  0.099300896   -3.0562212    1.6102703   439061 
  442000    1.0741937    -3.058887    -3.058887      -1.4476   0.10256531    -3.058887    1.6112869   439061 
  443000    1.0725618   -3.0572246   -3.0572246   -1.4483855    0.1040798   -3.0572246    1.6088391   439061 
  444000    1.0712005   -3.0560383   -3.0560383   -1.4492411   0.10268579   -3.0560383    1.6067971   439061 
  445000    1.0703673   -3.0542717   -3.0542717   -1.4487245   0.10628621   -3.0542717    1.6055473   439061 
  446000    1.0735384    -3.058559    -3.058559    -1.448255  0.095506496    -3.058559     1.610304   439061 
  447000     1.071684   -3.0567947   -3.0567947   -1.4492723  0.098803703   -3.0567947    1.6075224   439061 
  448000    1.0711436   -3.0564037   -3.0564037    -1.449692   0.10198276   -3.0564037    1.6067117   439061 
  449000    1.0705519   -3.0563796   -3.0563796   -1.4505554  0.097419067   -3.0563796    1.6058242   439061 
  450000    1.0716931   -3.0585994   -3.0585994   -1.4510633  0.099940292   -3.0585994     1.607536   439061 
  451000    1.0719717   -3.0583486   -3.0583486   -1.4503947   0.10394698   -3.0583486    1.6079538   439061 
  452000    1.0723729   -3.0600377   -3.0600377    -1.451482  0.097687352   -3.0600377    1.6085556   439061 
  453000    1.0721962   -3.0610875   -3.0610875   -1.4527969   0.10160741   -3.0610875    1.6082906   439061 
  454000    1.0726214   -3.0611551   -3.0611551   -1.4522266  0.099857157   -3.0611551    1.6089284   439061 
  455000    1.0714746   -3.0592335   -3.0592335   -1.4520252   0.10060127   -3.0592335    1.6072083   439061 
  456000     1.072023   -3.0593371   -3.0593371   -1.4513063   0.10416616   -3.0593371    1.6080309   439061 
  457000    1.0729652   -3.0606474   -3.0606474   -1.4512033  0.095015174   -3.0606474    1.6094441   439061 
  458000    1.0710856   -3.0594524   -3.0594524   -1.4528277  0.099890745   -3.0594524    1.6066247   439061 
  459000    1.0718728   -3.0614374   -3.0614374   -1.4536319  0.099530352   -3.0614374    1.6078055   439061 
  460000    1.0718187   -3.0609158   -3.0609158   -1.4531915   0.10225104   -3.0609158    1.6077244   439061 
  461000    1.0712117   -3.0615106   -3.0615106   -1.4546967    0.1012228   -3.0615106    1.6068138   439061 
  462000    1.0715258   -3.0608435   -3.0608435   -1.4535584   0.10194276   -3.0608435     1.607285   439061 
  463000    1.0718689   -3.0615619   -3.0615619   -1.4537622   0.09839844   -3.0615619    1.6077997   439061 
  464000     1.070502   -3.0617517   -3.0617517   -1.4560024  0.097291307   -3.0617517    1.6057494   439061 
  465000    1.0700364   -3.0611472   -3.0611472   -1.4560963   0.10104621   -3.0611472    1.6050509   439061 
  466000     1.070163   -3.0621464   -3.0621464   -1.4569055   0.10082374   -3.0621464    1.6052409   439061 
  467000    1.0709602   -3.0641463   -3.0641463   -1.4577095  0.097665124   -3.0641463    1.6064367   439061 
  468000    1.0675443   -3.0595216   -3.0595216   -1.4582088   0.09633634   -3.0595216    1.6013129   439061 
  469000    1.0691373   -3.0630789   -3.0630789   -1.4593766  0.098370618   -3.0630789    1.6037023   439061 
  470000    1.0690886   -3.0630788   -3.0630788   -1.4594496  0.093577784   -3.0630788    1.6036292   439061 
  471000    1.0700015   -3.0638022   -3.0638022   -1.4588037  0.090600095   -3.0638022    1.6049985   439061 
  472000    1.0704668   -3.0639882   -3.0639882   -1.4582916  0.098584525   -3.0639882    1.6056966   439061 
  473000    1.0698001   -3.0653251   -3.0653251   -1.4606286  0.096111027   -3.0653251    1.6046964   439061 
  474000    1.0691015   -3.0641678   -3.0641678   -1.4605192   0.10025944   -3.0641678    1.6036486   439061 
  475000    1.0713896    -3.067942    -3.067942   -1.4608612  0.098466099    -3.067942    1.6070807   439061 
  476000    1.0697838     -3.06661     -3.06661   -1.4619379   0.10240932     -3.06661    1.6046721   439061 
  477000    1.0716225    -3.070235    -3.070235   -1.4628049   0.10170228    -3.070235    1.6074302   439061 
  478000     1.071309   -3.0698429   -3.0698429   -1.4628831    0.1008298   -3.0698429    1.6069598   439061 
  479000    1.0724019   -3.0720837   -3.0720837   -1.4634845   0.10603426   -3.0720837    1.6085992   439061 
  480000    1.0733577   -3.0756091   -3.0756091   -1.4655762  0.096817363   -3.0756091    1.6100329   439061 
  481000    1.0708545    -3.073129    -3.073129   -1.4668509   0.10301432    -3.073129    1.6062781   439061 
  482000    1.0707509   -3.0732152   -3.0732152   -1.4670924   0.10068254   -3.0732152    1.6061228   439061 
  483000      1.07076   -3.0737224   -3.0737224    -1.467586   0.10520265   -3.0737224    1.6061364   439061 
  484000    1.0728264   -3.0761724   -3.0761724   -1.4669364   0.10336203   -3.0761724     1.609236   439061 
  485000    1.0709445   -3.0741566   -3.0741566   -1.4677435   0.10219102   -3.0741566    1.6064131   439061 
  486000    1.0718352   -3.0762041   -3.0762041   -1.4684549   0.10400885   -3.0762041    1.6077492   439061 
  487000    1.0704151   -3.0742884   -3.0742884   -1.4686695     0.108166   -3.0742884     1.605619   439061 
  488000    1.0715274   -3.0758807   -3.0758807   -1.4685933   0.10068522   -3.0758807    1.6072874   439061 
  489000    1.0711947   -3.0764395   -3.0764395   -1.4696512   0.10531189   -3.0764395    1.6067883   439061 
  490000    1.0716709   -3.0781422   -3.0781422   -1.4706396  0.098658131   -3.0781422    1.6075026   439061 
  491000    1.0699644   -3.0753478   -3.0753478   -1.4704048  0.098387506   -3.0753478     1.604943   439061 
  492000    1.0713333   -3.0771813   -3.0771813   -1.4701849   0.10374773   -3.0771813    1.6069964   439061 
  493000    1.0711303    -3.077379    -3.077379   -1.4706872   0.10180618    -3.077379    1.6066917   439061 
  494000    1.0711382   -3.0764113   -3.0764113   -1.4697077   0.10015616   -3.0764113    1.6067036   439061 
  495000    1.0707219   -3.0774299   -3.0774299   -1.4713508  0.096226107   -3.0774299    1.6060792   439061 
  496000    1.0705049   -3.0768357   -3.0768357   -1.4710819   0.10011267   -3.0768357    1.6057537   439061 
  497000    1.0710223   -3.0794408   -3.0794408    -1.472911  0.095555656   -3.0794408    1.6065298   439061 
  498000    1.0682541   -3.0759654   -3.0759654    -1.473588  0.093646465   -3.0759654    1.6023775   439061 
  499000    1.0679001    -3.075554    -3.075554   -1.4737075   0.10079481    -3.075554    1.6018465   439061 
  500000    1.0694776    -3.077015    -3.077015   -1.4728022  0.093705534    -3.077015    1.6042127   439061 
  501000    1.0670501   -3.0750233   -3.0750233   -1.4744518  0.095854688   -3.0750233    1.6005715   439061 
  502000     1.065497   -3.0723014   -3.0723014   -1.4740595  0.097432327   -3.0723014    1.5982419   439061 
  503000     1.068569   -3.0784297   -3.0784297   -1.4755799  0.097709428   -3.0784297    1.6028499   439061 
  504000    1.0687384   -3.0779691   -3.0779691   -1.4748651  0.093289308   -3.0779691     1.603104   439061 
  505000    1.0684624   -3.0769353   -3.0769353   -1.4742453  0.095654703   -3.0769353      1.60269   439061 
  506000    1.0668841    -3.074408    -3.074408   -1.4740856  0.096176036    -3.074408    1.6003224   439061 
  507000     1.067478   -3.0765531   -3.0765531   -1.4753397  0.094704743   -3.0765531    1.6012134   439061 
  508000    1.0679553   -3.0769571   -3.0769571   -1.4750279  0.093942741   -3.0769571    1.6019292   439061 
  509000    1.0688549    -3.079209    -3.079209   -1.4759303  0.097560997    -3.079209    1.6032787   439061 
  510000    1.0677233   -3.0786313   -3.0786313     -1.47705  0.096300275   -3.0786313    1.6015814   439061 
  511000    1.0671591   -3.0777684   -3.0777684   -1.4770334  0.093469647   -3.0777684     1.600735   439061 
  512000    1.0679558   -3.0802331   -3.0802331    -1.478303  0.092835428   -3.0802331    1.6019301   439061 
  513000    1.0673776   -3.0788899   -3.0788899   -1.4778272  0.097250546   -3.0788899    1.6010627   439061 
  514000    1.0669526   -3.0783931   -3.0783931   -1.4779679  0.096191664   -3.0783931    1.6004253   439061 
  515000    1.0664889    -3.078902    -3.078902   -1.4791722  0.097840343    -3.078902    1.5997298   439061 
  516000    1.0668214   -3.0797958   -3.0797958   -1.4795673  0.098137471   -3.0797958    1.6002285   439061 
  517000    1.0690764   -3.0827794   -3.0827794   -1.4791685  0.096275382   -3.0827794    1.6036109   439061 
  518000    1.0684867   -3.0832199   -3.0832199   -1.4804935  0.091292742   -3.0832199    1.6027264   439061 
  519000     1.065857   -3.0812267   -3.0812267   -1.4824449   0.10459414   -3.0812267    1.5987818   439061 
  520000    1.0671516   -3.0821292   -3.0821292   -1.4814054  0.099687126   -3.0821292    1.6007238   439061 
  521000    1.0665667   -3.0820511   -3.0820511   -1.4822046  0.096766725   -3.0820511    1.5998464   439061 
  522000    1.0669378   -3.0842379   -3.0842379   -1.4838349  0.099181917   -3.0842379     1.600403   439061 
  523000    1.0672885    -3.086134    -3.086134   -1.4852049   0.09231187    -3.086134    1.6009291   439061 
  524000    1.0665624   -3.0852558   -3.0852558   -1.4854158  0.098342435   -3.0852558      1.59984   439061 
  525000    1.0683682   -3.0887785   -3.0887785   -1.4862298  0.098644297   -3.0887785    1.6025487   439061 
  526000    1.0686242   -3.0894135   -3.0894135   -1.4864809   0.09675072   -3.0894135    1.6029327   439061 
  527000     1.067226   -3.0885762   -3.0885762   -1.4877409  0.095357268   -3.0885762    1.6008353   439061 
  528000    1.0659677    -3.087274    -3.087274   -1.4883261  0.092370402    -3.087274    1.5989479   439061 
  529000     1.065185   -3.0863388   -3.0863388    -1.488565   0.09323229   -3.0863388    1.5977738   439061 
  530000    1.0649246   -3.0871152   -3.0871152   -1.4897319  0.091614551   -3.0871152    1.5973833   439061 
  531000    1.0654392   -3.0874907   -3.0874907   -1.4893356   0.09603874   -3.0874907    1.5981551   439061 
  532000    1.0663887   -3.0895499   -3.0895499   -1.4899705  0.099391285   -3.0895499    1.5995794   439061 
  533000    1.0657132   -3.0882647   -3.0882647   -1.4896985  0.099911477   -3.0882647    1.5985661   439061 
  534000    1.0656912   -3.0900274   -3.0900274   -1.4914942  0.099213978   -3.0900274    1.5985331   439061 
  535000    1.0667227   -3.0906114   -3.0906114   -1.4905309   0.09894764   -3.0906114    1.6000805   439061 
  536000    1.0663061   -3.0905543   -3.0905543   -1.4910988  0.099954617   -3.0905543    1.5994554   439061 
  537000    1.0655888   -3.0909558   -3.0909558   -1.4925762  0.094292885   -3.0909558    1.5983796   439061 
  538000    1.0651454   -3.0921241   -3.0921241   -1.4944096   0.10310642   -3.0921241    1.5977145   439061 
  539000    1.0667109   -3.0943995   -3.0943995   -1.4943369  0.091321615   -3.0943995    1.6000626   439061 
  540000    1.0666514   -3.0936149   -3.0936149   -1.4936416  0.093497138   -3.0936149    1.5999734   439061 
  541000    1.0666499   -3.0938338   -3.0938338   -1.4938626  0.098574699   -3.0938338    1.5999712   439061 
  542000    1.0663737   -3.0941674   -3.0941674   -1.4946104  0.098170409   -3.0941674     1.599557   439061 
  543000     1.064541   -3.0921098   -3.0921098   -1.4953019  0.097876345   -3.0921098    1.5968079   439061 
  544000     1.065154   -3.0921805   -3.0921805   -1.4944531   0.10046668   -3.0921805    1.5977274   439061 
  545000    1.0650121   -3.0918879   -3.0918879   -1.4943734  0.094846324   -3.0918879    1.5975145   439061 
  546000    1.0661994   -3.0931932   -3.0931932   -1.4938978  0.092409258   -3.0931932    1.5992954   439061 
  547000    1.0649227   -3.0924831   -3.0924831   -1.4951026  0.096866324   -3.0924831    1.5973805   439061 
  548000    1.0645863   -3.0918784   -3.0918784   -1.4950026  0.096643574   -3.0918784    1.5968758   439061 
  549000    1.0657726   -3.0933032   -3.0933032    -1.494648  0.092062691   -3.0933032    1.5986553   439061 
  550000    1.0654618   -3.0936476   -3.0936476   -1.4954585  0.096011028   -3.0936476    1.5981891   439061 
  551000     1.064757   -3.0930574   -3.0930574   -1.4959255  0.093454306   -3.0930574    1.5971319   439061 
  552000    1.0633112   -3.0925727   -3.0925727   -1.4976095  0.095737668   -3.0925727    1.5949632   439061 
  553000    1.0640909   -3.0936417   -3.0936417    -1.497509    0.0930484   -3.0936417    1.5961327   439061 
  554000    1.0630317   -3.0917311   -3.0917311   -1.4971872  0.093840617   -3.0917311     1.594544   439061 
  555000    1.0643104   -3.0934059   -3.0934059    -1.496944  0.096618386   -3.0934059    1.5964619   439061 
  556000     1.064042   -3.0927575   -3.0927575   -1.4966981  0.096649046   -3.0927575    1.5960594   439061 
  557000    1.0655248   -3.0962104   -3.0962104   -1.4979268  0.095048622   -3.0962104    1.5982836   439061 
  558000    1.0638807   -3.0936869   -3.0936869   -1.4978695  0.089933003   -3.0936869    1.5958174   439061 
  559000    1.0637219   -3.0947499   -3.0947499   -1.4991708  0.095951637   -3.0947499    1.5955792   439061 
  560000    1.0652649   -3.0965707   -3.0965707    -1.498677  0.099423021   -3.0965707    1.5978937   439061 
  561000    1.0631498   -3.0944529   -3.0944529   -1.4997318  0.096911034   -3.0944529    1.5947211   439061 
  562000     1.064526   -3.0970102   -3.0970102   -1.5002248  0.094956279   -3.0970102    1.5967854   439061 
  563000    1.0650332   -3.0982964   -3.0982964   -1.5007503  0.094616396   -3.0982964    1.5975461   439061 
  564000    1.0647479   -3.0999618   -3.0999618   -1.5028436  0.095201799   -3.0999618    1.5971181   439061 
  565000    1.0644524   -3.0993177   -3.0993177   -1.5026428  0.091089073   -3.0993177    1.5966749   439061 
  566000    1.0653679   -3.0998969   -3.0998969   -1.5018487  0.094726024   -3.0998969    1.5980482   439061 
  567000    1.0634334   -3.0971637   -3.0971637   -1.5020172  0.090929004   -3.0971637    1.5951465   439061 
  568000    1.0655669   -3.0995944   -3.0995944   -1.5012477  0.098844084   -3.0995944    1.5983467   439061 
  569000    1.0633238   -3.0966095   -3.0966095   -1.5016275  0.093820831   -3.0966095     1.594982   439061 
  570000    1.0635642   -3.0972712   -3.0972712   -1.5019286  0.093287499   -3.0972712    1.5953426   439061 
  571000    1.0639277   -3.0989023   -3.0989023   -1.5030144  0.093143204   -3.0989023    1.5958879   439061 
  572000     1.063433   -3.0978567   -3.0978567   -1.5027108  0.089101246   -3.0978567    1.5951458   439061 
  573000    1.0641629   -3.0993348   -3.0993348   -1.5030942  0.096736294   -3.0993348    1.5962407   439061 
  574000     1.064824   -3.1006953   -3.1006953    -1.503463  0.092295525   -3.1006953    1.5972323   439061 
  575000    1.0625229   -3.0993548   -3.0993548   -1.5055741  0.098694477   -3.0993548    1.5937807   439061 
  576000    1.0640548   -3.1017027   -3.1017027   -1.5056241   0.09644136   -3.1017027    1.5960786   439061 
  577000    1.0631526   -3.1000794   -3.1000794   -1.5053541  0.097608613   -3.1000794    1.5947253   439061 
  578000    1.0628123   -3.1023849   -3.1023849   -1.5081702  0.091955499   -3.1023849    1.5942148   439061 
  579000    1.0611132   -3.1010863   -3.1010863     -1.50942  0.095522162   -3.1010863    1.5916662   439061 
  580000     1.060964     -3.10202     -3.10202   -1.5105776  0.096001552     -3.10202    1.5914424   439061 
  581000     1.063441   -3.1058714   -3.1058714   -1.5107135  0.091814579   -3.1058714    1.5951579   439061 
  582000    1.0611922   -3.1041313   -3.1041313   -1.5123466  0.095500422   -3.1041313    1.5917847   439061 
  583000    1.0643836   -3.1079817   -3.1079817   -1.5114099  0.090436828   -3.1079817    1.5965718   439061 
  584000    1.0636445   -3.1053934   -3.1053934   -1.5099303  0.099435798   -3.1053934    1.5954632   439061 
  585000    1.0649537   -3.1077194   -3.1077194   -1.5102926   0.09926906   -3.1077194    1.5974269   439061 
  586000    1.0651015   -3.1091623   -3.1091623   -1.5115137   0.10071286   -3.1091623    1.5976486   439061 
  587000    1.0632199   -3.1089702   -3.1089702    -1.514144  0.095262604   -3.1089702    1.5948262   439061 
  588000    1.0622579   -3.1066924   -3.1066924   -1.5133092  0.097243234   -3.1066924    1.5933832   439061 
  589000    1.0641943   -3.1114035   -3.1114035   -1.5151158  0.097598237   -3.1114035    1.5962877   439061 
  590000     1.064058   -3.1110706   -3.1110706   -1.5149872  0.095776681   -3.1110706    1.5960834   439061 
  591000    1.0634151   -3.1100577   -3.1100577   -1.5149386   0.09529055   -3.1100577    1.5951191   439061 
  592000    1.0639518    -3.110161    -3.110161    -1.514237  0.093513582    -3.110161     1.595924   439061 
  593000    1.0619021   -3.1078145   -3.1078145    -1.514965  0.098549052   -3.1078145    1.5928495   439061 
  594000    1.0640997   -3.1095638   -3.1095638   -1.5134179  0.093507745   -3.1095638    1.5961459   439061 
  595000    1.0640027   -3.1102076   -3.1102076   -1.5142071  0.095203635   -3.1102076    1.5960005   439061 
  596000    1.0626934   -3.1084969   -3.1084969   -1.5144605  0.094888875   -3.1084969    1.5940364   439061 
  597000    1.0631153   -3.1085167   -3.1085167   -1.5138473  0.094075099   -3.1085167    1.5946694   439061 
  598000    1.0637472   -3.1093838   -3.1093838   -1.5137666  0.089962229   -3.1093838    1.5956172   439061 
  599000    1.0643843    -3.111387    -3.111387   -1.5148142  0.089977039    -3.111387    1.5965729   439061 
  600000    1.0620539   -3.1085908   -3.1085908   -1.5155135  0.094002617   -3.1085908    1.5930773   439061 
  601000    1.0613445   -3.1067755   -3.1067755   -1.5147624  0.093940394   -3.1067755    1.5920131   439061 
  602000    1.0632196   -3.1102749   -3.1102749   -1.5154492  0.096101897   -3.1102749    1.5948257   439061 
  603000     1.063425    -3.109803    -3.109803   -1.5146692  0.095273569    -3.109803    1.5951338   439061 
  604000    1.0618403   -3.1090797   -3.1090797   -1.5163229  0.095011956   -3.1090797    1.5927568   439061 
  605000    1.0628795    -3.110177    -3.110177   -1.5158613  0.090507691    -3.110177    1.5943157   439061 
  606000    1.0622122   -3.1096791   -3.1096791   -1.5163644  0.096356842   -3.1096791    1.5933147   439061 
  607000    1.0629964   -3.1120653   -3.1120653   -1.5175743  0.098691631   -3.1120653     1.594491   439061 
  608000    1.0610897   -3.1091896   -3.1091896   -1.5175587  0.091193615   -3.1091896    1.5916309   439061 
  609000    1.0632716   -3.1134963   -3.1134963   -1.5185926  0.090359582   -3.1134963    1.5949037   439061 
  610000    1.0617689   -3.1124544   -3.1124544   -1.5198047   0.09585376   -3.1124544    1.5926497   439061 
  611000    1.0647747   -3.1164294   -3.1164294   -1.5192711  0.095186428   -3.1164294    1.5971584   439061 
  612000    1.0626176   -3.1129529   -3.1129529   -1.5190301  0.092255177   -3.1129529    1.5939227   439061 
  613000    1.0628153   -3.1134449   -3.1134449   -1.5192256  0.093837324   -3.1134449    1.5942193   439061 
  614000    1.0607133   -3.1105301   -3.1105301   -1.5194637  0.095728413   -3.1105301    1.5910664   439061 
  615000    1.0619091    -3.112214    -3.112214   -1.5193539  0.088515996    -3.112214      1.59286   439061 
  616000    1.0609814   -3.1134702   -3.1134702   -1.5220018  0.090677175   -3.1134702    1.5914684   439061 
  617000    1.0617339   -3.1142573   -3.1142573   -1.5216602  0.093320737   -3.1142573    1.5925972   439061 
  618000    1.0606558   -3.1132704   -3.1132704   -1.5222903  0.091006892   -3.1132704    1.5909801   439061 
  619000    1.0577256   -3.1097327   -3.1097327   -1.5231479  0.092308452   -3.1097327    1.5865848   439061 
  620000    1.0594217   -3.1132362   -3.1132362   -1.5241073  0.090152111   -3.1132362     1.589129   439061 
  621000    1.0599041   -3.1135357   -3.1135357   -1.5236831  0.085009521   -3.1135357    1.5898526   439061 
  622000     1.059848   -3.1127472   -3.1127472   -1.5229789  0.091076731   -3.1127472    1.5897683   439061 
  623000    1.0617548   -3.1137226   -3.1137226   -1.5210939  0.095041183   -3.1137226    1.5926286   439061 
  624000    1.0622445   -3.1152681   -3.1152681    -1.521905  0.093695298   -3.1152681    1.5933631   439061 
  625000    1.0608797   -3.1146374   -3.1146374   -1.5233215   0.09576812   -3.1146374    1.5913159   439061 
  626000    1.0614727   -3.1160124   -3.1160124    -1.523807  0.098373092   -3.1160124    1.5922054   439061 
  627000    1.0611584   -3.1162816   -3.1162816   -1.5245476  0.097114223   -3.1162816     1.591734   439061 
  628000    1.0610057   -3.1161447   -3.1161447   -1.5246397  0.094624995   -3.1161447     1.591505   439061 
  629000    1.0629894     -3.11842     -3.11842   -1.5239395  0.093189941     -3.11842    1.5944805   439061 
  630000    1.0626401   -3.1183616   -3.1183616   -1.5244051   0.10228074   -3.1183616    1.5939565   439061 
  631000    1.0626287   -3.1182026   -3.1182026   -1.5242633  0.093781642   -3.1182026    1.5939394   439061 
  632000    1.0631772   -3.1199042   -3.1199042    -1.525142  0.094261275   -3.1199042    1.5947622   439061 
  633000    1.0628111   -3.1210865   -3.1210865   -1.5268734  0.092588082   -3.1210865    1.5942131   439061 
  634000    1.0636456   -3.1236488   -3.1236488    -1.528184  0.093114731   -3.1236488    1.5954648   439061 
  635000    1.0612382   -3.1203022   -3.1203022   -1.5284484  0.097189177   -3.1203022    1.5918537   439061 
  636000    1.0620103   -3.1226777   -3.1226777   -1.5296659  0.097073196   -3.1226777    1.5930119   439061 
  637000    1.0620065    -3.122091    -3.122091   -1.5290848  0.095777921    -3.122091    1.5930062   439061 
  638000    1.0614948   -3.1220072   -3.1220072   -1.5297687   0.09056323   -3.1220072    1.5922385   439061 
  639000    1.0601989   -3.1200768   -3.1200768    -1.529782  0.096116524   -3.1200768    1.5902948   439061 
  640000    1.0607761   -3.1216512   -3.1216512   -1.5304907  0.090694704   -3.1216512    1.5911605   439061 
  641000    1.0599186   -3.1217334   -3.1217334   -1.5318592  0.091577472   -3.1217334    1.5898742   439061 
  642000     1.060109   -3.1226586   -3.1226586   -1.5324987  0.091681573   -3.1226586    1.5901599   439061 
  643000     1.058865    -3.121062    -3.121062   -1.5327682  0.085527805    -3.121062    1.5882938   439061 
  644000     1.058273   -3.1202583   -3.1202583   -1.5328524  0.086912247   -3.1202583    1.5874059   439061 
  645000    1.0590179   -3.1228115   -3.1228115   -1.5342883  0.091695788   -3.1228115    1.5885232   439061 
  646000    1.0602224   -3.1239776   -3.1239776   -1.5336477  0.091653533   -3.1239776    1.5903299   439061 
  647000    1.0593656   -3.1228373   -3.1228373   -1.5337925  0.088887034   -3.1228373    1.5890447   439061 
  648000    1.0595599    -3.123692    -3.123692   -1.5343557  0.090018549    -3.123692    1.5893363   439061 
  649000    1.0610124    -3.126816    -3.126816    -1.535301   0.09002619    -3.126816     1.591515   439061 
  650000    1.0614423   -3.1268616   -3.1268616   -1.5347017  0.095417969   -3.1268616    1.5921598   439061 
  651000    1.0597807   -3.1252324   -3.1252324    -1.535565  0.091143048   -3.1252324    1.5896675   439061 
  652000    1.0598952   -3.1251711   -3.1251711   -1.5353319  0.095792553   -3.1251711    1.5898392   439061 
  653000    1.0601129   -3.1273487   -3.1273487   -1.5371829  0.092300249   -3.1273487    1.5901658   439061 
  654000    1.0600348   -3.1268404   -3.1268404   -1.5367918   0.08805903   -3.1268404    1.5900486   439061 
  655000    1.0597042     -3.12729     -3.12729   -1.5377373  0.093722422     -3.12729    1.5895527   439061 
  656000    1.0602808   -3.1275324   -3.1275324   -1.5371149  0.092469777   -3.1275324    1.5904175   439061 
  657000    1.0596366   -3.1270314   -3.1270314     -1.53758  0.094672967   -3.1270314    1.5894513   439061 
  658000    1.0595843   -3.1278844   -3.1278844   -1.5385115  0.090132047   -3.1278844    1.5893729   439061 
  659000    1.0588625     -3.12668     -3.12668   -1.5383898   0.09539744     -3.12668    1.5882901   439061 
  660000    1.0595504   -3.1279012   -3.1279012   -1.5385792  0.092717399   -3.1279012     1.589322   439061 
  661000     1.060263   -3.1302349   -3.1302349   -1.5398439  0.095198863   -3.1302349     1.590391   439061 
  662000    1.0591613   -3.1303775   -3.1303775   -1.5416392   0.09591637   -3.1303775    1.5887383   439061 
  663000     1.059389   -3.1308801   -3.1308801   -1.5418003  0.093288342   -3.1308801    1.5890798   439061 
  664000    1.0614835    -3.134051    -3.134051   -1.5418293  0.091725213    -3.134051    1.5922217   439061 
  665000    1.0619368   -3.1337308   -3.1337308   -1.5408291  0.092171915   -3.1337308    1.5929016   439061 
  666000    1.0601293   -3.1321958   -3.1321958   -1.5420055  0.092160874   -3.1321958    1.5901903   439061 
  667000    1.0609626   -3.1333276   -3.1333276   -1.5418874  0.096457532   -3.1333276    1.5914402   439061 
  668000    1.0595509   -3.1328666   -3.1328666   -1.5435439  0.093818407   -3.1328666    1.5893227   439061 
  669000    1.0590428   -3.1333757   -3.1333757   -1.5448151    0.0889567   -3.1333757    1.5885606   439061 
  670000    1.0598249   -3.1343252   -3.1343252   -1.5445915   0.09543059   -3.1343252    1.5897338   439061 
  671000    1.0599761   -3.1356673   -3.1356673   -1.5457068  0.087982462   -3.1356673    1.5899605   439061 
  672000    1.0598044   -3.1359403   -3.1359403   -1.5462374  0.089800478   -3.1359403    1.5897029   439061 
  673000    1.0593683   -3.1361444   -3.1361444   -1.5470956  0.087260945   -3.1361444    1.5890488   439061 
  674000    1.0562057   -3.1335252   -3.1335252   -1.5492203  0.090022297   -3.1335252    1.5843049   439061 
  675000    1.0572122   -3.1345401   -3.1345401   -1.5487255  0.087233759   -3.1345401    1.5858147   439061 
  676000    1.0585414   -3.1361648   -3.1361648   -1.5483563  0.089161737   -3.1361648    1.5878085   439061 
  677000    1.0579375   -3.1340859   -3.1340859   -1.5471832  0.098834943   -3.1340859    1.5869027   439061 
  678000    1.0598613   -3.1380679   -3.1380679   -1.5482795  0.091578944   -3.1380679    1.5897883   439061 
  679000    1.0583045   -3.1356659   -3.1356659   -1.5482128  0.096147705   -3.1356659    1.5874532   439061 
  680000    1.0588357   -3.1361829   -3.1361829   -1.5479329   0.09226655   -3.1361829      1.58825   439061 
  681000    1.0589547   -3.1353017   -3.1353017   -1.5468733  0.090166524   -3.1353017    1.5884284   439061 
  682000    1.0599469   -3.1379344   -3.1379344   -1.5480177  0.093338411   -3.1379344    1.5899167   439061 
  683000    1.0588047   -3.1371931   -3.1371931   -1.5489897   0.09629877   -3.1371931    1.5882034   439061 
  684000    1.0589395   -3.1360065   -3.1360065   -1.5476009  0.089295356   -3.1360065    1.5884056   439061 
  685000    1.0584816    -3.136747    -3.136747   -1.5490282  0.087883393    -3.136747    1.5877188   439061 
  686000    1.0594555   -3.1389718   -3.1389718   -1.5497922  0.093284858   -3.1389718    1.5891797   439061 
  687000    1.0572498   -3.1372603   -3.1372603   -1.5513891  0.085265619   -3.1372603    1.5858712   439061 
  688000    1.0590264   -3.1394926   -3.1394926   -1.5509566  0.086609407   -3.1394926     1.588536   439061 
  689000    1.0582481   -3.1388373   -3.1388373   -1.5514688  0.088054656   -3.1388373    1.5873685   439061 
  690000    1.0571089   -3.1368157   -3.1368157   -1.5511559  0.093315894   -3.1368157    1.5856598   439061 
  691000    1.0578979   -3.1370784   -3.1370784   -1.5502352  0.090182194   -3.1370784    1.5868432   439061 
  692000    1.0573417   -3.1371103   -3.1371103   -1.5511014  0.087514595   -3.1371103    1.5860089   439061 
  693000    1.0590911   -3.1392908   -3.1392908   -1.5506578  0.092846921   -3.1392908     1.588633   439061 
  694000    1.0587678   -3.1394876   -3.1394876   -1.5513394  0.086327706   -3.1394876    1.5881481   439061 
  695000    1.0582072   -3.1397909   -3.1397909   -1.5524837   0.08856309   -3.1397909    1.5873071   439061 
  696000    1.0570991   -3.1405764   -3.1405764   -1.5549314  0.089568251   -3.1405764     1.585645   439061 
  697000    1.0579721   -3.1408902   -3.1408902   -1.5539357  0.086927015   -3.1408902    1.5869545   439061 
  698000    1.0589993   -3.1439394   -3.1439394   -1.5554441  0.091864145   -3.1439394    1.5884953   439061 
  699000     1.056877   -3.1403062   -3.1403062   -1.5549943  0.092539966   -3.1403062    1.5853119   439061 
  700000    1.0581825    -3.143221    -3.143221   -1.5559509  0.088580669    -3.143221    1.5872701   439061 
  701000    1.0586557   -3.1442143   -3.1442143   -1.5562345   0.08855788   -3.1442143    1.5879799   439061 
  702000     1.058328    -3.145285    -3.145285   -1.5577966  0.090278716    -3.145285    1.5874884   439061 
  703000    1.0576239   -3.1447478   -3.1447478   -1.5583155  0.092703792   -3.1447478    1.5864323   439061 
  704000    1.0587767   -3.1476924   -3.1476924    -1.559531  0.095009246   -3.1476924    1.5881614   439061 
  705000     1.058735    -3.148002    -3.148002   -1.5599031  0.093357433    -3.148002    1.5880989   439061 
  706000    1.0597452   -3.1495181   -3.1495181   -1.5599039  0.096038843   -3.1495181    1.5896142   439061 
  707000    1.0569011   -3.1473824   -3.1473824   -1.5620344  0.090716123   -3.1473824     1.585348   439061 
  708000    1.0589453   -3.1501539   -3.1501539   -1.5617395  0.095696611   -3.1501539    1.5884144   439061 
  709000    1.0577061   -3.1486853   -3.1486853   -1.5621297  0.094429026   -3.1486853    1.5865556   439061 
  710000    1.0582387   -3.1520752   -3.1520752   -1.5647208  0.093444655   -3.1520752    1.5873544   439061 
  711000    1.0598676   -3.1544491   -3.1544491   -1.5646514  0.088923669   -3.1544491    1.5897977   439061 
  712000    1.0595663   -3.1542558   -3.1542558     -1.56491  0.090200274   -3.1542558    1.5893458   439061 
  713000     1.058597   -3.1531316   -3.1531316   -1.5652397  0.091719351   -3.1531316    1.5878919   439061 
  714000    1.0574856   -3.1521092   -3.1521092   -1.5658843  0.093580434   -3.1521092    1.5862249   439061 
  715000    1.0580234   -3.1524277   -3.1524277   -1.5653963  0.093567745   -3.1524277    1.5870314   439061 
  716000     1.059759   -3.1549936   -3.1549936   -1.5653587  0.089822057   -3.1549936    1.5896349   439061 
  717000    1.0575621   -3.1510569   -3.1510569   -1.5647174  0.093161102   -3.1510569    1.5863395   439061 
  718000    1.0575025   -3.1494262   -3.1494262    -1.563176  0.094938478   -3.1494262    1.5862501   439061 
  719000    1.0593301   -3.1509526   -3.1509526   -1.5619611   0.09188782   -3.1509526    1.5889915   439061 
  720000    1.0590709   -3.1517435   -3.1517435   -1.5631408   0.09259475   -3.1517435    1.5886027   439061 
  721000    1.0597198   -3.1518226   -3.1518226   -1.5622466  0.089767089   -3.1518226     1.589576   439061 
  722000    1.0589417   -3.1501969   -3.1501969   -1.5617879  0.094031734   -3.1501969     1.588409   439061 
  723000    1.0589658   -3.1505114   -3.1505114   -1.5620664  0.090718549   -3.1505114    1.5884451   439061 
  724000    1.0576436   -3.1489343   -3.1489343   -1.5624726  0.090098593   -3.1489343    1.5864617   439061 
  725000    1.0595074   -3.1514019   -3.1514019   -1.5621444  0.092705497   -3.1514019    1.5892575   439061 
  726000    1.0560409   -3.1478195   -3.1478195   -1.5637618  0.089457502   -3.1478195    1.5840577   439061 
  727000     1.059496   -3.1519508   -3.1519508   -1.5627103  0.086530227   -3.1519508    1.5892405   439061 
  728000    1.0576109    -3.150561    -3.150561   -1.5641482  0.085128818    -3.150561    1.5864128   439061 
  729000    1.0569923   -3.1514515   -3.1514515   -1.5659667  0.086811946   -3.1514515    1.5854848   439061 
  730000    1.0565653   -3.1505445   -3.1505445   -1.5657001  0.086372356   -3.1505445    1.5848444   439061 
  731000     1.057264   -3.1528397   -3.1528397   -1.5669472  0.087785462   -3.1528397    1.5858925   439061 
  732000    1.0560393   -3.1520907   -3.1520907   -1.5680353  0.089706535   -3.1520907    1.5840554   439061 
  733000    1.0558455   -3.1516143   -3.1516143   -1.5678496  0.090599034   -3.1516143    1.5837646   439061 
  734000    1.0543479   -3.1517243   -3.1517243   -1.5702061  0.087318778   -3.1517243    1.5815183   439061 
  735000     1.055655    -3.152795    -3.152795   -1.5693161  0.086540945    -3.152795    1.5834789   439061 
  736000     1.056916   -3.1554289   -3.1554289   -1.5700585  0.092037539   -3.1554289    1.5853703   439061 
  737000    1.0575219    -3.156645    -3.156645   -1.5703657  0.092501741    -3.156645    1.5862793   439061 
  738000     1.056741   -3.1554248   -3.1554248    -1.570317  0.089086126   -3.1554248    1.5851078   439061 
  739000    1.0575876    -3.157284    -3.157284   -1.5709063    0.0878249    -3.157284    1.5863777   439061 
  740000    1.0565156   -3.1590478   -3.1590478   -1.5742781  0.088167052   -3.1590478    1.5847697   439061 
  741000    1.0563276   -3.1594668   -3.1594668   -1.5749791  0.089257771   -3.1594668    1.5844877   439061 
  742000    1.0576521   -3.1629585   -3.1629585    -1.576484  0.088704782   -3.1629585    1.5864745   439061 
  743000    1.0563834   -3.1592885   -3.1592885    -1.574717  0.093936423   -3.1592885    1.5845715   439061 
  744000    1.0570325   -3.1621858   -3.1621858   -1.5766407    0.0927839   -3.1621858    1.5855451   439061 
  745000    1.0571504   -3.1624708   -3.1624708   -1.5767489  0.096872953   -3.1624708    1.5857219   439061 
  746000    1.0567966   -3.1624446   -3.1624446   -1.5772533  0.096329415   -3.1624446    1.5851913   439061 
  747000     1.058467   -3.1643861   -3.1643861   -1.5766892  0.092469863   -3.1643861    1.5876969   439061 
  748000    1.0576987   -3.1635988   -3.1635988   -1.5770544  0.095326867   -3.1635988    1.5865444   439061 
  749000    1.0598707    -3.164538    -3.164538   -1.5747356  0.096923854    -3.164538    1.5898024   439061 
  750000    1.0595031   -3.1653645   -3.1653645   -1.5761135  0.090588773   -3.1653645     1.589251   439061 
  751000    1.0589156   -3.1645828   -3.1645828    -1.576213  0.094811849   -3.1645828    1.5883698   439061 
  752000    1.0572207   -3.1631307   -3.1631307   -1.5773033  0.095136179   -3.1631307    1.5858275   439061 
  753000    1.0580111   -3.1641774   -3.1641774   -1.5771644  0.085150986   -3.1641774     1.587013   439061 
  754000    1.0567963   -3.1632433   -3.1632433   -1.5780524  0.088039901   -3.1632433    1.5851909   439061 
  755000    1.0560874    -3.161433    -3.161433   -1.5773054  0.088161936    -3.161433    1.5841275   439061 
  756000    1.0556827   -3.1607288   -3.1607288   -1.5772084  0.089105473   -3.1607288    1.5835204   439061 
  757000    1.0556703   -3.1611126   -3.1611126   -1.5776108  0.085795177   -3.1611126    1.5835018   439061 
  758000     1.054339    -3.158914    -3.158914   -1.5774092   0.09318153    -3.158914    1.5815048   439061 
  759000    1.0557941   -3.1629882   -3.1629882   -1.5793007  0.085261456   -3.1629882    1.5836876   439061 
  760000    1.0552328   -3.1607369   -3.1607369   -1.5778913  0.087925643   -3.1607369    1.5828456   439061 
  761000    1.0557455   -3.1608342   -3.1608342   -1.5772195  0.089963451   -3.1608342    1.5836147   439061 
  762000    1.0560351   -3.1631634   -3.1631634   -1.5791143  0.086252668   -3.1631634    1.5840491   439061 
  763000    1.0561259   -3.1612928   -3.1612928   -1.5771075  0.090165323   -3.1612928    1.5841853   439061 
  764000    1.0560161   -3.1616612   -3.1616612   -1.5776406  0.092111995   -3.1616612    1.5840206   439061 
  765000    1.0553393   -3.1616806   -3.1616806   -1.5786752  0.089131563   -3.1616806    1.5830054   439061 
  766000     1.054665   -3.1625004   -3.1625004   -1.5805065  0.088007423   -3.1625004     1.581994   439061 
  767000    1.0542009   -3.1623867   -3.1623867    -1.581089  0.089778815   -3.1623867    1.5812977   439061 
  768000    1.0551871   -3.1648388   -3.1648388   -1.5820618  0.086734164   -3.1648388    1.5827771   439061 
  769000    1.0536771   -3.1639367   -3.1639367   -1.5834246  0.087379587   -3.1639367    1.5805121   439061 
  770000    1.0544695   -3.1654271   -3.1654271   -1.5837264  0.086094635   -3.1654271    1.5817007   439061 
  771000    1.0537302   -3.1662357   -3.1662357    -1.585644  0.088927602   -3.1662357    1.5805917   439061 
  772000    1.0562195   -3.1703573   -3.1703573   -1.5860317  0.093578679   -3.1703573    1.5843257   439061 
  773000    1.0551617   -3.1700987   -3.1700987   -1.5873597  0.091447692   -3.1700987     1.582739   439061 
  774000    1.0560577   -3.1717085   -3.1717085   -1.5876255  0.092466112   -3.1717085     1.584083   439061 
  775000    1.0564172   -3.1716167   -3.1716167   -1.5869946  0.092199903   -3.1716167    1.5846221   439061 
  776000    1.0569787   -3.1727488   -3.1727488   -1.5872843  0.089702669   -3.1727488    1.5854644   439061 
  777000    1.0556848   -3.1723791   -3.1723791   -1.5888555  0.090945786   -3.1723791    1.5835236   439061 
  778000    1.0570537   -3.1734152   -3.1734152   -1.5878382  0.095912341   -3.1734152     1.585577   439061 
  779000    1.0564457   -3.1726328   -3.1726328   -1.5879679  0.095602161   -3.1726328    1.5846649   439061 
  780000    1.0565932   -3.1723033   -3.1723033   -1.5874171    0.0920614   -3.1723033    1.5848862   439061 
  781000    1.0571106     -3.17244     -3.17244   -1.5867776  0.095008457     -3.17244    1.5856624   439061 
  782000    1.0569076   -3.1724034   -3.1724034   -1.5870456  0.093642746   -3.1724034    1.5853579   439061 
  783000    1.0567711   -3.1737092   -3.1737092   -1.5885561  0.085752617   -3.1737092    1.5851531   439061 
  784000    1.0552137   -3.1713595   -3.1713595   -1.5885426  0.094214206   -3.1713595    1.5828169   439061 
  785000    1.0559509   -3.1717314   -3.1717314   -1.5878087  0.089761764   -3.1717314    1.5839227   439061 
  786000    1.0562006   -3.1722948   -3.1722948   -1.5879975  0.092851192   -3.1722948    1.5842974   439061 
  787000    1.0573139   -3.1732655   -3.1732655   -1.5872982  0.092153423   -3.1732655    1.5859672   439061 
  788000    1.0567192   -3.1728075   -3.1728075   -1.5877323  0.092958154   -3.1728075    1.5850752   439061 
  789000    1.0560881   -3.1725322   -3.1725322   -1.5884036  0.097146526   -3.1725322    1.5841286   439061 
  790000    1.0559393   -3.1728458   -3.1728458   -1.5889404  0.087852865   -3.1728458    1.5839054   439061 
  791000    1.0559503   -3.1719181   -3.1719181   -1.5879963   0.09275982   -3.1719181    1.5839218   439061 
  792000    1.0556827    -3.171034    -3.171034   -1.5875136   0.09375687    -3.171034    1.5835204   439061 
  793000    1.0544002   -3.1707062   -3.1707062   -1.5891095  0.088753917   -3.1707062    1.5815967   439061 
  794000    1.0545383   -3.1724214   -3.1724214   -1.5906175  0.089313065   -3.1724214    1.5818039   439061 
  795000    1.0570239    -3.175283    -3.175283   -1.5897507  0.084881398    -3.175283    1.5855323   439061 
  796000    1.0568732   -3.1749932   -3.1749932    -1.589687  0.092243592   -3.1749932    1.5853062   439061 
  797000    1.0572981   -3.1750664   -3.1750664   -1.5891228  0.086464746   -3.1750664    1.5859436   439061 
  798000    1.0556674   -3.1731264   -3.1731264   -1.5896289  0.089478095   -3.1731264    1.5834975   439061 
  799000     1.054795   -3.1731609   -3.1731609    -1.590972  0.088564932   -3.1731609    1.5821889   439061 
  800000    1.0566806   -3.1759426   -3.1759426   -1.5909253   0.08635418   -3.1759426    1.5850173   439061 
  801000    1.0546837   -3.1735693   -3.1735693   -1.5915474  0.091133453   -3.1735693     1.582022   439061 
  802000    1.0552244   -3.1750588   -3.1750588   -1.5922257  0.086844317   -3.1750588     1.582833   439061 
  803000    1.0545622   -3.1744484   -3.1744484   -1.5926087  0.091010713   -3.1744484    1.5818397   439061 
  804000    1.0557348   -3.1772324   -3.1772324   -1.5936338  0.086604554   -3.1772324    1.5835986   439061 
  805000    1.0539849   -3.1756491   -3.1756491   -1.5946755   0.08965625   -3.1756491    1.5809737   439061 
  806000    1.0546065   -3.1760558   -3.1760558   -1.5941497  0.091212901   -3.1760558    1.5819061   439061 
  807000    1.0554919   -3.1771639   -3.1771639   -1.5939296   0.09560121   -3.1771639    1.5832343   439061 
  808000    1.0561355   -3.1789964   -3.1789964   -1.5947968  0.090151738   -3.1789964    1.5841996   439061 
  809000    1.0542778   -3.1772616   -3.1772616   -1.5958484  0.089175045   -3.1772616    1.5814132   439061 
  810000    1.0556279   -3.1804654   -3.1804654   -1.5970271  0.090357293   -3.1804654    1.5834383   439061 
  811000    1.0543561   -3.1797556   -3.1797556   -1.5982251  0.091153721   -3.1797556    1.5815306   439061 
  812000    1.0567802   -3.1817537   -3.1817537   -1.5965871  0.086576135   -3.1817537    1.5851667   439061 
  813000    1.0547511   -3.1810336   -3.1810336   -1.5989106  0.088199821   -3.1810336     1.582123   439061 
  814000    1.0557487   -3.1830749   -3.1830749   -1.5994555  0.088634842   -3.1830749    1.5836194   439061 
  815000    1.0540402   -3.1818515   -3.1818515   -1.6007948  0.089224869   -3.1818515    1.5810567   439061 
  816000    1.0569672   -3.1847682   -3.1847682    -1.599321  0.089863269   -3.1847682    1.5854472   439061 
  817000     1.055424   -3.1827895   -3.1827895   -1.5996571  0.091936102   -3.1827895    1.5831324   439061 
  818000    1.0552338   -3.1830513   -3.1830513   -1.6002043  0.088689691   -3.1830513     1.582847   439061 
  819000    1.0551436   -3.1836037   -3.1836037    -1.600892  0.097924678   -3.1836037    1.5827117   439061 
  820000    1.0567734     -3.18522     -3.18522   -1.6000635  0.092287294     -3.18522    1.5851565   439061 
  821000     1.056466   -3.1850658   -3.1850658   -1.6003704   0.09735097   -3.1850658    1.5846954   439061 
  822000    1.0568121   -3.1865297   -3.1865297   -1.6013152   0.09229366   -3.1865297    1.5852145   439061 
  823000    1.0555759   -3.1849238   -3.1849238   -1.6015636  0.094339745   -3.1849238    1.5833602   439061 
  824000    1.0549692   -3.1860184   -3.1860184   -1.6035682  0.094114276   -3.1860184    1.5824501   439061 
  825000     1.055453   -3.1864595   -3.1864595   -1.6032837  0.089037397   -3.1864595    1.5831758   439061 
  826000    1.0546974   -3.1865146   -3.1865146    -1.604472   0.09280062   -3.1865146    1.5820426   439061 
  827000    1.0549106   -3.1863504   -3.1863504   -1.6039882  0.093244218   -3.1863504    1.5823622   439061 
  828000    1.0538252   -3.1850777   -3.1850777   -1.6043434  0.095179264   -3.1850777    1.5807343   439061 
  829000    1.0545928   -3.1861769   -3.1861769   -1.6042913  0.087866291   -3.1861769    1.5818855   439061 
  830000    1.0533691   -3.1847546   -3.1847546   -1.6047045  0.089421088   -3.1847546      1.58005   439061 
  831000    1.0534897   -3.1851848   -3.1851848   -1.6049539   0.09188998   -3.1851848    1.5802309   439061 
  832000     1.055174   -3.1872017   -3.1872017   -1.6044443  0.091664804   -3.1872017    1.5827574   439061 
  833000    1.0549077   -3.1877319   -3.1877319   -1.6053739   0.09000805   -3.1877319     1.582358   439061 
  834000    1.0537222   -3.1850895   -3.1850895   -1.6045098  0.089227823   -3.1850895    1.5805797   439061 
  835000      1.05359   -3.1857009   -3.1857009   -1.6053195   0.08892263   -3.1857009    1.5803814   439061 
  836000    1.0542285   -3.1869665   -3.1869665   -1.6056274  0.086695222   -3.1869665    1.5813391   439061 
  837000    1.0530475   -3.1850422   -3.1850422   -1.6054745   0.09076138   -3.1850422    1.5795677   439061 
  838000    1.0544354    -3.187839    -3.187839   -1.6061895  0.088708806    -3.187839    1.5816494   439061 
  839000     1.054027   -3.1858913   -3.1858913   -1.6048544  0.095876855   -3.1858913     1.581037   439061 
  840000    1.0555844   -3.1894364   -3.1894364   -1.6060634   0.08803956   -3.1894364     1.583373   439061 
  841000    1.0526985   -3.1840435   -3.1840435   -1.6049994  0.092184187   -3.1840435    1.5790442   439061 
  842000    1.0554353    -3.187796    -3.187796   -1.6046466  0.089068029    -3.187796    1.5831494   439061 
  843000    1.0544233   -3.1867604   -3.1867604    -1.605129  0.090616785   -3.1867604    1.5816313   439061 
  844000    1.0549077   -3.1872756   -3.1872756   -1.6049176  0.097031658   -3.1872756     1.582358   439061 
  845000    1.0557704   -3.1888171   -3.1888171   -1.6051651  0.089262763   -3.1888171     1.583652   439061 
  846000    1.0557998   -3.1901393   -3.1901393   -1.6064432  0.090013241   -3.1901393    1.5836961   439061 
  847000     1.054623   -3.1878004   -3.1878004   -1.6058695  0.088492835   -3.1878004    1.5819309   439061 
  848000    1.0548461   -3.1891584   -3.1891584   -1.6068929   0.09432047   -3.1891584    1.5822655   439061 
  849000    1.0562774   -3.1910336   -3.1910336   -1.6066212  0.092568951   -3.1910336    1.5844124   439061 
  850000    1.0561116   -3.1905145   -3.1905145   -1.6063507  0.089863174   -3.1905145    1.5841638   439061 
  851000    1.0567718   -3.1912709   -3.1912709   -1.6061169  0.092039365   -3.1912709     1.585154   439061 
  852000     1.055143   -3.1905586   -3.1905586   -1.6078478  0.092834049   -3.1905586    1.5827108   439061 
  853000    1.0550016   -3.1904278   -3.1904278   -1.6079291  0.089473649   -3.1904278    1.5824988   439061 
  854000    1.0537386   -3.1878758   -3.1878758   -1.6072715   0.09305125   -3.1878758    1.5806043   439061 
  855000    1.0535243   -3.1890193   -3.1890193   -1.6087364    0.0901769   -3.1890193    1.5802829   439061 
  856000    1.0539198   -3.1908046   -3.1908046   -1.6099284  0.094961066   -3.1908046    1.5808762   439061 
  857000    1.0553599   -3.1940629   -3.1940629   -1.6110266  0.090749215   -3.1940629    1.5830363   439061 
  858000    1.0524659   -3.1896575   -3.1896575   -1.6109623  0.086884116   -3.1896575    1.5786952   439061 
  859000    1.0539839   -3.1929888   -3.1929888   -1.6120166  0.087305024   -3.1929888    1.5809723   439061 
  860000    1.0530642   -3.1905597   -3.1905597   -1.6109669    0.0892431   -3.1905597    1.5795928   439061 
  861000    1.0542561   -3.1927175   -3.1927175   -1.6113369  0.088048473   -3.1927175    1.5813805   439061 
  862000    1.0529277   -3.1915779   -3.1915779   -1.6121899  0.088245311   -3.1915779     1.579388   439061 
  863000    1.0532007   -3.1917269   -3.1917269   -1.6119294  0.089531279   -3.1917269    1.5797975   439061 
  864000    1.0531358    -3.191129    -3.191129   -1.6114288  0.085835598    -3.191129    1.5797002   439061 
  865000    1.0515941   -3.1897763   -3.1897763   -1.6123888  0.088192262   -3.1897763    1.5773876   439061 
  866000    1.0526582   -3.1910823   -3.1910823   -1.6120985  0.083986378   -3.1910823    1.5789838   439061 
  867000    1.0551308    -3.194789    -3.194789   -1.6120963  0.087423617    -3.194789    1.5826926   439061 
  868000    1.0542742   -3.1927587   -3.1927587   -1.6113511  0.089117873   -3.1927587    1.5814077   439061 
  869000     1.053596   -3.1920124   -3.1920124   -1.6116221  0.086934604   -3.1920124    1.5803903   439061 
  870000    1.0536758   -3.1916761   -3.1916761    -1.611166  0.087138557   -3.1916761    1.5805101   439061 
  871000    1.0541902   -3.1936364   -3.1936364   -1.6123547  0.090493273   -3.1936364    1.5812817   439061 
  872000    1.0546499   -3.1949447   -3.1949447   -1.6129735  0.093342963   -3.1949447    1.5819713   439061 
  873000    1.0539977   -3.1935529   -3.1935529   -1.6125599  0.092880199   -3.1935529     1.580993   439061 
  874000    1.0555649    -3.196478    -3.196478   -1.6131343  0.090296705    -3.196478    1.5833438   439061 
  875000    1.0549162   -3.1978335   -3.1978335   -1.6154629  0.089404849   -3.1978335    1.5823706   439061 
  876000    1.0548633   -3.1985057   -3.1985057   -1.6162143  0.089839044   -3.1985057    1.5822914   439061 
  877000    1.0540148   -3.1970272   -3.1970272   -1.6160086  0.094654947   -3.1970272    1.5810186   439061 
  878000    1.0543808   -3.1985039   -3.1985039   -1.6169364  0.094042488   -3.1985039    1.5815676   439061 
  879000    1.0558705   -3.2030344   -3.2030344   -1.6192322  0.091218747   -3.2030344    1.5838021   439061 
  880000    1.0546407   -3.2011193   -3.2011193   -1.6191618  0.093110144   -3.2011193    1.5819574   439061 
  881000    1.0545326   -3.2011362   -3.2011362   -1.6193409  0.089112928   -3.2011362    1.5817953   439061 
  882000    1.0531704   -3.2001666   -3.2001666   -1.6204145  0.097704718   -3.2001666    1.5797521   439061 
  883000    1.0520968   -3.1995302   -3.1995302   -1.6213886  0.091616865   -3.1995302    1.5781416   439061 
  884000     1.053428   -3.2023492   -3.2023492   -1.6222108  0.087804212   -3.2023492    1.5801384   439061 
  885000    1.0525488   -3.1994921   -3.1994921   -1.6206725    0.0862191   -3.1994921    1.5788196   439061 
  886000    1.0525957   -3.2001206   -3.2001206   -1.6212307  0.089704675   -3.2001206      1.57889   439061 
  887000    1.0526621   -3.2003918   -3.2003918   -1.6214023  0.086368295   -3.2003918    1.5789895   439061 
  888000    1.0529544   -3.1998996   -3.1998996   -1.6204717  0.089093225   -3.1998996     1.579428   439061 
  889000    1.0516335   -3.1984931   -3.1984931   -1.6210465  0.086570433   -3.1984931    1.5774466   439061 
  890000    1.0539354   -3.2002486   -3.2002486   -1.6193492  0.086581795   -3.2002486    1.5808994   439061 
  891000    1.0517717   -3.1976326   -3.1976326   -1.6199786  0.090739807   -3.1976326     1.577654   439061 
  892000    1.0531768   -3.2016153   -3.2016153   -1.6218538  0.090875184   -3.2016153    1.5797615   439061 
  893000    1.0508822   -3.1984474   -3.1984474   -1.6221277  0.088982408   -3.1984474    1.5763197   439061 
  894000    1.0520497   -3.2012611   -3.2012611   -1.6231902  0.082033589   -3.2012611    1.5780709   439061 
  895000    1.0527339   -3.2028018   -3.2028018   -1.6237045  0.090265771   -3.2028018    1.5790973   439061 
  896000    1.0547932   -3.2039922   -3.2039922   -1.6218061  0.090938883   -3.2039922    1.5821861   439061 
  897000    1.0523565    -3.201845    -3.201845   -1.6233139  0.087604902    -3.201845    1.5785312   439061 
  898000    1.0517415   -3.2014229   -3.2014229   -1.6238143  0.089768524   -3.2014229    1.5776086   439061 
  899000     1.051125   -3.2020268   -3.2020268    -1.625343  0.083937258   -3.2020268    1.5766839   439061 
  900000    1.0510374   -3.2023579   -3.2023579   -1.6258054  0.088015484   -3.2023579    1.5765525   439061 
  901000    1.0508161   -3.2008664   -3.2008664   -1.6246459    0.0864578   -3.2008664    1.5762206   439061 
  902000    1.0521006   -3.2037628   -3.2037628   -1.6256154  0.093216926   -3.2037628    1.5781473   439061 
  903000    1.0522961    -3.205147    -3.205147   -1.6267064  0.088804899    -3.205147    1.5784405   439061 
  904000    1.0511606   -3.2029258   -3.2029258   -1.6261884  0.091770347   -3.2029258    1.5767374   439061 
  905000    1.0512536   -3.2046399   -3.2046399   -1.6277631  0.089557574   -3.2046399    1.5768767   439061 
  906000    1.0519394   -3.2058857   -3.2058857   -1.6279802   0.08604821   -3.2058857    1.5779055   439061 
  907000    1.0516379   -3.2073447   -3.2073447   -1.6298914  0.087283997   -3.2073447    1.5774533   439061 
  908000    1.0528963   -3.2073343   -3.2073343   -1.6279935  0.091719998   -3.2073343    1.5793408   439061 
  909000    1.0533191   -3.2098222   -3.2098222   -1.6298471  0.090654766   -3.2098222    1.5799751   439061 
  910000    1.0529176   -3.2078256   -3.2078256   -1.6284528  0.087588885   -3.2078256    1.5793728   439061 
  911000    1.0546498   -3.2115161   -3.2115161    -1.629545  0.092380631   -3.2115161    1.5819711   439061 
  912000    1.0524667   -3.2088501   -3.2088501   -1.6301537  0.089808933   -3.2088501    1.5786965   439061 
  913000    1.0528097   -3.2097279   -3.2097279   -1.6305169  0.085920551   -3.2097279     1.579211   439061 
  914000    1.0506756   -3.2066334   -3.2066334   -1.6306237  0.088710595   -3.2066334    1.5760098   439061 
  915000    1.0538952   -3.2104136   -3.2104136   -1.6295745  0.085729237   -3.2104136    1.5808392   439061 
  916000    1.0528409   -3.2099109   -3.2099109   -1.6306533  0.090071687   -3.2099109    1.5792577   439061 
  917000    1.0511127   -3.2095677   -3.2095677   -1.6329023  0.089382477   -3.2095677    1.5766654   439061 
  918000    1.0508655   -3.2080423   -3.2080423   -1.6317477  0.087949606   -3.2080423    1.5762947   439061 
  919000    1.0511573   -3.2083963   -3.2083963    -1.631664  0.089506016   -3.2083963    1.5767323   439061 
  920000    1.0505304   -3.2098372   -3.2098372   -1.6340452  0.090294036   -3.2098372     1.575792   439061 
  921000    1.0499671   -3.2072765   -3.2072765   -1.6323294   0.09037397   -3.2072765    1.5749471   439061 
  922000    1.0508575   -3.2096415   -3.2096415   -1.6333587  0.084184584   -3.2096415    1.5762827   439061 
  923000    1.0513229   -3.2102006   -3.2102006   -1.6332198     0.090113   -3.2102006    1.5769808   439061 
  924000    1.0509629   -3.2098961   -3.2098961   -1.6334554    0.0867948   -3.2098961    1.5764407   439061 
  925000    1.0513208   -3.2104946   -3.2104946    -1.633517  0.090285712   -3.2104946    1.5769776   439061 
  926000    1.0500349   -3.2104836   -3.2104836   -1.6354348  0.083634377   -3.2104836    1.5750488   439061 
  927000    1.0496471   -3.2096043   -3.2096043   -1.6351372  0.086484107   -3.2096043    1.5744671   439061 
  928000    1.0493959   -3.2092455   -3.2092455   -1.6351553  0.080206768   -3.2092455    1.5740903   439061 
  929000    1.0495073   -3.2095309   -3.2095309   -1.6352735  0.082000086   -3.2095309    1.5742574   439061 
  930000     1.050414   -3.2100389   -3.2100389   -1.6344216  0.089219309   -3.2100389    1.5756174   439061 
  931000    1.0510005   -3.2127988   -3.2127988   -1.6363016  0.088461961   -3.2127988    1.5764972   439061 
  932000     1.049982   -3.2103382   -3.2103382   -1.6353688  0.084230215   -3.2103382    1.5749694   439061 
  933000    1.0497973     -3.21153     -3.21153   -1.6368377  0.086677347     -3.21153    1.5746923   439061 
  934000    1.0508082    -3.211564    -3.211564   -1.6353552  0.094698986    -3.211564    1.5762088   439061 
  935000    1.0515721   -3.2129698   -3.2129698   -1.6356153  0.090194502   -3.2129698    1.5773545   439061 
  936000    1.0514045   -3.2136996   -3.2136996   -1.6365964  0.088360519   -3.2136996    1.5771032   439061 
  937000    1.0510466    -3.213431    -3.213431   -1.6368647  0.089170684    -3.213431    1.5765663   439061 
  938000    1.0506132   -3.2140087   -3.2140087   -1.6380926  0.093525618   -3.2140087    1.5759161   439061 
  939000    1.0508138   -3.2158457   -3.2158457   -1.6396286  0.090166164   -3.2158457    1.5762171   439061 
  940000     1.052863   -3.2184196   -3.2184196   -1.6391287  0.085861655   -3.2184196    1.5792909   439061 
  941000    1.0514785   -3.2169042   -3.2169042   -1.6396901  0.084813051   -3.2169042    1.5772141   439061 
  942000    1.0495011   -3.2154127   -3.2154127   -1.6411646  0.095287089   -3.2154127    1.5742481   439061 
  943000    1.0512253   -3.2190895   -3.2190895   -1.6422552  0.090285045   -3.2190895    1.5768343   439061 
  944000    1.0490924   -3.2157153   -3.2157153   -1.6420802    0.0896751   -3.2157153    1.5736351   439061 
  945000    1.0517235   -3.2185235   -3.2185235   -1.6409418  0.085066167   -3.2185235    1.5775817   439061 
  946000    1.0504567   -3.2172563   -3.2172563   -1.6415748  0.092814057   -3.2172563    1.5756815   439061 
  947000     1.051483   -3.2181394   -3.2181394   -1.6409186  0.087439854   -3.2181394    1.5772209   439061 
  948000    1.0511125   -3.2179341   -3.2179341   -1.6412689  0.089893925   -3.2179341    1.5766652   439061 
  949000    1.0504224   -3.2178609   -3.2178609   -1.6422309  0.085224474   -3.2178609      1.57563   439061 
  950000    1.0491871   -3.2147304   -3.2147304   -1.6409534  0.088013184   -3.2147304    1.5737771   439061 
  951000    1.0488794   -3.2146867   -3.2146867   -1.6413712    0.0887556   -3.2146867    1.5733156   439061 
  952000    1.0498816   -3.2176681   -3.2176681   -1.6428493  0.087007498   -3.2176681    1.5748188   439061 
  953000    1.0501132   -3.2169873   -3.2169873   -1.6418211  0.086196754   -3.2169873    1.5751662   439061 
  954000    1.0489944   -3.2157683   -3.2157683   -1.6422803  0.089518052   -3.2157683     1.573488   439061 
  955000    1.0503768   -3.2186007   -3.2186007    -1.643039  0.090260641   -3.2186007    1.5755617   439061 
  956000    1.0512156   -3.2202327   -3.2202327   -1.6434129  0.088810361   -3.2202327    1.5768198   439061 
  957000    1.0504625   -3.2190557   -3.2190557   -1.6433655  0.088768674   -3.2190557    1.5756902   439061 
  958000    1.0505253   -3.2191675   -3.2191675    -1.643383  0.086986512   -3.2191675    1.5757844   439061 
  959000    1.0511872   -3.2211746   -3.2211746   -1.6443974  0.084806981   -3.2211746    1.5767772   439061 
  960000    1.0495412    -3.219329    -3.219329   -1.6450209  0.090598781    -3.219329    1.5743082   439061 
  961000    1.0503887   -3.2194315   -3.2194315   -1.6438521  0.090728983   -3.2194315    1.5755794   439061 
  962000    1.0501776   -3.2206509   -3.2206509   -1.6453881  0.089860815   -3.2206509    1.5752628   439061 
  963000     1.050234    -3.222402    -3.222402   -1.6470547  0.082818966    -3.222402    1.5753473   439061 
  964000    1.0489493   -3.2206545   -3.2206545   -1.6472342  0.086175037   -3.2206545    1.5734203   439061 
  965000    1.0506413   -3.2216981   -3.2216981   -1.6457398  0.088322834   -3.2216981    1.5759583   439061 
  966000    1.0491467   -3.2216083   -3.2216083   -1.6478919  0.086675554   -3.2216083    1.5737164   439061 
  967000    1.0492478   -3.2210403   -3.2210403   -1.6471723  0.082747456   -3.2210403     1.573868   439061 
  968000    1.0507457   -3.2228489   -3.2228489    -1.646734  0.085109348   -3.2228489    1.5761149   439061 
  969000    1.0497029   -3.2203009   -3.2203009   -1.6457502  0.087713949   -3.2203009    1.5745507   439061 
  970000    1.0500581    -3.220531    -3.220531   -1.6454474  0.092046357    -3.220531    1.5750836   439061 
  971000    1.0518988   -3.2234707   -3.2234707   -1.6456261  0.088369747   -3.2234707    1.5778446   439061 
  972000     1.050713   -3.2240886   -3.2240886   -1.6480228  0.089750793   -3.2240886    1.5760658   439061 
  973000    1.0492791   -3.2221557   -3.2221557   -1.6482407  0.091388771   -3.2221557     1.573915   439061 
  974000    1.0495587   -3.2232093   -3.2232093   -1.6488749  0.090885708   -3.2232093    1.5743345   439061 
  975000    1.0512195   -3.2268341   -3.2268341   -1.6500085  0.088740508   -3.2268341    1.5768256   439061 
  976000    1.0504661    -3.224597    -3.224597   -1.6489014  0.089891824    -3.224597    1.5756956   439061 
  977000    1.0525762   -3.2278841   -3.2278841   -1.6490234  0.084126118   -3.2278841    1.5788607   439061 
  978000     1.050965   -3.2260024   -3.2260024   -1.6495585  0.082842242   -3.2260024    1.5764439   439061 
  979000    1.0500527   -3.2243544   -3.2243544   -1.6492789  0.089783839   -3.2243544    1.5750755   439061 
  980000    1.0509597   -3.2262818   -3.2262818   -1.6498457  0.083568344   -3.2262818     1.576436   439061 
  981000    1.0492531   -3.2246014   -3.2246014   -1.6507253  0.086164995   -3.2246014    1.5738761   439061 
  982000    1.0516138   -3.2271236   -3.2271236   -1.6497065  0.088718284   -3.2271236    1.5774171   439061 
  983000    1.0527172   -3.2275716   -3.2275716   -1.6484994  0.090259105   -3.2275716    1.5790722   439061 
  984000    1.0496817   -3.2262051   -3.2262051   -1.6516861  0.087701568   -3.2262051     1.574519   439061 
  985000    1.0498418    -3.225932    -3.225932   -1.6511728  0.090309569    -3.225932    1.5747592   439061 
  986000    1.0504498   -3.2274378   -3.2274378   -1.6517667  0.084423461   -3.2274378    1.5756711   439061 
  987000    1.0497401   -3.2269892   -3.2269892   -1.6523827   0.08931453   -3.2269892    1.5746065   439061 
  988000    1.0488875   -3.2267942   -3.2267942   -1.6534665  0.088073641   -3.2267942    1.5733277   439061 
  989000    1.0487487   -3.2267096   -3.2267096   -1.6535901  0.084870676   -3.2267096    1.5731194   439061 
  990000    1.0487063   -3.2269686   -3.2269686   -1.6539128  0.084294825   -3.2269686    1.5730559   439061 
  991000    1.0491527   -3.2279936   -3.2279936   -1.6542682    0.0857155   -3.2279936    1.5737254   439061 
  992000    1.0486872   -3.2275027   -3.2275027   -1.6544754  0.092292587   -3.2275027    1.5730273   439061 
  993000     1.049789   -3.2292279   -3.2292279   -1.6545481  0.088940937   -3.2292279    1.5746799   439061 
  994000    1.0505048   -3.2288817   -3.2288817   -1.6531281  0.088795908   -3.2288817    1.5757536   439061 
  995000    1.0513332   -3.2291796   -3.2291796   -1.6521835  0.088999267   -3.2291796    1.5769962   439061 
  996000    1.0501108   -3.2281264   -3.2281264   -1.6529638  0.085944375   -3.2281264    1.5751626   439061 
  997000    1.0510979   -3.2307686   -3.2307686   -1.6541253  0.088676667   -3.2307686    1.5766433   439061 
  998000    1.0503505    -3.229697    -3.229697   -1.6541748  0.084572387    -3.229697    1.5755222   439061 
  999000    1.0490495   -3.2280509   -3.2280509   -1.6544803  0.084104505   -3.2280509    1.5735706   439061 
 1000000     1.047564   -3.2267877   -3.2267877   -1.6554452  0.088194495   -3.2267877    1.5713425   439061 
 1001000    1.0482652   -3.2291761   -3.2291761   -1.6567819  0.085304018   -3.2291761    1.5723942   439061 
 1002000    1.0481017   -3.2302966   -3.2302966   -1.6581477  0.085611353   -3.2302966    1.5721489   439061 
 1003000    1.0473715   -3.2292895   -3.2292895   -1.6582358  0.091377478   -3.2292895    1.5710537   439061 
 1004000    1.0462876   -3.2293643   -3.2293643   -1.6599365  0.088192116   -3.2293643    1.5694278   439061 
 1005000    1.0471463   -3.2305702   -3.2305702   -1.6598543  0.086733567   -3.2305702    1.5707159   439061 
 1006000    1.0473894   -3.2321589   -3.2321589   -1.6610783  0.081686011   -3.2321589    1.5710806   439061 
 1007000    1.0460534   -3.2283222   -3.2283222   -1.6592457  0.090075005   -3.2283222    1.5690765   439061 
 1008000    1.0473507   -3.2307558   -3.2307558   -1.6597334  0.088307733   -3.2307558    1.5710225   439061 
 1009000    1.0496723   -3.2339055   -3.2339055   -1.6594007  0.087235706   -3.2339055    1.5745048   439061 
 1010000    1.0491427   -3.2339287   -3.2339287   -1.6602182  0.085498088   -3.2339287    1.5737105   439061 
 1011000    1.0476715   -3.2326237   -3.2326237     -1.66112  0.085557647   -3.2326237    1.5715037   439061 
 1012000       1.0482   -3.2331656   -3.2331656   -1.6608692  0.089622541   -3.2331656    1.5722964   439061 
 1013000    1.0490361   -3.2339465   -3.2339465   -1.6603959  0.088754444   -3.2339465    1.5735505   439061 
 1014000    1.0497239   -3.2353043   -3.2353043   -1.6607221   0.08936346   -3.2353043    1.5745822   439061 
 1015000    1.0484556   -3.2343563   -3.2343563   -1.6616765  0.088355387   -3.2343563    1.5726798   439061 
 1016000    1.0487662   -3.2356131   -3.2356131   -1.6624674  0.089110421   -3.2356131    1.5731457   439061 
 1017000    1.0482809   -3.2361237   -3.2361237   -1.6637059  0.090521398   -3.2361237    1.5724178   439061 
 1018000    1.0477921   -3.2342583   -3.2342583   -1.6625736  0.092034079   -3.2342583    1.5716846   439061 
 1019000    1.0486882   -3.2355347   -3.2355347    -1.662506  0.088054663   -3.2355347    1.5730287   439061 
 1020000    1.0485536   -3.2346795   -3.2346795   -1.6618526  0.087941354   -3.2346795    1.5728268   439061 
 1021000    1.0490229   -3.2344414   -3.2344414   -1.6609106   0.08871483   -3.2344414    1.5735308   439061 
 1022000    1.0491052   -3.2341219   -3.2341219   -1.6604676  0.084566978   -3.2341219    1.5736543   439061 
 1023000    1.0485565   -3.2352262   -3.2352262    -1.662395  0.088259702   -3.2352262    1.5728312   439061 
 1024000    1.0495709   -3.2369116   -3.2369116   -1.6625588  0.081971742   -3.2369116    1.5743528   439061 
 1025000    1.0465512   -3.2339545   -3.2339545   -1.6641313  0.088193376   -3.2339545    1.5698232   439061 
 1026000    1.0478813   -3.2349207   -3.2349207   -1.6631024  0.084530298   -3.2349207    1.5718183   439061 
 1027000    1.0476243   -3.2338055   -3.2338055   -1.6623727  0.088027041   -3.2338055    1.5714328   439061 
 1028000    1.0472576   -3.2322439   -3.2322439   -1.6613611  0.087982081   -3.2322439    1.5708828   439061 
 1029000    1.0470095   -3.2329182   -3.2329182   -1.6624075  0.088593628   -3.2329182    1.5705107   439061 
 1030000    1.0475382    -3.233336    -3.233336   -1.6620322  0.091653922    -3.233336    1.5713037   439061 
 1031000    1.0469988   -3.2336476   -3.2336476    -1.663153  0.090435938   -3.2336476    1.5704946   439061 
 1032000    1.0490222   -3.2360175   -3.2360175   -1.6624878  0.087251258   -3.2360175    1.5735297   439061 
 1033000    1.0481971   -3.2341592   -3.2341592    -1.661867  0.091714683   -3.2341592    1.5722921   439061 
 1034000    1.0487227   -3.2367848   -3.2367848   -1.6637044  0.090799967   -3.2367848    1.5730805   439061 
 1035000    1.0481449   -3.2357152   -3.2357152   -1.6635015  0.088422358   -3.2357152    1.5722137   439061 
 1036000    1.0497923   -3.2386873   -3.2386873   -1.6640024  0.086658855   -3.2386873    1.5746848   439061 
 1037000    1.0480254     -3.23879     -3.23879   -1.6667554   0.08929967     -3.23879    1.5720346   439061 
 1038000    1.0490838   -3.2389554   -3.2389554   -1.6653333  0.087323837   -3.2389554     1.573622   439061 
 1039000    1.0487542   -3.2383765   -3.2383765   -1.6652488  0.087786597   -3.2383765    1.5731276   439061 
 1040000    1.0499118   -3.2401033   -3.2401033   -1.6652393  0.091682062   -3.2401033     1.574864   439061 
 1041000    1.0480488   -3.2385226   -3.2385226   -1.6664529  0.088425553   -3.2385226    1.5720696   439061 
 1042000     1.048249   -3.2377314   -3.2377314   -1.6653615  0.087433641   -3.2377314    1.5723699   439061 
 1043000    1.0483117   -3.2395066   -3.2395066   -1.6670427  0.087823499   -3.2395066    1.5724639   439061 
 1044000    1.0493905   -3.2399049   -3.2399049   -1.6658227  0.087105044   -3.2399049    1.5740822   439061 
 1045000    1.0491903   -3.2407865   -3.2407865   -1.6670046  0.084904296   -3.2407865    1.5737819   439061 
 1046000    1.0470945   -3.2382058   -3.2382058   -1.6675677  0.089462044   -3.2382058    1.5706382   439061 
 1047000    1.0487114   -3.2398682   -3.2398682   -1.6668047  0.083670892   -3.2398682    1.5730634   439061 
 1048000    1.0485329   -3.2379204   -3.2379204   -1.6651246  0.091177801   -3.2379204    1.5727958   439061 
 1049000    1.0475171   -3.2384803   -3.2384803   -1.6672082  0.085256493   -3.2384803    1.5712721   439061 
 1050000    1.0478503   -3.2400645   -3.2400645   -1.6682926  0.079035642   -3.2400645    1.5717719   439061 
 1051000    1.0463041   -3.2385065   -3.2385065   -1.6690539  0.086396468   -3.2385065    1.5694526   439061 
 1052000    1.0474977   -3.2393132   -3.2393132   -1.6680701  0.085724853   -3.2393132     1.571243   439061 
 1053000    1.0485271   -3.2410739   -3.2410739   -1.6682867  0.083105577   -3.2410739    1.5727871   439061 
 1054000    1.0480072   -3.2398458   -3.2398458   -1.6678386  0.077668406   -3.2398458    1.5720072   439061 
 1055000    1.0493343    -3.241806    -3.241806   -1.6678082  0.079950395    -3.241806    1.5739978   439061 
 1056000    1.0459866   -3.2375364   -3.2375364     -1.66856  0.092356131   -3.2375364    1.5689763   439061 
 1057000    1.0477619     -3.24144     -3.24144   -1.6698007  0.089229019     -3.24144    1.5716393   439061 
 1058000    1.0473029   -3.2415603   -3.2415603   -1.6706095  0.087847569   -3.2415603    1.5709508   439061 
 1059000    1.0469746   -3.2416717   -3.2416717   -1.6712133  0.081327953   -3.2416717    1.5704584   439061 
 1060000    1.0459113   -3.2404254   -3.2404254   -1.6715621  0.082241999   -3.2404254    1.5688633   439061 
 1061000    1.0456111    -3.240703    -3.240703     -1.67229  0.083174982    -3.240703     1.568413   439061 
 1062000    1.0457104   -3.2403045   -3.2403045   -1.6717425  0.089916415   -3.2403045     1.568562   439061 
 1063000    1.0468698   -3.2432464   -3.2432464   -1.6729453  0.084267461   -3.2432464    1.5703011   439061 
 1064000     1.047063   -3.2429048   -3.2429048   -1.6723139  0.082552513   -3.2429048    1.5705909   439061 
 1065000    1.0455969   -3.2423992   -3.2423992   -1.6740074   0.08726154   -3.2423992    1.5683917   439061 
 1066000    1.0485879    -3.245822    -3.245822   -1.6729436  0.085990681    -3.245822    1.5728783   439061 
 1067000     1.047824   -3.2458366   -3.2458366   -1.6741041  0.082363625   -3.2458366    1.5717325   439061 
 1068000    1.0461076   -3.2435782   -3.2435782   -1.6744204  0.083558776   -3.2435782    1.5691578   439061 
 1069000    1.0466882   -3.2440295   -3.2440295   -1.6740007  0.083488501   -3.2440295    1.5700288   439061 
 1070000    1.0457991   -3.2444671   -3.2444671    -1.675772  0.082429654   -3.2444671     1.568695   439061 
 1071000    1.0460131   -3.2446725   -3.2446725   -1.6756564  0.088301354   -3.2446725    1.5690161   439061 
 1072000    1.0456933   -3.2449479   -3.2449479   -1.6764114  0.084862253   -3.2449479    1.5685365   439061 
 1073000    1.0456033   -3.2458019   -3.2458019   -1.6774005  0.087438308   -3.2458019    1.5684014   439061 
 1074000    1.0455059   -3.2470498   -3.2470498   -1.6787945  0.082033091   -3.2470498    1.5682553   439061 
 1075000    1.0463214   -3.2476555   -3.2476555   -1.6781769  0.085415132   -3.2476555    1.5694786   439061 
 1076000    1.0450181   -3.2465713   -3.2465713   -1.6790477   0.08983222   -3.2465713    1.5675236   439061 
 1077000    1.0474394   -3.2501198   -3.2501198   -1.6789643  0.083593236   -3.2501198    1.5711555   439061 
 1078000    1.0458942   -3.2486932   -3.2486932   -1.6798554  0.084690283   -3.2486932    1.5688378   439061 
 1079000    1.0461452   -3.2497125   -3.2497125   -1.6804983  0.088042061   -3.2497125    1.5692142   439061 
 1080000    1.0466069   -3.2481097   -3.2481097    -1.678203  0.089282117   -3.2481097    1.5699067   439061 
 1081000    1.0470581   -3.2506305   -3.2506305   -1.6800469   0.08410107   -3.2506305    1.5705835   439061 
 1082000    1.0464445   -3.2497697   -3.2497697   -1.6801065  0.086307426   -3.2497697    1.5696632   439061 
 1083000    1.0459459   -3.2502586   -3.2502586   -1.6813434  0.087395468   -3.2502586    1.5689152   439061 
 1084000    1.0453929   -3.2510652   -3.2510652   -1.6829794   0.08837472   -3.2510652    1.5680857   439061 
 1085000    1.0447295   -3.2498159   -3.2498159   -1.6827252  0.090575305   -3.2498159    1.5670907   439061 
 1086000      1.04512   -3.2495146   -3.2495146   -1.6818381  0.084814274   -3.2495146    1.5676764   439061 
 1087000    1.0459381   -3.2514705   -3.2514705   -1.6825669  0.085642719   -3.2514705    1.5689036   439061 
 1088000    1.0452579   -3.2506276   -3.2506276   -1.6827443  0.086182348   -3.2506276    1.5678833   439061 
 1089000     1.046617   -3.2525847   -3.2525847   -1.6826627  0.085662125   -3.2525847    1.5699219   439061 
 1090000     1.046851   -3.2533264   -3.2533264   -1.6830534   0.08681772   -3.2533264    1.5702729   439061 
 1091000    1.0462657   -3.2517102   -3.2517102   -1.6823152  0.084615899   -3.2517102     1.569395   439061 
 1092000    1.0477095   -3.2529105   -3.2529105   -1.6813498  0.085960623   -3.2529105    1.5715607   439061 
 1093000    1.0476316   -3.2521952   -3.2521952   -1.6807514  0.093475068   -3.2521952    1.5714439   439061 
 1094000    1.0487788   -3.2548678   -3.2548678   -1.6817032  0.087833273   -3.2548678    1.5731646   439061 
 1095000    1.0483658   -3.2546649   -3.2546649   -1.6821198  0.087933999   -3.2546649    1.5725451   439061 
 1096000    1.0469619    -3.253297    -3.253297   -1.6828577  0.088794534    -3.253297    1.5704393   439061 
 1097000    1.0478172   -3.2541236   -3.2541236   -1.6824015  0.088802087   -3.2541236    1.5717222   439061 
 1098000    1.0468379   -3.2526542   -3.2526542   -1.6824009  0.084957134   -3.2526542    1.5702533   439061 
 1099000    1.0460375   -3.2518679   -3.2518679   -1.6828152  0.092232437   -3.2518679    1.5690526   439061 
 1100000      1.04435   -3.2518084   -3.2518084    -1.685287   0.08445779   -3.2518084    1.5665214   439061 
 1101000    1.0457152   -3.2543298   -3.2543298   -1.6857606  0.083719169   -3.2543298    1.5685692   439061 
 1102000     1.043213    -3.252144    -3.252144    -1.687328  0.089909099    -3.252144     1.564816   439061 
 1103000    1.0432816   -3.2520259   -3.2520259   -1.6871071  0.080767873   -3.2520259    1.5649188   439061 
 1104000    1.0446049   -3.2537891   -3.2537891   -1.6868854  0.083117416   -3.2537891    1.5669037   439061 
 1105000    1.0450953   -3.2547894   -3.2547894     -1.68715  0.081226963   -3.2547894    1.5676394   439061 
 1106000    1.0457705   -3.2565356   -3.2565356   -1.6878834  0.082405098   -3.2565356    1.5686522   439061 
 1107000    1.0449116   -3.2545654   -3.2545654   -1.6872016  0.082937098   -3.2545654    1.5673638   439061 
 1108000    1.0443801   -3.2538143   -3.2538143   -1.6872478  0.084754093   -3.2538143    1.5665666   439061 
 1109000    1.0448332   -3.2548622   -3.2548622   -1.6876159   0.08268117   -3.2548622    1.5672463   439061 
 1110000    1.0449415   -3.2552824   -3.2552824   -1.6878737  0.081539102   -3.2552824    1.5674087   439061 
 1111000     1.045245   -3.2553509   -3.2553509   -1.6874869   0.08487686   -3.2553509     1.567864   439061 
 1112000      1.04668   -3.2577666   -3.2577666   -1.6877502  0.084024199   -3.2577666    1.5700165   439061 
 1113000    1.0457632   -3.2558497   -3.2558497   -1.6872085  0.088678324   -3.2558497    1.5686412   439061 
 1114000    1.0457439   -3.2556519   -3.2556519   -1.6870397  0.089562258   -3.2556519    1.5686123   439061 
 1115000    1.0461391   -3.2571157   -3.2571157   -1.6879107  0.081696964   -3.2571157     1.569205   439061 
 1116000    1.0466125   -3.2572248   -3.2572248   -1.6873096   0.08774784   -3.2572248    1.5699152   439061 
 1117000    1.0449977   -3.2548109   -3.2548109   -1.6873179  0.089321568   -3.2548109     1.567493   439061 
 1118000    1.0471457   -3.2600036   -3.2600036   -1.6892887   0.08461803   -3.2600036    1.5707149   439061 
 1119000    1.0469064    -3.259296    -3.259296   -1.6889401  0.083439305    -3.259296     1.570356   439061 
 1120000    1.0459538   -3.2574612   -3.2574612   -1.6885341  0.092844918   -3.2574612    1.5689271   439061 
 1121000    1.0456105   -3.2570994   -3.2570994   -1.6886872  0.087809038   -3.2570994    1.5684121   439061 
 1122000    1.0459147   -3.2585628   -3.2585628   -1.6896943  0.084017939   -3.2585628    1.5688685   439061 
 1123000    1.0468718   -3.2608992   -3.2608992    -1.690595  0.084632905   -3.2608992    1.5703042   439061 
 1124000    1.0455263   -3.2593934   -3.2593934   -1.6911076  0.085988901   -3.2593934    1.5682859   439061 
 1125000    1.0451726   -3.2605978   -3.2605978   -1.6928425  0.085937921   -3.2605978    1.5677554   439061 
 1126000    1.0443982   -3.2592818   -3.2592818   -1.6926881  0.091040933   -3.2592818    1.5665937   439061 
 1127000    1.0442922   -3.2608961   -3.2608961   -1.6944614  0.078395323   -3.2608961    1.5664347   439061 
 1128000    1.0454405   -3.2605541   -3.2605541   -1.6923969  0.085834232   -3.2605541    1.5681572   439061 
 1129000    1.0450795   -3.2592705   -3.2592705   -1.6916548  0.082528278   -3.2592705    1.5676157   439061 
 1130000    1.0446082   -3.2595169   -3.2595169   -1.6926081  0.084831152   -3.2595169    1.5669088   439061 
 1131000    1.0441872   -3.2588986   -3.2588986   -1.6926214  0.085624077   -3.2588986    1.5662772   439061 
 1132000    1.0449131   -3.2611768   -3.2611768   -1.6938107  0.085608465   -3.2611768    1.5673661   439061 
 1133000    1.0450756    -3.261082    -3.261082   -1.6934722   0.08998925    -3.261082    1.5676098   439061 
 1134000    1.0449642    -3.262361    -3.262361   -1.6949182  0.081504399    -3.262361    1.5674428   439061 
 1135000    1.0444637   -3.2613801   -3.2613801   -1.6946881  0.084443028   -3.2613801    1.5666919   439061 
 1136000    1.0460282   -3.2643403   -3.2643403   -1.6953016  0.084492524   -3.2643403    1.5690387   439061 
 1137000    1.0442881   -3.2621519   -3.2621519   -1.6957234  0.086834386   -3.2621519    1.5664286   439061 
 1138000    1.0440796   -3.2604923   -3.2604923   -1.6943765  0.084992017   -3.2604923    1.5661158   439061 
 1139000    1.0445303    -3.260578    -3.260578   -1.6937861  0.084506789    -3.260578    1.5667919   439061 
 1140000    1.0445336   -3.2617749   -3.2617749   -1.6949781  0.085240793   -3.2617749    1.5667968   439061 
 1141000    1.0446359   -3.2614937   -3.2614937   -1.6945433  0.087179339   -3.2614937    1.5669503   439061 
 1142000    1.0437268   -3.2605599   -3.2605599   -1.6949732  0.090800835   -3.2605599    1.5655867   439061 
 1143000    1.0444464   -3.2620631   -3.2620631    -1.695397  0.086119148   -3.2620631    1.5666661   439061 
 1144000    1.0454576   -3.2632282   -3.2632282   -1.6950453  0.085957356   -3.2632282    1.5681828   439061 
 1145000    1.0441093   -3.2628208   -3.2628208   -1.6966605    0.0877722   -3.2628208    1.5661603   439061 
 1146000    1.0453438   -3.2636354   -3.2636354   -1.6956232  0.092020974   -3.2636354    1.5680122   439061 
 1147000    1.0442746   -3.2627008   -3.2627008   -1.6962924  0.090114822   -3.2627008    1.5664084   439061 
 1148000    1.0449362   -3.2658107   -3.2658107   -1.6984101  0.083792141   -3.2658107    1.5674007   439061 
 1149000    1.0438958   -3.2636214   -3.2636214   -1.6977812  0.082930658   -3.2636214    1.5658401   439061 
 1150000    1.0445566    -3.265104    -3.265104   -1.6982726  0.084860328    -3.265104    1.5668314   439061 
 1151000    1.0457149   -3.2665059   -3.2665059   -1.6979371  0.082496679   -3.2665059    1.5685688   439061 
 1152000    1.0452843   -3.2651385   -3.2651385   -1.6972157  0.084479896   -3.2651385    1.5679228   439061 
 1153000    1.0446599   -3.2641513   -3.2641513   -1.6971651  0.084906581   -3.2641513    1.5669862   439061 
 1154000     1.043272   -3.2632469   -3.2632469   -1.6983424  0.090328319   -3.2632469    1.5649045   439061 
 1155000    1.0439018   -3.2644704   -3.2644704   -1.6986213  0.083521558   -3.2644704    1.5658491   439061 
 1156000    1.0443929   -3.2652729   -3.2652729   -1.6986872   0.09045731   -3.2652729    1.5665858   439061 
 1157000    1.0455829   -3.2664547   -3.2664547    -1.698084  0.085323081   -3.2664547    1.5683707   439061 
 1158000    1.0458981   -3.2664359   -3.2664359   -1.6975924  0.085016906   -3.2664359    1.5688435   439061 
 1159000    1.0453624   -3.2647919   -3.2647919   -1.6967518   0.08466329   -3.2647919    1.5680401   439061 
 1160000    1.0447601   -3.2645163   -3.2645163   -1.6973796  0.083925759   -3.2645163    1.5671366   439061 
 1161000    1.0441491   -3.2633197   -3.2633197   -1.6970996  0.083269484   -3.2633197      1.56622   439061 
 1162000    1.0435928   -3.2643681   -3.2643681   -1.6989825  0.082606987   -3.2643681    1.5653856   439061 
 1163000    1.0444211   -3.2651034   -3.2651034   -1.6984754  0.086589358   -3.2651034    1.5666281   439061 
 1164000    1.0434926   -3.2635492   -3.2635492   -1.6983139  0.084722222   -3.2635492    1.5652354   439061 
 1165000    1.0438256    -3.265267    -3.265267   -1.6995321  0.080564156    -3.265267    1.5657349   439061 
 1166000    1.0427006   -3.2645015   -3.2645015   -1.7004542  0.084048369   -3.2645015    1.5640473   439061 
 1167000    1.0416908    -3.264036    -3.264036   -1.7015034  0.084615315    -3.264036    1.5625327   439061 
 1168000    1.0421232   -3.2650086   -3.2650086   -1.7018274  0.081753992   -3.2650086    1.5631812   439061 
 1169000    1.0415844   -3.2648382   -3.2648382   -1.7024651  0.082538163   -3.2648382    1.5623731   439061 
 1170000     1.042702   -3.2668876   -3.2668876   -1.7028381  0.082511858   -3.2668876    1.5640495   439061 
 1171000    1.0425842   -3.2670907   -3.2670907   -1.7032178  0.079290975   -3.2670907    1.5638728   439061 
 1172000    1.0435668   -3.2690674   -3.2690674   -1.7037208  0.080164092   -3.2690674    1.5653466   439061 
 1173000    1.0437608   -3.2682827   -3.2682827    -1.702645   0.08444613   -3.2682827    1.5656377   439061 
 1174000    1.0433827   -3.2690649   -3.2690649   -1.7039944  0.086678354   -3.2690649    1.5650705   439061 
 1175000    1.0444984   -3.2696806   -3.2696806   -1.7029366  0.086653323   -3.2696806     1.566744   439061 
 1176000    1.0450928   -3.2718345   -3.2718345   -1.7041989    0.0843816   -3.2718345    1.5676357   439061 
 1177000     1.043962   -3.2713307   -3.2713307   -1.7053914  0.083629656   -3.2713307    1.5659394   439061 
 1178000    1.0464103   -3.2747312   -3.2747312   -1.7051194  0.083680447   -3.2747312    1.5696119   439061 
 1179000    1.0481716   -3.2777254   -3.2777254   -1.7054716  0.082831919   -3.2777254    1.5722538   439061 
 1180000    1.0455142   -3.2746431   -3.2746431   -1.7063754  0.082939156   -3.2746431    1.5682677   439061 
 1181000    1.0453412   -3.2748959   -3.2748959   -1.7068877  0.092675901   -3.2748959    1.5680082   439061 
 1182000    1.0460769   -3.2769043   -3.2769043   -1.7077926  0.085606923   -3.2769043    1.5691118   439061 
 1183000    1.0458926   -3.2771682   -3.2771682   -1.7083328  0.088472259   -3.2771682    1.5688354   439061 
 1184000    1.0444137   -3.2754529   -3.2754529   -1.7088358  0.086119982   -3.2754529    1.5666171   439061 
 1185000    1.0428936   -3.2743893   -3.2743893   -1.7100524  0.085504384   -3.2743893    1.5643369   439061 
 1186000    1.0450104   -3.2770673   -3.2770673   -1.7095552  0.078772637   -3.2770673    1.5675121   439061 
 1187000    1.0452524   -3.2789423   -3.2789423   -1.7110673   0.08365576   -3.2789423     1.567875   439061 
 1188000    1.0441132   -3.2772634   -3.2772634   -1.7110973  0.082950048   -3.2772634    1.5661662   439061 
 1189000    1.0441975   -3.2784872   -3.2784872   -1.7121946   0.08513691   -3.2784872    1.5662926   439061 
 1190000    1.0435154   -3.2766107   -3.2766107   -1.7113411  0.084790197   -3.2766107    1.5652696   439061 
 1191000    1.0432609   -3.2772673   -3.2772673   -1.7123795  0.078677856   -3.2772673    1.5648878   439061 
 1192000    1.0420032   -3.2750386   -3.2750386   -1.7120373  0.087809425   -3.2750386    1.5630012   439061 
 1193000    1.0435255   -3.2768704   -3.2768704   -1.7115857  0.082810029   -3.2768704    1.5652847   439061 
 1194000    1.0438325   -3.2780497   -3.2780497   -1.7123045  0.086867263   -3.2780497    1.5657452   439061 
 1195000    1.0434311   -3.2775558   -3.2775558   -1.7124127  0.086524704   -3.2775558    1.5651431   439061 
 1196000    1.0437874   -3.2775351   -3.2775351   -1.7118575  0.089088826   -3.2775351    1.5656776   439061 
 1197000    1.0435238   -3.2781654   -3.2781654   -1.7128833  0.078980219   -3.2781654    1.5652821   439061 
 1198000    1.0429106   -3.2774889   -3.2774889   -1.7131265  0.081895832   -3.2774889    1.5643624   439061 
 1199000    1.0443752   -3.2780624   -3.2780624   -1.7115031  0.084835673   -3.2780624    1.5665592   439061 
 1200000    1.0448181   -3.2795174   -3.2795174   -1.7122938  0.081216514   -3.2795174    1.5672236   439061 
 1201000    1.0437435   -3.2779917   -3.2779917   -1.7123799  0.083482559   -3.2779917    1.5656118   439061 
 1202000    1.0431477   -3.2774677   -3.2774677   -1.7127497  0.083780457   -3.2774677     1.564718   439061 
 1203000    1.0431903   -3.2770514   -3.2770514   -1.7122696  0.083155468   -3.2770514    1.5647819   439061 
 1204000    1.0437793   -3.2768516   -3.2768516   -1.7111862  0.089536569   -3.2768516    1.5656654   439061 
 1205000    1.0420872   -3.2746989   -3.2746989   -1.7115717  0.080887645   -3.2746989    1.5631272   439061 
 1206000    1.0426212   -3.2766112   -3.2766112    -1.712683  0.084385594   -3.2766112    1.5639282   439061 
 1207000    1.0417018   -3.2768846   -3.2768846   -1.7143355  0.084669455   -3.2768846    1.5625491   439061 
 1208000    1.0409917   -3.2767793   -3.2767793   -1.7152953  0.084999952   -3.2767793    1.5614839   439061 
 1209000    1.0413322   -3.2763261   -3.2763261   -1.7143313  0.080143275   -3.2763261    1.5619948   439061 
 1210000    1.0409441   -3.2772832   -3.2772832   -1.7158706  0.075463361   -3.2772832    1.5614126   439061 
 1211000    1.0422036   -3.2797118   -3.2797118     -1.71641   0.07815428   -3.2797118    1.5633018   439061 
 1212000    1.0403488   -3.2763389   -3.2763389   -1.7158193  0.084060526   -3.2763389    1.5605197   439061 
 1213000    1.0412525   -3.2793245   -3.2793245   -1.7174493  0.081646647   -3.2793245    1.5618752   439061 
 1214000    1.0412104   -3.2788886   -3.2788886   -1.7170765  0.083868941   -3.2788886    1.5618121   439061 
 1215000    1.0427514    -3.281007    -3.281007   -1.7168835  0.080609769    -3.281007    1.5641236   439061 
 1216000    1.0425829   -3.2802064   -3.2802064   -1.7163356  0.076774055   -3.2802064    1.5638708   439061 
 1217000    1.0414852   -3.2790793   -3.2790793   -1.7168551  0.084891052   -3.2790793    1.5622242   439061 
 1218000    1.0418786   -3.2796216   -3.2796216   -1.7168073  0.082063018   -3.2796216    1.5628144   439061 
 1219000    1.0426697   -3.2814629   -3.2814629    -1.717462  0.082344389   -3.2814629    1.5640009   439061 
 1220000    1.0436243   -3.2832717   -3.2832717   -1.7178388  0.086387798   -3.2832717    1.5654329   439061 
 1221000    1.0436233    -3.282984    -3.282984   -1.7175525  0.084319102    -3.282984    1.5654315   439061 
 1222000    1.0441022   -3.2832889   -3.2832889   -1.7171392  0.089421458   -3.2832889    1.5661497   439061 
 1223000    1.0439288   -3.2822361   -3.2822361   -1.7163466  0.092467105   -3.2822361    1.5658896   439061 
 1224000    1.0448253   -3.2850323   -3.2850323   -1.7177979  0.085506896   -3.2850323    1.5672344   439061 
 1225000    1.0437475   -3.2832257   -3.2832257   -1.7176079   0.08684881   -3.2832257    1.5656178   439061 
 1226000    1.0433628   -3.2833963   -3.2833963   -1.7183557  0.085682897   -3.2833963    1.5650407   439061 
 1227000    1.0424154   -3.2838307   -3.2838307   -1.7202112  0.087914985   -3.2838307    1.5636195   439061 
 1228000     1.043122   -3.2826633   -3.2826633   -1.7179838  0.083557465   -3.2826633    1.5646795   439061 
 1229000    1.0414883   -3.2818371   -3.2818371   -1.7196081  0.083591835   -3.2818371    1.5622289   439061 
 1230000    1.0428655   -3.2830015   -3.2830015   -1.7187067  0.083234476   -3.2830015    1.5642947   439061 
 1231000    1.0412252   -3.2818038   -3.2818038   -1.7199695  0.082571619   -3.2818038    1.5618343   439061 
 1232000    1.0426152    -3.283483    -3.283483   -1.7195638    0.0781563    -3.283483    1.5639192   439061 
 1233000    1.0401922   -3.2794107   -3.2794107   -1.7191259  0.085753133   -3.2794107    1.5602848   439061 
 1234000    1.0422075   -3.2818135   -3.2818135   -1.7185059  0.079910862   -3.2818135    1.5633076   439061 
 1235000     1.039535   -3.2782104   -3.2782104   -1.7189114  0.080620573   -3.2782104     1.559299   439061 
 1236000    1.0412303   -3.2791254   -3.2791254   -1.7172834  0.078904707   -3.2791254    1.5618419   439061 
 1237000    1.0411896   -3.2786863   -3.2786863   -1.7169055   0.08525041   -3.2786863    1.5617808   439061 
 1238000     1.040979   -3.2773877   -3.2773877   -1.7159228  0.084013698   -3.2773877    1.5614649   439061 
 1239000    1.0421004   -3.2788041   -3.2788041   -1.7156571  0.085294752   -3.2788041    1.5631471   439061 
 1240000    1.0424649   -3.2776658   -3.2776658    -1.713972   0.08796679   -3.2776658    1.5636938   439061 
 1241000    1.0435273   -3.2778754   -3.2778754   -1.7125881  0.084772768   -3.2778754    1.5652874   439061 
 1242000    1.0427577    -3.278619    -3.278619    -1.714486  0.086789045    -3.278619     1.564133   439061 
 1243000    1.0408939   -3.2777052   -3.2777052   -1.7163679  0.079946304   -3.2777052    1.5613373   439061 
 1244000    1.0417461   -3.2793618   -3.2793618   -1.7167462  0.078925834   -3.2793618    1.5626156   439061 
 1245000    1.0413409   -3.2790042   -3.2790042   -1.7169965   0.08382449   -3.2790042    1.5620077   439061 
 1246000    1.0402457    -3.277292    -3.277292   -1.7169269  0.078921586    -3.277292    1.5603651   439061 
 1247000    1.0397293   -3.2775025   -3.2775025   -1.7179121  0.080097244   -3.2775025    1.5595904   439061 
 1248000    1.0402294   -3.2785578   -3.2785578   -1.7182173  0.084614178   -3.2785578    1.5603405   439061 
 1249000    1.0416571   -3.2793842   -3.2793842   -1.7169021  0.080940717   -3.2793842     1.562482   439061 
 1250000     1.042449   -3.2809499   -3.2809499     -1.71728  0.079321788   -3.2809499    1.5636699   439061 
 1251000     1.042399   -3.2822597   -3.2822597   -1.7186648  0.081544619   -3.2822597     1.563595   439061 
 1252000    1.0422698   -3.2825686   -3.2825686   -1.7191675  0.080694228   -3.2825686    1.5634012   439061 
 1253000    1.0429325   -3.2815321   -3.2815321   -1.7171369  0.083953529   -3.2815321    1.5643952   439061 
 1254000    1.0421535   -3.2824209   -3.2824209   -1.7191942  0.085271504   -3.2824209    1.5632268   439061 
 1255000     1.041981   -3.2819036   -3.2819036   -1.7189357  0.083814744   -3.2819036    1.5629679   439061 
 1256000    1.0417864   -3.2821539   -3.2821539   -1.7194779  0.082365604   -3.2821539     1.562676   439061 
 1257000    1.0430746   -3.2830685   -3.2830685   -1.7184603  0.085431074   -3.2830685    1.5646083   439061 
 1258000    1.0428437   -3.2827251   -3.2827251   -1.7184631  0.086719229   -3.2827251     1.564262   439061 
 1259000     1.043432   -3.2841234   -3.2841234    -1.718979  0.084488984   -3.2841234    1.5651444   439061 
 1260000    1.0440418   -3.2854237   -3.2854237   -1.7193646  0.083553402   -3.2854237    1.5660591   439061 
 1261000    1.0425506   -3.2848822   -3.2848822     -1.72106  0.084807673   -3.2848822    1.5638223   439061 
 1262000    1.0428897   -3.2860483   -3.2860483   -1.7217173  0.082218469   -3.2860483     1.564331   439061 
 1263000     1.042597   -3.2861442   -3.2861442   -1.7222523   0.08169696   -3.2861442    1.5638919   439061 
 1264000    1.0427089   -3.2859612   -3.2859612   -1.7219014  0.084616495   -3.2859612    1.5640598   439061 
 1265000    1.0420784   -3.2871188   -3.2871188   -1.7240047  0.087018667   -3.2871188    1.5631141   439061 
 1266000    1.0414744   -3.2870679   -3.2870679   -1.7248597   0.09128837   -3.2870679    1.5622081   439061 
 1267000    1.0418956   -3.2875223   -3.2875223   -1.7246825  0.084020309   -3.2875223    1.5628398   439061 
 1268000    1.0420997   -3.2886786   -3.2886786   -1.7255326  0.085414911   -3.2886786     1.563146   439061 
 1269000    1.0408905   -3.2886423   -3.2886423     -1.72731  0.081558626   -3.2886423    1.5613322   439061 
 1270000    1.0414999   -3.2893678   -3.2893678   -1.7271216  0.083645512   -3.2893678    1.5622462   439061 
 1271000    1.0409936   -3.2882057   -3.2882057   -1.7267189  0.081846617   -3.2882057    1.5614868   439061 
 1272000    1.0421672   -3.2906412   -3.2906412   -1.7273939  0.085885384   -3.2906412    1.5632473   439061 
 1273000    1.0413302   -3.2897337   -3.2897337    -1.727742  0.083910554   -3.2897337    1.5619917   439061 
 1274000    1.0406447   -3.2898681   -3.2898681   -1.7289046  0.082855855   -3.2898681    1.5609635   439061 
 1275000    1.0425799   -3.2918629   -3.2918629   -1.7279965  0.077281317   -3.2918629    1.5638663   439061 
 1276000    1.0420733   -3.2921267   -3.2921267   -1.7290203  0.080902933   -3.2921267    1.5631063   439061 
 1277000    1.0401871   -3.2896215   -3.2896215   -1.7293443  0.083916842   -3.2896215    1.5602772   439061 
 1278000    1.0415147   -3.2913778   -3.2913778   -1.7291094  0.078511844   -3.2913778    1.5622685   439061 
 1279000    1.0416907   -3.2921259   -3.2921259   -1.7295935  0.083516838   -3.2921259    1.5625324   439061 
 1280000    1.0417742   -3.2937089   -3.2937089   -1.7310512  0.080574589   -3.2937089    1.5626578   439061 
 1281000    1.0401319   -3.2906806   -3.2906806   -1.7304863  0.083954823   -3.2906806    1.5601943   439061 
 1282000    1.0424571   -3.2921164   -3.2921164   -1.7284343  0.080970773   -3.2921164    1.5636821   439061 
 1283000    1.0424193   -3.2929214   -3.2929214    -1.729296  0.079676781   -3.2929214    1.5636254   439061 
 1284000    1.0402815   -3.2902724   -3.2902724   -1.7298538   0.08134382   -3.2902724    1.5604186   439061 
 1285000     1.043097    -3.293796    -3.293796   -1.7291541  0.077312833    -3.293796    1.5646419   439061 
 1286000    1.0410712   -3.2895538   -3.2895538   -1.7279506  0.084453733   -3.2895538    1.5616032   439061 
 1287000    1.0421246   -3.2906944   -3.2906944   -1.7275112  0.087574007   -3.2906944    1.5631833   439061 
 1288000    1.0412835   -3.2899627   -3.2899627    -1.728041  0.085945967   -3.2899627    1.5619217   439061 
 1289000    1.0420035   -3.2922477   -3.2922477   -1.7292461  0.080621636   -3.2922477    1.5630016   439061 
 1290000    1.0418285   -3.2924402   -3.2924402    -1.729701  0.081209329   -3.2924402    1.5627392   439061 
 1291000    1.0406273   -3.2903114   -3.2903114   -1.7293739  0.085400499   -3.2903114    1.5609375   439061 
 1292000    1.0405314   -3.2919068   -3.2919068   -1.7311133  0.085355801   -3.2919068    1.5607935   439061 
 1293000    1.0415469   -3.2926703   -3.2926703   -1.7303536  0.078882915   -3.2926703    1.5623167   439061 
 1294000    1.0416933   -3.2927079   -3.2927079   -1.7301715  0.087366285   -3.2927079    1.5625364   439061 
 1295000     1.041127   -3.2918852   -3.2918852   -1.7301982  0.082007539   -3.2918852     1.561687   439061 
 1296000    1.0418872   -3.2925142   -3.2925142   -1.7296869  0.078824747   -3.2925142    1.5628272   439061 
 1297000    1.0418085    -3.292748    -3.292748   -1.7300388  0.082353348    -3.292748    1.5627092   439061 
 1298000    1.0418025   -3.2932967   -3.2932967   -1.7305966  0.079807267   -3.2932967    1.5627002   439061 
 1299000    1.0410761   -3.2918944   -3.2918944   -1.7302838   0.08284123   -3.2918944    1.5616106   439061 
 1300000    1.0417986   -3.2918414   -3.2918414    -1.729147  0.078263677   -3.2918414    1.5626943   439061 
 1301000    1.0394771   -3.2902162   -3.2902162   -1.7310042  0.079309874   -3.2902162     1.559212   439061 
 1302000    1.0410629   -3.2917702   -3.2917702   -1.7301795  0.083802279   -3.2917702    1.5615907   439061 
 1303000    1.0396893   -3.2898692   -3.2898692   -1.7303388  0.082180147   -3.2898692    1.5595305   439061 
 1304000     1.040708   -3.2928635   -3.2928635    -1.731805  0.079082339   -3.2928635    1.5610585   439061 
 1305000    1.0401709   -3.2908893   -3.2908893   -1.7306364  0.081227041   -3.2908893    1.5602529   439061 
 1306000    1.0396806   -3.2915827   -3.2915827   -1.7320653  0.082558794   -3.2915827    1.5595173   439061 
 1307000    1.0392007   -3.2917967   -3.2917967   -1.7329992  0.077064306   -3.2917967    1.5587975   439061 
 1308000    1.0389215   -3.2914096   -3.2914096   -1.7330309  0.082689163   -3.2914096    1.5583787   439061 
 1309000    1.0400805   -3.2922231   -3.2922231   -1.7321059  0.080499881   -3.2922231    1.5601172   439061 
 1310000    1.0377059   -3.2907736   -3.2907736   -1.7342183  0.082345236   -3.2907736    1.5565553   439061 
 1311000    1.0384144   -3.2909129   -3.2909129   -1.7332948  0.081935154   -3.2909129    1.5576181   439061 
 1312000     1.039036    -3.292706    -3.292706   -1.7341556  0.084700232    -3.292706    1.5585505   439061 
 1313000     1.039824   -3.2936846   -3.2936846   -1.7339522  0.085860616   -3.2936846    1.5597324   439061 
 1314000    1.0404062   -3.2950553   -3.2950553   -1.7344496  0.081895539   -3.2950553    1.5606057   439061 
 1315000    1.0399969    -3.294621    -3.294621   -1.7346292  0.081392098    -3.294621    1.5599917   439061 
 1316000    1.0405408   -3.2948524   -3.2948524   -1.7340447  0.082986947   -3.2948524    1.5608077   439061 
 1317000    1.0416255   -3.2954264   -3.2954264   -1.7329917  0.083278543   -3.2954264    1.5624347   439061 
 1318000    1.0402612   -3.2944681   -3.2944681   -1.7340798  0.084712191   -3.2944681    1.5603883   439061 
 1319000    1.0420474   -3.2954804   -3.2954804   -1.7324129  0.080933052   -3.2954804    1.5630675   439061 
 1320000    1.0416678    -3.297269    -3.297269   -1.7347709  0.084234343    -3.297269    1.5624981   439061 
 1321000    1.0393833   -3.2952019   -3.2952019   -1.7361305  0.083715111   -3.2952019    1.5590714   439061 
 1322000     1.038627   -3.2953487   -3.2953487   -1.7374116  0.080600583   -3.2953487     1.557937   439061 
 1323000    1.0383446    -3.295923    -3.295923   -1.7384096  0.081490758    -3.295923    1.5575134   439061 
 1324000    1.0389726   -3.2956021   -3.2956021   -1.7371468  0.081519655   -3.2956021    1.5584553   439061 
 1325000    1.0373333   -3.2941843   -3.2941843   -1.7381879  0.078588737   -3.2941843    1.5559964   439061 
 1326000    1.0394883   -3.2976682   -3.2976682   -1.7384393  0.077030311   -3.2976682    1.5592289   439061 
 1327000    1.0401089   -3.2974748   -3.2974748    -1.737315  0.082833298   -3.2974748    1.5601598   439061 
 1328000    1.0385797   -3.2958342   -3.2958342   -1.7379683  0.083911802   -3.2958342    1.5578659   439061 
 1329000    1.0386282   -3.2962451   -3.2962451   -1.7383063  0.080663841   -3.2962451    1.5579387   439061 
 1330000    1.0396206   -3.2977198   -3.2977198   -1.7382924  0.081049552   -3.2977198    1.5594273   439061 
 1331000    1.0391659   -3.2983715   -3.2983715   -1.7396262  0.076430245   -3.2983715    1.5587453   439061 
 1332000    1.0370327   -3.2963837   -3.2963837   -1.7408383  0.079110378   -3.2963837    1.5555454   439061 
 1333000    1.0390385   -3.2978347   -3.2978347   -1.7392805  0.080224083   -3.2978347    1.5585542   439061 
 1334000    1.0401885   -3.3003891   -3.3003891   -1.7401099  0.083381377   -3.3003891    1.5602792   439061 
 1335000    1.0391935   -3.3003072   -3.3003072   -1.7415205  0.079491213   -3.3003072    1.5587867   439061 
 1336000    1.0392806   -3.3000448   -3.3000448   -1.7411275  0.083617609   -3.3000448    1.5589173   439061 
 1337000     1.039092   -3.3006862   -3.3006862   -1.7420518  0.083788641   -3.3006862    1.5586345   439061 
 1338000    1.0398629   -3.3021828   -3.3021828    -1.742392  0.080833074   -3.3021828    1.5597907   439061 
 1339000    1.0390479   -3.3024879   -3.3024879   -1.7439196  0.081546585   -3.3024879    1.5585683   439061 
 1340000    1.0399245   -3.3049059   -3.3049059   -1.7450227  0.078512463   -3.3049059    1.5598832   439061 
 1341000     1.037938   -3.3020037   -3.3020037   -1.7451002  0.084457344   -3.3020037    1.5569035   439061 
 1342000    1.0380227   -3.3019128   -3.3019128   -1.7448823  0.085135943   -3.3019128    1.5570305   439061 
 1343000    1.0391687   -3.3038782   -3.3038782   -1.7451286  0.081186954   -3.3038782    1.5587496   439061 
 1344000    1.0405482   -3.3040039   -3.3040039   -1.7431851   0.08508255   -3.3040039    1.5608187   439061 
 1345000    1.0407255   -3.3056366   -3.3056366    -1.744552   0.07979083   -3.3056366    1.5610847   439061 
 1346000    1.0391543   -3.3029407   -3.3029407   -1.7442127  0.086422314   -3.3029407     1.558728   439061 
 1347000    1.0395873   -3.3029025   -3.3029025   -1.7435251  0.085554518   -3.3029025    1.5593774   439061 
 1348000    1.0398161   -3.3040727   -3.3040727   -1.7443521  0.079930155   -3.3040727    1.5597205   439061 
 1349000    1.0400692   -3.3057248   -3.3057248   -1.7456246  0.084982758   -3.3057248    1.5601003   439061 
 1350000     1.039515   -3.3042383   -3.3042383   -1.7449694  0.082049447   -3.3042383     1.559269   439061 
 1351000    1.0392456   -3.3056059   -3.3056059   -1.7467411  0.079115633   -3.3056059    1.5588648   439061 
 1352000    1.0363803   -3.3010485   -3.3010485   -1.7464817  0.086608943   -3.3010485    1.5545668   439061 
 1353000    1.0386505   -3.3031263   -3.3031263   -1.7451541  0.080756173   -3.3031263    1.5579722   439061 
 1354000    1.0386293   -3.3037447   -3.3037447   -1.7458043  0.077913414   -3.3037447    1.5579404   439061 
 1355000    1.0395385   -3.3040528   -3.3040528   -1.7447487  0.079023932   -3.3040528    1.5593042   439061 
 1356000    1.0381731   -3.3025386   -3.3025386   -1.7452825  0.079153585   -3.3025386    1.5572561   439061 
 1357000    1.0391966   -3.3037743   -3.3037743   -1.7449829   0.07701552   -3.3037743    1.5587914   439061 
 1358000    1.0390071   -3.3048486   -3.3048486   -1.7463415  0.076155395   -3.3048486    1.5585072   439061 
 1359000     1.039276   -3.3050162   -3.3050162   -1.7461058  0.081000968   -3.3050162    1.5589105   439061 
 1360000    1.0404602   -3.3060689   -3.3060689   -1.7453821  0.080520439   -3.3060689    1.5606868   439061 
 1361000    1.0379551   -3.3034203   -3.3034203   -1.7464913  0.084251362   -3.3034203    1.5569291   439061 
 1362000    1.0393347   -3.3048564   -3.3048564   -1.7458579  0.081912677   -3.3048564    1.5589985   439061 
 1363000    1.0392538   -3.3045364   -3.3045364   -1.7456593  0.078638894   -3.3045364    1.5588771   439061 
 1364000    1.0367948   -3.3010059   -3.3010059   -1.7458172   0.08449935   -3.3010059    1.5551887   439061 
 1365000    1.0370287   -3.3017956   -3.3017956   -1.7462561  0.075989873   -3.3017956    1.5555396   439061 
 1366000    1.0382584   -3.3051933   -3.3051933   -1.7478091  0.079235481   -3.3051933    1.5573841   439061 
 1367000    1.0384582   -3.3054861   -3.3054861   -1.7478023   0.07861656   -3.3054861    1.5576838   439061 
 1368000    1.0382094   -3.3050982   -3.3050982   -1.7477877  0.078659979   -3.3050982    1.5573105   439061 
 1369000    1.0371095   -3.3048662   -3.3048662   -1.7492055  0.080216964   -3.3048662    1.5556606   439061 
 1370000    1.0377726   -3.3060082   -3.3060082   -1.7493529  0.082428078   -3.3060082    1.5566554   439061 
 1371000     1.037363    -3.304294    -3.304294    -1.748253  0.083729302    -3.304294     1.556041   439061 
 1372000    1.0381592   -3.3061131   -3.3061131   -1.7488778  0.079756992   -3.3061131    1.5572353   439061 
 1373000    1.0384241   -3.3070112   -3.3070112   -1.7493787  0.077970709   -3.3070112    1.5576325   439061 
 1374000    1.0386098   -3.3083923   -3.3083923   -1.7504812  0.080191834   -3.3083923    1.5579111   439061 
 1375000    1.0375086   -3.3056103   -3.3056103    -1.749351  0.083818156   -3.3056103    1.5562593   439061 
 1376000    1.0375262    -3.306411    -3.306411   -1.7501253  0.079872243    -3.306411    1.5562858   439061 
 1377000     1.037697   -3.3069554   -3.3069554   -1.7504135  0.085489235   -3.3069554     1.556542   439061 
 1378000    1.0374497   -3.3068027   -3.3068027   -1.7506317   0.08181916   -3.3068027     1.556171   439061 
 1379000    1.0397391   -3.3107439   -3.3107439   -1.7511388  0.078795118   -3.3107439    1.5596051   439061 
 1380000    1.0376913   -3.3096743   -3.3096743   -1.7531409  0.080686875   -3.3096743    1.5565335   439061 
 1381000    1.0386983   -3.3100236   -3.3100236   -1.7519798  0.084131471   -3.3100236    1.5580438   439061 
 1382000    1.0384339   -3.3095184   -3.3095184   -1.7518711  0.081162297   -3.3095184    1.5576473   439061 
 1383000     1.039885   -3.3123503   -3.3123503   -1.7525264  0.081284806   -3.3123503    1.5598239   439061 
 1384000    1.0380268   -3.3105392   -3.3105392   -1.7535025  0.077365767   -3.3105392    1.5570367   439061 
 1385000    1.0369239   -3.3092137   -3.3092137   -1.7538313   0.08044296   -3.3092137    1.5553824   439061 
 1386000    1.0381287   -3.3114163   -3.3114163   -1.7542269  0.082255082   -3.3114163    1.5571895   439061 
 1387000     1.038472   -3.3100972   -3.3100972   -1.7523927  0.080626176   -3.3100972    1.5577045   439061 
 1388000    1.0369108   -3.3082901   -3.3082901   -1.7529274  0.083953206   -3.3082901    1.5553627   439061 
 1389000    1.0375986   -3.3096624   -3.3096624   -1.7532681  0.079890254   -3.3096624    1.5563943   439061 
 1390000    1.0384159   -3.3112089   -3.3112089   -1.7535886  0.075640016   -3.3112089    1.5576203   439061 
 1391000    1.0372714   -3.3102783   -3.3102783   -1.7543748  0.083730078   -3.3102783    1.5559036   439061 
 1392000    1.0389834   -3.3126206   -3.3126206    -1.754149  0.079036543   -3.3126206    1.5584716   439061 
 1393000    1.0371136   -3.3093376   -3.3093376   -1.7536708  0.083606916   -3.3093376    1.5556669   439061 
 1394000     1.036819     -3.30972     -3.30972    -1.754495   0.07885544     -3.30972     1.555225   439061 
 1395000    1.0354876   -3.3093714   -3.3093714   -1.7561436  0.076174334   -3.3093714    1.5532278   439061 
 1396000     1.038107   -3.3127415   -3.3127415   -1.7555846  0.074801938   -3.3127415     1.557157   439061 
 1397000     1.037409    -3.311992    -3.311992   -1.7558821  0.077989051    -3.311992    1.5561099   439061 
 1398000     1.036836   -3.3104327   -3.3104327   -1.7551823  0.077729973   -3.3104327    1.5552505   439061 
 1399000    1.0365507   -3.3105952   -3.3105952   -1.7557727  0.081533022   -3.3105952    1.5548225   439061 
 1400000    1.0363127   -3.3108002   -3.3108002   -1.7563346  0.074700944   -3.3108002    1.5544656   439061 
 1401000    1.0375778   -3.3115042   -3.3115042   -1.7551411   0.07840084   -3.3115042    1.5563631   439061 
 1402000    1.0368676   -3.3102333   -3.3102333   -1.7549355  0.073774284   -3.3102333    1.5552978   439061 
 1403000    1.0380927   -3.3128019   -3.3128019   -1.7556664   0.07727093   -3.3128019    1.5571355   439061 
 1404000    1.0380632    -3.313373    -3.313373   -1.7562817  0.078884395    -3.313373    1.5570913   439061 
 1405000    1.0379531   -3.3129041   -3.3129041    -1.755978  0.077867564   -3.3129041    1.5569262   439061 
 1406000    1.0379144     -3.31212     -3.31212   -1.7552519  0.080860935     -3.31212     1.556868   439061 
 1407000    1.0379761   -3.3121886   -3.3121886    -1.755228    0.0835537   -3.3121886    1.5569606   439061 
 1408000    1.0393319   -3.3152449   -3.3152449   -1.7562506  0.075173894   -3.3152449    1.5589944   439061 
 1409000    1.0378472   -3.3124807   -3.3124807   -1.7557135  0.080519511   -3.3124807    1.5567672   439061 
 1410000    1.0392364   -3.3144845   -3.3144845   -1.7556335    0.0808264   -3.3144845     1.558851   439061 
 1411000    1.0376642   -3.3134687   -3.3134687   -1.7569759  0.084107335   -3.3134687    1.5564928   439061 
 1412000    1.0377725   -3.3126789   -3.3126789   -1.7560237  0.084583116   -3.3126789    1.5566552   439061 
 1413000    1.0391816   -3.3147296   -3.3147296   -1.7559608  0.084084463   -3.3147296    1.5587688   439061 
 1414000    1.0377429   -3.3122503   -3.3122503   -1.7556396  0.081292758   -3.3122503    1.5566108   439061 
 1415000    1.0372225   -3.3130437   -3.3130437   -1.7572135  0.080274149   -3.3130437    1.5558303   439061 
 1416000    1.0369442   -3.3116706   -3.3116706   -1.7562579   0.07916019   -3.3116706    1.5554127   439061 
 1417000    1.0379139   -3.3132675   -3.3132675   -1.7564002  0.086252855   -3.3132675    1.5568673   439061 
 1418000    1.0368413   -3.3121613   -3.3121613   -1.7569029  0.078760644   -3.3121613    1.5552584   439061 
 1419000    1.0365221   -3.3122768   -3.3122768   -1.7574972  0.078674853   -3.3122768    1.5547796   439061 
 1420000    1.0346845     -3.31087     -3.31087   -1.7588468  0.081114996     -3.31087    1.5520232   439061 
 1421000    1.0368495   -3.3131947   -3.3131947   -1.7579239  0.077843609   -3.3131947    1.5552708   439061 
 1422000    1.0372075    -3.312865    -3.312865   -1.7570573  0.074802441    -3.312865    1.5558077   439061 
 1423000    1.0355677   -3.3123794   -3.3123794   -1.7590314  0.081450303   -3.3123794     1.553348   439061 
 1424000    1.0348391   -3.3129122   -3.3129122   -1.7606571  0.080043724   -3.3129122    1.5522551   439061 
 1425000    1.0335905   -3.3106935   -3.3106935   -1.7603113  0.082610472   -3.3106935    1.5503822   439061 
 1426000    1.0350003   -3.3142899   -3.3142899    -1.761793  0.075672564   -3.3142899    1.5524969   439061 
 1427000     1.034379   -3.3127836   -3.3127836   -1.7612186  0.076460601   -3.3127836     1.551565   439061 
 1428000     1.035551   -3.3142024   -3.3142024   -1.7608795  0.079217608   -3.3142024    1.5533229   439061 
 1429000     1.036183   -3.3152854   -3.3152854   -1.7610145  0.079711572   -3.3152854    1.5542709   439061 
 1430000    1.0360718   -3.3159436   -3.3159436   -1.7618395  0.073511089   -3.3159436    1.5541041   439061 
 1431000     1.034464   -3.3140413   -3.3140413   -1.7623489  0.084904873   -3.3140413    1.5516924   439061 
 1432000    1.0367095   -3.3170943   -3.3170943   -1.7620337  0.081473683   -3.3170943    1.5550606   439061 
 1433000    1.0358696   -3.3151637   -3.3151637   -1.7613629  0.082198951   -3.3151637    1.5538008   439061 
 1434000    1.0379584   -3.3181594   -3.3181594   -1.7612253  0.083492613   -3.3181594    1.5569341   439061 
 1435000    1.0371869   -3.3183528   -3.3183528   -1.7625759  0.083968055   -3.3183528    1.5557769   439061 
 1436000    1.0373704   -3.3187744   -3.3187744   -1.7627224   0.07954921   -3.3187744     1.556052   439061 
 1437000     1.037929   -3.3193803   -3.3193803   -1.7624904  0.079975438   -3.3193803      1.55689   439061 
 1438000    1.0378926   -3.3199937   -3.3199937   -1.7631583  0.078988878   -3.3199937    1.5568354   439061 
 1439000    1.0367242   -3.3171106   -3.3171106   -1.7620278  0.078980955   -3.3171106    1.5550828   439061 
 1440000    1.0363697   -3.3182051   -3.3182051    -1.763654  0.080642156   -3.3182051    1.5545511   439061 
 1441000    1.0378888   -3.3209119   -3.3209119   -1.7640822  0.077695996   -3.3209119    1.5568297   439061 
 1442000    1.0372143   -3.3213447   -3.3213447   -1.7655268  0.075627329   -3.3213447    1.5558179   439061 
 1443000    1.0364694   -3.3198777   -3.3198777   -1.7651772  0.077319862   -3.3198777    1.5547005   439061 
 1444000      1.03507    -3.317962    -3.317962   -1.7653606  0.077711053    -3.317962    1.5526014   439061 
 1445000    1.0377047   -3.3213123   -3.3213123   -1.7647588  0.082270873   -3.3213123    1.5565535   439061 
 1446000    1.0366018   -3.3213059   -3.3213059   -1.7664067   0.07685222   -3.3213059    1.5548992   439061 
 1447000    1.0385157   -3.3221729   -3.3221729   -1.7644029  0.077187456   -3.3221729      1.55777   439061 
 1448000    1.0369807   -3.3214009   -3.3214009   -1.7659334  0.081804085   -3.3214009    1.5554675   439061 
 1449000    1.0372815   -3.3211243   -3.3211243   -1.7652055  0.079368603   -3.3211243    1.5559187   439061 
 1450000    1.0364909   -3.3193858   -3.3193858    -1.764653  0.083401975   -3.3193858    1.5547328   439061 
 1451000    1.0367269   -3.3200846   -3.3200846   -1.7649978   0.08527394   -3.3200846    1.5550868   439061 
 1452000    1.0369203   -3.3212069   -3.3212069     -1.76583  0.080633012   -3.3212069    1.5553769   439061 
 1453000     1.035762   -3.3195143   -3.3195143   -1.7658747  0.080938901   -3.3195143    1.5536395   439061 
 1454000    1.0368829   -3.3219771   -3.3219771   -1.7666563  0.080869927   -3.3219771    1.5553208   439061 
 1455000    1.0365539   -3.3215284   -3.3215284   -1.7667012  0.079394937   -3.3215284    1.5548273   439061 
 1456000    1.0348071    -3.320156    -3.320156   -1.7679489  0.081665839    -3.320156    1.5522071   439061 
 1457000     1.036028   -3.3217223   -3.3217223   -1.7676839  0.075801127   -3.3217223    1.5540384   439061 
 1458000    1.0346695   -3.3196138   -3.3196138   -1.7676131  0.071275616   -3.3196138    1.5520007   439061 
 1459000    1.0350673   -3.3216333   -3.3216333   -1.7690359  0.074829468   -3.3216333    1.5525974   439061 
 1460000    1.0373288   -3.3234622   -3.3234622   -1.7674726  0.080333097   -3.3234622    1.5559896   439061 
 1461000    1.0372789   -3.3213989   -3.3213989   -1.7654841  0.076723015   -3.3213989    1.5559148   439061 
 1462000    1.0351302   -3.3208725   -3.3208725   -1.7681808  0.077249079   -3.3208725    1.5526917   439061 
 1463000    1.0360296    -3.321409    -3.321409   -1.7673681  0.076385091    -3.321409    1.5540409   439061 
 1464000    1.0353648   -3.3212504   -3.3212504   -1.7682067  0.081529317   -3.3212504    1.5530436   439061 
 1465000    1.0358062   -3.3213856   -3.3213856   -1.7676798  0.083890768   -3.3213856    1.5537058   439061 
 1466000     1.036857    -3.323961    -3.323961    -1.768679  0.083288812    -3.323961    1.5552819   439061 
 1467000    1.0360984   -3.3233355   -3.3233355   -1.7691914  0.072908066   -3.3233355    1.5541441   439061 
 1468000    1.0351934   -3.3227582   -3.3227582   -1.7699716  0.075182157   -3.3227582    1.5527866   439061 
 1469000     1.034892   -3.3227489   -3.3227489   -1.7704145  0.073385657   -3.3227489    1.5523344   439061 
 1470000     1.034467   -3.3223338   -3.3223338   -1.7706368  0.073443004   -3.3223338     1.551697   439061 
 1471000    1.0362512   -3.3258492   -3.3258492    -1.771476  0.076546464   -3.3258492    1.5543733   439061 
 1472000    1.0337856   -3.3228753   -3.3228753   -1.7722005  0.078395028   -3.3228753    1.5506748   439061 
 1473000    1.0331835   -3.3213983   -3.3213983   -1.7716266  0.071480818   -3.3213983    1.5497717   439061 
 1474000    1.0337478   -3.3220385   -3.3220385   -1.7714203  0.076426348   -3.3220385    1.5506182   439061 
 1475000     1.035284   -3.3248398   -3.3248398   -1.7719173  0.079977763   -3.3248398    1.5529225   439061 
 1476000    1.0357108   -3.3265794   -3.3265794   -1.7730168  0.077174875   -3.3265794    1.5535626   439061 
 1477000     1.035958   -3.3258685   -3.3258685   -1.7719351  0.076108832   -3.3258685    1.5539335   439061 
 1478000    1.0347128   -3.3248928   -3.3248928   -1.7728272  0.079324893   -3.3248928    1.5520656   439061 
 1479000    1.0333669   -3.3232594   -3.3232594   -1.7732126  0.079813508   -3.3232594    1.5500468   439061 
 1480000    1.0340803   -3.3252693   -3.3252693   -1.7741524  0.076894809   -3.3252693    1.5511169   439061 
 1481000    1.0360859   -3.3279665   -3.3279665   -1.7738412  0.080184617   -3.3279665    1.5541253   439061 
 1482000    1.0345978   -3.3262083   -3.3262083   -1.7743152  0.078093006   -3.3262083    1.5518932   439061 
 1483000    1.0346122   -3.3256148   -3.3256148   -1.7737001  0.079608097   -3.3256148    1.5519147   439061 
 1484000    1.0341009   -3.3274558   -3.3274558   -1.7763079   0.07825884   -3.3274558    1.5511479   439061 
 1485000    1.0345303   -3.3301638   -3.3301638   -1.7783719   0.07546127   -3.3301638    1.5517919   439061 
 1486000    1.0333186   -3.3291797   -3.3291797   -1.7792054  0.077910033   -3.3291797    1.5499744   439061 
 1487000    1.0321897    -3.328147    -3.328147   -1.7798659  0.079098367    -3.328147     1.548281   439061 
 1488000    1.0336158   -3.3293375   -3.3293375   -1.7789174  0.080804899   -3.3293375    1.5504201   439061 
 1489000    1.0337118   -3.3289194   -3.3289194   -1.7783553  0.077936481   -3.3289194    1.5505642   439061 
 1490000    1.0337679   -3.3295903   -3.3295903    -1.778942  0.076033762   -3.3295903    1.5506483   439061 
 1491000    1.0347329   -3.3291273   -3.3291273   -1.7770315  0.079255379   -3.3291273    1.5520958   439061 
 1492000    1.0353989   -3.3314065   -3.3314065   -1.7783117  0.080135076   -3.3314065    1.5530948   439061 
 1493000    1.0338523   -3.3290521   -3.3290521   -1.7782772  0.083198888   -3.3290521    1.5507749   439061 
 1494000    1.0350374   -3.3308174   -3.3308174   -1.7782648  0.081511007   -3.3308174    1.5525525   439061 
 1495000    1.0347865   -3.3307269   -3.3307269   -1.7785508  0.079194182   -3.3307269    1.5521761   439061 
 1496000    1.0340264   -3.3300451   -3.3300451    -1.779009  0.078698189   -3.3300451    1.5510361   439061 
 1497000    1.0344112   -3.3311886   -3.3311886   -1.7795754  0.073019789   -3.3311886    1.5516133   439061 
 1498000    1.0340134   -3.3301887   -3.3301887   -1.7791721  0.076811256   -3.3301887    1.5510166   439061 
 1499000    1.0326479   -3.3280825   -3.3280825   -1.7791143  0.084752463   -3.3280825    1.5489683   439061 
 1500000    1.0335616   -3.3320284   -3.3320284   -1.7816895  0.078585317   -3.3320284    1.5503389   439061 
 1501000    1.0334927   -3.3325922   -3.3325922   -1.7823567  0.078878826   -3.3325922    1.5502355   439061 
 1502000    1.0345241   -3.3335404   -3.3335404   -1.7817578  0.079227232   -3.3335404    1.5517826   439061 
 1503000    1.0317635   -3.3294904   -3.3294904   -1.7818487  0.077880442   -3.3294904    1.5476417   439061 
 1504000    1.0314562   -3.3306768   -3.3306768    -1.783496   0.07833855   -3.3306768    1.5471808   439061 
 1505000    1.0318357   -3.3304143   -3.3304143   -1.7826643   0.08097381   -3.3304143      1.54775   439061 
 1506000    1.0324231   -3.3314878   -3.3314878   -1.7828567   0.07668809   -3.3314878    1.5486311   439061 
 1507000    1.0339861   -3.3329067   -3.3329067    -1.781931  0.075506827   -3.3329067    1.5509757   439061 
 1508000     1.033732    -3.333167    -3.333167   -1.7825726  0.076836017    -3.333167    1.5505945   439061 
 1509000    1.0332134   -3.3310421   -3.3310421   -1.7812254  0.081185292   -3.3310421    1.5498166   439061 
 1510000     1.033501   -3.3320235   -3.3320235   -1.7817755  0.081962822   -3.3320235     1.550248   439061 
 1511000    1.0342431    -3.331693    -3.331693   -1.7803319  0.080181011    -3.331693    1.5513611   439061 
 1512000    1.0356892   -3.3341988   -3.3341988   -1.7806685  0.077851681   -3.3341988    1.5535303   439061 
 1513000    1.0354822   -3.3326497   -3.3326497     -1.77943  0.082335948   -3.3326497    1.5532197   439061 
 1514000    1.0350266   -3.3338079   -3.3338079   -1.7812715  0.081643104   -3.3338079    1.5525364   439061 
 1515000    1.0338532    -3.332864    -3.332864   -1.7820878  0.077612256    -3.332864    1.5507762   439061 
 1516000    1.0343432   -3.3328945   -3.3328945   -1.7813832  0.075338984   -3.3328945    1.5515113   439061 
 1517000     1.035881   -3.3349826   -3.3349826   -1.7811646  0.075427761   -3.3349826     1.553818   439061 
 1518000    1.0342308   -3.3330971   -3.3330971   -1.7817544  0.078395933   -3.3330971    1.5513427   439061 
 1519000    1.0341852   -3.3328336   -3.3328336   -1.7815594  0.074276341   -3.3328336    1.5512742   439061 
 1520000    1.0338938   -3.3339405   -3.3339405   -1.7831033  0.081266163   -3.3339405    1.5508372   439061 
 1521000    1.0316134   -3.3324203   -3.3324203   -1.7850036  0.074867673   -3.3324203    1.5474166   439061 
 1522000    1.0330345   -3.3326166   -3.3326166   -1.7830684  0.077494204   -3.3326166    1.5495483   439061 
 1523000    1.0316145   -3.3309749   -3.3309749   -1.7835567  0.078242804   -3.3309749    1.5474182   439061 
 1524000    1.0312767   -3.3319766   -3.3319766    -1.785065  0.082333329   -3.3319766    1.5469115   439061 
 1525000    1.0336064   -3.3350424   -3.3350424   -1.7846363  0.077765092   -3.3350424    1.5504061   439061 
 1526000     1.033727   -3.3349407   -3.3349407   -1.7843538  0.073603925   -3.3349407    1.5505869   439061 
 1527000    1.0323192   -3.3319996   -3.3319996   -1.7835244  0.078694985   -3.3319996    1.5484752   439061 
 1528000    1.0336712   -3.3332309   -3.3332309   -1.7827277  0.074165456   -3.3332309    1.5505032   439061 
 1529000    1.0330243   -3.3313742   -3.3313742   -1.7818413  0.073705659   -3.3313742     1.549533   439061 
 1530000    1.0329827   -3.3335622   -3.3335622   -1.7840916  0.074407692   -3.3335622    1.5494706   439061 
 1531000    1.0316111     -3.33109     -3.33109   -1.7836769  0.077814232     -3.33109    1.5474131   439061 
 1532000    1.0345674    -3.334145    -3.334145   -1.7822974  0.073406996    -3.334145    1.5518476   439061 
 1533000    1.0354345   -3.3348666   -3.3348666   -1.7817184  0.074967228   -3.3348666    1.5531483   439061 
 1534000    1.0341664   -3.3323212   -3.3323212   -1.7810751  0.078239735   -3.3323212    1.5512461   439061 
 1535000    1.0352427    -3.333025    -3.333025   -1.7801645  0.080397671    -3.333025    1.5528605   439061 
 1536000    1.0356209    -3.334529    -3.334529   -1.7811011  0.078010481    -3.334529    1.5534278   439061 
 1537000    1.0341384   -3.3330136   -3.3330136   -1.7818094  0.075129762   -3.3330136    1.5512041   439061 
 1538000    1.0345931    -3.333667    -3.333667   -1.7817808   0.07669522    -3.333667    1.5518861   439061 
 1539000    1.0332729   -3.3325908   -3.3325908    -1.782685  0.078564915   -3.3325908    1.5499058   439061 
 1540000    1.0331348   -3.3330958   -3.3330958   -1.7833971  0.073950615   -3.3330958    1.5496986   439061 
 1541000    1.0330264   -3.3331248   -3.3331248   -1.7835887  0.076276566   -3.3331248    1.5495361   439061 
 1542000    1.0312125   -3.3317713   -3.3317713    -1.784956  0.081253162   -3.3317713    1.5468153   439061 
 1543000    1.0328624   -3.3335508   -3.3335508   -1.7842608  0.079595258   -3.3335508      1.54929   439061 
 1544000    1.0336522   -3.3353525   -3.3353525   -1.7848777  0.077663913   -3.3353525    1.5504748   439061 
 1545000     1.033034   -3.3354546   -3.3354546   -1.7859071  0.076164226   -3.3354546    1.5495475   439061 
 1546000    1.0337272   -3.3373071   -3.3373071   -1.7867198   0.07312435   -3.3373071    1.5505873   439061 
 1547000    1.0335773   -3.3354023   -3.3354023     -1.78504  0.078136722   -3.3354023    1.5503623   439061 
 1548000    1.0337805   -3.3364881   -3.3364881   -1.7858208  0.075143871   -3.3364881    1.5506673   439061 
 1549000    1.0343078   -3.3357437   -3.3357437   -1.7842855  0.076267925   -3.3357437    1.5514582   439061 
 1550000    1.0342362   -3.3350571   -3.3350571   -1.7837063  0.078365267   -3.3350571    1.5513508   439061 
 1551000    1.0350431   -3.3375998   -3.3375998   -1.7850386  0.074520136   -3.3375998    1.5525611   439061 
 1552000    1.0344936   -3.3362208   -3.3362208    -1.784484  0.080399647   -3.3362208    1.5517368   439061 
 1553000     1.035429    -3.338893    -3.338893    -1.785753  0.080535301    -3.338893      1.55314   439061 
 1554000    1.0358036   -3.3396981   -3.3396981   -1.7859962  0.077792383   -3.3396981    1.5537018   439061 
 1555000    1.0348563   -3.3371155   -3.3371155   -1.7848346  0.079884437   -3.3371155    1.5522809   439061 
 1556000    1.0345904   -3.3373414   -3.3373414   -1.7854594  0.080656487   -3.3373414     1.551882   439061 
 1557000    1.0347855    -3.336964    -3.336964   -1.7847893  0.077230574    -3.336964    1.5521747   439061 
 1558000    1.0348901   -3.3382523   -3.3382523   -1.7859207  0.075459197   -3.3382523    1.5523316   439061 
 1559000    1.0342252    -3.336294    -3.336294   -1.7849598   0.07949895    -3.336294    1.5513342   439061 
 1560000    1.0330034   -3.3365594   -3.3365594   -1.7870579  0.078420266   -3.3365594    1.5495015   439061 
 1561000    1.0341228   -3.3379965   -3.3379965   -1.7868158  0.072734634   -3.3379965    1.5511807   439061 
 1562000    1.0338005   -3.3384109   -3.3384109   -1.7877137  0.074734488   -3.3384109    1.5506972   439061 
 1563000    1.0346209    -3.340613    -3.340613   -1.7886852  0.072273251    -3.340613    1.5519278   439061 
 1564000    1.0331093   -3.3396685   -3.3396685   -1.7900081  0.076926332   -3.3396685    1.5496604   439061 
 1565000    1.0326954   -3.3377665   -3.3377665   -1.7887269  0.067732208   -3.3377665    1.5490396   439061 
 1566000    1.0310771   -3.3363005   -3.3363005   -1.7896883  0.075341949   -3.3363005    1.5466122   439061 
 1567000    1.0321246   -3.3377657   -3.3377657   -1.7895824  0.076043217   -3.3377657    1.5481833   439061 
 1568000    1.0325628   -3.3369084   -3.3369084   -1.7880678  0.068706514   -3.3369084    1.5488406   439061 
 1569000    1.0326195    -3.338649    -3.338649   -1.7897232  0.074692717    -3.338649    1.5489257   439061 
 1570000    1.0328898   -3.3393904   -3.3393904   -1.7900593  0.080921582   -3.3393904    1.5493311   439061 
 1571000    1.0320687   -3.3368345   -3.3368345   -1.7887349  0.075461653   -3.3368345    1.5480996   439061 
 1572000    1.0339173   -3.3381751   -3.3381751   -1.7873027   0.07730477   -3.3381751    1.5508724   439061 
 1573000    1.0349565   -3.3410048   -3.3410048   -1.7885737  0.078844398   -3.3410048    1.5524312   439061 
 1574000    1.0352203   -3.3410211   -3.3410211   -1.7881941  0.079548634   -3.3410211     1.552827   439061 
 1575000    1.0355631    -3.341178    -3.341178   -1.7878369  0.076043993    -3.341178     1.553341   439061 
 1576000    1.0336972   -3.3400599   -3.3400599   -1.7895177  0.080675968   -3.3400599    1.5505422   439061 
 1577000     1.032768    -3.340135    -3.340135   -1.7909865  0.075468329    -3.340135    1.5491485   439061 
 1578000     1.033724   -3.3409086   -3.3409086   -1.7903261  0.074069474   -3.3409086    1.5505824   439061 
 1579000    1.0337676   -3.3420509   -3.3420509   -1.7914031  0.071273754   -3.3420509    1.5506478   439061 
 1580000    1.0331634   -3.3412337   -3.3412337   -1.7914922  0.072216301   -3.3412337    1.5497415   439061 
 1581000    1.0329339   -3.3397166   -3.3397166   -1.7903193   0.07213855   -3.3397166    1.5493973   439061 
 1582000    1.0340703   -3.3433184   -3.3433184   -1.7922164  0.071604967   -3.3433184     1.551102   439061 
 1583000    1.0336459   -3.3441881   -3.3441881   -1.7937228  0.076317587   -3.3441881    1.5504653   439061 
 1584000    1.0340976   -3.3447229   -3.3447229   -1.7935801  0.079834638   -3.3447229    1.5511429   439061 
 1585000    1.0330323   -3.3426921   -3.3426921   -1.7931472  0.078322804   -3.3426921    1.5495449   439061 
 1586000    1.0330114   -3.3417728   -3.3417728   -1.7922593  0.074624714   -3.3417728    1.5495135   439061 
 1587000    1.0327381   -3.3416816   -3.3416816    -1.792578  0.077645227   -3.3416816    1.5491037   439061 
 1588000    1.0324914   -3.3408758   -3.3408758   -1.7921422  0.079155009   -3.3408758    1.5487336   439061 
 1589000    1.0330328   -3.3418665   -3.3418665   -1.7923208  0.075947148   -3.3418665    1.5495457   439061 
 1590000    1.0313667   -3.3398642   -3.3398642   -1.7928177  0.084308891   -3.3398642    1.5470465   439061 
 1591000    1.0329897   -3.3435711   -3.3435711     -1.79409  0.069083397   -3.3435711    1.5494811   439061 
 1592000    1.0308608   -3.3424414   -3.3424414   -1.7961537  0.069999169   -3.3424414    1.5462877   439061 
 1593000    1.0300607   -3.3422849   -3.3422849   -1.7971973  0.075276282   -3.3422849    1.5450876   439061 
 1594000    1.0322462   -3.3438178   -3.3438178    -1.795452  0.075924406   -3.3438178    1.5483658   439061 
 1595000    1.0333041   -3.3443591   -3.3443591   -1.7944064  0.076703759   -3.3443591    1.5499526   439061 
 1596000    1.0325525   -3.3431809   -3.3431809   -1.7943557  0.073300182   -3.3431809    1.5488252   439061 
 1597000    1.0334091   -3.3451392   -3.3451392   -1.7950292  0.070995139   -3.3451392    1.5501101   439061 
 1598000    1.0326561   -3.3435569   -3.3435569   -1.7945763  0.079511842   -3.3435569    1.5489806   439061 
 1599000     1.033065   -3.3440257   -3.3440257   -1.7944318  0.077336701   -3.3440257    1.5495939   439061 
 1600000    1.0339832    -3.343915    -3.343915   -1.7929437  0.079499514    -3.343915    1.5509713   439061 
 1601000    1.0321868   -3.3422415   -3.3422415   -1.7939649  0.081244811   -3.3422415    1.5482766   439061 
 1602000    1.0342324   -3.3457452   -3.3457452   -1.7944001  0.077521994   -3.3457452    1.5513451   439061 
 1603000    1.0331158     -3.34325     -3.34325   -1.7935798  0.080312877     -3.34325    1.5496702   439061 
 1604000    1.0325991   -3.3433229   -3.3433229   -1.7944278   0.07155213   -3.3433229    1.5488951   439061 
 1605000    1.0315148   -3.3421161   -3.3421161   -1.7948475  0.074699609   -3.3421161    1.5472686   439061 
 1606000    1.0316953   -3.3426174   -3.3426174    -1.795078  0.073584052   -3.3426174    1.5475394   439061 
 1607000    1.0319271   -3.3444864   -3.3444864   -1.7965993  0.071113374   -3.3444864    1.5478872   439061 
 1608000    1.0298021   -3.3434472   -3.3434472   -1.7987475  0.074993504   -3.3434472    1.5446997   439061 
 1609000    1.0301682   -3.3446327   -3.3446327   -1.7993839   0.06923028   -3.3446327    1.5452488   439061 
 1610000    1.0292933   -3.3428146   -3.3428146   -1.7988781  0.078817107   -3.3428146    1.5439364   439061 
 1611000    1.0293678   -3.3421711   -3.3421711   -1.7981229   0.07316679   -3.3421711    1.5440481   439061 
 1612000    1.0306611    -3.343211    -3.343211   -1.7972228   0.07464538    -3.343211    1.5459882   439061 
 1613000    1.0319528   -3.3444897   -3.3444897    -1.796564   0.07379005   -3.3444897    1.5479257   439061 
 1614000    1.0327753   -3.3447967   -3.3447967   -1.7956374  0.075585021   -3.3447967    1.5491594   439061 
 1615000      1.03325   -3.3468429   -3.3468429   -1.7969714  0.072255505   -3.3468429    1.5498714   439061 
 1616000    1.0339588   -3.3464249   -3.3464249   -1.7954902  0.077261411   -3.3464249    1.5509346   439061 
 1617000    1.0326592   -3.3468322   -3.3468322    -1.797847  0.078127321   -3.3468322    1.5489852   439061 
 1618000    1.0343299   -3.3484259   -3.3484259   -1.7969345  0.077003174   -3.3484259    1.5514914   439061 
 1619000    1.0320722   -3.3440163   -3.3440163   -1.7959115  0.079965642   -3.3440163    1.5481048   439061 
 1620000    1.0327382   -3.3462425   -3.3462425   -1.7971388  0.076373371   -3.3462425    1.5491037   439061 
 1621000    1.0326895   -3.3455169   -3.3455169   -1.7964861  0.075043243   -3.3455169    1.5490308   439061 
 1622000    1.0323528   -3.3472358   -3.3472358   -1.7987101  0.075120519   -3.3472358    1.5485257   439061 
 1623000    1.0322173   -3.3480493   -3.3480493   -1.7997269  0.071868434   -3.3480493    1.5483224   439061 
 1624000    1.0314731   -3.3471099   -3.3471099   -1.7999038  0.075784578   -3.3471099    1.5472062   439061 
 1625000    1.0304302   -3.3464125   -3.3464125   -1.8007707  0.076437569   -3.3464125    1.5456418   439061 
 1626000     1.032953   -3.3499331   -3.3499331   -1.8005071  0.073101965   -3.3499331    1.5494259   439061 
 1627000    1.0315359   -3.3476741   -3.3476741   -1.8003738  0.074427751   -3.3476741    1.5473004   439061 
 1628000     1.032215   -3.3484892   -3.3484892   -1.8001702  0.079468621   -3.3484892     1.548319   439061 
 1629000    1.0313017   -3.3477933   -3.3477933   -1.8008443  0.081365899   -3.3477933     1.546949   439061 
 1630000    1.0319351   -3.3491655   -3.3491655   -1.8012664  0.073092902   -3.3491655    1.5478992   439061 
 1631000    1.0330806   -3.3500517   -3.3500517   -1.8004343  0.075883867   -3.3500517    1.5496174   439061 
 1632000    1.0311944   -3.3479751   -3.3479751    -1.801187  0.078716516   -3.3479751    1.5467881   439061 
 1633000    1.0321327   -3.3497283   -3.3497283   -1.8015327  0.071001018   -3.3497283    1.5481956   439061 
 1634000    1.0318865   -3.3508877   -3.3508877   -1.8030614  0.077674499   -3.3508877    1.5478263   439061 
 1635000    1.0293766   -3.3469672   -3.3469672   -1.8029058  0.073877485   -3.3469672    1.5440614   439061 
 1636000    1.0307096   -3.3492169   -3.3492169   -1.8031561  0.071018058   -3.3492169    1.5460608   439061 
 1637000    1.0302192   -3.3496533   -3.3496533   -1.8043281  0.074709108   -3.3496533    1.5453252   439061 
 1638000    1.0290313   -3.3481853   -3.3481853    -1.804642  0.078452437   -3.3481853    1.5435434   439061 
 1639000    1.0295335   -3.3486707   -3.3486707   -1.8043739  0.072284545   -3.3486707    1.5442968   439061 
 1640000    1.0304249    -3.349426    -3.349426   -1.8037922  0.076711034    -3.349426    1.5456338   439061 
 1641000    1.0310949   -3.3516248   -3.3516248    -1.804986  0.073164947   -3.3516248    1.5466389   439061 
 1642000    1.0304766   -3.3504231   -3.3504231   -1.8047117  0.075381625   -3.3504231    1.5457115   439061 
 1643000    1.0306692   -3.3502828   -3.3502828   -1.8042826  0.075365462   -3.3502828    1.5460002   439061 
 1644000    1.0299557   -3.3490311   -3.3490311   -1.8041011  0.075991093   -3.3490311      1.54493   439061 
 1645000     1.031158   -3.3508622   -3.3508622   -1.8041288  0.071115147   -3.3508622    1.5467334   439061 
 1646000    1.0326196   -3.3529846   -3.3529846   -1.8040587  0.075519644   -3.3529846    1.5489259   439061 
 1647000     1.031606   -3.3512609   -3.3512609   -1.8038554  0.071104224   -3.3512609    1.5474055   439061 
 1648000    1.0307261    -3.350149    -3.350149   -1.8040633  0.077419685    -3.350149    1.5460857   439061 
 1649000    1.0311124   -3.3523718   -3.3523718   -1.8057067  0.071108558   -3.3523718    1.5466652   439061 
 1650000    1.0306865   -3.3519166   -3.3519166   -1.8058904  0.073789274   -3.3519166    1.5460262   439061 
 1651000    1.0321551   -3.3541292   -3.3541292   -1.8059002  0.073123228   -3.3541292    1.5482291   439061 
 1652000    1.0320859   -3.3539577   -3.3539577   -1.8058323  0.072108699   -3.3539577    1.5481253   439061 
 1653000    1.0303542   -3.3509833   -3.3509833   -1.8054555  0.073586838   -3.3509833    1.5455279   439061 
 1654000    1.0309074   -3.3526695   -3.3526695   -1.8063119  0.076456956   -3.3526695    1.5463576   439061 
 1655000    1.0297755   -3.3523821   -3.3523821   -1.8077223  0.075900279   -3.3523821    1.5446598   439061 
 1656000    1.0316902   -3.3553075   -3.3553075   -1.8077756  0.075591621   -3.3553075    1.5475318   439061 
 1657000    1.0301261   -3.3527368   -3.3527368   -1.8075513  0.073234848   -3.3527368    1.5451856   439061 
 1658000    1.0300019   -3.3524349   -3.3524349   -1.8074356  0.081031648   -3.3524349    1.5449993   439061 
 1659000    1.0283476   -3.3526196   -3.3526196   -1.8101016  0.073138914   -3.3526196    1.5425179   439061 
 1660000    1.0303756   -3.3554568   -3.3554568   -1.8098969  0.069968854   -3.3554568    1.5455599   439061 
 1661000    1.0305103   -3.3541616   -3.3541616   -1.8083997  0.076762949   -3.3541616    1.5457619   439061 
 1662000    1.0298019   -3.3530213   -3.3530213   -1.8083219  0.074624817   -3.3530213    1.5446993   439061 
 1663000    1.0314614   -3.3541444   -3.3541444   -1.8069558  0.078131403   -3.3541444    1.5471886   439061 
 1664000    1.0319969   -3.3554124   -3.3554124   -1.8074205  0.074529003   -3.3554124    1.5479919   439061 
 1665000    1.0310032   -3.3553553   -3.3553553    -1.808854  0.080341378   -3.3553553    1.5465013   439061 
 1666000    1.0313446   -3.3549248   -3.3549248   -1.8079114  0.077289801   -3.3549248    1.5470134   439061 
 1667000    1.0320189   -3.3546561   -3.3546561   -1.8066313  0.073924035   -3.3546561    1.5480248   439061 
 1668000    1.0312553   -3.3536614   -3.3536614   -1.8067819  0.072687038   -3.3536614    1.5468795   439061 
 1669000    1.0320857   -3.3551336   -3.3551336   -1.8070085  0.077429855   -3.3551336    1.5481251   439061 
 1670000    1.0302932   -3.3541149   -3.3541149   -1.8086787  0.073860589   -3.3541149    1.5454362   439061 
 1671000    1.0295274   -3.3543678   -3.3543678   -1.8100802  0.073880105   -3.3543678    1.5442876   439061 
 1672000    1.0309209   -3.3544254   -3.3544254   -1.8080476  0.074259659   -3.3544254    1.5463778   439061 
 1673000    1.0313098   -3.3545963   -3.3545963   -1.8076352  0.071040255   -3.3545963    1.5469612   439061 
 1674000    1.0310706   -3.3523916   -3.3523916   -1.8057893  0.074260633   -3.3523916    1.5466023   439061 
 1675000    1.0301416    -3.352872    -3.352872   -1.8076631  0.076362462    -3.352872    1.5452088   439061 
 1676000    1.0302999   -3.3530455   -3.3530455   -1.8075992  0.070334147   -3.3530455    1.5454463   439061 
 1677000    1.0301422   -3.3519866   -3.3519866   -1.8067767  0.072472627   -3.3519866    1.5452098   439061 
 1678000    1.0307321   -3.3538767   -3.3538767   -1.8077821  0.070560985   -3.3538767    1.5460946   439061 
 1679000    1.0290439   -3.3520729   -3.3520729   -1.8085105  0.077427075   -3.3520729    1.5435624   439061 
 1680000    1.0303309   -3.3532962   -3.3532962   -1.8078033  0.071734423   -3.3532962    1.5454929   439061 
 1681000    1.0311127   -3.3544985   -3.3544985    -1.807833  0.068721276   -3.3544985    1.5466655   439061 
 1682000     1.030676   -3.3538557   -3.3538557   -1.8078453  0.071098968   -3.3538557    1.5460104   439061 
 1683000    1.0296073   -3.3532944   -3.3532944   -1.8088871  0.078127954   -3.3532944    1.5444074   439061 
 1684000    1.0283984   -3.3535276   -3.3535276   -1.8109336  0.074658224   -3.3535276     1.542594   439061 
 1685000    1.0288915   -3.3548643   -3.3548643   -1.8115307  0.067277392   -3.3548643    1.5433337   439061 
 1686000    1.0292519   -3.3549578   -3.3549578   -1.8110835  0.073303294   -3.3549578    1.5438743   439061 
 1687000    1.0301262   -3.3561127   -3.3561127   -1.8109269  0.073956376   -3.3561127    1.5451858   439061 
 1688000    1.0296353   -3.3550885   -3.3550885   -1.8106391   0.07936601   -3.3550885    1.5444494   439061 
 1689000    1.0308265   -3.3578523   -3.3578523   -1.8116161  0.072051465   -3.3578523    1.5462362   439061 
 1690000    1.0304104   -3.3573852   -3.3573852    -1.811773  0.081052552   -3.3573852    1.5456121   439061 
 1691000    1.0304007   -3.3554974   -3.3554974   -1.8098999  0.080257223   -3.3554974    1.5455975   439061 
 1692000    1.0304844   -3.3578923   -3.3578923   -1.8121692  0.066679498   -3.3578923    1.5457231   439061 
 1693000    1.0323519   -3.3612397   -3.3612397   -1.8127154  0.068629136   -3.3612397    1.5485243   439061 
 1694000    1.0299289   -3.3566941   -3.3566941   -1.8118042  0.077243376   -3.3566941    1.5448899   439061 
 1695000    1.0290266   -3.3545907   -3.3545907   -1.8110543  0.079855823   -3.3545907    1.5435364   439061 
 1696000    1.0306287   -3.3575123   -3.3575123   -1.8115728  0.076712535   -3.3575123    1.5459396   439061 
 1697000    1.0312618   -3.3589603   -3.3589603   -1.8120711  0.072993591   -3.3589603    1.5468892   439061 
 1698000    1.0294916   -3.3567407   -3.3567407   -1.8125068   0.07610374   -3.3567407    1.5442339   439061 
 1699000    1.0312609   -3.3592808   -3.3592808   -1.8123929  0.079734728   -3.3592808    1.5468879   439061 
 1700000    1.0296476   -3.3582469   -3.3582469   -1.8137791  0.077307223   -3.3582469    1.5444679   439061 
 1701000    1.0300217   -3.3586104   -3.3586104   -1.8135815  0.076255638   -3.3586104     1.545029   439061 
 1702000    1.0304892   -3.3589451   -3.3589451   -1.8132148  0.074437431   -3.3589451    1.5457303   439061 
 1703000    1.0298737   -3.3605031   -3.3605031    -1.815696  0.070148737   -3.3605031    1.5448071   439061 
 1704000      1.03029   -3.3610866   -3.3610866   -1.8156551  0.073049547   -3.3610866    1.5454315   439061 
 1705000    1.0302522    -3.361796    -3.361796   -1.8164213  0.072349765    -3.361796    1.5453747   439061 
 1706000    1.0295419   -3.3613733   -3.3613733   -1.8170639  0.070779909   -3.3613733    1.5443094   439061 
 1707000    1.0300824   -3.3611966   -3.3611966   -1.8160765  0.070533223   -3.3611966    1.5451201   439061 
 1708000    1.0308313   -3.3620291   -3.3620291   -1.8157856  0.067939498   -3.3620291    1.5462434   439061 
 1709000    1.0304234    -3.361404    -3.361404   -1.8157724  0.074002395    -3.361404    1.5456315   439061 
 1710000    1.0289028   -3.3606799   -3.3606799   -1.8173293  0.080681469   -3.3606799    1.5433507   439061 
 1711000     1.029996   -3.3624152   -3.3624152   -1.8174247  0.076053205   -3.3624152    1.5449905   439061 
 1712000    1.0303385   -3.3645492   -3.3645492   -1.8190449   0.07191937   -3.3645492    1.5455043   439061 
 1713000    1.0303737   -3.3637624   -3.3637624   -1.8182054  0.078311419   -3.3637624    1.5455571   439061 
 1714000    1.0289786   -3.3617021   -3.3617021   -1.8182377  0.075762262   -3.3617021    1.5434644   439061 
 1715000    1.0298624   -3.3646644   -3.3646644   -1.8198743  0.073239181   -3.3646644    1.5447901   439061 
 1716000    1.0282318   -3.3620933   -3.3620933   -1.8197492  0.073018376   -3.3620933    1.5423441   439061 
 1717000     1.029079   -3.3631987   -3.3631987   -1.8195837  0.077627723   -3.3631987     1.543615   439061 
 1718000    1.0288048   -3.3641803   -3.3641803   -1.8209767  0.077322101   -3.3641803    1.5432037   439061 
 1719000    1.0307106   -3.3657563   -3.3657563    -1.819694  0.075580284   -3.3657563    1.5460624   439061 
 1720000     1.033034   -3.3676516   -3.3676516   -1.8181042  0.072873413   -3.3676516    1.5495475   439061 
 1721000    1.0315357   -3.3646077   -3.3646077   -1.8173077  0.070642676   -3.3646077       1.5473   439061 
 1722000    1.0308772   -3.3631975   -3.3631975   -1.8168851  0.078492684   -3.3631975    1.5463123   439061 
 1723000    1.0321541   -3.3646491   -3.3646491   -1.8164215  0.071122082   -3.3646491    1.5482276   439061 
 1724000    1.0308711    -3.362729    -3.362729   -1.8164259  0.078502138    -3.362729    1.5463031   439061 
 1725000    1.0308055   -3.3640043   -3.3640043   -1.8177995  0.076857677   -3.3640043    1.5462048   439061 
 1726000    1.0308522   -3.3663104   -3.3663104   -1.8200355  0.074745627   -3.3663104    1.5462749   439061 
 1727000    1.0294243   -3.3632947   -3.3632947   -1.8191618  0.075021428   -3.3632947    1.5441329   439061 
 1728000    1.0304912   -3.3633825   -3.3633825   -1.8176493  0.074989627   -3.3633825    1.5457333   439061 
 1729000    1.0292231   -3.3630934   -3.3630934   -1.8192622  0.074978529   -3.3630934    1.5438312   439061 
 1730000    1.0301804   -3.3639809   -3.3639809   -1.8187138  0.074353164   -3.3639809    1.5452671   439061 
 1731000    1.0312851   -3.3650252   -3.3650252    -1.818101  0.074439451   -3.3650252    1.5469242   439061 
 1732000    1.0299747    -3.364674    -3.364674   -1.8197155  0.075832381    -3.364674    1.5449585   439061 
 1733000    1.0295769   -3.3649297   -3.3649297   -1.8205679  0.074975571   -3.3649297    1.5443618   439061 
 1734000    1.0292518   -3.3654371   -3.3654371    -1.821563  0.074506025   -3.3654371    1.5438742   439061 
 1735000    1.0303086   -3.3662595   -3.3662595   -1.8208001  0.067443861   -3.3662595    1.5454594   439061 
 1736000    1.0294455   -3.3650582   -3.3650582   -1.8208935  0.075297004   -3.3650582    1.5441647   439061 
 1737000    1.0299381    -3.366871    -3.366871   -1.8219673  0.074124138    -3.366871    1.5449036   439061 
 1738000    1.0280784   -3.3650579   -3.3650579   -1.8229438  0.069207969   -3.3650579    1.5421141   439061 
 1739000    1.0281172   -3.3646157   -3.3646157   -1.8224435  0.073230639   -3.3646157    1.5421723   439061 
 1740000    1.0288776   -3.3656353   -3.3656353   -1.8223225  0.075656816   -3.3656353    1.5433129   439061 
 1741000    1.0281659   -3.3661699   -3.3661699   -1.8239245  0.076380289   -3.3661699    1.5422453   439061 
 1742000    1.0289624   -3.3673235   -3.3673235   -1.8238834  0.072788849   -3.3673235    1.5434401   439061 
 1743000    1.0296278     -3.36826     -3.36826   -1.8238218  0.075165954     -3.36826    1.5444382   439061 
 1744000    1.0308096   -3.3694462   -3.3694462   -1.8232354  0.078457237   -3.3694462    1.5462108   439061 
 1745000    1.0306129   -3.3684352   -3.3684352   -1.8225194  0.078913463   -3.3684352    1.5459158   439061 
 1746000    1.0311767   -3.3698545   -3.3698545    -1.823093     0.076438   -3.3698545    1.5467615   439061 
 1747000    1.0300961   -3.3683284   -3.3683284   -1.8231878  0.080733574   -3.3683284    1.5451406   439061 
 1748000    1.0317885   -3.3716135   -3.3716135   -1.8239343  0.076704629   -3.3716135    1.5476792   439061 
 1749000    1.0302558   -3.3693127   -3.3693127   -1.8239326  0.079653889   -3.3693127    1.5453801   439061 
 1750000    1.0301539   -3.3700263   -3.3700263    -1.824799  0.074225049   -3.3700263    1.5452273   439061 
 1751000    1.0312399   -3.3714025   -3.3714025   -1.8245461   0.07811095   -3.3714025    1.5468564   439061 
 1752000    1.0295141   -3.3687189   -3.3687189   -1.8244513  0.073615564   -3.3687189    1.5442676   439061 
 1753000    1.0308831   -3.3694902   -3.3694902   -1.8231691  0.077538858   -3.3694902    1.5463211   439061 
 1754000    1.0320337   -3.3699695   -3.3699695   -1.8219225  0.076161733   -3.3699695    1.5480471   439061 
 1755000    1.0322774   -3.3719917   -3.3719917   -1.8235792  0.070091779   -3.3719917    1.5484125   439061 
 1756000    1.0312862   -3.3684551   -3.3684551   -1.8215294  0.078591079   -3.3684551    1.5469257   439061 
 1757000    1.0308465   -3.3685135   -3.3685135   -1.8222474  0.074190261   -3.3685135    1.5462662   439061 
 1758000    1.0287104   -3.3662727   -3.3662727   -1.8232106  0.078873698   -3.3662727    1.5430621   439061 
 1759000     1.028775   -3.3676577   -3.3676577   -1.8244987  0.070992127   -3.3676577     1.543159   439061 
 1760000    1.0304426   -3.3691584   -3.3691584    -1.823498  0.075644778   -3.3691584    1.5456604   439061 
 1761000    1.0292052   -3.3666167   -3.3666167   -1.8228124  0.077376836   -3.3666167    1.5438043   439061 
 1762000    1.0290816   -3.3659151   -3.3659151   -1.8222963  0.075584531   -3.3659151    1.5436188   439061 
 1763000    1.0294635   -3.3666848   -3.3666848   -1.8224931  0.075582324   -3.3666848    1.5441918   439061 
 1764000    1.0290619   -3.3665469   -3.3665469   -1.8229575  0.069837672   -3.3665469    1.5435894   439061 
 1765000    1.0288794   -3.3659697   -3.3659697   -1.8226541  0.074231665   -3.3659697    1.5433156   439061 
 1766000    1.0282902   -3.3659604   -3.3659604   -1.8235286  0.070995083   -3.3659604    1.5424318   439061 
 1767000    1.0291176   -3.3659563   -3.3659563   -1.8222834  0.073454421   -3.3659563    1.5436729   439061 
 1768000    1.0287947   -3.3656795   -3.3656795    -1.822491  0.068084244   -3.3656795    1.5431885   439061 
 1769000    1.0291224   -3.3667113   -3.3667113   -1.8230311   0.07271885   -3.3667113    1.5436801   439061 
 1770000    1.0282152   -3.3657449   -3.3657449   -1.8234256  0.073194045   -3.3657449    1.5423192   439061 
 1771000    1.0289086   -3.3647726   -3.3647726   -1.8214132   0.07748199   -3.3647726    1.5433594   439061 
 1772000    1.0293463   -3.3666215   -3.3666215   -1.8226055  0.068225279   -3.3666215     1.544016   439061 
 1773000     1.030749   -3.3692591   -3.3692591   -1.8231391  0.071733256   -3.3692591      1.54612   439061 
 1774000    1.0297558   -3.3675897   -3.3675897   -1.8229596  0.076569054   -3.3675897    1.5446301   439061 
 1775000    1.0293751     -3.36662     -3.36662   -1.8225609     0.074169     -3.36662    1.5440591   439061 
 1776000     1.029841   -3.3674023   -3.3674023   -1.8226444  0.077543172   -3.3674023    1.5447579   439061 
 1777000    1.0295876   -3.3655721   -3.3655721   -1.8211943  0.077462302   -3.3655721    1.5443778   439061 
 1778000    1.0299029   -3.3672788   -3.3672788    -1.822428  0.073936589   -3.3672788    1.5448508   439061 
 1779000    1.0281332   -3.3669903   -3.3669903   -1.8247941  0.073585666   -3.3669903    1.5421962   439061 
 1780000    1.0287171   -3.3679706   -3.3679706   -1.8248984  0.072664826   -3.3679706    1.5430722   439061 
 1781000    1.0294123   -3.3703077   -3.3703077   -1.8261928  0.072176375   -3.3703077    1.5441149   439061 
 1782000    1.0280746   -3.3677381   -3.3677381   -1.8256297  0.074703351   -3.3677381    1.5421083   439061 
 1783000    1.0298345   -3.3682394   -3.3682394   -1.8234912  0.077594449   -3.3682394    1.5447482   439061 
 1784000    1.0298795   -3.3688439   -3.3688439   -1.8240283  0.074537764   -3.3688439    1.5448157   439061 
 1785000    1.0304079    -3.368574    -3.368574   -1.8229657  0.071481034    -3.368574    1.5456084   439061 
 1786000      1.03099   -3.3704505   -3.3704505    -1.823969  0.074416083   -3.3704505    1.5464815   439061 
 1787000    1.0312283   -3.3712437   -3.3712437   -1.8244048  0.077906347   -3.3712437    1.5468389   439061 
 1788000    1.0306222   -3.3697306   -3.3697306   -1.8238009   0.07963907   -3.3697306    1.5459298   439061 
 1789000    1.0298147    -3.370106    -3.370106   -1.8253876  0.078537669    -3.370106    1.5447185   439061 
 1790000    1.0282461   -3.3683644   -3.3683644   -1.8259987  0.074405234   -3.3683644    1.5423657   439061 
 1791000    1.0287361   -3.3703776   -3.3703776   -1.8272769  0.073215025   -3.3703776    1.5431006   439061 
 1792000     1.029104    -3.370941    -3.370941   -1.8272885  0.070662624    -3.370941    1.5436525   439061 
 1793000     1.028161   -3.3702394   -3.3702394   -1.8280015  0.073375607   -3.3702394     1.542238   439061 
 1794000     1.029731   -3.3708592   -3.3708592   -1.8262663  0.074165224   -3.3708592    1.5445929   439061 
 1795000    1.0282987    -3.370021    -3.370021   -1.8275764  0.069277903    -3.370021    1.5424446   439061 
 1796000    1.0282356    -3.370358    -3.370358    -1.828008  0.078598305    -3.370358    1.5423499   439061 
 1797000    1.0272062   -3.3687993   -3.3687993   -1.8279934  0.075144231   -3.3687993    1.5408059   439061 
 1798000    1.0283281   -3.3711713   -3.3711713   -1.8286826  0.073673301   -3.3711713    1.5424887   439061 
 1799000    1.0281221    -3.370247    -3.370247   -1.8280674  0.068159021    -3.370247    1.5421796   439061 
 1800000    1.0287375   -3.3706788   -3.3706788    -1.827576  0.074258526   -3.3706788    1.5431027   439061 
 1801000    1.0287913    -3.371971    -3.371971   -1.8287876   0.07454633    -3.371971    1.5431834   439061 
 1802000    1.0276769   -3.3718943   -3.3718943   -1.8303824  0.074813882   -3.3718943    1.5415119   439061 
 1803000    1.0296285   -3.3735021   -3.3735021   -1.8290629  0.068303917   -3.3735021    1.5444392   439061 
 1804000    1.0293785   -3.3726839   -3.3726839   -1.8286196  0.077343746   -3.3726839    1.5440643   439061 
 1805000     1.029191   -3.3722216   -3.3722216   -1.8284386  0.070175738   -3.3722216     1.543783   439061 
 1806000    1.0282533   -3.3721834   -3.3721834   -1.8298069  0.074244318   -3.3721834    1.5423765   439061 
 1807000    1.0269461   -3.3703918   -3.3703918   -1.8299761  0.076239726   -3.3703918    1.5404157   439061 
 1808000    1.0298453   -3.3746523   -3.3746523   -1.8298879  0.072985982   -3.3746523    1.5447644   439061 
 1809000    1.0298362    -3.373527    -3.373527   -1.8287762  0.074367501    -3.373527    1.5447508   439061 
 1810000    1.0289417   -3.3731885   -3.3731885   -1.8297794  0.068541618   -3.3731885    1.5434091   439061 
 1811000    1.0298807   -3.3731111   -3.3731111   -1.8282936  0.079090562   -3.3731111    1.5448175   439061 
 1812000    1.0301671   -3.3724166   -3.3724166   -1.8271695  0.076484679   -3.3724166    1.5452471   439061 
 1813000    1.0314999   -3.3748801   -3.3748801   -1.8276338  0.075950701   -3.3748801    1.5472463   439061 
 1814000    1.0294901   -3.3727028   -3.3727028   -1.8284712  0.077286859   -3.3727028    1.5442316   439061 
 1815000    1.0302688   -3.3740682   -3.3740682   -1.8286686  0.071111943   -3.3740682    1.5453996   439061 
 1816000    1.0284599   -3.3712591   -3.3712591   -1.8285729  0.076808544   -3.3712591    1.5426863   439061 
 1817000    1.0280119    -3.373298    -3.373298   -1.8312836  0.068326707    -3.373298    1.5420144   439061 
 1818000     1.027842   -3.3724946   -3.3724946   -1.8307352  0.071182238   -3.3724946    1.5417595   439061 
 1819000    1.0290595   -3.3738403   -3.3738403   -1.8302546  0.069272561   -3.3738403    1.5435858   439061 
 1820000    1.0296519   -3.3741802   -3.3741802   -1.8297058  0.065717997   -3.3741802    1.5444744   439061 
 1821000    1.0272417   -3.3713358   -3.3713358   -1.8304767  0.075728762   -3.3713358    1.5408591   439061 
 1822000        1.028   -3.3724162   -3.3724162   -1.8304197  0.069037714   -3.3724162    1.5419965   439061 
 1823000    1.0266101   -3.3715897   -3.3715897    -1.831678  0.072182314   -3.3715897    1.5399117   439061 
 1824000    1.0273261   -3.3723422   -3.3723422   -1.8313566  0.072501028   -3.3723422    1.5409856   439061 
 1825000    1.0268166   -3.3720065   -3.3720065    -1.831785  0.069049997   -3.3720065    1.5402214   439061 
 1826000    1.0279309   -3.3728216   -3.3728216   -1.8309287  0.070524529   -3.3728216    1.5418929   439061 
 1827000    1.0276784   -3.3733962   -3.3733962    -1.831882  0.069753718   -3.3733962    1.5415142   439061 
 1828000    1.0269742   -3.3720911   -3.3720911   -1.8316334  0.076684352   -3.3720911    1.5404577   439061 
 1829000    1.0289063   -3.3737546   -3.3737546   -1.8303987  0.071861622   -3.3737546    1.5433559   439061 
 1830000    1.0274307     -3.37291     -3.37291   -1.8317675  0.078234449     -3.37291    1.5411425   439061 
 1831000    1.0289908   -3.3747212   -3.3747212   -1.8312385  0.071382306   -3.3747212    1.5434827   439061 
 1832000    1.0292828   -3.3750321   -3.3750321   -1.8311115  0.078384037   -3.3750321    1.5439207   439061 
 1833000    1.0293706   -3.3751585   -3.3751585   -1.8311061  0.070713989   -3.3751585    1.5440524   439061 
 1834000     1.029269   -3.3740719   -3.3740719   -1.8301718  0.078413431   -3.3740719       1.5439   439061 
 1835000    1.0305812   -3.3770023   -3.3770023    -1.831134  0.074018452   -3.3770023    1.5458683   439061 
 1836000    1.0294719   -3.3759027   -3.3759027   -1.8316983  0.076905516   -3.3759027    1.5442044   439061 
 1837000    1.0289761   -3.3765014   -3.3765014   -1.8330408  0.075008284   -3.3765014    1.5434606   439061 
 1838000    1.0285014   -3.3764549   -3.3764549   -1.8337063  0.071989803   -3.3764549    1.5427485   439061 
 1839000    1.0295354   -3.3768997   -3.3768997   -1.8326002  0.073988518   -3.3768997    1.5442996   439061 
 1840000    1.0281956   -3.3757109   -3.3757109    -1.833421  0.073024913   -3.3757109    1.5422899   439061 
 1841000    1.0275765   -3.3751128   -3.3751128   -1.8337516  0.073022804   -3.3751128    1.5413612   439061 
 1842000    1.0280389   -3.3758043   -3.3758043   -1.8337494  0.077842342   -3.3758043    1.5420549   439061 
 1843000    1.0281105     -3.37569     -3.37569   -1.8335278  0.075847547     -3.37569    1.5421622   439061 
 1844000    1.0297807   -3.3768072   -3.3768072   -1.8321396  0.072307943   -3.3768072    1.5446676   439061 
 1845000    1.0298883    -3.377441    -3.377441   -1.8326121  0.074779972    -3.377441    1.5448289   439061 
 1846000    1.0302603   -3.3769274   -3.3769274   -1.8315405  0.078527098   -3.3769274    1.5453869   439061 
 1847000    1.0295457    -3.376676    -3.376676   -1.8323609   0.07047907    -3.376676     1.544315   439061 
 1848000    1.0302059   -3.3767575   -3.3767575   -1.8314522  0.077681355   -3.3767575    1.5453053   439061 
 1849000    1.0277498   -3.3741475   -3.3741475   -1.8325263   0.07345226   -3.3741475    1.5416211   439061 
 1850000    1.0284043   -3.3757591   -3.3757591   -1.8331562  0.076121364   -3.3757591    1.5426029   439061 
 1851000    1.0281677   -3.3750858   -3.3750858   -1.8328379  0.074067093   -3.3750858     1.542248   439061 
 1852000    1.0283975   -3.3758057   -3.3758057   -1.8332129  0.067794376   -3.3758057    1.5425928   439061 
 1853000    1.0274111   -3.3740253   -3.3740253   -1.8329122   0.07573146   -3.3740253    1.5411131   439061 
 1854000    1.0290606    -3.377334    -3.377334   -1.8337466  0.072591613    -3.377334    1.5435874   439061 
 1855000    1.0277602   -3.3753939   -3.3753939   -1.8337572  0.071368136   -3.3753939    1.5416367   439061 
 1856000    1.0280563   -3.3761047   -3.3761047   -1.8340237  0.072229756   -3.3761047     1.542081   439061 
 1857000    1.0287434   -3.3761878   -3.3761878   -1.8330761  0.075638453   -3.3761878    1.5431116   439061 
 1858000    1.0273796   -3.3734103   -3.3734103   -1.8323443  0.082724273   -3.3734103     1.541066   439061 
 1859000    1.0290747   -3.3756972   -3.3756972   -1.8320887  0.069048051   -3.3756972    1.5436085   439061 
 1860000      1.02796   -3.3755134   -3.3755134   -1.8335769  0.076720121   -3.3755134    1.5419365   439061 
 1861000    1.0287081   -3.3768449   -3.3768449   -1.8337862  0.069831239   -3.3768449    1.5430587   439061 
 1862000    1.0288553   -3.3777008   -3.3777008   -1.8344213  0.077565024   -3.3777008    1.5432795   439061 
 1863000    1.0293478   -3.3778618   -3.3778618   -1.8338436  0.070148606   -3.3778618    1.5440182   439061 
 1864000    1.0285813   -3.3781583   -3.3781583   -1.8352899   0.07475974   -3.3781583    1.5428685   439061 
 1865000    1.0279562   -3.3769782   -3.3769782   -1.8350474  0.074395495   -3.3769782    1.5419308   439061 
 1866000    1.0282751   -3.3772714   -3.3772714   -1.8348622  0.074722897   -3.3772714    1.5424091   439061 
 1867000     1.028465   -3.3778023   -3.3778023   -1.8351082  0.073611708   -3.3778023     1.542694   439061 
 1868000    1.0286804   -3.3785102   -3.3785102   -1.8354931  0.073614028   -3.3785102    1.5430171   439061 
 1869000    1.0292827   -3.3799351   -3.3799351   -1.8360145  0.069617841   -3.3799351    1.5439206   439061 
 1870000    1.0286925   -3.3789192   -3.3789192   -1.8358839  0.076130594   -3.3789192    1.5430353   439061 
 1871000    1.0275019   -3.3778208   -3.3778208   -1.8365714  0.070831707   -3.3778208    1.5412494   439061 
 1872000    1.0274541   -3.3786072   -3.3786072   -1.8374295  0.070464948   -3.3786072    1.5411777   439061 
 1873000    1.0274867   -3.3784283   -3.3784283   -1.8372017  0.070062837   -3.3784283    1.5412266   439061 
 1874000    1.0274994   -3.3791097   -3.3791097    -1.837864  0.072376978   -3.3791097    1.5412457   439061 
 1875000    1.0259989   -3.3774236   -3.3774236   -1.8384288  0.075431307   -3.3774236    1.5389949   439061 
 1876000    1.0281708   -3.3807445   -3.3807445   -1.8384918  0.070218759   -3.3807445    1.5422526   439061 
 1877000    1.0260465   -3.3795151   -3.3795151   -1.8404489   0.07021091   -3.3795151    1.5390662   439061 
 1878000    1.0292976   -3.3823221   -3.3823221   -1.8383792  0.066617713   -3.3823221    1.5439429   439061 
 1879000    1.0289203   -3.3811383   -3.3811383   -1.8377614  0.074411745   -3.3811383    1.5433769   439061 
 1880000    1.0294777   -3.3815125   -3.3815125   -1.8372995  0.077429258   -3.3815125     1.544213   439061 
 1881000    1.0294706   -3.3824004   -3.3824004    -1.838198  0.075374967   -3.3824004    1.5442023   439061 
 1882000     1.028665   -3.3811403   -3.3811403   -1.8381462  0.072674376   -3.3811403    1.5429941   439061 
 1883000    1.0275753   -3.3810971   -3.3810971   -1.8397377  0.072050876   -3.3810971    1.5413595   439061 
 1884000    1.0283397   -3.3816763   -3.3816763   -1.8391702  0.072604011   -3.3816763    1.5425061   439061 
 1885000    1.0281155   -3.3806145   -3.3806145   -1.8384449  0.073768662   -3.3806145    1.5421697   439061 
 1886000    1.0274571   -3.3801863   -3.3801863   -1.8390042  0.076807863   -3.3801863    1.5411821   439061 
 1887000    1.0283547   -3.3818209   -3.3818209   -1.8392923  0.073739365   -3.3818209    1.5425286   439061 
 1888000    1.0276853    -3.381886    -3.381886   -1.8403615  0.072019034    -3.381886    1.5415245   439061 
 1889000    1.0271131   -3.3810068   -3.3810068   -1.8403407  0.076197025   -3.3810068    1.5406662   439061 
 1890000    1.0278521   -3.3824058   -3.3824058   -1.8406312  0.072090981   -3.3824058    1.5417746   439061 
 1891000    1.0267469   -3.3797195   -3.3797195   -1.8396027  0.074726507   -3.3797195    1.5401168   439061 
 1892000    1.0277943   -3.3815222   -3.3815222   -1.8398342  0.072333155   -3.3815222    1.5416879   439061 
 1893000    1.0268333   -3.3822062   -3.3822062   -1.8419598  0.076948672   -3.3822062    1.5402465   439061 
 1894000    1.0276868   -3.3828045   -3.3828045   -1.8412779  0.074247488   -3.3828045    1.5415266   439061 
 1895000    1.0284368   -3.3829656   -3.3829656   -1.8403139  0.072398667   -3.3829656    1.5426518   439061 
 1896000    1.0286599   -3.3838087   -3.3838087   -1.8408223  0.071810956   -3.3838087    1.5429864   439061 
 1897000    1.0280576   -3.3837336   -3.3837336   -1.8416507  0.064939659   -3.3837336    1.5420829   439061 
 1898000    1.0264966   -3.3809914   -3.3809914   -1.8412499  0.072491035   -3.3809914    1.5397414   439061 
 1899000    1.0265109   -3.3818164   -3.3818164   -1.8420536  0.069767812   -3.3818164    1.5397628   439061 
 1900000    1.0276658   -3.3828243   -3.3828243   -1.8413292  0.074222972   -3.3828243    1.5414951   439061 
 1901000    1.0262028   -3.3824524   -3.3824524   -1.8431517  0.066607861   -3.3824524    1.5393007   439061 
 1902000    1.0267167   -3.3832326   -3.3832326    -1.843161  0.071632786   -3.3832326    1.5400715   439061 
 1903000     1.027669   -3.3844883   -3.3844883   -1.8429882   0.07078748   -3.3844883    1.5415001   439061 
 1904000    1.0285691   -3.3856927   -3.3856927   -1.8428425  0.071777552   -3.3856927    1.5428501   439061 
 1905000    1.0263472   -3.3834337   -3.3834337   -1.8439165  0.068911597   -3.3834337    1.5395172   439061 
 1906000    1.0272137   -3.3849744   -3.3849744   -1.8441574  0.068855896   -3.3849744     1.540817   439061 
 1907000    1.0263497   -3.3834254   -3.3834254   -1.8439043  0.066766145   -3.3834254    1.5395211   439061 
 1908000    1.0253349   -3.3824146   -3.3824146   -1.8444158  0.070673173   -3.3824146    1.5379988   439061 
 1909000     1.026419   -3.3830307   -3.3830307   -1.8434057  0.070785525   -3.3830307     1.539625   439061 
 1910000    1.0273777   -3.3855064   -3.3855064   -1.8444434  0.067591282   -3.3855064     1.541063   439061 
 1911000    1.0271005    -3.384948    -3.384948   -1.8443007  0.070249315    -3.384948    1.5406472   439061 
 1912000    1.0288559   -3.3851449   -3.3851449   -1.8418645  0.071547221   -3.3851449    1.5432804   439061 
 1913000    1.0293254   -3.3873087   -3.3873087    -1.843324  0.074449656   -3.3873087    1.5439846   439061 
 1914000    1.0287249   -3.3875064   -3.3875064   -1.8444226  0.071859556   -3.3875064    1.5430838   439061 
 1915000    1.0296475    -3.388898    -3.388898   -1.8444302  0.073787427    -3.388898    1.5444677   439061 
 1916000    1.0277875   -3.3873876   -3.3873876   -1.8457099  0.079642222   -3.3873876    1.5416777   439061 
 1917000    1.0290833   -3.3902526   -3.3902526   -1.8466312  0.071931624   -3.3902526    1.5436214   439061 
 1918000    1.0258235    -3.385458    -3.385458   -1.8467262  0.072888945    -3.385458    1.5387318   439061 
 1919000    1.0248116   -3.3840835   -3.3840835   -1.8468696  0.069388631   -3.3840835     1.537214   439061 
 1920000    1.0249489   -3.3849029   -3.3849029   -1.8474831  0.071026671   -3.3849029    1.5374199   439061 
 1921000    1.0253626   -3.3866869   -3.3866869   -1.8486465   0.07331001   -3.3866869    1.5380403   439061 
 1922000    1.0260737   -3.3872191   -3.3872191   -1.8481121  0.065092989   -3.3872191     1.539107   439061 
 1923000    1.0259903   -3.3873477   -3.3873477   -1.8483657  0.069147654   -3.3873477     1.538982   439061 
 1924000    1.0252845   -3.3856937   -3.3856937   -1.8477705  0.071225985   -3.3856937    1.5379232   439061 
 1925000    1.0252312   -3.3857362   -3.3857362    -1.847893  0.070907429   -3.3857362    1.5378433   439061 
 1926000    1.0270242   -3.3884596   -3.3884596   -1.8479269  0.070789235   -3.3884596    1.5405327   439061 
 1927000    1.0269029   -3.3875327   -3.3875327   -1.8471819  0.071117833   -3.3875327    1.5403508   439061 
 1928000    1.0276113   -3.3890266   -3.3890266   -1.8476131  0.071173853   -3.3890266    1.5414134   439061 
 1929000    1.0255236   -3.3852335   -3.3852335   -1.8469515  0.071379453   -3.3852335    1.5382819   439061 
 1930000    1.0274722   -3.3879074   -3.3879074   -1.8467026  0.063936599   -3.3879074    1.5412048   439061 
 1931000    1.0277032   -3.3876279   -3.3876279   -1.8460767  0.072778504   -3.3876279    1.5415512   439061 
 1932000    1.0272617   -3.3886547   -3.3886547   -1.8477656  0.074155126   -3.3886547    1.5408891   439061 
 1933000    1.0268181   -3.3878054   -3.3878054   -1.8475817  0.070747696   -3.3878054    1.5402237   439061 
 1934000    1.0280714   -3.3887316   -3.3887316    -1.846628  0.077298099   -3.3887316    1.5421036   439061 
 1935000    1.0265704   -3.3872267   -3.3872267   -1.8473746  0.075534211   -3.3872267    1.5398521   439061 
 1936000    1.0279718   -3.3908937   -3.3908937   -1.8489394  0.071245799   -3.3908937    1.5419542   439061 
 1937000    1.0269058   -3.3894299   -3.3894299   -1.8490746  0.070544485   -3.3894299    1.5403552   439061 
 1938000    1.0269084    -3.389477    -3.389477   -1.8491179  0.075614037    -3.389477    1.5403591   439061 
 1939000    1.0282986   -3.3918956   -3.3918956   -1.8494512  0.073322213   -3.3918956    1.5424443   439061 
 1940000    1.0275865    -3.391776    -3.391776   -1.8503997  0.069445729    -3.391776    1.5413763   439061 
 1941000    1.0268378   -3.3906953   -3.3906953    -1.850442   0.06913696   -3.3906953    1.5402532   439061 
 1942000    1.0258495    -3.390358    -3.390358   -1.8515873  0.070861873    -3.390358    1.5387707   439061 
 1943000    1.0251296   -3.3896179   -3.3896179    -1.851927  0.076755735   -3.3896179    1.5376909   439061 
 1944000    1.0282598   -3.3953773   -3.3953773   -1.8529911  0.073826494   -3.3953773    1.5423862   439061 
 1945000    1.0262739   -3.3930075   -3.3930075   -1.8536002  0.067520174   -3.3930075    1.5394073   439061 
 1946000    1.0261327   -3.3913495   -3.3913495   -1.8521539  0.070211143   -3.3913495    1.5391956   439061 
 1947000    1.0272098   -3.3933703   -3.3933703   -1.8525591  0.071007129   -3.3933703    1.5408112   439061 
 1948000    1.0263411   -3.3924805   -3.3924805   -1.8529724   0.07747807   -3.3924805    1.5395081   439061 
 1949000    1.0252834   -3.3914896   -3.3914896    -1.853568  0.074759857   -3.3914896    1.5379216   439061 
 1950000    1.0258464   -3.3929128   -3.3929128   -1.8541467  0.073664405   -3.3929128    1.5387661   439061 
 1951000    1.0286483   -3.3952451   -3.3952451   -1.8522762  0.071581063   -3.3952451    1.5429689   439061 
 1952000    1.0265474   -3.3929733   -3.3929733   -1.8531557  0.073875576   -3.3929733    1.5398176   439061 
 1953000    1.0258421   -3.3917171   -3.3917171   -1.8529575  0.080771645   -3.3917171    1.5387596   439061 
 1954000    1.0266446   -3.3936383   -3.3936383    -1.853675  0.076202911   -3.3936383    1.5399633   439061 
 1955000    1.0272307   -3.3930998   -3.3930998   -1.8522572  0.070845816   -3.3930998    1.5408425   439061 
 1956000    1.0272601    -3.393964    -3.393964   -1.8530774  0.071122495    -3.393964    1.5408866   439061 
 1957000     1.026446   -3.3948852   -3.3948852   -1.8552197  0.070276007   -3.3948852    1.5396656   439061 
 1958000    1.0276656    -3.394588    -3.394588   -1.8530931  0.071720569    -3.394588    1.5414949   439061 
 1959000    1.0264928   -3.3933704   -3.3933704   -1.8536347  0.079115565   -3.3933704    1.5397357   439061 
 1960000    1.0261764    -3.392762    -3.392762   -1.8535009  0.074920053    -3.392762    1.5392611   439061 
 1961000     1.026568    -3.394464    -3.394464   -1.8546156  0.068447619    -3.394464    1.5398484   439061 
 1962000     1.026987   -3.3944849   -3.3944849   -1.8540079  0.067624969   -3.3944849     1.540477   439061 
 1963000    1.0278601   -3.3962112   -3.3962112   -1.8544246  0.070017225   -3.3962112    1.5417866   439061 
 1964000    1.0261064   -3.3935097   -3.3935097   -1.8543536  0.074260859   -3.3935097    1.5391561   439061 
 1965000    1.0255446   -3.3928609   -3.3928609   -1.8545476  0.076391629   -3.3928609    1.5383134   439061 
 1966000    1.0269538   -3.3954359   -3.3954359   -1.8550086  0.076544391   -3.3954359    1.5404273   439061 
 1967000    1.0255759    -3.392657    -3.392657   -1.8542966  0.076256031    -3.392657    1.5383603   439061 
 1968000    1.0277705   -3.3945701   -3.3945701   -1.8529179  0.073374504   -3.3945701    1.5416522   439061 
 1969000    1.0275206   -3.3950796   -3.3950796   -1.8538021   0.07137358   -3.3950796    1.5412774   439061 
 1970000    1.0261247   -3.3926782   -3.3926782   -1.8534946  0.077365003   -3.3926782    1.5391836   439061 
 1971000    1.0255826   -3.3923761   -3.3923761   -1.8540057  0.072994228   -3.3923761    1.5383704   439061 
 1972000    1.0261556    -3.394262    -3.394262    -1.855032   0.07287941    -3.394262      1.53923   439061 
 1973000    1.0258783   -3.3959577   -3.3959577   -1.8571437  0.066358498   -3.3959577     1.538814   439061 
 1974000    1.0240988   -3.3943112   -3.3943112   -1.8581666  0.070904678   -3.3943112    1.5361447   439061 
 1975000    1.0244292   -3.3954024   -3.3954024   -1.8587621  0.068005789   -3.3954024    1.5366402   439061 
 1976000    1.0259876   -3.3970106   -3.3970106   -1.8580327  0.067003065   -3.3970106    1.5389779   439061 
 1977000    1.0236827    -3.393957    -3.393957   -1.8584365  0.072552509    -3.393957    1.5355205   439061 
 1978000    1.0259358   -3.3966086   -3.3966086   -1.8577084  0.068265667   -3.3966086    1.5389002   439061 
 1979000    1.0258785   -3.3959982   -3.3959982   -1.8571839  0.073858506   -3.3959982    1.5388143   439061 
 1980000    1.0265309   -3.3949073   -3.3949073   -1.8551144  0.071331438   -3.3949073    1.5397929   439061 
 1981000    1.0267753   -3.3969397   -3.3969397   -1.8567802  0.073098415   -3.3969397    1.5401595   439061 
 1982000    1.0276706   -3.3988643   -3.3988643   -1.8573619  0.068913727   -3.3988643    1.5415024   439061 
 1983000    1.0267259   -3.3978931   -3.3978931   -1.8578077  0.065716904   -3.3978931    1.5400853   439061 
 1984000     1.026339   -3.3969576   -3.3969576   -1.8574526  0.070034955   -3.3969576     1.539505   439061 
 1985000    1.0267416   -3.3979828   -3.3979828   -1.8578739  0.073610825   -3.3979828    1.5401088   439061 
 1986000    1.0245655   -3.3957994   -3.3957994   -1.8589547  0.078310429   -3.3957994    1.5368447   439061 
 1987000    1.0265147   -3.3982531   -3.3982531   -1.8584846  0.074799969   -3.3982531    1.5397686   439061 
 1988000    1.0257032   -3.3977048   -3.3977048   -1.8591535  0.069196255   -3.3977048    1.5385513   439061 
 1989000    1.0275868   -3.3995506   -3.3995506   -1.8581739  0.070895645   -3.3995506    1.5413767   439061 
 1990000    1.0249946   -3.3972139   -3.3972139   -1.8597255  0.070163268   -3.3972139    1.5374884   439061 
 1991000    1.0269452   -3.3989798   -3.3989798   -1.8585654  0.070226107   -3.3989798    1.5404143   439061 
 1992000    1.0260979   -3.3984343   -3.3984343   -1.8592909  0.077160487   -3.3984343    1.5391434   439061 
 1993000    1.0262102   -3.3995002   -3.3995002   -1.8601884  0.077089408   -3.3995002    1.5393119   439061 
 1994000    1.0267944   -3.3998618   -3.3998618   -1.8596737   0.06881754   -3.3998618    1.5401882   439061 
 1995000    1.0273841   -3.4012086   -3.4012086   -1.8601359  0.074318693   -3.4012086    1.5410727   439061 
 1996000    1.0262721   -3.3989869   -3.3989869   -1.8595822  0.079073501   -3.3989869    1.5394047   439061 
 1997000    1.0266437   -3.4004362   -3.4004362   -1.8604741  0.071817738   -3.4004362    1.5399621   439061 
 1998000    1.0270674   -3.3996335   -3.3996335   -1.8590359   0.07310884   -3.3996335    1.5405976   439061 
 1999000     1.026215   -3.3984733   -3.3984733   -1.8591543  0.074792037   -3.3984733    1.5393189   439061 
 2000000    1.0275919   -3.4007723   -3.4007723   -1.8593879  0.073274831   -3.4007723    1.5413844   439061 
 2001000    1.0255635   -3.3979365   -3.3979365   -1.8595947  0.071540419   -3.3979365    1.5383417   439061 
 2002000    1.0256435   -3.3979906   -3.3979906   -1.8595289  0.072346054   -3.3979906    1.5384618   439061 
 2003000    1.0268672   -3.4014617   -3.4014617   -1.8611644  0.071271743   -3.4014617    1.5402972   439061 
 2004000     1.026999   -3.4016511   -3.4016511   -1.8611561  0.071483855   -3.4016511    1.5404949   439061 
 2005000    1.0277053   -3.4015248   -3.4015248   -1.8599703  0.067327546   -3.4015248    1.5415545   439061 
 2006000    1.0259768   -3.4000547   -3.4000547   -1.8610931  0.068953688   -3.4000547    1.5389616   439061 
 2007000      1.02783   -3.4015469   -3.4015469   -1.8598053  0.066812075   -3.4015469    1.5417416   439061 
 2008000    1.0266675   -3.3991271   -3.3991271   -1.8591294   0.06785544   -3.3991271    1.5399977   439061 
 2009000    1.0248242   -3.3966634   -3.3966634   -1.8594306  0.071316033   -3.3966634    1.5372328   439061 
 2010000    1.0250015   -3.3975419   -3.3975419   -1.8600433  0.072661372   -3.3975419    1.5374987   439061 
 2011000    1.0270276    -3.400601    -3.400601   -1.8600631   0.06717344    -3.400601    1.5405379   439061 
 2012000    1.0267444   -3.4003634   -3.4003634   -1.8602503  0.073440089   -3.4003634    1.5401131   439061 
 2013000    1.0262837   -3.3992415   -3.3992415   -1.8598194  0.070286458   -3.3992415    1.5394221   439061 
 2014000    1.0262683   -3.3991667   -3.3991667   -1.8597678  0.067786865   -3.3991667    1.5393989   439061 
 2015000    1.0258687   -3.3993095   -3.3993095   -1.8605099  0.073582766   -3.3993095    1.5387996   439061 
 2016000    1.0259952   -3.3999875   -3.3999875   -1.8609983  0.071334681   -3.3999875    1.5389893   439061 
 2017000    1.0263133   -3.4002211   -3.4002211   -1.8607546  0.068007128   -3.4002211    1.5394665   439061 
 2018000    1.0256456   -3.3993076   -3.3993076   -1.8608426  0.068211885   -3.3993076     1.538465   439061 
 2019000    1.0244004   -3.3986611   -3.3986611    -1.862064  0.073518106   -3.3986611    1.5365971   439061 
 2020000    1.0255993   -3.3998617   -3.3998617   -1.8614663  0.069294028   -3.3998617    1.5383954   439061 
 2021000    1.0258133   -3.4010238   -3.4010238   -1.8623074  0.069571566   -3.4010238    1.5387164   439061 
 2022000    1.0249609   -3.3998936   -3.3998936   -1.8624558  0.070155565   -3.3998936    1.5374378   439061 
 2023000    1.0242521   -3.3998286   -3.3998286    -1.863454  0.071443011   -3.3998286    1.5363746   439061 
 2024000    1.0260932   -3.4022298   -3.4022298   -1.8630935  0.071605765   -3.4022298    1.5391363   439061 
 2025000    1.0257255   -3.4011309   -3.4011309   -1.8625462  0.071207684   -3.4011309    1.5385847   439061 
 2026000    1.0251999   -3.4015309   -3.4015309   -1.8637345  0.068868361   -3.4015309    1.5377964   439061 
 2027000     1.026571   -3.4032884   -3.4032884   -1.8634354  0.069962573   -3.4032884     1.539853   439061 
 2028000    1.0261254   -3.4030198   -3.4030198   -1.8638353  0.073241815   -3.4030198    1.5391845   439061 
 2029000    1.0259591   -3.4038945   -3.4038945   -1.8649594  0.070953612   -3.4038945    1.5389351   439061 
 2030000    1.0255792   -3.4032526   -3.4032526   -1.8648873   0.07155911   -3.4032526    1.5383653   439061 
 2031000    1.0258823   -3.4030952   -3.4030952   -1.8642753  0.072626608   -3.4030952    1.5388199   439061 
 2032000    1.0270304   -3.4047149   -3.4047149   -1.8641729  0.079807764   -3.4047149     1.540542   439061 
 2033000    1.0272697   -3.4039269   -3.4039269   -1.8630258  0.074449859   -3.4039269     1.540901   439061 
 2034000    1.0258905   -3.4031763   -3.4031763   -1.8643441  0.076759454   -3.4031763    1.5388322   439061 
 2035000    1.0259378   -3.4032739   -3.4032739   -1.8643707  0.078226366   -3.4032739    1.5389032   439061 
 2036000    1.0265622   -3.4054603   -3.4054603   -1.8656205  0.068682696   -3.4054603    1.5398398   439061 
 2037000     1.027099   -3.4056344   -3.4056344   -1.8649893  0.066182365   -3.4056344     1.540645   439061 
 2038000    1.0244329   -3.4032924   -3.4032924   -1.8666464  0.074164364   -3.4032924    1.5366459   439061 
 2039000    1.0231804   -3.4023016   -3.4023016   -1.8675345  0.069374567   -3.4023016    1.5347671   439061 
 2040000    1.0235201   -3.4026048   -3.4026048   -1.8673282  0.071273345   -3.4026048    1.5352767   439061 
 2041000    1.0249314   -3.4054856   -3.4054856    -1.868092  0.065588655   -3.4054856    1.5373935   439061 
 2042000    1.0227567   -3.4017029   -3.4017029   -1.8675714  0.070491877   -3.4017029    1.5341315   439061 
 2043000    1.0243995    -3.404434    -3.404434   -1.8678383   0.06658885    -3.404434    1.5365957   439061 
 2044000    1.0237555   -3.4035392   -3.4035392   -1.8679094  0.067222597   -3.4035392    1.5356297   439061 
 2045000    1.0250999   -3.4048559   -3.4048559   -1.8672095  0.069936819   -3.4048559    1.5376464   439061 
 2046000    1.0235572   -3.4017541   -3.4017541   -1.8664218  0.072906938   -3.4017541    1.5353323   439061 
 2047000    1.0257056   -3.4029482   -3.4029482   -1.8643933   0.07140137   -3.4029482    1.5385549   439061 
 2048000    1.0266157    -3.403723    -3.403723    -1.863803  0.070877632    -3.403723      1.53992   439061 
 2049000    1.0253558   -3.4030029   -3.4030029   -1.8649727  0.066726161   -3.4030029    1.5380302   439061 
 2050000    1.0257326   -3.4032328   -3.4032328   -1.8646374  0.067701358   -3.4032328    1.5385954   439061 
 2051000    1.0242604   -3.4015157   -3.4015157   -1.8651287  0.075525797   -3.4015157    1.5363871   439061 
 2052000    1.0263778   -3.4049219   -3.4049219   -1.8653586  0.068606409   -3.4049219    1.5395632   439061 
 2053000    1.0249937   -3.4032747   -3.4032747   -1.8657876  0.069276055   -3.4032747    1.5374871   439061 
 2054000    1.0235428   -3.4009169   -3.4009169   -1.8656062  0.074890521   -3.4009169    1.5353107   439061 
 2055000    1.0244361   -3.4031999   -3.4031999   -1.8665493  0.069302391   -3.4031999    1.5366506   439061 
 2056000    1.0231775   -3.4009499   -3.4009499   -1.8661872   0.06848348   -3.4009499    1.5347627   439061 
 2057000    1.0227405   -3.4004268   -3.4004268   -1.8663195  0.067609221   -3.4004268    1.5341073   439061 
 2058000    1.0236358   -3.4009558   -3.4009558   -1.8655057  0.070965947   -3.4009558    1.5354501   439061 
 2059000    1.0257657    -3.403934    -3.403934   -1.8652889  0.069484382    -3.403934    1.5386451   439061 
 2060000    1.0247461   -3.4039386   -3.4039386    -1.866823  0.067267449   -3.4039386    1.5371156   439061 
 2061000    1.0243522   -3.4038294   -3.4038294   -1.8673046  0.069299942   -3.4038294    1.5365247   439061 
 2062000    1.0231737   -3.4032367   -3.4032367   -1.8684796  0.068200199   -3.4032367    1.5347571   439061 
 2063000    1.0244463   -3.4042285   -3.4042285   -1.8675625  0.071757504   -3.4042285     1.536666   439061 
 2064000    1.0249656    -3.405053    -3.405053   -1.8676081  0.072902803    -3.405053    1.5374449   439061 
 2065000    1.0244168   -3.4045908   -3.4045908    -1.867969  0.076050238   -3.4045908    1.5366217   439061 
 2066000    1.0230673   -3.4033287   -3.4033287   -1.8687313  0.076158364   -3.4033287    1.5345974   439061 
 2067000    1.0258827   -3.4064186   -3.4064186   -1.8675981  0.068358502   -3.4064186    1.5388205   439061 
 2068000    1.0245018   -3.4052935   -3.4052935   -1.8685443  0.065840585   -3.4052935    1.5367491   439061 
 2069000    1.0240614   -3.4053534   -3.4053534   -1.8692648   0.06933136   -3.4053534    1.5360886   439061 
 2070000    1.0231445   -3.4049039   -3.4049039   -1.8701906  0.074893518   -3.4049039    1.5347133   439061 
 2071000    1.0235194   -3.4055795   -3.4055795   -1.8703038  0.072556287   -3.4055795    1.5352757   439061 
 2072000    1.0237995   -3.4068736   -3.4068736    -1.871178  0.066853851   -3.4068736    1.5356957   439061 
 2073000    1.0232903   -3.4063817   -3.4063817   -1.8714498   0.06831891   -3.4063817    1.5349319   439061 
 2074000    1.0228731   -3.4054242   -3.4054242   -1.8711181  0.071519394   -3.4054242    1.5343061   439061 
 2075000    1.0229161   -3.4050941   -3.4050941   -1.8707234  0.070508136   -3.4050941    1.5343707   439061 
 2076000    1.0253769   -3.4073079   -3.4073079   -1.8692461  0.068623175   -3.4073079    1.5380618   439061 
 2077000    1.0249569   -3.4065998   -3.4065998   -1.8691679  0.072488459   -3.4065998    1.5374318   439061 
 2078000    1.0238856   -3.4048136   -3.4048136   -1.8689888  0.071463749   -3.4048136    1.5358249   439061 
 2079000    1.0246075   -3.4063634   -3.4063634   -1.8694556  0.070232558   -3.4063634    1.5369077   439061 
 2080000    1.0257933    -3.408249    -3.408249   -1.8695626  0.072473927    -3.408249    1.5386864   439061 
 2081000    1.0259504   -3.4092204   -3.4092204   -1.8702982  0.072444817   -3.4092204    1.5389222   439061 
 2082000    1.0246067   -3.4084046   -3.4084046    -1.871498  0.067331447   -3.4084046    1.5369066   439061 
 2083000    1.0246322   -3.4065525   -3.4065525   -1.8696077  0.074950339   -3.4065525    1.5369448   439061 
 2084000    1.0263751   -3.4085408   -3.4085408   -1.8689816  0.070960794   -3.4085408    1.5395592   439061 
 2085000    1.0268757   -3.4084766   -3.4084766   -1.8681666   0.07176727   -3.4084766      1.54031   439061 
 2086000    1.0260486   -3.4081015   -3.4081015   -1.8690321  0.076174238   -3.4081015    1.5390694   439061 
 2087000      1.02506   -3.4092423   -3.4092423   -1.8716558  0.068833602   -3.4092423    1.5375865   439061 
 2088000    1.0231631   -3.4055897   -3.4055897   -1.8708486  0.077065531   -3.4055897    1.5347412   439061 
 2089000     1.024474   -3.4071537   -3.4071537   -1.8704462  0.071276673   -3.4071537    1.5367075   439061 
 2090000    1.0243596   -3.4069021   -3.4069021   -1.8703661  0.069869611   -3.4069021     1.536536   439061 
 2091000    1.0241175   -3.4070248   -3.4070248    -1.870852  0.065034155   -3.4070248    1.5361728   439061 
 2092000    1.0236428   -3.4060407   -3.4060407   -1.8705799   0.06315743   -3.4060407    1.5354608   439061 
 2093000    1.0230023   -3.4045383   -3.4045383   -1.8700384  0.075287276   -3.4045383    1.5344999   439061 
 2094000    1.0250167   -3.4071599   -3.4071599   -1.8696384  0.075562133   -3.4071599    1.5375215   439061 
 2095000    1.0234646   -3.4055406   -3.4055406   -1.8703473  0.073726469   -3.4055406    1.5351933   439061 
 2096000    1.0242626   -3.4057874   -3.4057874    -1.869397  0.069766819   -3.4057874    1.5363904   439061 
 2097000    1.0236112   -3.4036231   -3.4036231   -1.8682098  0.068511157   -3.4036231    1.5354133   439061 
 2098000    1.0231622   -3.4022515   -3.4022515   -1.8675117  0.071124731   -3.4022515    1.5347398   439061 
 2099000    1.0262665   -3.4068707   -3.4068707   -1.8674746  0.065610247   -3.4068707    1.5393962   439061 
 2100000    1.0246969   -3.4055804   -3.4055804   -1.8685386  0.065895133   -3.4055804    1.5370418   439061 
 2101000     1.023549   -3.4042689   -3.4042689   -1.8689489  0.062802215   -3.4042689      1.53532   439061 
 2102000     1.023025   -3.4042315   -3.4042315   -1.8696975   0.06217112   -3.4042315     1.534534   439061 
 2103000    1.0209968   -3.4000108   -3.4000108    -1.868519  0.068462045   -3.4000108    1.5314917   439061 
 2104000     1.023601   -3.4036634   -3.4036634   -1.8682654  0.070412891   -3.4036634     1.535398   439061 
 2105000    1.0231749   -3.4044719   -3.4044719    -1.869713  0.065465796   -3.4044719    1.5347589   439061 
 2106000    1.0219996   -3.4025912   -3.4025912   -1.8695952  0.068788532   -3.4025912    1.5329959   439061 
 2107000    1.0232896   -3.4028809   -3.4028809     -1.86795  0.071355574   -3.4028809    1.5349309   439061 
 2108000    1.0247339   -3.4059744   -3.4059744   -1.8688771  0.072859061   -3.4059744    1.5370974   439061 
 2109000    1.0244873   -3.4046005   -3.4046005    -1.867873  0.071249663   -3.4046005    1.5367275   439061 
 2110000    1.0238713   -3.4059869   -3.4059869   -1.8701834  0.070946918   -3.4059869    1.5358035   439061 
 2111000    1.0238828   -3.4063217   -3.4063217   -1.8705011  0.073042594   -3.4063217    1.5358207   439061 
 2112000    1.0259931   -3.4083371   -3.4083371    -1.869351  0.073561406   -3.4083371    1.5389861   439061 
 2113000    1.0264084   -3.4103483   -3.4103483   -1.8707392  0.067520771   -3.4103483    1.5396091   439061 
 2114000    1.0238587   -3.4079421   -3.4079421   -1.8721575  0.074600422   -3.4079421    1.5357845   439061 
 2115000    1.0247729   -3.4079308   -3.4079308    -1.870775  0.072668285   -3.4079308    1.5371558   439061 
 2116000      1.02471   -3.4088026   -3.4088026   -1.8717411  0.070102399   -3.4088026    1.5370615   439061 
 2117000    1.0234802   -3.4074593   -3.4074593   -1.8722424  0.073951146   -3.4074593    1.5352168   439061 
 2118000    1.0241278   -3.4087565   -3.4087565   -1.8725683  0.071190528   -3.4087565    1.5361882   439061 
 2119000    1.0239551   -3.4090122   -3.4090122    -1.873083  0.070759727   -3.4090122    1.5359292   439061 
 2120000    1.0247042    -3.410125    -3.410125   -1.8730722  0.069514906    -3.410125    1.5370528   439061 
 2121000    1.0255435   -3.4091407   -3.4091407    -1.870829  0.069807277   -3.4091407    1.5383117   439061 
 2122000    1.0256001   -3.4104649   -3.4104649   -1.8720682  0.070192591   -3.4104649    1.5383967   439061 
 2123000    1.0241829   -3.4090875   -3.4090875   -1.8728167   0.07072654   -3.4090875    1.5362708   439061 
 2124000    1.0246943   -3.4103769   -3.4103769    -1.873339    0.0666201   -3.4103769     1.537038   439061 
 2125000    1.0236061   -3.4095456   -3.4095456   -1.8741399  0.067387243   -3.4095456    1.5354056   439061 
 2126000    1.0213392   -3.4074015   -3.4074015   -1.8753963  0.068930877   -3.4074015    1.5320052   439061 
 2127000    1.0208435   -3.4073819   -3.4073819   -1.8761201  0.069127785   -3.4073819    1.5312618   439061 
 2128000    1.0215074   -3.4076529   -3.4076529   -1.8753952  0.067249513   -3.4076529    1.5322576   439061 
 2129000     1.022749   -3.4082552   -3.4082552   -1.8741352  0.071963226   -3.4082552      1.53412   439061 
 2130000    1.0204189   -3.4053174   -3.4053174   -1.8746926  0.068793487   -3.4053174    1.5306249   439061 
 2131000    1.0229714   -3.4086233   -3.4086233   -1.8741697  0.066407083   -3.4086233    1.5344536   439061 
 2132000    1.0234398   -3.4090631   -3.4090631   -1.8739069  0.070268746   -3.4090631    1.5351562   439061 
 2133000    1.0240895   -3.4102941   -3.4102941   -1.8741633  0.069753244   -3.4102941    1.5361308   439061 
 2134000     1.024283   -3.4084423   -3.4084423   -1.8720213  0.070483125   -3.4084423     1.536421   439061 
 2135000    1.0242659   -3.4097859   -3.4097859   -1.8733905  0.068624667   -3.4097859    1.5363954   439061 
 2136000    1.0266786   -3.4125887   -3.4125887   -1.8725743  0.071089894   -3.4125887    1.5400144   439061 
 2137000    1.0238556   -3.4092877   -3.4092877   -1.8735078  0.068681856   -3.4092877    1.5357799   439061 
 2138000    1.0236957   -3.4086186   -3.4086186   -1.8730786  0.072494215   -3.4086186      1.53554   439061 
 2139000    1.0241912   -3.4083504   -3.4083504   -1.8720671  0.070391996   -3.4083504    1.5362833   439061 
 2140000    1.0247545   -3.4101276   -3.4101276   -1.8729994  0.069123926   -3.4101276    1.5371283   439061 
 2141000     1.023988   -3.4082435   -3.4082435    -1.872265  0.072604267   -3.4082435    1.5359785   439061 
 2142000    1.0245411   -3.4108247   -3.4108247   -1.8740164  0.070624477   -3.4108247    1.5368082   439061 
 2143000    1.0247636   -3.4107904   -3.4107904   -1.8736484  0.070212057   -3.4107904    1.5371419   439061 
 2144000    1.0249171   -3.4098743   -3.4098743   -1.8725021  0.073075067   -3.4098743    1.5373721   439061 
 2145000    1.0256793   -3.4106784   -3.4106784   -1.8721629  0.073141086   -3.4106784    1.5385154   439061 
 2146000    1.0241226   -3.4098418   -3.4098418   -1.8736614  0.067983204   -3.4098418    1.5361804   439061 
 2147000    1.0241576   -3.4103408   -3.4103408   -1.8741078  0.072764573   -3.4103408     1.536233   439061 
 2148000    1.0242375   -3.4097632   -3.4097632   -1.8734105  0.070220558   -3.4097632    1.5363527   439061 
 2149000    1.0259831   -3.4119087   -3.4119087   -1.8729376  0.071637288   -3.4119087    1.5389711   439061 
 2150000    1.0238554   -3.4101892   -3.4101892   -1.8744096   0.06893068   -3.4101892    1.5357796   439061 
 2151000      1.02462   -3.4102813   -3.4102813   -1.8733549  0.075335469   -3.4102813    1.5369265   439061 
 2152000    1.0239487   -3.4106595   -3.4106595   -1.8747399  0.070314423   -3.4106595    1.5359195   439061 
 2153000    1.0244498   -3.4102915   -3.4102915   -1.8736203  0.071044127   -3.4102915    1.5366712   439061 
 2154000    1.0236687   -3.4100494   -3.4100494   -1.8745499  0.069995343   -3.4100494    1.5354995   439061 
 2155000    1.0237762   -3.4096783   -3.4096783   -1.8740175  0.069133828   -3.4096783    1.5356608   439061 
 2156000    1.0238552   -3.4100085   -3.4100085   -1.8742292  0.069200905   -3.4100085    1.5357793   439061 
 2157000    1.0243204   -3.4114541   -3.4114541    -1.874977  0.070127673   -3.4114541    1.5364772   439061 
 2158000    1.0240735   -3.4100907   -3.4100907    -1.873984  0.066685921   -3.4100907    1.5361067   439061 
 2159000    1.0236701   -3.4097668   -3.4097668   -1.8742652  0.065554265   -3.4097668    1.5355016   439061 
 2160000    1.0226666   -3.4084714   -3.4084714   -1.8744751  0.069353972   -3.4084714    1.5339964   439061 
 2161000    1.0241996   -3.4107629   -3.4107629   -1.8744671  0.065845052   -3.4107629    1.5362959   439061 
 2162000    1.0232731   -3.4085207   -3.4085207   -1.8736146  0.070636993   -3.4085207    1.5349061   439061 
 2163000    1.0231855   -3.4091816   -3.4091816   -1.8744068  0.065458902   -3.4091816    1.5347748   439061 
 2164000    1.0240993   -3.4093483   -3.4093483   -1.8732029  0.069944973   -3.4093483    1.5361454   439061 
 2165000    1.0233473   -3.4067027   -3.4067027   -1.8716852   0.07457296   -3.4067027    1.5350175   439061 
 2166000    1.0238302    -3.407727    -3.407727   -1.8719852  0.068961577    -3.407727    1.5357419   439061 
 2167000    1.0239227   -3.4098441   -3.4098441   -1.8739636  0.069079148   -3.4098441    1.5358805   439061 
 2168000    1.0214406   -3.4060361   -3.4060361   -1.8738787  0.076522056   -3.4060361    1.5321575   439061 
 2169000     1.024426   -3.4113531   -3.4113531   -1.8747176  0.066543335   -3.4113531    1.5366355   439061 
 2170000    1.0237504   -3.4108612   -3.4108612   -1.8752391  0.065506822   -3.4108612    1.5356221   439061 
 2171000    1.0235196   -3.4103046   -3.4103046   -1.8750286  0.074209752   -3.4103046     1.535276   439061 
 2172000    1.0239916   -3.4107474   -3.4107474   -1.8747635  0.064811174   -3.4107474     1.535984   439061 
 2173000    1.0233881   -3.4109361   -3.4109361   -1.8758575  0.069657441   -3.4109361    1.5350786   439061 
 2174000    1.0232769   -3.4101421   -3.4101421   -1.8752303  0.069196627   -3.4101421    1.5349119   439061 
 2175000     1.022159   -3.4104817   -3.4104817   -1.8772467  0.071203123   -3.4104817     1.533235   439061 
 2176000    1.0227792   -3.4114765   -3.4114765   -1.8773113  0.066285849   -3.4114765    1.5341653   439061 
 2177000     1.022454   -3.4101935   -3.4101935    -1.876516  0.070088057   -3.4101935    1.5336774   439061 
 2178000    1.0229087   -3.4114546   -3.4114546   -1.8770951  0.067283066   -3.4114546    1.5343596   439061 
 2179000    1.0234945    -3.412176    -3.412176   -1.8769378  0.071578004    -3.412176    1.5352382   439061 
 2180000    1.0228011   -3.4106905   -3.4106905   -1.8764924  0.068385219   -3.4106905    1.5341982   439061 
 2181000    1.0248808   -3.4147843   -3.4147843   -1.8774667  0.061907818   -3.4147843    1.5373176   439061 
 2182000    1.0247003   -3.4154038   -3.4154038   -1.8783569  0.069036678   -3.4154038    1.5370469   439061 
 2183000    1.0234299   -3.4119962   -3.4119962   -1.8768549  0.070375284   -3.4119962    1.5351413   439061 
 2184000    1.0233664   -3.4130375   -3.4130375   -1.8779914  0.067282349   -3.4130375    1.5350462   439061 
 2185000    1.0239111   -3.4143948   -3.4143948   -1.8785317  0.071950017   -3.4143948    1.5358631   439061 
 2186000    1.0247241   -3.4153752   -3.4153752   -1.8782925  0.065236877   -3.4153752    1.5370826   439061 
 2187000    1.0229442    -3.413692    -3.413692   -1.8792792  0.070091515    -3.413692    1.5344128   439061 
 2188000    1.0255538   -3.4185678   -3.4185678   -1.8802406  0.067186127   -3.4185678    1.5383272   439061 
 2189000    1.0244614   -3.4175832   -3.4175832   -1.8808946   0.06095741   -3.4175832    1.5366886   439061 
 2190000    1.0231944   -3.4161693   -3.4161693   -1.8813811  0.070977623   -3.4161693    1.5347882   439061 
 2191000    1.0232083   -3.4159818   -3.4159818   -1.8811728  0.069946214   -3.4159818     1.534809   439061 
 2192000    1.0235602   -3.4174548   -3.4174548    -1.882118  0.061048066   -3.4174548    1.5353367   439061 
 2193000    1.0215698   -3.4147026   -3.4147026   -1.8823514  0.071687362   -3.4147026    1.5323511   439061 
 2194000    1.0234408   -3.4160919   -3.4160919   -1.8809341  0.066886212   -3.4160919    1.5351577   439061 
 2195000    1.0220485   -3.4156119   -3.4156119   -1.8825427  0.069431476   -3.4156119    1.5330692   439061 
 2196000    1.0234068   -3.4172027   -3.4172027    -1.882096   0.07330337   -3.4172027    1.5351067   439061 
 2197000    1.0219579   -3.4162414   -3.4162414    -1.883308  0.068008391   -3.4162414    1.5329334   439061 
 2198000    1.0215212   -3.4171129   -3.4171129   -1.8848346  0.077590886   -3.4171129    1.5322783   439061 
 2199000    1.0259671   -3.4216198   -3.4216198   -1.8826726  0.066069376   -3.4216198    1.5389472   439061 
 2200000    1.0247159   -3.4198698   -3.4198698   -1.8827995  0.066814984   -3.4198698    1.5370703   439061 
 2201000    1.0237038   -3.4170157   -3.4170157   -1.8814636  0.070184856   -3.4170157    1.5355521   439061 
 2202000    1.0240397   -3.4195942   -3.4195942   -1.8835382  0.068409791   -3.4195942     1.536056   439061 
 2203000     1.023597   -3.4190532   -3.4190532   -1.8836613  0.069972403   -3.4190532     1.535392   439061 
 2204000    1.0242987   -3.4196894   -3.4196894   -1.8832448  0.069472146   -3.4196894    1.5364446   439061 
 2205000     1.023642   -3.4196014   -3.4196014   -1.8841419  0.067461956   -3.4196014    1.5354595   439061 
 2206000     1.023835   -3.4199753   -3.4199753   -1.8842263  0.066358711   -3.4199753     1.535749   439061 
 2207000     1.022885   -3.4185554   -3.4185554   -1.8842314  0.068815785   -3.4185554     1.534324   439061 
 2208000    1.0213181   -3.4171436   -3.4171436   -1.8851699  0.068987938   -3.4171436    1.5319736   439061 
 2209000    1.0226845     -3.41927     -3.41927   -1.8852468  0.064069856     -3.41927    1.5340232   439061 
 2210000    1.0231414   -3.4196983   -3.4196983   -1.8849897  0.067128045   -3.4196983    1.5347086   439061 
 2211000    1.0212123   -3.4175417   -3.4175417   -1.8857267   0.06742804   -3.4175417     1.531815   439061 
 2212000    1.0218589   -3.4176455   -3.4176455   -1.8848606  0.067406406   -3.4176455    1.5327849   439061 
 2213000    1.0218676   -3.4187938   -3.4187938    -1.885996  0.065424751   -3.4187938    1.5327979   439061 
 2214000    1.0213558   -3.4176872   -3.4176872    -1.885657  0.063801298   -3.4176872    1.5320303   439061 
 2215000    1.0218101   -3.4181527   -3.4181527    -1.885441  0.064530709   -3.4181527    1.5327117   439061 
 2216000    1.0222925   -3.4179306   -3.4179306   -1.8844952  0.065818116   -3.4179306    1.5334353   439061 
 2217000    1.0229327    -3.418726    -3.418726   -1.8843304  0.069058737    -3.418726    1.5343955   439061 
 2218000    1.0223565   -3.4183072   -3.4183072   -1.8847759  0.072249949   -3.4183072    1.5335312   439061 
 2219000    1.0220912   -3.4194517   -3.4194517   -1.8863184  0.072571161   -3.4194517    1.5331333   439061 
 2220000    1.0219851    -3.419572    -3.419572   -1.8865979  0.067903158    -3.419572    1.5329741   439061 
 2221000    1.0212425   -3.4187084   -3.4187084   -1.8868481  0.069088031   -3.4187084    1.5318603   439061 
 2222000    1.0221572   -3.4194871   -3.4194871   -1.8862547  0.067381109   -3.4194871    1.5332324   439061 
 2223000    1.0223197   -3.4176586   -3.4176586   -1.8841826  0.071158863   -3.4176586    1.5334761   439061 
 2224000    1.0222643   -3.4189634   -3.4189634   -1.8855704  0.065994342   -3.4189634    1.5333929   439061 
 2225000      1.02305   -3.4199558   -3.4199558   -1.8853843  0.069515653   -3.4199558    1.5345715   439061 
 2226000    1.0220301   -3.4198068   -3.4198068   -1.8867651  0.067500098   -3.4198068    1.5330416   439061 
 2227000    1.0219911   -3.4201015   -3.4201015   -1.8871183  0.070367623   -3.4201015    1.5329832   439061 
 2228000    1.0216777   -3.4196129   -3.4196129   -1.8870998  0.066711601   -3.4196129    1.5325131   439061 
 2229000    1.0220463   -3.4194979   -3.4194979   -1.8864319  0.071945808   -3.4194979     1.533066   439061 
 2230000    1.0222858   -3.4192668   -3.4192668   -1.8858417  0.070696106   -3.4192668    1.5334252   439061 
 2231000    1.0231404   -3.4190544   -3.4190544   -1.8843473  0.070471054   -3.4190544    1.5347071   439061 
 2232000    1.0223525   -3.4172322   -3.4172322    -1.883707  0.076153991   -3.4172322    1.5335252   439061 
 2233000    1.0228077   -3.4184106   -3.4184106   -1.8842026  0.072425047   -3.4184106     1.534208   439061 
 2234000    1.0240767   -3.4187729   -3.4187729   -1.8826614  0.067357513   -3.4187729    1.5361116   439061 
 2235000    1.0245669   -3.4197542   -3.4197542   -1.8829074  0.066664017   -3.4197542    1.5368468   439061 
 2236000    1.0227028   -3.4180126   -3.4180126   -1.8839619  0.068619777   -3.4180126    1.5340507   439061 
 2237000     1.023305   -3.4201222   -3.4201222   -1.8851682  0.067073047   -3.4201222     1.534954   439061 
 2238000    1.0218375   -3.4192331   -3.4192331   -1.8864804  0.065771162   -3.4192331    1.5327527   439061 
 2239000    1.0210314   -3.4206979   -3.4206979   -1.8891543  0.062559283   -3.4206979    1.5315436   439061 
 2240000     1.020418   -3.4181739   -3.4181739   -1.8875504  0.065192862   -3.4181739    1.5306236   439061 
 2241000    1.0210324   -3.4191397   -3.4191397   -1.8875946  0.060818055   -3.4191397    1.5315451   439061 
 2242000    1.0207024   -3.4196799   -3.4196799   -1.8886297  0.064185588   -3.4196799    1.5310502   439061 
 2243000    1.0202284   -3.4176005   -3.4176005   -1.8872614  0.063633581   -3.4176005    1.5303391   439061 
 2244000    1.0205037   -3.4195551   -3.4195551   -1.8888031  0.060083211   -3.4195551     1.530752   439061 
 2245000    1.0208877   -3.4195288   -3.4195288   -1.8882007  0.061060588   -3.4195288    1.5313281   439061 
 2246000    1.0212248   -3.4195247   -3.4195247   -1.8876909  0.069712359   -3.4195247    1.5318338   439061 
 2247000     1.021969   -3.4204666   -3.4204666   -1.8875166  0.070180833   -3.4204666      1.53295   439061 
 2248000    1.0235178   -3.4216241   -3.4216241    -1.886351  0.067445712   -3.4216241    1.5352731   439061 
 2249000    1.0231436   -3.4214246   -3.4214246   -1.8867127  0.074249367   -3.4214246    1.5347119   439061 
 2250000    1.0247465   -3.4231979   -3.4231979   -1.8860817  0.070890752   -3.4231979    1.5371162   439061 
 2251000    1.0225234   -3.4207643   -3.4207643   -1.8869826  0.073196466   -3.4207643    1.5337817   439061 
 2252000    1.0245694   -3.4231537   -3.4231537   -1.8863031  0.073176658   -3.4231537    1.5368506   439061 
 2253000     1.023455    -3.423181    -3.423181    -1.888002  0.069852083    -3.423181     1.535179   439061 
 2254000    1.0225981   -3.4219035   -3.4219035   -1.8880098  0.070505789   -3.4219035    1.5338937   439061 
 2255000    1.0230051   -3.4229072   -3.4229072    -1.888403  0.072967983   -3.4229072    1.5345042   439061 
 2256000    1.0229383   -3.4236899   -3.4236899   -1.8892859   0.07419534   -3.4236899     1.534404   439061 
 2257000    1.0235534   -3.4243918   -3.4243918   -1.8890652  0.068298404   -3.4243918    1.5353267   439061 
 2258000    1.0227564   -3.4223848   -3.4223848   -1.8882537  0.067132124   -3.4223848    1.5341311   439061 
 2259000    1.0239288   -3.4259561   -3.4259561   -1.8900663   0.07118177   -3.4259561    1.5358898   439061 
 2260000    1.0233373   -3.4239845   -3.4239845   -1.8889821  0.065517538   -3.4239845    1.5350025   439061 
 2261000    1.0228723   -3.4224072   -3.4224072   -1.8881023  0.068515419   -3.4224072    1.5343049   439061 
 2262000    1.0207321   -3.4195785   -3.4195785   -1.8884839  0.067958226   -3.4195785    1.5310946   439061 
 2263000    1.0227738   -3.4227352   -3.4227352    -1.888578  0.062505655   -3.4227352    1.5341572   439061 
 2264000     1.021058   -3.4199117   -3.4199117   -1.8883282  0.069136524   -3.4199117    1.5315835   439061 
 2265000    1.0210104   -3.4206492   -3.4206492   -1.8891371  0.068893105   -3.4206492    1.5315122   439061 
 2266000    1.0213863    -3.421982    -3.421982    -1.889906  0.060628086    -3.421982     1.532076   439061 
 2267000     1.020881   -3.4209056   -3.4209056   -1.8895876  0.067090617   -3.4209056     1.531318   439061 
 2268000    1.0223353   -3.4207925   -3.4207925   -1.8872931  0.063733918   -3.4207925    1.5334994   439061 
 2269000    1.0210475    -3.420128    -3.420128   -1.8885603  0.065761033    -3.420128    1.5315677   439061 
 2270000    1.0209271   -3.4200057   -3.4200057   -1.8886185  0.065195137   -3.4200057    1.5313872   439061 
 2271000     1.021794    -3.421019    -3.421019   -1.8883315  0.063945587    -3.421019    1.5326875   439061 
 2272000    1.0219197   -3.4196531   -3.4196531   -1.8867769   0.07027298   -3.4196531    1.5328761   439061 
 2273000    1.0223212   -3.4211024   -3.4211024   -1.8876241  0.069042042   -3.4211024    1.5334783   439061 
 2274000    1.0211214   -3.4207569   -3.4207569   -1.8890782  0.061089885   -3.4207569    1.5316787   439061 
 2275000    1.0224187   -3.4217205   -3.4217205   -1.8880959  0.065078635   -3.4217205    1.5336246   439061 
 2276000    1.0230259   -3.4209001   -3.4209001   -1.8863648  0.067674142   -3.4209001    1.5345354   439061 
 2277000    1.0236769   -3.4217868   -3.4217868   -1.8862749  0.074053228   -3.4217868    1.5355119   439061 
 2278000    1.0241198   -3.4225501   -3.4225501   -1.8863739  0.072423646   -3.4225501    1.5361762   439061 
 2279000    1.0237083   -3.4223359   -3.4223359   -1.8867769  0.066818613   -3.4223359     1.535559   439061 
 2280000    1.0242184   -3.4226443   -3.4226443   -1.8863203  0.071794572   -3.4226443    1.5363241   439061 
 2281000    1.0243327   -3.4230675   -3.4230675   -1.8865718  0.065540019   -3.4230675    1.5364956   439061 
 2282000    1.0224653   -3.4206584   -3.4206584   -1.8869639  0.072300721   -3.4206584    1.5336944   439061 
 2283000    1.0228213   -3.4211868   -3.4211868   -1.8869583  0.068586848   -3.4211868    1.5342285   439061 
 2284000    1.0227464   -3.4204945   -3.4204945   -1.8863784  0.066894202   -3.4204945    1.5341161   439061 
 2285000    1.0225157   -3.4207399   -3.4207399   -1.8869699  0.071028922   -3.4207399      1.53377   439061 
 2286000    1.0209861   -3.4200505   -3.4200505   -1.8885748  0.064382608   -3.4200505    1.5314757   439061 
 2287000    1.0201222   -3.4189102   -3.4189102   -1.8887304   0.06211375   -3.4189102    1.5301798   439061 
 2288000    1.0206517    -3.420478    -3.420478   -1.8895039  0.068301621    -3.420478     1.530974   439061 
 2289000    1.0216189   -3.4219915   -3.4219915   -1.8895666  0.067751964   -3.4219915    1.5324249   439061 
 2290000    1.0217873   -3.4225495   -3.4225495   -1.8898721  0.064644112   -3.4225495    1.5326774   439061 
 2291000    1.0217402   -3.4212083   -3.4212083   -1.8886014  0.070218377   -3.4212083    1.5326069   439061 
 2292000    1.0225215   -3.4227608   -3.4227608   -1.8889821  0.065222639   -3.4227608    1.5337787   439061 
 2293000    1.0220964   -3.4216795   -3.4216795   -1.8885384  0.066608639   -3.4216795    1.5331411   439061 
 2294000    1.0216998   -3.4219644   -3.4219644   -1.8894182  0.070102124   -3.4219644    1.5325462   439061 
 2295000    1.0231882   -3.4231898   -3.4231898   -1.8884111  0.068199333   -3.4231898    1.5347788   439061 
 2296000    1.0220083   -3.4230348   -3.4230348   -1.8900258  0.068917145   -3.4230348    1.5330089   439061 
 2297000    1.0234818   -3.4248821   -3.4248821    -1.889663  0.072859314   -3.4248821    1.5352191   439061 
 2298000    1.0230442   -3.4231551   -3.4231551   -1.8885923  0.071539239   -3.4231551    1.5345628   439061 
 2299000    1.0241337   -3.4237157   -3.4237157   -1.8875187  0.069898461   -3.4237157     1.536197   439061 
 2300000    1.0228005   -3.4243869   -3.4243869   -1.8901897  0.074848471   -3.4243869    1.5341972   439061 
 2301000     1.022845   -3.4239668   -3.4239668   -1.8897028  0.069090212   -3.4239668    1.5342641   439061 
 2302000    1.0240346   -3.4249442   -3.4249442   -1.8888958   0.06904394   -3.4249442    1.5360483   439061 
 2303000    1.0236727   -3.4244591   -3.4244591   -1.8889536  0.069654212   -3.4244591    1.5355056   439061 
 2304000    1.0217752   -3.4221056   -3.4221056   -1.8894463  0.072154489   -3.4221056    1.5326594   439061 
 2305000    1.0234676   -3.4248391   -3.4248391   -1.8896411  0.069764844   -3.4248391     1.535198   439061 
 2306000     1.021839   -3.4230352   -3.4230352   -1.8902803   0.06431756   -3.4230352    1.5327549   439061 
 2307000     1.021502   -3.4234408   -3.4234408   -1.8911913  0.063719485   -3.4234408    1.5322495   439061 
 2308000    1.0210469   -3.4227613   -3.4227613   -1.8911944  0.066260633   -3.4227613    1.5315669   439061 
 2309000    1.0213027   -3.4248988   -3.4248988   -1.8929483  0.063924673   -3.4248988    1.5319505   439061 
 2310000    1.0192644      -3.4221      -3.4221   -1.8932069  0.064598585      -3.4221    1.5288931   439061 
 2311000    1.0217377   -3.4253155   -3.4253155   -1.8927124  0.060385098   -3.4253155    1.5326031   439061 
 2312000    1.0183206   -3.4213579   -3.4213579   -1.8938805  0.063707653   -3.4213579    1.5274774   439061 
 2313000    1.0210125   -3.4247714   -3.4247714   -1.8932561  0.057912262   -3.4247714    1.5315153   439061 
 2314000    1.0204174   -3.4223733   -3.4223733   -1.8917507  0.062615577   -3.4223733    1.5306226   439061 
 2315000    1.0199194   -3.4229576   -3.4229576    -1.893082  0.068505407   -3.4229576    1.5298756   439061 
 2316000    1.0213625    -3.425366    -3.425366   -1.8933257  0.066037253    -3.425366    1.5320403   439061 
 2317000    1.0230186   -3.4268252   -3.4268252   -1.8923008  0.068913733   -3.4268252    1.5345244   439061 
 2318000    1.0219293   -3.4260237   -3.4260237   -1.8931332   0.06950424   -3.4260237    1.5328905   439061 
 2319000    1.0225998   -3.4257079   -3.4257079   -1.8918117  0.072339196   -3.4257079    1.5338962   439061 
 2320000    1.0247986   -3.4279774   -3.4279774    -1.890783  0.069039969   -3.4279774    1.5371944   439061 
 2321000    1.0247866   -3.4277673   -3.4277673   -1.8905909  0.068460883   -3.4277673    1.5371764   439061 
 2322000    1.0237406   -3.4272602   -3.4272602   -1.8916528  0.072334432   -3.4272602    1.5356075   439061 
 2323000    1.0227289   -3.4273982   -3.4273982   -1.8933083  0.069751627   -3.4273982    1.5340899   439061 
 2324000    1.0221323   -3.4261811   -3.4261811   -1.8929861   0.07093703   -3.4261811     1.533195   439061 
 2325000       1.0214   -3.4268391   -3.4268391   -1.8947426  0.064076817   -3.4268391    1.5320966   439061 
 2326000    1.0212999   -3.4273175   -3.4273175   -1.8953712  0.071486614   -3.4273175    1.5319463   439061 
 2327000    1.0199163   -3.4261338   -3.4261338   -1.8962628  0.073654637   -3.4261338     1.529871   439061 
 2328000    1.0191249   -3.4272091   -3.4272091   -1.8985252  0.065199547   -3.4272091    1.5286839   439061 
 2329000    1.0202169   -3.4293223   -3.4293223   -1.8990004  0.063648039   -3.4293223    1.5303219   439061 
 2330000    1.0210113   -3.4307576   -3.4307576   -1.8992441  0.063579942   -3.4307576    1.5315135   439061 
 2331000    1.0189461   -3.4280119   -3.4280119   -1.8995962  0.064592351   -3.4280119    1.5284157   439061 
 2332000    1.0200846   -3.4302309   -3.4302309   -1.9001076  0.064073817   -3.4302309    1.5301234   439061 
 2333000    1.0195966   -3.4291845   -3.4291845    -1.899793  0.063883125   -3.4291845    1.5293915   439061 
 2334000    1.0202671   -3.4300446   -3.4300446   -1.8996475  0.063090312   -3.4300446    1.5303972   439061 
 2335000    1.0213203   -3.4318697   -3.4318697   -1.8998927  0.063833808   -3.4318697     1.531977   439061 
 2336000    1.0212242   -3.4306962   -3.4306962   -1.8988634  0.070187859   -3.4306962    1.5318327   439061 
 2337000    1.0219379   -3.4318671   -3.4318671   -1.8989638  0.071199862   -3.4318671    1.5329033   439061 
 2338000    1.0193527   -3.4310139   -3.4310139   -1.9019884  0.060964966   -3.4310139    1.5290255   439061 
 2339000    1.0211569   -3.4330684   -3.4330684   -1.9013364  0.066043003   -3.4330684    1.5317319   439061 
 2340000    1.0223684   -3.4349822   -3.4349822    -1.901433   0.06372037   -3.4349822    1.5335492   439061 
 2341000    1.0219741   -3.4331167   -3.4331167    -1.900159  0.066799392   -3.4331167    1.5329576   439061 
 2342000    1.0204582   -3.4299208   -3.4299208   -1.8992369  0.069503043   -3.4299208    1.5306838   439061 
 2343000    1.0212317   -3.4320588   -3.4320588   -1.9002148  0.063349956   -3.4320588     1.531844   439061 
 2344000    1.0206671   -3.4324264   -3.4324264   -1.9014293  0.066864646   -3.4324264    1.5309971   439061 
 2345000    1.0227242   -3.4345051   -3.4345051   -1.9004223   0.06666065   -3.4345051    1.5340827   439061 
 2346000      1.02141   -3.4328128   -3.4328128   -1.9007012  0.074287236   -3.4328128    1.5321115   439061 
 2347000    1.0219816   -3.4327938   -3.4327938   -1.8998249  0.068681513   -3.4327938     1.532969   439061 
 2348000    1.0227285   -3.4336431   -3.4336431   -1.8995539  0.075609092   -3.4336431    1.5340892   439061 
 2349000    1.0221177   -3.4327317   -3.4327317   -1.8995587  0.067607538   -3.4327317    1.5331731   439061 
 2350000    1.0220024   -3.4307048   -3.4307048   -1.8977046  0.072209467   -3.4307048    1.5330001   439061 
 2351000    1.0223583   -3.4312899   -3.4312899    -1.897756  0.073518605   -3.4312899     1.533534   439061 
 2352000    1.0219575   -3.4299172   -3.4299172   -1.8969844  0.067277031   -3.4299172    1.5329328   439061 
 2353000    1.0221765   -3.4303152   -3.4303152   -1.8970538  0.071676519   -3.4303152    1.5332613   439061 
 2354000    1.0219443   -3.4308793   -3.4308793   -1.8979664  0.063581619   -3.4308793    1.5329129   439061 
 2355000    1.0224241   -3.4310244   -3.4310244   -1.8973918  0.065948549   -3.4310244    1.5336326   439061 
 2356000    1.0224268   -3.4297463   -3.4297463   -1.8961096   0.06577862   -3.4297463    1.5336368   439061 
 2357000     1.021891   -3.4298724   -3.4298724   -1.8970395  0.064564109   -3.4298724     1.532833   439061 
 2358000     1.019057   -3.4263537   -3.4263537   -1.8977717  0.070750157   -3.4263537     1.528582   439061 
 2359000    1.0195151    -3.427294    -3.427294   -1.8980248  0.060788425    -3.427294    1.5292692   439061 
 2360000    1.0190427   -3.4262072   -3.4262072   -1.8976466  0.067048545   -3.4262072    1.5285605   439061 
 2361000    1.0191154   -3.4252757   -3.4252757    -1.896606  0.059588239   -3.4252757    1.5286696   439061 
 2362000    1.0198392   -3.4264543   -3.4264543    -1.896699  0.057612673   -3.4264543    1.5297552   439061 
 2363000    1.0188491   -3.4264435   -3.4264435   -1.8981733  0.058745579   -3.4264435    1.5282702   439061 
 2364000    1.0171019   -3.4235034   -3.4235034    -1.897854  0.066305647   -3.4235034    1.5256495   439061 
 2365000    1.0184417   -3.4249942   -3.4249942   -1.8973352  0.061715234   -3.4249942     1.527659   439061 
 2366000    1.0206948   -3.4269129   -3.4269129   -1.8958741  0.065309109   -3.4269129    1.5310387   439061 
 2367000    1.0196299   -3.4258058   -3.4258058   -1.8963645   0.06635538   -3.4258058    1.5294413   439061 
 2368000    1.0212268    -3.429318    -3.429318   -1.8974814  0.067208866    -3.429318    1.5318367   439061 
 2369000    1.0204889   -3.4289432   -3.4289432   -1.8982133  0.071729064   -3.4289432    1.5307299   439061 
 2370000    1.0206202   -3.4294658   -3.4294658   -1.8985389  0.063636445   -3.4294658    1.5309269   439061 
 2371000    1.0207409   -3.4301795   -3.4301795   -1.8990716  0.065536746   -3.4301795    1.5311079   439061 
 2372000    1.0217381     -3.43195     -3.43195   -1.8993462  0.064224241     -3.43195    1.5326037   439061 
 2373000    1.0212598    -3.432152    -3.432152   -1.9002658  0.064698467    -3.432152    1.5318862   439061 
 2374000    1.0204214   -3.4318265   -3.4318265   -1.9011979  0.071750947   -3.4318265    1.5306286   439061 
 2375000    1.0212766   -3.4335336   -3.4335336   -1.9016221  0.068355765   -3.4335336    1.5319115   439061 
 2376000    1.0212808   -3.4351014   -3.4351014   -1.9031838  0.067504023   -3.4351014    1.5319176   439061 
 2377000    1.0206114   -3.4345937   -3.4345937   -1.9036801  0.071137304   -3.4345937    1.5309136   439061 
 2378000    1.0214315   -3.4367893   -3.4367893   -1.9046456  0.065680375   -3.4367893    1.5321437   439061 
 2379000    1.0216485   -3.4357546   -3.4357546   -1.9032853  0.069364619   -3.4357546    1.5324693   439061 
 2380000    1.0220394   -3.4360173   -3.4360173   -1.9029617  0.067382926   -3.4360173    1.5330556   439061 
 2381000    1.0215801   -3.4353281   -3.4353281   -1.9029615  0.068800409   -3.4353281    1.5323666   439061 
 2382000    1.0207448    -3.434354    -3.434354   -1.9032404  0.060663511    -3.434354    1.5311137   439061 
 2383000    1.0217948   -3.4351275   -3.4351275   -1.9024388  0.069254364   -3.4351275    1.5326886   439061 
 2384000    1.0200103   -3.4340212   -3.4340212   -1.9040091  0.066806306   -3.4340212     1.530012   439061 
 2385000    1.0228206   -3.4370667   -3.4370667   -1.9028393  0.068808386   -3.4370667    1.5342274   439061 
 2386000    1.0221098   -3.4362889   -3.4362889   -1.9031278  0.070217746   -3.4362889    1.5331612   439061 
 2387000    1.0212565    -3.435101    -3.435101   -1.9032197  0.071726033    -3.435101    1.5318813   439061 
 2388000    1.0218985   -3.4355813   -3.4355813   -1.9027371  0.063449061   -3.4355813    1.5328442   439061 
 2389000    1.0204247   -3.4344056   -3.4344056   -1.9037721  0.066031805   -3.4344056    1.5306336   439061 
 2390000    1.0202417   -3.4348568   -3.4348568   -1.9044978  0.061835137   -3.4348568     1.530359   439061 
 2391000     1.020337   -3.4347993   -3.4347993   -1.9042973  0.061999719   -3.4347993     1.530502   439061 
 2392000      1.01883   -3.4318045   -3.4318045   -1.9035629   0.06194188   -3.4318045    1.5282416   439061 
 2393000    1.0202812   -3.4327126   -3.4327126   -1.9022943  0.064070849   -3.4327126    1.5304183   439061 
 2394000    1.0192636   -3.4310748   -3.4310748    -1.902183  0.063288581   -3.4310748    1.5288919   439061 
 2395000    1.0205232   -3.4315218   -3.4315218   -1.9007405  0.071208899   -3.4315218    1.5307813   439061 
 2396000    1.0197774   -3.4308854   -3.4308854   -1.9012228  0.066775258   -3.4308854    1.5296626   439061 
 2397000    1.0214393   -3.4328727   -3.4328727   -1.9007172  0.068378847   -3.4328727    1.5321554   439061 
 2398000    1.0205006   -3.4308385   -3.4308385   -1.9000911   0.06782152   -3.4308385    1.5307474   439061 
 2399000    1.0200077   -3.4293363   -3.4293363   -1.8993282  0.072112792   -3.4293363    1.5300081   439061 
 2400000    1.0218916   -3.4324313   -3.4324313   -1.8995974  0.063891473   -3.4324313    1.5328339   439061 
 2401000    1.0217089   -3.4338729   -3.4338729    -1.901313  0.061963021   -3.4338729    1.5325599   439061 
 2402000    1.0204556   -3.4310491   -3.4310491   -1.9003692  0.068980069   -3.4310491    1.5306799   439061 
 2403000    1.0217282   -3.4331835   -3.4331835   -1.9005947   0.06720093   -3.4331835    1.5325888   439061 
 2404000    1.0214483   -3.4329557   -3.4329557   -1.9007868  0.064548277   -3.4329557    1.5321689   439061 
 2405000    1.0210751   -3.4328549   -3.4328549   -1.9012458  0.060207454   -3.4328549    1.5316091   439061 
 2406000    1.0202704   -3.4329545   -3.4329545   -1.9025525  0.065217532   -3.4329545     1.530402   439061 
 2407000    1.0202776   -3.4323715   -3.4323715   -1.9019587  0.065252825   -3.4323715    1.5304128   439061 
 2408000    1.0195521   -3.4314589   -3.4314589   -1.9021342  0.067451563   -3.4314589    1.5293247   439061 
 2409000    1.0206626   -3.4345791   -3.4345791   -1.9035886  0.066616549   -3.4345791    1.5309905   439061 
 2410000    1.0207677   -3.4345793   -3.4345793   -1.9034313  0.063602013   -3.4345793     1.531148   439061 
 2411000     1.018792   -3.4312342   -3.4312342   -1.9030497  0.066001453   -3.4312342    1.5281845   439061 
 2412000    1.0222431   -3.4364195   -3.4364195   -1.9030583  0.061269886   -3.4364195    1.5333611   439061 
 2413000    1.0207705   -3.4342593   -3.4342593    -1.903107  0.067786707   -3.4342593    1.5311522   439061 
 2414000    1.0220858    -3.436159    -3.436159   -1.9030339   0.06736201    -3.436159    1.5331252   439061 
 2415000     1.021169   -3.4359372   -3.4359372   -1.9041872   0.06812602   -3.4359372    1.5317501   439061 
 2416000    1.0221473    -3.437133    -3.437133   -1.9039155  0.065385487    -3.437133    1.5332175   439061 
 2417000    1.0221219   -3.4369606   -3.4369606   -1.9037813  0.067884577   -3.4369606    1.5331794   439061 
 2418000    1.0215313   -3.4360294   -3.4360294   -1.9037359  0.068179572   -3.4360294    1.5322935   439061 
 2419000     1.022672   -3.4371201   -3.4371201   -1.9031156  0.063481027   -3.4371201    1.5340044   439061 
 2420000    1.0203401   -3.4360098   -3.4360098   -1.9055031   0.06348377   -3.4360098    1.5305067   439061 
 2421000    1.0200619   -3.4354581   -3.4354581   -1.9053688  0.068154966   -3.4354581    1.5300893   439061 
 2422000    1.0219129   -3.4378392   -3.4378392   -1.9049734  0.064889151   -3.4378392    1.5328658   439061 
 2423000    1.0191848   -3.4352071   -3.4352071   -1.9064334  0.068438494   -3.4352071    1.5287737   439061 
 2424000    1.0200448   -3.4361835   -3.4361835   -1.9061198  0.068309916   -3.4361835    1.5300637   439061 
 2425000    1.0201661   -3.4362322   -3.4362322   -1.9059865   0.06379301   -3.4362322    1.5302457   439061 
 2426000    1.0192481   -3.4352531   -3.4352531   -1.9063844   0.06925208   -3.4352531    1.5288687   439061 
 2427000    1.0208697   -3.4374296   -3.4374296   -1.9061285  0.070182469   -3.4374296    1.5313011   439061 
 2428000    1.0203794   -3.4382257   -3.4382257     -1.90766  0.067678759   -3.4382257    1.5305657   439061 
 2429000    1.0209033   -3.4386269   -3.4386269   -1.9072755  0.063363877   -3.4386269    1.5313514   439061 
 2430000    1.0197787   -3.4379539   -3.4379539   -1.9082894  0.067816552   -3.4379539    1.5296646   439061 
 2431000    1.0194323   -3.4375796   -3.4375796   -1.9084346  0.064519856   -3.4375796     1.529145   439061 
 2432000    1.0200361   -3.4385763   -3.4385763   -1.9085257   0.06850709   -3.4385763    1.5300506   439061 
 2433000    1.0209579   -3.4404621   -3.4404621   -1.9090288  0.071602625   -3.4404621    1.5314333   439061 
 2434000    1.0207445   -3.4414773   -3.4414773   -1.9103641  0.064553746   -3.4414773    1.5311133   439061 
 2435000    1.0200255   -3.4417831   -3.4417831   -1.9117483  0.062494716   -3.4417831    1.5300348   439061 
 2436000    1.0204682   -3.4414613   -3.4414613   -1.9107625   0.06573131   -3.4414613    1.5306988   439061 
 2437000    1.0187449   -3.4402485   -3.4402485   -1.9121347  0.066512546   -3.4402485    1.5281138   439061 
 2438000    1.0203691    -3.441787    -3.441787   -1.9112368  0.070342256    -3.441787    1.5305501   439061 
 2439000    1.0213769   -3.4433577   -3.4433577   -1.9112958  0.064889737   -3.4433577    1.5320619   439061 
 2440000    1.0192842   -3.4416096   -3.4416096   -1.9126869  0.068626299   -3.4416096    1.5289227   439061 
 2441000     1.020683   -3.4417796   -3.4417796   -1.9107585  0.069602658   -3.4417796    1.5310211   439061 
 2442000    1.0219851   -3.4431318   -3.4431318   -1.9101576  0.065491954   -3.4431318    1.5329742   439061 
 2443000    1.0211766   -3.4423663   -3.4423663   -1.9106049  0.070193664   -3.4423663    1.5317615   439061 
 2444000    1.0207899   -3.4419838   -3.4419838   -1.9108024  0.070705209   -3.4419838    1.5311814   439061 
 2445000    1.0202911   -3.4424349   -3.4424349   -1.9120017  0.068589969   -3.4424349    1.5304332   439061 
 2446000    1.0202672   -3.4428643   -3.4428643   -1.9124671  0.070085845   -3.4428643    1.5303972   439061 
 2447000    1.0192194   -3.4415132   -3.4415132   -1.9126876  0.068587325   -3.4415132    1.5288256   439061 
 2448000    1.0200098   -3.4421931   -3.4421931   -1.9121819   0.06554309   -3.4421931    1.5300113   439061 
 2449000    1.0172629   -3.4384302   -3.4384302   -1.9125394  0.066577772   -3.4384302    1.5258909   439061 
 2450000    1.0181795   -3.4401885   -3.4401885   -1.9129227  0.066712713   -3.4401885    1.5272658   439061 
 2451000    1.0178811   -3.4401118   -3.4401118   -1.9132936  0.067481763   -3.4401118    1.5268182   439061 
 2452000    1.0174814   -3.4397871   -3.4397871   -1.9135685  0.063484414   -3.4397871    1.5262186   439061 
 2453000    1.0185713    -3.439844    -3.439844   -1.9119904  0.066564696    -3.439844    1.5278535   439061 
 2454000    1.0181642   -3.4398695   -3.4398695   -1.9126266  0.060072625   -3.4398695    1.5272428   439061 
 2455000    1.0182745   -3.4408835   -3.4408835   -1.9134752  0.063258284   -3.4408835    1.5274083   439061 
 2456000    1.0187825    -3.442243    -3.442243   -1.9140727  0.058631955    -3.442243    1.5281702   439061 
 2457000    1.0193461   -3.4412777   -3.4412777    -1.912262  0.067382405   -3.4412777    1.5290157   439061 
 2458000      1.01914   -3.4404827   -3.4404827   -1.9117763  0.063016945   -3.4404827    1.5287065   439061 
 2459000    1.0206284    -3.442764    -3.442764   -1.9118248    0.0644611    -3.442764    1.5309391   439061 
 2460000    1.0186129   -3.4404863   -3.4404863   -1.9125704  0.062374964   -3.4404863    1.5279159   439061 
 2461000    1.0183984   -3.4403521   -3.4403521    -1.912758  0.068806915   -3.4403521    1.5275941   439061 
 2462000    1.0188437   -3.4416841   -3.4416841    -1.913422  0.064291203   -3.4416841    1.5282621   439061 
 2463000    1.0196947   -3.4416269   -3.4416269   -1.9120883  0.058792323   -3.4416269    1.5295385   439061 
 2464000    1.0190614   -3.4409312   -3.4409312   -1.9123426  0.066923015   -3.4409312    1.5285886   439061 
 2465000    1.0187618   -3.4424573   -3.4424573   -1.9143181  0.066189918   -3.4424573    1.5281392   439061 
 2466000    1.0201631   -3.4427707   -3.4427707   -1.9125296  0.069851133   -3.4427707    1.5302411   439061 
 2467000    1.0211248   -3.4437441   -3.4437441   -1.9120604  0.072146228   -3.4437441    1.5316837   439061 
 2468000     1.021636   -3.4434932   -3.4434932   -1.9110427  0.067544332   -3.4434932    1.5324505   439061 
 2469000    1.0221245   -3.4444835   -3.4444835   -1.9113003  0.066855578   -3.4444835    1.5331832   439061 
 2470000    1.0207218   -3.4427037   -3.4427037   -1.9116245  0.077240317   -3.4427037    1.5310793   439061 
 2471000    1.0196669   -3.4426514   -3.4426514   -1.9131545   0.06861495   -3.4426514    1.5294969   439061 
 2472000     1.020968   -3.4444796   -3.4444796    -1.913031  0.064218208   -3.4444796    1.5314486   439061 
 2473000    1.0201318   -3.4442465   -3.4442465   -1.9140523  0.068852077   -3.4442465    1.5301942   439061 
 2474000    1.0198084   -3.4444706   -3.4444706   -1.9147615  0.071367936   -3.4444706    1.5297091   439061 
 2475000     1.019486   -3.4429821   -3.4429821   -1.9137566  0.069136246   -3.4429821    1.5292255   439061 
 2476000    1.0208561   -3.4459305   -3.4459305   -1.9146498  0.070032853   -3.4459305    1.5312806   439061 
 2477000    1.0204819   -3.4451618   -3.4451618   -1.9144424  0.069783367   -3.4451618    1.5307194   439061 
 2478000    1.0194669   -3.4434029   -3.4434029    -1.914206  0.068081101   -3.4434029    1.5291969   439061 
 2479000     1.020533   -3.4454444   -3.4454444   -1.9146484  0.065893535   -3.4454444     1.530796   439061 
 2480000    1.0197526   -3.4452093   -3.4452093   -1.9155839  0.064646747   -3.4452093    1.5296254   439061 
 2481000    1.0183811   -3.4434535   -3.4434535   -1.9158854  0.062184765   -3.4434535    1.5275681   439061 
 2482000    1.0195585   -3.4445571   -3.4445571   -1.9152228  0.064822768   -3.4445571    1.5293343   439061 
 2483000    1.0201987   -3.4450564   -3.4450564   -1.9147618  0.065708315   -3.4450564    1.5302946   439061 
 2484000    1.0197293   -3.4439904   -3.4439904      -1.9144  0.067371726   -3.4439904    1.5295905   439061 
 2485000    1.0205566   -3.4449857   -3.4449857   -1.9141543  0.065521731   -3.4449857    1.5308313   439061 
 2486000    1.0200592   -3.4419007   -3.4419007   -1.9118154  0.066520095   -3.4419007    1.5300853   439061 
 2487000    1.0225548   -3.4459849   -3.4459849   -1.9121562  0.066521671   -3.4459849    1.5338287   439061 
 2488000    1.0205432   -3.4429083   -3.4429083    -1.912097  0.065185837   -3.4429083    1.5308114   439061 
 2489000    1.0201222   -3.4414417   -3.4414417   -1.9112619  0.067216527   -3.4414417    1.5301799   439061 
 2490000    1.0200066   -3.4424996   -3.4424996   -1.9124933  0.065748031   -3.4424996    1.5300064   439061 
 2491000    1.0193946   -3.4415757   -3.4415757   -1.9124873  0.070023905   -3.4415757    1.5290885   439061 
 2492000     1.019158   -3.4409946   -3.4409946   -1.9122611  0.065209146   -3.4409946    1.5287335   439061 
 2493000    1.0187294   -3.4414819   -3.4414819   -1.9133913  0.066459829   -3.4414819    1.5280906   439061 
 2494000    1.0177244   -3.4399576   -3.4399576   -1.9133745  0.065915723   -3.4399576    1.5265831   439061 
 2495000    1.0190944   -3.4411592   -3.4411592   -1.9125211  0.065369095   -3.4411592    1.5286382   439061 
 2496000    1.0189651   -3.4425798   -3.4425798   -1.9141357  0.062414252   -3.4425798    1.5284441   439061 
 2497000    1.0168081   -3.4395816   -3.4395816   -1.9143729  0.064106603   -3.4395816    1.5252087   439061 
 2498000    1.0177141   -3.4425861   -3.4425861   -1.9160184  0.069751242   -3.4425861    1.5265677   439061 
 2499000    1.0177993   -3.4420414   -3.4420414   -1.9153459  0.069531544   -3.4420414    1.5266955   439061 
 2500000    1.0202187   -3.4448299   -3.4448299   -1.9145054  0.067952537   -3.4448299    1.5303245   439061 
 2501000    1.0197494   -3.4435447   -3.4435447    -1.913924  0.065768899   -3.4435447    1.5296206   439061 
 2502000    1.0204009   -3.4434611   -3.4434611   -1.9128631  0.068106349   -3.4434611    1.5305979   439061 
 2503000     1.021296   -3.4453106   -3.4453106     -1.91337   0.07168081   -3.4453106    1.5319406   439061 
 2504000    1.0216748   -3.4462559   -3.4462559   -1.9137472  0.070664474   -3.4462559    1.5325087   439061 
 2505000    1.0205644   -3.4460362   -3.4460362   -1.9151932  0.068122487   -3.4460362    1.5308431   439061 
 2506000    1.0194765   -3.4464179   -3.4464179   -1.9172067  0.061591258   -3.4464179    1.5292112   439061 
 2507000    1.0177983   -3.4458872   -3.4458872   -1.9191932  0.070461636   -3.4458872     1.526694   439061 
 2508000    1.0191912   -3.4475677   -3.4475677   -1.9187844    0.0677625   -3.4475677    1.5287833   439061 
 2509000    1.0195965   -3.4478628   -3.4478628   -1.9184716  0.062429697   -3.4478628    1.5293912   439061 
 2510000    1.0183086   -3.4468013   -3.4468013   -1.9193418  0.070212596   -3.4468013    1.5274595   439061 
 2511000    1.0185034   -3.4473237   -3.4473237    -1.919572  0.066448251   -3.4473237    1.5277517   439061 
 2512000    1.0182468   -3.4474267   -3.4474267   -1.9200599  0.068658483   -3.4474267    1.5273668   439061 
 2513000    1.0189198   -3.4470486   -3.4470486   -1.9186725  0.068135805   -3.4470486    1.5283761   439061 
 2514000    1.0183739   -3.4480727   -3.4480727   -1.9205154  0.069564235   -3.4480727    1.5275573   439061 
 2515000    1.0202633   -3.4507335   -3.4507335    -1.920342  0.069610861   -3.4507335    1.5303915   439061 
 2516000    1.0187713    -3.448519    -3.448519   -1.9203656   0.06308647    -3.448519    1.5281534   439061 
 2517000    1.0196002   -3.4487175   -3.4487175   -1.9193207  0.068398769   -3.4487175    1.5293968   439061 
 2518000    1.0194049   -3.4484952   -3.4484952   -1.9193914  0.067382406   -3.4484952    1.5291038   439061 
 2519000    1.0198546   -3.4490296   -3.4490296   -1.9192512  0.066654756   -3.4490296    1.5297783   439061 
 2520000    1.0189608   -3.4484439   -3.4484439   -1.9200062  0.063539393   -3.4484439    1.5284377   439061 
 2521000    1.0186527   -3.4479939   -3.4479939   -1.9200184  0.065747118   -3.4479939    1.5279755   439061 
 2522000    1.0183975   -3.4486383   -3.4486383   -1.9210456  0.063562625   -3.4486383    1.5275927   439061 
 2523000    1.0190033   -3.4492011   -3.4492011   -1.9206996  0.062192668   -3.4492011    1.5285015   439061 
 2524000    1.0179838   -3.4473166   -3.4473166   -1.9203444  0.066210627   -3.4473166    1.5269723   439061 
 2525000    1.0179484   -3.4478442   -3.4478442    -1.920925  0.064365129   -3.4478442    1.5269192   439061 
 2526000     1.019383    -3.447902    -3.447902   -1.9188309  0.061955224    -3.447902     1.529071   439061 
 2527000    1.0188583   -3.4489312   -3.4489312   -1.9206472  0.067387476   -3.4489312     1.528284   439061 
 2528000    1.0189701   -3.4487509   -3.4487509   -1.9202992  0.066087385   -3.4487509    1.5284516   439061 
 2529000    1.0180271   -3.4484238   -3.4484238   -1.9213866  0.065364371   -3.4484238    1.5270372   439061 
 2530000    1.0171132   -3.4483278   -3.4483278   -1.9226615  0.062845934   -3.4483278    1.5256663   439061 
 2531000    1.0175104   -3.4494926   -3.4494926   -1.9232305  0.064688496   -3.4494926    1.5262621   439061 
 2532000    1.0178476   -3.4484681   -3.4484681   -1.9217002  0.060465018   -3.4484681    1.5267679   439061 
 2533000    1.0169081   -3.4469772   -3.4469772   -1.9216185   0.06159732   -3.4469772    1.5253587   439061 
 2534000    1.0181742   -3.4474006   -3.4474006   -1.9201428  0.067961719   -3.4474006    1.5272578   439061 
 2535000     1.018546    -3.447907    -3.447907   -1.9200915  0.069856548    -3.447907    1.5278155   439061 
 2536000     1.019344   -3.4482306   -3.4482306    -1.919218  0.071405354   -3.4482306    1.5290126   439061 
 2537000     1.018748   -3.4474274   -3.4474274   -1.9193089  0.071215751   -3.4474274    1.5281185   439061 
 2538000    1.0182508   -3.4462661   -3.4462661   -1.9188934  0.067376659   -3.4462661    1.5273726   439061 
 2539000    1.0203481   -3.4485647   -3.4485647   -1.9180461  0.068173285   -3.4485647    1.5305186   439061 
 2540000     1.019943    -3.448034    -3.448034   -1.9181231  0.065939718    -3.448034     1.529911   439061 
 2541000    1.0190354   -3.4478809   -3.4478809   -1.9193314  0.066382924   -3.4478809    1.5285496   439061 
 2542000    1.0189229    -3.448124    -3.448124   -1.9197432  0.068386393    -3.448124    1.5283808   439061 
 2543000    1.0193176   -3.4478237   -3.4478237   -1.9188508  0.066217279   -3.4478237    1.5289729   439061 
 2544000    1.0190869   -3.4478753   -3.4478753   -1.9192485   0.06436376   -3.4478753    1.5286269   439061 
 2545000    1.0188585   -3.4476391   -3.4476391   -1.9193548  0.067109403   -3.4476391    1.5282843   439061 
 2546000    1.0178012   -3.4464657   -3.4464657   -1.9197674  0.072063884   -3.4464657    1.5266983   439061 
 2547000    1.0196343    -3.449013    -3.449013    -1.919565  0.062621578    -3.449013     1.529448   439061 
 2548000    1.0195622   -3.4488429   -3.4488429    -1.919503  0.061783612   -3.4488429    1.5293399   439061 
 2549000    1.0180516   -3.4470887   -3.4470887   -1.9200147  0.067483785   -3.4470887     1.527074   439061 
 2550000     1.020298   -3.4499585   -3.4499585    -1.919515  0.068065464   -3.4499585    1.5304435   439061 
 2551000    1.0182146   -3.4475665   -3.4475665   -1.9202481  0.062271417   -3.4475665    1.5273185   439061 
 2552000     1.017961   -3.4462623   -3.4462623   -1.9193243  0.063287571   -3.4462623     1.526938   439061 
 2553000    1.0181965   -3.4459536   -3.4459536   -1.9186623  0.066077133   -3.4459536    1.5272913   439061 
 2554000    1.0179027   -3.4464665   -3.4464665   -1.9196159  0.062342799   -3.4464665    1.5268506   439061 
 2555000    1.0177966   -3.4460053   -3.4460053   -1.9193139  0.065443677   -3.4460053    1.5266914   439061 
 2556000    1.0187708   -3.4486408   -3.4486408   -1.9204881  0.060614436   -3.4486408    1.5281527   439061 
 2557000    1.0177034   -3.4491176   -3.4491176    -1.922566  0.061290507   -3.4491176    1.5265516   439061 
 2558000    1.0189088   -3.4517308   -3.4517308   -1.9233712  0.060583556   -3.4517308    1.5283596   439061 
 2559000    1.0179895   -3.4501879   -3.4501879   -1.9232071  0.065062957   -3.4501879    1.5269808   439061 
 2560000     1.017747    -3.449336    -3.449336    -1.922719  0.068359718    -3.449336    1.5266171   439061 
 2561000    1.0200576   -3.4532386   -3.4532386   -1.9231557  0.066716539   -3.4532386    1.5300829   439061 
 2562000    1.0190018   -3.4509489   -3.4509489   -1.9224496  0.068919518   -3.4509489    1.5284992   439061 
 2563000     1.019325   -3.4521254   -3.4521254   -1.9231414  0.067371207   -3.4521254     1.528984   439061 
 2564000    1.0193507   -3.4519399   -3.4519399   -1.9229174  0.065043706   -3.4519399    1.5290225   439061 
 2565000    1.0172194   -3.4512819   -3.4512819   -1.9254564   0.07404903   -3.4512819    1.5258256   439061 
 2566000    1.0187063   -3.4520282   -3.4520282   -1.9239722  0.066885173   -3.4520282    1.5280559   439061 
 2567000    1.0197039   -3.4540549   -3.4540549   -1.9245026  0.069202784   -3.4540549    1.5295523   439061 
 2568000    1.0199082   -3.4536152   -3.4536152   -1.9237563  0.063278305   -3.4536152    1.5298588   439061 
 2569000     1.018661    -3.451416    -3.451416    -1.923428  0.066757168    -3.451416     1.527988   439061 
 2570000     1.019714   -3.4536523   -3.4536523   -1.9240848   0.06689997   -3.4536523    1.5295675   439061 
 2571000    1.0186084   -3.4521166   -3.4521166   -1.9242075  0.066192855   -3.4521166    1.5279091   439061 
 2572000    1.0180731   -3.4526417   -3.4526417   -1.9255356  0.065631935   -3.4526417    1.5271062   439061 
 2573000    1.0188914   -3.4532969   -3.4532969   -1.9249633  0.060614888   -3.4532969    1.5283336   439061 
 2574000    1.0187972   -3.4529711   -3.4529711   -1.9247788  0.065586892   -3.4529711    1.5281923   439061 
 2575000    1.0178392   -3.4518048   -3.4518048   -1.9250495  0.066882377   -3.4518048    1.5267553   439061 
 2576000    1.0184339   -3.4516778   -3.4516778   -1.9240305  0.063613603   -3.4516778    1.5276473   439061 
 2577000    1.0170931   -3.4495864   -3.4495864   -1.9239501  0.062944268   -3.4495864    1.5256362   439061 
 2578000    1.0182923   -3.4523399   -3.4523399   -1.9249049  0.059722376   -3.4523399     1.527435   439061 
 2579000    1.0167016   -3.4492304   -3.4492304   -1.9241815  0.060904755   -3.4492304    1.5250489   439061 
 2580000    1.0165229   -3.4494389   -3.4494389    -1.924658  0.061176978   -3.4494389    1.5247809   439061 
 2581000    1.0177837   -3.4508217   -3.4508217   -1.9241497  0.061890761   -3.4508217     1.526672   439061 
 2582000    1.0157513   -3.4470651   -3.4470651   -1.9234416  0.067335067   -3.4470651    1.5236235   439061 
 2583000    1.0185088    -3.451397    -3.451397   -1.9236373  0.066278631    -3.451397    1.5277597   439061 
 2584000    1.0171667   -3.4482081   -3.4482081   -1.9224616  0.068688049   -3.4482081    1.5257465   439061 
 2585000    1.0177001   -3.4487947   -3.4487947    -1.922248  0.070136283   -3.4487947    1.5265467   439061 
 2586000    1.0189978   -3.4512989   -3.4512989   -1.9228058  0.062521387   -3.4512989    1.5284932   439061 
 2587000    1.0189689   -3.4506371   -3.4506371   -1.9221872  0.058870763   -3.4506371    1.5284499   439061 
 2588000     1.016739    -3.447693    -3.447693    -1.922588  0.062034577    -3.447693     1.525105   439061 
 2589000    1.0174635   -3.4512049   -3.4512049   -1.9250132  0.057326446   -3.4512049    1.5261917   439061 
 2590000    1.0144815   -3.4470088   -3.4470088     -1.92529  0.064474127   -3.4470088    1.5217188   439061 
 2591000    1.0150334   -3.4479773   -3.4479773   -1.9254307  0.062659845   -3.4479773    1.5225466   439061 
 2592000    1.0150935   -3.4478632   -3.4478632   -1.9252264   0.05882881   -3.4478632    1.5226369   439061 
 2593000    1.0185805   -3.4524237   -3.4524237   -1.9245564  0.059840643   -3.4524237    1.5278673   439061 
 2594000    1.0161464   -3.4486158   -3.4486158   -1.9243997   0.06227515   -3.4486158    1.5242161   439061 
 2595000    1.0172848   -3.4497366   -3.4497366   -1.9238128  0.066047242   -3.4497366    1.5259238   439061 
 2596000    1.0184838   -3.4513291   -3.4513291   -1.9236069  0.065798245   -3.4513291    1.5277222   439061 
 2597000    1.0193834    -3.451254    -3.451254   -1.9221824  0.064457538    -3.451254    1.5290716   439061 
 2598000    1.0198062   -3.4521732   -3.4521732   -1.9224674  0.066429565   -3.4521732    1.5297058   439061 
 2599000    1.0190344   -3.4516801   -3.4516801   -1.9231319  0.068724886   -3.4516801    1.5285481   439061 
 2600000    1.0190817   -3.4516298   -3.4516298   -1.9230107  0.071712987   -3.4516298    1.5286191   439061 
 2601000    1.0185456   -3.4525559   -3.4525559    -1.924741  0.066313831   -3.4525559    1.5278149   439061 
 2602000    1.0172669   -3.4524147   -3.4524147   -1.9265177  0.067004289   -3.4524147    1.5258969   439061 
 2603000    1.0186366   -3.4540082   -3.4540082   -1.9260569  0.068008159   -3.4540082    1.5279514   439061 
 2604000    1.0193105   -3.4564617   -3.4564617   -1.9274994  0.061850302   -3.4564617    1.5289623   439061 
 2605000    1.0203067   -3.4556924   -3.4556924   -1.9252359  0.066509838   -3.4556924    1.5304565   439061 
 2606000    1.0183636   -3.4524768   -3.4524768   -1.9249348  0.068238284   -3.4524768    1.5275419   439061 
 2607000    1.0176505    -3.452315    -3.452315   -1.9258427  0.072966855    -3.452315    1.5264723   439061 
 2608000    1.0187753   -3.4529321   -3.4529321   -1.9247726  0.066133457   -3.4529321    1.5281595   439061 
 2609000    1.0180198   -3.4533309   -3.4533309   -1.9263047  0.068711289   -3.4533309    1.5270262   439061 
 2610000    1.0172397     -3.45254     -3.45254   -1.9266839  0.063487846     -3.45254    1.5258561   439061 
 2611000    1.0200069    -3.456509    -3.456509   -1.9265021  0.063361361    -3.456509    1.5300069   439061 
 2612000      1.01668   -3.4519584   -3.4519584   -1.9269419  0.069381808   -3.4519584    1.5250165   439061 
 2613000    1.0177324   -3.4544444   -3.4544444   -1.9278493  0.064034834   -3.4544444    1.5265951   439061 
 2614000    1.0170326   -3.4518175   -3.4518175   -1.9262721   0.06674519   -3.4518175    1.5255454   439061 
 2615000    1.0182199   -3.4532336   -3.4532336   -1.9259073  0.065011217   -3.4532336    1.5273263   439061 
 2616000    1.0179125   -3.4527188   -3.4527188   -1.9258535  0.065451828   -3.4527188    1.5268653   439061 
 2617000    1.0165185   -3.4497844   -3.4497844   -1.9250101  0.067505527   -3.4497844    1.5247742   439061 
 2618000    1.0158568   -3.4492103   -3.4492103   -1.9254285  0.064301335   -3.4492103    1.5237818   439061 
 2619000    1.0158234    -3.450679    -3.450679   -1.9269475  0.058040865    -3.450679    1.5237316   439061 
 2620000    1.0171405   -3.4515373   -3.4515373     -1.92583  0.062467684   -3.4515373    1.5257072   439061 
 2621000    1.0175771   -3.4507422   -3.4507422   -1.9243801  0.065530185   -3.4507422    1.5263622   439061 
 2622000    1.0174491    -3.450779    -3.450779   -1.9246088  0.063463141    -3.450779    1.5261702   439061 
 2623000     1.017408   -3.4501449   -3.4501449   -1.9240364   0.06392948   -3.4501449    1.5261085   439061 
 2624000    1.0180812   -3.4512505   -3.4512505   -1.9241321  0.063428627   -3.4512505    1.5271184   439061 
 2625000    1.0167503   -3.4507587   -3.4507587   -1.9256367  0.068876642   -3.4507587     1.525122   439061 
 2626000    1.0167973   -3.4506391   -3.4506391   -1.9254466   0.06108053   -3.4506391    1.5251925   439061 
 2627000    1.0169105   -3.4522692   -3.4522692   -1.9269069  0.062425978   -3.4522692    1.5253623   439061 
 2628000    1.0166728   -3.4518164   -3.4518164   -1.9268107  0.063916029   -3.4518164    1.5250057   439061 
 2629000    1.0188698   -3.4533581   -3.4533581   -1.9250568  0.061225528   -3.4533581    1.5283013   439061 
 2630000    1.0181616   -3.4529935   -3.4529935   -1.9257547     0.065277   -3.4529935    1.5272389   439061 
 2631000    1.0172232   -3.4534973   -3.4534973    -1.927666  0.062208687   -3.4534973    1.5258313   439061 
 2632000    1.0183159   -3.4540152   -3.4540152   -1.9265447  0.061771915   -3.4540152    1.5274704   439061 
 2633000    1.0197136   -3.4558741   -3.4558741   -1.9263073  0.069119726   -3.4558741    1.5295669   439061 
 2634000    1.0191111   -3.4549451   -3.4549451   -1.9262819  0.063072348   -3.4549451    1.5286632   439061 
 2635000    1.0197624   -3.4528428   -3.4528428   -1.9232028  0.070170159   -3.4528428    1.5296401   439061 
 2636000    1.0194779    -3.453143    -3.453143   -1.9239296  0.071220785    -3.453143    1.5292134   439061 
 2637000    1.0185018   -3.4520328   -3.4520328   -1.9242835  0.067054116   -3.4520328    1.5277493   439061 
 2638000    1.0195032   -3.4543486   -3.4543486   -1.9250972  0.063267958   -3.4543486    1.5292513   439061 
 2639000    1.0191562   -3.4536715   -3.4536715   -1.9249407  0.068808763   -3.4536715    1.5287309   439061 
 2640000    1.0182489   -3.4539726   -3.4539726   -1.9266026  0.070097072   -3.4539726    1.5273699   439061 
 2641000     1.018057   -3.4528017   -3.4528017   -1.9257196  0.069829613   -3.4528017     1.527082   439061 
 2642000    1.0181441   -3.4528537   -3.4528537   -1.9256411  0.065564649   -3.4528537    1.5272126   439061 
 2643000    1.0181541   -3.4540491   -3.4540491   -1.9268214  0.063030867   -3.4540491    1.5272277   439061 
 2644000    1.0188096   -3.4542631   -3.4542631   -1.9260522  0.058778272   -3.4542631    1.5282109   439061 
 2645000    1.0172008   -3.4523792   -3.4523792   -1.9265814  0.066934791   -3.4523792    1.5257978   439061 
 2646000    1.0181612   -3.4536092   -3.4536092   -1.9263708   0.06324589   -3.4536092    1.5272383   439061 
 2647000    1.0157606   -3.4529634   -3.4529634    -1.929326  0.059742772   -3.4529634    1.5236375   439061 
 2648000    1.0144103   -3.4511503   -3.4511503   -1.9295384  0.061508106   -3.4511503     1.521612   439061 
 2649000    1.0142809   -3.4521996   -3.4521996   -1.9307816   0.05771095   -3.4521996    1.5214179   439061 
 2650000    1.0146818      -3.4525      -3.4525   -1.9304808  0.056945151      -3.4525    1.5220192   439061 
 2651000    1.0145576   -3.4526198   -3.4526198   -1.9307868  0.056788869   -3.4526198     1.521833   439061 
 2652000    1.0148963   -3.4521844   -3.4521844   -1.9298435   0.06675651   -3.4521844     1.522341   439061 
 2653000    1.0155615   -3.4529157   -3.4529157   -1.9295769  0.061297469   -3.4529157    1.5233388   439061 
 2654000    1.0177371   -3.4566102   -3.4566102    -1.930008  0.062806252   -3.4566102    1.5266021   439061 
 2655000    1.0168409   -3.4562347   -3.4562347   -1.9309769  0.069113694   -3.4562347    1.5252578   439061 
 2656000    1.0182236   -3.4576566   -3.4576566   -1.9303247   0.06697261   -3.4576566    1.5273319   439061 
 2657000    1.0181566   -3.4558117   -3.4558117   -1.9285803  0.070427406   -3.4558117    1.5272314   439061 
 2658000    1.0183424   -3.4562672   -3.4562672   -1.9287571  0.066238979   -3.4562672    1.5275101   439061 
 2659000    1.0195538    -3.458791    -3.458791   -1.9294637  0.068227981    -3.458791    1.5293273   439061 
 2660000    1.0198882   -3.4599971   -3.4599971   -1.9301682  0.067488261   -3.4599971    1.5298288   439061 
 2661000    1.0170899    -3.456247    -3.456247   -1.9306156  0.068307292    -3.456247    1.5256314   439061 
 2662000    1.0194137   -3.4608385   -3.4608385   -1.9317214  0.067849382   -3.4608385     1.529117   439061 
 2663000     1.016518   -3.4572847   -3.4572847   -1.9325111  0.068844805   -3.4572847    1.5247736   439061 
 2664000    1.0172638   -3.4566865   -3.4566865   -1.9307943  0.068974555   -3.4566865    1.5258922   439061 
 2665000    1.0170223   -3.4583244   -3.4583244   -1.9327945  0.069510107   -3.4583244    1.5255299   439061 
 2666000     1.018132   -3.4588897   -3.4588897   -1.9316951  0.065997511   -3.4588897    1.5271946   439061 
 2667000     1.016789   -3.4572025   -3.4572025   -1.9320225   0.06403571   -3.4572025    1.5251801   439061 
 2668000     1.017621     -3.45752     -3.45752   -1.9310921  0.071198672     -3.45752     1.526428   439061 
 2669000    1.0168063   -3.4562701   -3.4562701   -1.9310641  0.066382269   -3.4562701     1.525206   439061 
 2670000     1.019493   -3.4597646   -3.4597646   -1.9305285  0.067794035   -3.4597646    1.5292361   439061 
 2671000    1.0177302   -3.4568485   -3.4568485   -1.9302566  0.066575826   -3.4568485    1.5265919   439061 
 2672000    1.0173536   -3.4564783   -3.4564783   -1.9304513   0.06441171   -3.4564783     1.526027   439061 
 2673000    1.0189798   -3.4582679   -3.4582679   -1.9298016  0.060253944   -3.4582679    1.5284663   439061 
 2674000    1.0177921   -3.4573078   -3.4573078   -1.9306231  0.063278658   -3.4573078    1.5266846   439061 
 2675000    1.0159706   -3.4532879   -3.4532879   -1.9293355  0.069846599   -3.4532879    1.5239524   439061 
 2676000    1.0171618   -3.4543519   -3.4543519   -1.9286127  0.062696236   -3.4543519    1.5257392   439061 
 2677000    1.0144954   -3.4515603   -3.4515603   -1.9298207  0.057310334   -3.4515603    1.5217396   439061 
 2678000    1.0150822   -3.4518894   -3.4518894   -1.9292696    0.0634006   -3.4518894    1.5226198   439061 
 2679000    1.0160821   -3.4531744   -3.4531744   -1.9290547   0.05998997   -3.4531744    1.5241197   439061 
 2680000    1.0154589   -3.4534825   -3.4534825   -1.9302976  0.060292018   -3.4534825    1.5231849   439061 
 2681000    1.0160735   -3.4543647   -3.4543647   -1.9302579  0.061376725   -3.4543647    1.5241068   439061 
 2682000    1.0167692   -3.4563069   -3.4563069   -1.9311565  0.058086099   -3.4563069    1.5251503   439061 
 2683000    1.0163798   -3.4556195   -3.4556195   -1.9310533  0.065940999   -3.4556195    1.5245663   439061 
 2684000    1.0166816   -3.4556455   -3.4556455   -1.9306265  0.064843684   -3.4556455    1.5250189   439061 
 2685000    1.0162044   -3.4537547   -3.4537547   -1.9294516  0.066595349   -3.4537547    1.5243031   439061 
 2686000     1.016481   -3.4542065   -3.4542065   -1.9294885  0.065285619   -3.4542065     1.524718   439061 
 2687000     1.017405   -3.4559031   -3.4559031   -1.9297991  0.061180554   -3.4559031     1.526104   439061 
 2688000    1.0186822   -3.4572747   -3.4572747   -1.9292548   0.06597064   -3.4572747    1.5280199   439061 
 2689000      1.01911   -3.4577266   -3.4577266    -1.929065  0.060482132   -3.4577266    1.5286616   439061 
 2690000    1.0193878   -3.4595781   -3.4595781   -1.9304999   0.06579187   -3.4595781    1.5290782   439061 
 2691000     1.018977   -3.4598394   -3.4598394   -1.9313773  0.066858581   -3.4598394     1.528462   439061 
 2692000     1.018334    -3.459992    -3.459992   -1.9324944  0.066215243    -3.459992    1.5274975   439061 
 2693000    1.0192394   -3.4618965   -3.4618965   -1.9330409  0.065944873   -3.4618965    1.5288556   439061 
 2694000    1.0181785   -3.4598317   -3.4598317   -1.9325675  0.066128393   -3.4598317    1.5272642   439061 
 2695000    1.0162805    -3.457572    -3.457572   -1.9331548   0.06877163    -3.457572    1.5244173   439061 
 2696000    1.0180704    -3.460293    -3.460293   -1.9331909  0.063807073    -3.460293    1.5271022   439061 
 2697000    1.0178957   -3.4595499   -3.4595499   -1.9327098  0.064196434   -3.4595499    1.5268401   439061 
 2698000    1.0171442   -3.4596864   -3.4596864   -1.9339735   0.06379365   -3.4596864    1.5257128   439061 
 2699000     1.018085   -3.4607213   -3.4607213   -1.9335973  0.066225675   -3.4607213     1.527124   439061 
 2700000    1.0178698   -3.4611166   -3.4611166   -1.9343154  0.070588167   -3.4611166    1.5268012   439061 
 2701000    1.0183783   -3.4630537   -3.4630537   -1.9354897  0.066152084   -3.4630537     1.527564   439061 
 2702000    1.0172689   -3.4606546   -3.4606546   -1.9347548  0.065246165   -3.4606546    1.5258998   439061 
 2703000    1.0198086    -3.462984    -3.462984   -1.9332746  0.062839759    -3.462984    1.5297094   439061 
 2704000    1.0196402   -3.4632131   -3.4632131   -1.9337562   0.07204288   -3.4632131    1.5294568   439061 
 2705000    1.0178426   -3.4601275   -3.4601275   -1.9333671  0.065577197   -3.4601275    1.5267604   439061 
 2706000    1.0157913   -3.4577613   -3.4577613   -1.9340778  0.068202353   -3.4577613    1.5236834   439061 
 2707000    1.0174726   -3.4596702   -3.4596702   -1.9334649  0.061106504   -3.4596702    1.5262054   439061 
 2708000    1.0166342   -3.4588707   -3.4588707   -1.9339228  0.058435224   -3.4588707    1.5249479   439061 
 2709000    1.0156377   -3.4585367   -3.4585367   -1.9350836  0.064793921   -3.4585367    1.5234531   439061 
 2710000    1.0167154   -3.4585072   -3.4585072   -1.9334377  0.066101969   -3.4585072    1.5250696   439061 
 2711000    1.0159631   -3.4582655   -3.4582655   -1.9343242  0.061839862   -3.4582655    1.5239412   439061 
 2712000    1.0190188   -3.4608927   -3.4608927   -1.9323681  0.064560872   -3.4608927    1.5285247   439061 
 2713000    1.0165095   -3.4574542   -3.4574542   -1.9326934  0.063299442   -3.4574542    1.5247608   439061 
 2714000    1.0167961   -3.4573464   -3.4573464   -1.9321557   0.06441449   -3.4573464    1.5251907   439061 
 2715000    1.0157882   -3.4558335   -3.4558335   -1.9321547  0.064575258   -3.4558335    1.5236788   439061 
 2716000    1.0158114   -3.4553046   -3.4553046   -1.9315909  0.062297989   -3.4553046    1.5237137   439061 
 2717000    1.0172054   -3.4557837   -3.4557837   -1.9299791   0.06158603   -3.4557837    1.5258047   439061 
 2718000    1.0173636   -3.4570712   -3.4570712   -1.9310293  0.063988317   -3.4570712    1.5260419   439061 
 2719000      1.01711   -3.4567663   -3.4567663   -1.9311047  0.067465347   -3.4567663    1.5256616   439061 
 2720000    1.0162256   -3.4561839   -3.4561839   -1.9318489  0.067615651   -3.4561839     1.524335   439061 
 2721000    1.0164564   -3.4559015   -3.4559015   -1.9312204  0.065152104   -3.4559015    1.5246811   439061 
 2722000    1.0170461   -3.4566828   -3.4566828   -1.9311171  0.062739316   -3.4566828    1.5255657   439061 
 2723000     1.015984   -3.4561386   -3.4561386    -1.932166  0.066495335   -3.4561386    1.5239726   439061 
 2724000    1.0167096   -3.4571812   -3.4571812   -1.9321203    0.0652432   -3.4571812     1.525061   439061 
 2725000     1.015502   -3.4559825   -3.4559825    -1.932733  0.062695992   -3.4559825    1.5232495   439061 
 2726000    1.0170622   -3.4576571   -3.4576571   -1.9320673  0.069077437   -3.4576571    1.5255898   439061 
 2727000    1.0163329   -3.4575146   -3.4575146   -1.9330187  0.067154586   -3.4575146    1.5244958   439061 
 2728000    1.0162726   -3.4593105   -3.4593105   -1.9349051  0.063127084   -3.4593105    1.5244054   439061 
 2729000    1.0155797    -3.459238    -3.459238    -1.935872  0.061700966    -3.459238     1.523366   439061 
 2730000    1.0163384   -3.4604779   -3.4604779   -1.9359738  0.059617227   -3.4604779    1.5245041   439061 
 2731000    1.0149815   -3.4599038   -3.4599038   -1.9374349  0.061285391   -3.4599038    1.5224688   439061 
 2732000    1.0180437   -3.4632894   -3.4632894   -1.9362274  0.062694702   -3.4632894    1.5270621   439061 
 2733000     1.018347   -3.4634135   -3.4634135   -1.9358965  0.064309393   -3.4634135     1.527517   439061 
 2734000    1.0171429    -3.462259    -3.462259   -1.9365481   0.06744899    -3.462259    1.5257109   439061 
 2735000    1.0181185   -3.4636776   -3.4636776   -1.9365033  0.068545001   -3.4636776    1.5271742   439061 
 2736000    1.0174109   -3.4619565   -3.4619565   -1.9358437  0.065812868   -3.4619565    1.5261128   439061 
 2737000    1.0183134   -3.4631213   -3.4631213   -1.9356546   0.06766337   -3.4631213    1.5274667   439061 
 2738000    1.0178506   -3.4645209   -3.4645209   -1.9377484   0.06877409   -3.4645209    1.5267725   439061 
 2739000    1.0183621   -3.4642708   -3.4642708   -1.9367312   0.07016539   -3.4642708    1.5275396   439061 
 2740000    1.0162522   -3.4613176   -3.4613176   -1.9369427  0.073208016   -3.4613176    1.5243749   439061 
 2741000     1.018779    -3.465345    -3.465345   -1.9371799  0.072320009    -3.465345    1.5281651   439061 
 2742000    1.0172956   -3.4649797   -3.4649797   -1.9390398  0.066111039   -3.4649797      1.52594   439061 
 2743000    1.0181904   -3.4655501   -3.4655501   -1.9382681  0.063924243   -3.4655501    1.5272821   439061 
 2744000    1.0170404   -3.4636942   -3.4636942   -1.9381371  0.065453308   -3.4636942    1.5255571   439061 
 2745000    1.0161215   -3.4619664   -3.4619664   -1.9377876  0.063942394   -3.4619664    1.5241788   439061 
 2746000    1.0162301   -3.4619637   -3.4619637    -1.937622  0.067302244   -3.4619637    1.5243417   439061 
 2747000    1.0165136   -3.4629468   -3.4629468   -1.9381799  0.065685515   -3.4629468    1.5247669   439061 
 2748000    1.0167995   -3.4626661   -3.4626661   -1.9374703  0.060082287   -3.4626661    1.5251958   439061 
 2749000    1.0162748   -3.4617871   -3.4617871   -1.9373785  0.062386358   -3.4617871    1.5244087   439061 
 2750000     1.015075   -3.4611181   -3.4611181   -1.9385091   0.06659121   -3.4611181     1.522609   439061 
 2751000    1.0160863   -3.4618216   -3.4618216   -1.9376956  0.060242326   -3.4618216     1.524126   439061 
 2752000    1.0170409   -3.4619641   -3.4619641   -1.9364062  0.056252484   -3.4619641    1.5255579   439061 
 2753000     1.016766    -3.462297    -3.462297   -1.9371515  0.058690056    -3.462297    1.5251455   439061 
 2754000    1.0155434   -3.4604903   -3.4604903   -1.9371786  0.062634465   -3.4604903    1.5233117   439061 
 2755000     1.015878   -3.4610789   -3.4610789   -1.9372654  0.062479909   -3.4610789    1.5238135   439061 
 2756000    1.0152612   -3.4605025   -3.4605025   -1.9376141   0.06032704   -3.4605025    1.5228884   439061 
 2757000    1.0157003   -3.4607607   -3.4607607   -1.9372138  0.068386501   -3.4607607    1.5235469   439061 
 2758000    1.0162479   -3.4611064   -3.4611064   -1.9367379  0.064101535   -3.4611064    1.5243684   439061 
 2759000    1.0165911   -3.4601019   -3.4601019   -1.9352187  0.064778946   -3.4601019    1.5248832   439061 
 2760000    1.0176924   -3.4627189   -3.4627189   -1.9361838  0.061716006   -3.4627189    1.5265351   439061 
 2761000    1.0163485   -3.4599089   -3.4599089   -1.9353896  0.066521889   -3.4599089    1.5245193   439061 
 2762000    1.0158216   -3.4611316   -3.4611316   -1.9374027  0.063565494   -3.4611316    1.5237289   439061 
 2763000    1.0171818   -3.4625561   -3.4625561   -1.9367868  0.060066659   -3.4625561    1.5257692   439061 
 2764000    1.0168623   -3.4609673   -3.4609673   -1.9356774  0.064965705   -3.4609673    1.5252899   439061 
 2765000    1.0169276   -3.4617396   -3.4617396   -1.9363517  0.063724455   -3.4617396    1.5253879   439061 
 2766000    1.0164756   -3.4600792   -3.4600792   -1.9353692  0.063214084   -3.4600792      1.52471   439061 
 2767000    1.0173995   -3.4616046   -3.4616046   -1.9355087   0.06262386   -3.4616046    1.5260958   439061 
 2768000     1.016425    -3.459568    -3.459568    -1.934934  0.066797803    -3.459568    1.5246341   439061 
 2769000    1.0185149   -3.4634849   -3.4634849   -1.9357159  0.062753627   -3.4634849    1.5277689   439061 
 2770000    1.0176588   -3.4617864   -3.4617864   -1.9353017  0.067108877   -3.4617864    1.5264847   439061 
 2771000    1.0179906   -3.4630764   -3.4630764    -1.936094  0.062198904   -3.4630764    1.5269824   439061 
 2772000     1.017312   -3.4617897   -3.4617897   -1.9358251   0.06010467   -3.4617897    1.5259645   439061 
 2773000    1.0177415   -3.4611089   -3.4611089   -1.9345002  0.063341978   -3.4611089    1.5266087   439061 
 2774000    1.0147434   -3.4588372   -3.4588372   -1.9367257  0.062209595   -3.4588372    1.5221116   439061 
 2775000    1.0160054   -3.4604964   -3.4604964   -1.9364917  0.062314408   -3.4604964    1.5240046   439061 
 2776000    1.0159791   -3.4590851   -3.4590851   -1.9351198  0.062841643   -3.4590851    1.5239652   439061 
 2777000    1.0154734   -3.4593488   -3.4593488   -1.9361422  0.062071391   -3.4593488    1.5232066   439061 
 2778000    1.0144452   -3.4597105   -3.4597105   -1.9380462  0.061165222   -3.4597105    1.5216643   439061 
 2779000    1.0165091   -3.4624943   -3.4624943   -1.9377341  0.058830877   -3.4624943    1.5247601   439061 
 2780000    1.0166734   -3.4614091   -3.4614091   -1.9364024  0.056031729   -3.4614091    1.5250067   439061 
 2781000    1.0157705   -3.4601903   -3.4601903    -1.936538  0.066250262   -3.4601903    1.5236523   439061 
 2782000    1.0183886   -3.4640372   -3.4640372   -1.9364578    0.0653044   -3.4640372    1.5275794   439061 
 2783000    1.0159484   -3.4617421   -3.4617421    -1.937823   0.06467888   -3.4617421    1.5239191   439061 
 2784000    1.0170051   -3.4632285   -3.4632285   -1.9377243   0.06549599   -3.4632285    1.5255042   439061 
 2785000    1.0172356   -3.4630469   -3.4630469   -1.9371971  0.060913566   -3.4630469    1.5258499   439061 
 2786000    1.0172769     -3.46261     -3.46261   -1.9366982  0.062472685     -3.46261    1.5259118   439061 
 2787000    1.0176726   -3.4633971   -3.4633971   -1.9368917  0.060450208   -3.4633971    1.5265054   439061 
 2788000    1.0159765   -3.4622621   -3.4622621   -1.9383009  0.065437264   -3.4622621    1.5239612   439061 
 2789000    1.0178749    -3.464157    -3.464157    -1.937348  0.065578792    -3.464157    1.5268089   439061 
 2790000    1.0169859   -3.4622352   -3.4622352   -1.9367599    0.0686046   -3.4622352    1.5254753   439061 
 2791000    1.0185562   -3.4651782   -3.4651782   -1.9373474  0.065096044   -3.4651782    1.5278308   439061 
 2792000     1.018398   -3.4637145   -3.4637145   -1.9361209  0.064161159   -3.4637145    1.5275936   439061 
 2793000    1.0192771   -3.4638202   -3.4638202   -1.9349081    0.0640131   -3.4638202    1.5289121   439061 
 2794000    1.0164707   -3.4623479   -3.4623479   -1.9376453  0.063931285   -3.4623479    1.5247026   439061 
 2795000    1.0166836   -3.4639748   -3.4639748   -1.9389529  0.062088416   -3.4639748    1.5250219   439061 
 2796000    1.0166998   -3.4622422   -3.4622422    -1.937196  0.067138175   -3.4622422    1.5250462   439061 
 2797000    1.0164328   -3.4634569   -3.4634569   -1.9388111  0.065974974   -3.4634569    1.5246458   439061 
 2798000    1.0161687   -3.4633491   -3.4633491   -1.9390995     0.060547   -3.4633491    1.5242496   439061 
 2799000    1.0154965   -3.4626835   -3.4626835   -1.9394422  0.060322134   -3.4626835    1.5232413   439061 
 2800000    1.0162252   -3.4630976   -3.4630976   -1.9387633  0.061701184   -3.4630976    1.5243343   439061 
 2801000     1.017125   -3.4633188   -3.4633188   -1.9376349  0.067265892   -3.4633188     1.525684   439061 
 2802000     1.016919   -3.4640767   -3.4640767   -1.9387018  0.062589528   -3.4640767     1.525375   439061 
 2803000    1.0166303    -3.463112    -3.463112     -1.93817  0.060999405    -3.463112     1.524942   439061 
 2804000    1.0178253   -3.4639829   -3.4639829   -1.9372485  0.058562734   -3.4639829    1.5267345   439061 
 2805000    1.0159906    -3.461956    -3.461956   -1.9379736  0.065961655    -3.461956    1.5239824   439061 
 2806000    1.0173061   -3.4626118   -3.4626118   -1.9366562  0.057617894   -3.4626118    1.5259557   439061 
 2807000    1.0178593   -3.4639683   -3.4639683   -1.9371828  0.065048765   -3.4639683    1.5267854   439061 
 2808000    1.0175866   -3.4649295   -3.4649295   -1.9385532  0.064759823   -3.4649295    1.5263764   439061 
 2809000    1.0169466   -3.4642792   -3.4642792   -1.9388627  0.058419668   -3.4642792    1.5254165   439061 
 2810000    1.0165012   -3.4634059   -3.4634059   -1.9386577  0.063741346   -3.4634059    1.5247483   439061 
 2811000    1.0148163   -3.4614429   -3.4614429   -1.9392219  0.063647949   -3.4614429     1.522221   439061 
 2812000     1.014095    -3.461419    -3.461419     -1.94028  0.058199293    -3.461419     1.521139   439061 
 2813000    1.0147409   -3.4607991   -3.4607991   -1.9386912  0.063326385   -3.4607991    1.5221079   439061 
 2814000     1.015527   -3.4606587   -3.4606587   -1.9373717  0.062553571   -3.4606587     1.523287   439061 
 2815000    1.0176568    -3.463643    -3.463643   -1.9371613  0.059352342    -3.463643    1.5264817   439061 
 2816000    1.0174753   -3.4632299   -3.4632299   -1.9370205  0.055428977   -3.4632299    1.5262095   439061 
 2817000    1.0167288   -3.4614007   -3.4614007    -1.936311  0.065112293   -3.4614007    1.5250897   439061 
 2818000    1.0171718   -3.4616761   -3.4616761   -1.9359218  0.065349001   -3.4616761    1.5257543   439061 
 2819000     1.018151   -3.4633204   -3.4633204   -1.9360974  0.067471807   -3.4633204     1.527223   439061 
 2820000    1.0173715   -3.4619059   -3.4619059   -1.9358522  0.064917074   -3.4619059    1.5260537   439061 
 2821000    1.0158684   -3.4618348   -3.4618348   -1.9380358  0.064528662   -3.4618348    1.5237991   439061 
 2822000    1.0160569    -3.462922    -3.462922   -1.9388401  0.062855668    -3.462922    1.5240819   439061 
 2823000    1.0147977   -3.4610059   -3.4610059   -1.9388127  0.059720186   -3.4610059    1.5221931   439061 
 2824000    1.0158037   -3.4636556   -3.4636556   -1.9399535   0.05636453   -3.4636556    1.5237021   439061 
 2825000    1.0150541   -3.4618227   -3.4618227   -1.9392449  0.055914521   -3.4618227    1.5225777   439061 
 2826000    1.0146872   -3.4604792   -3.4604792   -1.9384518  0.062626618   -3.4604792    1.5220273   439061 
 2827000    1.0147105   -3.4590867   -3.4590867   -1.9370244  0.061454321   -3.4590867    1.5220623   439061 
 2828000    1.0166803   -3.4604265   -3.4604265   -1.9354095  0.063494158   -3.4604265     1.525017   439061 
 2829000    1.0166618   -3.4611773   -3.4611773    -1.936188  0.066517125   -3.4611773    1.5249893   439061 
 2830000    1.0172172   -3.4624321   -3.4624321   -1.9366097  0.063030136   -3.4624321    1.5258223   439061 
 2831000     1.015309   -3.4598216   -3.4598216   -1.9368615  0.066159423   -3.4598216    1.5229601   439061 
 2832000    1.0160234   -3.4618162   -3.4618162   -1.9377846  0.066030624   -3.4618162    1.5240316   439061 
 2833000    1.0167695   -3.4620225   -3.4620225   -1.9368717  0.063686666   -3.4620225    1.5251508   439061 
 2834000    1.0181243    -3.463995    -3.463995    -1.936812  0.060627537    -3.463995     1.527183   439061 
 2835000    1.0174773   -3.4629954   -3.4629954   -1.9367829  0.064200371   -3.4629954    1.5262125   439061 
 2836000    1.0165087   -3.4627509   -3.4627509   -1.9379912  0.064062954   -3.4627509    1.5247596   439061 
 2837000    1.0167473   -3.4650254   -3.4650254   -1.9399079  0.057700813   -3.4650254    1.5251175   439061 
 2838000    1.0146223   -3.4619317   -3.4619317   -1.9400017   0.06138612   -3.4619317      1.52193   439061 
 2839000    1.0156304   -3.4635168   -3.4635168   -1.9400746  0.063065791   -3.4635168    1.5234422   439061 
 2840000    1.0165186   -3.4648496   -3.4648496   -1.9400752  0.059249927   -3.4648496    1.5247744   439061 
 2841000    1.0146284   -3.4628607   -3.4628607   -1.9409216  0.064780073   -3.4628607    1.5219391   439061 
 2842000    1.0166271   -3.4663052   -3.4663052   -1.9413681  0.060716345   -3.4663052    1.5249371   439061 
 2843000    1.0177793   -3.4662498   -3.4662498   -1.9395843  0.061304037   -3.4662498    1.5266655   439061 
 2844000    1.0168875   -3.4668132   -3.4668132   -1.9414855  0.060760442   -3.4668132    1.5253277   439061 
 2845000    1.0160679   -3.4659208   -3.4659208   -1.9418225  0.064426173   -3.4659208    1.5240983   439061 
 2846000    1.0154705   -3.4644927   -3.4644927   -1.9412904  0.065216967   -3.4644927    1.5232023   439061 
 2847000    1.0156225   -3.4663361   -3.4663361   -1.9429059  0.060607953   -3.4663361    1.5234303   439061 
 2848000    1.0164297   -3.4661311   -3.4661311   -1.9414901  0.060653263   -3.4661311     1.524641   439061 
 2849000    1.0171065   -3.4665435   -3.4665435   -1.9408872  0.060876188   -3.4665435    1.5256563   439061 
 2850000    1.0161075   -3.4661705   -3.4661705   -1.9420127  0.061798728   -3.4661705    1.5241578   439061 
 2851000    1.0179716   -3.4685288   -3.4685288   -1.9415748  0.058391807   -3.4685288     1.526954   439061 
 2852000    1.0173521   -3.4674821   -3.4674821   -1.9414574  0.065040574   -3.4674821    1.5260247   439061 
 2853000     1.017536   -3.4672041   -3.4672041   -1.9409036   0.06797123   -3.4672041    1.5263005   439061 
 2854000    1.0170864   -3.4673691   -3.4673691    -1.941743   0.06228213   -3.4673691    1.5256261   439061 
 2855000     1.017164   -3.4680228   -3.4680228   -1.9422802  0.066176875   -3.4680228    1.5257426   439061 
 2856000    1.0163331   -3.4663604   -3.4663604   -1.9418642  0.068795792   -3.4663604    1.5244962   439061 
 2857000    1.0150231   -3.4651592   -3.4651592   -1.9426279  0.063468852   -3.4651592    1.5225312   439061 
 2858000    1.0157298   -3.4655475   -3.4655475   -1.9419562  0.062291928   -3.4655475    1.5235913   439061 
 2859000    1.0157474   -3.4659935   -3.4659935   -1.9423759  0.066110278   -3.4659935    1.5236176   439061 
 2860000    1.0176667    -3.466836    -3.466836   -1.9403394  0.063615441    -3.466836    1.5264966   439061 
 2861000    1.0155161   -3.4663676   -3.4663676   -1.9430969  0.066441276   -3.4663676    1.5232706   439061 
 2862000    1.0167745   -3.4692077   -3.4692077   -1.9440494  0.058709595   -3.4692077    1.5251583   439061 
 2863000    1.0158607    -3.467418    -3.467418   -1.9436305  0.064316802    -3.467418    1.5237876   439061 
 2864000    1.0156709   -3.4657258   -3.4657258   -1.9422229  0.066615978   -3.4657258    1.5235029   439061 
 2865000    1.0170158   -3.4677139   -3.4677139   -1.9421937  0.065991636   -3.4677139    1.5255202   439061 
 2866000    1.0169756   -3.4680763   -3.4680763   -1.9426164  0.065340229   -3.4680763      1.52546   439061 
 2867000    1.0161327   -3.4683889   -3.4683889   -1.9441934  0.058147034   -3.4683889    1.5241955   439061 
 2868000    1.0160365   -3.4685476   -3.4685476   -1.9444964  0.063266004   -3.4685476    1.5240513   439061 
 2869000    1.0160583   -3.4687319   -3.4687319   -1.9446479  0.065403742   -3.4687319     1.524084   439061 
 2870000    1.0139408   -3.4641325   -3.4641325   -1.9432247  0.066579465   -3.4641325    1.5209078   439061 
 2871000    1.0149525   -3.4673607   -3.4673607   -1.9449354  0.059947637   -3.4673607    1.5224253   439061 
 2872000      1.01438   -3.4653756   -3.4653756    -1.943809  0.062680297   -3.4653756    1.5215666   439061 
 2873000    1.0169536   -3.4697763   -3.4697763   -1.9443493  0.059665773   -3.4697763    1.5254269   439061 
 2874000    1.0161227   -3.4679244   -3.4679244   -1.9437439  0.056489446   -3.4679244    1.5241806   439061 
 2875000    1.0152898   -3.4672342   -3.4672342   -1.9443029   0.06043898   -3.4672342    1.5229313   439061 
 2876000    1.0161197   -3.4690928   -3.4690928   -1.9449168   0.06162601   -3.4690928    1.5241761   439061 
 2877000    1.0157108    -3.466482    -3.466482   -1.9429192  0.059498811    -3.466482    1.5235627   439061 
 2878000    1.0145087   -3.4656498   -3.4656498   -1.9438902  0.062731653   -3.4656498    1.5217596   439061 
 2879000    1.0140853   -3.4661806   -3.4661806   -1.9450561  0.059791446   -3.4661806    1.5211245   439061 
 2880000    1.0145962   -3.4681573   -3.4681573   -1.9462665  0.057427277   -3.4681573    1.5218908   439061 
 2881000    1.0137215   -3.4669311   -3.4669311   -1.9463523  0.065750361   -3.4669311    1.5205788   439061 
 2882000     1.013609   -3.4679611   -3.4679611    -1.947551  0.063809038   -3.4679611    1.5204101   439061 
 2883000    1.0133837   -3.4657146   -3.4657146   -1.9456426  0.059750612   -3.4657146     1.520072   439061 
 2884000    1.0156075   -3.4685465   -3.4685465   -1.9451387  0.064210744   -3.4685465    1.5234078   439061 
 2885000    1.0146037   -3.4665574   -3.4665574   -1.9446553  0.065089967   -3.4665574    1.5219021   439061 
 2886000    1.0151088   -3.4674837   -3.4674837    -1.944824  0.066063326   -3.4674837    1.5226598   439061 
 2887000    1.0157282   -3.4689046   -3.4689046   -1.9453157  0.066716346   -3.4689046    1.5235889   439061 
 2888000    1.0159308   -3.4695668   -3.4695668   -1.9456742  0.065451218   -3.4695668    1.5238927   439061 
 2889000    1.0157951   -3.4708306   -3.4708306   -1.9471414   0.05989771   -3.4708306    1.5236892   439061 
 2890000    1.0156018   -3.4711431   -3.4711431   -1.9477439  0.060675546   -3.4711431    1.5233993   439061 
 2891000    1.0155586   -3.4709172   -3.4709172   -1.9475827  0.065723459   -3.4709172    1.5233345   439061 
 2892000    1.0158914   -3.4721149   -3.4721149   -1.9482813  0.062611287   -3.4721149    1.5238336   439061 
 2893000    1.0141685   -3.4692092   -3.4692092     -1.94796  0.061056119   -3.4692092    1.5212492   439061 
 2894000    1.0166278   -3.4732872   -3.4732872    -1.948349  0.061458908   -3.4732872    1.5249382   439061 
 2895000    1.0151581   -3.4712674   -3.4712674   -1.9485337  0.060416849   -3.4712674    1.5227337   439061 
 2896000    1.0141597   -3.4698203   -3.4698203   -1.9485842  0.063701232   -3.4698203    1.5212361   439061 
 2897000    1.0167761   -3.4730856   -3.4730856   -1.9479249  0.063245986   -3.4730856    1.5251607   439061 
 2898000    1.0155734   -3.4709641   -3.4709641   -1.9476075  0.065052466   -3.4709641    1.5233567   439061 
 2899000    1.0153793   -3.4710272   -3.4710272   -1.9479617   0.06686818   -3.4710272    1.5230655   439061 
 2900000    1.0155565   -3.4724755   -3.4724755   -1.9491442  0.060863724   -3.4724755    1.5233313   439061 
 2901000    1.0158804   -3.4728383   -3.4728383   -1.9490212  0.062311237   -3.4728383    1.5238171   439061 
 2902000     1.014456   -3.4702785   -3.4702785    -1.948598  0.065847865   -3.4702785    1.5216805   439061 
 2903000    1.0135311   -3.4702235   -3.4702235   -1.9499304  0.062047471   -3.4702235    1.5202931   439061 
 2904000    1.0151451   -3.4722106   -3.4722106   -1.9494964  0.054436391   -3.4722106    1.5227142   439061 
 2905000    1.0136618   -3.4703077   -3.4703077   -1.9498184  0.063252988   -3.4703077    1.5204893   439061 
 2906000       1.0133   -3.4717918   -3.4717918   -1.9518453  0.057030771   -3.4717918    1.5199465   439061 
 2907000    1.0132192   -3.4712179   -3.4712179   -1.9513926  0.056066053   -3.4712179    1.5198253   439061 
 2908000    1.0127153   -3.4697487   -3.4697487   -1.9506792  0.062982309   -3.4697487    1.5190695   439061 
 2909000    1.0156716   -3.4730566   -3.4730566   -1.9495526  0.056825027   -3.4730566     1.523504   439061 
 2910000    1.0156164   -3.4722789   -3.4722789   -1.9488578  0.060948232   -3.4722789    1.5234211   439061 
 2911000    1.0165667   -3.4715711   -3.4715711   -1.9467245  0.066893316   -3.4715711    1.5248466   439061 
 2912000    1.0159129   -3.4718543   -3.4718543   -1.9479885  0.064775724   -3.4718543    1.5238658   439061 
 2913000    1.0166018   -3.4728427   -3.4728427   -1.9479434  0.062573624   -3.4728427    1.5248993   439061 
 2914000    1.0144462   -3.4704212   -3.4704212   -1.9487553  0.064130173   -3.4704212    1.5216658   439061 
 2915000    1.0148919   -3.4705726   -3.4705726   -1.9482382  0.065066988   -3.4705726    1.5223344   439061 
 2916000    1.0146576   -3.4722733   -3.4722733   -1.9502904  0.064195597   -3.4722733    1.5219829   439061 
 2917000    1.0144593   -3.4720564   -3.4720564   -1.9503709    0.0590814   -3.4720564    1.5216855   439061 
 2918000    1.0144318    -3.470811    -3.470811   -1.9491667   0.06459899    -3.470811    1.5216442   439061 
 2919000    1.0134983   -3.4704465   -3.4704465   -1.9502025  0.063896761   -3.4704465     1.520244   439061 
 2920000    1.0117766   -3.4696802   -3.4696802   -1.9520188  0.062261996   -3.4696802    1.5176614   439061 
 2921000    1.0146627   -3.4733126   -3.4733126    -1.951322  0.060955324   -3.4733126    1.5219906   439061 
 2922000    1.0144743   -3.4734419   -3.4734419   -1.9517339   0.06016874   -3.4734419     1.521708   439061 
 2923000    1.0127258    -3.469699    -3.469699   -1.9506137  0.065403922    -3.469699    1.5190852   439061 
 2924000    1.0145342   -3.4739227   -3.4739227   -1.9521248   0.06169244   -3.4739227    1.5217978   439061 
 2925000    1.0139797   -3.4731433   -3.4731433   -1.9521772  0.059615014   -3.4731433    1.5209661   439061 
 2926000    1.0142458   -3.4745763   -3.4745763   -1.9532111  0.057959872   -3.4745763    1.5213652   439061 
 2927000    1.0144363   -3.4741634   -3.4741634   -1.9525124  0.065541954   -3.4741634     1.521651   439061 
 2928000    1.0136811   -3.4732725   -3.4732725   -1.9527543  0.063489187   -3.4732725    1.5205182   439061 
 2929000    1.0149379   -3.4749535   -3.4749535   -1.9525501  0.064564354   -3.4749535    1.5224034   439061 
 2930000    1.0159594   -3.4745394   -3.4745394   -1.9506037  0.061689209   -3.4745394    1.5239356   439061 
 2931000     1.017064   -3.4751241   -3.4751241   -1.9495315  0.062410088   -3.4751241    1.5255926   439061 
 2932000    1.0160359   -3.4747139   -3.4747139   -1.9506635  0.065140097   -3.4747139    1.5240503   439061 
 2933000    1.0139675   -3.4730298   -3.4730298    -1.952082  0.061044832   -3.4730298    1.5209478   439061 
 2934000    1.0158443   -3.4759119   -3.4759119    -1.952149  0.058390724   -3.4759119    1.5237629   439061 
 2935000    1.0161497   -3.4755462   -3.4755462   -1.9513251  0.057495759   -3.4755462    1.5242211   439061 
 2936000    1.0151677   -3.4740136   -3.4740136   -1.9512655  0.064971007   -3.4740136    1.5227481   439061 
 2937000    1.0143935   -3.4741411   -3.4741411   -1.9525544  0.063371192   -3.4741411    1.5215867   439061 
 2938000    1.0138337   -3.4723907   -3.4723907   -1.9516437  0.064489399   -3.4723907     1.520747   439061 
 2939000    1.0166923   -3.4763386   -3.4763386   -1.9513035   0.06325582   -3.4763386     1.525035   439061 
 2940000    1.0166499   -3.4758974   -3.4758974    -1.950926  0.063689901   -3.4758974    1.5249714   439061 
 2941000    1.0159018    -3.475015    -3.475015   -1.9511659  0.065276422    -3.475015    1.5238492   439061 
 2942000    1.0161514    -3.474581    -3.474581   -1.9503573  0.065213526    -3.474581    1.5242237   439061 
 2943000    1.0162431   -3.4749184   -3.4749184   -1.9505572  0.062642687   -3.4749184    1.5243612   439061 
 2944000    1.0144602    -3.471696    -3.471696   -1.9500091   0.06933064    -3.471696    1.5216869   439061 
 2945000    1.0152621   -3.4725849   -3.4725849   -1.9496952  0.061346696   -3.4725849    1.5228897   439061 
 2946000     1.015552   -3.4729672   -3.4729672   -1.9496426  0.062217052   -3.4729672    1.5233246   439061 
 2947000     1.015293   -3.4727736   -3.4727736   -1.9498375   0.06778881   -3.4727736    1.5229361   439061 
 2948000    1.0151325   -3.4729268   -3.4729268   -1.9502315  0.069108813   -3.4729268    1.5226953   439061 
 2949000    1.0131663   -3.4711425   -3.4711425   -1.9513966  0.064018752   -3.4711425     1.519746   439061 
 2950000    1.0159345   -3.4742205   -3.4742205   -1.9503222  0.061127321   -3.4742205    1.5238983   439061 
 2951000    1.0139376   -3.4721805   -3.4721805   -1.9512775  0.060938799   -3.4721805    1.5209029   439061 
 2952000    1.0146461   -3.4721583   -3.4721583   -1.9501926  0.060446067   -3.4721583    1.5219656   439061 
 2953000    1.0147494   -3.4722579   -3.4722579   -1.9501373  0.056123445   -3.4722579    1.5221207   439061 
 2954000    1.0145865   -3.4718465   -3.4718465   -1.9499703  0.061688681   -3.4718465    1.5218762   439061 
 2955000     1.015009   -3.4715816   -3.4715816   -1.9490715  0.059253537   -3.4715816      1.52251   439061 
 2956000    1.0136501    -3.470739    -3.470739   -1.9502674  0.060399315    -3.470739    1.5204716   439061 
 2957000    1.0158088   -3.4754443   -3.4754443   -1.9517346  0.062116147   -3.4754443    1.5237097   439061 
 2958000    1.0141922   -3.4730865   -3.4730865   -1.9518016  0.059495341   -3.4730865    1.5212849   439061 
 2959000    1.0153364   -3.4750431   -3.4750431   -1.9520419  0.061115158   -3.4750431    1.5230012   439061 
 2960000    1.0158706   -3.4751833   -3.4751833   -1.9513808  0.056091475   -3.4751833    1.5238025   439061 
 2961000    1.0170918   -3.4780361   -3.4780361   -1.9524018  0.063439534   -3.4780361    1.5256343   439061 
 2962000     1.015283   -3.4761522   -3.4761522   -1.9532312  0.062183351   -3.4761522     1.522921   439061 
 2963000    1.0149846   -3.4765094   -3.4765094    -1.954036  0.059881711   -3.4765094    1.5224734   439061 
 2964000    1.0128805   -3.4736251   -3.4736251   -1.9543078  0.065636193   -3.4736251    1.5193173   439061 
 2965000    1.0131461   -3.4730981   -3.4730981   -1.9533825  0.063623749   -3.4730981    1.5197157   439061 
 2966000    1.0136041   -3.4746678   -3.4746678   -1.9542651  0.062889102   -3.4746678    1.5204027   439061 
 2967000    1.0136245   -3.4748826   -3.4748826   -1.9544493  0.064134076   -3.4748826    1.5204332   439061 
 2968000    1.0153663   -3.4781795   -3.4781795   -1.9551335  0.063066227   -3.4781795     1.523046   439061 
 2969000    1.0156557   -3.4777869   -3.4777869   -1.9543068  0.063562462   -3.4777869    1.5234801   439061 
 2970000    1.0151543   -3.4778792   -3.4778792   -1.9551511  0.064053105   -3.4778792     1.522728   439061 
 2971000    1.0164521   -3.4789928   -3.4789928   -1.9543181  0.071195383   -3.4789928    1.5246747   439061 
 2972000    1.0161192    -3.477853    -3.477853   -1.9536777  0.062549829    -3.477853    1.5241754   439061 
 2973000    1.0152761   -3.4780627   -3.4780627    -1.955152  0.066184746   -3.4780627    1.5229107   439061 
 2974000    1.0151242   -3.4773275   -3.4773275   -1.9546447  0.067168106   -3.4773275    1.5226828   439061 
 2975000    1.0155233   -3.4792248   -3.4792248   -1.9559433  0.062146375   -3.4792248    1.5232815   439061 
 2976000    1.0140456   -3.4773396   -3.4773396   -1.9562747  0.062527363   -3.4773396    1.5210649   439061 
 2977000    1.0130169   -3.4766628   -3.4766628   -1.9571409  0.069508053   -3.4766628    1.5195219   439061 
 2978000    1.0139448   -3.4788049   -3.4788049   -1.9578912  0.062665466   -3.4788049    1.5209138   439061 
 2979000    1.0137424   -3.4794155   -3.4794155   -1.9588053   0.06606329   -3.4794155    1.5206102   439061 
 2980000    1.0137845   -3.4787887   -3.4787887   -1.9581155  0.060014552   -3.4787887    1.5206732   439061 
 2981000    1.0136708   -3.4768299   -3.4768299   -1.9563272  0.060712127   -3.4768299    1.5205027   439061 
 2982000     1.015694   -3.4781717   -3.4781717   -1.9546341  0.060780111   -3.4781717    1.5235375   439061 
 2983000     1.016513   -3.4805614   -3.4805614   -1.9557953  0.058835204   -3.4805614    1.5247661   439061 
 2984000    1.0135641   -3.4763779   -3.4763779   -1.9560351  0.063121019   -3.4763779    1.5203428   439061 
 2985000    1.0150813     -3.47856     -3.47856   -1.9559416  0.061988828     -3.47856    1.5226184   439061 
 2986000    1.0153484   -3.4796567   -3.4796567   -1.9566376  0.055064628   -3.4796567    1.5230191   439061 
 2987000    1.0161074   -3.4804885   -3.4804885   -1.9563309  0.063218799   -3.4804885    1.5241576   439061 
 2988000    1.0146615   -3.4779818   -3.4779818   -1.9559931  0.064352747   -3.4779818    1.5219887   439061 
 2989000    1.0149544    -3.479325    -3.479325   -1.9568969  0.057755448    -3.479325    1.5224281   439061 
 2990000     1.014232   -3.4774124   -3.4774124   -1.9560678  0.066823271   -3.4774124    1.5213445   439061 
 2991000    1.0147087   -3.4787109   -3.4787109   -1.9566512  0.060987733   -3.4787109    1.5220596   439061 
 2992000    1.0153222   -3.4773825   -3.4773825   -1.9544027  0.061263345   -3.4773825    1.5229798   439061 
 2993000    1.0137909   -3.4759693   -3.4759693   -1.9552863  0.058734008   -3.4759693    1.5206829   439061 
 2994000    1.0141919   -3.4774537   -3.4774537   -1.9561694  0.057184558   -3.4774537    1.5212843   439061 
 2995000    1.0136769   -3.4774108   -3.4774108   -1.9568989  0.056691268   -3.4774108    1.5205119   439061 
 2996000     1.013328   -3.4777682   -3.4777682   -1.9577796  0.060639522   -3.4777682    1.5199886   439061 
 2997000    1.0123687   -3.4761769   -3.4761769   -1.9576273  0.066294536   -3.4761769    1.5185496   439061 
 2998000    1.0145737   -3.4778054   -3.4778054   -1.9559482  0.059458643   -3.4778054    1.5218571   439061 
 2999000    1.0130373   -3.4764753   -3.4764753   -1.9569228   0.05939598   -3.4764753    1.5195525   439061 
 3000000    1.0140581   -3.4776479   -3.4776479   -1.9565642  0.067405251   -3.4776479    1.5210837   439061 
Loop time of 19995 on 96 procs for 3000000 steps with 439061 atoms

Performance: 64816.060 tau/day, 150.037 timesteps/s
91.7% CPU use with 96 MPI tasks x 1 OpenMP threads

MPI task timing breakdown:
Section |  min time  |  avg time  |  max time  |%varavg|  %CPU | %total
-----------------------------------------------------------------------
Pair    | 5094.6     | 12187      | 14446      |2385.3 |  98.2 | 60.95
Bond    | 2.1667     | 2.3133     | 2.4583     |   4.1 | 100.0 |  0.01
Neigh   | 1648.5     | 2743       | 3110.7     | 746.3 |  99.5 | 13.72
Comm    | 1578.2     | 4415.5     | 12412      |4458.3 |  76.0 | 22.08
Output  | 111.96     | 112.16     | 112.17     |   0.2 |  68.0 |  0.56
Modify  | 167.53     | 279.49     | 754.86     |1156.5 |  84.1 |  1.40
Other   |            | 255.7      |            |       |       |  1.28

Nlocal:        4573.55 ave        4991 max        4009 min
Histogram: 1 0 1 1 7 54 27 3 1 1
Nghost:        6924.95 ave        7603 max        5122 min
Histogram: 6 17 1 0 0 0 0 0 15 57
Neighs:        259256.0 ave      293678 max       92759 min
Histogram: 2 5 5 0 0 0 0 0 17 67

Total # of neighbors = 24888573
Ave neighs/atom = 56.685912
Ave special neighs/atom = 0.0000000
Neighbor list builds = 300000
Dangerous builds = 297000

write_data	data.lj
System init for write_data ...
WARNING: Not all mixed pair coeffs generated from mixing. Use write_data with 'pair ij' option to store all pair coeffs. (src/write_data.cpp:312)
Total wall time: 5:33:17
