LAMMPS (24 Dec 2020)
OMP_NUM_THREADS environment is not set. Defaulting to 1 thread. (src/comm.cpp:94)
  using 1 OpenMP thread(s) per MPI task
# Simple rigid body system
# needed variables:


units		lj
atom_style	full
dimension 	3
boundary	p p f
pair_style	lj/cut/opt 2.5


variable 	sigma		equal 1.0
variable 	epsilon 	equal 1.0

region		box block 0 80 0 80 0 160
create_box 	3 box
Created orthogonal box = (0.0000000 0.0000000 0.0000000) to (80.000000 80.000000 160.00000)
  2 by 3 by 8 MPI processor grid

lattice 	sc 1.0
Lattice spacing in x,y,z = 1.0000000 1.0000000 1.0000000

region		create block EDGE EDGE EDGE EDGE 2 82
create_atoms 	1 region create
Created 518400 atoms
  create_atoms CPU = 0.011 seconds

mass		1 1.0
mass		2 1.0
mass		3 1.0

group		solvent type 1
518400 atoms in group solvent

velocity 	solvent create ${startTemp} 563435 loop geom
velocity 	solvent create 1.0 563435 loop geom


neighbor 	0.4 bin

pair_coeff	1 1 1.0 1.0
pair_coeff	2 2 0.0 0.0
pair_coeff	3 3 0.0 0.0
pair_coeff	2 3 0.0 0.0
pair_coeff	1 2*3 0.0 0.0

pair_modify 	shift yes


balance 	1.05 shift z 10 1.05
Balancing ...
Neighbor list info ...
  update every 1 steps, delay 10 steps, check yes
  max neighbors/atom: 2000, page size: 100000
  master list distance cutoff = 2.9
  ghost atom cutoff = 2.9
  binsize = 1.45, bins = 56 56 111
  1 neighbor lists, perpetual/occasional/extra = 1 0 0
  (1) pair lj/cut/opt, perpetual
      attributes: half, newton on
      pair build: half/bin/newton
      stencil: half/bin/3d/newton
      bin: standard
 rebalancing time: 0.035 seconds
  iteration count = 4
  initial/final maximal load/proc = 21600.000 12960.000
  initial/final imbalance factor  = 2.0000000 1.2000000
  x cuts: 0.0000000 0.50000000 1.0000000
  y cuts: 0.0000000 0.33333333 0.66666667 1.0000000
  z cuts: 0.0000000 0.070312500 0.13281250 0.20312500 0.26562500 0.32031250 0.39843750 0.46875000 1.0000000


####################### WALLS ###########################


variable       epsilonWall equal 2*${epsilon}
variable       epsilonWall equal 2*1

variable       cutoffTop   equal   0.7147*${sigma}
variable       cutoffTop   equal   0.7147*1

variable       cutoffLow   equal   3*${sigma}
variable       cutoffLow   equal   3*1


fix            topWall all wall/lj93 zhi EDGE                ${epsilonWall} ${sigma} ${cutoffTop} units box
fix            topWall all wall/lj93 zhi EDGE                2 ${sigma} ${cutoffTop} units box
fix            topWall all wall/lj93 zhi EDGE                2 1 ${cutoffTop} units box
fix            topWall all wall/lj93 zhi EDGE                2 1 0.7147 units box

fix            lowWall all wall/lj93 zlo EDGE                ${epsilonWall} ${sigma} ${cutoffLow} units box
fix            lowWall all wall/lj93 zlo EDGE                2 ${sigma} ${cutoffLow} units box
fix            lowWall all wall/lj93 zlo EDGE                2 1 ${cutoffLow} units box
fix            lowWall all wall/lj93 zlo EDGE                2 1 3 units box


###################### COMPUTES ##########################

compute        bin1 solvent chunk/atom bin/1d z upper 1.0


######################	FIXES ############################


fix 		peclet solvent ave/chunk 1000 1 1000 bin1 density/number norm 		 none ave one file density.profile

fix 		 temp solvent ave/chunk 1000 1 1000 bin1 temp norm 		 none ave one file temp.profile

fix 		2 solvent nve


## Thermostat


region		regthermo block EDGE EDGE EDGE EDGE 0 20

group 		thermo dynamic solvent region regthermo every 1000
dynamic group thermo defined

fix 		3 thermo langevin ${startTemp} ${temp} 10 156453
fix 		3 thermo langevin 1.0 ${temp} 10 156453
fix 		3 thermo langevin 1.0 1.0 10 156453



#### Load balancing


fix 		bal all balance 1000 1.05 shift z 10 1.05


############### Diagnostics and computes ###################
#compute 	com cube	  rigid/local	1 mol x y z
#compute 	quat cube	  rigid/local	1 mol quatw quati quatj quatk

thermo 		1000
thermo_style 	custom step temp epair evdwl etotal press pe ke atoms

dump		1 all custom 100000 dump.lammpstrj id mol type x y z
dump 		2 all image 10000 image.*.png type type
dump 		3 all movie 1000 movie.avi type type

#dump 		com cube local 1000 dump.*.xyz c_com[*]
#dump		quat cube      local 1000 dump.*.quat c_quat[*]


restart 	1000000 restart.dat
timestep 	0.005
timer 		full
New timer settings: style=full  mode=nosync  timeout=off

run		3000000
Per MPI rank memory allocation (min/avg/max) = 19.50 | 19.91 | 20.25 Mbytes
Step Temp E_pair E_vdwl TotEng Press PotEng KinEng Atoms 
       0            1   -3.2990042   -3.2990042   -1.7990071    9.0186765   -3.2990042    1.4999971   518400 
    1000    1.7053347   -4.5579828   -4.5579828   -1.9999857    3.7116928   -4.5579828    2.5579971   518400 
    2000    1.6582055   -4.6279683   -4.6279683   -2.1406648    1.3297045   -4.6279683    2.4873035   518400 
    3000    1.5232482    -4.408588    -4.408588   -2.1237201   0.15501964    -4.408588    2.2848679   518400 
    4000    1.4262156   -4.1986053   -4.1986053    -2.059286 -0.00038093137   -4.1986053    2.1393193   518400 
    5000    1.4341588     -4.15854     -4.15854   -2.0073061   0.14981545     -4.15854     2.151234   518400 
    6000    1.4409441   -4.1331661   -4.1331661   -1.9717541   0.21102258   -4.1331661     2.161412   518400 
    7000    1.4465732   -4.1178957   -4.1178957   -1.9480401   0.26865739   -4.1178957    2.1698556   518400 
    8000    1.4559964   -4.1144642   -4.1144642   -1.9304738   0.33617816   -4.1144642    2.1839904   518400 
    9000    1.4499717   -4.0962723   -4.0962723   -1.9213189    1.3248722   -4.0962723    2.1749534   518400 
   10000    1.4483385   -4.0837994   -4.0837994   -1.9112959    2.5487768   -4.0837994    2.1725035   518400 
   11000    1.4564218   -4.0864925   -4.0864925    -1.901864     1.758194   -4.0864925    2.1846285   518400 
   12000     1.388316   -3.9763583   -3.9763583   -1.8938883   0.95750174   -3.9763583    2.0824699   518400 
   13000    1.3093225   -3.8527645   -3.8527645   -1.8887845   0.81606278   -3.8527645      1.96398   518400 
   14000    1.2338772   -3.7351441   -3.7351441   -1.8843318   0.52081691   -3.7351441    1.8508123   518400 
   15000    1.1711031   -3.6369372   -3.6369372   -1.8802859   0.33041938   -3.6369372    1.7566513   518400 
   16000    1.1107693   -3.5471074   -3.5471074   -1.8809567   0.19056755   -3.5471074    1.6661507   518400 
   17000    1.0460482   -3.4638155   -3.4638155   -1.8947462  0.035605886   -3.4638155    1.5690693   518400 
   18000    1.0210687   -3.4527363   -3.4527363   -1.9211363   0.01760502   -3.4527363       1.5316   518400 
   19000    1.0188705   -3.4916062   -3.4916062   -1.9633033  0.068301619   -3.4916062    1.5283028   518400 
   20000    1.0237467   -3.5510783   -3.5510783   -2.0154611   0.13448646   -3.5510783    1.5356171   518400 
   21000    1.0276185   -3.6078702   -3.6078702   -2.0664453   0.19064627   -3.6078702    1.5414248   518400 
   22000    1.0232474   -3.6442913   -3.6442913   -2.1094232   0.20505454   -3.6442913    1.5348682   518400 
   23000    1.0131114   -3.6555675   -3.6555675   -2.1359033    0.1776125   -3.6555675    1.5196642   518400 
   24000    1.0042541   -3.6546913   -3.6546913    -2.148313   0.15527873   -3.6546913    1.5063783   518400 
   25000   0.99488832   -3.6456456   -3.6456456    -2.153316   0.13697934   -3.6456456    1.4923296   518400 
   26000   0.98383023   -3.6269908   -3.6269908   -2.1512483   0.11329368   -3.6269908    1.4757425   518400 
   27000    0.9741081   -3.6070054   -3.6070054    -2.145846   0.07740414   -3.6070054    1.4611593   518400 
   28000   0.96958102    -3.593547    -3.593547   -2.1391782  0.066079769    -3.593547    1.4543687   518400 
   29000    0.9720447   -3.5915519   -3.5915519   -2.1334877  0.078583756   -3.5915519    1.4580642   518400 
   30000   0.98511606    -3.603024    -3.603024   -2.1253527   0.11648102    -3.603024    1.4776712   518400 
   31000   0.99587867   -3.6138193   -3.6138193   -2.1200042   0.14824828   -3.6138193    1.4938151   518400 
   32000     1.002182   -3.6180474   -3.6180474   -2.1147772   0.15384613   -3.6180474    1.5032702   518400 
   33000     1.000051   -3.6112841   -3.6112841   -2.1112104   0.13817846   -3.6112841    1.5000736   518400 
   34000   0.99324526    -3.602123    -3.602123    -2.112258   0.11002648    -3.602123     1.489865   518400 
   35000   0.98866563   -3.5975364   -3.5975364   -2.1145408  0.096095143   -3.5975364    1.4829956   518400 
   36000   0.98480879   -3.5995828   -3.5995828   -2.1223725   0.08999619   -3.5995828    1.4772103   518400 
   37000   0.98405655   -3.6088893   -3.6088893   -2.1328073   0.10158751   -3.6088893     1.476082   518400 
   38000   0.98451097   -3.6206651   -3.6206651   -2.1439015   0.11425428   -3.6206651    1.4767636   518400 
   39000   0.98364906    -3.629091    -3.629091   -2.1536202   0.12279511    -3.629091    1.4754708   518400 
   40000   0.98308696   -3.6335609   -3.6335609   -2.1589333   0.11993692   -3.6335609    1.4746276   518400 
   41000   0.98138577   -3.6331324   -3.6331324   -2.1610566   0.11749592   -3.6331324    1.4720758   518400 
   42000   0.98051238    -3.631479    -3.631479   -2.1607133   0.09868816    -3.631479    1.4707657   518400 
   43000   0.97878165   -3.6254581   -3.6254581   -2.1572885  0.097739151   -3.6254581    1.4681696   518400 
   44000    0.9780315   -3.6202725   -3.6202725   -2.1532281  0.098756237   -3.6202725    1.4670444   518400 
   45000   0.97571879   -3.6144632   -3.6144632   -2.1508879  0.082736952   -3.6144632    1.4635754   518400 
   46000   0.97239419   -3.6088456   -3.6088456   -2.1502572  0.082922819   -3.6088456    1.4585885   518400 
   47000   0.96787567   -3.6021785   -3.6021785   -2.1503678  0.072904649   -3.6021785    1.4518107   518400 
   48000   0.96244261   -3.5950911   -3.5950911     -2.15143  0.062387133   -3.5950911    1.4436611   518400 
   49000   0.95867919   -3.5906177   -3.5906177   -2.1526017  0.053815476   -3.5906177     1.438016   518400 
   50000   0.95564692   -3.5858231   -3.5858231   -2.1523555  0.049886298   -3.5858231    1.4334676   518400 
   51000   0.95487182    -3.583341    -3.583341   -2.1510361  0.047898036    -3.583341     1.432305   518400 
   52000   0.95232479   -3.5773951   -3.5773951   -2.1489107  0.043010038   -3.5773951    1.4284844   518400 
   53000   0.95249345   -3.5744367   -3.5744367   -2.1456993  0.037877004   -3.5744367    1.4287374   518400 
   54000   0.95022736   -3.5677578   -3.5677578   -2.1424196  0.039821537   -3.5677578    1.4253383   518400 
   55000   0.94893846   -3.5627914   -3.5627914   -2.1393865   0.03703639   -3.5627914    1.4234049   518400 
   56000   0.94791926   -3.5580353   -3.5580353   -2.1361591  0.035354753   -3.5580353    1.4218761   518400 
   57000   0.94689508   -3.5530406   -3.5530406   -2.1327007  0.026713445   -3.5530406    1.4203399   518400 
   58000    0.9451771   -3.5480187   -3.5480187   -2.1302558  0.034561473   -3.5480187    1.4177629   518400 
   59000   0.94419546     -3.54336     -3.54336   -2.1270695  0.029903339     -3.54336    1.4162905   518400 
   60000   0.94407892   -3.5421084   -3.5421084   -2.1259927  0.025102113   -3.5421084    1.4161157   518400 
   61000   0.94344354   -3.5390836   -3.5390836    -2.123921  0.031910658   -3.5390836    1.4151626   518400 
   62000   0.94439001   -3.5375745   -3.5375745   -2.1209922   0.03064861   -3.5375745    1.4165823   518400 
   63000   0.94428265   -3.5366454   -3.5366454   -2.1202242  0.035297027   -3.5366454    1.4164212   518400 
   64000   0.94519402   -3.5358654   -3.5358654   -2.1180771  0.032569702   -3.5358654    1.4177883   518400 
   65000   0.94482394   -3.5350899   -3.5350899   -2.1178567  0.038990593   -3.5350899    1.4172332   518400 
   66000   0.94461032   -3.5343513   -3.5343513   -2.1174386  0.031753419   -3.5343513    1.4169127   518400 
   67000   0.94565362   -3.5343997   -3.5343997    -2.115922  0.032468169   -3.5343997    1.4184777   518400 
   68000   0.94640986   -3.5353302   -3.5353302   -2.1157182  0.036550745   -3.5353302     1.419612   518400 
   69000   0.94512577   -3.5316981   -3.5316981   -2.1140122  0.034872812   -3.5316981    1.4176859   518400 
   70000   0.94600146   -3.5340149   -3.5340149   -2.1150154  0.037414653   -3.5340149    1.4189995   518400 
   71000   0.94571614   -3.5330607   -3.5330607   -2.1144892  0.032689686   -3.5330607    1.4185715   518400 
   72000   0.94611536   -3.5339324   -3.5339324   -2.1147621  0.031195541   -3.5339324    1.4191703   518400 
   73000   0.94501978   -3.5314206   -3.5314206   -2.1138937  0.036451826   -3.5314206    1.4175269   518400 
   74000   0.94719852   -3.5345961   -3.5345961   -2.1138011  0.033834591   -3.5345961     1.420795   518400 
   75000   0.94799787   -3.5345559   -3.5345559   -2.1125619  0.042468838   -3.5345559    1.4219941   518400 
   76000   0.94640906   -3.5333425   -3.5333425   -2.1137316   0.03895077   -3.5333425    1.4196108   518400 
   77000   0.94672615   -3.5348331   -3.5348331   -2.1147466  0.045100148   -3.5348331    1.4200865   518400 
   78000   0.94723315   -3.5354862   -3.5354862   -2.1146392  0.044710821   -3.5354862     1.420847   518400 
   79000     0.949049   -3.5379316   -3.5379316   -2.1143609  0.037530709   -3.5379316    1.4235708   518400 
   80000   0.95004016   -3.5382951   -3.5382951   -2.1132376  0.043616152   -3.5382951    1.4250575   518400 
   81000   0.94795137   -3.5371936   -3.5371936   -2.1152693  0.038479351   -3.5371936    1.4219243   518400 
   82000   0.94911914   -3.5388984   -3.5388984   -2.1152224  0.044686995   -3.5388984     1.423676   518400 
   83000   0.94798513   -3.5365427   -3.5365427   -2.1145677  0.047718551   -3.5365427     1.421975   518400 
   84000   0.94994401   -3.5391432   -3.5391432     -2.11423  0.036934892   -3.5391432    1.4249133   518400 
   85000   0.94858357   -3.5380642   -3.5380642   -2.1151916  0.042405045   -3.5380642    1.4228726   518400 
   86000   0.95015172   -3.5390278   -3.5390278    -2.113803  0.044968083   -3.5390278    1.4252248   518400 
   87000   0.94985296   -3.5404261   -3.5404261   -2.1156494   0.04419618   -3.5404261    1.4247767   518400 
   88000   0.95069903    -3.542408    -3.542408   -2.1163622  0.052405874    -3.542408    1.4260458   518400 
   89000   0.95254554   -3.5434357   -3.5434357   -2.1146202  0.044115953   -3.5434357    1.4288156   518400 
   90000   0.95395659   -3.5460536   -3.5460536   -2.1151215  0.048923212   -3.5460536    1.4309321   518400 
   91000   0.95273216   -3.5451197   -3.5451197   -2.1160242  0.053097799   -3.5451197    1.4290955   518400 
   92000   0.95480242   -3.5478086   -3.5478086   -2.1156077  0.055492608   -3.5478086    1.4322009   518400 
   93000   0.95636902   -3.5499101   -3.5499101   -2.1153593    0.0644865   -3.5499101    1.4345508   518400 
   94000   0.95904061   -3.5540146   -3.5540146   -2.1154565  0.074047724   -3.5540146    1.4385581   518400 
   95000   0.96084129   -3.5558328   -3.5558328   -2.1145737  0.084655183   -3.5558328    1.4412592   518400 
   96000   0.96423179   -3.5620528   -3.5620528   -2.1157079  0.083035183   -3.5620528    1.4463449   518400 
   97000   0.96460398    -3.562354    -3.562354   -2.1154508  0.088570256    -3.562354    1.4469032   518400 
   98000   0.96441541   -3.5621854   -3.5621854   -2.1155651  0.089684081   -3.5621854    1.4466203   518400 
   99000    0.9643694   -3.5618663   -3.5618663    -2.115315  0.089478354   -3.5618663    1.4465513   518400 
  100000   0.96282416   -3.5596261   -3.5596261   -2.1153927  0.077698659   -3.5596261    1.4442334   518400 
  101000    0.9597674   -3.5543407   -3.5543407   -2.1146924  0.076562672   -3.5543407    1.4396483   518400 
  102000   0.96005263    -3.554358    -3.554358   -2.1142818  0.072778854    -3.554358    1.4400762   518400 
  103000   0.95823336   -3.5525939   -3.5525939   -2.1152466  0.063055063   -3.5525939    1.4373473   518400 
  104000   0.95625926   -3.5496337   -3.5496337   -2.1152476  0.054389525   -3.5496337    1.4343861   518400 
  105000   0.95297206   -3.5455818   -3.5455818   -2.1161264  0.058195417   -3.5455818    1.4294553   518400 
  106000   0.95442088   -3.5466762   -3.5466762   -2.1150477  0.048663529   -3.5466762    1.4316286   518400 
  107000    0.9534103   -3.5460135   -3.5460135   -2.1159008  0.052745526   -3.5460135    1.4301127   518400 
  108000   0.95233188   -3.5451681   -3.5451681   -2.1166731  0.041780137   -3.5451681    1.4284951   518400 
  109000   0.95309296   -3.5463515   -3.5463515   -2.1167148  0.051326615   -3.5463515    1.4296367   518400 
  110000    0.9527926   -3.5459078   -3.5459078   -2.1167217  0.045678281   -3.5459078    1.4291861   518400 
  111000   0.95285603   -3.5475062   -3.5475062   -2.1182249  0.055463645   -3.5475062    1.4292813   518400 
  112000   0.95247117   -3.5475028   -3.5475028   -2.1187988  0.052315366   -3.5475028     1.428704   518400 
  113000   0.95449486   -3.5521104   -3.5521104   -2.1203709  0.052612439   -3.5521104    1.4317395   518400 
  114000   0.95430495   -3.5524432   -3.5524432   -2.1209885  0.050281916   -3.5524432    1.4314547   518400 
  115000   0.95486293   -3.5543636   -3.5543636   -2.1220719  0.052743146   -3.5543636    1.4322916   518400 
  116000   0.95373909   -3.5542392   -3.5542392   -2.1236333  0.048100905   -3.5542392    1.4306059   518400 
  117000   0.95285351   -3.5540752   -3.5540752   -2.1247977  0.047903398   -3.5540752    1.4292775   518400 
  118000   0.95264463   -3.5538947   -3.5538947   -2.1249306  0.047345293   -3.5538947    1.4289642   518400 
  119000   0.95181719   -3.5537803   -3.5537803   -2.1260573  0.047261945   -3.5537803     1.427723   518400 
  120000    0.9523449   -3.5557565   -3.5557565   -2.1272419  0.040535977   -3.5557565    1.4285146   518400 
  121000      0.95231   -3.5554609   -3.5554609   -2.1269987  0.043112077   -3.5554609    1.4284622   518400 
  122000   0.95445432   -3.5598034   -3.5598034   -2.1281246  0.046487293   -3.5598034    1.4316787   518400 
  123000   0.95213428   -3.5553927   -3.5553927   -2.1271941  0.050194056   -3.5553927    1.4281987   518400 
  124000   0.95440166   -3.5598376   -3.5598376   -2.1282379  0.047834119   -3.5598376    1.4315997   518400 
  125000   0.95217609   -3.5559196   -3.5559196   -2.1276583  0.059641321   -3.5559196    1.4282614   518400 
  126000    0.9526505   -3.5569812   -3.5569812   -2.1280082  0.055474862   -3.5569812     1.428973   518400 
  127000   0.95354164   -3.5580004   -3.5580004   -2.1276907  0.054965043   -3.5580004    1.4303097   518400 
  128000   0.95195927   -3.5554828   -3.5554828   -2.1275466  0.048630887   -3.5554828    1.4279361   518400 
  129000    0.9523284   -3.5549204   -3.5549204   -2.1264305  0.049234137   -3.5549204    1.4284898   518400 
  130000   0.95138063   -3.5542844   -3.5542844   -2.1272162  0.042824112   -3.5542844    1.4270682   518400 
  131000   0.95075975   -3.5530607   -3.5530607   -2.1269239  0.048025513   -3.5530607    1.4261369   518400 
  132000   0.95051121   -3.5527218   -3.5527218   -2.1269577  0.046296861   -3.5527218    1.4257641   518400 
  133000   0.95187009   -3.5537713   -3.5537713   -2.1259689  0.051230126   -3.5537713    1.4278024   518400 
  134000    0.9540057   -3.5572524   -3.5572524   -2.1262466  0.051601842   -3.5572524    1.4310058   518400 
  135000   0.95462135   -3.5588798   -3.5588798   -2.1269506  0.050802608   -3.5588798    1.4319293   518400 
  136000    0.9537706   -3.5577705   -3.5577705   -2.1271174  0.049059613   -3.5577705    1.4306531   518400 
  137000   0.95419749    -3.558635    -3.558635   -2.1273415  0.051043086    -3.558635    1.4312935   518400 
  138000    0.9524564   -3.5570532   -3.5570532   -2.1283713  0.055829028   -3.5570532    1.4286818   518400 
  139000   0.95395338   -3.5587749   -3.5587749   -2.1278476  0.047188513   -3.5587749    1.4309273   518400 
  140000   0.95224924     -3.55706     -3.55706   -2.1286889  0.054063194     -3.55706    1.4283711   518400 
  141000   0.95310688   -3.5570059   -3.5570059   -2.1273483  0.047629893   -3.5570059    1.4296576   518400 
  142000   0.95315375   -3.5557178   -3.5557178   -2.1259899  0.048738558   -3.5557178    1.4297279   518400 
  143000   0.95293408    -3.554785    -3.554785   -2.1253866  0.048908377    -3.554785    1.4293984   518400 
  144000   0.95239865   -3.5537362   -3.5537362    -2.125141  0.048906363   -3.5537362    1.4285952   518400 
  145000   0.95258275   -3.5547084   -3.5547084    -2.125837  0.047785628   -3.5547084    1.4288714   518400 
  146000   0.95184253    -3.553064    -3.553064    -2.125303  0.054986355    -3.553064     1.427761   518400 
  147000   0.95412418   -3.5560737   -3.5560737   -2.1248902  0.052588863   -3.5560737    1.4311835   518400 
  148000   0.95281906    -3.553727    -3.553727   -2.1245012  0.051244432    -3.553727    1.4292258   518400 
  149000   0.95444365   -3.5567463   -3.5567463   -2.1250836  0.049456977   -3.5567463    1.4316627   518400 
  150000   0.95400132   -3.5548705   -3.5548705   -2.1238712  0.053269123   -3.5548705    1.4309992   518400 
  151000   0.95325646    -3.552611    -3.552611   -2.1227291  0.052475899    -3.552611    1.4298819   518400 
  152000    0.9542813   -3.5552209   -3.5552209   -2.1238018   0.04513421   -3.5552209    1.4314192   518400 
  153000   0.95546229   -3.5562718   -3.5562718   -2.1230811  0.050539991   -3.5562718    1.4331907   518400 
  154000   0.95479538   -3.5539301   -3.5539301   -2.1217398  0.045052303   -3.5539301    1.4321903   518400 
  155000   0.95347641   -3.5523074   -3.5523074   -2.1220956  0.050121852   -3.5523074    1.4302119   518400 
  156000   0.95466049   -3.5542482   -3.5542482   -2.1222602  0.060902081   -3.5542482     1.431988   518400 
  157000    0.9567329    -3.559206    -3.559206   -2.1241094  0.050945259    -3.559206    1.4350966   518400 
  158000   0.95640284    -3.559004    -3.559004   -2.1244025  0.054123044    -3.559004    1.4346015   518400 
  159000   0.95801344   -3.5607411   -3.5607411   -2.1237237   0.05539653   -3.5607411    1.4370174   518400 
  160000   0.95635082   -3.5578161   -3.5578161   -2.1232926  0.061636978   -3.5578161    1.4345235   518400 
  161000   0.95686646   -3.5576673   -3.5576673   -2.1223704  0.064577108   -3.5576673    1.4352969   518400 
  162000   0.95755001   -3.5578632   -3.5578632    -2.121541  0.061807407   -3.5578632    1.4363222   518400 
  163000   0.95881187   -3.5592212   -3.5592212   -2.1210062  0.061014487   -3.5592212     1.438215   518400 
  164000   0.95871122   -3.5596589   -3.5596589   -2.1215949  0.063828561   -3.5596589     1.438064   518400 
  165000   0.96009311    -3.560787    -3.560787   -2.1206502  0.064401253    -3.560787    1.4401369   518400 
  166000   0.96044703   -3.5620455   -3.5620455   -2.1213778  0.061653844   -3.5620455    1.4406678   518400 
  167000   0.96093384   -3.5621321   -3.5621321   -2.1207341  0.063025613   -3.5621321     1.441398   518400 
  168000    0.9602133   -3.5607859   -3.5607859   -2.1204687  0.066008954   -3.5607859    1.4403172   518400 
  169000   0.95957274    -3.560111    -3.560111   -2.1207546  0.066632171    -3.560111    1.4393563   518400 
  170000   0.95816535   -3.5575313   -3.5575313    -2.120286  0.068265314   -3.5575313    1.4372452   518400 
  171000   0.95780068   -3.5577819   -3.5577819   -2.1210837  0.060870812   -3.5577819    1.4366983   518400 
  172000   0.95740242   -3.5575083   -3.5575083   -2.1214074  0.054405783   -3.5575083    1.4361009   518400 
  173000    0.9561535   -3.5558135   -3.5558135    -2.121586  0.056872705   -3.5558135    1.4342275   518400 
  174000   0.95621732    -3.555172    -3.555172   -2.1208487  0.057016535    -3.555172    1.4343232   518400 
  175000   0.95746011   -3.5564689   -3.5564689   -2.1202815  0.054776893   -3.5564689    1.4361874   518400 
  176000   0.95596509   -3.5544149   -3.5544149     -2.12047   0.06058353   -3.5544149    1.4339449   518400 
  177000   0.95668655   -3.5578735   -3.5578735   -2.1228464  0.053751575   -3.5578735    1.4350271   518400 
  178000   0.95548543    -3.556355    -3.556355   -2.1231296  0.050915996    -3.556355    1.4332254   518400 
  179000   0.95641415   -3.5575088   -3.5575088   -2.1228904  0.055909469   -3.5575088    1.4346185   518400 
  180000   0.95611299   -3.5585554   -3.5585554   -2.1243887  0.051696351   -3.5585554    1.4341667   518400 
  181000   0.95424737   -3.5561316   -3.5561316   -2.1247633  0.054760959   -3.5561316    1.4313683   518400 
  182000   0.95572655   -3.5571892   -3.5571892   -2.1236022  0.054311812   -3.5571892    1.4335871   518400 
  183000   0.95594722   -3.5581963   -3.5581963   -2.1242782  0.053912639   -3.5581963    1.4339181   518400 
  184000   0.95498005   -3.5575642   -3.5575642   -2.1250969  0.049410221   -3.5575642    1.4324673   518400 
  185000    0.9546395    -3.556308    -3.556308   -2.1243515  0.054758048    -3.556308    1.4319565   518400 
  186000   0.95542458   -3.5580816   -3.5580816   -2.1249475  0.053334203   -3.5580816    1.4331341   518400 
  187000   0.95647458   -3.5587286   -3.5587286   -2.1240195  0.056161385   -3.5587286    1.4347091   518400 
  188000   0.95592689   -3.5576588   -3.5576588   -2.1237712  0.051401852   -3.5576588    1.4338876   518400 
  189000   0.95440046   -3.5564963   -3.5564963   -2.1248984  0.054082343   -3.5564963    1.4315979   518400 
  190000   0.95350461   -3.5556956   -3.5556956   -2.1254414  0.047122996   -3.5556956    1.4302542   518400 
  191000   0.95494122   -3.5578077   -3.5578077   -2.1253986  0.052170923   -3.5578077    1.4324091   518400 
  192000   0.95281607   -3.5553816   -3.5553816   -2.1261602  0.054718531   -3.5553816    1.4292213   518400 
  193000   0.95261671   -3.5532946   -3.5532946   -2.1243722  0.052313452   -3.5532946    1.4289223   518400 
  194000   0.95374602   -3.5554944   -3.5554944   -2.1248782  0.054964084   -3.5554944    1.4306163   518400 
  195000   0.95342591    -3.554263    -3.554263   -2.1241268  0.055708784    -3.554263    1.4301361   518400 
  196000   0.95493744    -3.555796    -3.555796   -2.1233926  0.054043351    -3.555796    1.4324034   518400 
  197000   0.95567154   -3.5572844   -3.5572844   -2.1237798   0.05432661   -3.5572844    1.4335045   518400 
  198000   0.95542866    -3.556356    -3.556356   -2.1232157  0.052042307    -3.556356    1.4331402   518400 
  199000   0.95312965   -3.5543154   -3.5543154   -2.1246237  0.055058625   -3.5543154    1.4296917   518400 
  200000   0.95590462    -3.557294    -3.557294   -2.1234399  0.051949025    -3.557294    1.4338542   518400 
  201000   0.95576171   -3.5557974   -3.5557974   -2.1221576  0.047645973   -3.5557974    1.4336398   518400 
  202000    0.9544622   -3.5545128   -3.5545128   -2.1228223  0.048303216   -3.5545128    1.4316905   518400 
  203000   0.95460581   -3.5538636   -3.5538636   -2.1219576  0.052820943   -3.5538636    1.4319059   518400 
  204000   0.95420818   -3.5534253   -3.5534253   -2.1221158  0.051305345   -3.5534253    1.4313095   518400 
  205000   0.95671704    -3.555098    -3.555098   -2.1200252  0.048548226    -3.555098    1.4350728   518400 
  206000   0.95715019   -3.5562763   -3.5562763   -2.1205538  0.051557239   -3.5562763    1.4357225   518400 
  207000   0.95474581   -3.5538507   -3.5538507   -2.1217348  0.049967122   -3.5538507    1.4321159   518400 
  208000   0.95619009   -3.5557671   -3.5557671   -2.1214847  0.046828048   -3.5557671    1.4342824   518400 
  209000   0.95476834   -3.5538256   -3.5538256   -2.1216759  0.049230211   -3.5538256    1.4321497   518400 
  210000   0.95392059   -3.5526395   -3.5526395   -2.1217613  0.055984071   -3.5526395    1.4308781   518400 
  211000   0.95573972   -3.5545944   -3.5545944   -2.1209875  0.055369953   -3.5545944    1.4336068   518400 
  212000   0.95634476   -3.5547878   -3.5547878   -2.1202734  0.054385509   -3.5547878    1.4345144   518400 
  213000    0.9562913   -3.5545848   -3.5545848   -2.1201506    0.0500274   -3.5545848    1.4344342   518400 
  214000   0.95727407    -3.556167    -3.556167   -2.1202587  0.050166231    -3.556167    1.4359083   518400 
  215000   0.95529067   -3.5530051   -3.5530051   -2.1200719  0.054533059   -3.5530051    1.4329332   518400 
  216000   0.95510426   -3.5532714   -3.5532714   -2.1206177  0.049441257   -3.5532714    1.4326536   518400 
  217000   0.95593523   -3.5557359   -3.5557359   -2.1218359  0.044094824   -3.5557359    1.4339001   518400 
  218000    0.9547618   -3.5531884   -3.5531884   -2.1210485  0.053654975   -3.5531884    1.4321399   518400 
  219000    0.9536302   -3.5511221   -3.5511221   -2.1206796  0.057382406   -3.5511221    1.4304425   518400 
  220000    0.9563092   -3.5550252   -3.5550252   -2.1205641  0.055589345   -3.5550252     1.434461   518400 
  221000     0.957348   -3.5551254   -3.5551254   -2.1191062  0.053293274   -3.5551254    1.4360192   518400 
  222000   0.95667395   -3.5550592   -3.5550592   -2.1200511  0.060741022   -3.5550592    1.4350082   518400 
  223000   0.95696616   -3.5552321   -3.5552321   -2.1197856  0.055945325   -3.5552321    1.4354465   518400 
  224000   0.95631029   -3.5545639   -3.5545639   -2.1201012  0.061018558   -3.5545639    1.4344627   518400 
  225000   0.95878611   -3.5573518   -3.5573518   -2.1191754  0.058765156   -3.5573518    1.4381764   518400 
  226000   0.95861347   -3.5573899   -3.5573899   -2.1194724  0.052770876   -3.5573899    1.4379174   518400 
  227000   0.95780244   -3.5559176   -3.5559176   -2.1192167  0.054484024   -3.5559176    1.4367009   518400 
  228000   0.95608229    -3.553315    -3.553315   -2.1191943  0.055491858    -3.553315    1.4341207   518400 
  229000   0.95842011   -3.5559655   -3.5559655   -2.1183381  0.058522821   -3.5559655    1.4376274   518400 
  230000   0.95776449   -3.5541664   -3.5541664   -2.1175224  0.056607935   -3.5541664     1.436644   518400 
  231000   0.95679146   -3.5518265   -3.5518265    -2.116642  0.056730415   -3.5518265    1.4351844   518400 
  232000   0.95767428   -3.5514428   -3.5514428   -2.1149341  0.065250252   -3.5514428    1.4365087   518400 
  233000   0.95830008   -3.5528889   -3.5528889   -2.1154415   0.05844516   -3.5528889    1.4374473   518400 
  234000   0.95733895   -3.5512903   -3.5512903   -2.1152846  0.058983461   -3.5512903    1.4360057   518400 
  235000   0.95652975   -3.5497761   -3.5497761   -2.1149842  0.056164371   -3.5497761    1.4347919   518400 
  236000   0.95654986   -3.5498728   -3.5498728   -2.1150507  0.054631222   -3.5498728     1.434822   518400 
  237000   0.95754244   -3.5520401   -3.5520401   -2.1157292  0.052054059   -3.5520401    1.4363109   518400 
  238000   0.95809175   -3.5511056   -3.5511056   -2.1139707  0.050000103   -3.5511056    1.4371348   518400 
  239000   0.95633251   -3.5495858   -3.5495858   -2.1150898   0.05770616   -3.5495858     1.434496   518400 
  240000   0.95766346   -3.5514693   -3.5514693   -2.1149769  0.054400933   -3.5514693    1.4364924   518400 
  241000   0.95612072   -3.5486492   -3.5486492   -2.1144709  0.054031222   -3.5486492    1.4341783   518400 
  242000   0.95658035   -3.5495459   -3.5495459   -2.1146782  0.048990527   -3.5495459    1.4348678   518400 
  243000   0.95628833   -3.5494521   -3.5494521   -2.1150224  0.049559903   -3.5494521    1.4344297   518400 
  244000    0.9563508   -3.5497429   -3.5497429   -2.1152195   0.05593307   -3.5497429    1.4345234   518400 
  245000   0.95815496   -3.5518163   -3.5518163   -2.1145867  0.052948129   -3.5518163    1.4372297   518400 
  246000   0.95646123   -3.5496338   -3.5496338   -2.1149448  0.057425532   -3.5496338    1.4346891   518400 
  247000   0.95626629    -3.549659    -3.549659   -2.1152624  0.056702404    -3.549659    1.4343967   518400 
  248000   0.95661457   -3.5488924   -3.5488924   -2.1139733  0.052681659   -3.5488924    1.4349191   518400 
  249000      0.95684   -3.5502182   -3.5502182    -2.114961  0.053894016   -3.5502182    1.4352572   518400 
  250000   0.95721877   -3.5508699   -3.5508699   -2.1150446  0.050228803   -3.5508699    1.4358254   518400 
  251000   0.95539746   -3.5477735   -3.5477735   -2.1146801  0.051756876   -3.5477735    1.4330934   518400 
  252000   0.95463309    -3.547106    -3.547106   -2.1151591  0.044108039    -3.547106    1.4319469   518400 
  253000   0.95614802   -3.5498321   -3.5498321   -2.1156129   0.03822248   -3.5498321    1.4342193   518400 
  254000   0.95584108   -3.5490245   -3.5490245   -2.1152656  0.053442733   -3.5490245    1.4337589   518400 
  255000    0.9562928   -3.5488475   -3.5488475   -2.1144111  0.047637316   -3.5488475    1.4344364   518400 
  256000    0.9576437   -3.5514679   -3.5514679   -2.1150051  0.050800331   -3.5514679    1.4364628   518400 
  257000   0.95683556   -3.5517714   -3.5517714   -2.1165208  0.055658296   -3.5517714    1.4352506   518400 
  258000   0.95840446   -3.5538592   -3.5538592   -2.1162553  0.050467319   -3.5538592    1.4376039   518400 
  259000   0.95773632   -3.5522493   -3.5522493   -2.1156476  0.055945137   -3.5522493    1.4366017   518400 
  260000    0.9585755   -3.5539239   -3.5539239   -2.1160634  0.053819444   -3.5539239    1.4378605   518400 
  261000   0.95544415   -3.5495104   -3.5495104    -2.116347  0.055227781   -3.5495104    1.4331635   518400 
  262000   0.95600666   -3.5500651   -3.5500651   -2.1160579  0.047692406   -3.5500651    1.4340072   518400 
  263000   0.95733327     -3.55052     -3.55052   -2.1145229  0.052333861     -3.55052    1.4359971   518400 
  264000   0.95757087   -3.5489625   -3.5489625    -2.112609  0.052118867   -3.5489625    1.4363535   518400 
  265000   0.95748215   -3.5480883   -3.5480883   -2.1118679  0.053233342   -3.5480883    1.4362205   518400 
  266000   0.95764554   -3.5489233   -3.5489233   -2.1124577  0.053040389   -3.5489233    1.4364655   518400 
  267000   0.95639257   -3.5470529   -3.5470529   -2.1124668  0.056091279   -3.5470529    1.4345861   518400 
  268000   0.95660989   -3.5479918   -3.5479918   -2.1130797  0.047189745   -3.5479918    1.4349121   518400 
  269000   0.95532073   -3.5444306   -3.5444306   -2.1114523  0.052772161   -3.5444306    1.4329783   518400 
  270000    0.9573312   -3.5462772   -3.5462772   -2.1102832  0.057641398   -3.5462772     1.435994   518400 
  271000   0.95597207   -3.5438288   -3.5438288   -2.1098734  0.052544166   -3.5438288    1.4339553   518400 
  272000   0.95683848   -3.5464516   -3.5464516   -2.1111967  0.047038479   -3.5464516    1.4352549   518400 
  273000   0.95649385   -3.5452902   -3.5452902   -2.1105522  0.053822863   -3.5452902     1.434738   518400 
  274000   0.95735727   -3.5464517   -3.5464517   -2.1104185  0.055053738   -3.5464517    1.4360331   518400 
  275000   0.95821824   -3.5472919   -3.5472919   -2.1099673  0.049084509   -3.5472919    1.4373246   518400 
  276000   0.95839457   -3.5453901   -3.5453901    -2.107801  0.050683952   -3.5453901    1.4375891   518400 
  277000   0.95730758   -3.5451893   -3.5451893   -2.1092307  0.046490323   -3.5451893    1.4359586   518400 
  278000   0.95650697    -3.543272    -3.543272   -2.1085143  0.055923031    -3.543272    1.4347577   518400 
  279000   0.95701651   -3.5440541   -3.5440541   -2.1085321    0.0498331   -3.5440541     1.435522   518400 
  280000   0.95796907   -3.5450504   -3.5450504   -2.1080996  0.057185879   -3.5450504    1.4369508   518400 
  281000   0.95804081   -3.5445455   -3.5445455    -2.107487  0.053273131   -3.5445455    1.4370584   518400 
  282000   0.95823083   -3.5445132   -3.5445132   -2.1071697  0.054667813   -3.5445132    1.4373435   518400 
  283000   0.95838039   -3.5461264   -3.5461264   -2.1085586  0.052517835   -3.5461264    1.4375678   518400 
  284000   0.95835175   -3.5448354   -3.5448354   -2.1073106  0.055875997   -3.5448354    1.4375249   518400 
  285000   0.95880502   -3.5455217   -3.5455217    -2.107317  0.054740323   -3.5455217    1.4382048   518400 
  286000   0.95727031    -3.543831    -3.543831   -2.1079283   0.05476673    -3.543831    1.4359027   518400 
  287000   0.95789837   -3.5448672   -3.5448672   -2.1080224  0.048135621   -3.5448672    1.4368448   518400 
  288000    0.9567577   -3.5438379   -3.5438379   -2.1087041  0.054206735   -3.5438379    1.4351338   518400 
  289000   0.95526667    -3.541988    -3.541988   -2.1090907  0.062742853    -3.541988    1.4328972   518400 
  290000   0.95792978   -3.5462066   -3.5462066   -2.1093146  0.052869569   -3.5462066    1.4368919   518400 
  291000   0.95918477   -3.5465424   -3.5465424    -2.107768  0.055309122   -3.5465424    1.4387744   518400 
  292000   0.95949982   -3.5468383   -3.5468383   -2.1075914  0.059892305   -3.5468383     1.439247   518400 
  293000   0.96030522    -3.549264    -3.549264    -2.108809  0.051481948    -3.549264     1.440455   518400 
  294000   0.95846533   -3.5459867   -3.5459867   -2.1082915  0.055940041   -3.5459867    1.4376952   518400 
  295000   0.95799282   -3.5445488   -3.5445488   -2.1075623  0.053397795   -3.5445488    1.4369865   518400 
  296000   0.95841715   -3.5447044   -3.5447044   -2.1070814  0.050919526   -3.5447044     1.437623   518400 
  297000    0.9593051   -3.5451418   -3.5451418   -2.1061869  0.048428977   -3.5451418    1.4389549   518400 
  298000   0.95785642   -3.5435409   -3.5435409    -2.106759  0.049442759   -3.5435409    1.4367819   518400 
  299000   0.95655509   -3.5413312   -3.5413312   -2.1065013  0.050371324   -3.5413312    1.4348299   518400 
  300000   0.95853826   -3.5439344   -3.5439344   -2.1061297  0.053290538   -3.5439344    1.4378046   518400 
  301000    0.9597156   -3.5454072   -3.5454072   -2.1058366  0.055077839   -3.5454072    1.4395706   518400 
  302000   0.95891171   -3.5438753   -3.5438753   -2.1055105  0.052140627   -3.5438753    1.4383648   518400 
  303000   0.96001453    -3.545378    -3.545378    -2.105359  0.048020542    -3.545378     1.440019   518400 
  304000   0.95892499   -3.5434164   -3.5434164   -2.1050317  0.051369318   -3.5434164    1.4383847   518400 
  305000   0.95905209   -3.5432271   -3.5432271   -2.1046517  0.056511652   -3.5432271    1.4385754   518400 
  306000    0.9593109    -3.544241    -3.544241   -2.1052774   0.05266836    -3.544241    1.4389636   518400 
  307000   0.95798966   -3.5428946   -3.5428946   -2.1059129  0.056051547   -3.5428946    1.4369817   518400 
  308000   0.95818977   -3.5428433   -3.5428433   -2.1055614  0.052926794   -3.5428433    1.4372819   518400 
  309000   0.95800151    -3.541725    -3.541725   -2.1047255  0.056926144    -3.541725    1.4369995   518400 
  310000   0.95942385   -3.5442889   -3.5442889   -2.1051559   0.04968743   -3.5442889     1.439133   518400 
  311000   0.95894234   -3.5434567   -3.5434567    -2.105046  0.054690691   -3.5434567    1.4384107   518400 
  312000   0.95686341   -3.5403333   -3.5403333   -2.1050409   0.05224821   -3.5403333    1.4352923   518400 
  313000   0.95751539   -3.5409467   -3.5409467   -2.1046764  0.051606073   -3.5409467    1.4362703   518400 
  314000   0.95907871   -3.5430647   -3.5430647   -2.1044494  0.055255087   -3.5430647    1.4386153   518400 
  315000   0.95923233   -3.5423477   -3.5423477   -2.1035019  0.056694976   -3.5423477    1.4388457   518400 
  316000   0.95835584   -3.5424871   -3.5424871   -2.1049561  0.055572681   -3.5424871     1.437531   518400 
  317000   0.95853043   -3.5424651   -3.5424651   -2.1046723  0.055159627   -3.5424651    1.4377929   518400 
  318000   0.95731474   -3.5406659   -3.5406659   -2.1046966  0.048891212   -3.5406659    1.4359693   518400 
  319000   0.95885849   -3.5428658   -3.5428658   -2.1045809   0.04673617   -3.5428658     1.438285   518400 
  320000   0.95807306   -3.5421012   -3.5421012   -2.1049943  0.050002602   -3.5421012    1.4371068   518400 
  321000   0.95942097   -3.5441548   -3.5441548   -2.1050262  0.047906943   -3.5441548    1.4391287   518400 
  322000   0.95906511   -3.5428516   -3.5428516   -2.1042567  0.052153417   -3.5428516    1.4385949   518400 
  323000   0.95749043   -3.5400676   -3.5400676   -2.1038348   0.05031766   -3.5400676    1.4362329   518400 
  324000   0.95861168   -3.5411337   -3.5411337   -2.1032189  0.058387268   -3.5411337    1.4379147   518400 
  325000   0.95953104   -3.5422421   -3.5422421   -2.1029483  0.050041227   -3.5422421    1.4392938   518400 
  326000   0.95851007   -3.5410346   -3.5410346   -2.1032723  0.054495884   -3.5410346    1.4377623   518400 
  327000   0.95926427   -3.5428134   -3.5428134   -2.1039198  0.048568912   -3.5428134    1.4388936   518400 
  328000   0.95838215   -3.5413741   -3.5413741   -2.1038036  0.049482091   -3.5413741    1.4375705   518400 
  329000   0.95780023   -3.5400517   -3.5400517   -2.1033541  0.058215758   -3.5400517    1.4366976   518400 
  330000   0.95960107   -3.5419857   -3.5419857   -2.1025868  0.050157708   -3.5419857    1.4393988   518400 
  331000   0.95915595   -3.5409897   -3.5409897   -2.1022585  0.048672515   -3.5409897    1.4387312   518400 
  332000   0.95957426   -3.5410795   -3.5410795   -2.1017208   0.05247003   -3.5410795    1.4393586   518400 
  333000   0.95920257    -3.540968    -3.540968   -2.1021669  0.048080056    -3.540968    1.4388011   518400 
  334000   0.95836745   -3.5395798   -3.5395798   -2.1020314  0.055112087   -3.5395798    1.4375484   518400 
  335000    0.9589713   -3.5410458   -3.5410458   -2.1025916  0.058824447   -3.5410458    1.4384542   518400 
  336000   0.95901502   -3.5403613   -3.5403613   -2.1018416   0.06280207   -3.5403613    1.4385197   518400 
  337000    0.9606782   -3.5420871   -3.5420871   -2.1010725   0.05313434   -3.5420871    1.4410145   518400 
  338000   0.95883297   -3.5398563   -3.5398563   -2.1016096  0.048024282   -3.5398563    1.4382467   518400 
  339000   0.95860506   -3.5401924   -3.5401924   -2.1022876  0.053961316   -3.5401924    1.4379048   518400 
  340000    0.9586047   -3.5402316   -3.5402316   -2.1023273  0.052763472   -3.5402316    1.4379043   518400 
  341000   0.95857287   -3.5391959   -3.5391959   -2.1013393  0.048231155   -3.5391959    1.4378565   518400 
  342000   0.95791966   -3.5374888   -3.5374888    -2.100612  0.050102707   -3.5374888    1.4368767   518400 
  343000   0.96042659   -3.5407372   -3.5407372   -2.1001001  0.057461692   -3.5407372    1.4406371   518400 
  344000   0.96112145   -3.5419832   -3.5419832   -2.1003038  0.057446357   -3.5419832    1.4416794   518400 
  345000   0.96025346   -3.5416094   -3.5416094    -2.101232  0.057120761   -3.5416094    1.4403774   518400 
  346000   0.96058192   -3.5411952   -3.5411952   -2.1003251  0.057856207   -3.5411952    1.4408701   518400 
  347000   0.95986443    -3.540007    -3.540007   -2.1002131   0.05310566    -3.540007    1.4397939   518400 
  348000   0.95975078     -3.53901     -3.53901   -2.0993866  0.058024522     -3.53901    1.4396234   518400 
  349000   0.96044404   -3.5395891   -3.5395891   -2.0989258  0.053583244   -3.5395891    1.4406633   518400 
  350000   0.96163862   -3.5412499   -3.5412499   -2.0987947  0.050975869   -3.5412499    1.4424552   518400 
  351000   0.96185247    -3.540452    -3.540452   -2.0976761  0.053061644    -3.540452    1.4427759   518400 
  352000    0.9599642   -3.5371029   -3.5371029   -2.0971594  0.051528125   -3.5371029    1.4399435   518400 
  353000   0.95897592   -3.5367412   -3.5367412   -2.0982801  0.054918635   -3.5367412    1.4384611   518400 
  354000   0.95922603   -3.5378283   -3.5378283    -2.098992  0.055319915   -3.5378283    1.4388363   518400 
  355000   0.96124192   -3.5392858   -3.5392858   -2.0974257  0.051313488   -3.5392858    1.4418601   518400 
  356000   0.95961594   -3.5376048   -3.5376048   -2.0981837  0.056194928   -3.5376048    1.4394211   518400 
  357000   0.96165557   -3.5401142   -3.5401142   -2.0976336  0.057317854   -3.5401142    1.4424806   518400 
  358000   0.96073764   -3.5398663   -3.5398663   -2.0987626  0.058668609   -3.5398663    1.4411037   518400 
  359000   0.96035669   -3.5389891   -3.5389891   -2.0984568  0.059125481   -3.5389891    1.4405323   518400 
  360000    0.9612726   -3.5392688   -3.5392688   -2.0973626  0.058049903   -3.5392688    1.4419061   518400 
  361000   0.95923863   -3.5349125   -3.5349125   -2.0960573  0.054552351   -3.5349125    1.4388552   518400 
  362000   0.95993597   -3.5360753   -3.5360753   -2.0961741  0.049754564   -3.5360753    1.4399012   518400 
  363000   0.96096607   -3.5374071   -3.5374071   -2.0959608  0.046787033   -3.5374071    1.4414463   518400 
  364000   0.95946462   -3.5350028   -3.5350028   -2.0958086  0.049630159   -3.5350028    1.4391942   518400 
  365000   0.95980129   -3.5340965   -3.5340965   -2.0943973  0.054104896   -3.5340965    1.4396992   518400 
  366000   0.95913591   -3.5338501   -3.5338501    -2.095149  0.059234839   -3.5338501    1.4387011   518400 
  367000   0.96006354   -3.5359479   -3.5359479   -2.0958554  0.054715359   -3.5359479    1.4400925   518400 
  368000   0.95955401   -3.5347586   -3.5347586   -2.0954303  0.056199647   -3.5347586    1.4393282   518400 
  369000    0.9605791   -3.5349943   -3.5349943   -2.0941284  0.055350044   -3.5349943    1.4408659   518400 
  370000   0.95923408   -3.5334873   -3.5334873    -2.094639  0.050291239   -3.5334873    1.4388483   518400 
  371000   0.96001344   -3.5334874   -3.5334874     -2.09347  0.054135257   -3.5334874    1.4400174   518400 
  372000   0.95998248   -3.5325327   -3.5325327   -2.0925617  0.054151513   -3.5325327    1.4399709   518400 
  373000   0.95998698   -3.5319846   -3.5319846   -2.0920069  0.048903647   -3.5319846    1.4399777   518400 
  374000   0.95874766   -3.5289855   -3.5289855   -2.0908668  0.057874609   -3.5289855    1.4381187   518400 
  375000   0.96197067   -3.5340598   -3.5340598   -2.0911066  0.046204225   -3.5340598    1.4429532   518400 
  376000   0.96299444   -3.5341753   -3.5341753   -2.0896864  0.049453872   -3.5341753    1.4444889   518400 
  377000   0.96195875   -3.5313203   -3.5313203   -2.0883849  0.058622818   -3.5313203    1.4429353   518400 
  378000   0.96190086   -3.5313754   -3.5313754   -2.0885268  0.052408533   -3.5313754    1.4428485   518400 
  379000   0.96189793   -3.5331523   -3.5331523   -2.0903082   0.05303134   -3.5331523    1.4428441   518400 
  380000   0.96014334   -3.5323518   -3.5323518   -2.0921395  0.048653305   -3.5323518    1.4402122   518400 
  381000    0.9588831   -3.5286177   -3.5286177   -2.0902958  0.050987024   -3.5286177    1.4383219   518400 
  382000   0.96063741   -3.5302747   -3.5302747   -2.0893214  0.043131342   -3.5302747    1.4409533   518400 
  383000   0.96116516     -3.53106     -3.53106   -2.0893151  0.047307451     -3.53106     1.441745   518400 
  384000   0.95992185   -3.5295992   -3.5295992   -2.0897192  0.051023195   -3.5295992      1.43988   518400 
  385000   0.96026921   -3.5313674   -3.5313674   -2.0909664   0.04704136   -3.5313674     1.440401   518400 
  386000   0.96002268   -3.5304944   -3.5304944   -2.0904632  0.059491846   -3.5304944    1.4400312   518400 
  387000   0.96033368   -3.5308684   -3.5308684   -2.0903707  0.051611778   -3.5308684    1.4404977   518400 
  388000   0.96157562   -3.5340246   -3.5340246   -2.0916639  0.058243103   -3.5340246    1.4423606   518400 
  389000   0.96065205   -3.5317316   -3.5317316   -2.0907563  0.050912563   -3.5317316    1.4409753   518400 
  390000   0.96021105   -3.5316536   -3.5316536   -2.0913398   0.05249933   -3.5316536    1.4403138   518400 
  391000   0.96195724   -3.5341701   -3.5341701    -2.091237      0.05215   -3.5341701    1.4429331   518400 
  392000   0.95998357   -3.5311765   -3.5311765   -2.0912039  0.050799813   -3.5311765    1.4399726   518400 
  393000   0.96043624    -3.529728    -3.529728   -2.0890764   0.05130108    -3.529728    1.4406516   518400 
  394000   0.95947954   -3.5277235   -3.5277235    -2.088507  0.053880462   -3.5277235    1.4392165   518400 
  395000    0.9601736   -3.5295591   -3.5295591   -2.0893015  0.051235314   -3.5295591    1.4402576   518400 
  396000   0.95970176   -3.5273776   -3.5273776   -2.0878278  0.052101461   -3.5273776    1.4395499   518400 
  397000   0.96060482   -3.5292806   -3.5292806   -2.0883761  0.052431439   -3.5292806    1.4409045   518400 
  398000   0.96052735   -3.5299672   -3.5299672    -2.089179  0.054318969   -3.5299672    1.4407883   518400 
  399000   0.96160267   -3.5311937   -3.5311937   -2.0887924  0.052878448   -3.5311937    1.4424012   518400 
  400000    0.9615429   -3.5315541   -3.5315541   -2.0892425  0.054125818   -3.5315541    1.4423116   518400 
  401000   0.96180162   -3.5307364   -3.5307364   -2.0880368  0.058966668   -3.5307364    1.4426996   518400 
  402000     0.962076   -3.5321366   -3.5321366   -2.0890254  0.056525226   -3.5321366    1.4431112   518400 
  403000   0.96438067   -3.5349707   -3.5349707   -2.0884025  0.054182734   -3.5349707    1.4465682   518400 
  404000   0.96111322   -3.5299914   -3.5299914   -2.0883243  0.057725525   -3.5299914     1.441667   518400 
  405000   0.96250834   -3.5309972   -3.5309972   -2.0872375  0.057530263   -3.5309972    1.4437597   518400 
  406000    0.9611749   -3.5295794   -3.5295794   -2.0878198  0.062980708   -3.5295794    1.4417596   518400 
  407000   0.96066655   -3.5287352   -3.5287352   -2.0877382   0.05441004   -3.5287352     1.440997   518400 
  408000   0.95963378    -3.526025    -3.526025   -2.0865771  0.051408825    -3.526025    1.4394479   518400 
  409000   0.96016246   -3.5271884   -3.5271884   -2.0869475  0.048724375   -3.5271884    1.4402409   518400 
  410000   0.96037816   -3.5268664   -3.5268664   -2.0863019  0.058256232   -3.5268664    1.4405645   518400 
  411000   0.96133497   -3.5283167   -3.5283167   -2.0863171  0.055623334   -3.5283167    1.4419997   518400 
  412000   0.96082722   -3.5271581   -3.5271581   -2.0859201   0.05944625   -3.5271581    1.4412381   518400 
  413000   0.96224002   -3.5290304   -3.5290304   -2.0856732  0.053236794   -3.5290304    1.4433572   518400 
  414000   0.96268713   -3.5292796   -3.5292796   -2.0852517   0.05825893   -3.5292796    1.4440279   518400 
  415000   0.96178395   -3.5280409   -3.5280409   -2.0853677  0.050605783   -3.5280409    1.4426731   518400 
  416000   0.96228148   -3.5295061   -3.5295061   -2.0860866  0.050251758   -3.5295061    1.4434194   518400 
  417000   0.96172066   -3.5279809   -3.5279809   -2.0854027  0.048520719   -3.5279809    1.4425782   518400 
  418000    0.9600009   -3.5267257   -3.5267257   -2.0867271  0.065875116   -3.5267257    1.4399986   518400 
  419000    0.9611028    -3.528857    -3.528857   -2.0872056  0.056047256    -3.528857    1.4416514   518400 
  420000   0.96227638   -3.5303154   -3.5303154   -2.0869036  0.052852772   -3.5303154    1.4434118   518400 
  421000   0.96219809   -3.5313161   -3.5313161   -2.0880218  0.052023708   -3.5313161    1.4432943   518400 
  422000   0.96100943   -3.5299373   -3.5299373   -2.0884259   0.05587322   -3.5299373    1.4415114   518400 
  423000   0.96154165   -3.5310048   -3.5310048   -2.0886951  0.051420024   -3.5310048    1.4423097   518400 
  424000    0.9619864    -3.531741    -3.531741   -2.0887642  0.051262418    -3.531741    1.4429768   518400 
  425000   0.96012897   -3.5288824   -3.5288824   -2.0886917  0.055075875   -3.5288824    1.4401907   518400 
  426000   0.96191587   -3.5310066   -3.5310066   -2.0881355  0.058559708   -3.5310066     1.442871   518400 
  427000   0.96148668   -3.5310657   -3.5310657   -2.0888385  0.051669879   -3.5310657    1.4422272   518400 
  428000   0.96154413   -3.5308198   -3.5308198   -2.0885064  0.050885509   -3.5308198    1.4423134   518400 
  429000   0.96158112   -3.5318462   -3.5318462   -2.0894773   0.05183456   -3.5318462    1.4423689   518400 
  430000   0.96155371   -3.5323102   -3.5323102   -2.0899824  0.052209981   -3.5323102    1.4423278   518400 
  431000   0.96157434   -3.5296449   -3.5296449   -2.0872862  0.049015884   -3.5296449    1.4423587   518400 
  432000   0.96197946   -3.5306723   -3.5306723   -2.0877059  0.045333167   -3.5306723    1.4429664   518400 
  433000   0.95946512   -3.5276209   -3.5276209    -2.088426  0.048826696   -3.5276209    1.4391949   518400 
  434000    0.9615101   -3.5298681   -3.5298681   -2.0876057  0.048463953   -3.5298681    1.4422624   518400 
  435000   0.96158504   -3.5282404   -3.5282404   -2.0858657  0.056457894   -3.5282404    1.4423748   518400 
  436000   0.96086133   -3.5285574   -3.5285574   -2.0872681  0.053559886   -3.5285574    1.4412892   518400 
  437000   0.96180179   -3.5297029   -3.5297029    -2.087003  0.049212005   -3.5297029    1.4426999   518400 
  438000   0.96002896   -3.5260449   -3.5260449   -2.0860042  0.054423584   -3.5260449    1.4400407   518400 
  439000   0.96290034   -3.5281841   -3.5281841   -2.0838363  0.058574796   -3.5281841    1.4443477   518400 
  440000   0.96334838   -3.5283504   -3.5283504   -2.0833306  0.053361211   -3.5283504    1.4450198   518400 
  441000   0.96301596   -3.5291161   -3.5291161   -2.0845949  0.046729099   -3.5291161    1.4445211   518400 
  442000   0.96121899   -3.5256689   -3.5256689   -2.0838432  0.050415788   -3.5256689    1.4418257   518400 
  443000   0.96053978    -3.524381    -3.524381   -2.0835741  0.053851677    -3.524381    1.4408069   518400 
  444000   0.96240641   -3.5255339   -3.5255339    -2.081927  0.049180182   -3.5255339    1.4436068   518400 
  445000   0.95975754   -3.5224394   -3.5224394   -2.0828059  0.049887028   -3.5224394    1.4396335   518400 
  446000     0.960808   -3.5236646   -3.5236646   -2.0824554   0.05333595   -3.5236646    1.4412092   518400 
  447000   0.96227525   -3.5250822   -3.5250822   -2.0816721  0.051713495   -3.5250822    1.4434101   518400 
  448000   0.96119651   -3.5229396   -3.5229396   -2.0811476   0.05919277   -3.5229396     1.441792   518400 
  449000   0.96445876   -3.5277161   -3.5277161   -2.0810308  0.058586581   -3.5277161    1.4466853   518400 
  450000   0.96238842   -3.5254302   -3.5254302   -2.0818504  0.058501015   -3.5254302    1.4435798   518400 
  451000   0.96251473   -3.5255465   -3.5255465   -2.0817772  0.053662112   -3.5255465    1.4437693   518400 
  452000   0.96326252   -3.5281894   -3.5281894   -2.0832984  0.051699372   -3.5281894     1.444891   518400 
  453000   0.96304043   -3.5284497   -3.5284497   -2.0838919  0.057303424   -3.5284497    1.4445579   518400 
  454000   0.96127229   -3.5248075   -3.5248075   -2.0829018   0.05945634   -3.5248075    1.4419057   518400 
  455000   0.96091357   -3.5238296   -3.5238296   -2.0824621  0.051035993   -3.5238296    1.4413676   518400 
  456000   0.96118506    -3.524889    -3.524889   -2.0831142  0.053595739    -3.524889    1.4417748   518400 
  457000   0.96075122   -3.5242801   -3.5242801    -2.083156   0.05323789   -3.5242801     1.441124   518400 
  458000   0.96209996   -3.5266721   -3.5266721   -2.0835249  0.051169343   -3.5266721    1.4431472   518400 
  459000    0.9620962   -3.5268782   -3.5268782   -2.0837367  0.052815199   -3.5268782    1.4431415   518400 
  460000   0.96283199   -3.5273337   -3.5273337   -2.0830885  0.053728582   -3.5273337    1.4442452   518400 
  461000    0.9636513   -3.5280538   -3.5280538   -2.0825796  0.061866356   -3.5280538    1.4454742   518400 
  462000    0.9637544   -3.5275944   -3.5275944   -2.0819656  0.058070505   -3.5275944    1.4456288   518400 
  463000   0.96322483   -3.5273855   -3.5273855    -2.082551  0.055614148   -3.5273855    1.4448345   518400 
  464000   0.96261928   -3.5265517   -3.5265517   -2.0826255  0.057565353   -3.5265517    1.4439261   518400 
  465000   0.96144534   -3.5247197   -3.5247197   -2.0825544  0.052552209   -3.5247197    1.4421652   518400 
  466000   0.96216529   -3.5251642   -3.5251642    -2.081919  0.057160762   -3.5251642    1.4432452   518400 
  467000   0.96149547   -3.5238841   -3.5238841   -2.0816437  0.057779291   -3.5238841    1.4422404   518400 
  468000   0.96145456   -3.5228939   -3.5228939   -2.0807148  0.055794356   -3.5228939    1.4421791   518400 
  469000   0.96323492   -3.5253411   -3.5253411   -2.0804915  0.054654702   -3.5253411    1.4448496   518400 
  470000   0.96200413   -3.5236157   -3.5236157   -2.0806122  0.049025574   -3.5236157    1.4430034   518400 
  471000    0.9642216   -3.5252617   -3.5252617   -2.0789321  0.055720907   -3.5252617    1.4463296   518400 
  472000   0.96300208   -3.5239339   -3.5239339   -2.0794335  0.055375131   -3.5239339    1.4445003   518400 
  473000   0.96388622   -3.5259345   -3.5259345    -2.080108  0.061186054   -3.5259345    1.4458265   518400 
  474000   0.96335319    -3.524781    -3.524781   -2.0797541  0.058178846    -3.524781     1.445027   518400 
  475000   0.96281723   -3.5226092   -3.5226092   -2.0783861  0.062614615   -3.5226092    1.4442231   518400 
  476000   0.96302992    -3.523487    -3.523487   -2.0789449  0.050074879    -3.523487    1.4445421   518400 
  477000   0.96204815   -3.5218996   -3.5218996   -2.0788302  0.050166293   -3.5218996    1.4430694   518400 
  478000   0.96205065   -3.5218201   -3.5218201   -2.0787469  0.049710375   -3.5218201    1.4430732   518400 
  479000   0.96175259    -3.520658    -3.520658   -2.0780319   0.05547811    -3.520658    1.4426261   518400 
  480000    0.9606539   -3.5198436   -3.5198436   -2.0788655   0.05136056   -3.5198436    1.4409781   518400 
  481000   0.96138868   -3.5222554   -3.5222554   -2.0801752  0.055438855   -3.5222554    1.4420802   518400 
  482000   0.96410143   -3.5260946   -3.5260946   -2.0799453  0.047234433   -3.5260946    1.4461493   518400 
  483000   0.96460913    -3.525555    -3.525555   -2.0786441  0.057646541    -3.525555    1.4469109   518400 
  484000   0.96366904   -3.5248996   -3.5248996   -2.0793989  0.059237017   -3.5248996    1.4455008   518400 
  485000   0.96565171   -3.5266421   -3.5266421   -2.0781673  0.055583075   -3.5266421    1.4484748   518400 
  486000   0.96562157   -3.5263345   -3.5263345   -2.0779049  0.054197818   -3.5263345    1.4484296   518400 
  487000   0.96272226   -3.5208485   -3.5208485   -2.0767678  0.060489258   -3.5208485    1.4440806   518400 
  488000   0.96343273   -3.5222062   -3.5222062   -2.0770599  0.049137265   -3.5222062    1.4451463   518400 
  489000   0.96182333   -3.5202987   -3.5202987   -2.0775665  0.052537631   -3.5202987    1.4427322   518400 
  490000   0.96151317   -3.5198134   -3.5198134   -2.0775465  0.043894152   -3.5198134     1.442267   518400 
  491000   0.96139775   -3.5178424   -3.5178424   -2.0757485  0.050182943   -3.5178424    1.4420938   518400 
  492000   0.96272415   -3.5195327   -3.5195327   -2.0754493  0.049017607   -3.5195327    1.4440834   518400 
  493000    0.9636051   -3.5204817   -3.5204817   -2.0750769  0.055906529   -3.5204817    1.4454049   518400 
  494000    0.9617982   -3.5182701   -3.5182701   -2.0755756  0.054247469   -3.5182701    1.4426945   518400 
  495000   0.96315223   -3.5193991   -3.5193991   -2.0746736  0.051198964   -3.5193991    1.4447256   518400 
  496000   0.96363492   -3.5199666   -3.5199666    -2.074517  0.055365337   -3.5199666    1.4454496   518400 
  497000   0.96485077   -3.5220036   -3.5220036   -2.0747303  0.053578162   -3.5220036    1.4472734   518400 
  498000   0.96515993   -3.5219056   -3.5219056   -2.0741685  0.054373189   -3.5219056    1.4477371   518400 
  499000   0.96437086   -3.5217018   -3.5217018   -2.0751483  0.056505316   -3.5217018    1.4465535   518400 
  500000   0.96337862   -3.5208632   -3.5208632    -2.075798  0.055064919   -3.5208632    1.4450651   518400 
  501000   0.96312523   -3.5201843   -3.5201843   -2.0754993  0.052690359   -3.5201843    1.4446851   518400 
  502000   0.96294547   -3.5198632   -3.5198632   -2.0754478  0.050616007   -3.5198632    1.4444154   518400 
  503000   0.96245828   -3.5194471   -3.5194471   -2.0757625  0.051163951   -3.5194471    1.4436846   518400 
  504000   0.96301094   -3.5205284   -3.5205284   -2.0760148  0.052278664   -3.5205284    1.4445136   518400 
  505000   0.96236774    -3.519292    -3.519292   -2.0757432   0.05770835    -3.519292    1.4435488   518400 
  506000   0.96336088   -3.5210772   -3.5210772   -2.0760387  0.054594521   -3.5210772    1.4450385   518400 
  507000   0.96377972   -3.5220417   -3.5220417   -2.0763749  0.055023143   -3.5220417    1.4456668   518400 
  508000   0.96458927   -3.5215079   -3.5215079   -2.0746268  0.053307237   -3.5215079    1.4468811   518400 
  509000   0.96226833   -3.5190704   -3.5190704   -2.0756707  0.055681526   -3.5190704    1.4433997   518400 
  510000   0.96336048   -3.5203382   -3.5203382   -2.0753003  0.054088158   -3.5203382    1.4450379   518400 
  511000   0.96317538    -3.519396    -3.519396   -2.0746357  0.057244318    -3.519396    1.4447603   518400 
  512000   0.96285586   -3.5188948   -3.5188948   -2.0746138  0.059376767   -3.5188948     1.444281   518400 
  513000   0.96425727   -3.5208207   -3.5208207   -2.0744376  0.056005177   -3.5208207    1.4463831   518400 
  514000   0.96191997   -3.5185515   -3.5185515   -2.0756743  0.047429153   -3.5185515    1.4428772   518400 
  515000   0.96282398    -3.518084    -3.518084   -2.0738508  0.056584668    -3.518084    1.4442332   518400 
  516000   0.96193247   -3.5179732   -3.5179732   -2.0750773  0.055108773   -3.5179732    1.4428959   518400 
  517000   0.96267817   -3.5189798   -3.5189798   -2.0749653  0.047428918   -3.5189798    1.4440145   518400 
  518000   0.96303491   -3.5191138   -3.5191138   -2.0745642  0.053637689   -3.5191138    1.4445496   518400 
  519000   0.96173649   -3.5159831   -3.5159831   -2.0733811    0.0553642   -3.5159831     1.442602   518400 
  520000   0.96370747   -3.5191534   -3.5191534    -2.073595  0.054497167   -3.5191534    1.4455584   518400 
  521000   0.96318691   -3.5179354   -3.5179354   -2.0731578   0.05847012   -3.5179354    1.4447776   518400 
  522000   0.96366467   -3.5176423   -3.5176423    -2.072148  0.056951372   -3.5176423    1.4454942   518400 
  523000   0.96436597   -3.5184963   -3.5184963   -2.0719501   0.05951598   -3.5184963    1.4465462   518400 
  524000   0.96246455   -3.5153446   -3.5153446   -2.0716506  0.055292306   -3.5153446     1.443694   518400 
  525000   0.96298721   -3.5169413   -3.5169413   -2.0724633  0.053898703   -3.5169413     1.444478   518400 
  526000   0.96435556   -3.5179338   -3.5179338   -2.0714032  0.050679122   -3.5179338    1.4465305   518400 
  527000   0.96360221   -3.5172011   -3.5172011   -2.0718006  0.043834325   -3.5172011    1.4454005   518400 
  528000   0.96381292   -3.5174923   -3.5174923   -2.0717757  0.054097362   -3.5174923    1.4457166   518400 
  529000   0.96399377   -3.5160367   -3.5160367   -2.0700488  0.052803261   -3.5160367    1.4459879   518400 
  530000   0.96578132   -3.5182913   -3.5182913   -2.0696221  0.057251862   -3.5182913    1.4486692   518400 
  531000   0.96442639   -3.5162662   -3.5162662   -2.0696294  0.058464682   -3.5162662    1.4466368   518400 
  532000   0.96573142   -3.5174067   -3.5174067   -2.0688124  0.053832855   -3.5174067    1.4485943   518400 
  533000   0.96454322   -3.5167583   -3.5167583   -2.0699463  0.052292002   -3.5167583     1.446812   518400 
  534000   0.96410411   -3.5148081   -3.5148081   -2.0686547   0.05652452   -3.5148081    1.4461534   518400 
  535000   0.96505361   -3.5153261   -3.5153261   -2.0677485   0.05708693   -3.5153261    1.4475776   518400 
  536000      0.96433   -3.5142819   -3.5142819   -2.0677897  0.058562504   -3.5142819    1.4464922   518400 
  537000   0.96409674   -3.5151068   -3.5151068   -2.0689645   0.04777857   -3.5151068    1.4461423   518400 
  538000   0.96361725   -3.5132816   -3.5132816   -2.0678585  0.053060788   -3.5132816    1.4454231   518400 
  539000   0.96413263   -3.5138654   -3.5138654   -2.0676693  0.052436049   -3.5138654    1.4461962   518400 
  540000    0.9630442   -3.5124599   -3.5124599   -2.0678963  0.056757501   -3.5124599    1.4445635   518400 
  541000   0.96529644   -3.5155425   -3.5155425   -2.0676006  0.054168997   -3.5155425    1.4479419   518400 
  542000   0.96378804   -3.5144772   -3.5144772   -2.0687979  0.048945876   -3.5144772    1.4456793   518400 
  543000   0.96393617   -3.5135619   -3.5135619   -2.0676604  0.054658181   -3.5135619    1.4459015   518400 
  544000   0.96477174   -3.5136402   -3.5136402   -2.0664854  0.054667838   -3.5136402    1.4471548   518400 
  545000   0.96388897   -3.5114956   -3.5114956   -2.0656649  0.050561227   -3.5114956    1.4458307   518400 
  546000    0.9647799   -3.5124957   -3.5124957   -2.0653286  0.062593581   -3.5124957    1.4471671   518400 
  547000   0.96427072   -3.5120588   -3.5120588   -2.0656556  0.055676064   -3.5120588    1.4464033   518400 
  548000   0.96457638   -3.5120554   -3.5120554   -2.0651936  0.056665341   -3.5120554    1.4468618   518400 
  549000   0.96466692   -3.5119085   -3.5119085   -2.0649109   0.05728802   -3.5119085    1.4469976   518400 
  550000   0.96547935   -3.5132549   -3.5132549   -2.0650387  0.056920628   -3.5132549    1.4482162   518400 
  551000   0.96570219   -3.5129141   -3.5129141   -2.0643636  0.053557278   -3.5129141    1.4485505   518400 
  552000   0.96499504   -3.5107668   -3.5107668    -2.063277  0.057204457   -3.5107668    1.4474898   518400 
  553000   0.96515098   -3.5126478   -3.5126478   -2.0649242  0.061607266   -3.5126478    1.4477237   518400 
  554000   0.96447606   -3.5109155   -3.5109155   -2.0642042  0.053018105   -3.5109155    1.4467113   518400 
  555000   0.96391067   -3.5112253   -3.5112253   -2.0653621  0.053506385   -3.5112253    1.4458632   518400 
  556000   0.96456973   -3.5117763   -3.5117763   -2.0649245  0.052093046   -3.5117763    1.4468518   518400 
  557000   0.96537536    -3.511523    -3.511523   -2.0634628  0.056480056    -3.511523    1.4480603   518400 
  558000   0.96536124   -3.5113855   -3.5113855   -2.0633465  0.056108656   -3.5113855    1.4480391   518400 
  559000   0.96569277   -3.5132226   -3.5132226   -2.0646863  0.055637135   -3.5132226    1.4485364   518400 
  560000   0.96442635   -3.5116502   -3.5116502   -2.0650135  0.058022952   -3.5116502    1.4466367   518400 
  561000   0.96578598   -3.5128432   -3.5128432    -2.064167  0.057918771   -3.5128432    1.4486762   518400 
  562000   0.96574763   -3.5127341   -3.5127341   -2.0641155  0.060959597   -3.5127341    1.4486186   518400 
  563000   0.96494207   -3.5113584   -3.5113584   -2.0639481  0.055038541   -3.5113584    1.4474103   518400 
  564000   0.96495277   -3.5110582   -3.5110582   -2.0636318  0.055463868   -3.5110582    1.4474264   518400 
  565000   0.96388607   -3.5093659   -3.5093659   -2.0635396  0.057576723   -3.5093659    1.4458263   518400 
  566000   0.96518775   -3.5122013   -3.5122013   -2.0644225  0.052255536   -3.5122013    1.4477788   518400 
  567000   0.96313048   -3.5085392   -3.5085392   -2.0638463  0.059038615   -3.5085392    1.4446929   518400 
  568000   0.96474385   -3.5117957   -3.5117957   -2.0646828  0.055033981   -3.5117957     1.447113   518400 
  569000   0.96665783   -3.5137014   -3.5137014   -2.0637174  0.060867104   -3.5137014     1.449984   518400 
  570000    0.9655899   -3.5131397   -3.5131397   -2.0647576  0.061115777   -3.5131397    1.4483821   518400 
  571000   0.96461917   -3.5110732   -3.5110732   -2.0641472    0.0619204   -3.5110732     1.446926   518400 
  572000   0.96585939   -3.5137032   -3.5137032   -2.0649169  0.054542019   -3.5137032    1.4487863   518400 
  573000   0.96453203    -3.512374    -3.512374   -2.0655788  0.056181075    -3.512374    1.4467953   518400 
  574000   0.96530714   -3.5139208   -3.5139208   -2.0659629   0.05915175   -3.5139208    1.4479579   518400 
  575000   0.96517069   -3.5140367   -3.5140367   -2.0662835  0.059591833   -3.5140367    1.4477532   518400 
  576000   0.96574694    -3.513783    -3.513783   -2.0651654  0.053704228    -3.513783    1.4486176   518400 
  577000   0.96435043   -3.5114936   -3.5114936   -2.0649707  0.061559541   -3.5114936    1.4465229   518400 
  578000   0.96457627   -3.5119232   -3.5119232   -2.0650616  0.061122993   -3.5119232    1.4468616   518400 
  579000   0.96424739   -3.5101056   -3.5101056   -2.0637374  0.051886407   -3.5101056    1.4463683   518400 
  580000   0.96480222   -3.5106656   -3.5106656   -2.0634651  0.052578332   -3.5106656    1.4472005   518400 
  581000   0.96460204   -3.5089538   -3.5089538   -2.0620535  0.055353629   -3.5089538    1.4469003   518400 
  582000   0.96594092   -3.5114644   -3.5114644   -2.0625558  0.052703218   -3.5114644    1.4489086   518400 
  583000   0.96457189   -3.5079726   -3.5079726   -2.0611176  0.056239628   -3.5079726     1.446855   518400 
  584000   0.96490552   -3.5095477   -3.5095477   -2.0621922  0.055884413   -3.5095477    1.4473555   518400 
  585000   0.96495826   -3.5102473   -3.5102473   -2.0628127   0.05259407   -3.5102473    1.4474346   518400 
  586000   0.96567551   -3.5101686   -3.5101686   -2.0616581  0.056028985   -3.5101686    1.4485105   518400 
  587000   0.96571733   -3.5104583   -3.5104583    -2.061885  0.049520473   -3.5104583    1.4485732   518400 
  588000   0.96541794   -3.5086739   -3.5086739   -2.0605497  0.057564955   -3.5086739    1.4481241   518400 
  589000   0.96520451   -3.5080859   -3.5080859   -2.0602819  0.052365891   -3.5080859     1.447804   518400 
  590000   0.96583253   -3.5097486   -3.5097486   -2.0610026  0.054463811   -3.5097486     1.448746   518400 
  591000   0.96616786   -3.5090834   -3.5090834   -2.0598344  0.054099766   -3.5090834     1.449249   518400 
  592000   0.96637033   -3.5094632   -3.5094632   -2.0599105  0.059220963   -3.5094632    1.4495527   518400 
  593000   0.96713934   -3.5114652   -3.5114652    -2.060759  0.055928576   -3.5114652    1.4507062   518400 
  594000   0.96572728   -3.5094136   -3.5094136   -2.0608254  0.058428989   -3.5094136    1.4485881   518400 
  595000   0.96709983   -3.5105873   -3.5105873   -2.0599404   0.05995026   -3.5105873    1.4506469   518400 
  596000   0.96555378   -3.5083333   -3.5083333   -2.0600054  0.051971603   -3.5083333    1.4483279   518400 
  597000   0.96546218   -3.5078318   -3.5078318   -2.0596414   0.05489136   -3.5078318    1.4481905   518400 
  598000   0.96382182   -3.5064805   -3.5064805   -2.0607506  0.057862262   -3.5064805    1.4457299   518400 
  599000    0.9653476   -3.5082154   -3.5082154   -2.0601968  0.057458518   -3.5082154    1.4480186   518400 
  600000   0.96498681   -3.5069428   -3.5069428   -2.0594654  0.056573714   -3.5069428    1.4474774   518400 
  601000   0.96632198   -3.5080883   -3.5080883   -2.0586081  0.059749269   -3.5080883    1.4494802   518400 
  602000   0.96576538   -3.5079316   -3.5079316   -2.0592863  0.058283935   -3.5079316    1.4486453   518400 
  603000   0.96579687   -3.5084913   -3.5084913   -2.0597988  0.055857982   -3.5084913    1.4486925   518400 
  604000   0.96626668   -3.5096207   -3.5096207   -2.0602235  0.048960967   -3.5096207    1.4493972   518400 
  605000   0.96538578   -3.5075331   -3.5075331   -2.0594573   0.05772755   -3.5075331    1.4480759   518400 
  606000   0.96577527   -3.5085044   -3.5085044   -2.0598443  0.057710098   -3.5085044    1.4486601   518400 
  607000   0.96741992   -3.5102079   -3.5102079   -2.0590808  0.056078089   -3.5102079    1.4511271   518400 
  608000   0.96641557   -3.5107443   -3.5107443   -2.0611238  0.057435234   -3.5107443    1.4496206   518400 
  609000   0.96609222   -3.5102688   -3.5102688   -2.0611333   0.05630396   -3.5102688    1.4491355   518400 
  610000    0.9672266   -3.5115601   -3.5115601    -2.060723  0.059977881   -3.5115601    1.4508371   518400 
  611000   0.96604935   -3.5102144   -3.5102144   -2.0611432  0.060286716   -3.5102144    1.4490712   518400 
  612000   0.96558998   -3.5087917   -3.5087917   -2.0604096  0.057837465   -3.5087917    1.4483822   518400 
  613000   0.96520072   -3.5071313   -3.5071313    -2.059333  0.064733478   -3.5071313    1.4477983   518400 
  614000   0.96850418    -3.511025    -3.511025   -2.0582715  0.055858913    -3.511025    1.4527535   518400 
  615000   0.96619791   -3.5074386   -3.5074386   -2.0581445  0.055361298   -3.5074386    1.4492941   518400 
  616000   0.96522096   -3.5063544   -3.5063544   -2.0585258  0.057799135   -3.5063544    1.4478287   518400 
  617000   0.96616903   -3.5072348   -3.5072348    -2.057984  0.063870307   -3.5072348    1.4492507   518400 
  618000   0.96703668   -3.5082819   -3.5082819   -2.0577297   0.05581153   -3.5082819    1.4505522   518400 
  619000   0.96551445   -3.5057846   -3.5057846   -2.0575158  0.064478758   -3.5057846    1.4482689   518400 
  620000   0.96602656   -3.5062018   -3.5062018   -2.0571648  0.059498575   -3.5062018     1.449037   518400 
  621000   0.96856335   -3.5097318   -3.5097318   -2.0568896  0.053552913   -3.5097318    1.4528422   518400 
  622000   0.96657085   -3.5074796   -3.5074796   -2.0576262  0.058264623   -3.5074796    1.4498535   518400 
  623000   0.96671266   -3.5073272   -3.5073272    -2.057261  0.060094511   -3.5073272    1.4500662   518400 
  624000   0.96667834   -3.5068247   -3.5068247     -2.05681   0.05853186   -3.5068247    1.4500147   518400 
  625000   0.96714704   -3.5068739   -3.5068739   -2.0561561   0.05766511   -3.5068739    1.4507178   518400 
  626000   0.96760844   -3.5064968   -3.5064968   -2.0550869  0.053493328   -3.5064968    1.4514099   518400 
  627000   0.96528967   -3.5030919   -3.5030919   -2.0551602   0.05361486   -3.5030919    1.4479317   518400 
  628000   0.96587555    -3.503232    -3.503232   -2.0544214  0.056929659    -3.503232    1.4488105   518400 
  629000   0.96575623   -3.5019947   -3.5019947   -2.0533632  0.058877955   -3.5019947    1.4486316   518400 
  630000   0.96592805   -3.5019064   -3.5019064   -2.0530171  0.055178258   -3.5019064    1.4488893   518400 
  631000   0.96632593   -3.5009359   -3.5009359   -2.0514498  0.053943874   -3.5009359    1.4494861   518400 
  632000   0.96812152   -3.5029326   -3.5029326   -2.0507532  0.061492343   -3.5029326    1.4521795   518400 
  633000   0.96816037   -3.5036862   -3.5036862   -2.0514485  0.056264129   -3.5036862    1.4522378   518400 
  634000   0.96776302   -3.5020766   -3.5020766   -2.0504348  0.055731259   -3.5020766    1.4516417   518400 
  635000   0.96752587   -3.5010505   -3.5010505   -2.0497644  0.055880359   -3.5010505     1.451286   518400 
  636000   0.96750773    -3.501911    -3.501911   -2.0506522  0.055088057    -3.501911    1.4512588   518400 
  637000   0.96805238    -3.501333    -3.501333   -2.0492572  0.054561623    -3.501333    1.4520758   518400 
  638000   0.96574479   -3.4979028   -3.4979028   -2.0492884  0.050717611   -3.4979028    1.4486144   518400 
  639000   0.96529404   -3.4969069   -3.4969069   -2.0489686  0.052147141   -3.4969069    1.4479383   518400 
  640000   0.96520812   -3.4965747   -3.4965747   -2.0487653  0.053472073   -3.4965747    1.4478094   518400 
  641000   0.96466315   -3.4972005   -3.4972005   -2.0502086   0.05084512   -3.4972005    1.4469919   518400 
  642000   0.96587446   -3.4983611   -3.4983611   -2.0495522  0.056869806   -3.4983611    1.4488089   518400 
  643000   0.96623536   -3.4988825   -3.4988825   -2.0495322  0.057279359   -3.4988825    1.4493502   518400 
  644000   0.96660594   -3.4999626   -3.4999626   -2.0500565  0.052173609   -3.4999626    1.4499061   518400 
  645000   0.96830245    -3.501516    -3.501516   -2.0490651  0.055338142    -3.501516    1.4524509   518400 
  646000   0.96893567   -3.5034459   -3.5034459   -2.0500452  0.058121384   -3.5034459    1.4534007   518400 
  647000   0.96757392    -3.502496    -3.502496   -2.0511379  0.056105947    -3.502496    1.4513581   518400 
  648000    0.9664027   -3.5008312   -3.5008312   -2.0512299  0.056683418   -3.5008312    1.4496013   518400 
  649000   0.96741112   -3.5011668   -3.5011668   -2.0500529  0.056244331   -3.5011668    1.4511139   518400 
  650000   0.96680998   -3.5008456   -3.5008456   -2.0506335  0.058794501   -3.5008456    1.4502122   518400 
  651000   0.96667632   -3.5014877   -3.5014877    -2.051476  0.051641462   -3.5014877    1.4500117   518400 
  652000   0.96546287   -3.5001427   -3.5001427   -2.0519512  0.048949962   -3.5001427    1.4481915   518400 
  653000   0.96570838   -3.5000743   -3.5000743   -2.0515145  0.052465174   -3.5000743    1.4485598   518400 
  654000   0.96788335   -3.5037657   -3.5037657   -2.0519435  0.054184202   -3.5037657    1.4518222   518400 
  655000     0.967235   -3.5025241   -3.5025241   -2.0516744  0.058556356   -3.5025241    1.4508497   518400 
  656000   0.96775484   -3.5041213   -3.5041213   -2.0524918  0.060081234   -3.5041213    1.4516295   518400 
  657000   0.96766813    -3.504189    -3.504189   -2.0526896  0.058012856    -3.504189    1.4514994   518400 
  658000   0.96785667   -3.5031815   -3.5031815   -2.0513993  0.058374037   -3.5031815    1.4517822   518400 
  659000   0.96762816   -3.5033582   -3.5033582   -2.0519187  0.055780389   -3.5033582    1.4514394   518400 
  660000   0.96808717   -3.5028701   -3.5028701   -2.0507422  0.054229406   -3.5028701    1.4521279   518400 
  661000   0.96676214   -3.5014503   -3.5014503   -2.0513099  0.054201159   -3.5014503    1.4501404   518400 
  662000   0.96382667   -3.4967804   -3.4967804   -2.0510432  0.052350936   -3.4967804    1.4457372   518400 
  663000   0.96642758   -3.5005918   -3.5005918   -2.0509532  0.042849351   -3.5005918    1.4496386   518400 
  664000   0.96482377   -3.4982083   -3.4982083   -2.0509755  0.052043004   -3.4982083    1.4472329   518400 
  665000   0.96722563   -3.5003144   -3.5003144   -2.0494788  0.051801601   -3.5003144    1.4508356   518400 
  666000   0.96651974   -3.4978824   -3.4978824   -2.0481056  0.051263793   -3.4978824    1.4497768   518400 
  667000   0.96746414   -3.4994352   -3.4994352   -2.0482418  0.056003552   -3.4994352    1.4511934   518400 
  668000   0.96830193     -3.49948     -3.49948   -2.0470299  0.062191783     -3.49948    1.4524501   518400 
  669000   0.96821486   -3.4985652   -3.4985652   -2.0462457  0.060789041   -3.4985652    1.4523195   518400 
  670000   0.96783624     -3.49874     -3.49874   -2.0469884  0.050858601     -3.49874    1.4517516   518400 
  671000    0.9671916   -3.4969539   -3.4969539   -2.0461693  0.055464106   -3.4969539    1.4507846   518400 
  672000   0.96763407   -3.4957419   -3.4957419   -2.0442936  0.058190789   -3.4957419    1.4514483   518400 
  673000   0.96811479   -3.4955516   -3.4955516   -2.0433823  0.061137539   -3.4955516    1.4521694   518400 
  674000    0.9671831   -3.4948563   -3.4948563   -2.0440845  0.054920464   -3.4948563    1.4507719   518400 
  675000    0.9681118   -3.4949001   -3.4949001   -2.0427352  0.050478581   -3.4949001    1.4521649   518400 
  676000   0.96772083   -3.4938946   -3.4938946   -2.0423161  0.057464824   -3.4938946    1.4515784   518400 
  677000   0.96782162    -3.493587    -3.493587   -2.0418574  0.056975059    -3.493587    1.4517296   518400 
  678000   0.96774218   -3.4932879   -3.4932879   -2.0416775  0.057271375   -3.4932879    1.4516105   518400 
  679000   0.96721611   -3.4923828   -3.4923828   -2.0415614  0.060725837   -3.4923828    1.4508214   518400 
  680000   0.96644989   -3.4910783   -3.4910783   -2.0414063  0.060131875   -3.4910783     1.449672   518400 
  681000   0.96853846   -3.4935615   -3.4935615   -2.0407566  0.060253019   -3.4935615    1.4528049   518400 
  682000   0.96739022   -3.4930406   -3.4930406   -2.0419581  0.053904257   -3.4930406    1.4510825   518400 
  683000   0.96796583   -3.4935768   -3.4935768   -2.0416308  0.049837579   -3.4935768    1.4519459   518400 
  684000   0.96829958   -3.4939988   -3.4939988   -2.0415522  0.056818063   -3.4939988    1.4524466   518400 
  685000   0.96735114   -3.4938998   -3.4938998   -2.0428759  0.051631776   -3.4938998    1.4510239   518400 
  686000   0.96852529   -3.4960352   -3.4960352   -2.0432501  0.055343221   -3.4960352    1.4527851   518400 
  687000   0.96692341   -3.4938582   -3.4938582   -2.0434759  0.058569329   -3.4938582    1.4503823   518400 
  688000   0.96914211   -3.4957998   -3.4957998   -2.0420894   0.05728779   -3.4957998    1.4537104   518400 
  689000   0.96713158   -3.4941481   -3.4941481   -2.0434535  0.055242533   -3.4941481    1.4506946   518400 
  690000   0.96842973   -3.4965857   -3.4965857   -2.0439439  0.056133559   -3.4965857    1.4526418   518400 
  691000   0.96816847    -3.497123    -3.497123   -2.0448731  0.061898654    -3.497123    1.4522499   518400 
  692000   0.96964296    -3.499373    -3.499373   -2.0449114  0.053150758    -3.499373    1.4544616   518400 
  693000   0.96829244   -3.4970879   -3.4970879   -2.0446521   0.05970258   -3.4970879    1.4524359   518400 
  694000   0.96757019   -3.4957923   -3.4957923   -2.0444398  0.057899586   -3.4957923    1.4513525   518400 
  695000   0.96946845   -3.4978359   -3.4978359    -2.043636  0.055646969   -3.4978359    1.4541999   518400 
  696000   0.96785545   -3.4960112   -3.4960112   -2.0442309  0.051116308   -3.4960112    1.4517804   518400 
  697000   0.96814834   -3.4955606   -3.4955606   -2.0433408    0.0510774   -3.4955606    1.4522197   518400 
  698000   0.96936414   -3.4980696   -3.4980696   -2.0440262  0.053170615   -3.4980696    1.4540434   518400 
  699000   0.96670602    -3.494398    -3.494398   -2.0443418  0.057052133    -3.494398    1.4500562   518400 
  700000   0.96750748   -3.4954361   -3.4954361   -2.0441777  0.054713709   -3.4954361    1.4512584   518400 
  701000   0.96765329   -3.4962819   -3.4962819   -2.0448048   0.05896709   -3.4962819    1.4514771   518400 
  702000   0.96958752   -3.4985092   -3.4985092   -2.0441307  0.056740815   -3.4985092    1.4543785   518400 
  703000   0.96865349   -3.4966605   -3.4966605    -2.043683  0.063220144   -3.4966605    1.4529774   518400 
  704000   0.96969019   -3.4978935   -3.4978935    -2.043361  0.058710727   -3.4978935    1.4545325   518400 
  705000   0.96948522   -3.4963142   -3.4963142   -2.0420892  0.055688405   -3.4963142     1.454225   518400 
  706000   0.96779829   -3.4944355   -3.4944355   -2.0427408  0.052283004   -3.4944355    1.4516946   518400 
  707000   0.96646339   -3.4924281   -3.4924281   -2.0427358  0.053230028   -3.4924281    1.4496923   518400 
  708000   0.96764475   -3.4944006   -3.4944006   -2.0429362  0.053658401   -3.4944006    1.4514643   518400 
  709000   0.96868649   -3.4956457   -3.4956457   -2.0426188  0.056391184   -3.4956457    1.4530269   518400 
  710000   0.96813641    -3.493966    -3.493966   -2.0417641  0.055548107    -3.493966    1.4522018   518400 
  711000   0.96869291    -3.495766    -3.495766   -2.0427295  0.056660847    -3.495766    1.4530366   518400 
  712000   0.96794697   -3.4951799   -3.4951799   -2.0432622   0.05198629   -3.4951799    1.4519177   518400 
  713000   0.96852382   -3.4958035   -3.4958035   -2.0430206  0.054674342   -3.4958035    1.4527829   518400 
  714000   0.96997303   -3.4975932   -3.4975932   -2.0426365  0.058274888   -3.4975932    1.4549567   518400 
  715000   0.96798439   -3.4938299   -3.4938299   -2.0418561  0.059300565   -3.4938299    1.4519738   518400 
  716000   0.96755261   -3.4939462   -3.4939462   -2.0426201   0.05628386   -3.4939462    1.4513261   518400 
  717000    0.9694394   -3.4966134   -3.4966134   -2.0424571  0.057922774   -3.4966134    1.4541563   518400 
  718000   0.96837248    -3.494647    -3.494647   -2.0420911  0.057205907    -3.494647    1.4525559   518400 
  719000   0.96892619   -3.4955358   -3.4955358   -2.0421493  0.064351314   -3.4955358    1.4533865   518400 
  720000   0.96735463   -3.4936599   -3.4936599   -2.0426308  0.054196648   -3.4936599    1.4510291   518400 
  721000   0.96715892   -3.4930312   -3.4930312   -2.0422956  0.060000274   -3.4930312    1.4507356   518400 
  722000   0.96797064   -3.4938509   -3.4938509   -2.0418978   0.05670346   -3.4938509    1.4519532   518400 
  723000   0.96838996   -3.4942305   -3.4942305   -2.0416484  0.059004012   -3.4942305    1.4525821   518400 
  724000   0.96737153   -3.4913196   -3.4913196   -2.0402651  0.052976469   -3.4913196    1.4510545   518400 
  725000   0.96833913   -3.4941032   -3.4941032   -2.0415973  0.049351821   -3.4941032    1.4525059   518400 
  726000   0.96753458   -3.4918053   -3.4918053   -2.0405062  0.054734412   -3.4918053    1.4512991   518400 
  727000   0.96802315   -3.4921944   -3.4921944   -2.0401625  0.051992708   -3.4921944    1.4520319   518400 
  728000    0.9701294   -3.4937048   -3.4937048   -2.0385135  0.052780463   -3.4937048    1.4551913   518400 
  729000   0.96890306   -3.4941898   -3.4941898    -2.040838  0.050110171   -3.4941898    1.4533518   518400 
  730000   0.96882857   -3.4933263   -3.4933263   -2.0400863  0.054425902   -3.4933263      1.45324   518400 
  731000   0.96895275   -3.4933522   -3.4933522   -2.0399259  0.056924991   -3.4933522    1.4534263   518400 
  732000   0.96906571   -3.4923166   -3.4923166   -2.0387209  0.057113392   -3.4923166    1.4535958   518400 
  733000   0.97029654    -3.494364    -3.494364    -2.038922  0.058571018    -3.494364     1.455442   518400 
  734000   0.96966733    -3.492176    -3.492176   -2.0376778  0.059942188    -3.492176    1.4544982   518400 
  735000   0.97079583   -3.4943252   -3.4943252   -2.0381343  0.049186569   -3.4943252    1.4561909   518400 
  736000   0.97031716   -3.4923132   -3.4923132   -2.0368403  0.057415486   -3.4923132    1.4554729   518400 
  737000   0.96756005   -3.4882432   -3.4882432    -2.036906  0.058416459   -3.4882432    1.4513373   518400 
  738000   0.96830117   -3.4908576   -3.4908576   -2.0384086  0.051007723   -3.4908576     1.452449   518400 
  739000   0.96956298    -3.491777    -3.491777   -2.0374354  0.053425257    -3.491777    1.4543417   518400 
  740000   0.96822544   -3.4893815   -3.4893815   -2.0370461  0.052162757   -3.4893815    1.4523354   518400 
  741000   0.96798213   -3.4883277   -3.4883277   -2.0363573  0.059765441   -3.4883277    1.4519704   518400 
  742000   0.96763858   -3.4880831   -3.4880831    -2.036628  0.051580806   -3.4880831    1.4514551   518400 
  743000    0.9686756   -3.4886724   -3.4886724   -2.0356618  0.060330477   -3.4886724    1.4530106   518400 
  744000   0.96958491   -3.4901686   -3.4901686    -2.035794  0.056933443   -3.4901686    1.4543746   518400 
  745000   0.97011133   -3.4900471   -3.4900471   -2.0348829  0.058781625   -3.4900471    1.4551642   518400 
  746000   0.97125603   -3.4912637   -3.4912637   -2.0343825  0.064407466   -3.4912637    1.4568812   518400 
  747000   0.96875216   -3.4882958   -3.4882958   -2.0351704  0.062071664   -3.4882958    1.4531254   518400 
  748000   0.96926584   -3.4883724   -3.4883724   -2.0344765  0.054290956   -3.4883724     1.453896   518400 
  749000   0.96868092   -3.4879987   -3.4879987   -2.0349801  0.051723034   -3.4879987    1.4530186   518400 
  750000   0.96739928   -3.4850184   -3.4850184   -2.0339223  0.051624971   -3.4850184    1.4510961   518400 
  751000   0.97047698   -3.4888372   -3.4888372   -2.0331245  0.051562287   -3.4888372    1.4557127   518400 
  752000   0.96882139   -3.4854605   -3.4854605   -2.0322312  0.056819889   -3.4854605    1.4532293   518400 
  753000   0.97034189   -3.4869293   -3.4869293   -2.0314193  0.057302355   -3.4869293      1.45551   518400 
  754000   0.96882206   -3.4850975   -3.4850975   -2.0318672  0.053431965   -3.4850975    1.4532303   518400 
  755000   0.96978599   -3.4865974   -3.4865974   -2.0319213  0.053875317   -3.4865974    1.4546762   518400 
  756000   0.96951184   -3.4850111   -3.4850111   -2.0307462  0.058997234   -3.4850111    1.4542649   518400 
  757000   0.96979462   -3.4858332   -3.4858332   -2.0311441  0.056297433   -3.4858332    1.4546891   518400 
  758000   0.97056724   -3.4865774   -3.4865774   -2.0307293  0.054370306   -3.4865774     1.455848   518400 
  759000   0.96927825    -3.484717    -3.484717   -2.0308024  0.057477598    -3.484717    1.4539146   518400 
  760000   0.96972505   -3.4839556   -3.4839556   -2.0293708  0.051222805   -3.4839556    1.4545848   518400 
  761000   0.96876419   -3.4829395   -3.4829395    -2.029796  0.055554403   -3.4829395    1.4531435   518400 
  762000   0.97062245   -3.4850011   -3.4850011   -2.0290702  0.057511456   -3.4850011    1.4559309   518400 
  763000   0.97040601   -3.4839071   -3.4839071   -2.0283009  0.060032113   -3.4839071    1.4556062   518400 
  764000   0.97168006   -3.4862287   -3.4862287   -2.0287114  0.051539609   -3.4862287    1.4575173   518400 
  765000   0.97095274   -3.4855856   -3.4855856   -2.0291593  0.052667958   -3.4855856    1.4564263   518400 
  766000   0.97021813   -3.4839944   -3.4839944     -2.02867  0.057448447   -3.4839944    1.4553244   518400 
  767000   0.96924184   -3.4835356   -3.4835356   -2.0296756  0.053616901   -3.4835356    1.4538599   518400 
  768000   0.96695466    -3.480844    -3.480844   -2.0304148  0.055000047    -3.480844    1.4504292   518400 
  769000    0.9683146   -3.4842654   -3.4842654   -2.0317963  0.047645616   -3.4842654    1.4524691   518400 
  770000   0.96814089   -3.4823761   -3.4823761   -2.0301675  0.054937738   -3.4823761    1.4522085   518400 
  771000   0.96946473   -3.4837548   -3.4837548   -2.0295605  0.059875355   -3.4837548    1.4541943   518400 
  772000   0.97020184   -3.4842722   -3.4842722   -2.0289722  0.057835757   -3.4842722       1.4553   518400 
  773000   0.97035812   -3.4860005   -3.4860005   -2.0304661  0.057515933   -3.4860005    1.4555344   518400 
  774000   0.96948894   -3.4848072   -3.4848072   -2.0305766  0.055559551   -3.4848072    1.4542306   518400 
  775000   0.97105192    -3.486752    -3.486752    -2.030177  0.057876079    -3.486752    1.4565751   518400 
  776000   0.97118571   -3.4872065   -3.4872065   -2.0304308  0.059898393   -3.4872065    1.4567758   518400 
  777000   0.97104729    -3.485931    -3.485931   -2.0293629  0.050532654    -3.485931    1.4565681   518400 
  778000     0.968515   -3.4818445   -3.4818445   -2.0290748  0.058753429   -3.4818445    1.4527697   518400 
  779000   0.96931066   -3.4825031   -3.4825031     -2.02854  0.055018054   -3.4825031    1.4539632   518400 
  780000   0.96929876   -3.4828193   -3.4828193    -2.028874  0.054422206   -3.4828193    1.4539453   518400 
  781000    0.9683374   -3.4821434   -3.4821434   -2.0296401  0.048291051   -3.4821434    1.4525033   518400 
  782000   0.96849506    -3.482197    -3.482197   -2.0294572  0.056389621    -3.482197    1.4527398   518400 
  783000   0.96961789   -3.4846986   -3.4846986   -2.0302745  0.056289788   -3.4846986     1.454424   518400 
  784000   0.96991437    -3.485368    -3.485368   -2.0304993  0.061546769    -3.485368    1.4548687   518400 
  785000     0.969225   -3.4852121   -3.4852121   -2.0313774  0.057134051   -3.4852121    1.4538347   518400 
  786000    0.9719253   -3.4875713   -3.4875713   -2.0296861  0.050031981   -3.4875713    1.4578851   518400 
  787000   0.97126067   -3.4875792   -3.4875792    -2.030691  0.053456678   -3.4875792    1.4568882   518400 
  788000    0.9720933   -3.4884905   -3.4884905   -2.0303534  0.051832285   -3.4884905    1.4581371   518400 
  789000   0.97018666   -3.4857836   -3.4857836   -2.0305064  0.051351111   -3.4857836    1.4552772   518400 
  790000   0.96931751   -3.4841951   -3.4841951   -2.0302216  0.059352068   -3.4841951    1.4539735   518400 
  791000   0.96938808   -3.4844698   -3.4844698   -2.0303905  0.050595283   -3.4844698    1.4540793   518400 
  792000   0.97080955   -3.4863049   -3.4863049   -2.0300934  0.047883415   -3.4863049    1.4562115   518400 
  793000   0.96908058   -3.4824068   -3.4824068   -2.0287887  0.056432137   -3.4824068    1.4536181   518400 
  794000   0.96910649   -3.4824251   -3.4824251   -2.0287682  0.055549076   -3.4824251    1.4536569   518400 
  795000   0.97045344   -3.4827028   -3.4827028   -2.0270254  0.057706775   -3.4827028    1.4556774   518400 
  796000   0.96933669   -3.4829254   -3.4829254   -2.0289232  0.055659199   -3.4829254    1.4540022   518400 
  797000   0.96964721   -3.4820046   -3.4820046   -2.0275366  0.058107321   -3.4820046     1.454468   518400 
  798000   0.97097117   -3.4834016   -3.4834016   -2.0269477  0.058488206   -3.4834016     1.456454   518400 
  799000   0.97104501   -3.4844478   -3.4844478   -2.0278831  0.054221228   -3.4844478    1.4565647   518400 
  800000   0.97058291   -3.4847474   -3.4847474   -2.0288759  0.059038395   -3.4847474    1.4558716   518400 
  801000   0.97000732   -3.4842393   -3.4842393   -2.0292312  0.059947005   -3.4842393    1.4550082   518400 
  802000   0.97123603   -3.4858735   -3.4858735   -2.0290223  0.053552113   -3.4858735    1.4568512   518400 
  803000   0.96971316    -3.484744    -3.484744   -2.0301771  0.049615233    -3.484744    1.4545669   518400 
  804000   0.96938431   -3.4842696   -3.4842696    -2.030196  0.059068984   -3.4842696    1.4540737   518400 
  805000   0.97035937   -3.4855034   -3.4855034   -2.0299672  0.058755182   -3.4855034    1.4555363   518400 
  806000   0.97033872   -3.4858263   -3.4858263    -2.030321  0.049462625   -3.4858263    1.4555053   518400 
  807000   0.96937757   -3.4842063   -3.4842063   -2.0301427  0.056821743   -3.4842063    1.4540636   518400 
  808000   0.96851554   -3.4830966   -3.4830966   -2.0303261  0.058394068   -3.4830966    1.4527705   518400 
  809000   0.96834823   -3.4830459   -3.4830459   -2.0305264  0.057779421   -3.4830459    1.4525195   518400 
  810000   0.97043806   -3.4845993   -3.4845993   -2.0289451  0.051090915   -3.4845993    1.4556543   518400 
  811000   0.96964117   -3.4836266   -3.4836266   -2.0291676  0.054602171   -3.4836266    1.4544589   518400 
  812000   0.96987038   -3.4841427   -3.4841427   -2.0293399  0.064397651   -3.4841427    1.4548028   518400 
  813000    0.9695971   -3.4839604   -3.4839604   -2.0295675  0.054041853   -3.4839604    1.4543928   518400 
  814000   0.96956705   -3.4851726   -3.4851726   -2.0308249  0.053717926   -3.4851726    1.4543478   518400 
  815000   0.97122114   -3.4864868   -3.4864868   -2.0296579  0.056976699   -3.4864868    1.4568289   518400 
  816000   0.96901374   -3.4848351   -3.4848351   -2.0313173   0.05491851   -3.4848351    1.4535178   518400 
  817000   0.97024173   -3.4855559   -3.4855559   -2.0301961  0.053128086   -3.4855559    1.4553598   518400 
  818000   0.97002286   -3.4855852   -3.4855852   -2.0305537   0.05081988   -3.4855852    1.4550315   518400 
  819000   0.97122675     -3.48651     -3.48651   -2.0296727   0.05410572     -3.48651    1.4568373   518400 
  820000   0.97104088   -3.4864801   -3.4864801   -2.0299216  0.060900403   -3.4864801    1.4565585   518400 
  821000   0.96996555   -3.4842324   -3.4842324   -2.0292869  0.054156905   -3.4842324    1.4549455   518400 
  822000   0.97014256   -3.4842503   -3.4842503   -2.0290393  0.054945895   -3.4842503     1.455211   518400 
  823000   0.96929262   -3.4832357   -3.4832357   -2.0292996  0.052434362   -3.4832357    1.4539361   518400 
  824000   0.96772531   -3.4813808   -3.4813808   -2.0297956  0.044380722   -3.4813808    1.4515852   518400 
  825000   0.96940795   -3.4835959   -3.4835959   -2.0294868  0.055609315   -3.4835959    1.4541091   518400 
  826000   0.96813495   -3.4816945   -3.4816945   -2.0294948  0.054879558   -3.4816945    1.4521996   518400 
  827000   0.96959511   -3.4837443   -3.4837443   -2.0293545  0.051029957   -3.4837443    1.4543899   518400 
  828000   0.97043614   -3.4829444   -3.4829444    -2.027293    0.0500913   -3.4829444    1.4556514   518400 
  829000   0.96991446   -3.4822084   -3.4822084   -2.0273396  0.056720069   -3.4822084    1.4548689   518400 
  830000   0.96938904   -3.4817885   -3.4817885   -2.0277077  0.060878586   -3.4817885    1.4540808   518400 
  831000   0.97044176   -3.4833526   -3.4833526   -2.0276927  0.058786266   -3.4833526    1.4556598   518400 
  832000    0.9726286    -3.486984    -3.486984   -2.0280439  0.054441656    -3.486984    1.4589401   518400 
  833000   0.97184458   -3.4855667   -3.4855667   -2.0278027  0.056836731   -3.4855667    1.4577641   518400 
  834000   0.96996587   -3.4829414   -3.4829414   -2.0279954  0.060952345   -3.4829414     1.454946   518400 
  835000   0.97159888   -3.4849219   -3.4849219   -2.0275264  0.056194232   -3.4849219    1.4573955   518400 
  836000   0.96942443   -3.4816615   -3.4816615   -2.0275277  0.057445514   -3.4816615    1.4541338   518400 
  837000   0.96924702   -3.4819153   -3.4819153   -2.0280475  0.051938178   -3.4819153    1.4538677   518400 
  838000   0.96760345   -3.4798103   -3.4798103    -2.028408    0.0597793   -3.4798103    1.4514024   518400 
  839000    0.9685393   -3.4801981   -3.4801981    -2.027392  0.055430914   -3.4801981    1.4528062   518400 
  840000   0.96768016   -3.4792051   -3.4792051   -2.0276876  0.050266419   -3.4792051    1.4515174   518400 
  841000   0.96884015   -3.4791933   -3.4791933   -2.0259359  0.057595272   -3.4791933    1.4532574   518400 
  842000   0.97025842   -3.4808566   -3.4808566   -2.0254718  0.052393895   -3.4808566    1.4553848   518400 
  843000   0.97159486   -3.4825467   -3.4825467   -2.0251572  0.061893536   -3.4825467    1.4573895   518400 
  844000   0.97183089   -3.4831973   -3.4831973   -2.0254538  0.058476772   -3.4831973    1.4577435   518400 
  845000   0.96988443   -3.4801427   -3.4801427   -2.0253189  0.054927139   -3.4801427    1.4548238   518400 
  846000   0.97054143   -3.4810088   -3.4810088   -2.0251995  0.057144121   -3.4810088    1.4558093   518400 
  847000   0.96941263   -3.4802365   -3.4802365   -2.0261204  0.053071903   -3.4802365    1.4541161   518400 
  848000   0.96928583   -3.4791438   -3.4791438   -2.0252179  0.053428219   -3.4791438    1.4539259   518400 
  849000   0.97059482    -3.482112    -3.482112   -2.0262226  0.051361346    -3.482112    1.4558894   518400 
  850000   0.97048865   -3.4815214   -3.4815214   -2.0257912  0.060092128   -3.4815214    1.4557302   518400 
  851000   0.96887583    -3.479908    -3.479908   -2.0265971  0.051939642    -3.479908    1.4533109   518400 
  852000   0.97038978    -3.481898    -3.481898   -2.0263161  0.060258062    -3.481898    1.4555819   518400 
  853000   0.97083465   -3.4819735   -3.4819735   -2.0257244  0.054191461   -3.4819735    1.4562492   518400 
  854000   0.97136084     -3.48092     -3.48092   -2.0238816  0.055764652     -3.48092    1.4570384   518400 
  855000   0.97278239    -3.481806    -3.481806   -2.0226352  0.057309656    -3.481806    1.4591708   518400 
  856000   0.97226592   -3.4811518   -3.4811518   -2.0227557  0.051332573   -3.4811518    1.4583961   518400 
  857000   0.97187807   -3.4793897   -3.4793897   -2.0215754  0.061727134   -3.4793897    1.4578143   518400 
  858000   0.97123934   -3.4784954   -3.4784954   -2.0216392  0.059061826   -3.4784954    1.4568562   518400 
  859000   0.97091198   -3.4768049   -3.4768049   -2.0204397  0.052173024   -3.4768049    1.4563652   518400 
  860000   0.97016123   -3.4775986   -3.4775986   -2.0223595  0.050464775   -3.4775986     1.455239   518400 
  861000   0.96914778    -3.476296    -3.476296   -2.0225771  0.052020312    -3.476296    1.4537189   518400 
  862000   0.96928254   -3.4749829   -3.4749829   -2.0210619  0.054158784   -3.4749829     1.453921   518400 
  863000   0.97107615   -3.4771116   -3.4771116   -2.0205002  0.054170536   -3.4771116    1.4566114   518400 
  864000   0.97137231   -3.4778833   -3.4778833   -2.0208276  0.053716981   -3.4778833    1.4570557   518400 
  865000   0.97196122   -3.4782728   -3.4782728   -2.0203338  0.057122792   -3.4782728     1.457939   518400 
  866000   0.97265186   -3.4802972   -3.4802972   -2.0213222  0.052277809   -3.4802972     1.458975   518400 
  867000   0.96976046   -3.4755112   -3.4755112   -2.0208733  0.057077449   -3.4755112    1.4546379   518400 
  868000   0.97130762   -3.4770036   -3.4770036    -2.020045  0.055973986   -3.4770036    1.4569586   518400 
  869000   0.97182756   -3.4779914   -3.4779914   -2.0202529  0.055782413   -3.4779914    1.4577385   518400 
  870000   0.97127581   -3.4776971   -3.4776971   -2.0207862  0.059145791   -3.4776971    1.4569109   518400 
  871000   0.97068934   -3.4766609   -3.4766609   -2.0206297  0.051188914   -3.4766609    1.4560312   518400 
  872000   0.97088248   -3.4766298   -3.4766298   -2.0203089  0.054134308   -3.4766298    1.4563209   518400 
  873000   0.97240166   -3.4798364   -3.4798364   -2.0212368  0.062726077   -3.4798364    1.4585997   518400 
  874000   0.97112088   -3.4777798   -3.4777798   -2.0211013   0.05994284   -3.4777798    1.4566785   518400 
  875000   0.97019313   -3.4770109   -3.4770109    -2.021724  0.059768086   -3.4770109    1.4552869   518400 
  876000   0.97242217   -3.4803015   -3.4803015    -2.021671  0.056272867   -3.4803015    1.4586304   518400 
  877000    0.9711937   -3.4783529   -3.4783529   -2.0215652  0.058282376   -3.4783529    1.4567877   518400 
  878000    0.9712523   -3.4792451   -3.4792451   -2.0223694  0.053329324   -3.4792451    1.4568756   518400 
  879000   0.97148852   -3.4777894   -3.4777894   -2.0205594  0.058330492   -3.4777894      1.45723   518400 
  880000   0.97164132    -3.477571    -3.477571   -2.0201118  0.059938815    -3.477571    1.4574592   518400 
  881000   0.97129407   -3.4774035   -3.4774035   -2.0204652  0.056014789   -3.4774035    1.4569383   518400 
  882000   0.96972812   -3.4750193   -3.4750193   -2.0204299   0.06022847   -3.4750193    1.4545894   518400 
  883000   0.97247641   -3.4783446   -3.4783446   -2.0196328  0.055680782   -3.4783446    1.4587118   518400 
  884000   0.97313289   -3.4777739   -3.4777739   -2.0180773  0.063422018   -3.4777739    1.4596965   518400 
  885000   0.97192824   -3.4767371   -3.4767371   -2.0188475   0.05612956   -3.4767371    1.4578895   518400 
  886000    0.9726381   -3.4776423   -3.4776423    -2.018688   0.04698829   -3.4776423    1.4589543   518400 
  887000   0.97119733   -3.4763169   -3.4763169   -2.0195237  0.059076691   -3.4763169    1.4567932   518400 
  888000    0.9711721   -3.4765209   -3.4765209   -2.0197656   0.05849591   -3.4765209    1.4567553   518400 
  889000   0.97132824   -3.4780363   -3.4780363   -2.0210468  0.055665787   -3.4780363    1.4569896   518400 
  890000   0.97123837   -3.4778499   -3.4778499   -2.0209952  0.058862113   -3.4778499    1.4568547   518400 
  891000   0.97067603    -3.478417    -3.478417   -2.0224057  0.058061061    -3.478417    1.4560112   518400 
  892000   0.97047114   -3.4775842   -3.4775842   -2.0218803  0.056658966   -3.4775842    1.4557039   518400 
  893000   0.97260709   -3.4792045   -3.4792045   -2.0202967  0.054841295   -3.4792045    1.4589078   518400 
  894000   0.97096676   -3.4775312   -3.4775312   -2.0210838  0.059032283   -3.4775312    1.4564473   518400 
  895000   0.97199292   -3.4784164   -3.4784164   -2.0204298  0.053286396   -3.4784164    1.4579866   518400 
  896000   0.97234614    -3.478519    -3.478519   -2.0200026   0.05279485    -3.478519    1.4585164   518400 
  897000   0.97169742   -3.4772841   -3.4772841   -2.0197408   0.05525847   -3.4772841    1.4575433   518400 
  898000   0.97054777   -3.4756617   -3.4756617   -2.0198429  0.055325951   -3.4756617    1.4558189   518400 
  899000   0.97192475   -3.4776042   -3.4776042   -2.0197199  0.052970101   -3.4776042    1.4578843   518400 
  900000   0.97007369   -3.4756017   -3.4756017   -2.0204939  0.053935018   -3.4756017    1.4551077   518400 
  901000   0.96896227   -3.4733164   -3.4733164   -2.0198758  0.056284331   -3.4733164    1.4534406   518400 
  902000   0.97239693   -3.4789629   -3.4789629   -2.0203703  0.049161027   -3.4789629    1.4585926   518400 
  903000   0.97046671   -3.4768999   -3.4768999   -2.0212027  0.054105721   -3.4768999    1.4556973   518400 
  904000   0.97101524   -3.4776838   -3.4776838   -2.0211638  0.051735275   -3.4776838    1.4565201   518400 
  905000   0.97311719   -3.4809206   -3.4809206   -2.0212477  0.054647061   -3.4809206     1.459673   518400 
  906000   0.97433282   -3.4811684   -3.4811684    -2.019672    0.0616384   -3.4811684    1.4614964   518400 
  907000    0.9728837   -3.4797289   -3.4797289   -2.0204062  0.053556282   -3.4797289    1.4593227   518400 
  908000   0.97273846   -3.4794555   -3.4794555   -2.0203507  0.054706026   -3.4794555    1.4591049   518400 
  909000    0.9729014    -3.479302    -3.479302   -2.0199527  0.057074381    -3.479302    1.4593493   518400 
  910000   0.97075468   -3.4762037   -3.4762037   -2.0200744   0.06019066   -3.4762037    1.4561292   518400 
  911000    0.9709863   -3.4766375   -3.4766375   -2.0201609  0.055694025   -3.4766375    1.4564766   518400 
  912000   0.96998046   -3.4748589   -3.4748589    -2.019891   0.04944244   -3.4748589    1.4549679   518400 
  913000   0.97038684   -3.4749808   -3.4749808   -2.0194033  0.056695721   -3.4749808    1.4555775   518400 
  914000   0.97048293   -3.4765389   -3.4765389   -2.0208173  0.049445618   -3.4765389    1.4557216   518400 
  915000   0.97250874   -3.4770313   -3.4770313    -2.018271   0.05814825   -3.4770313    1.4587603   518400 
  916000    0.9714587   -3.4763384   -3.4763384   -2.0191532  0.058499378   -3.4763384    1.4571852   518400 
  917000    0.9722732   -3.4769726   -3.4769726   -2.0185656   0.05826514   -3.4769726     1.458407   518400 
  918000   0.97184818   -3.4775817   -3.4775817   -2.0198122  0.056875878   -3.4775817    1.4577695   518400 
  919000   0.97138011   -3.4753369   -3.4753369   -2.0182696  0.064879114   -3.4753369    1.4570673   518400 
  920000    0.9718502   -3.4769043   -3.4769043   -2.0191318  0.060794746   -3.4769043    1.4577725   518400 
  921000   0.97067329   -3.4754107   -3.4754107   -2.0194036  0.050165439   -3.4754107    1.4560071   518400 
  922000   0.96980705   -3.4738797   -3.4738797    -2.019172  0.050996056   -3.4738797    1.4547078   518400 
  923000    0.9733801   -3.4787086   -3.4787086   -2.0186413  0.052419343   -3.4787086    1.4600673   518400 
  924000   0.97207118    -3.476665    -3.476665    -2.018561  0.058309355    -3.476665     1.458104   518400 
  925000    0.9706796   -3.4754793   -3.4754793   -2.0194627  0.052058117   -3.4754793    1.4560166   518400 
  926000   0.97137141   -3.4755361   -3.4755361   -2.0184818  0.055100996   -3.4755361    1.4570543   518400 
  927000   0.97151591   -3.4771418   -3.4771418   -2.0198708  0.057270269   -3.4771418    1.4572711   518400 
  928000   0.97269291   -3.4784836   -3.4784836   -2.0194471  0.059323091   -3.4784836    1.4590366   518400 
  929000   0.97108496   -3.4748432   -3.4748432   -2.0182185  0.061994937   -3.4748432    1.4566246   518400 
  930000   0.97061499   -3.4756144   -3.4756144   -2.0196948  0.056436128   -3.4756144    1.4559197   518400 
  931000   0.97147366   -3.4750231   -3.4750231   -2.0178154  0.055366222   -3.4750231    1.4572077   518400 
  932000   0.97142168   -3.4758338   -3.4758338   -2.0187041  0.054034552   -3.4758338    1.4571297   518400 
  933000   0.96991587    -3.474264    -3.474264    -2.019393   0.05693028    -3.474264     1.454871   518400 
  934000   0.97113953   -3.4754411   -3.4754411   -2.0187346  0.059577743   -3.4754411    1.4567065   518400 
  935000    0.9715744   -3.4744061   -3.4744061   -2.0170473  0.055389397   -3.4744061    1.4573588   518400 
  936000   0.97262661   -3.4759433   -3.4759433   -2.0170062  0.056615889   -3.4759433    1.4589371   518400 
  937000   0.97171989   -3.4737364   -3.4737364   -2.0161593  0.051829362   -3.4737364     1.457577   518400 
  938000   0.97152513   -3.4735212   -3.4735212   -2.0162363  0.058000802   -3.4735212    1.4572849   518400 
  939000   0.97197154    -3.473834    -3.473834   -2.0158795  0.050299159    -3.473834    1.4579545   518400 
  940000   0.97058811   -3.4721541   -3.4721541   -2.0162747  0.054957384   -3.4721541    1.4558794   518400 
  941000   0.97094401   -3.4722205   -3.4722205   -2.0158073  0.054093133   -3.4722205    1.4564132   518400 
  942000   0.97118087   -3.4714723   -3.4714723   -2.0147038   0.05278721   -3.4714723    1.4567685   518400 
  943000   0.97136453   -3.4711801   -3.4711801   -2.0141361  0.058251108   -3.4711801     1.457044   518400 
  944000   0.97130186   -3.4712666   -3.4712666   -2.0143166   0.05482891   -3.4712666      1.45695   518400 
  945000   0.97139078   -3.4702541   -3.4702541   -2.0131707  0.054589596   -3.4702541    1.4570834   518400 
  946000   0.97226137   -3.4725128   -3.4725128   -2.0141235  0.054571529   -3.4725128    1.4583892   518400 
  947000   0.97203565      -3.4719      -3.4719   -2.0138493  0.050800639      -3.4719    1.4580507   518400 
  948000   0.97173093   -3.4713521   -3.4713521   -2.0137585  0.052679455   -3.4713521    1.4575936   518400 
  949000   0.97035243   -3.4695809   -3.4695809   -2.0140551  0.057156202   -3.4695809    1.4555258   518400 
  950000   0.97161442   -3.4718242   -3.4718242   -2.0144053  0.055325061   -3.4718242    1.4574188   518400 
  951000   0.97221885   -3.4719781   -3.4719781   -2.0136526  0.060953541   -3.4719781    1.4583255   518400 
  952000   0.97282784   -3.4736798   -3.4736798   -2.0144409  0.060323338   -3.4736798     1.459239   518400 
  953000   0.97233922   -3.4726417   -3.4726417   -2.0141357  0.052455164   -3.4726417     1.458506   518400 
  954000   0.96892829   -3.4673161   -3.4673161   -2.0139265  0.057747259   -3.4673161    1.4533896   518400 
  955000   0.97183605   -3.4707773   -3.4707773    -2.013026  0.054992638   -3.4707773    1.4577513   518400 
  956000   0.97255509   -3.4709595   -3.4709595   -2.0121297   0.05439725   -3.4709595    1.4588298   518400 
  957000   0.97261209   -3.4717607   -3.4717607   -2.0128454  0.055073119   -3.4717607    1.4589153   518400 
  958000   0.97194727   -3.4703639   -3.4703639   -2.0124458  0.050972286   -3.4703639    1.4579181   518400 
  959000   0.97086862   -3.4689142   -3.4689142   -2.0126141  0.055350063   -3.4689142    1.4563001   518400 
  960000    0.9709646   -3.4691033   -3.4691033   -2.0126592  0.052880455   -3.4691033    1.4564441   518400 
  961000   0.97194088   -3.4704143   -3.4704143   -2.0125058  0.056372258   -3.4704143    1.4579085   518400 
  962000   0.97102205        -3.47        -3.47   -2.0134697  0.056344399        -3.47    1.4565303   518400 
  963000   0.97156202    -3.470593    -3.470593   -2.0132528  0.051034574    -3.470593    1.4573402   518400 
  964000   0.97290151   -3.4720299   -3.4720299   -2.0126804  0.051352873   -3.4720299    1.4593495   518400 
  965000   0.97168713     -3.47059     -3.47059   -2.0130621  0.054848184     -3.47059    1.4575279   518400 
  966000    0.9726188   -3.4724012   -3.4724012   -2.0134759  0.053800105   -3.4724012    1.4589254   518400 
  967000   0.97196822   -3.4706421   -3.4706421   -2.0126926  0.056636819   -3.4706421    1.4579495   518400 
  968000   0.97251276   -3.4717227   -3.4717227   -2.0129564  0.054577884   -3.4717227    1.4587663   518400 
  969000   0.97188237   -3.4700223   -3.4700223   -2.0122016  0.055574848   -3.4700223    1.4578207   518400 
  970000   0.97294626   -3.4710956   -3.4710956   -2.0116791  0.052617062   -3.4710956    1.4594166   518400 
  971000   0.97081404   -3.4668698   -3.4668698   -2.0106516  0.062283317   -3.4668698    1.4562183   518400 
  972000   0.97104024   -3.4680609   -3.4680609   -2.0115033  0.053472481   -3.4680609    1.4565576   518400 
  973000   0.97261896    -3.469226    -3.469226   -2.0103004  0.046119088    -3.469226    1.4589256   518400 
  974000   0.97127781   -3.4670446   -3.4670446   -2.0101307  0.053683312   -3.4670446    1.4569139   518400 
  975000   0.97181386   -3.4676451   -3.4676451   -2.0099271  0.047837455   -3.4676451     1.457718   518400 
  976000   0.97116453    -3.467094    -3.467094     -2.01035  0.047741936    -3.467094     1.456744   518400 
  977000   0.97115787   -3.4668863   -3.4668863   -2.0101523  0.050058921   -3.4668863     1.456734   518400 
  978000   0.97087976   -3.4668761   -3.4668761   -2.0105593  0.053682038   -3.4668761    1.4563168   518400 
  979000   0.97270183   -3.4692615   -3.4692615   -2.0102116  0.055385427   -3.4692615    1.4590499   518400 
  980000   0.97295758   -3.4690387   -3.4690387   -2.0096051  0.056130897   -3.4690387    1.4594335   518400 
  981000   0.97367693   -3.4701576   -3.4701576    -2.009645  0.055168366   -3.4701576    1.4605126   518400 
  982000   0.97418782   -3.4701355   -3.4701355   -2.0088566  0.053581085   -3.4701355    1.4612789   518400 
  983000    0.9739219   -3.4700782   -3.4700782   -2.0091982  0.058236316   -3.4700782      1.46088   518400 
  984000   0.97335862    -3.469368    -3.469368   -2.0093329  0.058603826    -3.469368    1.4600351   518400 
  985000   0.97333216   -3.4696146   -3.4696146   -2.0096192  0.059340185   -3.4696146    1.4599954   518400 
  986000   0.97438299   -3.4702015   -3.4702015   -2.0086298  0.056964909   -3.4702015    1.4615717   518400 
  987000   0.97215841   -3.4673676   -3.4673676   -2.0091328  0.056645131   -3.4673676    1.4582348   518400 
  988000   0.97204379   -3.4675789   -3.4675789    -2.009516  0.056283346   -3.4675789    1.4580629   518400 
  989000   0.97344599   -3.4697129   -3.4697129   -2.0095467  0.055954919   -3.4697129    1.4601662   518400 
  990000   0.97220804   -3.4674781   -3.4674781   -2.0091688   0.05842145   -3.4674781    1.4583092   518400 
  991000    0.9733535   -3.4704999   -3.4704999   -2.0104725  0.050581236   -3.4704999    1.4600274   518400 
  992000   0.97254259    -3.467919    -3.467919   -2.0091079  0.058302875    -3.467919    1.4588111   518400 
  993000   0.97312547   -3.4688595   -3.4688595   -2.0091741   0.05485624   -3.4688595    1.4596854   518400 
  994000   0.97510202   -3.4721324   -3.4721324   -2.0094822  0.058549868   -3.4721324    1.4626502   518400 
  995000   0.97525951   -3.4720866   -3.4720866   -2.0092001   0.05965102   -3.4720866    1.4628864   518400 
  996000   0.97477679   -3.4700322   -3.4700322   -2.0078698  0.058992895   -3.4700322    1.4621624   518400 
  997000   0.97506753   -3.4699554   -3.4699554   -2.0073569  0.058913891   -3.4699554    1.4625985   518400 
  998000   0.97527256   -3.4690965   -3.4690965   -2.0061905  0.058541383   -3.4690965     1.462906   518400 
  999000   0.97405379   -3.4667282   -3.4667282   -2.0056503  0.067815432   -3.4667282    1.4610779   518400 
 1000000    0.9737046   -3.4680511   -3.4680511   -2.0074971  0.056720724   -3.4680511    1.4605541   518400 
 1001000   0.97348549   -3.4673828   -3.4673828   -2.0071574  0.057352205   -3.4673828    1.4602254   518400 
 1002000    0.9745063   -3.4684112   -3.4684112   -2.0066546  0.054754895   -3.4684112    1.4617566   518400 
 1003000   0.97289389   -3.4658172   -3.4658172   -2.0064792  0.055177972   -3.4658172     1.459338   518400 
 1004000   0.97432875   -3.4684542   -3.4684542   -2.0069639  0.057668484   -3.4684542    1.4614903   518400 
 1005000   0.97372189   -3.4680403   -3.4680403   -2.0074603   0.05312025   -3.4680403      1.46058   518400 
 1006000   0.97379668   -3.4675316   -3.4675316   -2.0068394  0.062809908   -3.4675316    1.4606922   518400 
 1007000   0.97513195   -3.4702148   -3.4702148   -2.0075197  0.057287376   -3.4702148    1.4626951   518400 
 1008000   0.97441453   -3.4698942   -3.4698942   -2.0082752  0.057836745   -3.4698942     1.461619   518400 
 1009000   0.97467196   -3.4690467   -3.4690467   -2.0070416  0.057131289   -3.4690467    1.4620051   518400 
 1010000   0.97481402   -3.4686681   -3.4686681   -2.0064499  0.058446879   -3.4686681    1.4622182   518400 
 1011000   0.97486181   -3.4686772   -3.4686772   -2.0063873  0.056056883   -3.4686772    1.4622899   518400 
 1012000   0.97260812   -3.4658464   -3.4658464   -2.0069371  0.055631688   -3.4658464    1.4589094   518400 
 1013000    0.9725723   -3.4658169   -3.4658169   -2.0069613  0.057338359   -3.4658169    1.4588556   518400 
 1014000   0.97271772   -3.4668498   -3.4668498    -2.007776  0.057907351   -3.4668498    1.4590738   518400 
 1015000   0.97423814   -3.4685127   -3.4685127   -2.0071583  0.054651561   -3.4685127    1.4613544   518400 
 1016000   0.97279198   -3.4652351   -3.4652351   -2.0060499  0.057995486   -3.4652351    1.4591852   518400 
 1017000     0.973442   -3.4657838   -3.4657838   -2.0056236  0.057436973   -3.4657838    1.4601602   518400 
 1018000   0.97302551   -3.4656363   -3.4656363   -2.0061009  0.057401121   -3.4656363    1.4595355   518400 
 1019000    0.9737479   -3.4678181   -3.4678181   -2.0071991  0.058845695   -3.4678181     1.460619   518400 
 1020000   0.97483245   -3.4686709   -3.4686709   -2.0064251  0.052180872   -3.4686709    1.4622459   518400 
 1021000   0.97411139   -3.4657371   -3.4657371   -2.0045729  0.054857874   -3.4657371    1.4611643   518400 
 1022000    0.9732574   -3.4645171   -3.4645171   -2.0046338  0.058066732   -3.4645171    1.4598833   518400 
 1023000   0.97510492   -3.4675713   -3.4675713   -2.0049167  0.061564238   -3.4675713    1.4626546   518400 
 1024000   0.97384697   -3.4659242   -3.4659242   -2.0051566  0.059825382   -3.4659242    1.4607676   518400 
 1025000   0.97366907    -3.465357    -3.465357   -2.0048563  0.054541335    -3.465357    1.4605008   518400 
 1026000    0.9737535   -3.4650542   -3.4650542   -2.0044267  0.060172673   -3.4650542    1.4606274   518400 
 1027000     0.971337   -3.4617293   -3.4617293   -2.0047266  0.055541584   -3.4617293    1.4570027   518400 
 1028000   0.97322376   -3.4628544   -3.4628544   -2.0030215  0.052325164   -3.4628544    1.4598328   518400 
 1029000   0.97382247   -3.4636381   -3.4636381   -2.0029072  0.059246714   -3.4636381    1.4607309   518400 
 1030000   0.97280559   -3.4622721   -3.4622721   -2.0030666  0.054221386   -3.4622721    1.4592056   518400 
 1031000   0.97317066   -3.4624149   -3.4624149   -2.0026618  0.054298949   -3.4624149    1.4597532   518400 
 1032000   0.97321341   -3.4635641   -3.4635641   -2.0037468  0.057398256   -3.4635641    1.4598173   518400 
 1033000    0.9725041   -3.4625762   -3.4625762   -2.0038228   0.05566454   -3.4625762    1.4587533   518400 
 1034000   0.97311854   -3.4628083   -3.4628083   -2.0031333  0.061317682   -3.4628083     1.459675   518400 
 1035000   0.97438143   -3.4631406   -3.4631406   -2.0015713  0.050447707   -3.4631406    1.4615693   518400 
 1036000   0.97450393   -3.4641993   -3.4641993   -2.0024462  0.057033602   -3.4641993    1.4617531   518400 
 1037000   0.97444773   -3.4646248   -3.4646248    -2.002956  0.053014565   -3.4646248    1.4616688   518400 
 1038000   0.97316714   -3.4637133   -3.4637133   -2.0039655  0.053400415   -3.4637133    1.4597479   518400 
 1039000   0.97463782   -3.4656057   -3.4656057   -2.0036518  0.053744199   -3.4656057    1.4619539   518400 
 1040000   0.97286024   -3.4638682   -3.4638682   -2.0045807  0.056994546   -3.4638682    1.4592875   518400 
 1041000   0.97506445   -3.4666666   -3.4666666   -2.0040727  0.054520236   -3.4666666    1.4625938   518400 
 1042000   0.97488708   -3.4663089   -3.4663089   -2.0039811  0.058051191   -3.4663089    1.4623278   518400 
 1043000   0.97218065    -3.460826    -3.460826   -2.0025578  0.059292584    -3.460826    1.4582682   518400 
 1044000   0.97131431   -3.4611684   -3.4611684   -2.0041997  0.057353617   -3.4611684    1.4569686   518400 
 1045000   0.97248203   -3.4610995   -3.4610995   -2.0023793  0.055823286   -3.4610995    1.4587202   518400 
 1046000   0.97452178   -3.4652694   -3.4652694   -2.0034896   0.05237897   -3.4652694    1.4617798   518400 
 1047000   0.97466242   -3.4648707   -3.4648707   -2.0028799  0.056118152   -3.4648707    1.4619908   518400 
 1048000   0.97456182   -3.4646501   -3.4646501   -2.0028102  0.052502015   -3.4646501    1.4618399   518400 
 1049000   0.97560315   -3.4666636   -3.4666636   -2.0032618  0.057007018   -3.4666636    1.4634019   518400 
 1050000   0.97460749   -3.4651089   -3.4651089   -2.0032005  0.056225326   -3.4651089    1.4619084   518400 
 1051000   0.97469145   -3.4640474   -3.4640474   -2.0020131  0.060368936   -3.4640474    1.4620344   518400 
 1052000   0.97407139   -3.4625047   -3.4625047   -2.0014004  0.056671918   -3.4625047    1.4611043   518400 
 1053000   0.97277768   -3.4620078   -3.4620078   -2.0028441  0.057772356   -3.4620078    1.4591637   518400 
 1054000   0.97373078   -3.4623744   -3.4623744    -2.001781  0.054114861   -3.4623744    1.4605934   518400 
 1055000   0.97314908   -3.4601408   -3.4601408     -2.00042  0.055649915   -3.4601408    1.4597208   518400 
 1056000    0.9733546   -3.4588412   -3.4588412   -1.9988121  0.051087679   -3.4588412    1.4600291   518400 
 1057000   0.97238723   -3.4571797   -3.4571797   -1.9986016  0.060142425   -3.4571797     1.458578   518400 
 1058000   0.97300852   -3.4570938   -3.4570938   -1.9975838  0.061702055   -3.4570938      1.45951   518400 
 1059000    0.9739324   -3.4586792   -3.4586792   -1.9977834  0.056103561   -3.4586792    1.4608958   518400 
 1060000   0.97573077   -3.4610263   -3.4610263    -1.997433  0.052569162   -3.4610263    1.4635933   518400 
 1061000   0.97413643   -3.4591048   -3.4591048    -1.997903  0.055220292   -3.4591048    1.4612018   518400 
 1062000   0.97533037   -3.4597705   -3.4597705   -1.9967778  0.057865666   -3.4597705    1.4629927   518400 
 1063000   0.97576129   -3.4598889   -3.4598889   -1.9962498  0.047905059   -3.4598889    1.4636391   518400 
 1064000   0.97428901   -3.4576557   -3.4576557    -1.996225  0.053280415   -3.4576557    1.4614307   518400 
 1065000   0.97476907    -3.458295    -3.458295   -1.9961442  0.050040369    -3.458295    1.4621508   518400 
 1066000     0.974085   -3.4577041   -3.4577041   -1.9965794  0.059544683   -3.4577041    1.4611247   518400 
 1067000   0.97514959   -3.4589336   -3.4589336   -1.9962121  0.051998751   -3.4589336    1.4627216   518400 
 1068000   0.97539378   -3.4585243   -3.4585243   -1.9954364  0.056809657   -3.4585243    1.4630879   518400 
 1069000   0.97400424   -3.4563147   -3.4563147   -1.9953111  0.062212817   -3.4563147    1.4610035   518400 
 1070000    0.9758803    -3.459482    -3.459482   -1.9956644  0.057191777    -3.459482    1.4638176   518400 
 1071000   0.97468233   -3.4575666   -3.4575666    -1.995546  0.057708605   -3.4575666    1.4620207   518400 
 1072000   0.97528677   -3.4586413   -3.4586413    -1.995714   0.05820844   -3.4586413    1.4629273   518400 
 1073000   0.97608675   -3.4588777   -3.4588777   -1.9947504  0.057038985   -3.4588777    1.4641273   518400 
 1074000   0.97487047   -3.4564459   -3.4564459    -1.994143  0.057392346   -3.4564459    1.4623029   518400 
 1075000   0.97544658   -3.4581365   -3.4581365   -1.9949694  0.053298316   -3.4581365     1.463167   518400 
 1076000   0.97611173   -3.4574371   -3.4574371   -1.9932723  0.058378544   -3.4574371    1.4641648   518400 
 1077000   0.97381761   -3.4550812   -3.4550812   -1.9943576  0.058682629   -3.4550812    1.4607236   518400 
 1078000   0.97653594   -3.4580895   -3.4580895   -1.9932884  0.058736364   -3.4580895    1.4648011   518400 
 1079000   0.97463285   -3.4557064   -3.4557064     -1.99376  0.055998073   -3.4557064    1.4619464   518400 
 1080000   0.97563096   -3.4570728   -3.4570728   -1.9936292  0.058643964   -3.4570728    1.4634436   518400 
 1081000   0.97433354   -3.4548449   -3.4548449   -1.9933474  0.059944996   -3.4548449    1.4614975   518400 
 1082000   0.97655132   -3.4571897   -3.4571897   -1.9923655   0.05750837   -3.4571897    1.4648242   518400 
 1083000   0.97522624   -3.4561336   -3.4561336    -1.993297  0.057523752   -3.4561336    1.4628365   518400 
 1084000   0.97588312   -3.4560132   -3.4560132   -1.9921913  0.057699463   -3.4560132    1.4638219   518400 
 1085000   0.97598926   -3.4559385   -3.4559385   -1.9919574  0.059181529   -3.4559385    1.4639811   518400 
 1086000   0.97536234   -3.4556836   -3.4556836   -1.9926429  0.059114069   -3.4556836    1.4630407   518400 
 1087000   0.97617632   -3.4558822   -3.4558822   -1.9916206  0.055316287   -3.4558822    1.4642616   518400 
 1088000    0.9741261   -3.4538122   -3.4538122   -1.9926259  0.060928154   -3.4538122    1.4611863   518400 
 1089000   0.97597832   -3.4555165   -3.4555165   -1.9915519   0.05593379   -3.4555165    1.4639647   518400 
 1090000   0.97648715   -3.4562529   -3.4562529    -1.991525  0.058458549   -3.4562529    1.4647279   518400 
 1091000   0.97549118    -3.455898    -3.455898   -1.9926641  0.056789075    -3.455898    1.4632339   518400 
 1092000   0.97549109   -3.4547004   -3.4547004   -1.9914666  0.053119305   -3.4547004    1.4632338   518400 
 1093000    0.9741837   -3.4542639   -3.4542639   -1.9929912  0.052993452   -3.4542639    1.4612727   518400 
 1094000   0.97633724   -3.4559788   -3.4559788   -1.9914758  0.055653627   -3.4559788     1.464503   518400 
 1095000    0.9747218   -3.4536865   -3.4536865   -1.9916066  0.057449518   -3.4536865    1.4620799   518400 
 1096000   0.97462067   -3.4529783   -3.4529783   -1.9910501  0.061365039   -3.4529783    1.4619282   518400 
 1097000   0.97668233   -3.4557305   -3.4557305   -1.9907099  0.056143032   -3.4557305    1.4650207   518400 
 1098000   0.97546442    -3.454885    -3.454885   -1.9916911  0.055767474    -3.454885    1.4631938   518400 
 1099000   0.97422456   -3.4546047   -3.4546047   -1.9932707  0.055021451   -3.4546047     1.461334   518400 
 1100000   0.97337886   -3.4534674   -3.4534674   -1.9934019  0.051594863   -3.4534674    1.4600655   518400 
 1101000   0.97605499   -3.4567725   -3.4567725   -1.9926928  0.051359824   -3.4567725    1.4640797   518400 
 1102000    0.9745468    -3.454448    -3.454448   -1.9926307  0.057597919    -3.454448    1.4618174   518400 
 1103000    0.9761775   -3.4567082   -3.4567082   -1.9924448  0.054718353   -3.4567082    1.4642634   518400 
 1104000   0.97467222   -3.4554763   -3.4554763   -1.9934708  0.054995454   -3.4554763    1.4620055   518400 
 1105000   0.97584968   -3.4550022   -3.4550022   -1.9912306  0.060387435   -3.4550022    1.4637717   518400 
 1106000   0.97465883   -3.4533462   -3.4533462   -1.9913608  0.055037102   -3.4533462    1.4619854   518400 
 1107000   0.97618713   -3.4556321   -3.4556321   -1.9913542  0.053999846   -3.4556321    1.4642779   518400 
 1108000   0.97591822   -3.4558383   -3.4558383   -1.9919638  0.056709243   -3.4558383    1.4638745   518400 
 1109000   0.97570092   -3.4555104   -3.4555104   -1.9919619  0.055221935   -3.4555104    1.4635486   518400 
 1110000    0.9758948   -3.4553643   -3.4553643    -1.991525    0.0592154   -3.4553643    1.4638394   518400 
 1111000   0.97590462   -3.4549737   -3.4549737   -1.9911196  0.056593696   -3.4549737    1.4638541   518400 
 1112000   0.97497744   -3.4526055   -3.4526055   -1.9901422  0.059256705   -3.4526055    1.4624633   518400 
 1113000   0.97511248   -3.4528482   -3.4528482   -1.9901823  0.053347806   -3.4528482    1.4626659   518400 
 1114000    0.9763394    -3.453447    -3.453447   -1.9889408  0.050472056    -3.453447    1.4645063   518400 
 1115000   0.97660089    -3.454515    -3.454515   -1.9896164  0.051752783    -3.454515    1.4648985   518400 
 1116000   0.97433976   -3.4516731   -3.4516731   -1.9901663  0.057792772   -3.4516731    1.4615068   518400 
 1117000   0.97510448   -3.4520528   -3.4520528   -1.9893989  0.059270081   -3.4520528    1.4626539   518400 
 1118000   0.97685195   -3.4546433   -3.4546433   -1.9893682  0.051010808   -3.4546433    1.4652751   518400 
 1119000   0.97608564   -3.4539451   -3.4539451   -1.9898194  0.060428076   -3.4539451    1.4641256   518400 
 1120000   0.97654057   -3.4547881   -3.4547881   -1.9899801  0.060603728   -3.4547881     1.464808   518400 
 1121000   0.97657033   -3.4542099   -3.4542099   -1.9893573  0.057043218   -3.4542099    1.4648527   518400 
 1122000   0.97685578   -3.4548693   -3.4548693   -1.9895884  0.057169433   -3.4548693    1.4652808   518400 
 1123000   0.97574631   -3.4535336   -3.4535336   -1.9899169  0.057317655   -3.4535336    1.4636166   518400 
 1124000   0.97607011    -3.453957    -3.453957   -1.9898546  0.057620103    -3.453957    1.4641023   518400 
 1125000   0.97697582   -3.4544778   -3.4544778   -1.9890169  0.059639361   -3.4544778    1.4654609   518400 
 1126000   0.97583082   -3.4532711   -3.4532711   -1.9895277  0.052096612   -3.4532711    1.4637434   518400 
 1127000   0.97399813   -3.4511783   -3.4511783   -1.9901839   0.05403457   -3.4511783    1.4609944   518400 
 1128000   0.97404185   -3.4512706   -3.4512706   -1.9902106  0.059342389   -3.4512706      1.46106   518400 
 1129000   0.97521689   -3.4524568   -3.4524568   -1.9896342   0.05475106   -3.4524568    1.4628225   518400 
 1130000   0.97719032   -3.4558139   -3.4558139   -1.9900312    0.0557773   -3.4558139    1.4657826   518400 
 1131000   0.97529232    -3.453268    -3.453268   -1.9903323  0.058672029    -3.453268    1.4629357   518400 
 1132000   0.97463415   -3.4521541   -3.4521541   -1.9902057  0.061806062   -3.4521541    1.4619484   518400 
 1133000   0.97658758   -3.4546318   -3.4546318   -1.9897532  0.059116826   -3.4546318    1.4648785   518400 
 1134000   0.97771988   -3.4566131   -3.4566131   -1.9900361  0.055637594   -3.4566131     1.466577   518400 
 1135000   0.97609754   -3.4523535   -3.4523535     -1.98821  0.058331327   -3.4523535    1.4641435   518400 
 1136000   0.97628356   -3.4530789   -3.4530789   -1.9886564  0.057951825   -3.4530789    1.4644225   518400 
 1137000   0.97622838   -3.4533231   -3.4533231   -1.9889833  0.058328238   -3.4533231    1.4643397   518400 
 1138000    0.9758224   -3.4532445   -3.4532445   -1.9895137  0.056595938   -3.4532445    1.4637308   518400 
 1139000   0.97406154   -3.4505276   -3.4505276   -1.9894381  0.051884774   -3.4505276    1.4610895   518400 
 1140000   0.97390262   -3.4509011   -3.4509011   -1.9900499  0.055806388   -3.4509011    1.4608511   518400 
 1141000   0.97511754   -3.4526293   -3.4526293   -1.9899558  0.056961905   -3.4526293    1.4626735   518400 
 1142000   0.97672741   -3.4555279   -3.4555279   -1.9904396  0.052781201   -3.4555279    1.4650883   518400 
 1143000   0.97581692   -3.4530091   -3.4530091   -1.9892866    0.0610183   -3.4530091    1.4637226   518400 
 1144000   0.97734638   -3.4553979   -3.4553979   -1.9893812  0.062677314   -3.4553979    1.4660167   518400 
 1145000   0.97732327   -3.4553623   -3.4553623   -1.9893802  0.062029145   -3.4553623    1.4659821   518400 
 1146000   0.97664763   -3.4538147   -3.4538147   -1.9888461  0.058876913   -3.4538147    1.4649686   518400 
 1147000   0.97588537   -3.4527782   -3.4527782    -1.988953  0.065096997   -3.4527782    1.4638252   518400 
 1148000    0.9742698   -3.4516874   -3.4516874   -1.9902856  0.057121842   -3.4516874    1.4614019   518400 
 1149000   0.97559499   -3.4537498   -3.4537498   -1.9903601  0.054757394   -3.4537498    1.4633897   518400 
 1150000   0.97607014   -3.4532113   -3.4532113   -1.9891089  0.054280367   -3.4532113    1.4641024   518400 
 1151000   0.97601541   -3.4527748   -3.4527748   -1.9887545  0.056469707   -3.4527748    1.4640203   518400 
 1152000   0.97721142   -3.4549143   -3.4549143      -1.9891   0.06033887   -3.4549143    1.4658143   518400 
 1153000   0.97788946   -3.4559312   -3.4559312   -1.9890999  0.057304177   -3.4559312    1.4668314   518400 
 1154000   0.97623279   -3.4521279   -3.4521279   -1.9877816  0.062263246   -3.4521279    1.4643464   518400 
 1155000   0.97509807   -3.4519835   -3.4519835   -1.9893392  0.061098471   -3.4519835    1.4626443   518400 
 1156000   0.97671392   -3.4551429   -3.4551429   -1.9900749  0.053349293   -3.4551429     1.465068   518400 
 1157000   0.97472262   -3.4520288   -3.4520288   -1.9899477  0.058700161   -3.4520288    1.4620811   518400 
 1158000   0.97588375   -3.4536205   -3.4536205   -1.9897977  0.054015934   -3.4536205    1.4638228   518400 
 1159000   0.97630957   -3.4535411   -3.4535411   -1.9890795  0.056483277   -3.4535411    1.4644615   518400 
 1160000   0.97667556   -3.4537733   -3.4537733   -1.9887628  0.057317337   -3.4537733    1.4650105   518400 
 1161000   0.97594664   -3.4524844   -3.4524844   -1.9885672  0.058159798   -3.4524844    1.4639171   518400 
 1162000   0.97615317   -3.4521562   -3.4521562   -1.9879293  0.054591736   -3.4521562    1.4642269   518400 
 1163000   0.97548116   -3.4509513   -3.4509513   -1.9877323  0.052595651   -3.4509513    1.4632189   518400 
 1164000   0.97542195   -3.4503811   -3.4503811    -1.987251  0.053695149   -3.4503811    1.4631301   518400 
 1165000   0.97519463   -3.4500575   -3.4500575   -1.9872684  0.058209883   -3.4500575    1.4627891   518400 
 1166000   0.97672177   -3.4519829   -3.4519829    -1.986903  0.055328842   -3.4519829    1.4650798   518400 
 1167000   0.97608205   -3.4511561   -3.4511561   -1.9870358  0.060565524   -3.4511561    1.4641203   518400 
 1168000   0.97565768    -3.449964    -3.449964   -1.9864803  0.063572451    -3.449964    1.4634837   518400 
 1169000    0.9747227   -3.4501007   -3.4501007   -1.9880194  0.059714067   -3.4501007    1.4620812   518400 
 1170000   0.97590193    -3.450591    -3.450591   -1.9867409  0.053906769    -3.450591    1.4638501   518400 
 1171000   0.97466805   -3.4476325   -3.4476325   -1.9856333  0.060275099   -3.4476325    1.4619992   518400 
 1172000   0.97598593   -3.4492443   -3.4492443   -1.9852682  0.056961746   -3.4492443    1.4639761   518400 
 1173000   0.97599566   -3.4498742   -3.4498742   -1.9858835  0.052558348   -3.4498742    1.4639907   518400 
 1174000   0.97744616   -3.4515636   -3.4515636   -1.9853972  0.051611836   -3.4515636    1.4661664   518400 
 1175000   0.97507745   -3.4486947   -3.4486947   -1.9860813  0.057411526   -3.4486947    1.4626134   518400 
 1176000   0.97712347   -3.4508315   -3.4508315   -1.9851491  0.057536622   -3.4508315    1.4656824   518400 
 1177000   0.97769445   -3.4512179   -3.4512179   -1.9846791  0.053424307   -3.4512179    1.4665389   518400 
 1178000   0.97851527   -3.4522492   -3.4522492   -1.9844791  0.062029975   -3.4522492    1.4677701   518400 
 1179000   0.97710874   -3.4507144   -3.4507144   -1.9850541  0.054027707   -3.4507144    1.4656603   518400 
 1180000   0.97700153   -3.4508033   -3.4508033   -1.9853038  0.061283593   -3.4508033    1.4654995   518400 
 1181000   0.97713407    -3.449711    -3.449711   -1.9840127  0.049336178    -3.449711    1.4656983   518400 
 1182000   0.97627117    -3.447727    -3.447727    -1.983323  0.054954607    -3.447727    1.4644039   518400 
 1183000   0.97779088   -3.4483359   -3.4483359   -1.9816524  0.063155172   -3.4483359    1.4666835   518400 
 1184000   0.97805894   -3.4487429   -3.4487429   -1.9816573  0.061404336   -3.4487429    1.4670856   518400 
 1185000   0.97650802   -3.4465618   -3.4465618   -1.9818026  0.056696458   -3.4465618    1.4647592   518400 
 1186000   0.97827789   -3.4484484   -3.4484484   -1.9810344  0.054130458   -3.4484484     1.467414   518400 
 1187000    0.9771671   -3.4480415   -3.4480415   -1.9822937  0.061273822   -3.4480415    1.4657478   518400 
 1188000   0.97740656   -3.4483976   -3.4483976   -1.9822906  0.055722228   -3.4483976     1.466107   518400 
 1189000   0.97574344   -3.4463987   -3.4463987   -1.9827863  0.058578474   -3.4463987    1.4636123   518400 
 1190000   0.97681646   -3.4480473   -3.4480473   -1.9828254  0.055176554   -3.4480473    1.4652219   518400 
 1191000   0.97603816   -3.4474665   -3.4474665   -1.9834121  0.051900129   -3.4474665    1.4640544   518400 
 1192000   0.97774109   -3.4484255   -3.4484255   -1.9818167  0.059867221   -3.4484255    1.4666088   518400 
 1193000   0.97788254   -3.4502225   -3.4502225   -1.9834016  0.059391659   -3.4502225     1.466821   518400 
 1194000   0.97549094   -3.4471908   -3.4471908   -1.9839572  0.059314704   -3.4471908    1.4632336   518400 
 1195000   0.97704789    -3.448384    -3.448384   -1.9828149   0.05719388    -3.448384     1.465569   518400 
 1196000   0.97614369   -3.4471457   -3.4471457    -1.982933  0.061375023   -3.4471457    1.4642127   518400 
 1197000    0.9771352   -3.4484152   -3.4484152   -1.9827152  0.055588673   -3.4484152       1.4657   518400 
 1198000   0.97753955   -3.4481174   -3.4481174   -1.9818109  0.049818891   -3.4481174    1.4663065   518400 
 1199000    0.9770001    -3.446934    -3.446934   -1.9814366  0.060583777    -3.446934    1.4654973   518400 
 1200000     0.976247   -3.4462166   -3.4462166   -1.9818489  0.053191099   -3.4462166    1.4643677   518400 
 1201000   0.97498046   -3.4458383   -3.4458383   -1.9833704  0.056510115   -3.4458383    1.4624679   518400 
 1202000   0.97602787   -3.4461376   -3.4461376   -1.9820986  0.050507244   -3.4461376     1.464039   518400 
 1203000   0.97771578   -3.4470974   -3.4470974   -1.9805266  0.058701986   -3.4470974    1.4665708   518400 
 1204000   0.97906166   -3.4481083   -3.4481083   -1.9795186  0.059625496   -3.4481083    1.4685896   518400 
 1205000   0.97847948   -3.4487654   -3.4487654    -1.981049  0.057898121   -3.4487654    1.4677164   518400 
 1206000   0.97746659   -3.4465165   -3.4465165   -1.9803195   0.05879875   -3.4465165    1.4661971   518400 
 1207000   0.97754626   -3.4468056   -3.4468056    -1.980489   0.05583141   -3.4468056    1.4663166   518400 
 1208000   0.97713441   -3.4455928   -3.4455928    -1.979894  0.059166806   -3.4455928    1.4656988   518400 
 1209000   0.97683882   -3.4444841   -3.4444841   -1.9792287  0.054110251   -3.4444841    1.4652554   518400 
 1210000   0.97656747    -3.443782    -3.443782   -1.9789336  0.055124259    -3.443782    1.4648484   518400 
 1211000   0.97629563   -3.4436677   -3.4436677   -1.9792271  0.059635379   -3.4436677    1.4644406   518400 
 1212000    0.9774253   -3.4459468   -3.4459468   -1.9798116  0.053833397   -3.4459468    1.4661351   518400 
 1213000   0.97548081   -3.4433648   -3.4433648   -1.9801464  0.049326632   -3.4433648    1.4632184   518400 
 1214000   0.97665245    -3.444963    -3.444963   -1.9799871  0.058101228    -3.444963    1.4649758   518400 
 1215000   0.97458199   -3.4417439   -3.4417439   -1.9798737  0.055900349   -3.4417439    1.4618702   518400 
 1216000   0.97789159   -3.4455766   -3.4455766   -1.9787421  0.056744792   -3.4455766    1.4668345   518400 
 1217000   0.97718316   -3.4443806   -3.4443806   -1.9786087  0.063638387   -3.4443806    1.4657719   518400 
 1218000   0.97931121    -3.446951    -3.446951    -1.977987  0.062804159    -3.446951     1.468964   518400 
 1219000   0.98029352   -3.4490526   -3.4490526   -1.9786151  0.057616408   -3.4490526    1.4704374   518400 
 1220000   0.97894665   -3.4460575   -3.4460575   -1.9776403  0.067682858   -3.4460575    1.4684171   518400 
 1221000   0.97795562   -3.4446272   -3.4446272   -1.9776966  0.061684738   -3.4446272    1.4669306   518400 
 1222000   0.97634744   -3.4417532   -3.4417532   -1.9772349  0.059907138   -3.4417532    1.4645183   518400 
 1223000   0.97842657   -3.4448054   -3.4448054   -1.9771684  0.056254929   -3.4448054     1.467637   518400 
 1224000   0.97748903   -3.4439606   -3.4439606   -1.9777299  0.062798064   -3.4439606    1.4662307   518400 
 1225000   0.97684281   -3.4425692   -3.4425692   -1.9773078  0.058973461   -3.4425692    1.4652614   518400 
 1226000    0.9761799   -3.4422611   -3.4422611   -1.9779941  0.054148133   -3.4422611     1.464267   518400 
 1227000   0.97633606   -3.4420375   -3.4420375   -1.9775362  0.056396437   -3.4420375    1.4645013   518400 
 1228000   0.97554824    -3.441928    -3.441928   -1.9786085  0.058343981    -3.441928    1.4633195   518400 
 1229000   0.97658209   -3.4434259   -3.4434259   -1.9785556  0.058192018   -3.4434259    1.4648703   518400 
 1230000   0.97833349   -3.4453253   -3.4453253   -1.9778279  0.054968611   -3.4453253    1.4674974   518400 
 1231000   0.97744563   -3.4442611   -3.4442611   -1.9780955  0.060552012   -3.4442611    1.4661656   518400 
 1232000   0.97661457   -3.4445652   -3.4445652   -1.9796462  0.060723618   -3.4445652     1.464919   518400 
 1233000   0.97653706    -3.444502    -3.444502   -1.9796992  0.054968185    -3.444502    1.4648028   518400 
 1234000   0.97786002   -3.4453319   -3.4453319   -1.9785447  0.057823442   -3.4453319    1.4667872   518400 
 1235000   0.97883769   -3.4467004   -3.4467004   -1.9784467  0.061335048   -3.4467004    1.4682537   518400 
 1236000   0.97862568   -3.4460445   -3.4460445   -1.9781088  0.061872004   -3.4460445    1.4679357   518400 
 1237000   0.97758119   -3.4438096   -3.4438096   -1.9774407  0.058020382   -3.4438096     1.466369   518400 
 1238000   0.97900853   -3.4463917   -3.4463917   -1.9778818  0.062367194   -3.4463917      1.46851   518400 
 1239000   0.98001644   -3.4478832   -3.4478832   -1.9778614  0.055624909   -3.4478832    1.4700218   518400 
 1240000   0.97840594   -3.4444827   -3.4444827   -1.9768767  0.061804012   -3.4444827    1.4676061   518400 
 1241000   0.97805477   -3.4441326   -3.4441326   -1.9770532  0.062810228   -3.4441326    1.4670793   518400 
 1242000   0.97821995   -3.4440578   -3.4440578   -1.9767307  0.053648265   -3.4440578    1.4673271   518400 
 1243000   0.97710016    -3.441096    -3.441096   -1.9754486  0.062499215    -3.441096    1.4656474   518400 
 1244000   0.97682654   -3.4399721   -3.4399721   -1.9747351  0.061490959   -3.4399721     1.465237   518400 
 1245000   0.97792498    -3.441735    -3.441735   -1.9748504  0.058600136    -3.441735    1.4668846   518400 
 1246000   0.97817569   -3.4425238   -3.4425238   -1.9752631  0.060467531   -3.4425238    1.4672607   518400 
 1247000   0.97685331   -3.4413523   -3.4413523   -1.9760752  0.052731341   -3.4413523    1.4652771   518400 
 1248000   0.97865886   -3.4433253   -3.4433253   -1.9753398   0.05164308   -3.4433253    1.4679855   518400 
 1249000   0.97820076    -3.442318    -3.442318   -1.9750197  0.059174502    -3.442318    1.4672983   518400 
 1250000   0.97941853   -3.4439746   -3.4439746   -1.9748497  0.059715444   -3.4439746     1.469125   518400 
 1251000   0.97808011   -3.4428493   -3.4428493    -1.975732  0.061614233   -3.4428493    1.4671173   518400 
 1252000   0.97910404   -3.4440006   -3.4440006   -1.9753473  0.059667657   -3.4440006    1.4686532   518400 
 1253000   0.97876765   -3.4441953   -3.4441953   -1.9760467  0.056365867   -3.4441953    1.4681486   518400 
 1254000   0.97866744   -3.4438371   -3.4438371   -1.9758388  0.056051935   -3.4438371    1.4679983   518400 
 1255000   0.97932459   -3.4437046   -3.4437046   -1.9747206  0.058765909   -3.4437046     1.468984   518400 
 1256000   0.97789992   -3.4416441   -3.4416441    -1.974797  0.063521282   -3.4416441    1.4668471   518400 
 1257000   0.97794599   -3.4423321   -3.4423321    -1.975416   0.06120188   -3.4423321    1.4669162   518400 
 1258000   0.97779592   -3.4417412   -3.4417412   -1.9750502  0.057295314   -3.4417412     1.466691   518400 
 1259000   0.97644189   -3.4398479   -3.4398479   -1.9751879  0.060147761   -3.4398479      1.46466   518400 
 1260000   0.97552623   -3.4391939   -3.4391939   -1.9759074  0.058478827   -3.4391939    1.4632865   518400 
 1261000    0.9782674   -3.4423282   -3.4423282     -1.97493  0.055140331   -3.4423282    1.4673983   518400 
 1262000   0.97680218   -3.4412162   -3.4412162   -1.9760158   0.05659676   -3.4412162    1.4652004   518400 
 1263000   0.97775383   -3.4425282   -3.4425282   -1.9759003  0.059278649   -3.4425282    1.4666279   518400 
 1264000   0.97809303   -3.4422844   -3.4422844   -1.9751477  0.064073657   -3.4422844    1.4671367   518400 
 1265000   0.97849693   -3.4427353   -3.4427353   -1.9749927  0.063053871   -3.4427353    1.4677426   518400 
 1266000    0.9789066   -3.4435309   -3.4435309   -1.9751738  0.058458996   -3.4435309    1.4683571   518400 
 1267000   0.97827364   -3.4439297   -3.4439297    -1.976522  0.060090947   -3.4439297    1.4674076   518400 
 1268000   0.97731767   -3.4422945   -3.4422945   -1.9763208  0.057194966   -3.4422945    1.4659737   518400 
 1269000   0.97765857   -3.4421545   -3.4421545   -1.9756695  0.055436597   -3.4421545     1.466485   518400 
 1270000   0.97823451    -3.442317    -3.442317    -1.974968  0.054246177    -3.442317    1.4673489   518400 
 1271000   0.97681006   -3.4390772   -3.4390772   -1.9738649   0.05712566   -3.4390772    1.4652123   518400 
 1272000   0.97789987   -3.4411515   -3.4411515   -1.9743045  0.059468718   -3.4411515     1.466847   518400 
 1273000   0.97822905   -3.4399842   -3.4399842   -1.9726435  0.054553153   -3.4399842    1.4673407   518400 
 1274000   0.97804965   -3.4395838   -3.4395838   -1.9725122  0.056290103   -3.4395838    1.4670716   518400 
 1275000   0.97852604   -3.4395888   -3.4395888   -1.9718025  0.059600461   -3.4395888    1.4677862   518400 
 1276000   0.97947582   -3.4410214   -3.4410214   -1.9718106  0.054967229   -3.4410214    1.4692109   518400 
 1277000   0.97711472   -3.4376546   -3.4376546   -1.9719854  0.055303814   -3.4376546    1.4656693   518400 
 1278000   0.97895586    -3.440583    -3.440583    -1.972152  0.059403638    -3.440583     1.468431   518400 
 1279000   0.97829244    -3.439656    -3.439656   -1.9722202  0.057595859    -3.439656    1.4674358   518400 
 1280000   0.97872499   -3.4396842   -3.4396842   -1.9715996  0.059140188   -3.4396842    1.4680846   518400 
 1281000   0.97762564   -3.4374456   -3.4374456     -1.97101   0.05502172   -3.4374456    1.4664356   518400 
 1282000   0.97869171   -3.4404588   -3.4404588   -1.9724241  0.052027088   -3.4404588    1.4680347   518400 
 1283000   0.97781824   -3.4383361   -3.4383361   -1.9716115  0.059269674   -3.4383361    1.4667245   518400 
 1284000   0.97880176   -3.4402205   -3.4402205   -1.9720207  0.058810848   -3.4402205    1.4681998   518400 
 1285000   0.97772235   -3.4386347   -3.4386347    -1.972054  0.064243194   -3.4386347    1.4665807   518400 
 1286000   0.97928884   -3.4401779   -3.4401779   -1.9712474  0.056442473   -3.4401779    1.4689304   518400 
 1287000   0.97730401      -3.4364      -3.4364   -1.9704468   0.05491526      -3.4364    1.4659532   518400 
 1288000   0.97888841   -3.4386024   -3.4386024   -1.9702726    0.0512687   -3.4386024    1.4683298   518400 
 1289000   0.97952574   -3.4401929   -3.4401929   -1.9709071  0.053967093   -3.4401929    1.4692858   518400 
 1290000   0.97922502   -3.4383073   -3.4383073   -1.9694725  0.056400221   -3.4383073    1.4688347   518400 
 1291000   0.97847016   -3.4379717   -3.4379717   -1.9702693  0.055548404   -3.4379717    1.4677024   518400 
 1292000   0.97922137   -3.4391794   -3.4391794   -1.9703502  0.060871669   -3.4391794    1.4688292   518400 
 1293000   0.97777708   -3.4377614   -3.4377614   -1.9710987  0.063432703   -3.4377614    1.4666628   518400 
 1294000   0.97986743   -3.4404018   -3.4404018   -1.9706035  0.057411264   -3.4404018    1.4697983   518400 
 1295000   0.97990681   -3.4398431   -3.4398431   -1.9699858  0.054635773   -3.4398431    1.4698574   518400 
 1296000   0.97816568   -3.4388352   -3.4388352   -1.9715895  0.062031704   -3.4388352    1.4672457   518400 
 1297000   0.97752415   -3.4376364   -3.4376364    -1.971353  0.052824569   -3.4376364    1.4662834   518400 
 1298000   0.97886547    -3.438397    -3.438397   -1.9701016  0.061138449    -3.438397    1.4682954   518400 
 1299000   0.97839503   -3.4370571   -3.4370571   -1.9694673  0.056991726   -3.4370571    1.4675897   518400 
 1300000   0.97768037   -3.4376454   -3.4376454   -1.9711277  0.055371565   -3.4376454    1.4665177   518400 
 1301000   0.97748933   -3.4364204   -3.4364204   -1.9701892  0.054282297   -3.4364204    1.4662312   518400 
 1302000   0.97763496   -3.4362122   -3.4362122   -1.9697626  0.052498064   -3.4362122    1.4664496   518400 
 1303000   0.97833723   -3.4371042   -3.4371042   -1.9696012  0.048879849   -3.4371042     1.467503   518400 
 1304000   0.97994342   -3.4385552   -3.4385552   -1.9686429   0.05460576   -3.4385552    1.4699123   518400 
 1305000   0.97900102   -3.4363847   -3.4363847    -1.967886  0.057992045   -3.4363847    1.4684987   518400 
 1306000   0.97926563   -3.4375207   -3.4375207   -1.9686251  0.059022758   -3.4375207    1.4688956   518400 
 1307000    0.9793776   -3.4373511   -3.4373511   -1.9682875  0.059827037   -3.4373511    1.4690636   518400 
 1308000    0.9781053   -3.4362137   -3.4362137   -1.9690586  0.054395408   -3.4362137    1.4671551   518400 
 1309000    0.9787868   -3.4363461   -3.4363461   -1.9681688  0.059614759   -3.4363461    1.4681774   518400 
 1310000   0.97928104   -3.4357219   -3.4357219   -1.9668032   0.05565014   -3.4357219    1.4689187   518400 
 1311000   0.97807602   -3.4336956   -3.4336956   -1.9665844  0.061429265   -3.4336956    1.4671112   518400 
 1312000   0.97714385   -3.4318095   -3.4318095   -1.9660966  0.060767072   -3.4318095     1.465713   518400 
 1313000   0.97879085   -3.4351531   -3.4351531   -1.9669696  0.053209441   -3.4351531    1.4681834   518400 
 1314000   0.97981301   -3.4370786   -3.4370786   -1.9673619  0.056376325   -3.4370786    1.4697167   518400 
 1315000   0.97824665   -3.4348029   -3.4348029   -1.9674357  0.060143164   -3.4348029    1.4673672   518400 
 1316000   0.97774477    -3.433654    -3.433654   -1.9670397  0.056725434    -3.433654    1.4666143   518400 
 1317000   0.97801507   -3.4352641   -3.4352641   -1.9682443   0.05853669   -3.4352641    1.4670198   518400 
 1318000   0.97919499   -3.4358465   -3.4358465   -1.9670568  0.058451678   -3.4358465    1.4687897   518400 
 1319000   0.97846765   -3.4349458   -3.4349458   -1.9672472  0.059975201   -3.4349458    1.4676986   518400 
 1320000   0.97874624   -3.4349889   -3.4349889   -1.9668724  0.055649817   -3.4349889    1.4681165   518400 
 1321000   0.97959192   -3.4353947   -3.4353947   -1.9660097   0.05391961   -3.4353947     1.469385   518400 
 1322000   0.97979137   -3.4356338   -3.4356338   -1.9659496  0.055198802   -3.4356338    1.4696842   518400 
 1323000   0.98076717   -3.4376313   -3.4376313   -1.9664834  0.059830803   -3.4376313    1.4711479   518400 
 1324000   0.97862777   -3.4344076   -3.4344076   -1.9664688  0.054907452   -3.4344076    1.4679388   518400 
 1325000    0.9793626   -3.4356245   -3.4356245   -1.9665835  0.055391995   -3.4356245    1.4690411   518400 
 1326000   0.97908142   -3.4346946   -3.4346946   -1.9660753  0.061382887   -3.4346946    1.4686193   518400 
 1327000   0.97983795   -3.4356125   -3.4356125   -1.9658584  0.057467864   -3.4356125    1.4697541   518400 
 1328000   0.97985014   -3.4352312   -3.4352312   -1.9654588   0.05851073   -3.4352312    1.4697724   518400 
 1329000   0.98071907   -3.4362252   -3.4362252   -1.9651494  0.059688127   -3.4362252    1.4710758   518400 
 1330000   0.97970372   -3.4340518   -3.4340518    -1.964499  0.056911997   -3.4340518    1.4695528   518400 
 1331000   0.97876324   -3.4334397   -3.4334397   -1.9652977  0.057724273   -3.4334397     1.468142   518400 
 1332000   0.97801709   -3.4323688   -3.4323688    -1.965346  0.056917997   -3.4323688    1.4670228   518400 
 1333000   0.97749941   -3.4322912   -3.4322912   -1.9660449  0.064287428   -3.4322912    1.4662463   518400 
 1334000   0.97998092   -3.4344153   -3.4344153   -1.9644468  0.053765247   -3.4344153    1.4699685   518400 
 1335000   0.97876627   -3.4334312   -3.4334312   -1.9652847  0.060362502   -3.4334312    1.4681466   518400 
 1336000    0.9792558   -3.4337574   -3.4337574   -1.9648765  0.059351576   -3.4337574    1.4688809   518400 
 1337000   0.98039695   -3.4344488   -3.4344488   -1.9638563  0.059074649   -3.4344488    1.4705926   518400 
 1338000   0.98100391   -3.4357493   -3.4357493   -1.9642463  0.058029682   -3.4357493     1.471503   518400 
 1339000   0.98174026   -3.4367767   -3.4367767   -1.9641691  0.062870607   -3.4367767    1.4726075   518400 
 1340000   0.98031096   -3.4355234   -3.4355234   -1.9650598  0.062676804   -3.4355234    1.4704636   518400 
 1341000   0.98272456   -3.4382528   -3.4382528   -1.9641688  0.066946832   -3.4382528     1.474084   518400 
 1342000   0.98071276   -3.4355664   -3.4355664   -1.9645001  0.056655103   -3.4355664    1.4710663   518400 
 1343000   0.98044236   -3.4340878   -3.4340878   -1.9634271  0.056707018   -3.4340878    1.4706607   518400 
 1344000    0.9803381   -3.4331966   -3.4331966   -1.9626923  0.063235595   -3.4331966    1.4705043   518400 
 1345000   0.98019071   -3.4318936   -3.4318936   -1.9616104  0.058868221   -3.4318936    1.4702832   518400 
 1346000   0.97838862   -3.4295917   -3.4295917   -1.9620116  0.055986766   -3.4295917    1.4675801   518400 
 1347000   0.97691443   -3.4275885   -3.4275885   -1.9622196  0.056714659   -3.4275885    1.4653688   518400 
 1348000   0.97842396   -3.4308211   -3.4308211   -1.9631879  0.053176237   -3.4308211    1.4676331   518400 
 1349000   0.97707608   -3.4299778   -3.4299778   -1.9643665  0.052314283   -3.4299778    1.4656113   518400 
 1350000   0.97753832   -3.4291417   -3.4291417   -1.9628371  0.056377404   -3.4291417    1.4663046   518400 
 1351000    0.9785454   -3.4322823   -3.4322823   -1.9644671  0.057755344   -3.4322823    1.4678153   518400 
 1352000   0.98030479   -3.4341755   -3.4341755   -1.9637211  0.060323003   -3.4341755    1.4704544   518400 
 1353000   0.98079467   -3.4341764   -3.4341764   -1.9629872  0.059306347   -3.4341764    1.4711892   518400 
 1354000   0.98044331   -3.4338533   -3.4338533   -1.9631912  0.057616128   -3.4338533    1.4706621   518400 
 1355000   0.98196958   -3.4364137   -3.4364137   -1.9634622  0.055378378   -3.4364137    1.4729515   518400 
 1356000   0.98100636   -3.4341551   -3.4341551   -1.9626483  0.059198782   -3.4341551    1.4715067   518400 
 1357000   0.98076079   -3.4339865   -3.4339865   -1.9628481  0.064192425   -3.4339865    1.4711383   518400 
 1358000   0.97999462   -3.4322527   -3.4322527   -1.9622636  0.055918128   -3.4322527    1.4699891   518400 
 1359000   0.98000165   -3.4330351   -3.4330351   -1.9630354  0.057030342   -3.4330351    1.4699996   518400 
 1360000    0.9809158   -3.4330071   -3.4330071   -1.9616362  0.056101718   -3.4330071    1.4713709   518400 
 1361000   0.97883559    -3.430845    -3.430845   -1.9625945  0.056600228    -3.430845    1.4682506   518400 
 1362000   0.98029723   -3.4322865   -3.4322865   -1.9618434  0.057236472   -3.4322865     1.470443   518400 
 1363000   0.98043992   -3.4326417   -3.4326417   -1.9619847  0.054204859   -3.4326417     1.470657   518400 
 1364000   0.98050867   -3.4326667   -3.4326667   -1.9619066  0.054710373   -3.4326667    1.4707602   518400 
 1365000   0.97928666   -3.4304077   -3.4304077   -1.9614805  0.062306743   -3.4304077    1.4689272   518400 
 1366000   0.98045446   -3.4317111   -3.4317111   -1.9610322  0.058451089   -3.4317111    1.4706788   518400 
 1367000   0.97941819   -3.4296745   -3.4296745   -1.9605501  0.055113443   -3.4296745    1.4691244   518400 
 1368000   0.97866298   -3.4273869   -3.4273869   -1.9593952  0.059532381   -3.4273869    1.4679916   518400 
 1369000   0.98020878   -3.4284875   -3.4284875   -1.9581772  0.057100072   -3.4284875    1.4703103   518400 
 1370000   0.98005643   -3.4268038   -3.4268038    -1.956722  0.065798996   -3.4268038    1.4700818   518400 
 1371000   0.98077903    -3.427438    -3.427438   -1.9562723  0.068185819    -3.427438    1.4711657   518400 
 1372000   0.98280682   -3.4308909   -3.4308909   -1.9566835  0.058558681   -3.4308909    1.4742074   518400 
 1373000   0.98226382   -3.4311261   -3.4311261   -1.9577332  0.060927441   -3.4311261    1.4733929   518400 
 1374000   0.98196234    -3.431154    -3.431154   -1.9582133  0.062528756    -3.431154    1.4729407   518400 
 1375000   0.97993006   -3.4290605   -3.4290605   -1.9591682   0.06127356   -3.4290605    1.4698923   518400 
 1376000   0.98113906   -3.4301299   -3.4301299   -1.9584241   0.05889526   -3.4301299    1.4717057   518400 
 1377000   0.98069143   -3.4303257   -3.4303257   -1.9592914  0.056845407   -3.4303257    1.4710343   518400 
 1378000   0.98123401   -3.4310887   -3.4310887   -1.9592405  0.056720293   -3.4310887    1.4718482   518400 
 1379000   0.97959265   -3.4286265   -3.4286265   -1.9592404  0.054518211   -3.4286265    1.4693861   518400 
 1380000   0.98021555   -3.4282063   -3.4282063   -1.9578858  0.057686766   -3.4282063    1.4703205   518400 
 1381000   0.97845248   -3.4271248   -3.4271248   -1.9594489  0.058200716   -3.4271248    1.4676759   518400 
 1382000    0.9787882   -3.4282125   -3.4282125   -1.9600331  0.057069502   -3.4282125    1.4681795   518400 
 1383000    0.9787515   -3.4283232   -3.4283232   -1.9601988  0.058411903   -3.4283232    1.4681244   518400 
 1384000   0.97912039   -3.4278999   -3.4278999   -1.9592222  0.061872027   -3.4278999    1.4686778   518400 
 1385000   0.98145414   -3.4309036   -3.4309036   -1.9587253   0.05963873   -3.4309036    1.4721784   518400 
 1386000   0.97946988   -3.4300933   -3.4300933   -1.9608914  0.055997451   -3.4300933     1.469202   518400 
 1387000   0.97957501   -3.4292234   -3.4292234   -1.9598637  0.061704317   -3.4292234    1.4693597   518400 
 1388000   0.98155992   -3.4315091   -3.4315091    -1.959172  0.055776494   -3.4315091     1.472337   518400 
 1389000   0.97988183    -3.429131    -3.429131   -1.9593111  0.059629285    -3.429131    1.4698199   518400 
 1390000   0.98094755   -3.4295941   -3.4295941   -1.9581757  0.060243692   -3.4295941    1.4714185   518400 
 1391000   0.98148992   -3.4301562   -3.4301562   -1.9579242  0.063477885   -3.4301562     1.472232   518400 
 1392000   0.98079643   -3.4297764   -3.4297764   -1.9585846  0.056524546   -3.4297764    1.4711918   518400 
 1393000   0.98022672   -3.4288181   -3.4288181   -1.9584808  0.059096502   -3.4288181    1.4703372   518400 
 1394000   0.98047558   -3.4290167   -3.4290167   -1.9583062  0.055233703   -3.4290167    1.4707105   518400 
 1395000    0.9809133   -3.4295862   -3.4295862   -1.9582191  0.060417997   -3.4295862    1.4713671   518400 
 1396000   0.97739714   -3.4252146   -3.4252146   -1.9591217  0.060272509   -3.4252146    1.4660929   518400 
 1397000    0.9792768   -3.4272322   -3.4272322   -1.9583198  0.057383026   -3.4272322    1.4689124   518400 
 1398000   0.97975573   -3.4275611   -3.4275611   -1.9579303  0.059264456   -3.4275611    1.4696308   518400 
 1399000   0.97832604   -3.4263239   -3.4263239   -1.9588377  0.055445194   -3.4263239    1.4674862   518400 
 1400000   0.98036741   -3.4303956   -3.4303956   -1.9598473  0.053515576   -3.4303956    1.4705483   518400 
 1401000   0.97988341   -3.4292888   -3.4292888   -1.9594665  0.059813007   -3.4292888    1.4698223   518400 
 1402000   0.98054317   -3.4308605   -3.4308605   -1.9600486  0.053048341   -3.4308605    1.4708119   518400 
 1403000   0.97946151    -3.429917    -3.429917   -1.9607275  0.057462868    -3.429917    1.4691894   518400 
 1404000   0.98066237   -3.4295876   -3.4295876   -1.9585969  0.062344277   -3.4295876    1.4709907   518400 
 1405000   0.98125859   -3.4299443   -3.4299443   -1.9580593  0.064078524   -3.4299443    1.4718851   518400 
 1406000   0.98094874   -3.4311736   -3.4311736   -1.9597533  0.060917227   -3.4311736    1.4714203   518400 
 1407000     0.979061   -3.4293093   -3.4293093   -1.9607206   0.05941887   -3.4293093    1.4685887   518400 
 1408000   0.98008232   -3.4288973   -3.4288973   -1.9587767  0.058417404   -3.4288973    1.4701206   518400 
 1409000   0.98067637   -3.4287171   -3.4287171   -1.9577054  0.058815432   -3.4287171    1.4710117   518400 
 1410000   0.98181946   -3.4297698   -3.4297698   -1.9570435   0.06158215   -3.4297698    1.4727264   518400 
 1411000   0.98073552   -3.4295818   -3.4295818   -1.9584813   0.05424363   -3.4295818    1.4711004   518400 
 1412000   0.97990179   -3.4291457   -3.4291457   -1.9592959  0.053673306   -3.4291457    1.4698498   518400 
 1413000   0.98016408   -3.4295728   -3.4295728   -1.9593295  0.057235793   -3.4295728    1.4702433   518400 
 1414000   0.97932508   -3.4277133   -3.4277133   -1.9587285  0.058890846   -3.4277133    1.4689848   518400 
 1415000   0.97972919   -3.4281483   -3.4281483   -1.9585573  0.056516455   -3.4281483    1.4695909   518400 
 1416000   0.98089485   -3.4289169   -3.4289169   -1.9575775  0.055374356   -3.4289169    1.4713394   518400 
 1417000    0.9792675   -3.4272543   -3.4272543   -1.9583559  0.057238586   -3.4272543    1.4688984   518400 
 1418000   0.97961745   -3.4270655   -3.4270655   -1.9576421  0.059891842   -3.4270655    1.4694233   518400 
 1419000     0.980131   -3.4274032   -3.4274032   -1.9572095  0.057584917   -3.4274032    1.4701937   518400 
 1420000   0.97972468   -3.4259393   -3.4259393   -1.9563551  0.060424341   -3.4259393    1.4695842   518400 
 1421000    0.9795996   -3.4252352   -3.4252352   -1.9558387  0.061707439   -3.4252352    1.4693966   518400 
 1422000   0.98118441   -3.4280627   -3.4280627   -1.9562889  0.059815706   -3.4280627    1.4717738   518400 
 1423000   0.97924278   -3.4258775   -3.4258775   -1.9570162  0.058723335   -3.4258775    1.4688613   518400 
 1424000   0.97976805   -3.4258066   -3.4258066   -1.9561573  0.063347127   -3.4258066    1.4696492   518400 
 1425000   0.98222498    -3.429162    -3.429162   -1.9558273  0.054516612    -3.429162    1.4733346   518400 
 1426000   0.98239332   -3.4274923   -3.4274923   -1.9539052  0.061116227   -3.4274923    1.4735871   518400 
 1427000   0.97938479    -3.424089    -3.424089   -1.9550147   0.05798611    -3.424089    1.4690743   518400 
 1428000   0.97869158   -3.4245213   -3.4245213   -1.9564868  0.054675434   -3.4245213    1.4680345   518400 
 1429000   0.98036359    -3.426333    -3.426333   -1.9557905  0.057494453    -3.426333    1.4705425   518400 
 1430000   0.98063712   -3.4254976   -3.4254976   -1.9545448  0.060261499   -3.4254976    1.4709528   518400 
 1431000   0.97973752   -3.4232293   -3.4232293   -1.9536259  0.058204956   -3.4232293    1.4696034   518400 
 1432000     0.980093   -3.4242062   -3.4242062   -1.9540695  0.052592276   -3.4242062    1.4701367   518400 
 1433000   0.98103139    -3.425064    -3.425064   -1.9535197  0.056289993    -3.425064    1.4715442   518400 
 1434000   0.98047354   -3.4245176   -3.4245176   -1.9538101   0.05676475   -3.4245176    1.4707075   518400 
 1435000   0.98062407    -3.424515    -3.424515   -1.9535817  0.055683478    -3.424515    1.4709333   518400 
 1436000   0.98031998   -3.4240112   -3.4240112   -1.9535341  0.054995978   -3.4240112    1.4704771   518400 
 1437000   0.98015511   -3.4235162   -3.4235162   -1.9532864  0.059338855   -3.4235162    1.4702298   518400 
 1438000   0.98066166    -3.425413    -3.425413   -1.9544233  0.058378045    -3.425413    1.4709896   518400 
 1439000   0.98117494     -3.42556     -3.42556   -1.9538004  0.062740026     -3.42556    1.4717596   518400 
 1440000    0.9830222   -3.4289429   -3.4289429   -1.9544125  0.060211151   -3.4289429    1.4745305   518400 
 1441000   0.98353335   -3.4299069   -3.4299069   -1.9546097  0.057507141   -3.4299069    1.4752972   518400 
 1442000   0.98238281   -3.4277963   -3.4277963   -1.9542249  0.062491556   -3.4277963    1.4735714   518400 
 1443000   0.98082782    -3.426533    -3.426533   -1.9552941   0.06169644    -3.426533    1.4712389   518400 
 1444000   0.98122319   -3.4272315   -3.4272315   -1.9553995  0.056008989   -3.4272315     1.471832   518400 
 1445000   0.97928975   -3.4252159   -3.4252159   -1.9562841  0.054303275   -3.4252159    1.4689318   518400 
 1446000   0.98065943   -3.4249357   -3.4249357   -1.9539494  0.053383529   -3.4249357    1.4709863   518400 
 1447000   0.97982604     -3.42312     -3.42312   -1.9533837  0.057584294     -3.42312    1.4697362   518400 
 1448000   0.97937388   -3.4232477   -3.4232477   -1.9541897  0.053604507   -3.4232477     1.469058   518400 
 1449000   0.97948509   -3.4247089   -3.4247089   -1.9554841  0.051852819   -3.4247089    1.4692248   518400 
 1450000   0.97930887   -3.4239654   -3.4239654   -1.9550049  0.062043666   -3.4239654    1.4689605   518400 
 1451000   0.98067314   -3.4251756   -3.4251756   -1.9541687  0.062115955   -3.4251756    1.4710069   518400 
 1452000   0.98088778   -3.4259814   -3.4259814   -1.9546526  0.062143178   -3.4259814    1.4713288   518400 
 1453000   0.98273318   -3.4281831   -3.4281831   -1.9540862  0.059809268   -3.4281831    1.4740969   518400 
 1454000   0.98325386   -3.4282214   -3.4282214   -1.9533434  0.054666581   -3.4282214    1.4748779   518400 
 1455000   0.98249851   -3.4277954   -3.4277954   -1.9540504  0.059573381   -3.4277954    1.4737449   518400 
 1456000   0.98208958   -3.4262884   -3.4262884   -1.9531569  0.062221656   -3.4262884    1.4731315   518400 
 1457000   0.98267902   -3.4274886   -3.4274886   -1.9534729  0.055052341   -3.4274886    1.4740157   518400 
 1458000    0.9826104   -3.4262564   -3.4262564   -1.9523436   0.05428812   -3.4262564    1.4739128   518400 
 1459000   0.98140718   -3.4237587   -3.4237587   -1.9516508  0.061713906   -3.4237587    1.4721079   518400 
 1460000   0.98086432   -3.4230147   -3.4230147   -1.9517211   0.05710923   -3.4230147    1.4712936   518400 
 1461000   0.98011129   -3.4232274   -3.4232274   -1.9530633  0.054507253   -3.4232274    1.4701641   518400 
 1462000   0.97926831   -3.4205571   -3.4205571   -1.9516575   0.05855727   -3.4205571    1.4688996   518400 
 1463000   0.98001876   -3.4221412   -3.4221412   -1.9521159  0.053990974   -3.4221412    1.4700253   518400 
 1464000   0.98082987   -3.4232446   -3.4232446   -1.9520027  0.054849101   -3.4232446     1.471242   518400 
 1465000   0.98020457   -3.4219898   -3.4219898   -1.9516858  0.055555303   -3.4219898     1.470304   518400 
 1466000   0.98194307     -3.42526     -3.42526   -1.9523482  0.048376409     -3.42526    1.4729118   518400 
 1467000   0.98159478   -3.4253687   -3.4253687   -1.9529794    0.0597874   -3.4253687    1.4723893   518400 
 1468000   0.98185638   -3.4253731   -3.4253731   -1.9525914  0.060964306   -3.4253731    1.4727817   518400 
 1469000   0.98231401   -3.4270794   -3.4270794   -1.9536112  0.060715307   -3.4270794    1.4734682   518400 
 1470000   0.98172786   -3.4259716   -3.4259716   -1.9533827  0.059005471   -3.4259716    1.4725889   518400 
 1471000   0.98258738   -3.4268647   -3.4268647   -1.9529865  0.054280773   -3.4268647    1.4738782   518400 
 1472000   0.98082759   -3.4251055   -3.4251055   -1.9538669   0.05700828   -3.4251055    1.4712385   518400 
 1473000   0.98108043   -3.4247086   -3.4247086   -1.9530908  0.055934041   -3.4247086    1.4716178   518400 
 1474000   0.98090436   -3.4236975   -3.4236975   -1.9523438  0.057679601   -3.4236975    1.4713537   518400 
 1475000   0.98081863   -3.4236031   -3.4236031    -1.952378  0.054149265   -3.4236031    1.4712251   518400 
 1476000   0.98021178   -3.4225708   -3.4225708    -1.952256  0.051314339   -3.4225708    1.4703148   518400 
 1477000   0.97933931   -3.4215531   -3.4215531    -1.952547  0.062014169   -3.4215531    1.4690061   518400 
 1478000   0.97992549   -3.4223903   -3.4223903   -1.9525049  0.061079719   -3.4223903    1.4698854   518400 
 1479000   0.98067404   -3.4225636   -3.4225636   -1.9515553  0.057701168   -3.4225636    1.4710082   518400 
 1480000   0.98098627   -3.4231875   -3.4231875    -1.951711   0.05742555   -3.4231875    1.4714766   518400 
 1481000   0.98159325   -3.4230402   -3.4230402   -1.9506532  0.056429001   -3.4230402     1.472387   518400 
 1482000   0.98160336   -3.4227945   -3.4227945   -1.9503923  0.058721768   -3.4227945    1.4724022   518400 
 1483000   0.98064428   -3.4210876   -3.4210876    -1.950124  0.059707216   -3.4210876    1.4709636   518400 
 1484000   0.98209996   -3.4226306   -3.4226306   -1.9494835  0.062866916   -3.4226306    1.4731471   518400 
 1485000     0.980804   -3.4215417   -3.4215417   -1.9503385  0.059065737   -3.4215417    1.4712032   518400 
 1486000   0.98172783   -3.4226963   -3.4226963   -1.9501074  0.059392271   -3.4226963    1.4725889   518400 
 1487000   0.98143766   -3.4214979   -3.4214979   -1.9493442  0.054782904   -3.4214979    1.4721537   518400 
 1488000   0.98000905   -3.4194358   -3.4194358   -1.9494251  0.057506454   -3.4194358    1.4700107   518400 
 1489000   0.98037894   -3.4192585   -3.4192585   -1.9486929  0.057196486   -3.4192585    1.4705656   518400 
 1490000   0.98032493   -3.4204177   -3.4204177   -1.9499332  0.056086714   -3.4204177    1.4704846   518400 
 1491000   0.98178039   -3.4233931   -3.4233931   -1.9507254  0.059345959   -3.4233931    1.4726677   518400 
 1492000   0.97988513   -3.4201212   -3.4201212   -1.9502964  0.058737466   -3.4201212    1.4698249   518400 
 1493000   0.97930071   -3.4186545   -3.4186545   -1.9497062  0.060579346   -3.4186545    1.4689482   518400 
 1494000   0.98010978   -3.4210468   -3.4210468    -1.950885  0.056243476   -3.4210468    1.4701618   518400 
 1495000   0.98134746   -3.4219935   -3.4219935   -1.9499752  0.055814657   -3.4219935    1.4720184   518400 
 1496000   0.98127355   -3.4228169   -3.4228169   -1.9509094  0.064884232   -3.4228169    1.4719075   518400 
 1497000    0.9825882   -3.4249154   -3.4249154    -1.951036  0.062455111   -3.4249154    1.4738795   518400 
 1498000   0.98079159   -3.4233638   -3.4233638   -1.9521793    0.0649097   -3.4233638    1.4711846   518400 
 1499000   0.98191404   -3.4231372   -3.4231372   -1.9502689  0.056688983   -3.4231372    1.4728682   518400 
 1500000   0.98155938   -3.4218827   -3.4218827   -1.9495465  0.059741924   -3.4218827    1.4723362   518400 
 1501000    0.9811982   -3.4206333   -3.4206333   -1.9488388  0.059956109   -3.4206333    1.4717945   518400 
 1502000   0.98285649   -3.4225244   -3.4225244   -1.9482425   0.06103616   -3.4225244    1.4742819   518400 
 1503000   0.98133329   -3.4206526   -3.4206526   -1.9486555  0.055009944   -3.4206526    1.4719971   518400 
 1504000   0.98136971   -3.4203469   -3.4203469   -1.9482952  0.055080942   -3.4203469    1.4720517   518400 
 1505000   0.97964977   -3.4180823   -3.4180823   -1.9486105  0.050809057   -3.4180823    1.4694718   518400 
 1506000   0.97969932   -3.4174811   -3.4174811    -1.947935  0.051637803   -3.4174811    1.4695461   518400 
 1507000   0.97853811   -3.4169301   -3.4169301   -1.9491258  0.055951758   -3.4169301    1.4678043   518400 
 1508000   0.97911669   -3.4168133   -3.4168133   -1.9481411  0.056106333   -3.4168133    1.4686722   518400 
 1509000   0.98189437   -3.4210638   -3.4210638   -1.9482251  0.051756574   -3.4210638    1.4728387   518400 
 1510000   0.98230663   -3.4214849   -3.4214849   -1.9480278   0.05815452   -3.4214849    1.4734571   518400 
 1511000   0.98159579   -3.4191889   -3.4191889    -1.946798    0.0645766   -3.4191889    1.4723908   518400 
 1512000   0.98217676   -3.4212698   -3.4212698   -1.9480075   0.06092594   -3.4212698    1.4732623   518400 
 1513000   0.98119206   -3.4187316   -3.4187316   -1.9469463  0.058332452   -3.4187316    1.4717853   518400 
 1514000   0.98103467   -3.4190031   -3.4190031   -1.9474539   0.05882314   -3.4190031    1.4715492   518400 
 1515000   0.98131087   -3.4212839   -3.4212839   -1.9493204   0.05942307   -3.4212839    1.4719635   518400 
 1516000   0.98147707   -3.4209702   -3.4209702   -1.9487574  0.061491607   -3.4209702    1.4722128   518400 
 1517000   0.98063629   -3.4201803   -3.4201803   -1.9492287  0.061663428   -3.4201803    1.4709516   518400 
 1518000   0.98088788   -3.4202565   -3.4202565   -1.9489275  0.056865843   -3.4202565     1.471329   518400 
 1519000   0.98068001   -3.4205487   -3.4205487   -1.9495315  0.054991556   -3.4205487    1.4710172   518400 
 1520000    0.9814607   -3.4219301   -3.4219301   -1.9497419  0.055866909   -3.4219301    1.4721882   518400 
 1521000   0.98150636   -3.4213424   -3.4213424   -1.9490857  0.056132044   -3.4213424    1.4722567   518400 
 1522000   0.98105358   -3.4212737   -3.4212737   -1.9496962  0.055571941   -3.4212737    1.4715775   518400 
 1523000    0.9807502   -3.4209873   -3.4209873   -1.9498649  0.060498902   -3.4209873    1.4711225   518400 
 1524000   0.98239142   -3.4225547   -3.4225547   -1.9489704  0.061394581   -3.4225547    1.4735843   518400 
 1525000   0.98186542   -3.4204191   -3.4204191   -1.9476238  0.058191289   -3.4204191    1.4727953   518400 
 1526000   0.98160473   -3.4192014   -3.4192014   -1.9467971  0.062954921   -3.4192014    1.4724043   518400 
 1527000   0.98255166   -3.4197234   -3.4197234   -1.9458987  0.055666163   -3.4197234    1.4738247   518400 
 1528000   0.98249207   -3.4185609   -3.4185609   -1.9448257   0.05828005   -3.4185609    1.4737353   518400 
 1529000   0.98091055   -3.4157252   -3.4157252   -1.9443622  0.054311093   -3.4157252     1.471363   518400 
 1530000   0.98070917   -3.4139182   -3.4139182   -1.9428573    0.0583984   -3.4139182    1.4710609   518400 
 1531000   0.98050904   -3.4143941   -3.4143941   -1.9436334  0.051428064   -3.4143941    1.4707607   518400 
 1532000   0.98116919   -3.4145209   -3.4145209   -1.9427699  0.051567565   -3.4145209    1.4717509   518400 
 1533000   0.98105052   -3.4151216   -3.4151216   -1.9435486  0.058903765   -3.4151216    1.4715729   518400 
 1534000    0.9808581   -3.4136086   -3.4136086   -1.9423243  0.061084365   -3.4136086    1.4712843   518400 
 1535000   0.98281306   -3.4173731   -3.4173731   -1.9431563  0.055060967   -3.4173731    1.4742167   518400 
 1536000   0.98223943   -3.4166697   -3.4166697   -1.9433134  0.056966633   -3.4166697    1.4733563   518400 
 1537000   0.98170064   -3.4161167   -3.4161167   -1.9435686  0.058092657   -3.4161167    1.4725481   518400 
 1538000   0.98172416   -3.4174958   -3.4174958   -1.9449124  0.054284741   -3.4174958    1.4725834   518400 
 1539000   0.98234393   -3.4169245   -3.4169245   -1.9434114  0.057163568   -3.4169245    1.4735131   518400 
 1540000   0.98287828   -3.4160984   -3.4160984   -1.9417838  0.059472941   -3.4160984    1.4743146   518400 
 1541000    0.9833934   -3.4160929   -3.4160929   -1.9410057  0.057990027   -3.4160929    1.4750873   518400 
 1542000   0.98281141   -3.4165392   -3.4165392   -1.9423249  0.054848746   -3.4165392    1.4742143   518400 
 1543000   0.98227432   -3.4165369   -3.4165369   -1.9431283  0.062591486   -3.4165369    1.4734086   518400 
 1544000   0.98260357   -3.4153384   -3.4153384   -1.9414359  0.053311501   -3.4153384    1.4739025   518400 
 1545000   0.98164555    -3.413966    -3.413966   -1.9415005  0.058703031    -3.413966    1.4724655   518400 
 1546000   0.98178188   -3.4150024   -3.4150024   -1.9423324  0.056189492   -3.4150024      1.47267   518400 
 1547000   0.98160008   -3.4156344   -3.4156344   -1.9432371  0.053728657   -3.4156344    1.4723973   518400 
 1548000   0.98160061   -3.4148493   -3.4148493   -1.9424512  0.054341286   -3.4148493    1.4723981   518400 
 1549000   0.98199395   -3.4151203   -3.4151203   -1.9421322  0.057612156   -3.4151203    1.4729881   518400 
 1550000   0.98349866   -3.4182885   -3.4182885   -1.9430434  0.058545263   -3.4182885    1.4752451   518400 
 1551000   0.98315788    -3.418245    -3.418245    -1.943511  0.058184265    -3.418245     1.474734   518400 
 1552000   0.98288918   -3.4189263   -3.4189263   -1.9445954  0.068234683   -3.4189263    1.4743309   518400 
 1553000   0.98198491   -3.4189848   -3.4189848   -1.9460103  0.059331562   -3.4189848    1.4729745   518400 
 1554000   0.98317915    -3.420666    -3.420666   -1.9459001  0.058466333    -3.420666    1.4747659   518400 
 1555000   0.98307015   -3.4195419   -3.4195419   -1.9449395  0.060349598   -3.4195419    1.4746024   518400 
 1556000   0.98326682   -3.4195761   -3.4195761   -1.9446788   0.06374316   -3.4195761    1.4748974   518400 
 1557000   0.98271834   -3.4186623   -3.4186623   -1.9445876  0.061057793   -3.4186623    1.4740747   518400 
 1558000    0.9820971    -3.418653    -3.418653   -1.9455102  0.064126953    -3.418653    1.4731428   518400 
 1559000   0.98273332   -3.4197645   -3.4197645   -1.9456674  0.053170079   -3.4197645    1.4740971   518400 
 1560000   0.98218344   -3.4189174   -3.4189174   -1.9456451  0.059131288   -3.4189174    1.4732723   518400 
 1561000   0.98041144   -3.4153875   -3.4153875   -1.9447732  0.057654346   -3.4153875    1.4706143   518400 
 1562000   0.97969526   -3.4145116   -3.4145116   -1.9449716  0.052266524   -3.4145116    1.4695401   518400 
 1563000    0.9805831   -3.4150885   -3.4150885   -1.9442167   0.05815438   -3.4150885    1.4708718   518400 
 1564000   0.98137039   -3.4159651   -3.4159651   -1.9439124  0.056029137   -3.4159651    1.4720527   518400 
 1565000   0.98195684    -3.416087    -3.416087   -1.9431545  0.056070019    -3.416087    1.4729324   518400 
 1566000   0.98176333   -3.4155285   -3.4155285   -1.9428863  0.058793107   -3.4155285    1.4726422   518400 
 1567000   0.98156292   -3.4151818   -3.4151818   -1.9428403  0.062795685   -3.4151818    1.4723415   518400 
 1568000   0.98421201   -3.4197542   -3.4197542    -1.943439  0.056067411   -3.4197542    1.4763152   518400 
 1569000   0.98226939   -3.4162931   -3.4162931   -1.9428919  0.065941801   -3.4162931    1.4734012   518400 
 1570000   0.98414915   -3.4198523   -3.4198523   -1.9436314  0.056742654   -3.4198523    1.4762209   518400 
 1571000   0.98151897   -3.4151504   -3.4151504   -1.9428748  0.065606027   -3.4151504    1.4722756   518400 
 1572000   0.98213883    -3.415487    -3.415487   -1.9422816  0.061790137    -3.415487    1.4732054   518400 
 1573000   0.98242646   -3.4149021   -3.4149021   -1.9412653  0.057276166   -3.4149021    1.4736368   518400 
 1574000   0.98322936   -3.4165243   -3.4165243   -1.9416831  0.056160702   -3.4165243    1.4748412   518400 
 1575000   0.98187473   -3.4138339   -3.4138339   -1.9410246  0.056347946   -3.4138339    1.4728093   518400 
 1576000   0.98208165    -3.413371    -3.413371   -1.9402514  0.056388343    -3.413371    1.4731196   518400 
 1577000   0.98251718   -3.4145769   -3.4145769    -1.940804  0.059354617   -3.4145769    1.4737729   518400 
 1578000   0.98223268   -3.4132202   -3.4132202    -1.939874  0.057670024   -3.4132202    1.4733462   518400 
 1579000   0.98234794   -3.4125419   -3.4125419   -1.9390228  0.055484851   -3.4125419    1.4735191   518400 
 1580000   0.98343079    -3.414383    -3.414383   -1.9392396  0.059242284    -3.414383    1.4751433   518400 
 1581000   0.98240678   -3.4135521   -3.4135521   -1.9399448  0.061502865   -3.4135521    1.4736073   518400 
 1582000   0.98243148   -3.4136486   -3.4136486   -1.9400042  0.057576346   -3.4136486    1.4736444   518400 
 1583000   0.98236263   -3.4144343   -3.4144343   -1.9408932  0.055886503   -3.4144343    1.4735411   518400 
 1584000   0.98272618   -3.4150812   -3.4150812   -1.9409948   0.05627575   -3.4150812    1.4740864   518400 
 1585000   0.98246409   -3.4138632   -3.4138632   -1.9401699  0.052616296   -3.4138632    1.4736933   518400 
 1586000   0.98177605    -3.412897    -3.412897   -1.9402358  0.057184336    -3.412897    1.4726612   518400 
 1587000   0.98282673   -3.4140695   -3.4140695   -1.9398322  0.056188059   -3.4140695    1.4742373   518400 
 1588000   0.98325548   -3.4155969   -3.4155969   -1.9407165  0.057407561   -3.4155969    1.4748804   518400 
 1589000   0.98112917   -3.4120252   -3.4120252   -1.9403343  0.058350461   -3.4120252    1.4716909   518400 
 1590000   0.98115174   -3.4123049   -3.4123049   -1.9405801  0.054694156   -3.4123049    1.4717248   518400 
 1591000   0.98308854   -3.4151478   -3.4151478   -1.9405178   0.05854968   -3.4151478      1.47463   518400 
 1592000   0.98200311   -3.4136919   -3.4136919   -1.9406901  0.053060992   -3.4136919    1.4730018   518400 
 1593000    0.9822693   -3.4132859   -3.4132859   -1.9398848  0.060818041   -3.4132859    1.4734011   518400 
 1594000   0.98220899    -3.414125    -3.414125   -1.9408144  0.059323433    -3.414125    1.4733107   518400 
 1595000   0.98240762   -3.4151766   -3.4151766    -1.941568  0.050960716   -3.4151766    1.4736086   518400 
 1596000   0.98156506   -3.4140475   -3.4140475   -1.9417027  0.054762063   -3.4140475    1.4723448   518400 
 1597000   0.98185503    -3.414242    -3.414242   -1.9414623  0.051392543    -3.414242    1.4727797   518400 
 1598000   0.98109552   -3.4134802   -3.4134802   -1.9418398  0.060096952   -3.4134802    1.4716404   518400 
 1599000   0.98014825   -3.4110795   -3.4110795     -1.94086  0.053555505   -3.4110795    1.4702195   518400 
 1600000   0.98160334   -3.4124048   -3.4124048   -1.9400026  0.057206512   -3.4124048    1.4724022   518400 
 1601000    0.9813175   -3.4128786   -3.4128786   -1.9409052  0.051342202   -3.4128786    1.4719734   518400 
 1602000   0.98175817    -3.414216    -3.414216   -1.9415816   0.05051346    -3.414216    1.4726344   518400 
 1603000   0.98128124   -3.4131468   -3.4131468   -1.9412278  0.057693153   -3.4131468     1.471919   518400 
 1604000   0.98128783   -3.4147616   -3.4147616   -1.9428327  0.062308768   -3.4147616    1.4719289   518400 
 1605000    0.9827223   -3.4164258   -3.4164258   -1.9423452  0.055493475   -3.4164258    1.4740806   518400 
 1606000   0.98335003   -3.4177037   -3.4177037   -1.9426815   0.05807025   -3.4177037    1.4750222   518400 
 1607000   0.98339715   -3.4167862   -3.4167862   -1.9416933   0.06243917   -3.4167862    1.4750929   518400 
 1608000   0.98174481   -3.4145756   -3.4145756   -1.9419612   0.05691308   -3.4145756    1.4726144   518400 
 1609000   0.98260849   -3.4158685   -3.4158685   -1.9419586  0.053163258   -3.4158685    1.4739099   518400 
 1610000   0.98158391   -3.4132509   -3.4132509   -1.9408779  0.052706958   -3.4132509     1.472373   518400 
 1611000   0.98066578   -3.4118455   -3.4118455   -1.9408497   0.05288792   -3.4118455    1.4709958   518400 
 1612000   0.98098002   -3.4113606   -3.4113606   -1.9398934  0.052383269   -3.4113606    1.4714672   518400 
 1613000   0.98249033   -3.4140785   -3.4140785   -1.9403458  0.052643462   -3.4140785    1.4737327   518400 
 1614000   0.98128725   -3.4117876   -3.4117876   -1.9398595  0.054272373   -3.4117876     1.471928   518400 
 1615000   0.97964081   -3.4090296   -3.4090296   -1.9395713  0.059181091   -3.4090296    1.4694584   518400 
 1616000   0.98276607   -3.4129349   -3.4129349   -1.9387886  0.053570317   -3.4129349    1.4741463   518400 
 1617000   0.98360801   -3.4145422   -3.4145422    -1.939133  0.057320437   -3.4145422    1.4754092   518400 
 1618000   0.98312064   -3.4145006   -3.4145006   -1.9398225  0.054504131   -3.4145006    1.4746781   518400 
 1619000   0.98234145   -3.4149312   -3.4149312   -1.9414219  0.059780834   -3.4149312    1.4735093   518400 
 1620000   0.98381827    -3.415778    -3.415778   -1.9400535  0.060945152    -3.415778    1.4757246   518400 
 1621000   0.98302152   -3.4151117   -3.4151117   -1.9405823  0.060787857   -3.4151117    1.4745294   518400 
 1622000   0.98334902   -3.4158779   -3.4158779   -1.9408573  0.061747429   -3.4158779    1.4750207   518400 
 1623000   0.98180596   -3.4135672   -3.4135672   -1.9408611  0.059814091   -3.4135672    1.4727061   518400 
 1624000   0.98157961   -3.4137019   -3.4137019   -1.9413353  0.056697824   -3.4137019    1.4723666   518400 
 1625000   0.98147646   -3.4129372   -3.4129372   -1.9407254  0.054291725   -3.4129372    1.4722119   518400 
 1626000   0.98274345   -3.4150882   -3.4150882   -1.9409758   0.05436551   -3.4150882    1.4741123   518400 
 1627000    0.9821873   -3.4142792   -3.4142792   -1.9410011  0.056415267   -3.4142792    1.4732781   518400 
 1628000    0.9837199   -3.4155963   -3.4155963   -1.9400193  0.056284612   -3.4155963     1.475577   518400 
 1629000   0.98149827   -3.4124743   -3.4124743   -1.9402298  0.061386705   -3.4124743    1.4722446   518400 
 1630000   0.98162262    -3.412618    -3.412618   -1.9401869  0.058385963    -3.412618    1.4724311   518400 
 1631000   0.98263345   -3.4139753   -3.4139753    -1.940028  0.050747231   -3.4139753    1.4739473   518400 
 1632000   0.98183297   -3.4119879   -3.4119879   -1.9392413  0.054880754   -3.4119879    1.4727466   518400 
 1633000    0.9817071   -3.4101819   -3.4101819   -1.9376241  0.058145424   -3.4101819    1.4725578   518400 
 1634000   0.98376711    -3.412594    -3.412594   -1.9369462  0.062767409    -3.412594    1.4756478   518400 
 1635000   0.98451026   -3.4149298   -3.4149298   -1.9381673  0.056627939   -3.4149298    1.4767625   518400 
 1636000    0.9853336   -3.4147124   -3.4147124   -1.9367149  0.057285663   -3.4147124    1.4779975   518400 
 1637000   0.98408047   -3.4119705   -3.4119705   -1.9358526  0.060700369   -3.4119705    1.4761179   518400 
 1638000   0.98316233   -3.4115206   -3.4115206   -1.9367799  0.054689167   -3.4115206    1.4747406   518400 
 1639000   0.98269457   -3.4107378   -3.4107378   -1.9366988  0.054637515   -3.4107378     1.474039   518400 
 1640000    0.9840667   -3.4117996   -3.4117996   -1.9357024  0.056916476   -3.4117996    1.4760972   518400 
 1641000   0.98241213   -3.4100633   -3.4100633   -1.9364479  0.057863784   -3.4100633    1.4736153   518400 
 1642000   0.98342894   -3.4117165   -3.4117165    -1.936576  0.053044004   -3.4117165    1.4751406   518400 
 1643000   0.98322663   -3.4105684   -3.4105684   -1.9357313   0.05579991   -3.4105684    1.4748371   518400 
 1644000   0.98357715   -3.4120098   -3.4120098   -1.9366469  0.057228135   -3.4120098    1.4753629   518400 
 1645000   0.98141911   -3.4087485   -3.4087485   -1.9366226  0.053669311   -3.4087485    1.4721258   518400 
 1646000   0.98181021   -3.4094137   -3.4094137   -1.9367013  0.054550846   -3.4094137    1.4727125   518400 
 1647000   0.98184338    -3.410066    -3.410066   -1.9373038  0.053492802    -3.410066    1.4727622   518400 
 1648000   0.98229517   -3.4094322   -3.4094322   -1.9359923  0.054457671   -3.4094322    1.4734399   518400 
 1649000   0.98328581   -3.4106061   -3.4106061   -1.9356802  0.056827159   -3.4106061    1.4749259   518400 
 1650000   0.98242968   -3.4103242   -3.4103242   -1.9366825   0.06199093   -3.4103242    1.4736417   518400 
 1651000   0.98347818    -3.412758    -3.412758   -1.9375435   0.05523405    -3.412758    1.4752144   518400 
 1652000   0.98337775   -3.4122027   -3.4122027   -1.9371389  0.056235691   -3.4122027    1.4750638   518400 
 1653000   0.98298444   -3.4127071   -3.4127071   -1.9382332  0.064294617   -3.4127071    1.4744738   518400 
 1654000   0.98342322   -3.4130759   -3.4130759   -1.9379439  0.062867056   -3.4130759     1.475132   518400 
 1655000   0.98285187   -3.4123074   -3.4123074   -1.9380324   0.05907651   -3.4123074     1.474275   518400 
 1656000   0.98346064   -3.4135219   -3.4135219   -1.9383338  0.056491478   -3.4135219    1.4751881   518400 
 1657000   0.98161387   -3.4111102   -3.4111102   -1.9386923  0.056833819   -3.4111102     1.472418   518400 
 1658000   0.98194553   -3.4116137   -3.4116137   -1.9386983  0.052535394   -3.4116137    1.4729155   518400 
 1659000   0.98202568   -3.4125778   -3.4125778   -1.9395421  0.051327495   -3.4125778    1.4730357   518400 
 1660000   0.98185578   -3.4128296   -3.4128296   -1.9400488  0.049607257   -3.4128296    1.4727808   518400 
 1661000   0.98180804   -3.4124191   -3.4124191   -1.9397099  0.050722543   -3.4124191    1.4727092   518400 
 1662000   0.98259139   -3.4128343   -3.4128343     -1.93895  0.054795272   -3.4128343    1.4738842   518400 
 1663000   0.98203663   -3.4113384   -3.4113384   -1.9382863  0.052567628   -3.4113384    1.4730521   518400 
 1664000    0.9820255   -3.4094338   -3.4094338   -1.9363984   0.05975606   -3.4094338    1.4730354   518400 
 1665000   0.98296903    -3.409695    -3.409695   -1.9352443   0.05719447    -3.409695    1.4744507   518400 
 1666000   0.98266044   -3.4098651   -3.4098651   -1.9358773  0.059728231   -3.4098651    1.4739878   518400 
 1667000   0.98454989   -3.4119886   -3.4119886   -1.9351666  0.056513683   -3.4119886     1.476822   518400 
 1668000   0.98322936   -3.4105469   -3.4105469   -1.9357057  0.061270646   -3.4105469    1.4748412   518400 
 1669000   0.98461636   -3.4114708   -3.4114708   -1.9345491  0.059208259   -3.4114708    1.4769217   518400 
 1670000     0.984719   -3.4118643   -3.4118643   -1.9347887  0.057668371   -3.4118643    1.4770756   518400 
 1671000   0.98457567   -3.4126653   -3.4126653   -1.9358047  0.063861846   -3.4126653    1.4768607   518400 
 1672000   0.98377302   -3.4115611   -3.4115611   -1.9359044  0.061951946   -3.4115611    1.4756567   518400 
 1673000   0.98213992   -3.4100965   -3.4100965   -1.9368895  0.055526344   -3.4100965     1.473207   518400 
 1674000   0.98388927   -3.4130982   -3.4130982   -1.9372671  0.054920525   -3.4130982    1.4758311   518400 
 1675000   0.98272911    -3.411046    -3.411046   -1.9369551  0.058632543    -3.411046    1.4740908   518400 
 1676000   0.98244273   -3.4104057   -3.4104057   -1.9367444  0.056438607   -3.4104057    1.4736612   518400 
 1677000   0.98264386   -3.4099794   -3.4099794   -1.9360165  0.059440757   -3.4099794    1.4739629   518400 
 1678000   0.98173635   -3.4085525   -3.4085525   -1.9359508   0.05869883   -3.4085525    1.4726017   518400 
 1679000   0.98112703   -3.4082412   -3.4082412   -1.9365535  0.055141927   -3.4082412    1.4716877   518400 
 1680000   0.98331766   -3.4111417   -3.4111417   -1.9361681  0.057782742   -3.4111417    1.4749736   518400 
 1681000   0.98259814   -3.4094636   -3.4094636   -1.9355692  0.053844861   -3.4094636    1.4738944   518400 
 1682000   0.98294433   -3.4093767   -3.4093767    -1.934963   0.05460369   -3.4093767    1.4744136   518400 
 1683000   0.98309732   -3.4098773   -3.4098773   -1.9352342  0.055420422   -3.4098773    1.4746431   518400 
 1684000   0.98511956   -3.4118885   -3.4118885    -1.934212  0.055576904   -3.4118885    1.4776765   518400 
 1685000   0.98407491   -3.4117061   -3.4117061   -1.9355966  0.056342787   -3.4117061    1.4761095   518400 
 1686000   0.98251368   -3.4095699   -3.4095699   -1.9358022  0.058700589   -3.4095699    1.4737677   518400 
 1687000   0.98316368   -3.4088319   -3.4088319   -1.9340892  0.060532369   -3.4088319    1.4747427   518400 
 1688000    0.9831902   -3.4088187   -3.4088187   -1.9340363  0.058700304   -3.4088187    1.4747825   518400 
 1689000   0.98329665   -3.4089082   -3.4089082    -1.933966  0.066256417   -3.4089082    1.4749421   518400 
 1690000   0.98403472   -3.4095708   -3.4095708   -1.9335215  0.061152317   -3.4095708    1.4760492   518400 
 1691000   0.98264535   -3.4085287   -3.4085287   -1.9345636  0.057851277   -3.4085287    1.4739652   518400 
 1692000   0.98234113   -3.4084622   -3.4084622   -1.9349534  0.052696134   -3.4084622    1.4735089   518400 
 1693000   0.98139923   -3.4058401   -3.4058401   -1.9337441  0.049146792   -3.4058401     1.472096   518400 
 1694000   0.98107944   -3.4052265   -3.4052265   -1.9336102  0.055429387   -3.4052265    1.4716163   518400 
 1695000   0.98247153   -3.4059575   -3.4059575   -1.9322531  0.055507898   -3.4059575    1.4737045   518400 
 1696000   0.98316347   -3.4066131   -3.4066131   -1.9318708  0.054676388   -3.4066131    1.4747424   518400 
 1697000   0.98371791   -3.4080524   -3.4080524   -1.9324784  0.055839742   -3.4080524     1.475574   518400 
 1698000   0.98228854   -3.4047974   -3.4047974   -1.9313675  0.063300246   -3.4047974      1.47343   518400 
 1699000   0.98338216   -3.4062725   -3.4062725   -1.9312021  0.055869027   -3.4062725    1.4750704   518400 
 1700000   0.98434394   -3.4078571   -3.4078571   -1.9313441  0.056281399   -3.4078571    1.4765131   518400 
 1701000   0.98498524   -3.4084905   -3.4084905   -1.9310155  0.059295489   -3.4084905     1.477475   518400 
 1702000   0.98615042   -3.4107389   -3.4107389   -1.9315161  0.061646737   -3.4107389    1.4792228   518400 
 1703000    0.9847393   -3.4076577   -3.4076577   -1.9305516  0.057876502   -3.4076577    1.4771061   518400 
 1704000   0.98475781   -3.4085964   -3.4085964   -1.9314625  0.055314699   -3.4085964    1.4771339   518400 
 1705000   0.98421728   -3.4073827   -3.4073827   -1.9310596  0.057301594   -3.4073827    1.4763231   518400 
 1706000   0.98413499   -3.4083697   -3.4083697     -1.93217  0.058026683   -3.4083697    1.4761996   518400 
 1707000   0.98545387   -3.4099492   -3.4099492   -1.9317713  0.057155954   -3.4099492     1.478178   518400 
 1708000   0.98385852   -3.4084296   -3.4084296   -1.9326447   0.05164433   -3.4084296    1.4757849   518400 
 1709000     0.982534   -3.4068688   -3.4068688   -1.9330707   0.05883581   -3.4068688    1.4737982   518400 
 1710000   0.98106935   -3.4057885   -3.4057885   -1.9341873  0.057135727   -3.4057885    1.4716012   518400 
 1711000   0.98078703    -3.406371    -3.406371   -1.9351933  0.061734727    -3.406371    1.4711777   518400 
 1712000   0.98306173   -3.4095273   -3.4095273   -1.9349376  0.054325802   -3.4095273    1.4745897   518400 
 1713000   0.98437697   -3.4120017   -3.4120017   -1.9354391  0.057941286   -3.4120017    1.4765626   518400 
 1714000   0.98323456   -3.4096148   -3.4096148   -1.9347658  0.057993589   -3.4096148     1.474849   518400 
 1715000    0.9827272   -3.4082753   -3.4082753   -1.9341874  0.062653081   -3.4082753     1.474088   518400 
 1716000   0.98235936   -3.4073109   -3.4073109   -1.9337747   0.06133207   -3.4073109    1.4735362   518400 
 1717000    0.9818669   -3.4064851   -3.4064851   -1.9336875  0.059894008   -3.4064851    1.4727975   518400 
 1718000   0.98270367    -3.408185    -3.408185   -1.9341323  0.055172293    -3.408185    1.4740527   518400 
 1719000   0.98302867   -3.4081985   -3.4081985   -1.9336583  0.061125367   -3.4081985    1.4745402   518400 
 1720000   0.98258783   -3.4067325   -3.4067325   -1.9328536  0.057910851   -3.4067325    1.4738789   518400 
 1721000   0.98292947   -3.4074278   -3.4074278   -1.9330365  0.056515478   -3.4074278    1.4743914   518400 
 1722000   0.98187669   -3.4062784   -3.4062784   -1.9334662  0.054760664   -3.4062784    1.4728122   518400 
 1723000   0.98231629   -3.4046556   -3.4046556    -1.931184  0.060207893   -3.4046556    1.4734716   518400 
 1724000   0.98402161   -3.4065502   -3.4065502   -1.9305206  0.059851768   -3.4065502    1.4760296   518400 
 1725000     0.982979   -3.4050586   -3.4050586    -1.930593  0.054711101   -3.4050586    1.4744657   518400 
 1726000   0.98229221   -3.4042542   -3.4042542   -1.9308187  0.055011081   -3.4042542    1.4734355   518400 
 1727000    0.9831731   -3.4049294   -3.4049294   -1.9301726  0.053745969   -3.4049294    1.4747568   518400 
 1728000    0.9818506    -3.402734    -3.402734   -1.9299609  0.056040145    -3.402734    1.4727731   518400 
 1729000   0.98422102   -3.4065671   -3.4065671   -1.9302384  0.052371281   -3.4065671    1.4763287   518400 
 1730000   0.98466052   -3.4060114   -3.4060114   -1.9290234    0.0521925   -3.4060114    1.4769879   518400 
 1731000    0.9852779   -3.4068437   -3.4068437   -1.9289297  0.058790865   -3.4068437     1.477914   518400 
 1732000   0.98248889   -3.4029222   -3.4029222   -1.9291917  0.060440087   -3.4029222    1.4737305   518400 
 1733000   0.98274803    -3.402079    -3.402079   -1.9279598  0.058995911    -3.402079    1.4741192   518400 
 1734000   0.98276624   -3.4022918   -3.4022918   -1.9281453  0.053362153   -3.4022918    1.4741465   518400 
 1735000   0.98342628   -3.4034629   -3.4034629   -1.9283263  0.054189036   -3.4034629    1.4751366   518400 
 1736000   0.98330489   -3.4036609   -3.4036609   -1.9287064  0.051045832   -3.4036609    1.4749545   518400 
 1737000   0.98294747   -3.4028651   -3.4028651   -1.9284467  0.056008373   -3.4028651    1.4744184   518400 
 1738000   0.98381545   -3.4043878   -3.4043878   -1.9286675  0.054805403   -3.4043878    1.4757203   518400 
 1739000   0.98373668    -3.404226    -3.404226   -1.9286238  0.049685254    -3.404226    1.4756022   518400 
 1740000   0.98459744   -3.4055194   -3.4055194   -1.9286261  0.056901751   -3.4055194    1.4768933   518400 
 1741000   0.98448438   -3.4051161   -3.4051161   -1.9283924  0.054095888   -3.4051161    1.4767237   518400 
 1742000   0.98464611   -3.4043941   -3.4043941   -1.9274278  0.062623761   -3.4043941    1.4769663   518400 
 1743000    0.9845184     -3.40381     -3.40381   -1.9270352  0.057316701     -3.40381    1.4767748   518400 
 1744000   0.98156302   -3.3991182   -3.3991182   -1.9267765  0.061072943   -3.3991182    1.4723417   518400 
 1745000    0.9836908   -3.4028622   -3.4028622   -1.9273289  0.050897871   -3.4028622    1.4755334   518400 
 1746000   0.98234638   -3.4003342   -3.4003342   -1.9268175  0.051950774   -3.4003342    1.4735167   518400 
 1747000   0.98228734   -3.3989576   -3.3989576   -1.9255294  0.053505234   -3.3989576    1.4734282   518400 
 1748000   0.98355498   -3.4012178   -3.4012178   -1.9258882  0.058125781   -3.4012178    1.4753296   518400 
 1749000   0.98494486   -3.4028438   -3.4028438   -1.9254293  0.053722034   -3.4028438    1.4774144   518400 
 1750000   0.98471162   -3.4028556   -3.4028556    -1.925791   0.06083152   -3.4028556    1.4770646   518400 
 1751000   0.98372453   -3.4020909   -3.4020909    -1.926507  0.053785145   -3.4020909     1.475584   518400 
 1752000   0.98557927   -3.4037884   -3.4037884   -1.9254223  0.060642145   -3.4037884    1.4783661   518400 
 1753000   0.98351379   -3.4023532   -3.4023532   -1.9270853  0.061936452   -3.4023532    1.4752678   518400 
 1754000   0.98322226   -3.4025205   -3.4025205     -1.92769  0.060046509   -3.4025205    1.4748305   518400 
 1755000   0.98454905     -3.40334     -3.40334   -1.9265192  0.056882546     -3.40334    1.4768207   518400 
 1756000   0.98362283   -3.4022639   -3.4022639   -1.9268325  0.057883128   -3.4022639    1.4754314   518400 
 1757000   0.98389215   -3.4033215   -3.4033215   -1.9274862  0.053553226   -3.4033215    1.4758354   518400 
 1758000   0.98396031   -3.4030999   -3.4030999   -1.9271623  0.054064148   -3.4030999    1.4759376   518400 
 1759000   0.98349656   -3.4032278   -3.4032278   -1.9279858  0.058045886   -3.4032278     1.475242   518400 
 1760000   0.98311192   -3.4030717   -3.4030717   -1.9284067  0.056309725   -3.4030717     1.474665   518400 
 1761000     0.983995   -3.4056966   -3.4056966    -1.929707  0.057556783   -3.4056966    1.4759897   518400 
 1762000   0.98395465   -3.4055625   -3.4055625   -1.9296334  0.056877488   -3.4055625    1.4759291   518400 
 1763000   0.98405902   -3.4050463   -3.4050463   -1.9289606  0.059693964   -3.4050463    1.4760857   518400 
 1764000   0.98651833   -3.4085469   -3.4085469   -1.9287723  0.059781188   -3.4085469    1.4797746   518400 
 1765000    0.9852195   -3.4093113   -3.4093113   -1.9314849  0.062615033   -3.4093113    1.4778264   518400 
 1766000   0.98516185   -3.4099614   -3.4099614   -1.9322215  0.061229903   -3.4099614    1.4777399   518400 
 1767000   0.98441897   -3.4086508   -3.4086508   -1.9320252  0.059395215   -3.4086508    1.4766256   518400 
 1768000   0.98529903   -3.4086761   -3.4086761   -1.9307304  0.058091766   -3.4086761    1.4779457   518400 
 1769000   0.98397811   -3.4069106   -3.4069106   -1.9309463   0.06127301   -3.4069106    1.4759643   518400 
 1770000    0.9827919   -3.4056217   -3.4056217   -1.9314367  0.051244861   -3.4056217     1.474185   518400 
 1771000   0.98371944   -3.4081444   -3.4081444   -1.9325681  0.059868331   -3.4081444    1.4755763   518400 
 1772000   0.98321886   -3.4060364   -3.4060364   -1.9312109  0.052752183   -3.4060364    1.4748254   518400 
 1773000   0.98279549   -3.4044493   -3.4044493   -1.9302589  0.056863439   -3.4044493    1.4741904   518400 
 1774000   0.98350768   -3.4054628   -3.4054628   -1.9302041  0.055626599   -3.4054628    1.4752587   518400 
 1775000   0.98220048   -3.4030075   -3.4030075   -1.9297097  0.059852955   -3.4030075    1.4732979   518400 
 1776000   0.98408682   -3.4048414   -3.4048414   -1.9287141  0.058180955   -3.4048414    1.4761274   518400 
 1777000   0.98511046   -3.4061941   -3.4061941   -1.9285312  0.057402211   -3.4061941    1.4776628   518400 
 1778000   0.98507698   -3.4069107   -3.4069107    -1.929298  0.059461348   -3.4069107    1.4776126   518400 
 1779000   0.98505198   -3.4075731   -3.4075731    -1.929998  0.060400035   -3.4075731    1.4775751   518400 
 1780000   0.98562638   -3.4082355   -3.4082355   -1.9297988  0.060892431   -3.4082355    1.4784367   518400 
 1781000   0.98442467   -3.4057126   -3.4057126   -1.9290785  0.062035203   -3.4057126    1.4766342   518400 
 1782000   0.98532863   -3.4063436   -3.4063436   -1.9283536   0.05653431   -3.4063436    1.4779901   518400 
 1783000   0.98411696   -3.4050056   -3.4050056    -1.928833  0.054919492   -3.4050056    1.4761726   518400 
 1784000   0.98378344   -3.4047792   -3.4047792   -1.9291069  0.054333345   -3.4047792    1.4756723   518400 
 1785000   0.98273883   -3.4021234   -3.4021234    -1.928018  0.054298806   -3.4021234    1.4741054   518400 
 1786000   0.98375164   -3.4034512   -3.4034512   -1.9278266  0.054521839   -3.4034512    1.4756246   518400 
 1787000   0.98374659   -3.4029711   -3.4029711   -1.9273541  0.052252112   -3.4029711     1.475617   518400 
 1788000   0.98405081   -3.4039881   -3.4039881   -1.9279147  0.050829763   -3.4039881    1.4760734   518400 
 1789000   0.98306139   -3.4035509   -3.4035509   -1.9289617  0.049582813   -3.4035509    1.4745892   518400 
 1790000   0.98475456   -3.4047217   -3.4047217   -1.9275927  0.055087215   -3.4047217     1.477129   518400 
 1791000   0.98288237   -3.4034786   -3.4034786   -1.9291579  0.051932062   -3.4034786    1.4743207   518400 
 1792000   0.98432353   -3.4056175   -3.4056175    -1.929135  0.059682875   -3.4056175    1.4764824   518400 
 1793000   0.98504025   -3.4059358   -3.4059358   -1.9283782  0.061195817   -3.4059358    1.4775575   518400 
 1794000   0.98421843   -3.4046831   -3.4046831   -1.9283583  0.062468503   -3.4046831    1.4763248   518400 
 1795000   0.98482117   -3.4050321   -3.4050321   -1.9278032  0.062866227   -3.4050321    1.4772289   518400 
 1796000    0.9850439   -3.4053437   -3.4053437   -1.9277807  0.055571547   -3.4053437     1.477563   518400 
 1797000   0.98463836   -3.4043086   -3.4043086   -1.9273539  0.059271205   -3.4043086    1.4769547   518400 
 1798000   0.98517386   -3.4043063   -3.4043063   -1.9265484  0.058590161   -3.4043063    1.4777579   518400 
 1799000    0.9825721   -3.4008618   -3.4008618   -1.9270065  0.055399937   -3.4008618    1.4738553   518400 
 1800000   0.98425829   -3.4016903   -3.4016903   -1.9253057  0.052604946   -3.4016903    1.4763846   518400 
 1801000   0.98404252   -3.4019649   -3.4019649   -1.9259039  0.055275327   -3.4019649    1.4760609   518400 
 1802000   0.98249092   -3.3992385   -3.3992385    -1.925505  0.059534938   -3.3992385    1.4737335   518400 
 1803000   0.98148594   -3.3974988   -3.3974988   -1.9252727  0.059189275   -3.3974988    1.4722261   518400 
 1804000   0.98352651   -3.3992939   -3.3992939   -1.9240069  0.058665257   -3.3992939    1.4752869   518400 
 1805000   0.98510197   -3.4011533   -3.4011533   -1.9235032  0.055693467   -3.4011533    1.4776501   518400 
 1806000   0.98469695   -3.4010737   -3.4010737   -1.9240311  0.059331974   -3.4010737    1.4770426   518400 
 1807000   0.98409796    -3.400482    -3.400482   -1.9243379   0.06458107    -3.400482    1.4761441   518400 
 1808000   0.98471196   -3.4029352   -3.4029352   -1.9258701  0.059787511   -3.4029352    1.4770651   518400 
 1809000   0.98551202   -3.4048338   -3.4048338   -1.9265686  0.056258816   -3.4048338    1.4782652   518400 
 1810000   0.98506356   -3.4026132   -3.4026132   -1.9250207  0.060982145   -3.4026132    1.4775925   518400 
 1811000   0.98390084   -3.4022932   -3.4022932   -1.9264448  0.053847497   -3.4022932    1.4758484   518400 
 1812000   0.98510993   -3.4037958   -3.4037958   -1.9261338  0.049222317   -3.4037958     1.477662   518400 
 1813000   0.98335143   -3.4003118   -3.4003118   -1.9252876  0.056237689   -3.4003118    1.4750243   518400 
 1814000   0.98389619   -3.4012002   -3.4012002   -1.9253587  0.062260623   -3.4012002    1.4758414   518400 
 1815000   0.98324579   -3.4004742   -3.4004742   -1.9256084  0.050523319   -3.4004742    1.4748658   518400 
 1816000   0.98415951   -3.4011336   -3.4011336   -1.9248972  0.060739726   -3.4011336    1.4762364   518400 
 1817000   0.98407298    -3.400725    -3.400725   -1.9246184  0.058584003    -3.400725    1.4761066   518400 
 1818000    0.9832261   -3.3994505   -3.3994505   -1.9246142   0.05489853   -3.3994505    1.4748363   518400 
 1819000   0.98397482   -3.4005462   -3.4005462   -1.9245868  0.060123385   -3.4005462    1.4759594   518400 
 1820000   0.98514264   -3.4013387   -3.4013387   -1.9236276  0.063649403   -3.4013387    1.4777111   518400 
 1821000   0.98461404   -3.3999747   -3.3999747   -1.9230565  0.057859684   -3.3999747    1.4769182   518400 
 1822000   0.98666358   -3.4015503   -3.4015503   -1.9215578  0.060996408   -3.4015503    1.4799925   518400 
 1823000   0.98501283    -3.399625    -3.399625   -1.9221086  0.060763955    -3.399625    1.4775164   518400 
 1824000   0.98718667    -3.401923    -3.401923   -1.9211458  0.061413708    -3.401923    1.4807772   518400 
 1825000   0.98569686   -3.4006498   -3.4006498   -1.9221074   0.05274501   -3.4006498    1.4785424   518400 
 1826000   0.98425323   -3.3972289   -3.3972289   -1.9208519   0.05614853   -3.3972289     1.476377   518400 
 1827000   0.98398557   -3.3981302   -3.3981302   -1.9221547  0.056389918   -3.3981302    1.4759755   518400 
 1828000   0.98376704   -3.3981891   -3.3981891   -1.9225414  0.055105109   -3.3981891    1.4756477   518400 
 1829000   0.98381812   -3.3976853   -3.3976853    -1.921961  0.058790147   -3.3976853    1.4757243   518400 
 1830000   0.98489548   -3.3995239   -3.3995239   -1.9221836  0.058139603   -3.3995239    1.4773404   518400 
 1831000   0.98450815   -3.3992354   -3.3992354    -1.922476  0.055054875   -3.3992354    1.4767594   518400 
 1832000   0.98370317   -3.3991886   -3.3991886   -1.9236367  0.059975988   -3.3991886    1.4755519   518400 
 1833000    0.9839206   -3.3986009   -3.3986009   -1.9227228  0.053132016   -3.3986009    1.4758781   518400 
 1834000   0.98546414   -3.4009359   -3.4009359   -1.9227426  0.059781002   -3.4009359    1.4781934   518400 
 1835000   0.98373806   -3.3995376   -3.3995376   -1.9239333  0.060454491   -3.3995376    1.4756042   518400 
 1836000   0.98433521   -3.4002932   -3.4002932   -1.9237932  0.054777644   -3.4002932       1.4765   518400 
 1837000   0.98491775   -3.4017507   -3.4017507   -1.9243769  0.056443034   -3.4017507    1.4773738   518400 
 1838000   0.98444696   -3.3988695   -3.3988695   -1.9222019  0.055840281   -3.3988695    1.4766676   518400 
 1839000   0.98656226   -3.4020269   -3.4020269   -1.9221864  0.057856688   -3.4020269    1.4798405   518400 
 1840000   0.98418952   -3.3987697   -3.3987697   -1.9224882  0.061476717   -3.3987697    1.4762814   518400 
 1841000   0.98543184     -3.40022     -3.40022   -1.9220751   0.05786198     -3.40022    1.4781449   518400 
 1842000   0.98575836   -3.4005765   -3.4005765   -1.9219418  0.058859813   -3.4005765    1.4786347   518400 
 1843000    0.9837855   -3.3988603   -3.3988603   -1.9231849  0.055170706   -3.3988603    1.4756754   518400 
 1844000   0.98491043   -3.3993792   -3.3993792   -1.9220164  0.059128952   -3.3993792    1.4773628   518400 
 1845000   0.98521078   -3.3991557   -3.3991557   -1.9213424  0.059128074   -3.3991557    1.4778133   518400 
 1846000   0.98565779    -3.399586    -3.399586   -1.9211022  0.061123255    -3.399586    1.4784838   518400 
 1847000   0.98584932    -3.400939    -3.400939   -1.9221679  0.053059785    -3.400939    1.4787711   518400 
 1848000   0.98470562   -3.3993612   -3.3993612   -1.9223056  0.054663233   -3.3993612    1.4770556   518400 
 1849000   0.98430555    -3.398307    -3.398307   -1.9218515  0.060242131    -3.398307    1.4764555   518400 
 1850000    0.9857807    -3.399456    -3.399456   -1.9207878   0.05438103    -3.399456    1.4786682   518400 
 1851000   0.98483787   -3.3972015   -3.3972015   -1.9199475  0.056170133   -3.3972015     1.477254   518400 
 1852000   0.98466536   -3.3978807   -3.3978807   -1.9208855  0.057472886   -3.3978807    1.4769952   518400 
 1853000   0.98550364   -3.3979776   -3.3979776    -1.919725  0.059215341   -3.3979776    1.4782526   518400 
 1854000   0.98551022   -3.3985785   -3.3985785   -1.9203161  0.062794399   -3.3985785    1.4782625   518400 
 1855000   0.98556117   -3.3984245   -3.3984245   -1.9200856  0.056268371   -3.3984245    1.4783389   518400 
 1856000   0.98560638    -3.398721    -3.398721   -1.9203143  0.060295761    -3.398721    1.4784067   518400 
 1857000   0.98653117     -3.39973     -3.39973   -1.9199361  0.057228241     -3.39973    1.4797939   518400 
 1858000   0.98591432   -3.3972015   -3.3972015   -1.9183329  0.054928329   -3.3972015    1.4788686   518400 
 1859000   0.98497382   -3.3970697   -3.3970697   -1.9196118  0.055312789   -3.3970697    1.4774579   518400 
 1860000   0.98406778   -3.3958065   -3.3958065   -1.9197077   0.05951588   -3.3958065    1.4760988   518400 
 1861000   0.98355291   -3.3949005   -3.3949005    -1.919574  0.057016401   -3.3949005    1.4753265   518400 
 1862000   0.98363214   -3.3955841   -3.3955841   -1.9201387  0.053730988   -3.3955841    1.4754454   518400 
 1863000   0.98372527   -3.3953983   -3.3953983   -1.9198132  0.060262976   -3.3953983    1.4755851   518400 
 1864000   0.98472058   -3.3969381   -3.3969381     -1.91986   0.05796618   -3.3969381     1.477078   518400 
 1865000   0.98520767   -3.3974169   -3.3974169   -1.9196082  0.058618529   -3.3974169    1.4778087   518400 
 1866000   0.98398626   -3.3965199   -3.3965199   -1.9205434  0.056073582   -3.3965199    1.4759765   518400 
 1867000   0.98509773   -3.3987536   -3.3987536   -1.9211098  0.060393116   -3.3987536    1.4776437   518400 
 1868000   0.98539246    -3.398757    -3.398757   -1.9206711   0.06122252    -3.398757    1.4780858   518400 
 1869000   0.98556149   -3.3977041   -3.3977041   -1.9193647   0.05427741   -3.3977041    1.4783394   518400 
 1870000   0.98669461   -3.3994013   -3.3994013   -1.9193622   0.05510878   -3.3994013    1.4800391   518400 
 1871000   0.98464476   -3.3960358   -3.3960358   -1.9190715  0.056437556   -3.3960358    1.4769643   518400 
 1872000   0.98371297   -3.3944488   -3.3944488   -1.9188822  0.056330084   -3.3944488    1.4755666   518400 
 1873000   0.98417061   -3.3948705   -3.3948705   -1.9186174  0.052617776   -3.3948705    1.4762531   518400 
 1874000   0.98360241   -3.3943541   -3.3943541   -1.9189534  0.059374918   -3.3943541    1.4754008   518400 
 1875000   0.98398414   -3.3962859   -3.3962859   -1.9203125  0.050803396   -3.3962859    1.4759734   518400 
 1876000   0.98323933   -3.3946686   -3.3946686   -1.9198125  0.057956798   -3.3946686    1.4748562   518400 
 1877000     0.984987   -3.3973036   -3.3973036    -1.919826  0.052965843   -3.3973036    1.4774777   518400 
 1878000   0.98582055   -3.3984257   -3.3984257   -1.9196977  0.060279606   -3.3984257     1.478728   518400 
 1879000   0.98705999   -3.3999578   -3.3999578   -1.9193706  0.059106683   -3.3999578    1.4805871   518400 
 1880000   0.98656443    -3.398622    -3.398622   -1.9187782  0.062102702    -3.398622    1.4798438   518400 
 1881000   0.98559278   -3.3977132   -3.3977132   -1.9193269  0.062109669   -3.3977132    1.4783863   518400 
 1882000    0.9875582   -3.4010073   -3.4010073   -1.9196729  0.056329977   -3.4010073    1.4813344   518400 
 1883000    0.9851301    -3.397084    -3.397084   -1.9193917  0.060772961    -3.397084    1.4776923   518400 
 1884000   0.98605923   -3.3984534   -3.3984534   -1.9193674   0.06193433   -3.3984534     1.479086   518400 
 1885000   0.98586093   -3.3973619   -3.3973619   -1.9185734  0.058969933   -3.3973619    1.4787885   518400 
 1886000   0.98486568   -3.3964494   -3.3964494   -1.9191537  0.056350634   -3.3964494    1.4772957   518400 
 1887000   0.98519543   -3.3976321   -3.3976321   -1.9198418  0.051442134   -3.3976321    1.4777903   518400 
 1888000   0.98663315   -3.3999487   -3.3999487   -1.9200018  0.052871735   -3.3999487    1.4799469   518400 
 1889000   0.98626401   -3.3980199   -3.3980199   -1.9186267  0.056907693   -3.3980199    1.4793932   518400 
 1890000    0.9854264   -3.3974973   -3.3974973   -1.9193606  0.056291707   -3.3974973    1.4781367   518400 
 1891000   0.98358185   -3.3952802   -3.3952802   -1.9199103  0.056830914   -3.3952802    1.4753699   518400 
 1892000   0.98461801   -3.3967172   -3.3967172    -1.919793  0.059855369   -3.3967172    1.4769242   518400 
 1893000   0.98638827   -3.3981798   -3.3981798   -1.9186003  0.062200695   -3.3981798    1.4795796   518400 
 1894000   0.98750805   -3.3999171   -3.3999171   -1.9186579  0.060331843   -3.3999171    1.4812592   518400 
 1895000   0.98715461   -3.3991505   -3.3991505   -1.9184214  0.060116317   -3.3991505    1.4807291   518400 
 1896000   0.98476758   -3.3949447   -3.3949447   -1.9177961  0.060199728   -3.3949447    1.4771485   518400 
 1897000   0.98518027   -3.3961585   -3.3961585   -1.9183909  0.060717197   -3.3961585    1.4777675   518400 
 1898000   0.98405973   -3.3939625   -3.3939625   -1.9178758  0.056273263   -3.3939625    1.4760867   518400 
 1899000   0.98431841   -3.3939479   -3.3939479   -1.9174731  0.054381914   -3.3939479    1.4764748   518400 
 1900000    0.9859776   -3.3963025   -3.3963025   -1.9173389  0.058002966   -3.3963025    1.4789635   518400 
 1901000   0.98687698   -3.3968169   -3.3968169   -1.9165043  0.049461826   -3.3968169    1.4803126   518400 
 1902000    0.9857527   -3.3961734   -3.3961734   -1.9175472  0.054552594   -3.3961734    1.4786262   518400 
 1903000   0.98556573   -3.3956865   -3.3956865   -1.9173407  0.055060186   -3.3956865    1.4783457   518400 
 1904000   0.98455283   -3.3947637   -3.3947637   -1.9179374  0.053275977   -3.3947637    1.4768264   518400 
 1905000   0.98558114   -3.3981511   -3.3981511   -1.9197822  0.054655299   -3.3981511    1.4783689   518400 
 1906000   0.98577783    -3.397538    -3.397538   -1.9188741  0.056237331    -3.397538    1.4786639   518400 
 1907000   0.98705771   -3.3990864   -3.3990864   -1.9185026   0.05160692   -3.3990864    1.4805837   518400 
 1908000   0.98400033   -3.3946641   -3.3946641   -1.9186665  0.055703958   -3.3946641    1.4759976   518400 
 1909000   0.98631491   -3.3974791   -3.3974791   -1.9180096  0.055222915   -3.3974791    1.4794695   518400 
 1910000   0.98686637   -3.3975286   -3.3975286   -1.9172319  0.056888813   -3.3975286    1.4802967   518400 
 1911000    0.9851599   -3.3969459   -3.3969459   -1.9192089  0.061190273   -3.3969459     1.477737   518400 
 1912000   0.98513229   -3.3966111   -3.3966111   -1.9189156  0.060514326   -3.3966111    1.4776956   518400 
 1913000    0.9863727   -3.3984157   -3.3984157   -1.9188595  0.052847334   -3.3984157    1.4795562   518400 
 1914000   0.98463274   -3.3959201   -3.3959201   -1.9189739  0.052871446   -3.3959201    1.4769463   518400 
 1915000   0.98452699   -3.3955746   -3.3955746    -1.918787  0.053668248   -3.3955746    1.4767876   518400 
 1916000    0.9837521   -3.3935338   -3.3935338   -1.9179084  0.052810086   -3.3935338    1.4756253   518400 
 1917000   0.98501166    -3.395345    -3.395345   -1.9178304  0.057883621    -3.395345    1.4775146   518400 
 1918000   0.98583757   -3.3963139   -3.3963139   -1.9175604  0.054378542   -3.3963139    1.4787535   518400 
 1919000   0.98659932   -3.3971199   -3.3971199   -1.9172238  0.058044011   -3.3971199    1.4798961   518400 
 1920000   0.98510278   -3.3948954   -3.3948954   -1.9172441  0.059561753   -3.3948954    1.4776513   518400 
 1921000   0.98566009   -3.3954211   -3.3954211   -1.9169338  0.055186549   -3.3954211    1.4784873   518400 
 1922000    0.9860637   -3.3962399   -3.3962399   -1.9171472  0.060792737   -3.3962399    1.4790927   518400 
 1923000   0.98497865   -3.3946885   -3.3946885   -1.9172234  0.059020084   -3.3946885    1.4774651   518400 
 1924000   0.98440662    -3.392465    -3.392465   -1.9158579  0.056805406    -3.392465    1.4766071   518400 
 1925000   0.98621315    -3.395142    -3.395142   -1.9158252  0.057139448    -3.395142    1.4793169   518400 
 1926000   0.98514759   -3.3946238   -3.3946238   -1.9169053  0.055506673   -3.3946238    1.4777185   518400 
 1927000   0.98527141   -3.3948639   -3.3948639   -1.9169596  0.056204937   -3.3948639    1.4779043   518400 
 1928000   0.98703053   -3.3970713   -3.3970713   -1.9165284   0.05576649   -3.3970713    1.4805429   518400 
 1929000   0.98514407    -3.396338    -3.396338   -1.9186247  0.060950896    -3.396338    1.4777133   518400 
 1930000   0.98501949   -3.3965309   -3.3965309   -1.9190046  0.054461101   -3.3965309    1.4775264   518400 
 1931000   0.98547414   -3.3969506   -3.3969506   -1.9187422  0.058873151   -3.3969506    1.4782084   518400 
 1932000   0.98465528   -3.3950627   -3.3950627   -1.9180827   0.05704183   -3.3950627    1.4769801   518400 
 1933000   0.98477743   -3.3958405   -3.3958405   -1.9186772  0.056385751   -3.3958405    1.4771633   518400 
 1934000   0.98355046   -3.3948518   -3.3948518    -1.919529   0.05286166   -3.3948518    1.4753228   518400 
 1935000    0.9847627   -3.3940895   -3.3940895   -1.9169483  0.058044028   -3.3940895    1.4771412   518400 
 1936000   0.98581308   -3.3959127   -3.3959127   -1.9171959  0.057145208   -3.3959127    1.4787168   518400 
 1937000   0.98359494   -3.3930679   -3.3930679   -1.9176783  0.059830949   -3.3930679    1.4753896   518400 
 1938000   0.98372525   -3.3927011   -3.3927011    -1.917116   0.05033872   -3.3927011     1.475585   518400 
 1939000   0.98476183   -3.3935143   -3.3935143   -1.9163744  0.054920026   -3.3935143    1.4771399   518400 
 1940000    0.9838039   -3.3920947   -3.3920947   -1.9163917  0.058046894   -3.3920947     1.475703   518400 
 1941000    0.9850585   -3.3928364   -3.3928364   -1.9152515  0.058284511   -3.3928364    1.4775849   518400 
 1942000   0.98633824   -3.3951442   -3.3951442   -1.9156397  0.059462008   -3.3951442    1.4795045   518400 
 1943000    0.9862192   -3.3935385   -3.3935385   -1.9142126  0.056846895   -3.3935385     1.479326   518400 
 1944000   0.98554963   -3.3923961   -3.3923961   -1.9140745  0.062655261   -3.3923961    1.4783216   518400 
 1945000   0.98672192   -3.3949186   -3.3949186   -1.9148385   0.05982265   -3.3949186      1.48008   518400 
 1946000   0.98711937   -3.3960212   -3.3960212    -1.915345  0.057592179   -3.3960212    1.4806762   518400 
 1947000   0.98596827   -3.3953673   -3.3953673   -1.9164177  0.060104184   -3.3953673    1.4789495   518400 
 1948000   0.98593455   -3.3955894   -3.3955894   -1.9166905  0.052138056   -3.3955894     1.478899   518400 
 1949000   0.98583096   -3.3965175   -3.3965175   -1.9177739  0.057421454   -3.3965175    1.4787436   518400 
 1950000   0.98597235   -3.3976104   -3.3976104   -1.9186547  0.059583648   -3.3976104    1.4789557   518400 
 1951000   0.98481586   -3.3953362   -3.3953362   -1.9181152  0.061881678   -3.3953362    1.4772209   518400 
 1952000   0.98555722   -3.3961978   -3.3961978   -1.9178649  0.054644518   -3.3961978     1.478333   518400 
 1953000   0.98457875    -3.393953    -3.393953   -1.9170877  0.056005522    -3.393953    1.4768653   518400 
 1954000    0.9854439   -3.3952486   -3.3952486   -1.9170856  0.051065508   -3.3952486     1.478163   518400 
 1955000   0.98570383   -3.3956298   -3.3956298   -1.9170769  0.056580827   -3.3956298    1.4785529   518400 
 1956000   0.98601417   -3.3957313   -3.3957313   -1.9167129  0.058762906   -3.3957313    1.4790184   518400 
 1957000     0.987465   -3.3980096   -3.3980096    -1.916815   0.05819725   -3.3980096    1.4811946   518400 
 1958000   0.98567861   -3.3949894   -3.3949894   -1.9164744  0.059927483   -3.3949894    1.4785151   518400 
 1959000   0.98661688   -3.3971248   -3.3971248   -1.9172023  0.064095191   -3.3971248    1.4799225   518400 
 1960000   0.98615565   -3.3961733   -3.3961733   -1.9169427  0.062247898   -3.3961733    1.4792306   518400 
 1961000   0.98576465    -3.395318    -3.395318   -1.9166739  0.061188479    -3.395318    1.4786441   518400 
 1962000   0.98585821   -3.3952818   -3.3952818   -1.9164974  0.055624318   -3.3952818    1.4787845   518400 
 1963000   0.98560628   -3.3946433   -3.3946433   -1.9162367    0.0579143   -3.3946433    1.4784066   518400 
 1964000   0.98654234   -3.3948623   -3.3948623   -1.9150517  0.055009786   -3.3948623    1.4798107   518400 
 1965000   0.98589895   -3.3937307   -3.3937307   -1.9148852  0.054054172   -3.3937307    1.4788456   518400 
 1966000   0.98612806    -3.393211    -3.393211   -1.9140217  0.053351748    -3.393211    1.4791892   518400 
 1967000   0.98660879   -3.3946539   -3.3946539   -1.9147436   0.06012982   -3.3946539    1.4799103   518400 
 1968000   0.98758892   -3.3965512   -3.3965512   -1.9151707  0.055698834   -3.3965512    1.4813805   518400 
 1969000   0.98577369   -3.3940563   -3.3940563   -1.9153986  0.058237801   -3.3940563    1.4786577   518400 
 1970000   0.98581023   -3.3934199   -3.3934199   -1.9147074  0.057910685   -3.3934199    1.4787125   518400 
 1971000   0.98564153   -3.3934033   -3.3934033   -1.9149438  0.063470317   -3.3934033    1.4784594   518400 
 1972000   0.98570327   -3.3938432   -3.3938432   -1.9152911  0.057507453   -3.3938432     1.478552   518400 
 1973000   0.98527757   -3.3929915   -3.3929915    -1.915078  0.053651049   -3.3929915    1.4779135   518400 
 1974000   0.98594909   -3.3948195   -3.3948195   -1.9158987  0.059827644   -3.3948195    1.4789208   518400 
 1975000   0.98554992   -3.3936049   -3.3936049   -1.9152829  0.060324653   -3.3936049     1.478322   518400 
 1976000   0.98683886   -3.3947407   -3.3947407   -1.9144853  0.059627387   -3.3947407    1.4802554   518400 
 1977000   0.98556788   -3.3921774   -3.3921774   -1.9138284  0.060774102   -3.3921774     1.478349   518400 
 1978000   0.98544438   -3.3924153   -3.3924153   -1.9142516    0.0581131   -3.3924153    1.4781637   518400 
 1979000   0.98557646   -3.3942644   -3.3942644   -1.9159025  0.051099458   -3.3942644    1.4783618   518400 
 1980000   0.98683188   -3.3961151   -3.3961151   -1.9158701  0.056198789   -3.3961151     1.480245   518400 
 1981000   0.98604286   -3.3944597   -3.3944597   -1.9153983  0.064615064   -3.3944597    1.4790614   518400 
 1982000   0.98640748   -3.3941914   -3.3941914   -1.9145831  0.059667901   -3.3941914    1.4796084   518400 
 1983000   0.98636814   -3.3945447   -3.3945447   -1.9149954   0.05792618   -3.3945447    1.4795494   518400 
 1984000   0.98566559   -3.3941515   -3.3941515   -1.9156559  0.060881665   -3.3941515    1.4784955   518400 
 1985000   0.98690351    -3.395031    -3.395031   -1.9146786  0.058688763    -3.395031    1.4803524   518400 
 1986000   0.98630425   -3.3941969   -3.3941969   -1.9147434  0.064419713   -3.3941969    1.4794535   518400 
 1987000   0.98727831   -3.3951862   -3.3951862   -1.9142716  0.063182769   -3.3951862    1.4809146   518400 
 1988000   0.98656235   -3.3943907   -3.3943907     -1.91455  0.066445491   -3.3943907    1.4798407   518400 
 1989000   0.98754222   -3.3946907   -3.3946907   -1.9133802  0.059955921   -3.3946907    1.4813105   518400 
 1990000   0.98567243   -3.3923941   -3.3923941   -1.9138883  0.058189138   -3.3923941    1.4785058   518400 
 1991000   0.98464222   -3.3908382   -3.3908382   -1.9138778  0.054242966   -3.3908382    1.4769605   518400 
 1992000   0.98515154   -3.3926069   -3.3926069   -1.9148825  0.056113696   -3.3926069    1.4777245   518400 
 1993000   0.98603073   -3.3935677   -3.3935677   -1.9145244  0.059830007   -3.3935677    1.4790432   518400 
 1994000   0.98389824   -3.3901306   -3.3901306   -1.9142861   0.06341903   -3.3901306    1.4758445   518400 
 1995000   0.98659915   -3.3942974   -3.3942974   -1.9144015  0.054514592   -3.3942974    1.4798959   518400 
 1996000   0.98720699   -3.3948768   -3.3948768   -1.9140692  0.056374745   -3.3948768    1.4808076   518400 
 1997000    0.9857427   -3.3920769   -3.3920769   -1.9134657  0.056243733   -3.3920769    1.4786112   518400 
 1998000   0.98623544   -3.3930788   -3.3930788   -1.9137285  0.057225495   -3.3930788    1.4793503   518400 
 1999000   0.98814392   -3.3956763   -3.3956763   -1.9134633  0.063882291   -3.3956763     1.482213   518400 
 2000000   0.98726848    -3.394984    -3.394984   -1.9140842  0.061367631    -3.394984    1.4808999   518400 
 2001000   0.98812463   -3.3967918   -3.3967918   -1.9146078  0.062731711   -3.3967918    1.4821841   518400 
 2002000   0.98596783   -3.3941302   -3.3941302   -1.9151813   0.06075459   -3.3941302    1.4789489   518400 
 2003000   0.98553124   -3.3932694   -3.3932694   -1.9149754  0.054027108   -3.3932694     1.478294   518400 
 2004000   0.98612236   -3.3930184   -3.3930184   -1.9138377  0.050514196   -3.3930184    1.4791807   518400 
 2005000   0.98498332   -3.3909368   -3.3909368   -1.9134646  0.058734979   -3.3909368    1.4774721   518400 
 2006000   0.98569277     -3.39078     -3.39078   -1.9122436  0.059345419     -3.39078    1.4785363   518400 
 2007000   0.98559249   -3.3909971   -3.3909971   -1.9126113  0.052028998   -3.3909971    1.4783859   518400 
 2008000   0.98485782   -3.3895216   -3.3895216   -1.9122377  0.050455071   -3.3895216    1.4772839   518400 
 2009000   0.98437798   -3.3888935   -3.3888935   -1.9123294  0.055526073   -3.3888935    1.4765641   518400 
 2010000   0.98447943   -3.3889184   -3.3889184   -1.9122021   0.06043222   -3.3889184    1.4767163   518400 
 2011000   0.98528863   -3.3898772   -3.3898772   -1.9119471  0.056644897   -3.3898772    1.4779301   518400 
 2012000   0.98739051   -3.3937467   -3.3937467   -1.9126638  0.054324307   -3.3937467    1.4810829   518400 
 2013000   0.98479124   -3.3894395   -3.3894395   -1.9122555  0.059528839   -3.3894395     1.477184   518400 
 2014000    0.9871468   -3.3930873   -3.3930873     -1.91237  0.062478168   -3.3930873    1.4807173   518400 
 2015000   0.98594889   -3.3927689   -3.3927689   -1.9138484   0.05598695   -3.3927689    1.4789205   518400 
 2016000   0.98679821   -3.3932219   -3.3932219   -1.9130275  0.060609967   -3.3932219    1.4801945   518400 
 2017000   0.98696401   -3.3933302   -3.3933302    -1.912887  0.059932158   -3.3933302    1.4804432   518400 
 2018000   0.98711966   -3.3915814   -3.3915814   -1.9109048  0.065286692   -3.3915814    1.4806766   518400 
 2019000   0.98433735   -3.3893845   -3.3893845   -1.9128813  0.058955932   -3.3893845    1.4765032   518400 
 2020000   0.98542374   -3.3924024   -3.3924024   -1.9142696  0.054745118   -3.3924024    1.4781328   518400 
 2021000   0.98496606   -3.3911031   -3.3911031   -1.9136569  0.056874044   -3.3911031    1.4774462   518400 
 2022000   0.98466569   -3.3902019   -3.3902019   -1.9132063  0.053569243   -3.3902019    1.4769957   518400 
 2023000    0.9840221   -3.3897014   -3.3897014   -1.9136711  0.055540972   -3.3897014    1.4760303   518400 
 2024000   0.98584456    -3.391955    -3.391955   -1.9131911  0.055256141    -3.391955     1.478764   518400 
 2025000   0.98494833   -3.3910806   -3.3910806   -1.9136609  0.061357185   -3.3910806    1.4774197   518400 
 2026000   0.98585182   -3.3920857   -3.3920857   -1.9133108    0.0558341   -3.3920857    1.4787749   518400 
 2027000   0.98763078   -3.3941736   -3.3941736   -1.9127303   0.06171541   -3.3941736    1.4814433   518400 
 2028000   0.98668456   -3.3930666   -3.3930666   -1.9130426  0.066553172   -3.3930666     1.480024   518400 
 2029000   0.98522811   -3.3900828   -3.3900828   -1.9122435  0.051844174   -3.3900828    1.4778393   518400 
 2030000   0.98727823    -3.392616    -3.392616   -1.9117016  0.061536154    -3.392616    1.4809145   518400 
 2031000   0.98535747   -3.3903943   -3.3903943    -1.912361  0.059554883   -3.3903943    1.4780334   518400 
 2032000   0.98544061   -3.3896765   -3.3896765   -1.9115184  0.056864972   -3.3896765    1.4781581   518400 
 2033000   0.98492156   -3.3883212   -3.3883212   -1.9109417   0.05433255   -3.3883212    1.4773795   518400 
 2034000   0.98651071    -3.390472    -3.390472   -1.9107088  0.049860824    -3.390472    1.4797632   518400 
 2035000   0.98675773    -3.391721    -3.391721   -1.9115873   0.05439225    -3.391721    1.4801337   518400 
 2036000   0.98640077    -3.391162    -3.391162   -1.9115637  0.050752304    -3.391162    1.4795983   518400 
 2037000   0.98588603   -3.3893218   -3.3893218   -1.9104956  0.055891931   -3.3893218    1.4788262   518400 
 2038000   0.98602674   -3.3896023   -3.3896023    -1.910565  0.055259204   -3.3896023    1.4790373   518400 
 2039000   0.98721154   -3.3918246   -3.3918246   -1.9110102  0.054431986   -3.3918246    1.4808145   518400 
 2040000   0.98713743   -3.3911322   -3.3911322   -1.9104289  0.061187793   -3.3911322    1.4807033   518400 
 2041000   0.98675916   -3.3906838   -3.3906838   -1.9105479  0.058644793   -3.3906838    1.4801359   518400 
 2042000   0.98593051   -3.3895872   -3.3895872   -1.9106943   0.05722121   -3.3895872    1.4788929   518400 
 2043000   0.98659717   -3.3901177   -3.3901177   -1.9102248  0.062514191   -3.3901177    1.4798929   518400 
 2044000   0.98667406   -3.3897996   -3.3897996   -1.9097913  0.056401141   -3.3897996    1.4800082   518400 
 2045000   0.98505031   -3.3883844   -3.3883844   -1.9108117  0.057100719   -3.3883844    1.4775726   518400 
 2046000   0.98751199   -3.3914935   -3.3914935   -1.9102284  0.056021185   -3.3914935    1.4812651   518400 
 2047000   0.98603608   -3.3892619   -3.3892619   -1.9102106  0.052908269   -3.3892619    1.4790513   518400 
 2048000   0.98520258    -3.389747    -3.389747    -1.911946  0.057732377    -3.389747     1.477801   518400 
 2049000   0.98419825   -3.3883061   -3.3883061   -1.9120115  0.056393239   -3.3883061    1.4762945   518400 
 2050000   0.98356768   -3.3885735   -3.3885735   -1.9132248  0.057566127   -3.3885735    1.4753487   518400 
 2051000   0.98579764   -3.3909616   -3.3909616    -1.912268  0.058311272   -3.3909616    1.4786936   518400 
 2052000   0.98554498    -3.390932    -3.390932   -1.9126173  0.053749917    -3.390932    1.4783146   518400 
 2053000   0.98575808   -3.3903076   -3.3903076   -1.9116733  0.063351123   -3.3903076    1.4786343   518400 
 2054000   0.98560782   -3.3907159   -3.3907159    -1.912307  0.054213188   -3.3907159    1.4784089   518400 
 2055000   0.98614829   -3.3915493   -3.3915493   -1.9123297  0.059574675   -3.3915493    1.4792196   518400 
 2056000   0.98686582   -3.3913369   -3.3913369    -1.911041  0.064210968   -3.3913369    1.4802959   518400 
 2057000   0.98707857   -3.3935367   -3.3935367   -1.9129217  0.052147344   -3.3935367     1.480615   518400 
 2058000   0.98722857   -3.3936023   -3.3936023   -1.9127623  0.053625249   -3.3936023      1.48084   518400 
 2059000   0.98629491   -3.3928377   -3.3928377   -1.9133982  0.063127966   -3.3928377    1.4794395   518400 
 2060000   0.98669324   -3.3923083   -3.3923083   -1.9122713  0.053022461   -3.3923083     1.480037   518400 
 2061000   0.98525048   -3.3905261   -3.3905261   -1.9126532  0.048099958   -3.3905261    1.4778729   518400 
 2062000   0.98523725   -3.3887961   -3.3887961    -1.910943  0.057953859   -3.3887961     1.477853   518400 
 2063000   0.98566539   -3.3898023   -3.3898023   -1.9113071  0.051228228   -3.3898023    1.4784952   518400 
 2064000   0.98695362   -3.3921667   -3.3921667   -1.9117392  0.057887307   -3.3921667    1.4804276   518400 
 2065000   0.98701203   -3.3919895   -3.3919895   -1.9114743  0.056645155   -3.3919895    1.4805152   518400 
 2066000   0.98776244   -3.3942978   -3.3942978    -1.912657  0.061581993   -3.3942978    1.4816408   518400 
 2067000   0.98675808    -3.392731    -3.392731   -1.9125967  0.054152559    -3.392731    1.4801343   518400 
 2068000   0.98584503   -3.3905612   -3.3905612   -1.9117965  0.062200647   -3.3905612    1.4787647   518400 
 2069000    0.9866948   -3.3928993   -3.3928993   -1.9128599  0.062054471   -3.3928993    1.4800393   518400 
 2070000   0.98744981   -3.3943425   -3.3943425   -1.9131706  0.061848551   -3.3943425    1.4811719   518400 
 2071000   0.98530118   -3.3911006   -3.3911006   -1.9131517  0.057508492   -3.3911006    1.4779489   518400 
 2072000   0.98670903   -3.3925698   -3.3925698   -1.9125091  0.060893155   -3.3925698    1.4800607   518400 
 2073000   0.98733913   -3.3944715   -3.3944715   -1.9134657  0.064110109   -3.3944715    1.4810058   518400 
 2074000   0.98659474    -3.394284    -3.394284   -1.9143947  0.052560489    -3.394284    1.4798893   518400 
 2075000   0.98563567   -3.3946298   -3.3946298   -1.9161792    0.0582229   -3.3946298    1.4784506   518400 
 2076000   0.98583505   -3.3952169   -3.3952169   -1.9164672  0.054211578   -3.3952169    1.4787497   518400 
 2077000   0.98456226   -3.3929339   -3.3929339   -1.9160934  0.051386085   -3.3929339    1.4768405   518400 
 2078000   0.98675466   -3.3944786   -3.3944786   -1.9143495  0.052463292   -3.3944786    1.4801291   518400 
 2079000   0.98557297   -3.3930961   -3.3930961   -1.9147395   0.05561067   -3.3930961    1.4783566   518400 
 2080000   0.98628177   -3.3938365   -3.3938365   -1.9144167  0.057199092   -3.3938365    1.4794198   518400 
 2081000   0.98567425   -3.3919363   -3.3919363   -1.9134277  0.056459375   -3.3919363    1.4785085   518400 
 2082000   0.98550488   -3.3913188   -3.3913188   -1.9130644  0.061042498   -3.3913188    1.4782545   518400 
 2083000   0.98605695   -3.3911358   -3.3911358   -1.9120532  0.052602541   -3.3911358    1.4790826   518400 
 2084000   0.98587835   -3.3901919   -3.3901919   -1.9113772  0.065422057   -3.3901919    1.4788147   518400 
 2085000   0.98611941   -3.3900075   -3.3900075   -1.9108312  0.059718766   -3.3900075    1.4791763   518400 
 2086000   0.98605438   -3.3900325   -3.3900325   -1.9109538  0.054262755   -3.3900325    1.4790787   518400 
 2087000    0.9856514    -3.389572    -3.389572   -1.9110978  0.051614241    -3.389572    1.4784742   518400 
 2088000   0.98458714    -3.387596    -3.387596   -1.9107181  0.056888704    -3.387596    1.4768779   518400 
 2089000   0.98644608    -3.389552    -3.389552   -1.9098858  0.055584187    -3.389552    1.4796663   518400 
 2090000   0.98532373   -3.3893702   -3.3893702   -1.9113874  0.049192907   -3.3893702    1.4779827   518400 
 2091000   0.98441492   -3.3871552   -3.3871552   -1.9105357  0.059692883   -3.3871552    1.4766195   518400 
 2092000   0.98576818   -3.3888137   -3.3888137   -1.9101643  0.051985954   -3.3888137    1.4786494   518400 
 2093000    0.9850729   -3.3875521   -3.3875521   -1.9099456  0.058156707   -3.3875521    1.4776065   518400 
 2094000   0.98661776   -3.3894666   -3.3894666   -1.9095429  0.056414436   -3.3894666    1.4799238   518400 
 2095000   0.98785228    -3.390951    -3.390951   -1.9091754  0.054925207    -3.390951    1.4817756   518400 
 2096000   0.98629202   -3.3884402   -3.3884402    -1.909005  0.059035994   -3.3884402    1.4794352   518400 
 2097000   0.98638142   -3.3897347   -3.3897347   -1.9101654  0.058787821   -3.3897347    1.4795693   518400 
 2098000    0.9859038   -3.3897462   -3.3897462   -1.9108934  0.057279142   -3.3897462    1.4788528   518400 
 2099000   0.98622704   -3.3904278   -3.3904278   -1.9110901  0.056226591   -3.3904278    1.4793377   518400 
 2100000   0.98618876   -3.3909923   -3.3909923    -1.911712  0.056876232   -3.3909923    1.4792803   518400 
 2101000   0.98728229    -3.392742    -3.392742   -1.9118215  0.052523242    -3.392742    1.4809206   518400 
 2102000    0.9854599   -3.3907337   -3.3907337   -1.9125467   0.05802696   -3.3907337     1.478187   518400 
 2103000   0.98676402   -3.3923704   -3.3923704   -1.9122272  0.053667587   -3.3923704    1.4801432   518400 
 2104000   0.98680362   -3.3916419   -3.3916419   -1.9114393  0.052437041   -3.3916419    1.4802026   518400 
 2105000   0.98663249   -3.3913187   -3.3913187   -1.9113729  0.058896805   -3.3913187    1.4799459   518400 
 2106000   0.98650113   -3.3917063   -3.3917063   -1.9119575   0.05461797   -3.3917063    1.4797488   518400 
 2107000   0.98447256   -3.3884733   -3.3884733   -1.9117673  0.055534357   -3.3884733     1.476706   518400 
 2108000   0.98661956   -3.3920184   -3.3920184   -1.9120919  0.056374534   -3.3920184    1.4799265   518400 
 2109000   0.98595157   -3.3915415   -3.3915415    -1.912617   0.05456179   -3.3915415    1.4789245   518400 
 2110000   0.98702746    -3.392848    -3.392848   -1.9123097  0.057878504    -3.392848    1.4805383   518400 
 2111000   0.98626007    -3.392057    -3.392057   -1.9126697  0.060949728    -3.392057    1.4793872   518400 
 2112000   0.98535785   -3.3902662   -3.3902662   -1.9122323  0.059078525   -3.3902662    1.4780339   518400 
 2113000   0.98697592   -3.3915458   -3.3915458   -1.9110848  0.058581715   -3.3915458     1.480461   518400 
 2114000   0.98766917   -3.3905892   -3.3905892   -1.9090883  0.062111149   -3.3905892    1.4815009   518400 
 2115000   0.98757148   -3.3910425   -3.3910425   -1.9096882  0.059771418   -3.3910425    1.4813544   518400 
 2116000   0.98712119     -3.39163     -3.39163   -1.9109511  0.056532755     -3.39163    1.4806789   518400 
 2117000   0.98719508   -3.3913907   -3.3913907    -1.910601  0.058291493   -3.3913907    1.4807898   518400 
 2118000   0.98541026   -3.3879626   -3.3879626   -1.9098501  0.061883781   -3.3879626    1.4781125   518400 
 2119000   0.98716124   -3.3909019   -3.3909019   -1.9101629  0.055097595   -3.3909019     1.480739   518400 
 2120000   0.98618373   -3.3903282   -3.3903282   -1.9110555  0.058578324   -3.3903282    1.4792727   518400 
 2121000   0.98434705   -3.3879012   -3.3879012   -1.9113834  0.054922953   -3.3879012    1.4765177   518400 
 2122000   0.98591652   -3.3907338   -3.3907338   -1.9118619  0.056992404   -3.3907338    1.4788719   518400 
 2123000   0.98511171   -3.3884947   -3.3884947     -1.91083  0.054914484   -3.3884947    1.4776647   518400 
 2124000    0.9853656   -3.3889051   -3.3889051   -1.9108595   0.05842232   -3.3889051    1.4780456   518400 
 2125000   0.98720875   -3.3908395   -3.3908395   -1.9100292  0.051721341   -3.3908395    1.4808103   518400 
 2126000   0.98838646   -3.3916539   -3.3916539   -1.9090771  0.055888984   -3.3916539    1.4825768   518400 
 2127000   0.98691127   -3.3902547   -3.3902547   -1.9098907   0.05797375   -3.3902547     1.480364   518400 
 2128000   0.98682071   -3.3899929   -3.3899929   -1.9097647  0.058280538   -3.3899929    1.4802282   518400 
 2129000   0.98650875     -3.39008     -3.39008   -1.9103198   0.05742139     -3.39008    1.4797603   518400 
 2130000   0.98692726   -3.3907573   -3.3907573   -1.9103692  0.063537389   -3.3907573     1.480388   518400 
 2131000   0.98712474   -3.3913254   -3.3913254   -1.9106412   0.05787124   -3.3913254    1.4806843   518400 
 2132000    0.9873373    -3.391948    -3.391948   -1.9109449  0.056792068    -3.391948    1.4810031   518400 
 2133000      0.98825    -3.392814    -3.392814   -1.9104418  0.058186728    -3.392814    1.4823721   518400 
 2134000   0.98882804   -3.3947787   -3.3947787   -1.9115395   0.05423116   -3.3947787    1.4832392   518400 
 2135000   0.98707189    -3.391307    -3.391307    -1.910702  0.053061822    -3.391307     1.480605   518400 
 2136000   0.98639983   -3.3909353   -3.3909353   -1.9113384  0.052482974   -3.3909353    1.4795969   518400 
 2137000   0.98586395    -3.389896    -3.389896   -1.9111029  0.056125352    -3.389896    1.4787931   518400 
 2138000   0.98474449   -3.3885036   -3.3885036   -1.9113897  0.059122818   -3.3885036    1.4771139   518400 
 2139000   0.98683946   -3.3918248   -3.3918248   -1.9115685  0.060634792   -3.3918248    1.4802563   518400 
 2140000   0.98502237   -3.3883167   -3.3883167    -1.910786   0.05757886   -3.3883167    1.4775307   518400 
 2141000   0.98625978   -3.3895144   -3.3895144   -1.9101276  0.054728342   -3.3895144    1.4793868   518400 
 2142000   0.98646201   -3.3912811   -3.3912811    -1.911591  0.059315864   -3.3912811    1.4796902   518400 
 2143000   0.98633237   -3.3904023   -3.3904023   -1.9109066  0.059741366   -3.3904023    1.4794957   518400 
 2144000   0.98798174   -3.3928202   -3.3928202   -1.9108505   0.06063954   -3.3928202    1.4819698   518400 
 2145000   0.98623118   -3.3906782   -3.3906782   -1.9113343   0.05416052   -3.3906782    1.4793439   518400 
 2146000   0.98663179    -3.390682    -3.390682   -1.9107372  0.062588814    -3.390682    1.4799448   518400 
 2147000   0.98597583   -3.3891976   -3.3891976   -1.9102367  0.062683751   -3.3891976    1.4789609   518400 
 2148000   0.98621777   -3.3902164   -3.3902164   -1.9108926  0.059301684   -3.3902164    1.4793238   518400 
 2149000   0.98714033   -3.3908967   -3.3908967    -1.910189  0.059406354   -3.3908967    1.4807076   518400 
 2150000   0.98699296   -3.3897796   -3.3897796    -1.909293  0.057092527   -3.3897796    1.4804866   518400 
 2151000   0.98646776   -3.3897035   -3.3897035   -1.9100047  0.062889443   -3.3897035    1.4796988   518400 
 2152000   0.98625025    -3.390153    -3.390153   -1.9107805  0.055679419    -3.390153    1.4793725   518400 
 2153000   0.98574422   -3.3905011   -3.3905011   -1.9118876  0.056010123   -3.3905011    1.4786135   518400 
 2154000   0.98574252   -3.3902557   -3.3902557   -1.9116447   0.05904289   -3.3902557    1.4786109   518400 
 2155000   0.98582553   -3.3906551   -3.3906551   -1.9119196  0.056058845   -3.3906551    1.4787354   518400 
 2156000   0.98714457   -3.3918479   -3.3918479   -1.9111339  0.053248181   -3.3918479     1.480714   518400 
 2157000   0.98644441   -3.3913445   -3.3913445   -1.9116808  0.054004431   -3.3913445    1.4796638   518400 
 2158000   0.98697983   -3.3912383   -3.3912383   -1.9107714  0.058081189   -3.3912383    1.4804669   518400 
 2159000    0.9865636   -3.3914335   -3.3914335   -1.9115909  0.057590799   -3.3914335    1.4798425   518400 
 2160000   0.98590399   -3.3895892   -3.3895892   -1.9107361  0.062981161   -3.3895892    1.4788531   518400 
 2161000    0.9866991   -3.3905569   -3.3905569   -1.9105111  0.054983105   -3.3905569    1.4800458   518400 
 2162000   0.98745645   -3.3907959   -3.3907959   -1.9096141  0.057665413   -3.3907959    1.4811818   518400 
 2163000   0.98683922   -3.3895528   -3.3895528   -1.9092968   0.06777948   -3.3895528     1.480256   518400 
 2164000   0.98665302   -3.3906506   -3.3906506   -1.9106739  0.052783672   -3.3906506    1.4799767   518400 
 2165000   0.98557343   -3.3888461   -3.3888461   -1.9104888  0.059036254   -3.3888461    1.4783573   518400 
 2166000   0.98566302   -3.3892163   -3.3892163   -1.9107246  0.056307458   -3.3892163    1.4784917   518400 
 2167000   0.98646134   -3.3901505   -3.3901505   -1.9104613  0.053637816   -3.3901505    1.4796892   518400 
 2168000   0.98644269   -3.3901145   -3.3901145   -1.9104533  0.064409619   -3.3901145    1.4796612   518400 
 2169000   0.98763391   -3.3917674   -3.3917674   -1.9103194  0.061782683   -3.3917674     1.481448   518400 
 2170000   0.98831836   -3.3915611   -3.3915611   -1.9090864  0.062065218   -3.3915611    1.4824747   518400 
 2171000   0.98768752   -3.3903145   -3.3903145    -1.908786  0.057283068   -3.3903145    1.4815284   518400 
 2172000   0.98673329   -3.3896653   -3.3896653   -1.9095682  0.051556025   -3.3896653    1.4800971   518400 
 2173000   0.98592206   -3.3898409   -3.3898409   -1.9109607  0.055969483   -3.3898409    1.4788802   518400 
 2174000   0.98615519   -3.3884918   -3.3884918   -1.9092619  0.055998772   -3.3884918    1.4792299   518400 
 2175000   0.98719626   -3.3900975   -3.3900975    -1.909306  0.056407716   -3.3900975    1.4807915   518400 
 2176000   0.98709055   -3.3912009   -3.3912009    -1.910568  0.054662833   -3.3912009     1.480633   518400 
 2177000   0.98440081    -3.387808    -3.387808   -1.9112096  0.053937615    -3.387808    1.4765984   518400 
 2178000   0.98530273   -3.3891577   -3.3891577   -1.9112064  0.051217791   -3.3891577    1.4779513   518400 
 2179000   0.98595047   -3.3899378   -3.3899378   -1.9110149  0.053720898   -3.3899378    1.4789229   518400 
 2180000   0.98466478   -3.3870376   -3.3870376   -1.9100432  0.056430697   -3.3870376    1.4769943   518400 
 2181000    0.9877176   -3.3902396   -3.3902396    -1.908666  0.053653624   -3.3902396    1.4815735   518400 
 2182000   0.98828893   -3.3894097   -3.3894097   -1.9069791  0.063364865   -3.3894097    1.4824305   518400 
 2183000   0.98753567   -3.3896753   -3.3896753   -1.9083747  0.056548614   -3.3896753    1.4813007   518400 
 2184000   0.98698772   -3.3899052   -3.3899052   -1.9094265   0.05877783   -3.3899052    1.4804787   518400 
 2185000   0.98798326   -3.3908817   -3.3908817   -1.9089096  0.061841034   -3.3908817     1.481972   518400 
 2186000   0.98612624   -3.3885534   -3.3885534   -1.9093669  0.049954129   -3.3885534    1.4791865   518400 
 2187000   0.98675545   -3.3895667   -3.3895667   -1.9094364  0.053362296   -3.3895667    1.4801303   518400 
 2188000   0.98688274   -3.3903017   -3.3903017   -1.9099805  0.053869858   -3.3903017    1.4803212   518400 
 2189000   0.98693925   -3.3914903   -3.3914903   -1.9110843  0.052566157   -3.3914903     1.480406   518400 
 2190000   0.98678579   -3.3902455   -3.3902455   -1.9100697  0.059747271   -3.3902455    1.4801758   518400 
 2191000   0.98635902   -3.3912159   -3.3912159   -1.9116802  0.058527358   -3.3912159    1.4795357   518400 
 2192000   0.98620102   -3.3900066   -3.3900066   -1.9107079  0.056836537   -3.3900066    1.4792987   518400 
 2193000   0.98622462   -3.3897209   -3.3897209   -1.9103868  0.057723853   -3.3897209    1.4793341   518400 
 2194000   0.98723584   -3.3905271   -3.3905271   -1.9096762  0.055800339   -3.3905271    1.4808509   518400 
 2195000   0.98632156   -3.3887935   -3.3887935    -1.909314  0.054945796   -3.3887935    1.4794795   518400 
 2196000    0.9881104   -3.3918862   -3.3918862   -1.9097235  0.057062171   -3.3918862    1.4821627   518400 
 2197000   0.98682913   -3.3903127   -3.3903127   -1.9100719  0.056369142   -3.3903127    1.4802408   518400 
 2198000   0.98630657   -3.3888355   -3.3888355   -1.9093785  0.058102314   -3.3888355     1.479457   518400 
 2199000   0.98514293   -3.3869261   -3.3869261   -1.9092146  0.051861335   -3.3869261    1.4777115   518400 
 2200000   0.98485023   -3.3871336   -3.3871336   -1.9098611  0.054897997   -3.3871336    1.4772725   518400 
 2201000   0.98568863     -3.38856     -3.38856   -1.9100299  0.052520834     -3.38856    1.4785301   518400 
 2202000   0.98711932   -3.3896392   -3.3896392    -1.908963  0.049283367   -3.3896392    1.4806761   518400 
 2203000   0.98554654   -3.3873778   -3.3873778   -1.9090609  0.052113843   -3.3873778     1.478317   518400 
 2204000   0.98837885   -3.3903991   -3.3903991   -1.9078337  0.053595999   -3.3903991    1.4825654   518400 
 2205000   0.98637165   -3.3880711   -3.3880711   -1.9085165  0.057743536   -3.3880711    1.4795546   518400 
 2206000   0.98704647   -3.3890028   -3.3890028   -1.9084359  0.055113953   -3.3890028    1.4805668   518400 
 2207000   0.98855063   -3.3904506   -3.3904506   -1.9076275  0.053113392   -3.3904506    1.4828231   518400 
 2208000    0.9873015   -3.3891982   -3.3891982   -1.9082488  0.058008081   -3.3891982    1.4809494   518400 
 2209000   0.98808197   -3.3902898   -3.3902898   -1.9081697  0.057895999   -3.3902898    1.4821201   518400 
 2210000   0.98682098   -3.3889127   -3.3889127   -1.9086841  0.062989767   -3.3889127    1.4802286   518400 
 2211000   0.98555563   -3.3874698   -3.3874698   -1.9091392  0.057474068   -3.3874698    1.4783306   518400 
 2212000   0.98804265   -3.3906866   -3.3906866   -1.9086255  0.057302036   -3.3906866    1.4820611   518400 
 2213000   0.98773433   -3.3910578   -3.3910578   -1.9094592  0.056321944   -3.3910578    1.4815986   518400 
 2214000   0.98738465   -3.3895276   -3.3895276   -1.9084535  0.051085232   -3.3895276    1.4810741   518400 
 2215000    0.9873097   -3.3893614   -3.3893614   -1.9083997  0.058969847   -3.3893614    1.4809617   518400 
 2216000     0.986488    -3.388508    -3.388508   -1.9087788  0.051699405    -3.388508    1.4797292   518400 
 2217000   0.98682945   -3.3882825   -3.3882825   -1.9080412  0.056247707   -3.3882825    1.4802413   518400 
 2218000   0.98725331   -3.3897924   -3.3897924   -1.9089153  0.055989784   -3.3897924    1.4808771   518400 
 2219000   0.98696721   -3.3879486   -3.3879486   -1.9075006  0.056760816   -3.3879486     1.480448   518400 
 2220000   0.98735002   -3.3882694   -3.3882694   -1.9072472  0.064566049   -3.3882694    1.4810222   518400 
 2221000   0.98798199   -3.3902568   -3.3902568   -1.9082867    0.0552122   -3.3902568    1.4819701   518400 
 2222000   0.98806003   -3.3891192   -3.3891192    -1.907032  0.062834954   -3.3891192    1.4820872   518400 
 2223000   0.98758917   -3.3888625   -3.3888625   -1.9074816  0.058478743   -3.3888625    1.4813809   518400 
 2224000   0.98691569   -3.3878476   -3.3878476   -1.9074769  0.055968275   -3.3878476    1.4803707   518400 
 2225000      0.98637   -3.3862808   -3.3862808   -1.9067286  0.056425615   -3.3862808    1.4795521   518400 
 2226000   0.98706299   -3.3874356   -3.3874356    -1.906844  0.051257772   -3.3874356    1.4805916   518400 
 2227000   0.98683166   -3.3869133   -3.3869133   -1.9066686  0.055837121   -3.3869133    1.4802446   518400 
 2228000   0.98649332   -3.3855539   -3.3855539   -1.9058168  0.051637196   -3.3855539    1.4797371   518400 
 2229000   0.98677366   -3.3857611   -3.3857611   -1.9056034   0.05367558   -3.3857611    1.4801576   518400 
 2230000   0.98598066   -3.3838187   -3.3838187   -1.9048506  0.055480237   -3.3838187    1.4789681   518400 
 2231000   0.98789194   -3.3845565   -3.3845565   -1.9027215   0.05587218   -3.3845565     1.481835   518400 
 2232000   0.98733448   -3.3838616   -3.3838616   -1.9028627  0.060452034   -3.3838616    1.4809989   518400 
 2233000   0.98791361   -3.3841774   -3.3841774   -1.9023098  0.060133791   -3.3841774    1.4818676   518400 
 2234000      0.98793   -3.3841367   -3.3841367   -1.9022446  0.053344232   -3.3841367    1.4818921   518400 
 2235000   0.98631699   -3.3837207   -3.3837207    -1.904248    0.0562399   -3.3837207    1.4794726   518400 
 2236000    0.9866817   -3.3838865   -3.3838865   -1.9038668  0.051383621   -3.3838865    1.4800197   518400 
 2237000   0.98722181   -3.3840052   -3.3840052   -1.9031753  0.053848581   -3.3840052    1.4808299   518400 
 2238000   0.98726071   -3.3837606   -3.3837606   -1.9028724  0.058202703   -3.3837606    1.4808882   518400 
 2239000   0.98835115   -3.3854121   -3.3854121   -1.9028882   0.05969427   -3.3854121    1.4825239   518400 
 2240000   0.98687711    -3.382441    -3.382441   -1.9021281  0.059554402    -3.382441    1.4803128   518400 
 2241000   0.98752903   -3.3846468   -3.3846468   -1.9033561  0.057949247   -3.3846468    1.4812907   518400 
 2242000   0.98833543   -3.3863349   -3.3863349   -1.9038346   0.05589299   -3.3863349    1.4825003   518400 
 2243000   0.98845953   -3.3861201   -3.3861201   -1.9034337  0.059226998   -3.3861201    1.4826864   518400 
 2244000   0.98727187    -3.383979    -3.383979    -1.903074  0.059065531    -3.383979    1.4809049   518400 
 2245000    0.9878371     -3.38403     -3.38403   -1.9022772  0.052271986     -3.38403    1.4817528   518400 
 2246000   0.98799044   -3.3848219   -3.3848219   -1.9028391   0.06001507   -3.3848219    1.4819828   518400 
 2247000   0.98695365   -3.3829056   -3.3829056   -1.9024779  0.062938035   -3.3829056    1.4804276   518400 
 2248000   0.98844701   -3.3865114   -3.3865114   -1.9038438   0.05459115   -3.3865114    1.4826676   518400 
 2249000   0.98875779   -3.3868877   -3.3868877   -1.9037539  0.050492037   -3.3868877    1.4831338   518400 
 2250000   0.98815411   -3.3858521   -3.3858521   -1.9036238  0.058866339   -3.3858521    1.4822283   518400 
 2251000   0.98700559   -3.3841598   -3.3841598   -1.9036542  0.064562905   -3.3841598    1.4805055   518400 
 2252000   0.98897003   -3.3870512   -3.3870512    -1.903599  0.057060366   -3.3870512    1.4834522   518400 
 2253000   0.98867725    -3.387783    -3.387783     -1.90477  0.054383973    -3.387783     1.483013   518400 
 2254000   0.98647789   -3.3850774   -3.3850774   -1.9053634   0.05615115   -3.3850774     1.479714   518400 
 2255000   0.98582639   -3.3855802   -3.3855802   -1.9068434  0.053179915   -3.3855802    1.4787367   518400 
 2256000   0.98634594   -3.3863005   -3.3863005   -1.9067844  0.054998129   -3.3863005    1.4795161   518400 
 2257000   0.98602231   -3.3858184   -3.3858184   -1.9067878  0.056795878   -3.3858184    1.4790306   518400 
 2258000   0.98619147   -3.3865681   -3.3865681   -1.9072837  0.053440563   -3.3865681    1.4792844   518400 
 2259000    0.9864566   -3.3873607   -3.3873607   -1.9076786  0.052373947   -3.3873607     1.479682   518400 
 2260000   0.98600034   -3.3875648   -3.3875648   -1.9085671  0.056430116   -3.3875648    1.4789977   518400 
 2261000   0.98643454   -3.3886638   -3.3886638   -1.9090148  0.059695447   -3.3886638     1.479649   518400 
 2262000   0.98896595   -3.3900119   -3.3900119   -1.9065659  0.059368607   -3.3900119    1.4834461   518400 
 2263000   0.98770207   -3.3902507   -3.3902507   -1.9087004  0.061192452   -3.3902507    1.4815503   518400 
 2264000   0.98781639   -3.3896585   -3.3896585   -1.9079368  0.065570367   -3.3896585    1.4817217   518400 
 2265000   0.98811344   -3.3892814   -3.3892814   -1.9071141  0.059266542   -3.3892814    1.4821673   518400 
 2266000   0.98933503   -3.3902053   -3.3902053   -1.9062057  0.058891381   -3.3902053    1.4839997   518400 
 2267000   0.98779427   -3.3877399   -3.3877399   -1.9060513  0.060771385   -3.3877399    1.4816885   518400 
 2268000   0.98771501   -3.3886008   -3.3886008   -1.9070311  0.053664153   -3.3886008    1.4815697   518400 
 2269000   0.98592047   -3.3847238   -3.3847238   -1.9058459  0.059583691   -3.3847238    1.4788779   518400 
 2270000   0.98558032   -3.3844047   -3.3844047   -1.9060371  0.053877326   -3.3844047    1.4783676   518400 
 2271000   0.98728694   -3.3852621   -3.3852621   -1.9043346  0.058070848   -3.3852621    1.4809275   518400 
 2272000   0.98675787   -3.3861277   -3.3861277   -1.9059937   0.05371075   -3.3861277     1.480134   518400 
 2273000   0.98698984   -3.3852059   -3.3852059    -1.904724   0.05535686   -3.3852059    1.4804819   518400 
 2274000   0.98633534   -3.3866167   -3.3866167   -1.9071166  0.051742598   -3.3866167    1.4795002   518400 
 2275000   0.98704641   -3.3866772   -3.3866772   -1.9061104  0.055262524   -3.3866772    1.4805668   518400 
 2276000   0.98632575   -3.3850698   -3.3850698   -1.9055841  0.061356368   -3.3850698    1.4794858   518400 
 2277000   0.98845974   -3.3877373   -3.3877373   -1.9050506  0.056894843   -3.3877373    1.4826868   518400 
 2278000     0.987238    -3.386206    -3.386206   -1.9053519  0.058374146    -3.386206    1.4808541   518400 
 2279000   0.98811696   -3.3861342   -3.3861342   -1.9039616  0.060489441   -3.3861342    1.4821726   518400 
 2280000   0.98975607   -3.3873852   -3.3873852   -1.9027539  0.055433751   -3.3873852    1.4846312   518400 
 2281000   0.98723074   -3.3828841   -3.3828841   -1.9020408  0.054411437   -3.3828841    1.4808432   518400 
 2282000   0.98643173   -3.3830986   -3.3830986   -1.9034538  0.053827191   -3.3830986    1.4796447   518400 
 2283000   0.98688687   -3.3827778   -3.3827778   -1.9024504  0.057025923   -3.3827778    1.4803274   518400 
 2284000   0.98723034   -3.3832101   -3.3832101   -1.9023674  0.060373018   -3.3832101    1.4808427   518400 
 2285000    0.9875375   -3.3841053   -3.3841053   -1.9028019  0.063580957   -3.3841053    1.4813034   518400 
 2286000   0.98693862   -3.3827037   -3.3827037   -1.9022986  0.055156403   -3.3827037    1.4804051   518400 
 2287000   0.98511264   -3.3798369   -3.3798369   -1.9021708  0.055433844   -3.3798369    1.4776661   518400 
 2288000   0.98669628   -3.3824134   -3.3824134   -1.9023718  0.056193237   -3.3824134    1.4800416   518400 
 2289000   0.98825395   -3.3851832   -3.3851832   -1.9028051  0.053735739   -3.3851832    1.4823781   518400 
 2290000   0.98865702   -3.3857289   -3.3857289   -1.9027462  0.059984904   -3.3857289    1.4829827   518400 
 2291000   0.98936834   -3.3857958   -3.3857958   -1.9017462  0.059393467   -3.3857958    1.4840496   518400 
 2292000   0.98781753   -3.3839909   -3.3839909   -1.9022675  0.062208512   -3.3839909    1.4817234   518400 
 2293000   0.98841971   -3.3854093   -3.3854093   -1.9027826  0.056093521   -3.3854093    1.4826267   518400 
 2294000   0.98753926   -3.3846466   -3.3846466   -1.9033405  0.057083184   -3.3846466     1.481306   518400 
 2295000   0.98872797    -3.386725    -3.386725   -1.9036359   0.05329829    -3.386725    1.4830891   518400 
 2296000   0.98794111   -3.3842544   -3.3842544   -1.9023456  0.056173071   -3.3842544    1.4819088   518400 
 2297000   0.98864823   -3.3851121   -3.3851121   -1.9021426  0.051949723   -3.3851121    1.4829695   518400 
 2298000   0.98666062   -3.3823878   -3.3823878   -1.9023997  0.063384354   -3.3823878    1.4799881   518400 
 2299000   0.98574512   -3.3808118   -3.3808118    -1.902197  0.054928216   -3.3808118    1.4786148   518400 
 2300000   0.98855497   -3.3844809   -3.3844809   -1.9016513  0.054032846   -3.3844809    1.4828296   518400 
 2301000   0.98712868   -3.3834039   -3.3834039   -1.9027137  0.059778278   -3.3834039    1.4806902   518400 
 2302000    0.9877768   -3.3843458   -3.3843458   -1.9026835  0.055745289   -3.3843458    1.4816623   518400 
 2303000   0.98907086     -3.38577     -3.38577   -1.9021666  0.056445138     -3.38577    1.4836034   518400 
 2304000   0.98878211   -3.3861507   -3.3861507   -1.9029804  0.057037826   -3.3861507    1.4831703   518400 
 2305000    0.9885217   -3.3849973   -3.3849973   -1.9022176  0.060705274   -3.3849973    1.4827797   518400 
 2306000   0.99006842   -3.3871859   -3.3871859   -1.9020861  0.059771056   -3.3871859    1.4850998   518400 
 2307000   0.98937139   -3.3866614   -3.3866614   -1.9026072  0.062760457   -3.3866614    1.4840542   518400 
 2308000   0.98860788   -3.3858654   -3.3858654   -1.9029565  0.057260614   -3.3858654     1.482909   518400 
 2309000   0.98698665   -3.3837462   -3.3837462   -1.9032691   0.05248698   -3.3837462    1.4804771   518400 
 2310000   0.98617905   -3.3823993   -3.3823993   -1.9031336  0.054677498   -3.3823993    1.4792657   518400 
 2311000   0.98716893   -3.3829008   -3.3829008   -1.9021503  0.059258695   -3.3829008    1.4807505   518400 
 2312000   0.98914809   -3.3849183   -3.3849183   -1.9011991   0.05595086   -3.3849183    1.4837193   518400 
 2313000   0.98683393   -3.3802683   -3.3802683   -1.9000203  0.055885829   -3.3802683     1.480248   518400 
 2314000   0.98861497   -3.3836559   -3.3836559   -1.9007363  0.052703931   -3.3836559    1.4829196   518400 
 2315000   0.98722472    -3.380566    -3.380566   -1.8997318  0.055523031    -3.380566    1.4808342   518400 
 2316000   0.98711036   -3.3801381   -3.3801381   -1.8994754  0.055057086   -3.3801381    1.4806627   518400 
 2317000   0.98677972   -3.3811402   -3.3811402   -1.9009735  0.059444468   -3.3811402    1.4801667   518400 
 2318000   0.98759425   -3.3809757   -3.3809757   -1.8995871  0.064368249   -3.3809757    1.4813885   518400 
 2319000   0.98804646   -3.3830185   -3.3830185   -1.9009517  0.062154077   -3.3830185    1.4820668   518400 
 2320000   0.98913174   -3.3854439   -3.3854439   -1.9017491  0.054660385   -3.3854439    1.4836948   518400 
 2321000   0.98735098   -3.3829267   -3.3829267   -1.9019031   0.06126792   -3.3829267    1.4810236   518400 
 2322000   0.98846244   -3.3838373   -3.3838373   -1.9011465  0.059720506   -3.3838373    1.4826908   518400 
 2323000   0.98762572   -3.3833814   -3.3833814   -1.9019457  0.054195936   -3.3833814    1.4814357   518400 
 2324000   0.98846567   -3.3841212   -3.3841212   -1.9014256  0.055520636   -3.3841212    1.4826956   518400 
 2325000   0.98668806   -3.3813163   -3.3813163    -1.901287  0.056444997   -3.3813163    1.4800292   518400 
 2326000   0.98624702   -3.3816557   -3.3816557   -1.9022881  0.054191809   -3.3816557    1.4793677   518400 
 2327000   0.98496812   -3.3802352   -3.3802352   -1.9027858  0.060793737   -3.3802352    1.4774493   518400 
 2328000   0.98686528   -3.3832839   -3.3832839   -1.9029888  0.053283334   -3.3832839    1.4802951   518400 
 2329000   0.98776461   -3.3846966   -3.3846966   -1.9030525  0.054142128   -3.3846966    1.4816441   518400 
 2330000   0.98699441   -3.3824583   -3.3824583   -1.9019696  0.060902437   -3.3824583    1.4804888   518400 
 2331000   0.98746867   -3.3833935   -3.3833935   -1.9021933  0.061751662   -3.3833935    1.4812002   518400 
 2332000   0.98608835   -3.3826222   -3.3826222   -1.9034926  0.058176757   -3.3826222    1.4791297   518400 
 2333000   0.98748563   -3.3851259   -3.3851259   -1.9039003  0.056412372   -3.3851259    1.4812256   518400 
 2334000   0.98781732   -3.3857774   -3.3857774   -1.9040543  0.057288428   -3.3857774    1.4817231   518400 
 2335000   0.98844034   -3.3855669   -3.3855669   -1.9029092  0.059009292   -3.3855669    1.4826577   518400 
 2336000   0.98685743   -3.3822915   -3.3822915   -1.9020083  0.058155973   -3.3822915    1.4802833   518400 
 2337000   0.98652866    -3.381711    -3.381711   -1.9019209  0.058633241    -3.381711    1.4797901   518400 
 2338000   0.98784332   -3.3837084   -3.3837084   -1.9019463  0.057090104   -3.3837084    1.4817621   518400 
 2339000   0.98647901   -3.3820426   -3.3820426   -1.9023269  0.056788914   -3.3820426    1.4797157   518400 
 2340000   0.98795106   -3.3841572   -3.3841572   -1.9022335  0.054505184   -3.3841572    1.4819237   518400 
 2341000   0.98812885   -3.3852003   -3.3852003   -1.9030099  0.059973715   -3.3852003    1.4821904   518400 
 2342000    0.9860736   -3.3827611   -3.3827611   -1.9036536  0.060116942   -3.3827611    1.4791075   518400 
 2343000   0.98675851   -3.3832787   -3.3832787   -1.9031438  0.054559254   -3.3832787    1.4801349   518400 
 2344000   0.98656599   -3.3828639   -3.3828639   -1.9030178  0.062174398   -3.3828639    1.4798461   518400 
 2345000   0.98758952   -3.3834438   -3.3834438   -1.9020623  0.054664074   -3.3834438    1.4813814   518400 
 2346000   0.98912267    -3.385737    -3.385737   -1.9020559  0.055191917    -3.385737    1.4836811   518400 
 2347000   0.98828662   -3.3840765   -3.3840765   -1.9016494  0.059541611   -3.3840765    1.4824271   518400 
 2348000    0.9883905    -3.384061    -3.384061   -1.9014782  0.056153528    -3.384061    1.4825829   518400 
 2349000   0.98861632   -3.3848243   -3.3848243   -1.9019026  0.055875731   -3.3848243    1.4829216   518400 
 2350000   0.98698896   -3.3842324   -3.3842324   -1.9037518  0.061317978   -3.3842324    1.4804806   518400 
 2351000   0.98916146   -3.3863846   -3.3863846   -1.9026453  0.062636382   -3.3863846    1.4837393   518400 
 2352000    0.9873463   -3.3849872   -3.3849872   -1.9039706  0.061149925   -3.3849872    1.4810166   518400 
 2353000   0.98674865   -3.3857079   -3.3857079   -1.9055878  0.054729647   -3.3857079    1.4801201   518400 
 2354000    0.9870358   -3.3852987   -3.3852987   -1.9047478  0.052386393   -3.3852987    1.4805509   518400 
 2355000   0.98804962   -3.3876436   -3.3876436    -1.905572  0.050506211   -3.3876436    1.4820716   518400 
 2356000   0.98771019   -3.3867993   -3.3867993   -1.9052369  0.061067827   -3.3867993    1.4815624   518400 
 2357000   0.98784051   -3.3872037   -3.3872037   -1.9054458  0.053024324   -3.3872037    1.4817579   518400 
 2358000   0.98786111   -3.3874803   -3.3874803   -1.9056915  0.053886859   -3.3874803    1.4817888   518400 
 2359000   0.98637277   -3.3859963   -3.3859963     -1.90644  0.051459451   -3.3859963    1.4795563   518400 
 2360000   0.98648963   -3.3866469   -3.3866469   -1.9069153  0.057287334   -3.3866469    1.4797316   518400 
 2361000   0.98689797   -3.3873083   -3.3873083   -1.9069642  0.062157455   -3.3873083    1.4803441   518400 
 2362000   0.98622964   -3.3867423   -3.3867423   -1.9074007  0.063743272   -3.3867423    1.4793416   518400 
 2363000   0.98645375   -3.3868454   -3.3868454   -1.9071677  0.057034247   -3.3868454    1.4796778   518400 
 2364000   0.98690061   -3.3873322   -3.3873322   -1.9069841  0.056367934   -3.3873322    1.4803481   518400 
 2365000   0.98562756   -3.3860716   -3.3860716   -1.9076331  0.054852657   -3.3860716    1.4784385   518400 
 2366000     0.986038   -3.3859364   -3.3859364   -1.9068823  0.055863453   -3.3859364    1.4790541   518400 
 2367000    0.9873359   -3.3878815   -3.3878815   -1.9068805  0.054804967   -3.3878815     1.481001   518400 
 2368000   0.98741261    -3.387381    -3.387381    -1.906265  0.058032185    -3.387381    1.4811161   518400 
 2369000   0.98817421   -3.3868968   -3.3868968   -1.9046383  0.060657999   -3.3868968    1.4822585   518400 
 2370000   0.98741909   -3.3855019   -3.3855019   -1.9043762  0.056472638   -3.3855019    1.4811258   518400 
 2371000   0.98815557   -3.3870126   -3.3870126   -1.9047821  0.060589963   -3.3870126    1.4822305   518400 
 2372000   0.98866965   -3.3874263   -3.3874263   -1.9044247  0.057536292   -3.3874263    1.4830016   518400 
 2373000   0.98823288   -3.3858397   -3.3858397   -1.9034932  0.057256957   -3.3858397    1.4823465   518400 
 2374000   0.98727596   -3.3842029   -3.3842029   -1.9032919  0.057841591   -3.3842029    1.4809111   518400 
 2375000   0.98849594   -3.3857109   -3.3857109   -1.9029699  0.055748526   -3.3857109    1.4827411   518400 
 2376000   0.98876954    -3.385933    -3.385933   -1.9027815  0.060087474    -3.385933    1.4831515   518400 
 2377000   0.98605811   -3.3822691   -3.3822691   -1.9031847  0.056317317   -3.3822691    1.4790843   518400 
 2378000   0.98573674   -3.3818598   -3.3818598   -1.9032576  0.053369222   -3.3818598    1.4786023   518400 
 2379000   0.98781255   -3.3848855   -3.3848855   -1.9031695  0.056131382   -3.3848855     1.481716   518400 
 2380000   0.98574697   -3.3813048   -3.3813048   -1.9026872  0.060811662   -3.3813048    1.4786176   518400 
 2381000   0.98732162   -3.3845664   -3.3845664   -1.9035868  0.051068778   -3.3845664    1.4809796   518400 
 2382000    0.9860187   -3.3828621   -3.3828621   -1.9038369  0.054003304   -3.3828621    1.4790252   518400 
 2383000   0.98750977   -3.3848403   -3.3848403   -1.9035785  0.055687859   -3.3848403    1.4812618   518400 
 2384000   0.98778878   -3.3842779   -3.3842779   -1.9025976  0.058577038   -3.3842779    1.4816803   518400 
 2385000   0.98633494   -3.3823839   -3.3823839   -1.9028843  0.056165738   -3.3823839    1.4794996   518400 
 2386000   0.98683455   -3.3838173   -3.3838173   -1.9035683  0.055002846   -3.3838173     1.480249   518400 
 2387000   0.98680341   -3.3849311   -3.3849311   -1.9047288  0.053652519   -3.3849311    1.4802023   518400 
 2388000   0.98744447   -3.3858663   -3.3858663   -1.9047024  0.055807544   -3.3858663    1.4811639   518400 
 2389000   0.98731517    -3.385102    -3.385102   -1.9041321  0.057709508    -3.385102    1.4809699   518400 
 2390000   0.98770961   -3.3864656   -3.3864656   -1.9049041  0.058753712   -3.3864656    1.4815616   518400 
 2391000   0.98680674   -3.3850719   -3.3850719   -1.9048647  0.061956653   -3.3850719    1.4802073   518400 
 2392000   0.98812486   -3.3870596   -3.3870596   -1.9048752  0.059548789   -3.3870596    1.4821844   518400 
 2393000   0.98760468   -3.3858201   -3.3858201   -1.9044159  0.060053198   -3.3858201    1.4814042   518400 
 2394000   0.98707931   -3.3846297   -3.3846297   -1.9040135   0.05247615   -3.3846297    1.4806161   518400 
 2395000   0.98696869    -3.385831    -3.385831   -1.9053809  0.056027356    -3.385831    1.4804502   518400 
 2396000   0.98713872   -3.3846974   -3.3846974   -1.9039922  0.060053196   -3.3846974    1.4807052   518400 
 2397000   0.98656107   -3.3841034   -3.3841034   -1.9042647  0.057576253   -3.3841034    1.4798388   518400 
 2398000   0.98749649   -3.3849041   -3.3849041   -1.9036623  0.055218737   -3.3849041    1.4812419   518400 
 2399000   0.98859014   -3.3857177   -3.3857177   -1.9028354  0.054698859   -3.3857177    1.4828823   518400 
 2400000   0.98816832    -3.385375    -3.385375   -1.9031253  0.057334518    -3.385375    1.4822496   518400 
 2401000   0.98851524   -3.3864956   -3.3864956   -1.9037256  0.057783186   -3.3864956      1.48277   518400 
 2402000   0.98764945   -3.3849125   -3.3849125   -1.9034411  0.056660579   -3.3849125    1.4814713   518400 
 2403000   0.98810195   -3.3836901   -3.3836901     -1.90154  0.064848974   -3.3836901    1.4821501   518400 
 2404000   0.98743642   -3.3838472   -3.3838472   -1.9026955  0.050292715   -3.3838472    1.4811518   518400 
 2405000    0.9866831   -3.3824952   -3.3824952   -1.9024734  0.059526584   -3.3824952    1.4800218   518400 
 2406000   0.98569549   -3.3818269   -3.3818269   -1.9032865  0.051889216   -3.3818269    1.4785404   518400 
 2407000   0.98559384   -3.3809633   -3.3809633   -1.9025754  0.055626138   -3.3809633    1.4783879   518400 
 2408000   0.98745652   -3.3827052   -3.3827052   -1.9015233  0.053738114   -3.3827052    1.4811819   518400 
 2409000   0.98937643   -3.3855908   -3.3855908    -1.901529   0.05692482   -3.3855908    1.4840618   518400 
 2410000   0.98862206   -3.3835747   -3.3835747   -1.9006444  0.058136755   -3.3835747    1.4829302   518400 
 2411000   0.98932231   -3.3852263   -3.3852263   -1.9012457  0.057135845   -3.3852263    1.4839806   518400 
 2412000   0.98680849   -3.3828247   -3.3828247   -1.9026148  0.059975918   -3.3828247    1.4802099   518400 
 2413000   0.98765621   -3.3841858   -3.3841858   -1.9027044  0.062637287   -3.3841858    1.4814815   518400 
 2414000   0.98771746   -3.3845929   -3.3845929   -1.9030196  0.058074282   -3.3845929    1.4815733   518400 
 2415000    0.9895356   -3.3860275   -3.3860275   -1.9017269   0.05832731   -3.3860275    1.4843005   518400 
 2416000   0.98972746   -3.3862117   -3.3862117   -1.9016234  0.061873019   -3.3862117    1.4845883   518400 
 2417000   0.98766974   -3.3833507   -3.3833507    -1.901849  0.057521311   -3.3833507    1.4815018   518400 
 2418000   0.98758634   -3.3832728   -3.3832728   -1.9018961   0.05198391   -3.3832728    1.4813767   518400 
 2419000   0.98817369   -3.3830751   -3.3830751   -1.9008174   0.05858386   -3.3830751    1.4822577   518400 
 2420000   0.98879675   -3.3840323   -3.3840323     -1.90084  0.057729646   -3.3840323    1.4831923   518400 
 2421000   0.98817245   -3.3828394   -3.3828394   -1.9005836  0.057873649   -3.3828394    1.4822558   518400 
 2422000   0.99023232   -3.3862498   -3.3862498   -1.9009042  0.059695154   -3.3862498    1.4853456   518400 
 2423000   0.98822713   -3.3834094   -3.3834094   -1.9010716  0.053786219   -3.3834094    1.4823378   518400 
 2424000   0.98634453   -3.3814423   -3.3814423   -1.9019284  0.058081219   -3.3814423    1.4795139   518400 
 2425000   0.98554965   -3.3808122   -3.3808122   -1.9024905  0.055632453   -3.3808122    1.4783216   518400 
 2426000   0.98691596   -3.3823651   -3.3823651    -1.901994  0.062657631   -3.3823651    1.4803711   518400 
 2427000   0.98800271   -3.3841802   -3.3841802    -1.902179  0.049743897   -3.3841802    1.4820012   518400 
 2428000    0.9871838   -3.3828529   -3.3828529   -1.9020801  0.054477196   -3.3828529    1.4807728   518400 
 2429000   0.98735343   -3.3829629   -3.3829629   -1.9019356  0.057540941   -3.3829629    1.4810273   518400 
 2430000   0.98623565   -3.3821038   -3.3821038   -1.9027532  0.055484361   -3.3821038    1.4793506   518400 
 2431000   0.98778935   -3.3834335   -3.3834335   -1.9017524  0.052852109   -3.3834335    1.4816812   518400 
 2432000   0.98735713   -3.3822987   -3.3822987   -1.9012658  0.055070766   -3.3822987    1.4810328   518400 
 2433000    0.9875249   -3.3824959   -3.3824959   -1.9012114  0.054867749   -3.3824959    1.4812845   518400 
 2434000   0.98732265   -3.3826712   -3.3826712   -1.9016901  0.056000877   -3.3826712    1.4809811   518400 
 2435000   0.98808278   -3.3831502   -3.3831502   -1.9010289  0.056500894   -3.3831502    1.4821213   518400 
 2436000   0.98795557     -3.38377     -3.38377   -1.9018395  0.059224462     -3.38377    1.4819305   518400 
 2437000   0.98918461   -3.3844789   -3.3844789   -1.9007049  0.058988563   -3.3844789    1.4837741   518400 
 2438000   0.98986187   -3.3857574   -3.3857574   -1.9009674  0.057263017   -3.3857574    1.4847899   518400 
 2439000   0.98787639   -3.3831161   -3.3831161   -1.9013044  0.053297806   -3.3831161    1.4818117   518400 
 2440000   0.98786289   -3.3827511   -3.3827511   -1.9009596  0.055670545   -3.3827511    1.4817915   518400 
 2441000   0.98765003   -3.3825292   -3.3825292    -1.901057  0.054957504   -3.3825292    1.4814722   518400 
 2442000   0.98687968   -3.3814887   -3.3814887    -1.901172  0.060226877   -3.3814887    1.4803167   518400 
 2443000    0.9880835    -3.383257    -3.383257   -1.9011346  0.060701655    -3.383257    1.4821224   518400 
 2444000   0.98792803   -3.3833816   -3.3833816   -1.9014924  0.055062261   -3.3833816    1.4818892   518400 
 2445000   0.98843016   -3.3850626   -3.3850626   -1.9024202  0.059086082   -3.3850626    1.4826424   518400 
 2446000   0.98678075   -3.3832606   -3.3832606   -1.9030924  0.057066535   -3.3832606    1.4801683   518400 
 2447000   0.98557754   -3.3812925   -3.3812925    -1.902929  0.057942157   -3.3812925    1.4783635   518400 
 2448000   0.98725773   -3.3828439   -3.3828439   -1.9019601  0.056997943   -3.3828439    1.4808837   518400 
 2449000   0.98722654   -3.3838405   -3.3838405   -1.9030036  0.055131868   -3.3838405     1.480837   518400 
 2450000   0.98849532   -3.3859395   -3.3859395   -1.9031994  0.056047465   -3.3859395    1.4827401   518400 
 2451000   0.98822678   -3.3854653   -3.3854653    -1.903128  0.058199388   -3.3854653    1.4823373   518400 
 2452000   0.98780881   -3.3846426   -3.3846426   -1.9029322  0.056627816   -3.3846426    1.4817104   518400 
 2453000   0.98853572   -3.3848367   -3.3848367   -1.9020359  0.058248097   -3.3848367    1.4828007   518400 
 2454000   0.98747764   -3.3823919   -3.3823919   -1.9011783   0.05597285   -3.3823919    1.4812136   518400 
 2455000   0.98874019   -3.3843967   -3.3843967   -1.9012893  0.058667692   -3.3843967    1.4831074   518400 
 2456000   0.98897552   -3.3841846   -3.3841846   -1.9007242  0.051081948   -3.3841846    1.4834604   518400 
 2457000   0.98892305   -3.3834989   -3.3834989   -1.9001172  0.054046816   -3.3834989    1.4833817   518400 
 2458000   0.98698095    -3.380642    -3.380642   -1.9001734  0.061299925    -3.380642    1.4804686   518400 
 2459000   0.98878695   -3.3829336   -3.3829336   -1.8997561  0.051178616   -3.3829336    1.4831776   518400 
 2460000   0.98825954    -3.382884    -3.382884   -1.9004975  0.054817287    -3.382884    1.4823865   518400 
 2461000   0.98795953   -3.3831902   -3.3831902   -1.9012538  0.057058095   -3.3831902    1.4819364   518400 
 2462000   0.98825541   -3.3827259   -3.3827259   -1.9003457   0.06084413   -3.3827259    1.4823803   518400 
 2463000   0.98885439   -3.3828667   -3.3828667    -1.899588  0.061614699   -3.3828667    1.4832787   518400 
 2464000   0.98931178   -3.3841218   -3.3841218    -1.900157  0.055663595   -3.3841218    1.4839648   518400 
 2465000   0.98866113   -3.3823266   -3.3823266   -1.8993378  0.059026968   -3.3823266    1.4829888   518400 
 2466000   0.98825118   -3.3824129   -3.3824129    -1.900039  0.055147027   -3.3824129    1.4823739   518400 
 2467000   0.98843743    -3.381411    -3.381411   -1.8987577   0.05765423    -3.381411    1.4826533   518400 
 2468000   0.98721045    -3.380735    -3.380735   -1.8999222  0.058467748    -3.380735    1.4808128   518400 
 2469000   0.98880344   -3.3821678   -3.3821678   -1.8989655   0.06375775   -3.3821678    1.4832023   518400 
 2470000   0.98818342   -3.3816355   -3.3816355   -1.8993633   0.06068547   -3.3816355    1.4822723   518400 
 2471000   0.98790399   -3.3822727   -3.3822727   -1.9004196  0.060894297   -3.3822727    1.4818531   518400 
 2472000   0.98702221    -3.381758    -3.381758   -1.9012276  0.054828203    -3.381758    1.4805305   518400 
 2473000   0.98683603   -3.3813655   -3.3813655   -1.9011144  0.061896286   -3.3813655    1.4802512   518400 
 2474000   0.98852117   -3.3829363   -3.3829363   -1.9001574  0.058990076   -3.3829363    1.4827789   518400 
 2475000   0.98833043   -3.3849397   -3.3849397   -1.9024469  0.054216204   -3.3849397    1.4824928   518400 
 2476000   0.98732386   -3.3834975   -3.3834975   -1.9025146  0.063079634   -3.3834975    1.4809829   518400 
 2477000   0.98805721   -3.3850899   -3.3850899    -1.903007  0.057456811   -3.3850899     1.482083   518400 
 2478000   0.98641594   -3.3827429   -3.3827429   -1.9031219  0.055189465   -3.3827429    1.4796211   518400 
 2479000   0.98740554   -3.3840531   -3.3840531   -1.9029476  0.058612619   -3.3840531    1.4811055   518400 
 2480000   0.98661905   -3.3824978   -3.3824978   -1.9025721  0.058461143   -3.3824978    1.4799257   518400 
 2481000   0.98743504   -3.3827752   -3.3827752   -1.9016255   0.05681898   -3.3827752    1.4811497   518400 
 2482000   0.98954179   -3.3845936   -3.3845936   -1.9002838  0.057004891   -3.3845936    1.4843098   518400 
 2483000   0.98763778   -3.3807527   -3.3807527   -1.8992989  0.063183651   -3.3807527    1.4814538   518400 
 2484000   0.98904098   -3.3831247   -3.3831247   -1.8995661  0.053184151   -3.3831247    1.4835586   518400 
 2485000   0.98734695   -3.3820299   -3.3820299   -1.9010123  0.062398141   -3.3820299    1.4810176   518400 
 2486000   0.98803559   -3.3824451   -3.3824451   -1.9003945  0.053004215   -3.3824451    1.4820505   518400 
 2487000   0.98894562   -3.3845098   -3.3845098   -1.9010942   0.06053762   -3.3845098    1.4834156   518400 
 2488000   0.98724644   -3.3826366   -3.3826366   -1.9017698  0.058152502   -3.3826366    1.4808668   518400 
 2489000    0.9873661   -3.3820411   -3.3820411   -1.9009948  0.058374984   -3.3820411    1.4810463   518400 
 2490000   0.98784456   -3.3829059   -3.3829059   -1.9011419  0.047743838   -3.3829059     1.481764   518400 
 2491000   0.98852277   -3.3849154   -3.3849154   -1.9021341  0.052511419   -3.3849154    1.4827813   518400 
 2492000   0.98780387   -3.3840733   -3.3840733   -1.9023704  0.054888731   -3.3840733     1.481703   518400 
 2493000   0.98738623   -3.3828714   -3.3828714   -1.9017949  0.056405383   -3.3828714    1.4810765   518400 
 2494000   0.98803225   -3.3836908   -3.3836908   -1.9016453  0.052359995   -3.3836908    1.4820455   518400 
 2495000   0.98790271   -3.3839307   -3.3839307   -1.9020795  0.055633137   -3.3839307    1.4818512   518400 
 2496000    0.9885093   -3.3852973   -3.3852973   -1.9025362  0.060610864   -3.3852973    1.4827611   518400 
 2497000   0.98998389   -3.3871911   -3.3871911   -1.9022181  0.062938033   -3.3871911     1.484973   518400 
 2498000   0.98994042   -3.3873179   -3.3873179   -1.9024101  0.065638889   -3.3873179    1.4849078   518400 
 2499000   0.98846022   -3.3853171   -3.3853171   -1.9026296  0.060168945   -3.3853171    1.4826875   518400 
 2500000   0.98903589   -3.3865985   -3.3865985   -1.9030476  0.060099034   -3.3865985     1.483551   518400 
 2501000    0.9896904   -3.3870495   -3.3870495   -1.9025167   0.06021874   -3.3870495    1.4845327   518400 
 2502000    0.9878099   -3.3852618   -3.3852618   -1.9035498  0.056424088   -3.3852618     1.481712   518400 
 2503000   0.98763241   -3.3844819   -3.3844819   -1.9030362   0.05513123   -3.3844819    1.4814458   518400 
 2504000   0.98623344   -3.3820547   -3.3820547   -1.9027074   0.05570252   -3.3820547    1.4793473   518400 
 2505000   0.98604548   -3.3810741   -3.3810741   -1.9020087  0.054099651   -3.3810741    1.4790654   518400 
 2506000   0.98693061   -3.3838087   -3.3838087   -1.9034157  0.054269221   -3.3838087    1.4803931   518400 
 2507000   0.98697406   -3.3842409   -3.3842409   -1.9037827   0.05006221   -3.3842409    1.4804582   518400 
 2508000   0.98726391   -3.3843352   -3.3843352   -1.9034422  0.052554638   -3.3843352     1.480893   518400 
 2509000    0.9877114   -3.3847374   -3.3847374   -1.9031732  0.056654488   -3.3847374    1.4815642   518400 
 2510000   0.98864433   -3.3862501   -3.3862501   -1.9032865  0.061058043   -3.3862501    1.4829636   518400 
 2511000    0.9894814   -3.3864237   -3.3864237   -1.9022045  0.058357519   -3.3864237    1.4842192   518400 
 2512000   0.99145208   -3.3888177   -3.3888177   -1.9016424  0.055775714   -3.3888177    1.4871753   518400 
 2513000   0.99004468   -3.3863021   -3.3863021   -1.9012379  0.060601417   -3.3863021    1.4850642   518400 
 2514000   0.98919722   -3.3856218   -3.3856218   -1.9018288  0.062262164   -3.3856218     1.483793   518400 
 2515000   0.98837612   -3.3843566   -3.3843566   -1.9017953   0.05777905   -3.3843566    1.4825613   518400 
 2516000   0.98670188    -3.382812    -3.382812    -1.902762  0.057437928    -3.382812      1.48005   518400 
 2517000   0.98740817   -3.3837073   -3.3837073   -1.9025979  0.054678228   -3.3837073    1.4811094   518400 
 2518000   0.98708961    -3.383631    -3.383631   -1.9029995  0.055948152    -3.383631    1.4806316   518400 
 2519000   0.98837369   -3.3854623   -3.3854623   -1.9029046  0.057636661   -3.3854623    1.4825577   518400 
 2520000   0.98728134   -3.3853011   -3.3853011   -1.9043819  0.053071472   -3.3853011    1.4809191   518400 
 2521000    0.9861952   -3.3843723   -3.3843723   -1.9050824  0.053850006   -3.3843723    1.4792899   518400 
 2522000   0.98529778   -3.3836225   -3.3836225   -1.9056787  0.052828641   -3.3836225    1.4779438   518400 
 2523000   0.98696223   -3.3846964   -3.3846964   -1.9042559  0.051132334   -3.3846964    1.4804405   518400 
 2524000   0.98735601   -3.3846987   -3.3846987   -1.9036675  0.055843417   -3.3846987    1.4810312   518400 
 2525000   0.98711723   -3.3852157   -3.3852157   -1.9045427  0.056972646   -3.3852157     1.480673   518400 
 2526000   0.98715354   -3.3851692   -3.3851692   -1.9044418  0.058953486   -3.3851692    1.4807275   518400 
 2527000   0.98600415   -3.3838841   -3.3838841   -1.9048808   0.05861868   -3.3838841    1.4790034   518400 
 2528000   0.98796714   -3.3858419   -3.3858419   -1.9038941  0.058845174   -3.3858419    1.4819479   518400 
 2529000   0.98668276   -3.3841803   -3.3841803    -1.904159  0.057443428   -3.3841803    1.4800213   518400 
 2530000   0.98753833   -3.3842258   -3.3842258   -1.9029212  0.056568251   -3.3842258    1.4813046   518400 
 2531000   0.98704406   -3.3825367   -3.3825367   -1.9019735  0.054231609   -3.3825367    1.4805632   518400 
 2532000   0.98653062   -3.3813616   -3.3813616   -1.9015686  0.053621459   -3.3813616    1.4797931   518400 
 2533000   0.98867318   -3.3835476   -3.3835476   -1.9005407  0.058646354   -3.3835476    1.4830069   518400 
 2534000   0.98708438   -3.3805238   -3.3805238   -1.8999001  0.058060974   -3.3805238    1.4806237   518400 
 2535000   0.98658868   -3.3798853   -3.3798853   -1.9000051  0.055424117   -3.3798853    1.4798802   518400 
 2536000   0.98713487   -3.3809893   -3.3809893   -1.9002899  0.060959294   -3.3809893    1.4806994   518400 
 2537000   0.98630617    -3.378824    -3.378824   -1.8993676  0.056264967    -3.378824    1.4794564   518400 
 2538000   0.98585587   -3.3785844   -3.3785844   -1.8998034  0.053687249   -3.3785844    1.4787809   518400 
 2539000   0.98725855   -3.3811747   -3.3811747   -1.9002898  0.049816706   -3.3811747     1.480885   518400 
 2540000   0.98714422   -3.3792343   -3.3792343   -1.8985208  0.054552766   -3.3792343    1.4807135   518400 
 2541000   0.98824933   -3.3818429   -3.3818429   -1.8994718  0.060607827   -3.3818429    1.4823711   518400 
 2542000   0.98685176   -3.3811188   -3.3811188    -1.900844   0.05730788   -3.3811188    1.4802748   518400 
 2543000   0.98789014   -3.3824609   -3.3824609   -1.9006286  0.057985653   -3.3824609    1.4818324   518400 
 2544000   0.98706393   -3.3808031   -3.3808031     -1.90021    0.0563306   -3.3808031     1.480593   518400 
 2545000   0.98855729   -3.3837455   -3.3837455   -1.9009125  0.056536557   -3.3837455    1.4828331   518400 
 2546000   0.98751694   -3.3827012   -3.3827012   -1.9014287   0.06774619   -3.3827012    1.4812725   518400 
 2547000   0.98745297   -3.3827461   -3.3827461   -1.9015695  0.055608224   -3.3827461    1.4811766   518400 
 2548000   0.98818844   -3.3853101   -3.3853101   -1.9030303  0.055148505   -3.3853101    1.4822798   518400 
 2549000   0.98793094   -3.3853188   -3.3853188   -1.9034252     0.051981   -3.3853188    1.4818936   518400 
 2550000   0.98868479   -3.3867453   -3.3867453   -1.9037209  0.056914524   -3.3867453    1.4830243   518400 
 2551000   0.98745779   -3.3856826   -3.3856826   -1.9044988  0.052520961   -3.3856826    1.4811838   518400 
 2552000   0.98650711   -3.3845845   -3.3845845   -1.9048267  0.052963514   -3.3845845    1.4797578   518400 
 2553000   0.98539543   -3.3817588   -3.3817588   -1.9036685  0.051595409   -3.3817588    1.4780903   518400 
 2554000    0.9850714   -3.3813021   -3.3813021   -1.9036979  0.054870077   -3.3813021    1.4776043   518400 
 2555000   0.98616998   -3.3841347   -3.3841347   -1.9048826   0.05470428   -3.3841347    1.4792521   518400 
 2556000   0.98677737   -3.3839097   -3.3839097   -1.9037465  0.054543852   -3.3839097    1.4801632   518400 
 2557000   0.98797948    -3.384189    -3.384189   -1.9022226  0.065114587    -3.384189    1.4819664   518400 
 2558000   0.98903213   -3.3856566   -3.3856566   -1.9021113  0.057970904   -3.3856566    1.4835453   518400 
 2559000   0.98916247   -3.3863008   -3.3863008   -1.9025599  0.056884675   -3.3863008    1.4837408   518400 
 2560000   0.98771574   -3.3841747   -3.3841747   -1.9026039  0.055784951   -3.3841747    1.4815707   518400 
 2561000    0.9881658   -3.3831883   -3.3831883   -1.9009424  0.056944142   -3.3831883    1.4822458   518400 
 2562000   0.98932314   -3.3835679   -3.3835679    -1.899586  0.057494887   -3.3835679    1.4839818   518400 
 2563000   0.98917763   -3.3831486   -3.3831486    -1.899385   0.05535933   -3.3831486    1.4837636   518400 
 2564000   0.98739681   -3.3810431   -3.3810431   -1.8999508  0.055972498   -3.3810431    1.4810924   518400 
 2565000   0.98831909   -3.3819488   -3.3819488    -1.899473  0.057178453   -3.3819488    1.4824758   518400 
 2566000   0.98861318   -3.3812504   -3.3812504   -1.8983335  0.060079637   -3.3812504    1.4829169   518400 
 2567000    0.9877813   -3.3804056   -3.3804056   -1.8987365  0.058140553   -3.3804056    1.4816691   518400 
 2568000   0.98580703   -3.3785123   -3.3785123   -1.8998046  0.060339115   -3.3785123    1.4787077   518400 
 2569000   0.98737648   -3.3817448   -3.3817448   -1.9006829  0.051588832   -3.3817448    1.4810619   518400 
 2570000   0.98805688   -3.3827587   -3.3827587   -1.9006763  0.057759563   -3.3827587    1.4820825   518400 
 2571000   0.98641387   -3.3804506   -3.3804506   -1.9008327  0.057434036   -3.3804506     1.479618   518400 
 2572000   0.98893159   -3.3837989   -3.3837989   -1.9004044   0.05427459   -3.3837989    1.4833945   518400 
 2573000   0.98974506   -3.3846219   -3.3846219   -1.9000072  0.055202565   -3.3846219    1.4846147   518400 
 2574000   0.98763765   -3.3827209   -3.3827209   -1.9012673  0.055771458   -3.3827209    1.4814536   518400 
 2575000   0.98622843   -3.3797197   -3.3797197   -1.9003799  0.052550722   -3.3797197    1.4793398   518400 
 2576000   0.98779412   -3.3811846   -3.3811846   -1.8994962   0.05841946   -3.3811846    1.4816883   518400 
 2577000   0.98829117   -3.3804561   -3.3804561   -1.8980222  0.056523617   -3.3804561    1.4824339   518400 
 2578000   0.98833242   -3.3821261   -3.3821261   -1.8996303  0.055605082   -3.3821261    1.4824958   518400 
 2579000   0.98975097   -3.3827133   -3.3827133   -1.8980897  0.057420196   -3.3827133    1.4846236   518400 
 2580000    0.9900162   -3.3836446   -3.3836446   -1.8986231  0.057977439   -3.3836446    1.4850214   518400 
 2581000   0.98830837    -3.380881    -3.380881   -1.8984213  0.053710677    -3.380881    1.4824597   518400 
 2582000   0.98874148   -3.3819956   -3.3819956   -1.8988863  0.057485667   -3.3819956    1.4831094   518400 
 2583000   0.98903831   -3.3832007   -3.3832007   -1.8996461  0.055776731   -3.3832007    1.4835546   518400 
 2584000   0.98931905   -3.3836277   -3.3836277    -1.899652  0.060966266   -3.3836277    1.4839757   518400 
 2585000   0.98943783   -3.3834598   -3.3834598   -1.8993059    0.0542871   -3.3834598    1.4841539   518400 
 2586000   0.98871087   -3.3814378   -3.3814378   -1.8983744  0.052459445   -3.3814378    1.4830634   518400 
 2587000   0.98954166    -3.383078    -3.383078   -1.8987684  0.052818921    -3.383078    1.4843096   518400 
 2588000   0.98650944   -3.3792001   -3.3792001   -1.8994388  0.053290061   -3.3792001    1.4797613   518400 
 2589000   0.98758462   -3.3819637   -3.3819637   -1.9005896   0.05518727   -3.3819637    1.4813741   518400 
 2590000   0.98631794   -3.3792927   -3.3792927   -1.8998186  0.061188482   -3.3792927    1.4794741   518400 
 2591000   0.98644885   -3.3792335   -3.3792335    -1.899563   0.05619402   -3.3792335    1.4796704   518400 
 2592000   0.98737875   -3.3814371   -3.3814371   -1.9003718  0.057247903   -3.3814371    1.4810653   518400 
 2593000   0.98734709   -3.3819794   -3.3819794   -1.9009616  0.050420257   -3.3819794    1.4810178   518400 
 2594000    0.9884848   -3.3834368   -3.3834368   -1.9007125  0.055273801   -3.3834368    1.4827243   518400 
 2595000   0.98800509   -3.3825491   -3.3825491   -1.9005444   0.05172781   -3.3825491    1.4820048   518400 
 2596000   0.98829191   -3.3830648   -3.3830648   -1.9006298  0.053469567   -3.3830648     1.482435   518400 
 2597000   0.98822574   -3.3809265   -3.3809265   -1.8985908  0.058441535   -3.3809265    1.4823358   518400 
 2598000   0.98791122   -3.3826719   -3.3826719   -1.9008079  0.062744519   -3.3826719     1.481864   518400 
 2599000   0.98876813   -3.3829769   -3.3829769   -1.8998275   0.05486882   -3.3829769    1.4831493   518400 
 2600000     0.988637   -3.3823489   -3.3823489   -1.8993963  0.057245785   -3.3823489    1.4829526   518400 
 2601000   0.98825721   -3.3818091   -3.3818091   -1.8994261  0.054671608   -3.3818091     1.482383   518400 
 2602000   0.98881732   -3.3825888   -3.3825888   -1.8993657  0.049813062   -3.3825888    1.4832231   518400 
 2603000   0.98849353   -3.3820322   -3.3820322   -1.8992947  0.061584646   -3.3820322    1.4827374   518400 
 2604000   0.99040871   -3.3843536   -3.3843536   -1.8987434  0.054214886   -3.3843536    1.4856102   518400 
 2605000   0.98859015     -3.37951     -3.37951   -1.8966276   0.05821792     -3.37951    1.4828824   518400 
 2606000   0.98750579   -3.3786635   -3.3786635   -1.8974076  0.054830428   -3.3786635    1.4812558   518400 
 2607000   0.98769984   -3.3791091   -3.3791091   -1.8975622  0.055299147   -3.3791091    1.4815469   518400 
 2608000   0.98662327   -3.3769743   -3.3769743   -1.8970422  0.052977825   -3.3769743    1.4799321   518400 
 2609000   0.98750623   -3.3780206   -3.3780206   -1.8967641  0.050387945   -3.3780206    1.4812565   518400 
 2610000   0.98766178   -3.3789414   -3.3789414   -1.8974516  0.051753329   -3.3789414    1.4814898   518400 
 2611000   0.98720371    -3.379185    -3.379185   -1.8983823  0.051856431    -3.379185    1.4808027   518400 
 2612000   0.98644741   -3.3791479   -3.3791479   -1.8994796  0.054540096   -3.3791479    1.4796683   518400 
 2613000   0.98492378   -3.3765479   -3.3765479   -1.8991651  0.061215797   -3.3765479    1.4773828   518400 
 2614000   0.98753453   -3.3807422   -3.3807422   -1.8994433  0.050607712   -3.3807422    1.4812989   518400 
 2615000   0.98804401   -3.3822301   -3.3822301    -1.900167  0.054591191   -3.3822301    1.4820632   518400 
 2616000   0.98695863   -3.3806473   -3.3806473   -1.9002122  0.055787063   -3.3806473    1.4804351   518400 
 2617000   0.98892804    -3.382785    -3.382785   -1.8993958  0.057540302    -3.382785    1.4833892   518400 
 2618000   0.99064041     -3.38569     -3.38569   -1.8997322  0.057504045     -3.38569    1.4859578   518400 
 2619000   0.98917579   -3.3843277   -3.3843277   -1.9005669  0.057378249   -3.3843277    1.4837608   518400 
 2620000   0.98930893   -3.3831435   -3.3831435    -1.899183  0.056049866   -3.3831435    1.4839605   518400 
 2621000   0.98855168   -3.3832214   -3.3832214   -1.9003968  0.058844797   -3.3832214    1.4828247   518400 
 2622000   0.98929849   -3.3836065   -3.3836065   -1.8996616  0.060443567   -3.3836065    1.4839449   518400 
 2623000   0.98896213   -3.3827915   -3.3827915   -1.8993512  0.053089233   -3.3827915    1.4834403   518400 
 2624000   0.98783723   -3.3813438   -3.3813438   -1.8995908  0.049682354   -3.3813438     1.481753   518400 
 2625000   0.98633397   -3.3786576   -3.3786576   -1.8991596  0.054033463   -3.3786576    1.4794981   518400 
 2626000   0.98598587   -3.3778801   -3.3778801   -1.8989041  0.055047678   -3.3778801     1.478976   518400 
 2627000   0.98667254   -3.3777683   -3.3777683   -1.8977624  0.056176734   -3.3777683     1.480006   518400 
 2628000    0.9872651   -3.3786792   -3.3786792   -1.8977844   0.05943182   -3.3786792    1.4808948   518400 
 2629000   0.98788437   -3.3795545   -3.3795545   -1.8977308   0.05728384   -3.3795545    1.4818237   518400 
 2630000   0.98829864   -3.3799851   -3.3799851     -1.89754  0.057525261   -3.3799851    1.4824451   518400 
 2631000   0.98783527   -3.3805613   -3.3805613   -1.8988113  0.053436604   -3.3805613      1.48175   518400 
 2632000   0.98923818   -3.3811176   -3.3811176   -1.8972632  0.056533667   -3.3811176    1.4838544   518400 
 2633000   0.98886623   -3.3813505   -3.3813505    -1.898054  0.062182611   -3.3813505    1.4832965   518400 
 2634000   0.98959873   -3.3831436   -3.3831436   -1.8987483  0.057268248   -3.3831436    1.4843952   518400 
 2635000   0.98911173   -3.3829954   -3.3829954   -1.8993307  0.055785839   -3.3829954    1.4836647   518400 
 2636000   0.98852128   -3.3820056   -3.3820056   -1.8992265   0.06133177   -3.3820056    1.4827791   518400 
 2637000    0.9886224   -3.3829538   -3.3829538    -1.900023  0.053915149   -3.3829538    1.4829307   518400 
 2638000   0.98855911   -3.3820143   -3.3820143   -1.8991784  0.053626447   -3.3820143    1.4828358   518400 
 2639000   0.98900092   -3.3834142   -3.3834142   -1.8999156   0.05467558   -3.3834142    1.4834985   518400 
 2640000   0.98769083   -3.3810683   -3.3810683    -1.899535   0.05295392   -3.3810683    1.4815334   518400 
 2641000   0.98710033   -3.3800191   -3.3800191   -1.8993715  0.052717024   -3.3800191    1.4806476   518400 
 2642000   0.98613058   -3.3784757   -3.3784757   -1.8992827  0.053204984   -3.3784757     1.479193   518400 
 2643000   0.98661539   -3.3774133   -3.3774133   -1.8974931  0.058750968   -3.3774133    1.4799202   518400 
 2644000   0.98657694   -3.3778188   -3.3778188   -1.8979562  0.047469867   -3.3778188    1.4798626   518400 
 2645000   0.98650426   -3.3768542   -3.3768542   -1.8971007  0.051355987   -3.3768542    1.4797535   518400 
 2646000   0.98566781   -3.3759366   -3.3759366   -1.8974377  0.052138628   -3.3759366    1.4784989   518400 
 2647000   0.98647131   -3.3774747   -3.3774747   -1.8977705  0.054120548   -3.3774747    1.4797041   518400 
 2648000    0.9883521   -3.3776791   -3.3776791   -1.8951538  0.049164579   -3.3776791    1.4825253   518400 
 2649000   0.98622073   -3.3751458   -3.3751458   -1.8958175  0.058139981   -3.3751458    1.4793282   518400 
 2650000   0.98651495   -3.3749918   -3.3749918   -1.8952222  0.055147451   -3.3749918    1.4797696   518400 
 2651000    0.9884427   -3.3772356   -3.3772356   -1.8945744    0.0532242   -3.3772356    1.4826612   518400 
 2652000   0.98925235   -3.3778439   -3.3778439   -1.8939682  0.052935323   -3.3778439    1.4838757   518400 
 2653000   0.98854715   -3.3773123   -3.3773123   -1.8944944  0.054306615   -3.3773123    1.4828179   518400 
 2654000   0.98824511   -3.3762508   -3.3762508    -1.893886  0.060887597   -3.3762508    1.4823648   518400 
 2655000    0.9888514   -3.3769321   -3.3769321   -1.8936578  0.056521561   -3.3769321    1.4832742   518400 
 2656000   0.98964081   -3.3773541   -3.3773541   -1.8928957   0.05533989   -3.3773541    1.4844583   518400 
 2657000   0.98933894   -3.3764337   -3.3764337   -1.8924282  0.059289021   -3.3764337    1.4840055   518400 
 2658000   0.98895795    -3.376091    -3.376091   -1.8926569  0.059113422    -3.376091    1.4834341   518400 
 2659000   0.98829695   -3.3763579   -3.3763579   -1.8939154  0.053526753   -3.3763579    1.4824426   518400 
 2660000   0.98837139   -3.3764275   -3.3764275   -1.8938732  0.051437292   -3.3764275    1.4825542   518400 
 2661000   0.98863658   -3.3776171   -3.3776171   -1.8946651  0.053856573   -3.3776171     1.482952   518400 
 2662000   0.98872497   -3.3778738   -3.3778738   -1.8947892  0.053151606   -3.3778738    1.4830846   518400 
 2663000   0.98939621   -3.3784714   -3.3784714   -1.8943799  0.050141122   -3.3784714    1.4840915   518400 
 2664000   0.98684107   -3.3758239   -3.3758239   -1.8955651  0.057175872   -3.3758239    1.4802588   518400 
 2665000   0.98732605   -3.3769609   -3.3769609   -1.8959747  0.056403152   -3.3769609    1.4809862   518400 
 2666000   0.98872605   -3.3790759   -3.3790759   -1.8959897  0.051806664   -3.3790759    1.4830862   518400 
 2667000   0.98907621   -3.3809411   -3.3809411   -1.8973296  0.057485444   -3.3809411    1.4836115   518400 
 2668000   0.98811918   -3.3799797   -3.3799797   -1.8978038  0.056804926   -3.3799797    1.4821759   518400 
 2669000    0.9879235   -3.3805443   -3.3805443    -1.898662  0.051410425   -3.3805443    1.4818824   518400 
 2670000   0.98859231   -3.3805013   -3.3805013   -1.8976157  0.060702373   -3.3805013    1.4828856   518400 
 2671000    0.9892569   -3.3818675   -3.3818675    -1.897985  0.050521492   -3.3818675    1.4838825   518400 
 2672000   0.98934449   -3.3799017   -3.3799017   -1.8958878  0.058650862   -3.3799017    1.4840139   518400 
 2673000   0.98892712   -3.3796976   -3.3796976   -1.8963098  0.058976448   -3.3796976    1.4833878   518400 
 2674000   0.98842203   -3.3779148   -3.3779148   -1.8952846  0.057432819   -3.3779148    1.4826302   518400 
 2675000   0.98822919   -3.3770947   -3.3770947   -1.8947537  0.054677992   -3.3770947    1.4823409   518400 
 2676000   0.98815508    -3.375903    -3.375903   -1.8936732  0.053746247    -3.375903    1.4822298   518400 
 2677000   0.98803046   -3.3761504   -3.3761504   -1.8941075   0.05216899   -3.3761504    1.4820428   518400 
 2678000   0.98952926   -3.3775758   -3.3775758   -1.8932848  0.053966331   -3.3775758     1.484291   518400 
 2679000   0.98825372   -3.3746874   -3.3746874   -1.8923097  0.058160677   -3.3746874    1.4823777   518400 
 2680000   0.98829172   -3.3741689   -3.3741689   -1.8917342  0.054397801   -3.3741689    1.4824347   518400 
 2681000   0.98823175   -3.3745819   -3.3745819   -1.8922371  0.051736749   -3.3745819    1.4823448   518400 
 2682000   0.98906688   -3.3757866   -3.3757866   -1.8921891  0.052990837   -3.3757866    1.4835975   518400 
 2683000    0.9906124   -3.3778858   -3.3778858     -1.89197  0.055293639   -3.3778858    1.4859157   518400 
 2684000    0.9893073   -3.3757899   -3.3757899   -1.8918318  0.061115791   -3.3757899    1.4839581   518400 
 2685000   0.99065522   -3.3780255   -3.3780255   -1.8920455  0.062797088   -3.3780255      1.48598   518400 
 2686000   0.98915378   -3.3771274   -3.3771274   -1.8933996  0.053664819   -3.3771274    1.4837278   518400 
 2687000   0.99003533   -3.3794655   -3.3794655   -1.8944153  0.056523678   -3.3794655    1.4850501   518400 
 2688000   0.99063062   -3.3791602   -3.3791602   -1.8932172  0.054317087   -3.3791602    1.4859431   518400 
 2689000   0.99068816   -3.3800848   -3.3800848   -1.8940554  0.060771635   -3.3800848    1.4860294   518400 
 2690000   0.98990706   -3.3785982   -3.3785982   -1.8937405  0.058163489   -3.3785982    1.4848577   518400 
 2691000   0.98899892   -3.3792287   -3.3792287   -1.8957332  0.057171026   -3.3792287    1.4834955   518400 
 2692000   0.98929207   -3.3794622   -3.3794622   -1.8955269   0.05954904   -3.3794622    1.4839352   518400 
 2693000   0.98857479   -3.3780609   -3.3780609   -1.8952016  0.057122646   -3.3780609    1.4828593   518400 
 2694000   0.98775277   -3.3749245   -3.3749245   -1.8932982  0.057980353   -3.3749245    1.4816263   518400 
 2695000   0.98882903   -3.3763754   -3.3763754   -1.8931347  0.056112743   -3.3763754    1.4832407   518400 
 2696000   0.98783339   -3.3754914   -3.3754914   -1.8937441  0.054662273   -3.3754914    1.4817472   518400 
 2697000   0.98844044   -3.3768286   -3.3768286   -1.8941708  0.058115629   -3.3768286    1.4826578   518400 
 2698000   0.98883996   -3.3772155   -3.3772155   -1.8939584  0.053800529   -3.3772155    1.4832571   518400 
 2699000   0.98845558   -3.3767309   -3.3767309   -1.8940504   0.05426255   -3.3767309    1.4826805   518400 
 2700000   0.98851737   -3.3766699   -3.3766699   -1.8938967  0.053511241   -3.3766699    1.4827732   518400 
 2701000     0.988659   -3.3763351   -3.3763351   -1.8933494  0.060982127   -3.3763351    1.4829856   518400 
 2702000   0.98810227   -3.3765751   -3.3765751   -1.8944245  0.052767176   -3.3765751    1.4821505   518400 
 2703000   0.99090018   -3.3812651   -3.3812651   -1.8949177   0.05855817   -3.3812651    1.4863474   518400 
 2704000   0.98978959   -3.3783719   -3.3783719   -1.8936904  0.058019395   -3.3783719    1.4846815   518400 
 2705000   0.98863148    -3.377455    -3.377455   -1.8945107  0.055449577    -3.377455    1.4829444   518400 
 2706000   0.98891549   -3.3768043   -3.3768043   -1.8934339  0.054557607   -3.3768043    1.4833704   518400 
 2707000   0.98852482   -3.3756983   -3.3756983    -1.892914  0.055618292   -3.3756983    1.4827844   518400 
 2708000   0.98904871   -3.3755912   -3.3755912    -1.892021  0.053806874   -3.3755912    1.4835702   518400 
 2709000   0.98970786   -3.3763601   -3.3763601   -1.8918012    0.0565039   -3.3763601    1.4845589   518400 
 2710000   0.98881876   -3.3746416   -3.3746416   -1.8914163  0.052088286   -3.3746416    1.4832253   518400 
 2711000   0.98822245   -3.3754263   -3.3754263   -1.8930955  0.053948841   -3.3754263    1.4823308   518400 
 2712000    0.9880363   -3.3734578   -3.3734578   -1.8914062  0.058059158   -3.3734578    1.4820516   518400 
 2713000   0.98894743   -3.3752312   -3.3752312   -1.8918129   0.05679468   -3.3752312    1.4834183   518400 
 2714000   0.98899184   -3.3747295   -3.3747295   -1.8912446  0.062567562   -3.3747295    1.4834849   518400 
 2715000   0.98872788    -3.375311    -3.375311    -1.892222  0.060020856    -3.375311     1.483089   518400 
 2716000   0.98884491   -3.3741881   -3.3741881   -1.8909236  0.060895767   -3.3741881    1.4832645   518400 
 2717000   0.99092901   -3.3779712   -3.3779712   -1.8915806  0.059547862   -3.3779712    1.4863906   518400 
 2718000   0.99171493   -3.3793214   -3.3793214   -1.8917519  0.054294929   -3.3793214    1.4875695   518400 
 2719000   0.99006182    -3.376413    -3.376413   -1.8913231  0.052975471    -3.376413    1.4850899   518400 
 2720000   0.99000868   -3.3772468   -3.3772468   -1.8922366  0.055810314   -3.3772468    1.4850102   518400 
 2721000   0.99131454   -3.3779158   -3.3779158   -1.8909468  0.060803994   -3.3779158    1.4869689   518400 
 2722000   0.98966291    -3.375455    -3.375455   -1.8909635  0.059199961    -3.375455    1.4844915   518400 
 2723000   0.98828732   -3.3747801   -3.3747801    -1.892352  0.058683802   -3.3747801    1.4824281   518400 
 2724000   0.98855294   -3.3762375   -3.3762375   -1.8934109  0.057227678   -3.3762375    1.4828266   518400 
 2725000   0.98752588   -3.3743877   -3.3743877   -1.8931017  0.056827383   -3.3743877     1.481286   518400 
 2726000   0.98776506   -3.3761346   -3.3761346   -1.8944899  0.053153933   -3.3761346    1.4816447   518400 
 2727000   0.98870629   -3.3771001   -3.3771001   -1.8940436  0.058433989   -3.3771001    1.4830566   518400 
 2728000   0.98847284    -3.376536    -3.376536   -1.8938296   0.05646407    -3.376536    1.4827064   518400 
 2729000    0.9879876   -3.3752937   -3.3752937   -1.8933152   0.06230016   -3.3752937    1.4819785   518400 
 2730000   0.99021439   -3.3780639   -3.3780639   -1.8927452  0.053645257   -3.3780639    1.4853187   518400 
 2731000    0.9883944   -3.3767935   -3.3767935   -1.8942047  0.056775134   -3.3767935    1.4825887   518400 
 2732000   0.98757929   -3.3749138   -3.3749138   -1.8935477  0.058903375   -3.3749138    1.4813661   518400 
 2733000   0.98790169    -3.374879    -3.374879   -1.8930293  0.055172031    -3.374879    1.4818497   518400 
 2734000   0.98861546    -3.375563    -3.375563   -1.8926426  0.058509979    -3.375563    1.4829203   518400 
 2735000   0.98909154   -3.3767062   -3.3767062   -1.8930717   0.06144134   -3.3767062    1.4836344   518400 
 2736000   0.99103593   -3.3793882   -3.3793882   -1.8928371  0.051557967   -3.3793882     1.486551   518400 
 2737000   0.98855104   -3.3756747   -3.3756747    -1.892851  0.054955525   -3.3756747    1.4828237   518400 
 2738000   0.98777383   -3.3753964   -3.3753964   -1.8937385  0.050993628   -3.3753964    1.4816579   518400 
 2739000   0.98837414   -3.3750418   -3.3750418   -1.8924835  0.061422662   -3.3750418    1.4825583   518400 
 2740000    0.9889593   -3.3756249   -3.3756249   -1.8921888  0.052166905   -3.3756249    1.4834361   518400 
 2741000   0.98729987   -3.3737037   -3.3737037   -1.8927568  0.057145416   -3.3737037     1.480947   518400 
 2742000   0.98768734   -3.3733261   -3.3733261    -1.891798  0.057691546   -3.3733261    1.4815282   518400 
 2743000   0.98825118   -3.3738009   -3.3738009    -1.891427  0.052746247   -3.3738009    1.4823739   518400 
 2744000    0.9891609   -3.3755658   -3.3755658   -1.8918273  0.056626684   -3.3755658    1.4837385   518400 
 2745000    0.9907159   -3.3778809   -3.3778809     -1.89181  0.057941321   -3.3778809     1.486071   518400 
 2746000   0.98902748   -3.3768696   -3.3768696   -1.8933312  0.057387924   -3.3768696    1.4835384   518400 
 2747000   0.98894999   -3.3785652   -3.3785652    -1.895143  0.061008835   -3.3785652    1.4834221   518400 
 2748000   0.98886942   -3.3792918   -3.3792918   -1.8959906  0.057853684   -3.3792918    1.4833013   518400 
 2749000   0.98871143   -3.3796078   -3.3796078   -1.8965436  0.057301676   -3.3796078    1.4830643   518400 
 2750000   0.98847764   -3.3776511   -3.3776511   -1.8949375  0.063935026   -3.3776511    1.4827136   518400 
 2751000   0.98903202   -3.3787614   -3.3787614   -1.8952163  0.054568722   -3.3787614    1.4835452   518400 
 2752000    0.9892504   -3.3788098   -3.3788098    -1.894937  0.056150054   -3.3788098    1.4838727   518400 
 2753000   0.98743451   -3.3771212   -3.3771212   -1.8959723  0.058983025   -3.3771212    1.4811489   518400 
 2754000   0.98747655   -3.3768851   -3.3768851   -1.8956731  0.057339093   -3.3768851     1.481212   518400 
 2755000   0.98855513   -3.3786652   -3.3786652   -1.8958354  0.055983214   -3.3786652    1.4828298   518400 
 2756000   0.98856272   -3.3775457   -3.3775457   -1.8947045  0.056190842   -3.3775457    1.4828412   518400 
 2757000   0.98916891   -3.3785522   -3.3785522   -1.8948017  0.056594385   -3.3785522    1.4837505   518400 
 2758000    0.9891863   -3.3779556   -3.3779556    -1.894179  0.050057017   -3.3779556    1.4837766   518400 
 2759000    0.9879013   -3.3770332   -3.3770332   -1.8951841  0.058080654   -3.3770332    1.4818491   518400 
 2760000   0.98820789   -3.3784486   -3.3784486   -1.8961397  0.055532116   -3.3784486     1.482309   518400 
 2761000   0.99034577    -3.378757    -3.378757   -1.8932412   0.06227702    -3.378757    1.4855158   518400 
 2762000   0.99096491   -3.3802055   -3.3802055    -1.893761  0.057943788   -3.3802055    1.4864445   518400 
 2763000   0.99093265   -3.3804825   -3.3804825   -1.8940864  0.058277379   -3.3804825    1.4863961   518400 
 2764000   0.99022104   -3.3782735   -3.3782735   -1.8929448  0.060604014   -3.3782735    1.4853287   518400 
 2765000   0.99104981   -3.3790224   -3.3790224   -1.8924506  0.060489231   -3.3790224    1.4865718   518400 
 2766000   0.99058077   -3.3797058   -3.3797058   -1.8938375  0.059460247   -3.3797058    1.4858683   518400 
 2767000   0.99098274   -3.3800229   -3.3800229   -1.8935516  0.054681565   -3.3800229    1.4864712   518400 
 2768000   0.99046542   -3.3794315   -3.3794315   -1.8937363  0.052452909   -3.3794315    1.4856953   518400 
 2769000   0.98919127   -3.3772416   -3.3772416   -1.8934576  0.056088727   -3.3772416     1.483784   518400 
 2770000   0.98950851   -3.3774104   -3.3774104   -1.8931505  0.057403198   -3.3774104    1.4842599   518400 
 2771000   0.98902182   -3.3769455   -3.3769455   -1.8934157  0.053567206   -3.3769455    1.4835299   518400 
 2772000   0.98989608   -3.3777771   -3.3777771   -1.8929358  0.054137307   -3.3777771    1.4848413   518400 
 2773000   0.98736944   -3.3742928   -3.3742928   -1.8932415  0.057040073   -3.3742928    1.4810513   518400 
 2774000   0.98765144    -3.375137    -3.375137   -1.8936627  0.055089454    -3.375137    1.4814743   518400 
 2775000   0.98650409   -3.3731867   -3.3731867   -1.8934334  0.052668012   -3.3731867    1.4797533   518400 
 2776000   0.98856929   -3.3758986   -3.3758986   -1.8930475  0.052645185   -3.3758986    1.4828511   518400 
 2777000   0.98877773   -3.3752157   -3.3752157   -1.8920519  0.058204579   -3.3752157    1.4831637   518400 
 2778000   0.98800821    -3.373496    -3.373496   -1.8914865  0.055228922    -3.373496    1.4820095   518400 
 2779000   0.98990754   -3.3757221   -3.3757221   -1.8908637  0.058703788   -3.3757221    1.4848584   518400 
 2780000   0.98894552   -3.3750507   -3.3750507   -1.8916352  0.059313987   -3.3750507    1.4834154   518400 
 2781000   0.99067807   -3.3767139   -3.3767139   -1.8906997  0.062322668   -3.3767139    1.4860142   518400 
 2782000   0.99177214   -3.3775412   -3.3775412   -1.8898858  0.061732554   -3.3775412    1.4876553   518400 
 2783000   0.99108058   -3.3770375   -3.3770375   -1.8904195  0.061319734   -3.3770375     1.486618   518400 
 2784000   0.99001381    -3.376986    -3.376986   -1.8919682  0.062935401    -3.376986    1.4850178   518400 
 2785000   0.98989005   -3.3765813   -3.3765813   -1.8917491  0.055072542   -3.3765813    1.4848322   518400 
 2786000   0.99014657   -3.3767156   -3.3767156   -1.8914986  0.052108103   -3.3767156     1.485217   518400 
 2787000   0.98944314    -3.376538    -3.376538   -1.8923762  0.055585849    -3.376538    1.4841618   518400 
 2788000   0.98839888   -3.3742482   -3.3742482   -1.8916527  0.058855596   -3.3742482    1.4825955   518400 
 2789000   0.98859278   -3.3745129   -3.3745129   -1.8916266  0.054543682   -3.3745129    1.4828863   518400 
 2790000   0.98740874   -3.3730573   -3.3730573   -1.8919471  0.050880621   -3.3730573    1.4811102   518400 
 2791000   0.98845775   -3.3731706   -3.3731706   -1.8904868  0.054974182   -3.3731706    1.4826838   518400 
 2792000   0.98722651   -3.3730688   -3.3730688   -1.8922319   0.05263615   -3.3730688    1.4808369   518400 
 2793000   0.98791073   -3.3736974   -3.3736974   -1.8918341  0.054518216   -3.3736974    1.4818632   518400 
 2794000   0.98830405    -3.373732    -3.373732   -1.8912788  0.053099665    -3.373732    1.4824532   518400 
 2795000   0.99073603   -3.3770222   -3.3770222    -1.890921  0.054794719   -3.3770222    1.4861012   518400 
 2796000   0.99051481   -3.3760081   -3.3760081   -1.8902387  0.054104958   -3.3760081    1.4857693   518400 
 2797000    0.9906156   -3.3773326   -3.3773326   -1.8914121  0.054871536   -3.3773326    1.4859205   518400 
 2798000    0.9884179   -3.3735253   -3.3735253   -1.8909013  0.060427025   -3.3735253     1.482624   518400 
 2799000   0.99177309    -3.377877    -3.377877   -1.8902203  0.061367612    -3.377877    1.4876568   518400 
 2800000   0.98963112   -3.3751394   -3.3751394   -1.8906956  0.061932748   -3.3751394    1.4844438   518400 
 2801000   0.99039126   -3.3764394   -3.3764394   -1.8908553  0.061462448   -3.3764394     1.485584   518400 
 2802000   0.99154406   -3.3786276   -3.3786276   -1.8913144  0.061594234   -3.3786276    1.4873132   518400 
 2803000   0.99076943   -3.3778327   -3.3778327   -1.8916814  0.063857837   -3.3778327    1.4861513   518400 
 2804000   0.99039067   -3.3776727   -3.3776727   -1.8920896  0.061434376   -3.3776727    1.4855831   518400 
 2805000   0.99042458    -3.376554    -3.376554     -1.89092  0.055469604    -3.376554     1.485634   518400 
 2806000   0.99058038   -3.3756355   -3.3756355   -1.8897678   0.05853555   -3.3756355    1.4858677   518400 
 2807000   0.99062042   -3.3753078   -3.3753078   -1.8893801  0.056939431   -3.3753078    1.4859278   518400 
 2808000   0.98989122   -3.3743046   -3.3743046   -1.8894707  0.061043389   -3.3743046     1.484834   518400 
 2809000   0.99055029   -3.3748243   -3.3748243   -1.8890018    0.0538013   -3.3748243    1.4858226   518400 
 2810000   0.99069175   -3.3749466   -3.3749466   -1.8889118  0.055519678   -3.3749466    1.4860348   518400 
 2811000   0.99069653   -3.3750421   -3.3750421   -1.8890002    0.0514688   -3.3750421    1.4860419   518400 
 2812000   0.98964115   -3.3715206   -3.3715206   -1.8870617   0.06047753   -3.3715206    1.4844589   518400 
 2813000   0.99102929   -3.3739958   -3.3739958   -1.8874548  0.053671195   -3.3739958    1.4865411   518400 
 2814000   0.99127884     -3.37456     -3.37456   -1.8876446  0.060218383     -3.37456    1.4869154   518400 
 2815000   0.99086725   -3.3749988   -3.3749988   -1.8887008  0.056400467   -3.3749988     1.486298   518400 
 2816000   0.99043893    -3.373733    -3.373733   -1.8880774  0.056611915    -3.373733    1.4856555   518400 
 2817000    0.9904202   -3.3735306   -3.3735306   -1.8879031  0.061131793   -3.3735306    1.4856274   518400 
 2818000   0.98992126   -3.3728607   -3.3728607   -1.8879816  0.059832215   -3.3728607     1.484879   518400 
 2819000   0.99034935   -3.3732712   -3.3732712   -1.8877501  0.060519979   -3.3732712    1.4855212   518400 
 2820000    0.9911673   -3.3745284   -3.3745284   -1.8877803    0.0587243   -3.3745284    1.4867481   518400 
 2821000   0.99027871    -3.373598    -3.373598   -1.8881828  0.056943157    -3.373598    1.4854152   518400 
 2822000   0.99120545    -3.376949    -3.376949   -1.8901437  0.056300787    -3.376949    1.4868053   518400 
 2823000   0.99069349   -3.3752499   -3.3752499   -1.8892125  0.054930098   -3.3752499    1.4860374   518400 
 2824000   0.99043945   -3.3753785   -3.3753785   -1.8897222  0.054823491   -3.3753785    1.4856563   518400 
 2825000   0.99040913   -3.3743497   -3.3743497   -1.8887389  0.055387645   -3.3743497    1.4856108   518400 
 2826000   0.98920456   -3.3724421   -3.3724421   -1.8886381  0.065069883   -3.3724421     1.483804   518400 
 2827000   0.99053193   -3.3743508   -3.3743508   -1.8885558  0.055528223   -3.3743508     1.485795   518400 
 2828000   0.99066458   -3.3754875   -3.3754875   -1.8894935  0.052961464   -3.3754875     1.485994   518400 
 2829000   0.98939546    -3.372793    -3.372793   -1.8887027  0.055439429    -3.372793    1.4840903   518400 
 2830000   0.98971517   -3.3742364   -3.3742364   -1.8896665  0.054549169   -3.3742364    1.4845699   518400 
 2831000   0.98931258   -3.3724436   -3.3724436   -1.8884776  0.052100399   -3.3724436     1.483966   518400 
 2832000   0.98932383   -3.3738121   -3.3738121   -1.8898292  0.057128025   -3.3738121    1.4839829   518400 
 2833000   0.98723579   -3.3722382   -3.3722382   -1.8913873  0.059658794   -3.3722382    1.4808508   518400 
 2834000   0.98835146   -3.3736042   -3.3736042   -1.8910798   0.05795754   -3.3736042    1.4825243   518400 
 2835000   0.98810899   -3.3735533   -3.3735533   -1.8913927  0.058437933   -3.3735533    1.4821606   518400 
 2836000   0.98815649    -3.374259    -3.374259   -1.8920272  0.049926911    -3.374259    1.4822319   518400 
 2837000   0.99038469   -3.3768019   -3.3768019   -1.8912277  0.053448756   -3.3768019    1.4855742   518400 
 2838000    0.9894773   -3.3739131   -3.3739131      -1.8897  0.056750203   -3.3739131    1.4842131   518400 
 2839000   0.99088864   -3.3752583   -3.3752583   -1.8889282  0.060315204   -3.3752583    1.4863301   518400 
 2840000   0.98972822    -3.375008    -3.375008   -1.8904186  0.055479815    -3.375008    1.4845895   518400 
 2841000   0.98998665   -3.3755339   -3.3755339   -1.8905568  0.056110714   -3.3755339    1.4849771   518400 
 2842000   0.98898705   -3.3731849   -3.3731849   -1.8897072  0.053310248   -3.3731849    1.4834777   518400 
 2843000   0.98896649   -3.3722167   -3.3722167   -1.8887698  0.053315156   -3.3722167    1.4834469   518400 
 2844000   0.98902311    -3.371705    -3.371705   -1.8881732  0.051978788    -3.371705    1.4835318   518400 
 2845000    0.9882961   -3.3704662   -3.3704662   -1.8880249  0.057697646   -3.3704662    1.4824413   518400 
 2846000   0.99030658    -3.371942    -3.371942    -1.886485  0.053916897    -3.371942     1.485457   518400 
 2847000    0.9894697   -3.3706293   -3.3706293   -1.8864277  0.057925692   -3.3706293    1.4842017   518400 
 2848000   0.98957619   -3.3713843   -3.3713843   -1.8870229  0.056776746   -3.3713843    1.4843614   518400 
 2849000   0.99088443    -3.373965    -3.373965   -1.8876412  0.053175721    -3.373965    1.4863238   518400 
 2850000   0.99008643   -3.3724045   -3.3724045   -1.8872777  0.056090784   -3.3724045    1.4851268   518400 
 2851000   0.99062524   -3.3736346   -3.3736346   -1.8876996  0.062169597   -3.3736346     1.485935   518400 
 2852000   0.99082131   -3.3737385   -3.3737385   -1.8875094  0.051954296   -3.3737385    1.4862291   518400 
 2853000   0.98965028   -3.3729437   -3.3729437   -1.8884711  0.056374211   -3.3729437    1.4844726   518400 
 2854000   0.98914736   -3.3713228   -3.3713228   -1.8876046  0.057033269   -3.3713228    1.4837182   518400 
 2855000   0.98995971   -3.3725922   -3.3725922   -1.8876555  0.051709213   -3.3725922    1.4849367   518400 
 2856000   0.98927664   -3.3730777   -3.3730777   -1.8891656  0.056411625   -3.3730777    1.4839121   518400 
 2857000    0.9902261   -3.3732734   -3.3732734   -1.8879371  0.058774296   -3.3732734    1.4853363   518400 
 2858000   0.99001579   -3.3722033   -3.3722033   -1.8871825   0.05710636   -3.3722033    1.4850208   518400 
 2859000   0.99040609   -3.3742645   -3.3742645   -1.8886583  0.059375901   -3.3742645    1.4856063   518400 
 2860000   0.98970266   -3.3727396   -3.3727396   -1.8881885   0.05888588   -3.3727396    1.4845511   518400 
 2861000   0.98790707   -3.3710689   -3.3710689   -1.8892111   0.05803989   -3.3710689    1.4818577   518400 
 2862000   0.99000708   -3.3734606   -3.3734606   -1.8884529  0.062637774   -3.3734606    1.4850078   518400 
 2863000   0.98930677   -3.3733366   -3.3733366   -1.8893793  0.056667597   -3.3733366    1.4839573   518400 
 2864000   0.98768326   -3.3715381   -3.3715381    -1.890016  0.058679471   -3.3715381     1.481522   518400 
 2865000   0.98991588   -3.3743754   -3.3743754   -1.8895044  0.055219773   -3.3743754    1.4848709   518400 
 2866000   0.98904823   -3.3740196   -3.3740196   -1.8904501  0.056526062   -3.3740196    1.4835695   518400 
 2867000   0.99013698   -3.3742973   -3.3742973   -1.8890947  0.056484496   -3.3742973    1.4852026   518400 
 2868000   0.98930672   -3.3737608   -3.3737608   -1.8898036  0.049935943   -3.3737608    1.4839572   518400 
 2869000   0.98799007   -3.3721338   -3.3721338   -1.8901516  0.055464496   -3.3721338    1.4819822   518400 
 2870000   0.98940746   -3.3731464   -3.3731464   -1.8890381  0.054995532   -3.3731464    1.4841083   518400 
 2871000   0.99093722   -3.3754202   -3.3754202   -1.8890173  0.057773355   -3.3754202     1.486403   518400 
 2872000   0.99209984   -3.3761662   -3.3761662   -1.8880194  0.055540151   -3.3761662    1.4881469   518400 
 2873000   0.99014763   -3.3739311   -3.3739311   -1.8887126  0.055141367   -3.3739311    1.4852186   518400 
 2874000   0.98987986   -3.3740466   -3.3740466   -1.8892297  0.060416888   -3.3740466    1.4848169   518400 
 2875000   0.99066123   -3.3758786   -3.3758786   -1.8898896   0.05872537   -3.3758786     1.485989   518400 
 2876000   0.98934688    -3.374768    -3.374768   -1.8907505    0.0532963    -3.374768    1.4840175   518400 
 2877000   0.98970178    -3.375899    -3.375899   -1.8913491  0.055727147    -3.375899    1.4845498   518400 
 2878000   0.98945174   -3.3744877   -3.3744877   -1.8903129  0.062805254   -3.3744877    1.4841747   518400 
 2879000   0.99000513   -3.3752658   -3.3752658    -1.890261  0.054914305   -3.3752658    1.4850048   518400 
 2880000   0.99014543   -3.3753162   -3.3753162    -1.890101   0.06028445   -3.3753162    1.4852153   518400 
 2881000   0.99089852   -3.3770072   -3.3770072   -1.8906623   0.06446202   -3.3770072    1.4863449   518400 
 2882000   0.99081183   -3.3769705   -3.3769705   -1.8907556  0.059938241   -3.3769705    1.4862149   518400 
 2883000   0.98817851   -3.3748412   -3.3748412   -1.8925763  0.060030987   -3.3748412    1.4822649   518400 
 2884000   0.98913592   -3.3770018   -3.3770018   -1.8933008  0.056647971   -3.3770018     1.483701   518400 
 2885000   0.98916025   -3.3771111   -3.3771111   -1.8933736  0.053369665   -3.3771111    1.4837375   518400 
 2886000   0.98870394   -3.3749147   -3.3749147   -1.8918616  0.056415722   -3.3749147     1.483053   518400 
 2887000   0.98887089   -3.3755767   -3.3755767   -1.8922732  0.054514456   -3.3755767    1.4833035   518400 
 2888000   0.98897015   -3.3763648   -3.3763648   -1.8929124  0.061433633   -3.3763648    1.4834524   518400 
 2889000   0.98905545   -3.3763999   -3.3763999   -1.8928196  0.057318626   -3.3763999    1.4835803   518400 
 2890000   0.98987503   -3.3762368   -3.3762368   -1.8914271    0.0567496   -3.3762368    1.4848097   518400 
 2891000   0.99141062   -3.3786125   -3.3786125   -1.8914995  0.057828113   -3.3786125    1.4871131   518400 
 2892000   0.99207227   -3.3798611   -3.3798611   -1.8917556  0.061849492   -3.3798611    1.4881055   518400 
 2893000   0.99112633   -3.3774939   -3.3774939   -1.8908073  0.055247006   -3.3774939    1.4866866   518400 
 2894000   0.98954976    -3.374524    -3.374524   -1.8902022  0.057877909    -3.374524    1.4843218   518400 
 2895000   0.99030789    -3.377248    -3.377248    -1.891789   0.05728402    -3.377248     1.485459   518400 
 2896000   0.99000234   -3.3763046   -3.3763046    -1.891304  0.058271166   -3.3763046    1.4850006   518400 
 2897000   0.98856536   -3.3755059   -3.3755059   -1.8926607   0.05782791   -3.3755059    1.4828452   518400 
 2898000   0.98875848   -3.3743505   -3.3743505   -1.8912156   0.05816206   -3.3743505    1.4831349   518400 
 2899000   0.98803736   -3.3740537   -3.3740537   -1.8920005  0.056926385   -3.3740537    1.4820532   518400 
 2900000   0.98856711   -3.3733922   -3.3733922   -1.8905444   0.05571783   -3.3733922    1.4828478   518400 
 2901000   0.98909283   -3.3746818   -3.3746818   -1.8910454  0.056754051   -3.3746818    1.4836364   518400 
 2902000   0.98974526   -3.3761997   -3.3761997   -1.8915847  0.053393598   -3.3761997     1.484615   518400 
 2903000   0.98741286   -3.3724981   -3.3724981   -1.8913817  0.057696572   -3.3724981    1.4811164   518400 
 2904000   0.98772849   -3.3736698   -3.3736698   -1.8920799  0.052256412   -3.3736698    1.4815899   518400 
 2905000   0.98813581   -3.3740728   -3.3740728    -1.891872   0.05505245   -3.3740728    1.4822009   518400 
 2906000    0.9892308   -3.3751555   -3.3751555   -1.8913122   0.06129205   -3.3751555    1.4838433   518400 
 2907000   0.98879692   -3.3748456   -3.3748456   -1.8916531  0.062398744   -3.3748456    1.4831925   518400 
 2908000   0.98883615   -3.3750653   -3.3750653   -1.8918139   0.06312986   -3.3750653    1.4832514   518400 
 2909000   0.98880149   -3.3762811   -3.3762811   -1.8930817  0.055424716   -3.3762811    1.4831994   518400 
 2910000   0.98924528   -3.3757788   -3.3757788   -1.8919138  0.056906191   -3.3757788    1.4838651   518400 
 2911000   0.99012606   -3.3769755   -3.3769755   -1.8917893  0.057457807   -3.3769755    1.4851862   518400 
 2912000   0.98943453   -3.3756382   -3.3756382   -1.8914893  0.059013278   -3.3756382    1.4841489   518400 
 2913000   0.99064992   -3.3771411   -3.3771411   -1.8911691  0.059206405   -3.3771411     1.485972   518400 
 2914000   0.99019311   -3.3766927   -3.3766927   -1.8914059  0.061312678   -3.3766927    1.4852868   518400 
 2915000   0.98964329   -3.3748747   -3.3748747   -1.8904126  0.054953934   -3.3748747    1.4844621   518400 
 2916000   0.99096458   -3.3765051   -3.3765051   -1.8900611  0.055818593   -3.3765051     1.486444   518400 
 2917000   0.99052934   -3.3757011   -3.3757011   -1.8899099  0.061023821   -3.3757011    1.4857911   518400 
 2918000   0.98963583   -3.3744554   -3.3744554   -1.8900045  0.057375781   -3.3744554    1.4844509   518400 
 2919000   0.99017321   -3.3743151   -3.3743151   -1.8890582  0.056777351   -3.3743151    1.4852569   518400 
 2920000   0.98912997   -3.3725293   -3.3725293   -1.8888372  0.063312189   -3.3725293    1.4836921   518400 
 2921000   0.98987541   -3.3739555   -3.3739555   -1.8891453   0.05615565   -3.3739555    1.4848102   518400 
 2922000   0.99066789   -3.3755756   -3.3755756   -1.8895766  0.058080669   -3.3755756     1.485999   518400 
 2923000   0.98997522   -3.3751959   -3.3751959    -1.890236   0.05287925   -3.3751959      1.48496   518400 
 2924000   0.98965027   -3.3736591   -3.3736591   -1.8891866  0.061255399   -3.3736591    1.4844725   518400 
 2925000    0.9892051   -3.3730133   -3.3730133   -1.8892085  0.051937712   -3.3730133    1.4838048   518400 
 2926000   0.98947532   -3.3727656   -3.3727656   -1.8885554  0.049980022   -3.3727656    1.4842101   518400 
 2927000   0.98966067   -3.3724347   -3.3724347   -1.8879466  0.055907182   -3.3724347    1.4844881   518400 
 2928000   0.98856861   -3.3707121   -3.3707121    -1.887862  0.051657087   -3.3707121    1.4828501   518400 
 2929000   0.98966418   -3.3718244   -3.3718244    -1.887331  0.055740015   -3.3718244    1.4844934   518400 
 2930000   0.99049146   -3.3724874   -3.3724874   -1.8867531   0.06018236   -3.3724874    1.4857343   518400 
 2931000   0.98996888   -3.3731338   -3.3731338   -1.8881833  0.058974659   -3.3731338    1.4849505   518400 
 2932000   0.99048389   -3.3737884   -3.3737884   -1.8880654  0.060935601   -3.3737884     1.485723   518400 
 2933000   0.98924461   -3.3721353   -3.3721353   -1.8882713  0.054374966   -3.3721353     1.483864   518400 
 2934000   0.99014452   -3.3730665   -3.3730665   -1.8878526  0.059268427   -3.3730665    1.4852139   518400 
 2935000   0.98951343   -3.3723391   -3.3723391   -1.8880718  0.067389624   -3.3723391    1.4842673   518400 
 2936000   0.99045878   -3.3742674   -3.3742674   -1.8885821  0.059168492   -3.3742674    1.4856853   518400 
 2937000   0.98985987     -3.37299     -3.37299   -1.8882031  0.060426394     -3.37299    1.4847869   518400 
 2938000   0.99131562   -3.3753751   -3.3753751   -1.8884045  0.054929873   -3.3753751    1.4869706   518400 
 2939000   0.98929188   -3.3724997   -3.3724997   -1.8885647  0.049410097   -3.3724997     1.483935   518400 
 2940000   0.99017718   -3.3739765   -3.3739765   -1.8887136  0.059260456   -3.3739765    1.4852629   518400 
 2941000   0.98958648   -3.3735558   -3.3735558   -1.8891789  0.055225799   -3.3735558    1.4843769   518400 
 2942000   0.98970245   -3.3736942   -3.3736942   -1.8891434  0.056822464   -3.3736942    1.4845508   518400 
 2943000   0.98922713   -3.3734432   -3.3734432   -1.8896053  0.057951149   -3.3734432    1.4838378   518400 
 2944000   0.99107294   -3.3758374   -3.3758374   -1.8892309  0.056423451   -3.3758374    1.4866065   518400 
 2945000   0.99112574   -3.3758775   -3.3758775   -1.8891917  0.061460197   -3.3758775    1.4866857   518400 
 2946000   0.98924198   -3.3733974   -3.3733974   -1.8895373  0.059064409   -3.3733974    1.4838601   518400 
 2947000   0.98849585   -3.3727673   -3.3727673   -1.8900264  0.057955021   -3.3727673    1.4827409   518400 
 2948000   0.98879512   -3.3739622   -3.3739622   -1.8907724  0.057834174   -3.3739622    1.4831898   518400 
 2949000   0.98943423   -3.3746723   -3.3746723   -1.8905238   0.05502506   -3.3746723    1.4841485   518400 
 2950000   0.98981059   -3.3741341   -3.3741341   -1.8894211   0.05960713   -3.3741341     1.484713   518400 
 2951000   0.98896707   -3.3731178   -3.3731178   -1.8896701  0.061490814   -3.3731178    1.4834477   518400 
 2952000   0.98888939    -3.373494    -3.373494   -1.8901628  0.057032018    -3.373494    1.4833312   518400 
 2953000   0.98887251   -3.3732377   -3.3732377   -1.8899318  0.057477393   -3.3732377    1.4833059   518400 
 2954000   0.98841347   -3.3715904   -3.3715904   -1.8889731  0.054119349   -3.3715904    1.4826173   518400 
 2955000   0.98895416   -3.3731359   -3.3731359   -1.8897076  0.054173218   -3.3731359    1.4834284   518400 
 2956000   0.98865485   -3.3728007   -3.3728007   -1.8898212  0.051838296   -3.3728007    1.4829794   518400 
 2957000   0.99002629   -3.3745647   -3.3745647   -1.8895281  0.061913556   -3.3745647    1.4850366   518400 
 2958000   0.98927205   -3.3732168   -3.3732168   -1.8893116  0.061644629   -3.3732168    1.4839052   518400 
 2959000   0.98996477   -3.3752242   -3.3752242   -1.8902799  0.059876962   -3.3752242    1.4849443   518400 
 2960000   0.98958325   -3.3750153   -3.3750153   -1.8906433   0.05484106   -3.3750153     1.484372   518400 
 2961000   0.99066172   -3.3747362   -3.3747362   -1.8887465  0.059070757   -3.3747362    1.4859897   518400 
 2962000   0.99119183   -3.3759882   -3.3759882   -1.8892033  0.058849979   -3.3759882    1.4867849   518400 
 2963000   0.99019777    -3.375074    -3.375074   -1.8897802  0.055776237    -3.375074    1.4852938   518400 
 2964000   0.99089675    -3.376029    -3.376029   -1.8896868  0.055183467    -3.376029    1.4863423   518400 
 2965000   0.99001941   -3.3749449   -3.3749449   -1.8899187   0.05390502   -3.3749449    1.4850263   518400 
 2966000   0.98884001   -3.3728114   -3.3728114   -1.8895542  0.054850304   -3.3728114    1.4832571   518400 
 2967000   0.99081736   -3.3768562   -3.3768562    -1.890633  0.056175668   -3.3768562    1.4862232   518400 
 2968000   0.98994546   -3.3747273   -3.3747273    -1.889812  0.056241065   -3.3747273    1.4849153   518400 
 2969000   0.99023606   -3.3752815   -3.3752815   -1.8899302   0.05402439   -3.3752815    1.4853512   518400 
 2970000   0.98958914   -3.3741498   -3.3741498   -1.8897689  0.061111503   -3.3741498    1.4843809   518400 
 2971000   0.98991123   -3.3747332   -3.3747332   -1.8898692   0.04920695   -3.3747332     1.484864   518400 
 2972000   0.98998446   -3.3744245   -3.3744245   -1.8894507  0.054585626   -3.3744245    1.4849738   518400 
 2973000   0.98966533   -3.3739316   -3.3739316   -1.8894364  0.052568124   -3.3739316    1.4844951   518400 
 2974000   0.98953209   -3.3734621   -3.3734621   -1.8891668  0.055123775   -3.3734621    1.4842953   518400 
 2975000    0.9887828   -3.3738451   -3.3738451   -1.8906738  0.056917001   -3.3738451    1.4831713   518400 
 2976000   0.99042949   -3.3756653   -3.3756653    -1.890024  0.051266976   -3.3756653    1.4856414   518400 
 2977000   0.98945841   -3.3742211   -3.3742211   -1.8900364  0.056664366   -3.3742211    1.4841848   518400 
 2978000   0.99008502   -3.3761816   -3.3761816    -1.891057  0.060077501   -3.3761816    1.4851247   518400 
 2979000   0.99128773   -3.3771901   -3.3771901   -1.8902613  0.054325291   -3.3771901    1.4869287   518400 
 2980000   0.99105993    -3.375922    -3.375922    -1.889335  0.049427315    -3.375922     1.486587   518400 
 2981000   0.98997893   -3.3745716   -3.3745716    -1.889606  0.060881022   -3.3745716    1.4849655   518400 
 2982000   0.98922726    -3.373168    -3.373168   -1.8893299  0.062111392    -3.373168     1.483838   518400 
 2983000   0.99195894   -3.3764556   -3.3764556   -1.8885201  0.053827516   -3.3764556    1.4879355   518400 
 2984000   0.99057092   -3.3731536   -3.3731536   -1.8873001  0.063086069   -3.3731536    1.4858535   518400 
 2985000   0.99039406   -3.3725001   -3.3725001   -1.8869119  0.057352542   -3.3725001    1.4855882   518400 
 2986000    0.9895386   -3.3715515   -3.3715515   -1.8872465  0.051278731   -3.3715515     1.484305   518400 
 2987000   0.98863615   -3.3704568   -3.3704568   -1.8875054  0.049956331   -3.3704568    1.4829514   518400 
 2988000   0.98851592   -3.3715919   -3.3715919   -1.8888209  0.058672879   -3.3715919     1.482771   518400 
 2989000   0.98930706   -3.3726407   -3.3726407    -1.888683    0.0540886   -3.3726407    1.4839577   518400 
 2990000   0.99052686   -3.3749483   -3.3749483   -1.8891609  0.051442525   -3.3749483    1.4857874   518400 
 2991000   0.98847265   -3.3734652   -3.3734652    -1.890759  0.055555629   -3.3734652    1.4827061   518400 
 2992000   0.98890829   -3.3736189   -3.3736189   -1.8902593  0.054308172   -3.3736189    1.4833596   518400 
 2993000   0.98875277   -3.3730435   -3.3730435   -1.8899172  0.056746585   -3.3730435    1.4831263   518400 
 2994000   0.98973573   -3.3745203   -3.3745203   -1.8899196  0.053848229   -3.3745203    1.4846007   518400 
 2995000   0.98984672   -3.3750331   -3.3750331   -1.8902658  0.055218972   -3.3750331    1.4847672   518400 
 2996000   0.98995326    -3.374977    -3.374977     -1.89005  0.054553681    -3.374977     1.484927   518400 
 2997000   0.98987455     -3.37478     -3.37478    -1.889971  0.054434971     -3.37478     1.484809   518400 
 2998000   0.98999793    -3.373591    -3.373591   -1.8885969  0.055837421    -3.373591     1.484994   518400 
 2999000   0.98980671   -3.3735098   -3.3735098   -1.8888026  0.055012724   -3.3735098    1.4847072   518400 
 3000000   0.98890607   -3.3731649   -3.3731649   -1.8898086  0.052026481   -3.3731649    1.4833562   518400 
Loop time of 22656.1 on 48 procs for 3000000 steps with 518400 atoms

Performance: 57203.075 tau/day, 132.415 timesteps/s
87.9% CPU use with 48 MPI tasks x 1 OpenMP threads

MPI task timing breakdown:
Section |  min time  |  avg time  |  max time  |%varavg|  %CPU | %total
-----------------------------------------------------------------------
Pair    | 5962.2     | 9442.1     | 12307      |1254.2 |  98.4 | 41.68
Bond    | 2.1985     | 2.3225     | 2.4506     |   4.2 | 100.0 |  0.01
Neigh   | 3124.3     | 4513.2     | 5996.6     | 745.7 |  99.5 | 19.92
Comm    | 3472.9     | 7460.2     | 12783      |2146.8 |  70.1 | 32.93
Output  | 81.218     | 81.766     | 81.784     |   0.9 |  71.5 |  0.36
Modify  | 363.88     | 642.32     | 1748.5     |1643.4 |  86.5 |  2.84
Other   |            | 514.2      |            |       |       |  2.27

Nlocal:        10800.0 ave       14303 max        6623 min
Histogram: 2 0 2 1 1 35 1 3 0 3
Nghost:        8440.15 ave        9720 max        6193 min
Histogram: 2 10 2 1 3 0 0 0 23 7
Neighs:        304665.0 ave      403868 max      134782 min
Histogram: 2 0 2 0 4 5 23 6 3 3

Total # of neighbors = 14623913
Ave neighs/atom = 28.209709
Ave special neighs/atom = 0.0000000
Neighbor list builds = 300000
Dangerous builds = 296999

write_data	data.lj
System init for write_data ...
WARNING: Not all mixed pair coeffs generated from mixing. Use write_data with 'pair ij' option to store all pair coeffs. (src/write_data.cpp:312)
Total wall time: 6:17:37
