LAMMPS (24 Dec 2020)
OMP_NUM_THREADS environment is not set. Defaulting to 1 thread. (src/comm.cpp:94)
  using 1 OpenMP thread(s) per MPI task
# Simple rigid body system
# needed variables:

#variable	startTemp equal 0.5
#variable 	temp 	  equal 0.8

units		lj
atom_style	full
dimension 	3
boundary	p p f
pair_style	lj/smooth/linear 2.0

variable 	sigma		equal 1.0
variable 	epsilon 	equal 1.0

region		box block 0 80 0 80 0 160
create_box 	3 box
Created orthogonal box = (0.0000000 0.0000000 0.0000000) to (80.000000 80.000000 160.00000)
  6 by 4 by 8 MPI processor grid



lattice 	sc 0.66
Lattice spacing in x,y,z = 1.1485556 1.1485556 1.1485556
region		fluid block EDGE EDGE EDGE EDGE 2 100 units box
create_atoms 	1 region fluid
Created 421400 atoms
  create_atoms CPU = 0.148 seconds

lattice 	sc 0.045
Lattice spacing in x,y,z = 2.8114422 2.8114422 2.8114422
region		gas block EDGE EDGE EDGE EDGE 101 158 units box
create_atoms    1 region gas
Created 17661 atoms
  create_atoms CPU = 0.004 seconds

group		solvent type 1
439061 atoms in group solvent

mass		1 1.0
mass		2 1.0
mass		3 1.0



neighbor 	0.4 bin

pair_coeff	1 1 1.0 1.0
pair_coeff	2 2 0.0 0.0
pair_coeff	3 3 0.0 0.0
pair_coeff	2 3 0.0 0.0
pair_coeff	1 2*3 0.0 0.0

pair_modify 	shift yes

delete_atoms	overlap 0.5 solvent solvent
System init for delete_atoms ...
Neighbor list info ...
  update every 1 steps, delay 10 steps, check yes
  max neighbors/atom: 2000, page size: 100000
  master list distance cutoff = 2.4
  ghost atom cutoff = 2.4
  binsize = 1.2, bins = 67 67 134
  2 neighbor lists, perpetual/occasional/extra = 1 1 0
  (1) command delete_atoms, occasional
      attributes: full, newton on
      pair build: full/bin
      stencil: full/bin/3d
      bin: standard
  (2) pair lj/smooth/linear, perpetual
      attributes: half, newton on
      pair build: half/bin/newton
      stencil: half/bin/3d/newton
      bin: standard
WARNING: Ignoring 'compress yes' for molecular system (src/delete_atoms.cpp:125)
Deleted 0 atoms, new total = 439061

velocity 	solvent create ${startTemp} 563435 loop geom
velocity 	solvent create .55 563435 loop geom

balance 	1.05 shift z 10 1.05
Balancing ...
Neighbor list info ...
  update every 1 steps, delay 10 steps, check yes
  max neighbors/atom: 2000, page size: 100000
  master list distance cutoff = 2.4
  ghost atom cutoff = 2.4
  binsize = 1.2, bins = 67 67 134
  1 neighbor lists, perpetual/occasional/extra = 1 0 0
  (1) pair lj/smooth/linear, perpetual
      attributes: half, newton on
      pair build: half/bin/newton
      stencil: half/bin/3d/newton
      bin: standard
 rebalancing time: 0.008 seconds
  iteration count = 5
  initial/final maximal load/proc = 3888.0000 2808.0000
  initial/final imbalance factor  = 1.7002102 1.2279296
  x cuts: 0.0000000 0.16666667 0.33333333 0.50000000 0.66666667 0.83333333 1.0000000
  y cuts: 0.0000000 0.25000000 0.50000000 0.75000000 1.0000000
  z cuts: 0.0000000 0.089843750 0.17578125 0.25390625 0.33593750 0.41406250 0.50390625 0.58203125 1.0000000


####################### WALLS ###########################


variable       epsilonWall equal 2*${epsilon}
variable       epsilonWall equal 2*1

variable       cutoffTop   equal   0.7147*${sigma}
variable       cutoffTop   equal   0.7147*1

variable       cutoffLow   equal   3*${sigma}
variable       cutoffLow   equal   3*1


fix            topWall all wall/lj93 zhi EDGE                ${epsilonWall} ${sigma} ${cutoffTop} units box
fix            topWall all wall/lj93 zhi EDGE                2 ${sigma} ${cutoffTop} units box
fix            topWall all wall/lj93 zhi EDGE                2 1 ${cutoffTop} units box
fix            topWall all wall/lj93 zhi EDGE                2 1 0.7147 units box

fix            lowWall all wall/lj93 zlo EDGE                ${epsilonWall} ${sigma} ${cutoffLow} units box
fix            lowWall all wall/lj93 zlo EDGE                2 ${sigma} ${cutoffLow} units box
fix            lowWall all wall/lj93 zlo EDGE                2 1 ${cutoffLow} units box
fix            lowWall all wall/lj93 zlo EDGE                2 1 3 units box


###################### COMPUTES ##########################

compute        bin1 solvent chunk/atom bin/1d z upper 1.0


######################	FIXES ############################


fix 		peclet solvent ave/chunk 1000 1 1000 bin1 density/number norm 		 none ave one file density.profile

fix 		 temp solvent ave/chunk 1000 1 1000 bin1 temp norm 		 none ave one file temp.profile

fix 		2 solvent nve


## Thermostat


region		regthermo block EDGE EDGE EDGE EDGE 0 20 units box

group 		thermo dynamic solvent region regthermo every 1000
dynamic group thermo defined

fix 		3 thermo langevin ${startTemp} ${temp} 10 156453
fix 		3 thermo langevin .55 ${temp} 10 156453
fix 		3 thermo langevin .55 .55 10 156453



#### Load balancing


fix 		bal all balance 1000 1.05 shift z 10 1.05


############### Diagnostics and computes ###################
#compute 	com cube	  rigid/local	1 mol x y z
#compute 	quat cube	  rigid/local	1 mol quatw quati quatj quatk

thermo 		1000
thermo_style 	custom step temp epair evdwl etotal press pe ke atoms

dump		1 all custom 100000 dump.lammpstrj id mol type x y z
dump 		2 all image 10000 image.*.png type type
dump 		3 all movie 1000 movie.avi type type

#dump 		com cube local 1000 dump.*.xyz c_com[*]
#dump		quat cube      local 1000 dump.*.quat c_quat[*]


restart 	1000000 restart.dat
timestep 	0.005
timer 		full
New timer settings: style=full  mode=nosync  timeout=off

run		5000000
Per MPI rank memory allocation (min/avg/max) = 9.917 | 9.995 | 10.07 Mbytes
Step Temp E_pair E_vdwl TotEng Press PotEng KinEng Atoms 
       0         0.55   0.22342731   0.22342731    1.0484254    4.4677301   0.22342731   0.82499812   439061 
    1000    1.6677663   -1.9557478   -1.9557478   0.54589585    2.1481442   -1.9557478    2.5016437   439061 
    2000    1.5769723   -2.0152954   -2.0152954   0.35015761    1.2911416   -2.0152954    2.3654531   439061 
    3000    1.4236896   -1.9559672   -1.9559672   0.17956236   0.96542592   -1.9559672    2.1355295   439061 
    4000    1.3369603   -1.9514291   -1.9514291  0.054006758   0.76750624   -1.9514291    2.0054359   439061 
    5000    1.2850478   -1.9379574   -1.9379574 -0.010390008   0.61714269   -1.9379574    1.9275674   439061 
    6000     1.252896   -1.9146347   -1.9146347 -0.035295069   0.53748633   -1.9146347    1.8793397   439061 
    7000    1.2298533   -1.8880506   -1.8880506 -0.043274936   0.53754233   -1.8880506    1.8447757   439061 
    8000    1.2138131   -1.8647925   -1.8647925 -0.044076977   0.56550032   -1.8647925    1.8207155   439061 
    9000    1.2079002   -1.8539192   -1.8539192 -0.042073118   0.59227351   -1.8539192    1.8118461   439061 
   10000    1.2066748   -1.8521402   -1.8521402 -0.042132081   0.62581006   -1.8521402    1.8100081   439061 
   11000    1.2101225   -1.8563232   -1.8563232 -0.041143557   0.65417085   -1.8563232    1.8151796   439061 
   12000    1.2105318   -1.8564636   -1.8564636  -0.04067003   0.65889723   -1.8564636    1.8157936   439061 
   13000    1.2031888   -1.8463399   -1.8463399  -0.04156086    0.6195115   -1.8463399    1.8047791   439061 
   14000    1.1871651   -1.8233645   -1.8233645 -0.042620964   0.56137167   -1.8233645    1.7807435   439061 
   15000    1.1708176   -1.7996638   -1.7996638   -0.0434414   0.52260564   -1.7996638    1.7562224   439061 
   16000    1.1601409   -1.7846854   -1.7846854 -0.044478017   0.50526019   -1.7846854    1.7402074   439061 
   17000    1.1594532   -1.7899504   -1.7899504 -0.050774624   0.53611903   -1.7899504    1.7391758   439061 
   18000     1.150274   -1.8103245   -1.8103245 -0.084917369   0.61971349   -1.8103245    1.7254071   439061 
   19000    1.1297309   -1.8316326   -1.8316326  -0.13704008   0.63980401   -1.8316326    1.6945925   439061 
   20000    1.1085306   -1.8431212   -1.8431212  -0.18032905   0.62814125   -1.8431212    1.6627922   439061 
   21000    1.0918159    -1.853468    -1.853468  -0.21574789   0.61331112    -1.853468    1.6377201   439061 
   22000    1.0775361   -1.8608928   -1.8608928  -0.24459239   0.61702853   -1.8608928    1.6163004   439061 
   23000    1.0690304   -1.8742171   -1.8742171  -0.27067512   0.61572559   -1.8742171     1.603542   439061 
   24000    1.0601328   -1.8830578   -1.8830578  -0.29286227   0.59793056   -1.8830578    1.5901955   439061 
   25000    1.0496041    -1.885204    -1.885204  -0.31080135   0.57390072    -1.885204    1.5744026   439061 
   26000    1.0384953   -1.8830321   -1.8830321   -0.3252927    0.5497047   -1.8830321    1.5577394   439061 
   27000    1.0275616    -1.877038    -1.877038  -0.33569915   0.52158562    -1.877038    1.5413388   439061 
   28000    1.0157726   -1.8696571   -1.8696571  -0.34600179   0.48534544   -1.8696571    1.5236554   439061 
   29000    1.0042212   -1.8599499   -1.8599499   -0.3536215   0.46166428   -1.8599499    1.5063284   439061 
   30000   0.99297868   -1.8493327   -1.8493327  -0.35986807   0.43759073   -1.8493327    1.4894646   439061 
   31000   0.98277589   -1.8392164   -1.8392164  -0.36505589   0.41954901   -1.8392164    1.4741605   439061 
   32000   0.97688023   -1.8341305   -1.8341305  -0.36881348   0.40156629   -1.8341305     1.465317   439061 
   33000   0.97342724   -1.8314891   -1.8314891  -0.37135156   0.39746048   -1.8314891    1.4601375   439061 
   34000   0.96850035    -1.825463    -1.825463   -0.3727158   0.39527597    -1.825463    1.4527472   439061 
   35000   0.96591631   -1.8234818   -1.8234818  -0.37461067   0.39172222   -1.8234818    1.4488712   439061 
   36000   0.96360875   -1.8212304   -1.8212304  -0.37582058   0.39044674   -1.8212304    1.4454098   439061 
   37000   0.96138231   -1.8178539   -1.8178539  -0.37578377   0.38799982   -1.8178539    1.4420702   439061 
   38000    0.9608139   -1.8182368   -1.8182368  -0.37701925   0.38121565   -1.8182368    1.4412176   439061 
   39000   0.95967918   -1.8166145   -1.8166145  -0.37709906   0.37657549   -1.8166145    1.4395155   439061 
   40000   0.95830829   -1.8145915   -1.8145915  -0.37713235   0.36422773   -1.8145915    1.4374592   439061 
   41000   0.95482511   -1.8099883   -1.8099883  -0.37775394   0.35656809   -1.8099883    1.4322344   439061 
   42000   0.95156598   -1.8042202   -1.8042202  -0.37687444   0.35364385   -1.8042202    1.4273457   439061 
   43000   0.95014072   -1.8034845   -1.8034845  -0.37827669   0.34870904   -1.8034845    1.4252078   439061 
   44000   0.95442397   -1.8127712   -1.8127712   -0.3811385   0.37047183   -1.8127712    1.4316327   439061 
   45000   0.95552974   -1.8256466   -1.8256466  -0.39235521   0.41410584   -1.8256466    1.4332914   439061 
   46000   0.95225272   -1.8406397   -1.8406397  -0.41226392   0.43393812   -1.8406397    1.4283758   439061 
   47000   0.94601677    -1.851607    -1.851607  -0.43258511   0.42988401    -1.851607    1.4190219   439061 
   48000   0.93964606   -1.8560707   -1.8560707  -0.44660478   0.41840027   -1.8560707    1.4094659   439061 
   49000   0.93412657   -1.8580497   -1.8580497  -0.45686308   0.41591529   -1.8580497    1.4011867   439061 
   50000   0.93033682   -1.8605984   -1.8605984  -0.46509632   0.40558256   -1.8605984    1.3955021   439061 
   51000   0.92762857   -1.8649874   -1.8649874  -0.47354773   0.39962911   -1.8649874    1.3914397   439061 
   52000   0.92400114    -1.866195    -1.866195  -0.48019647   0.40016871    -1.866195    1.3859985   439061 
   53000   0.92063994   -1.8683448   -1.8683448    -0.487388   0.38905277   -1.8683448    1.3809568   439061 
   54000   0.91637918   -1.8677949   -1.8677949  -0.49322924   0.38776023   -1.8677949    1.3745656   439061 
   55000    0.9125319    -1.865848    -1.865848  -0.49705327   0.37571392    -1.865848    1.3687947   439061 
   56000   0.90819439   -1.8643623   -1.8643623  -0.50207385   0.36467031   -1.8643623    1.3622885   439061 
   57000   0.90243166   -1.8597244   -1.8597244  -0.50607999   0.35201182   -1.8597244    1.3536444   439061 
   58000   0.89758253    -1.856695    -1.856695  -0.51032428   0.33986147    -1.856695    1.3463707   439061 
   59000   0.89279117    -1.851088    -1.851088  -0.51190431   0.33232277    -1.851088    1.3391837   439061 
   60000   0.88876295   -1.8483452   -1.8483452   -0.5152038   0.32793151   -1.8483452    1.3331414   439061 
   61000   0.88623447   -1.8463841   -1.8463841  -0.51703547   0.31796348   -1.8463841    1.3293487   439061 
   62000   0.88624693   -1.8475185   -1.8475185  -0.51815114   0.31626018   -1.8475185    1.3293674   439061 
   63000    0.8839678   -1.8458861   -1.8458861  -0.51993742   0.31537173   -1.8458861    1.3259487   439061 
   64000   0.88172136   -1.8440493   -1.8440493  -0.52147026   0.31129202   -1.8440493     1.322579   439061 
   65000   0.88145309   -1.8448226   -1.8448226    -0.522646   0.30785089   -1.8448226    1.3221766   439061 
   66000   0.87873299   -1.8420734   -1.8420734  -0.52397688   0.30637567   -1.8420734    1.3180965   439061 
   67000   0.87651931   -1.8389842   -1.8389842  -0.52420825   0.29835968   -1.8389842     1.314776   439061 
   68000   0.87715769   -1.8396312   -1.8396312  -0.52389762   0.29510005   -1.8396312    1.3157335   439061 
   69000    0.8752306     -1.83776     -1.83776  -0.52491705   0.28820874     -1.83776    1.3128429   439061 
   70000   0.87482816   -1.8392805   -1.8392805  -0.52704129   0.28652203   -1.8392805    1.3122393   439061 
   71000   0.87562821   -1.8409721   -1.8409721  -0.52753275   0.29058248   -1.8409721    1.3134393   439061 
   72000   0.87672563   -1.8455118   -1.8455118  -0.53042637   0.30321066   -1.8455118    1.3150854   439061 
   73000   0.87807656   -1.8519454   -1.8519454  -0.53483357   0.31803949   -1.8519454    1.3171118   439061 
   74000   0.87854546   -1.8609655   -1.8609655  -0.54315031   0.33878335   -1.8609655    1.3178152   439061 
   75000   0.87746067   -1.8707715   -1.8707715  -0.55458345   0.34286058   -1.8707715     1.316188   439061 
   76000   0.87363842    -1.875762    -1.875762  -0.56530741   0.34447753    -1.875762    1.3104546   439061 
   77000   0.87257042   -1.8820833   -1.8820833  -0.57323065   0.34233602   -1.8820833    1.3088526   439061 
   78000   0.86909207   -1.8844417   -1.8844417  -0.58080659   0.33283025   -1.8844417    1.3036351   439061 
   79000   0.86582037   -1.8839149   -1.8839149  -0.58518729   0.33201419   -1.8839149    1.2987276   439061 
   80000   0.86548849   -1.8877812   -1.8877812  -0.58955142   0.32307075   -1.8877812    1.2982298   439061 
   81000   0.86256719    -1.886791    -1.886791  -0.59294316   0.32465999    -1.886791    1.2938478   439061 
   82000   0.86143436   -1.8880896   -1.8880896  -0.59594102   0.32015329   -1.8880896    1.2921486   439061 
   83000   0.86080528   -1.8895124   -1.8895124  -0.59830747   0.31264119   -1.8895124     1.291205   439061 
   84000   0.85709968   -1.8866612   -1.8866612  -0.60101462   0.30674273   -1.8866612    1.2856466   439061 
   85000    0.8539013   -1.8849615   -1.8849615  -0.60411245   0.30278043   -1.8849615     1.280849   439061 
   86000   0.84963584   -1.8816561   -1.8816561  -0.60720522   0.29920326   -1.8816561    1.2744509   439061 
   87000   0.84779417   -1.8814646   -1.8814646  -0.60977629   0.29453949   -1.8814646    1.2716884   439061 
   88000   0.84633063   -1.8819659   -1.8819659  -0.61247281   0.28879744   -1.8819659    1.2694931   439061 
   89000   0.84426364   -1.8807856   -1.8807856  -0.61439305   0.27980248   -1.8807856    1.2663926   439061 
   90000   0.84168416   -1.8779882   -1.8779882  -0.61546485   0.28166804   -1.8779882    1.2625234   439061 
   91000   0.83988673   -1.8772941   -1.8772941  -0.61746685   0.27455146   -1.8772941    1.2598272   439061 
   92000   0.83796166   -1.8763543   -1.8763543  -0.61941463   0.27223229   -1.8763543    1.2569396   439061 
   93000   0.83649975   -1.8752646   -1.8752646  -0.62051779   0.26814681   -1.8752646    1.2547468   439061 
   94000   0.83605405   -1.8761434   -1.8761434  -0.62206523   0.26293482   -1.8761434    1.2540782   439061 
   95000   0.83458222   -1.8740685   -1.8740685  -0.62219805   0.26637163   -1.8740685    1.2518705   439061 
   96000   0.83425456   -1.8746518   -1.8746518   -0.6232728   0.26109827   -1.8746518     1.251379   439061 
   97000   0.83334879   -1.8742884   -1.8742884  -0.62426811   0.26164266   -1.8742884    1.2500203   439061 
   98000   0.83252606   -1.8738205   -1.8738205  -0.62503426   0.26032703   -1.8738205    1.2487862   439061 
   99000   0.83281385   -1.8749633   -1.8749633  -0.62574533   0.25442408   -1.8749633    1.2492179   439061 
  100000   0.83247808   -1.8767241   -1.8767241  -0.62800986   0.25952354   -1.8767241    1.2487143   439061 
  101000   0.83376685   -1.8790491   -1.8790491  -0.62840169   0.26464278   -1.8790491    1.2506474   439061 
  102000   0.83646462   -1.8855478   -1.8855478  -0.63085375   0.27652351   -1.8855478    1.2546941   439061 
  103000   0.83614712   -1.8911341   -1.8911341  -0.63691631   0.28374807   -1.8911341    1.2542178   439061 
  104000   0.83552047   -1.8978531   -1.8978531  -0.64457529   0.29068026   -1.8978531    1.2532778   439061 
  105000    0.8348052   -1.9025791   -1.9025791  -0.65037413   0.29767957   -1.9025791     1.252205   439061 
  106000   0.83325234   -1.9067481   -1.9067481  -0.65687243   0.29954522   -1.9067481    1.2498757   439061 
  107000   0.83112177   -1.9087213   -1.9087213  -0.66204146    0.2988537   -1.9087213    1.2466798   439061 
  108000   0.83050757   -1.9124248   -1.9124248  -0.66666626   0.28915076   -1.9124248    1.2457585   439061 
  109000   0.82710296   -1.9112226   -1.9112226  -0.67057103   0.28690995   -1.9112226    1.2406516   439061 
  110000   0.82714843   -1.9137522   -1.9137522  -0.67303238   0.28395102   -1.9137522    1.2407198   439061 
  111000   0.82487438   -1.9128473   -1.9128473  -0.67553859   0.27761036   -1.9128473    1.2373088   439061 
  112000   0.82423294   -1.9134846   -1.9134846  -0.67713804   0.27811639   -1.9134846    1.2363466   439061 
  113000   0.82171693   -1.9117272   -1.9117272  -0.67915457   0.27338608   -1.9117272    1.2325726   439061 
  114000   0.82050395   -1.9114833   -1.9114833  -0.68073018   0.27170738   -1.9114833    1.2307531   439061 
  115000   0.81787634   -1.9108881   -1.9108881  -0.68407634   0.26702503   -1.9108881    1.2268117   439061 
  116000   0.81644237   -1.9108734   -1.9108734  -0.68621267   0.26125916   -1.9108734    1.2246608   439061 
  117000   0.81464962   -1.9095881   -1.9095881  -0.68761647   0.25564113   -1.9095881    1.2219716   439061 
  118000   0.81365253   -1.9093997   -1.9093997  -0.68892365   0.25376791   -1.9093997     1.220476   439061 
  119000   0.81248662   -1.9079804   -1.9079804   -0.6892532    0.2510391   -1.9079804    1.2187272   439061 
  120000   0.81102147   -1.9063275   -1.9063275  -0.68979804    0.2500041   -1.9063275    1.2165294   439061 
  121000   0.80973737   -1.9051974   -1.9051974   -0.6905941   0.24935366   -1.9051974    1.2146033   439061 
  122000   0.80801511   -1.9052495   -1.9052495  -0.69322957   0.24718455   -1.9052495    1.2120199   439061 
  123000   0.80741573   -1.9053527   -1.9053527   -0.6942319   0.24054724   -1.9053527    1.2111208   439061 
  124000   0.80692923   -1.9061052   -1.9061052  -0.69571407   0.23309212   -1.9061052    1.2103911   439061 
  125000   0.80477032   -1.9041428   -1.9041428  -0.69699002    0.2409093   -1.9041428    1.2071527   439061 
  126000   0.80554145   -1.9063616   -1.9063616  -0.69805215   0.23549868   -1.9063616    1.2083094   439061 
  127000   0.80501482   -1.9069898   -1.9069898  -0.69947035   0.23220344   -1.9069898    1.2075195   439061 
  128000   0.80384598   -1.9065999   -1.9065999  -0.70083364   0.23651122   -1.9065999    1.2057662   439061 
  129000   0.80474098   -1.9088057   -1.9088057  -0.70169703   0.23800505   -1.9088057    1.2071087   439061 
  130000   0.80345694   -1.9085289   -1.9085289  -0.70334626   0.24339015   -1.9085289    1.2051827   439061 
  131000   0.80514988   -1.9131067   -1.9131067  -0.70538458     0.247378   -1.9131067    1.2077221   439061 
  132000    0.8058564     -1.91653     -1.91653  -0.70774815   0.24825455     -1.91653    1.2087819   439061 
  133000   0.80647182   -1.9199056   -1.9199056  -0.71020064   0.25619956   -1.9199056     1.209705   439061 
  134000    0.8064631   -1.9244514   -1.9244514   -0.7147595   0.25673094   -1.9244514    1.2096919   439061 
  135000   0.80538627   -1.9274513   -1.9274513  -0.71937462   0.26024656   -1.9274513    1.2080767   439061 
  136000   0.80400317   -1.9301088   -1.9301088  -0.72410678   0.26333692   -1.9301088     1.206002   439061 
  137000   0.80315876   -1.9330676   -1.9330676  -0.72833219   0.26439588   -1.9330676    1.2047354   439061 
  138000   0.80282811   -1.9364107   -1.9364107  -0.73217124   0.25961695   -1.9364107    1.2042394   439061 
  139000   0.80121911   -1.9370214   -1.9370214  -0.73519545   0.26119473   -1.9370214    1.2018259   439061 
  140000    0.7994761   -1.9365394   -1.9365394  -0.73732794   0.25678543   -1.9365394    1.1992114   439061 
  141000    0.7978316   -1.9362729   -1.9362729  -0.73952823   0.25205822   -1.9362729    1.1967447   439061 
  142000    0.7973136   -1.9377526   -1.9377526  -0.74178494    0.2445836   -1.9377526    1.1959677   439061 
  143000   0.79506449   -1.9362905   -1.9362905  -0.74369645   0.24255863   -1.9362905     1.192594   439061 
  144000   0.79382253   -1.9355173   -1.9355173  -0.74478627   0.24550138   -1.9355173    1.1907311   439061 
  145000   0.79261209   -1.9345297   -1.9345297  -0.74561423   0.24130766   -1.9345297    1.1889154   439061 
  146000   0.79261546   -1.9352679   -1.9352679  -0.74634738   0.23728951   -1.9352679    1.1889205   439061 
  147000   0.79071308   -1.9353586   -1.9353586   -0.7492917   0.23624326   -1.9353586    1.1860669   439061 
  148000   0.78908174    -1.933735    -1.933735  -0.75011508   0.23177641    -1.933735    1.1836199   439061 
  149000   0.78772577   -1.9325941   -1.9325941  -0.75100815   0.23077459   -1.9325941     1.181586   439061 
  150000   0.78724142   -1.9335361   -1.9335361  -0.75267662   0.22505102   -1.9335361    1.1808594   439061 
  151000   0.78642688   -1.9331338   -1.9331338  -0.75349616   0.22709943   -1.9331338    1.1796376   439061 
  152000   0.78621741   -1.9337334   -1.9337334     -0.75441   0.22338406   -1.9337334    1.1793234   439061 
  153000   0.78500754   -1.9333818   -1.9333818   -0.7558732   0.22261765   -1.9333818    1.1775086   439061 
  154000   0.78386983   -1.9325618   -1.9325618  -0.75675973   0.22545355   -1.9325618    1.1758021   439061 
  155000    0.7823739   -1.9326098   -1.9326098  -0.75905159   0.22063383   -1.9326098    1.1735582   439061 
  156000   0.78217861   -1.9334612   -1.9334612  -0.76019598    0.2167216   -1.9334612    1.1732652   439061 
  157000    0.7827484   -1.9352692   -1.9352692  -0.76114932   0.21877805   -1.9352692    1.1741199   439061 
  158000   0.78267655    -1.935265    -1.935265  -0.76125281   0.21918613    -1.935265    1.1740121   439061 
  159000   0.78271998   -1.9374329   -1.9374329  -0.76335566   0.22052029   -1.9374329    1.1740773   439061 
  160000   0.78068376   -1.9358687   -1.9358687  -0.76484571   0.22460293   -1.9358687     1.171023   439061 
  161000   0.78158955   -1.9394144   -1.9394144  -0.76703277   0.22366408   -1.9394144    1.1723817   439061 
  162000   0.78237205    -1.942012    -1.942012  -0.76845659     0.228609    -1.942012    1.1735554   439061 
  163000   0.78308729   -1.9449481   -1.9449481  -0.77031984    0.2322095   -1.9449481    1.1746283   439061 
  164000    0.7834453    -1.948702    -1.948702  -0.77353675   0.23477552    -1.948702    1.1751653   439061 
  165000   0.78273195   -1.9519965   -1.9519965  -0.77790121   0.23610943   -1.9519965    1.1740952   439061 
  166000    0.7817589   -1.9537698   -1.9537698  -0.78113412   0.23566749   -1.9537698    1.1726357   439061 
  167000   0.78128911   -1.9564948   -1.9564948  -0.78456377    0.2393965   -1.9564948     1.171931   439061 
  168000   0.77972669   -1.9571627   -1.9571627  -0.78757535   0.23759775   -1.9571627    1.1695874   439061 
  169000   0.77874099   -1.9583501   -1.9583501  -0.79024125    0.2371569   -1.9583501    1.1681088   439061 
  170000   0.77806968   -1.9591215   -1.9591215  -0.79201965   0.23149439   -1.9591215    1.1671019   439061 
  171000   0.77712237    -1.960505    -1.960505  -0.79482406   0.22351681    -1.960505    1.1656809   439061 
  172000   0.77655495   -1.9602276   -1.9602276   -0.7953978   0.22650753   -1.9602276    1.1648298   439061 
  173000   0.77471756   -1.9589425   -1.9589425  -0.79686882   0.22528156   -1.9589425    1.1620737   439061 
  174000   0.77475524   -1.9607469   -1.9607469  -0.79861665   0.21959634   -1.9607469    1.1621302   439061 
  175000   0.77296498   -1.9593273   -1.9593273  -0.79988247   0.21761453   -1.9593273    1.1594448   439061 
  176000   0.77219671   -1.9594936   -1.9594936  -0.80120115   0.21718676   -1.9594936    1.1582924   439061 
  177000   0.77064604   -1.9586263   -1.9586263  -0.80265984    0.2160121   -1.9586263    1.1559664   439061 
  178000   0.76897651   -1.9581362   -1.9581362  -0.80467409   0.21685498   -1.9581362    1.1534621   439061 
  179000   0.76793151   -1.9573524   -1.9573524  -0.80545774   0.21165091   -1.9573524    1.1518946   439061 
  180000   0.76723514   -1.9570943   -1.9570943  -0.80624418   0.21243994   -1.9570943    1.1508501   439061 
  181000   0.76611666   -1.9564497   -1.9564497  -0.80727734    0.2099062   -1.9564497    1.1491724   439061 
  182000   0.76512057    -1.955992    -1.955992  -0.80831377   0.21046108    -1.955992    1.1476782   439061 
  183000   0.76542059   -1.9581564   -1.9581564  -0.81002818   0.20413719   -1.9581564    1.1481283   439061 
  184000   0.76445458   -1.9574246   -1.9574246  -0.81074529   0.20751322   -1.9574246    1.1466793   439061 
  185000   0.76398742   -1.9571109   -1.9571109  -0.81113237   0.20849472   -1.9571109    1.1459785   439061 
  186000   0.76372636   -1.9578207   -1.9578207  -0.81223379   0.20176701   -1.9578207    1.1455869   439061 
  187000   0.76471728    -1.959679    -1.959679  -0.81260567   0.20369363    -1.959679    1.1470733   439061 
  188000   0.76463118    -1.960526    -1.960526  -0.81358184   0.20582546    -1.960526    1.1469442   439061 
  189000   0.76395035   -1.9614273   -1.9614273  -0.81550437   0.20229293   -1.9614273    1.1459229   439061 
  190000    0.7642153   -1.9637986   -1.9637986  -0.81747823   0.20739917   -1.9637986    1.1463203   439061 
  191000   0.76410328   -1.9651194   -1.9651194   -0.8189671   0.20370176   -1.9651194    1.1461523   439061 
  192000   0.76387847   -1.9669379   -1.9669379  -0.82112278   0.21099838   -1.9669379    1.1458151   439061 
  193000   0.76286902    -1.967244    -1.967244   -0.8229431   0.21465025    -1.967244    1.1443009   439061 
  194000    0.7629768   -1.9700156   -1.9700156  -0.82555298   0.21316513   -1.9700156    1.1444626   439061 
  195000   0.76245904   -1.9721897   -1.9721897  -0.82850379   0.21391727   -1.9721897     1.143686   439061 
  196000    0.7613995   -1.9727131   -1.9727131   -0.8306165   0.21455737   -1.9727131    1.1420966   439061 
  197000   0.76232676   -1.9750757   -1.9750757  -0.83158812   0.21775813   -1.9750757    1.1434875   439061 
  198000   0.76193136   -1.9769527   -1.9769527  -0.83405828   0.21650205   -1.9769527    1.1428944   439061 
  199000   0.76075885    -1.977228    -1.977228   -0.8360923   0.21587699    -1.977228    1.1411357   439061 
  200000   0.76032951     -1.97813     -1.97813  -0.83763833   0.21233971     -1.97813    1.1404917   439061 
  201000   0.75982457   -1.9793341   -1.9793341  -0.83959984   0.21084795   -1.9793341    1.1397343   439061 
  202000   0.75885038    -1.980022    -1.980022  -0.84174902   0.20819215    -1.980022     1.138273   439061 
  203000   0.75804301   -1.9800022   -1.9800022  -0.84294031   0.20496251   -1.9800022    1.1370619   439061 
  204000   0.75608329   -1.9787288   -1.9787288  -0.84460648   0.20778893   -1.9787288    1.1341224   439061 
  205000   0.75557529   -1.9794738   -1.9794738  -0.84611343   0.20425046   -1.9794738    1.1333604   439061 
  206000   0.75471218   -1.9791648   -1.9791648  -0.84709907   0.20193807   -1.9791648    1.1320657   439061 
  207000   0.75321794   -1.9790092   -1.9790092  -0.84918482   0.20092477   -1.9790092    1.1298243   439061 
  208000   0.75250405    -1.978851    -1.978851  -0.85009747   0.19667043    -1.978851    1.1287535   439061 
  209000   0.75215778   -1.9801039   -1.9801039  -0.85186981   0.19741683   -1.9801039    1.1282341   439061 
  210000   0.75133387   -1.9796723   -1.9796723  -0.85267411    0.1982186   -1.9796723    1.1269982   439061 
  211000   0.75028621   -1.9794938   -1.9794938  -0.85406704   0.19752278   -1.9794938    1.1254268   439061 
  212000    0.7505315   -1.9797249   -1.9797249   -0.8539302   0.19825896   -1.9797249    1.1257947   439061 
  213000   0.75022134   -1.9813597   -1.9813597  -0.85603022   0.19403073   -1.9813597    1.1253295   439061 
  214000   0.75003016   -1.9818138   -1.9818138  -0.85677108   0.19079596   -1.9818138    1.1250427   439061 
  215000   0.74836923   -1.9803102   -1.9803102  -0.85775891   0.19372475   -1.9803102    1.1225513   439061 
  216000   0.74799146   -1.9809837   -1.9809837  -0.85899906   0.19407797   -1.9809837    1.1219846   439061 
  217000   0.74719822   -1.9816878   -1.9816878  -0.86089305   0.18988144   -1.9816878    1.1207948   439061 
  218000   0.74676783   -1.9815219   -1.9815219  -0.86137275   0.19334338   -1.9815219    1.1201492   439061 
  219000   0.74876351   -1.9853135   -1.9853135  -0.86217083   0.19260114   -1.9853135    1.1231427   439061 
  220000   0.74637753   -1.9828155   -1.9828155  -0.86325174   0.19286487   -1.9828155    1.1195638   439061 
  221000   0.74786229   -1.9858171   -1.9858171  -0.86402625   0.19442399   -1.9858171    1.1217909   439061 
  222000   0.74670412   -1.9857891   -1.9857891   -0.8657355   0.19299058   -1.9857891    1.1200536   439061 
  223000   0.74695186    -1.987475    -1.987475  -0.86704972   0.19525331    -1.987475    1.1204252   439061 
  224000   0.74746496   -1.9901781   -1.9901781  -0.86898324   0.19782903   -1.9901781    1.1211949   439061 
  225000   0.74641931   -1.9907911   -1.9907911  -0.87116467   0.19725383   -1.9907911    1.1196264   439061 
  226000   0.74652424   -1.9928889   -1.9928889  -0.87310512   0.19649922   -1.9928889    1.1197838   439061 
  227000    0.7450707   -1.9924133   -1.9924133  -0.87480975    0.1976441   -1.9924133    1.1176035   439061 
  228000   0.74541264   -1.9947367   -1.9947367  -0.87662031   0.19649468   -1.9947367    1.1181164   439061 
  229000    0.7449876   -1.9959123   -1.9959123  -0.87843344   0.19726893   -1.9959123    1.1174789   439061 
  230000   0.74374073    -1.996289    -1.996289   -0.8806804   0.19580558    -1.996289    1.1156086   439061 
  231000   0.74302243   -1.9970149   -1.9970149  -0.88248377    0.1958888   -1.9970149    1.1145311   439061 
  232000   0.74265596   -1.9976605   -1.9976605  -0.88367914   0.19880228   -1.9976605    1.1139814   439061 
  233000   0.74196889    -1.999179    -1.999179  -0.88622819   0.19576534    -1.999179    1.1129508   439061 
  234000   0.74129471    -1.999206    -1.999206  -0.88726645   0.19267007    -1.999206    1.1119395   439061 
  235000   0.74094207   -1.9993103   -1.9993103  -0.88789976   0.18968858   -1.9993103    1.1114106   439061 
  236000   0.74048669   -2.0002341   -2.0002341   -0.8895066    0.1843316   -2.0002341    1.1107275   439061 
  237000   0.73905586   -1.9989214   -1.9989214  -0.89034015   0.18749032   -1.9989214    1.1085813   439061 
  238000   0.73794918   -1.9975261   -1.9975261  -0.89060486   0.18606587   -1.9975261    1.1069212   439061 
  239000   0.73805915   -1.9988316   -1.9988316  -0.89174539   0.18339445   -1.9988316    1.1070862   439061 
  240000   0.73714521   -1.9979371   -1.9979371  -0.89222182   0.18203359   -1.9979371    1.1057153   439061 
  241000   0.73762244   -1.9986224   -1.9986224  -0.89219127   0.17954553   -1.9986224    1.1064311   439061 
  242000    0.7367484   -1.9985789   -1.9985789  -0.89345879   0.18229272   -1.9985789    1.1051201   439061 
  243000   0.73598959   -1.9977201   -1.9977201  -0.89373825   0.18143259   -1.9977201    1.1039819   439061 
  244000   0.73592117   -1.9980315   -1.9980315  -0.89415228   0.18242445   -1.9980315    1.1038792   439061 
  245000   0.73634783   -1.9997311   -1.9997311  -0.89521192   0.18021094   -1.9997311    1.1045192   439061 
  246000   0.73561351   -1.9989426   -1.9989426  -0.89552482   0.18297086   -1.9989426    1.1034178   439061 
  247000   0.73606303   -2.0007051   -2.0007051  -0.89661309   0.18450945   -2.0007051     1.104092   439061 
  248000   0.73543872   -2.0015265   -2.0015265  -0.89837096   0.18119592   -2.0015265    1.1031556   439061 
  249000   0.73439081   -2.0010237   -2.0010237  -0.89943997   0.17858687   -2.0010237    1.1015837   439061 
  250000   0.73395166   -2.0010918   -2.0010918  -0.90016685   0.17950501   -2.0010918     1.100925   439061 
  251000   0.73442032   -2.0022717   -2.0022717  -0.90064369    0.1807752   -2.0022717     1.101628   439061 
  252000     0.735205   -2.0044855   -2.0044855  -0.90168049   0.17898687   -2.0044855     1.102805   439061 
  253000   0.73311452   -2.0038478   -2.0038478  -0.90417853    0.1845805   -2.0038478    1.0996693   439061 
  254000     0.733954   -2.0066201   -2.0066201  -0.90569159   0.17940752   -2.0066201    1.1009285   439061 
  255000   0.73459817   -2.0087197   -2.0087197  -0.90682498    0.1808576   -2.0087197    1.1018947   439061 
  256000   0.73299225    -2.008587    -2.008587  -0.90910108   0.17999961    -2.008587    1.0994859   439061 
  257000   0.73289404   -2.0093941   -2.0093941  -0.91005552   0.18287414   -2.0093941    1.0993386   439061 
  258000    0.7317839   -2.0101538   -2.0101538  -0.91248042   0.18116829   -2.0101538    1.0976734   439061 
  259000    0.7314987   -2.0114012   -2.0114012  -0.91415569   0.18111956   -2.0114012    1.0972455   439061 
  260000   0.73176382   -2.0132044   -2.0132044  -0.91556116   0.18053505   -2.0132044    1.0976432   439061 
  261000   0.73021429   -2.0124356   -2.0124356   -0.9171167   0.17787963   -2.0124356    1.0953189   439061 
  262000   0.72985988   -2.0128686   -2.0128686  -0.91808131   0.17914964   -2.0128686    1.0947873   439061 
  263000   0.72961304    -2.013785    -2.013785  -0.91936794   0.17986224    -2.013785    1.0944171   439061 
  264000   0.73044714   -2.0164738   -2.0164738  -0.92080555   0.17657824   -2.0164738    1.0956682   439061 
  265000   0.72804696   -2.0140763   -2.0140763  -0.92200838    0.1760001   -2.0140763     1.092068   439061 
  266000   0.72871007   -2.0157631   -2.0157631  -0.92270051   0.17920725   -2.0157631    1.0930626   439061 
  267000    0.7278216   -2.0152752   -2.0152752  -0.92354528   0.17804395   -2.0152752    1.0917299   439061 
  268000   0.72712577   -2.0151782   -2.0151782  -0.92449199   0.17682027   -2.0151782    1.0906862   439061 
  269000   0.72802055   -2.0169514   -2.0169514  -0.92492304   0.17168173   -2.0169514    1.0920283   439061 
  270000   0.72731378   -2.0173831   -2.0173831  -0.92641492   0.16747934   -2.0173831    1.0909682   439061 
  271000    0.7250928   -2.0162368   -2.0162368  -0.92860012   0.17222047   -2.0162368    1.0876367   439061 
  272000   0.72503012   -2.0166537   -2.0166537  -0.92911098   0.16930891   -2.0166537    1.0875427   439061 
  273000   0.72297048   -2.0144145   -2.0144145  -0.92996126    0.1718845   -2.0144145    1.0844533   439061 
  274000   0.72337867   -2.0163669   -2.0163669  -0.93130132   0.17202524   -2.0163669    1.0850655   439061 
  275000   0.72337882   -2.0178153   -2.0178153  -0.93274951    0.1675697   -2.0178153    1.0850658   439061 
  276000   0.72333187   -2.0182158   -2.0182158  -0.93322049   0.16710325   -2.0182158    1.0849953   439061 
  277000   0.72251229   -2.0177172   -2.0177172  -0.93395124   0.16811057   -2.0177172     1.083766   439061 
  278000   0.72314637   -2.0197106   -2.0197106  -0.93499352   0.16828284   -2.0197106    1.0847171   439061 
  279000   0.72205708   -2.0197184   -2.0197184  -0.93663528   0.16784443   -2.0197184    1.0830832   439061 
  280000    0.7213634   -2.0195051   -2.0195051  -0.93746251   0.17027912   -2.0195051    1.0820426   439061 
  281000   0.72144559   -2.0209406   -2.0209406  -0.93877467   0.16951969   -2.0209406    1.0821659   439061 
  282000   0.72122155   -2.0225334   -2.0225334  -0.94070358   0.16873239   -2.0225334    1.0818299   439061 
  283000   0.72119124   -2.0236051   -2.0236051   -0.9418207   0.17133585   -2.0236051    1.0817844   439061 
  284000   0.72149314   -2.0248605   -2.0248605  -0.94262321   0.16977059   -2.0248605    1.0822373   439061 
  285000   0.72119688   -2.0266996   -2.0266996  -0.94490678    0.1659744   -2.0266996    1.0817929   439061 
  286000   0.72013751   -2.0267127   -2.0267127  -0.94650893   0.16682857   -2.0267127    1.0802038   439061 
  287000   0.71941654   -2.0261924   -2.0261924  -0.94707006   0.17140943   -2.0261924    1.0791223   439061 
  288000   0.71935422   -2.0270559   -2.0270559  -0.94802702   0.16953774   -2.0270559    1.0790289   439061 
  289000   0.71917977   -2.0284134   -2.0284134  -0.94964616   0.16673366   -2.0284134    1.0787672   439061 
  290000   0.71837844   -2.0280494   -2.0280494  -0.95048417   0.17062924   -2.0280494    1.0775652   439061 
  291000   0.71813637   -2.0295049   -2.0295049  -0.95230276   0.16562056   -2.0295049    1.0772021   439061 
  292000   0.71874504   -2.0324849   -2.0324849  -0.95436983   0.16595919   -2.0324849    1.0781151   439061 
  293000   0.71676033   -2.0308159   -2.0308159  -0.95567789   0.16296278   -2.0308159    1.0751381   439061 
  294000   0.71750985   -2.0324595   -2.0324595  -0.95619723   0.16532004   -2.0324595    1.0762623   439061 
  295000   0.71654186   -2.0333348   -2.0333348   -0.9585245   0.16654527   -2.0333348    1.0748103   439061 
  296000   0.71696803   -2.0348711   -2.0348711  -0.95942155   0.16435835   -2.0348711    1.0754496   439061 
  297000   0.71574691   -2.0332567   -2.0332567  -0.95963876   0.17013411   -2.0332567    1.0736179   439061 
  298000   0.71425147   -2.0329835   -2.0329835  -0.96160877   0.16732969   -2.0329835    1.0713748   439061 
  299000   0.71527082    -2.035109    -2.035109  -0.96220517   0.16359263    -2.035109    1.0729038   439061 
  300000   0.71423225   -2.0351001   -2.0351001  -0.96375414   0.16346101   -2.0351001    1.0713459   439061 
  301000   0.71211039   -2.0334876   -2.0334876  -0.96532444   0.16070325   -2.0334876    1.0681632   439061 
  302000   0.71226429   -2.0344115   -2.0344115  -0.96601753   0.16203188   -2.0344115     1.068394   439061 
  303000   0.71201872   -2.0353473   -2.0353473  -0.96732162   0.16488746   -2.0353473    1.0680257   439061 
  304000   0.71154172   -2.0355992   -2.0355992  -0.96828908   0.16324524   -2.0355992    1.0673101   439061 
  305000   0.71144042   -2.0365039   -2.0365039  -0.96934573   0.16009099   -2.0365039    1.0671582   439061 
  306000   0.71184356   -2.0366352   -2.0366352  -0.96887229   0.16307769   -2.0366352    1.0677629   439061 
  307000   0.71177462   -2.0376796   -2.0376796  -0.97002013   0.16106953   -2.0376796    1.0676595   439061 
  308000   0.71035381   -2.0366098   -2.0366098  -0.97108152    0.1577096   -2.0366098    1.0655283   439061 
  309000   0.71082056   -2.0387017   -2.0387017  -0.97247327   0.15596013   -2.0387017    1.0662284   439061 
  310000   0.71039302   -2.0392636   -2.0392636  -0.97367648   0.15480152   -2.0392636    1.0655871   439061 
  311000   0.70956524   -2.0374246   -2.0374246  -0.97307912   0.15912935   -2.0374246    1.0643454   439061 
  312000   0.71110292    -2.040317    -2.040317  -0.97366503   0.15362099    -2.040317     1.066652   439061 
  313000   0.71079216   -2.0406045   -2.0406045  -0.97441866    0.1573421   -2.0406045    1.0661858   439061 
  314000   0.70901271   -2.0404028   -2.0404028  -0.97688615   0.16078431   -2.0404028    1.0635166   439061 
  315000   0.71022619   -2.0428411   -2.0428411  -0.97750422    0.1589135   -2.0428411    1.0653369   439061 
  316000   0.70905782   -2.0425339   -2.0425339   -0.9789496     0.157951   -2.0425339    1.0635843   439061 
  317000   0.70807324   -2.0425598   -2.0425598  -0.98045237    0.1588554   -2.0425598    1.0621074   439061 
  318000   0.70847096   -2.0445863   -2.0445863  -0.98188233   0.15733818   -2.0445863     1.062704   439061 
  319000   0.70741785   -2.0435937   -2.0435937   -0.9824693   0.16046344   -2.0435937    1.0611244   439061 
  320000   0.70792413   -2.0449724   -2.0449724  -0.98308861   0.16038343   -2.0449724    1.0618838   439061 
  321000   0.70777157   -2.0464237   -2.0464237  -0.98476875   0.16047653   -2.0464237    1.0616549   439061 
  322000    0.7068363   -2.0466787   -2.0466787  -0.98642669   0.15435974   -2.0466787     1.060252   439061 
  323000   0.70659474   -2.0470828   -2.0470828  -0.98719309   0.15856687   -2.0470828    1.0598897   439061 
  324000   0.70653175   -2.0476429   -2.0476429  -0.98784772   0.15461715   -2.0476429    1.0597952   439061 
  325000   0.70656027   -2.0475415   -2.0475415  -0.98770348   0.15888183   -2.0475415     1.059838   439061 
  326000   0.70593629   -2.0470494   -2.0470494   -0.9881474   0.15459547   -2.0470494     1.058902   439061 
  327000   0.70438679    -2.045547    -2.045547  -0.98896923   0.15183246    -2.045547    1.0565778   439061 
  328000   0.70548951   -2.0476185   -2.0476185  -0.98938663   0.15357883   -2.0476185    1.0582319   439061 
  329000   0.70337261   -2.0465769   -2.0465769  -0.99152043    0.1489658   -2.0465769    1.0550565   439061 
  330000   0.70473955    -2.048372    -2.048372  -0.99126504   0.15182616    -2.048372    1.0571069   439061 
  331000   0.70487978   -2.0504579   -2.0504579  -0.99314068   0.14939928   -2.0504579    1.0573173   439061 
  332000   0.70303965    -2.049206    -2.049206  -0.99464889   0.15219382    -2.049206    1.0545571   439061 
  333000   0.70341424   -2.0510359   -2.0510359  -0.99591691   0.15230964   -2.0510359     1.055119   439061 
  334000   0.70281443   -2.0508918   -2.0508918  -0.99667255   0.15446964   -2.0508918    1.0542192   439061 
  335000   0.70199193   -2.0498072   -2.0498072  -0.99682168   0.15404984   -2.0498072    1.0529855   439061 
  336000   0.70277857   -2.0522178   -2.0522178  -0.99805234   0.15107699   -2.0522178    1.0541654   439061 
  337000   0.70204747   -2.0518944   -2.0518944  -0.99882558   0.15035111   -2.0518944    1.0530688   439061 
  338000   0.70206071   -2.0533535   -2.0533535   -1.0002648   0.14921272   -2.0533535    1.0530887   439061 
  339000   0.70136719   -2.0523604   -2.0523604    -1.000312   0.15044081   -2.0523604    1.0520484   439061 
  340000   0.70091864   -2.0525305   -2.0525305   -1.0011549   0.14884475   -2.0525305    1.0513756   439061 
  341000   0.70134139   -2.0538975   -2.0538975   -1.0018878   0.14915131   -2.0538975    1.0520097   439061 
  342000   0.70134973   -2.0545177   -2.0545177   -1.0024955   0.14856264   -2.0545177    1.0520222   439061 
  343000   0.70081739   -2.0548196   -2.0548196   -1.0035959   0.14718767   -2.0548196    1.0512237   439061 
  344000   0.69945947   -2.0533826   -2.0533826   -1.0041958   0.14806331   -2.0533826    1.0491868   439061 
  345000   0.69961789   -2.0544245   -2.0544245   -1.0050001   0.14488546   -2.0544245    1.0494244   439061 
  346000   0.69859671   -2.0532789   -2.0532789   -1.0053862   0.14730556   -2.0532789    1.0478927   439061 
  347000   0.69860135   -2.0537375   -2.0537375   -1.0058379   0.14665113   -2.0537375    1.0478996   439061 
  348000   0.69776953   -2.0537734   -2.0537734   -1.0071215   0.14815136   -2.0537734    1.0466519   439061 
  349000   0.69863624   -2.0560704   -2.0560704   -1.0081184   0.14373569   -2.0560704     1.047952   439061 
  350000   0.69730231   -2.0551331   -2.0551331    -1.009182   0.14805406   -2.0551331    1.0459511   439061 
  351000   0.69767799   -2.0570278   -2.0570278   -1.0105132   0.14801348   -2.0570278    1.0465146   439061 
  352000   0.69699982   -2.0573372   -2.0573372   -1.0118398   0.14589703   -2.0573372    1.0454973   439061 
  353000   0.69747041   -2.0577085   -2.0577085   -1.0115052    0.1504605   -2.0577085    1.0462032   439061 
  354000   0.69779735   -2.0597131   -2.0597131   -1.0130194   0.14963586   -2.0597131    1.0466936   439061 
  355000   0.69680627   -2.0601575   -2.0601575   -1.0149505   0.14542179   -2.0601575     1.045207   439061 
  356000   0.69699248   -2.0625191   -2.0625191   -1.0170328   0.14572664   -2.0625191    1.0454863   439061 
  357000   0.69701659   -2.0629589   -2.0629589   -1.0174364   0.14533706   -2.0629589    1.0455225   439061 
  358000   0.69596313   -2.0628698   -2.0628698   -1.0189275   0.14927824   -2.0628698    1.0439423   439061 
  359000   0.69575985   -2.0641438   -2.0641438   -1.0205064   0.15139205   -2.0641438    1.0436374   439061 
  360000   0.69574293   -2.0656395   -2.0656395   -1.0220275   0.14483924   -2.0656395     1.043612   439061 
  361000   0.69463557   -2.0643596   -2.0643596   -1.0224086      0.14417   -2.0643596     1.041951   439061 
  362000   0.69491706   -2.0652224   -2.0652224   -1.0228492   0.14440083   -2.0652224    1.0423732   439061 
  363000   0.69358455   -2.0637061   -2.0637061   -1.0233317   0.14581382   -2.0637061    1.0403745   439061 
  364000   0.69237463   -2.0635581   -2.0635581   -1.0249985   0.14340224   -2.0635581    1.0385596   439061 
  365000   0.69218546   -2.0644048   -2.0644048   -1.0261289   0.14493404   -2.0644048    1.0382758   439061 
  366000   0.69243302   -2.0647508   -2.0647508   -1.0261036   0.14138542   -2.0647508    1.0386472   439061 
  367000   0.69300887     -2.06571     -2.06571    -1.026199   0.13851922     -2.06571    1.0395109   439061 
  368000   0.69216939   -2.0653251   -2.0653251   -1.0270734   0.14001538   -2.0653251    1.0382517   439061 
  369000   0.69186443   -2.0657098   -2.0657098   -1.0279155   0.14115663   -2.0657098    1.0377943   439061 
  370000   0.69092385   -2.0644281   -2.0644281   -1.0280446   0.14034882   -2.0644281    1.0363834   439061 
  371000   0.69138211   -2.0655537   -2.0655537   -1.0284829   0.13983084   -2.0655537    1.0370708   439061 
  372000   0.69237218   -2.0677285   -2.0677285   -1.0291726   0.13636474   -2.0677285    1.0385559   439061 
  373000   0.69170744   -2.0666773   -2.0666773   -1.0291185    0.1398394   -2.0666773    1.0375588   439061 
  374000   0.69074463   -2.0666402   -2.0666402   -1.0305256   0.14157026   -2.0666402    1.0361146   439061 
  375000   0.69071935   -2.0676096   -2.0676096    -1.031533   0.13903109   -2.0676096    1.0360767   439061 
  376000   0.69041914   -2.0681996   -2.0681996   -1.0325732   0.14038472   -2.0681996    1.0356263   439061 
  377000   0.69054161   -2.0698006   -2.0698006   -1.0339905   0.13967132   -2.0698006    1.0358101   439061 
  378000   0.68962851   -2.0693148   -2.0693148   -1.0348744   0.13982784   -2.0693148    1.0344404   439061 
  379000   0.69034535   -2.0713849   -2.0713849   -1.0358692   0.13866191   -2.0713849    1.0355157   439061 
  380000   0.69009603   -2.0712558   -2.0712558   -1.0361141   0.14080277   -2.0712558    1.0351417   439061 
  381000   0.68985722   -2.0724399   -2.0724399   -1.0376564   0.13625745   -2.0724399    1.0347835   439061 
  382000   0.68952962   -2.0726392   -2.0726392   -1.0383471   0.13944166   -2.0726392    1.0342921   439061 
  383000   0.68809325   -2.0712296   -2.0712296    -1.039092   0.14220522   -2.0712296    1.0321375   439061 
  384000   0.68760354   -2.0717433   -2.0717433   -1.0403404   0.13589725   -2.0717433     1.031403   439061 
  385000    0.6878894   -2.0729607   -2.0729607   -1.0411289    0.1359258   -2.0729607    1.0318317   439061 
  386000   0.68850185   -2.0740128   -2.0740128   -1.0412624   0.13600822   -2.0740128    1.0327504   439061 
  387000   0.68806259   -2.0741417   -2.0741417   -1.0420502   0.13636497   -2.0741417    1.0320915   439061 
  388000   0.68634215   -2.0720462   -2.0720462   -1.0425353   0.14149264   -2.0720462    1.0295109   439061 
  389000   0.68767959   -2.0747951   -2.0747951   -1.0432781   0.13455899   -2.0747951     1.031517   439061 
  390000    0.6866637   -2.0741713   -2.0741713   -1.0441781    0.1325634   -2.0741713    1.0299932   439061 
  391000   0.68664337   -2.0749707   -2.0749707    -1.045008   0.13155357   -2.0749707    1.0299627   439061 
  392000   0.68583636   -2.0738428   -2.0738428   -1.0450906   0.13986369   -2.0738428    1.0287522   439061 
  393000   0.68589722   -2.0738231   -2.0738231   -1.0449796   0.14146565   -2.0738231    1.0288435   439061 
  394000   0.68581947   -2.0748814   -2.0748814   -1.0461546   0.13521118   -2.0748814    1.0287269   439061 
  395000   0.68503604    -2.074585    -2.074585   -1.0470333   0.13534127    -2.074585    1.0275517   439061 
  396000    0.6855413   -2.0757207   -2.0757207   -1.0474111   0.13564093   -2.0757207    1.0283096   439061 
  397000   0.68481063   -2.0752733   -2.0752733   -1.0480597   0.13117645   -2.0752733    1.0272136   439061 
  398000   0.68586943   -2.0771287   -2.0771287   -1.0483269   0.13156962   -2.0771287    1.0288018   439061 
  399000    0.6845897   -2.0764653   -2.0764653   -1.0495831    0.1300553   -2.0764653    1.0268822   439061 
  400000   0.68298083   -2.0762795   -2.0762795   -1.0518106   0.13611705   -2.0762795    1.0244689   439061 
  401000   0.68315147   -2.0776125   -2.0776125   -1.0528877   0.13073102   -2.0776125    1.0247249   439061 
  402000   0.68293076   -2.0771103   -2.0771103   -1.0527164   0.13202753   -2.0771103    1.0243938   439061 
  403000   0.68215096   -2.0772275   -2.0772275   -1.0540034    0.1302791   -2.0772275    1.0232241   439061 
  404000   0.68269155   -2.0786348   -2.0786348   -1.0545998   0.13207917   -2.0786348     1.024035   439061 
  405000   0.68306805    -2.079311    -2.079311   -1.0547112   0.13025421    -2.079311    1.0245997   439061 
  406000    0.6817028   -2.0785157   -2.0785157   -1.0559638   0.13165524   -2.0785157    1.0225519   439061 
  407000   0.68230292   -2.0798559   -2.0798559   -1.0564039    0.1291088   -2.0798559     1.023452   439061 
  408000   0.68191969   -2.0800391   -2.0800391   -1.0571619   0.13168644   -2.0800391    1.0228772   439061 
  409000   0.68231134   -2.0807792   -2.0807792   -1.0573145   0.12970053   -2.0807792    1.0234647   439061 
  410000   0.68246641   -2.0821621   -2.0821621   -1.0584648   0.13108291   -2.0821621    1.0236973   439061 
  411000   0.68105081   -2.0814727   -2.0814727   -1.0598988   0.13248734   -2.0814727    1.0215739   439061 
  412000   0.68170498   -2.0835113   -2.0835113   -1.0609562   0.12853159   -2.0835113    1.0225551   439061 
  413000   0.68124589   -2.0832037   -2.0832037   -1.0613372   0.13230916   -2.0832037    1.0218665   439061 
  414000   0.68064401   -2.0837197   -2.0837197    -1.062756   0.12889741   -2.0837197    1.0209637   439061 
  415000   0.68032065   -2.0841252   -2.0841252   -1.0636465   0.13057082   -2.0841252    1.0204787   439061 
  416000   0.68047927   -2.0844266   -2.0844266     -1.06371    0.1288738   -2.0844266    1.0207166   439061 
  417000   0.67936445   -2.0839534   -2.0839534    -1.064909   0.13346903   -2.0839534    1.0190444   439061 
  418000   0.68064385   -2.0869565   -2.0869565    -1.065993   0.12777152   -2.0869565    1.0209634   439061 
  419000   0.67929638   -2.0862123   -2.0862123     -1.06727   0.12817372   -2.0862123    1.0189423   439061 
  420000   0.67888285   -2.0864558   -2.0864558   -1.0681338   0.12850864   -2.0864558     1.018322   439061 
  421000   0.67812311   -2.0867743   -2.0867743   -1.0695919   0.12848507   -2.0867743    1.0171823   439061 
  422000   0.67853138   -2.0881409   -2.0881409   -1.0703462   0.12869873   -2.0881409    1.0177948   439061 
  423000   0.67865096   -2.0885332   -2.0885332   -1.0705591   0.13071132   -2.0885332    1.0179741   439061 
  424000   0.67849348   -2.0882848   -2.0882848   -1.0705469   0.12789127   -2.0882848    1.0177379   439061 
  425000   0.67788391   -2.0877101   -2.0877101   -1.0708866   0.12519267   -2.0877101    1.0168235   439061 
  426000   0.67741247   -2.0870531   -2.0870531   -1.0709367   0.12827562   -2.0870531    1.0161164   439061 
  427000   0.67808826   -2.0890626   -2.0890626   -1.0719326   0.12613094   -2.0890626    1.0171301   439061 
  428000   0.67762782   -2.0886873   -2.0886873   -1.0722479   0.12805473   -2.0886873    1.0164394   439061 
  429000   0.67684018    -2.088243    -2.088243    -1.072985   0.12572588    -2.088243     1.015258   439061 
  430000   0.67732636   -2.0904782   -2.0904782    -1.074491   0.12666802   -2.0904782    1.0159872   439061 
  431000   0.67548917   -2.0884921   -2.0884921   -1.0752606   0.12414601   -2.0884921    1.0132315   439061 
  432000   0.67667129   -2.0914179   -2.0914179   -1.0764133   0.11653702   -2.0914179    1.0150046   439061 
  433000   0.67614411   -2.0905345   -2.0905345   -1.0763207   0.12432095   -2.0905345    1.0142139   439061 
  434000    0.6751642   -2.0891834   -2.0891834   -1.0764394   0.12459386   -2.0891834     1.012744   439061 
  435000   0.67588738   -2.0906872   -2.0906872   -1.0768585   0.12354007   -2.0906872    1.0138288   439061 
  436000   0.67473171   -2.0907562   -2.0907562   -1.0786609   0.12448068   -2.0907562    1.0120953   439061 
  437000   0.67491973   -2.0918541   -2.0918541   -1.0794768   0.12390476   -2.0918541    1.0123773   439061 
  438000   0.67391067   -2.0924446   -2.0924446   -1.0815809   0.12531782   -2.0924446    1.0108637   439061 
  439000   0.67341467   -2.0928811   -2.0928811   -1.0827614   0.12252183   -2.0928811    1.0101197   439061 
  440000   0.67205292   -2.0913093   -2.0913093   -1.0832322   0.12546319   -2.0913093    1.0080771   439061 
  441000   0.67312565   -2.0932229   -2.0932229   -1.0835367   0.12168769   -2.0932229    1.0096862   439061 
  442000   0.67249189   -2.0936451   -2.0936451   -1.0849095   0.12050453   -2.0936451    1.0087355   439061 
  443000   0.67361707   -2.0950062   -2.0950062   -1.0845829    0.1207631   -2.0950062    1.0104233   439061 
  444000   0.67270898    -2.094764    -2.094764   -1.0857028   0.12107392    -2.094764    1.0090612   439061 
  445000   0.67313283   -2.0958084   -2.0958084   -1.0861115   0.12134935   -2.0958084    1.0096969   439061 
  446000   0.67341119   -2.0964929   -2.0964929   -1.0863785    0.1216356   -2.0964929    1.0101145   439061 
  447000   0.67322001   -2.0971945   -2.0971945   -1.0873667   0.12289622   -2.0971945    1.0098277   439061 
  448000   0.67277636    -2.098388    -2.098388   -1.0892257   0.12254557    -2.098388    1.0091622   439061 
  449000   0.67171718   -2.0993479   -2.0993479   -1.0917744   0.12912953   -2.0993479    1.0075735   439061 
  450000   0.67234069   -2.1011621   -2.1011621   -1.0926533   0.12296815   -2.1011621    1.0085087   439061 
  451000   0.67198865   -2.1012983   -2.1012983   -1.0933176   0.12390971   -2.1012983    1.0079807   439061 
  452000   0.67112635   -2.1009931   -2.1009931   -1.0943059   0.12432045   -2.1009931    1.0066872   439061 
  453000   0.67034181   -2.1003674   -2.1003674    -1.094857    0.1211536   -2.1003674    1.0055104   439061 
  454000   0.67085967   -2.1018032   -2.1018032    -1.095516   0.11720489   -2.1018032    1.0062872   439061 
  455000   0.67073728    -2.100972    -2.100972   -1.0948683   0.12560488    -2.100972    1.0061036   439061 
  456000    0.6706457   -2.1014355   -2.1014355   -1.0954692   0.12199542   -2.1014355    1.0059663   439061 
  457000   0.66958411   -2.1010949   -2.1010949    -1.096721   0.12306198   -2.1010949    1.0043739   439061 
  458000   0.66951228     -2.10159     -2.10159   -1.0973239   0.11867945     -2.10159    1.0042661   439061 
  459000   0.67009056   -2.1026252   -2.1026252   -1.0974917   0.12233586   -2.1026252    1.0051336   439061 
  460000   0.66955688   -2.1031238   -2.1031238   -1.0987907   0.12094144   -2.1031238     1.004333   439061 
  461000    0.6695553   -2.1031847   -2.1031847   -1.0988541   0.11615016   -2.1031847    1.0043307   439061 
  462000   0.66913181    -2.103092    -2.103092   -1.0993966   0.11691927    -2.103092    1.0036954   439061 
  463000   0.66938147   -2.1045226   -2.1045226   -1.1004527   0.11787829   -2.1045226    1.0040699   439061 
  464000    0.6688371    -2.104262    -2.104262   -1.1010086   0.12221494    -2.104262    1.0032534   439061 
  465000   0.66841774   -2.1048114   -2.1048114   -1.1021871   0.11862291   -2.1048114    1.0026243   439061 
  466000   0.66645526   -2.1034892   -2.1034892   -1.1038086   0.11668057   -2.1034892   0.99968061   439061 
  467000   0.66730545   -2.1050769   -2.1050769    -1.104121   0.11806356   -2.1050769    1.0009559   439061 
  468000    0.6672947   -2.1056233   -2.1056233   -1.1046835   0.11905669   -2.1056233    1.0009398   439061 
  469000   0.66715687   -2.1056854   -2.1056854   -1.1049523   0.11983691   -2.1056854     1.000733   439061 
  470000    0.6682871   -2.1078638   -2.1078638   -1.1054355   0.11607535   -2.1078638    1.0024284   439061 
  471000   0.66698513   -2.1059265   -2.1059265   -1.1054511   0.11989191   -2.1059265    1.0004754   439061 
  472000   0.66692237   -2.1076292   -2.1076292   -1.1072479   0.11581003   -2.1076292    1.0003813   439061 
  473000    0.6656103   -2.1063069   -2.1063069   -1.1078937   0.11561532   -2.1063069   0.99841318   439061 
  474000   0.66667243   -2.1080589   -2.1080589   -1.1080525   0.12053858   -2.1080589    1.0000064   439061 
  475000   0.66611291   -2.1083444   -2.1083444   -1.1091773   0.11811314   -2.1083444   0.99916709   439061 
  476000    0.6655773   -2.1080678   -2.1080678   -1.1097041   0.11791103   -2.1080678   0.99836367   439061 
  477000   0.66716846   -2.1105558   -2.1105558   -1.1098053   0.11491333   -2.1105558    1.0007504   439061 
  478000   0.66668935   -2.1091636   -2.1091636   -1.1091319   0.11738258   -2.1091636    1.0000318   439061 
  479000   0.66524163   -2.1077528   -2.1077528   -1.1098926   0.11800277   -2.1077528   0.99786018   439061 
  480000   0.66617263   -2.1098368   -2.1098368   -1.1105801   0.11364417   -2.1098368   0.99925667   439061 
  481000   0.66485024   -2.1082855   -2.1082855   -1.1110124    0.1144809   -2.1082855   0.99727309   439061 
  482000   0.66470148   -2.1088552   -2.1088552   -1.1118052    0.1141327   -2.1088552   0.99704995   439061 
  483000   0.66547701   -2.1104549   -2.1104549   -1.1122416   0.11258822   -2.1104549   0.99821324   439061 
  484000   0.66407591   -2.1097819   -2.1097819   -1.1136703   0.10962715   -2.1097819   0.99611159   439061 
  485000    0.6640239   -2.1106332   -2.1106332   -1.1145996    0.1128911   -2.1106332   0.99603358   439061 
  486000   0.66448824   -2.1126936   -2.1126936   -1.1159635   0.11565806   -2.1126936   0.99673009   439061 
  487000   0.66498395   -2.1138199   -2.1138199   -1.1163462   0.11198998   -2.1138199   0.99747366   439061 
  488000    0.6648581    -2.114257    -2.114257   -1.1169721   0.11486461    -2.114257   0.99728488   439061 
  489000   0.66402083   -2.1147941   -2.1147941   -1.1187651    0.1130958   -2.1147941   0.99602897   439061 
  490000   0.66494202   -2.1163196   -2.1163196   -1.1189088   0.11466817   -2.1163196   0.99741076   439061 
  491000   0.66390718   -2.1163093   -2.1163093   -1.1204508   0.11446315   -2.1163093    0.9958585   439061 
  492000   0.66376483     -2.11637     -2.11637    -1.120725   0.11645564     -2.11637   0.99564497   439061 
  493000    0.6638257   -2.1172864   -2.1172864   -1.1215502    0.1155234   -2.1172864   0.99573628   439061 
  494000   0.66400719   -2.1188652   -2.1188652   -1.1228566   0.11439935   -2.1188652   0.99600852   439061 
  495000   0.66297105   -2.1180524   -2.1180524   -1.1235981   0.11651201   -2.1180524   0.99445431   439061 
  496000   0.66307422   -2.1182578   -2.1182578   -1.1236487    0.1127759   -2.1182578   0.99460906   439061 
  497000    0.6626378   -2.1181002   -2.1181002   -1.1241457   0.11306783   -2.1181002   0.99395444   439061 
  498000   0.66249127   -2.1186287   -2.1186287    -1.124894   0.11380104   -2.1186287   0.99373465   439061 
  499000   0.66166212   -2.1184759   -2.1184759    -1.125985   0.11408964   -2.1184759   0.99249092   439061 
  500000   0.66120842   -2.1184742   -2.1184742   -1.1266638   0.11192819   -2.1184742   0.99181038   439061 
  501000   0.66117663   -2.1192389   -2.1192389   -1.1274763   0.11312148   -2.1192389   0.99176269   439061 
  502000   0.66065338   -2.1194711   -2.1194711   -1.1284933   0.10987214   -2.1194711   0.99097782   439061 
  503000    0.6597297    -2.119236    -2.119236   -1.1296437   0.10602714    -2.119236   0.98959229   439061 
  504000   0.66044707   -2.1204832   -2.1204832   -1.1298148   0.11286812   -2.1204832   0.99066835   439061 
  505000    0.6601952   -2.1199238   -2.1199238   -1.1296332   0.10931844   -2.1199238   0.99029055   439061 
  506000   0.66036398   -2.1215286   -2.1215286   -1.1309849   0.10735357   -2.1215286   0.99054371   439061 
  507000   0.66040897   -2.1223438   -2.1223438   -1.1317326   0.10785189   -2.1223438   0.99061119   439061 
  508000   0.65948832     -2.12138     -2.12138   -1.1321498   0.10572623     -2.12138   0.98923023   439061 
  509000   0.65980461   -2.1214319   -2.1214319   -1.1317273   0.11023302   -2.1214319   0.98970467   439061 
  510000   0.65962314   -2.1210859   -2.1210859   -1.1316535   0.11285317   -2.1210859   0.98943246   439061 
  511000   0.65985934   -2.1218843   -2.1218843   -1.1320976   0.11208588   -2.1218843   0.98978676   439061 
  512000     0.658888   -2.1223356   -2.1223356   -1.1340059   0.11084614   -2.1223356   0.98832975   439061 
  513000    0.6591909   -2.1233694   -2.1233694   -1.1345854   0.11131622   -2.1233694   0.98878409   439061 
  514000   0.65856763   -2.1234299   -2.1234299   -1.1355807   0.10959082   -2.1234299   0.98784919   439061 
  515000   0.65870997   -2.1237403   -2.1237403   -1.1356776   0.11036421   -2.1237403   0.98806271   439061 
  516000     0.658489   -2.1241453   -2.1241453    -1.136414   0.11070483   -2.1241453   0.98773125   439061 
  517000   0.65953274   -2.1263469   -2.1263469     -1.13705   0.11130734   -2.1263469   0.98929686   439061 
  518000   0.65875379   -2.1255606   -2.1255606   -1.1374321   0.11299573   -2.1255606   0.98812843   439061 
  519000   0.65779359   -2.1258361   -2.1258361    -1.139148   0.11183968   -2.1258361   0.98668813   439061 
  520000   0.65856818   -2.1278207   -2.1278207   -1.1399707   0.10944232   -2.1278207   0.98785002   439061 
  521000   0.65717884   -2.1257513   -2.1257513   -1.1399853   0.10953992   -2.1257513   0.98576601   439061 
  522000   0.65763396   -2.1276607   -2.1276607   -1.1412121    0.1065003   -2.1276607    0.9864487   439061 
  523000     0.657173   -2.1273151   -2.1273151   -1.1415578   0.10921204   -2.1273151   0.98575726   439061 
  524000   0.65742786   -2.1270621   -2.1270621   -1.1409226   0.10777733   -2.1270621   0.98613955   439061 
  525000   0.65705438   -2.1280087   -2.1280087   -1.1424294   0.10562378   -2.1280087   0.98557932   439061 
  526000   0.65717417   -2.1292102   -2.1292102   -1.1434512   0.10675209   -2.1292102   0.98575901   439061 
  527000    0.6566036   -2.1284554   -2.1284554   -1.1435523   0.10742009   -2.1284554   0.98490316   439061 
  528000    0.6567743   -2.1290331   -2.1290331   -1.1438739   0.10787933   -2.1290331   0.98515921   439061 
  529000   0.65564506   -2.1276397   -2.1276397   -1.1441744    0.1072555   -2.1276397   0.98346535   439061 
  530000   0.65640894    -2.129138    -2.129138   -1.1445268   0.10830977    -2.129138   0.98461116   439061 
  531000   0.65596901   -2.1293481   -2.1293481   -1.1453968   0.10293554   -2.1293481   0.98395127   439061 
  532000   0.65558157    -2.129562    -2.129562   -1.1461918    0.1085139    -2.129562   0.98337012   439061 
  533000   0.65510534   -2.1297117   -2.1297117   -1.1470559   0.10025869   -2.1297117   0.98265577   439061 
  534000    0.6544516   -2.1291999   -2.1291999   -1.1475247   0.10743418   -2.1291999   0.98167517   439061 
  535000   0.65536526   -2.1304574   -2.1304574   -1.1474117   0.10550685   -2.1304574   0.98304566   439061 
  536000   0.65491289   -2.1309188   -2.1309188   -1.1485517   0.10392748   -2.1309188    0.9823671   439061 
  537000   0.65471284   -2.1313927   -2.1313927   -1.1493257   0.10400362   -2.1313927   0.98206703   439061 
  538000   0.65469684   -2.1329043   -2.1329043   -1.1508613  0.099888216   -2.1329043   0.98204302   439061 
  539000   0.65406052   -2.1302428   -2.1302428   -1.1491542    0.1047409   -2.1302428   0.98108855   439061 
  540000   0.65442341   -2.1316067   -2.1316067   -1.1499738   0.10486742   -2.1316067   0.98163288   439061 
  541000    0.6545939   -2.1326118   -2.1326118   -1.1507232   0.10561597   -2.1326118   0.98188862   439061 
  542000   0.65404829   -2.1333529   -2.1333529   -1.1522827   0.10168064   -2.1333529    0.9810702   439061 
  543000   0.65418434    -2.133808    -2.133808   -1.1525338   0.10063928    -2.133808   0.98127427   439061 
  544000   0.65387776   -2.1337902   -2.1337902   -1.1529758   0.10602179   -2.1337902   0.98081441   439061 
  545000   0.65281104    -2.132894    -2.132894   -1.1536797    0.1036649    -2.132894   0.97921433   439061 
  546000   0.65380501   -2.1359444   -2.1359444   -1.1552391   0.10380654   -2.1359444   0.98070528   439061 
  547000   0.65282975   -2.1358798   -2.1358798   -1.1566374   0.10091435   -2.1358798    0.9792424   439061 
  548000   0.65381509   -2.1374775   -2.1374775   -1.1567571   0.10198147   -2.1374775   0.98072039   439061 
  549000   0.65207422   -2.1365349   -2.1365349   -1.1584258   0.10265491   -2.1365349   0.97810911   439061 
  550000   0.65434974    -2.140062    -2.140062   -1.1585396   0.10546963    -2.140062   0.98152238   439061 
  551000   0.65160756   -2.1368869   -2.1368869   -1.1594778    0.1031461   -2.1368869   0.97740911   439061 
  552000   0.65175179   -2.1373024   -2.1373024   -1.1596769   0.10544598   -2.1373024   0.97762546   439061 
  553000   0.65212425   -2.1382721   -2.1382721    -1.160088   0.10027244   -2.1382721   0.97818415   439061 
  554000   0.65201971   -2.1385245   -2.1385245   -1.1604971   0.10143681   -2.1385245   0.97802733   439061 
  555000    0.6520998   -2.1394994   -2.1394994    -1.161352   0.10437195   -2.1394994   0.97814747   439061 
  556000   0.65167914   -2.1386691   -2.1386691   -1.1611526   0.10384108   -2.1386691   0.97751649   439061 
  557000   0.65146932   -2.1388557   -2.1388557   -1.1616539   0.10228035   -2.1388557   0.97720175   439061 
  558000   0.65093188   -2.1386507   -2.1386507   -1.1622551   0.10238026   -2.1386507   0.97639559   439061 
  559000   0.65127946   -2.1401136   -2.1401136   -1.1631967  0.098680199   -2.1401136   0.97691696   439061 
  560000   0.65003838   -2.1387616   -2.1387616   -1.1637062   0.09721096   -2.1387616   0.97505534   439061 
  561000   0.65070529   -2.1401373   -2.1401373   -1.1640816   0.10076872   -2.1401373   0.97605571   439061 
  562000   0.65013345   -2.1406552   -2.1406552   -1.1654572  0.099604957   -2.1406552   0.97519796   439061 
  563000   0.65063616   -2.1421315   -2.1421315   -1.1661794   0.10187727   -2.1421315   0.97595202   439061 
  564000   0.64913691   -2.1404292   -2.1404292    -1.166726   0.10021307   -2.1404292   0.97370315   439061 
  565000   0.64861811   -2.1396081   -2.1396081   -1.1666831   0.10049563   -2.1396081   0.97292495   439061 
  566000   0.64961328   -2.1419467   -2.1419467    -1.167529   0.10306422   -2.1419467    0.9744177   439061 
  567000    0.6498796   -2.1423938   -2.1423938   -1.1675766    0.1013762   -2.1423938   0.97481718   439061 
  568000   0.64971508   -2.1425526   -2.1425526   -1.1679822   0.10094539   -2.1425526   0.97457041   439061 
  569000   0.65043014   -2.1446288   -2.1446288   -1.1689858  0.095526374   -2.1446288   0.97564299   439061 
  570000   0.64908221   -2.1439963   -2.1439963   -1.1703752   0.09797436   -2.1439963   0.97362109   439061 
  571000   0.64899989    -2.144083    -2.144083   -1.1705853  0.099756922    -2.144083   0.97349762   439061 
  572000   0.64907059   -2.1444789   -2.1444789   -1.1708752   0.10096053   -2.1444789   0.97360366   439061 
  573000   0.64880218   -2.1452265   -2.1452265   -1.1720255  0.099643838   -2.1452265   0.97320106   439061 
  574000   0.64867042     -2.14537     -2.14537   -1.1723666   0.10056859     -2.14537   0.97300341   439061 
  575000   0.64851149   -2.1462058   -2.1462058   -1.1734408   0.10198836   -2.1462058   0.97276501   439061 
  576000   0.64798762   -2.1471789   -2.1471789   -1.1751997     0.095032   -2.1471789   0.97197922   439061 
  577000   0.64734533   -2.1464009   -2.1464009   -1.1753852    0.1009959   -2.1464009   0.97101578   439061 
  578000   0.64752672   -2.1479061   -2.1479061   -1.1766182  0.097960713   -2.1479061   0.97128786   439061 
  579000   0.64695132   -2.1470578   -2.1470578   -1.1766331  0.098581794   -2.1470578   0.97042477   439061 
  580000   0.64704308   -2.1479258   -2.1479258   -1.1773634  0.096376723   -2.1479258    0.9705624   439061 
  581000   0.64716082   -2.1476023   -2.1476023   -1.1768633  0.096354867   -2.1476023   0.97073901   439061 
  582000   0.64702009   -2.1481985   -2.1481985   -1.1776706  0.098607036   -2.1481985   0.97052793   439061 
  583000   0.64798511   -2.1499216   -2.1499216   -1.1779461  0.097309607   -2.1499216   0.97197546   439061 
  584000   0.64829329   -2.1507186   -2.1507186   -1.1782809  0.095550317   -2.1507186   0.97243771   439061 
  585000    0.6469969   -2.1498969   -2.1498969   -1.1794037  0.097013811   -2.1498969   0.97049314   439061 
  586000   0.64765049   -2.1514737   -2.1514737   -1.1800002  0.095239867   -2.1514737   0.97147353   439061 
  587000   0.64668201   -2.1509668   -2.1509668    -1.180946  0.094968947   -2.1509668   0.97002081   439061 
  588000   0.64691107   -2.1508715   -2.1508715   -1.1805072   0.10127474   -2.1508715   0.97036439   439061 
  589000   0.64755964   -2.1530897   -2.1530897   -1.1817525  0.098677523   -2.1530897   0.97133725   439061 
  590000   0.64760189   -2.1535125   -2.1535125   -1.1821119  0.098117025   -2.1535125   0.97140062   439061 
  591000   0.64636172    -2.152308    -2.152308   -1.1827676  0.096698321    -2.152308   0.96954037   439061 
  592000   0.64585411   -2.1525389   -2.1525389     -1.18376  0.095391236   -2.1525389   0.96877895   439061 
  593000   0.64466237   -2.1522548   -2.1522548   -1.1852634  0.096344346   -2.1522548   0.96699135   439061 
  594000    0.6449595   -2.1532297   -2.1532297   -1.1857926  0.091492466   -2.1532297   0.96743705   439061 
  595000   0.64443984   -2.1517784   -2.1517784   -1.1851209  0.095088969   -2.1517784   0.96665756   439061 
  596000   0.64535459   -2.1530844   -2.1530844   -1.1850547  0.093049282   -2.1530844   0.96802968   439061 
  597000   0.64582317   -2.1534483   -2.1534483   -1.1847157  0.092999675   -2.1534483   0.96873254   439061 
  598000   0.64470024   -2.1534341   -2.1534341    -1.186386  0.096478297   -2.1534341   0.96704816   439061 
  599000   0.64399872   -2.1530349   -2.1530349   -1.1870391  0.093092205   -2.1530349   0.96599588   439061 
  600000   0.64412474   -2.1534253   -2.1534253   -1.1872404  0.092548132   -2.1534253   0.96618491   439061 
  601000   0.64350668   -2.1534606   -2.1534606   -1.1882028  0.093389671   -2.1534606   0.96525783   439061 
  602000   0.64373988   -2.1539904   -2.1539904   -1.1883828  0.095248271   -2.1539904   0.96560762   439061 
  603000   0.64377582   -2.1538487   -2.1538487   -1.1881872  0.095066121   -2.1538487   0.96566153   439061 
  604000    0.6439229   -2.1541929   -2.1541929   -1.1883108  0.095809755   -2.1541929   0.96588214   439061 
  605000   0.64373826   -2.1553976   -2.1553976   -1.1897924  0.094519315   -2.1553976   0.96560519   439061 
  606000   0.64363906   -2.1561541   -2.1561541   -1.1906977  0.095066817   -2.1561541   0.96545639   439061 
  607000   0.64407432   -2.1576155   -2.1576155   -1.1915062  0.093244117   -2.1576155   0.96610929   439061 
  608000   0.64375408   -2.1568818   -2.1568818   -1.1912529  0.094352164   -2.1568818   0.96562893   439061 
  609000   0.64342521   -2.1566161   -2.1566161   -1.1914805  0.094446418   -2.1566161   0.96513561   439061 
  610000   0.64319795   -2.1563527   -2.1563527   -1.1915579    0.0969304   -2.1563527   0.96479473   439061 
  611000   0.64309815   -2.1570928   -2.1570928   -1.1924478  0.095930203   -2.1570928   0.96464503   439061 
  612000   0.64292864    -2.157345    -2.157345   -1.1929543  0.095171918    -2.157345   0.96439077   439061 
  613000   0.64394995   -2.1591088   -2.1591088   -1.1931861  0.090531752   -2.1591088   0.96592272   439061 
  614000   0.64345285   -2.1581881   -2.1581881   -1.1930111  0.094479597   -2.1581881   0.96517708   439061 
  615000   0.64279631   -2.1581872   -2.1581872   -1.1939949   0.09396053   -2.1581872   0.96419227   439061 
  616000   0.64343318   -2.1605535   -2.1605535   -1.1954059   0.09046814   -2.1605535   0.96514757   439061 
  617000    0.6425015   -2.1609922   -2.1609922   -1.1972421  0.091480097   -2.1609922   0.96375005   439061 
  618000   0.64159507   -2.1593519   -2.1593519   -1.1969615   0.09278226   -2.1593519   0.96239042   439061 
  619000   0.64084756   -2.1588824   -2.1588824   -1.1976133  0.089634946   -2.1588824   0.96126915   439061 
  620000   0.64067718   -2.1592597   -2.1592597   -1.1982461  0.093173288   -2.1592597   0.96101358   439061 
  621000   0.64090765   -2.1605766   -2.1605766   -1.1992174  0.089863286   -2.1605766   0.96135928   439061 
  622000   0.64137863   -2.1611723   -2.1611723   -1.1991065  0.092963867   -2.1611723   0.96206575   439061 
  623000   0.64132021   -2.1621988   -2.1621988   -1.2002207  0.091204518   -2.1621988   0.96197812   439061 
  624000   0.63995827   -2.1603201   -2.1603201   -1.2003849  0.094774343   -2.1603201   0.95993523   439061 
  625000   0.64150256   -2.1629453   -2.1629453   -1.2006937  0.095379151   -2.1629453   0.96225165   439061 
  626000   0.64096769   -2.1630575   -2.1630575   -1.2016081  0.093926988   -2.1630575   0.96144934   439061 
  627000    0.6418553   -2.1652447   -2.1652447   -1.2024639  0.093252112   -2.1652447   0.96278076   439061 
  628000   0.63908338   -2.1621021   -2.1621021   -1.2034792  0.091682871   -2.1621021   0.95862289   439061 
  629000   0.64062496   -2.1644906   -2.1644906   -1.2035554  0.087863507   -2.1644906   0.96093526   439061 
  630000   0.63986982    -2.163215    -2.163215   -1.2034125  0.095247692    -2.163215   0.95980254   439061 
  631000   0.63945021   -2.1639068   -2.1639068   -1.2047337  0.092077977   -2.1639068   0.95917313   439061 
  632000   0.63999272   -2.1647117   -2.1647117   -1.2047248  0.089602395   -2.1647117   0.95998689   439061 
  633000   0.63844112   -2.1629871   -2.1629871   -1.2053276  0.093334131   -2.1629871    0.9576595   439061 
  634000   0.63960458   -2.1645431   -2.1645431   -1.2051384  0.089859628   -2.1645431   0.95940469   439061 
  635000   0.63966924    -2.165992    -2.165992   -1.2064903  0.091355796    -2.165992   0.95950168   439061 
  636000   0.63950435   -2.1654935   -2.1654935   -1.2062392  0.090176684   -2.1654935   0.95925434   439061 
  637000   0.63942881   -2.1661013   -2.1661013   -1.2069602  0.088069158   -2.1661013   0.95914103   439061 
  638000   0.63931724   -2.1655458   -2.1655458   -1.2065721  0.092193445   -2.1655458   0.95897368   439061 
  639000   0.63906038   -2.1654092   -2.1654092   -1.2068208   0.09123554   -2.1654092   0.95858839   439061 
  640000   0.63774902   -2.1648621   -2.1648621   -1.2082407  0.087521425   -2.1648621   0.95662135   439061 
  641000   0.63832345   -2.1650629   -2.1650629   -1.2075799  0.088835316   -2.1650629     0.957483   439061 
  642000   0.63799302   -2.1652139   -2.1652139   -1.2082266  0.089031787   -2.1652139   0.95698736   439061 
  643000   0.63852076   -2.1661806   -2.1661806   -1.2084016  0.089589837   -2.1661806   0.95777896   439061 
  644000   0.63835129   -2.1662002   -2.1662002   -1.2086755  0.089563224   -2.1662002   0.95752476   439061 
  645000   0.63767612   -2.1658636   -2.1658636   -1.2093516  0.088926765   -2.1658636     0.956512   439061 
  646000   0.63846664   -2.1676017   -2.1676017   -1.2099039  0.089616754   -2.1676017   0.95769777   439061 
  647000   0.63860767   -2.1679206   -2.1679206   -1.2100113  0.090724563   -2.1679206   0.95790933   439061 
  648000   0.63854565   -2.1691156   -2.1691156   -1.2112993  0.091417515   -2.1691156    0.9578163   439061 
  649000   0.63732132   -2.1684379   -2.1684379   -1.2124581   0.09104683   -2.1684379   0.95597981   439061 
  650000   0.63753108   -2.1690987   -2.1690987   -1.2128043  0.091717621   -2.1690987   0.95629444   439061 
  651000   0.63792992   -2.1700504   -2.1700504   -1.2131577  0.087904123   -2.1700504    0.9568927   439061 
  652000   0.63754244   -2.1706169   -2.1706169   -1.2143054  0.089184624   -2.1706169   0.95631148   439061 
  653000   0.63704609   -2.1704708   -2.1704708   -1.2149038  0.091255184   -2.1704708   0.95556696   439061 
  654000   0.63731988   -2.1716039   -2.1716039   -1.2156263  0.089894247   -2.1716039   0.95597764   439061 
  655000   0.63758657   -2.1724037   -2.1724037   -1.2160261  0.086279986   -2.1724037   0.95637768   439061 
  656000   0.63654398   -2.1717305   -2.1717305   -1.2169167   0.08857509   -2.1717305   0.95481379   439061 
  657000   0.63546966   -2.1704362   -2.1704362   -1.2172338  0.089038089   -2.1704362   0.95320232   439061 
  658000   0.63715687   -2.1727414   -2.1727414   -1.2170082   0.08919096   -2.1727414   0.95573313   439061 
  659000   0.63673207   -2.1725823   -2.1725823   -1.2174864  0.089383307   -2.1725823   0.95509593   439061 
  660000   0.63653892   -2.1725188   -2.1725188   -1.2177126  0.087798743   -2.1725188   0.95480621   439061 
  661000   0.63693834   -2.1731906   -2.1731906   -1.2177852   0.08594862   -2.1731906   0.95540533   439061 
  662000   0.63654341   -2.1733958   -2.1733958   -1.2185829  0.085339245   -2.1733958   0.95481294   439061 
  663000   0.63598032   -2.1736419   -2.1736419   -1.2196736  0.082765317   -2.1736419    0.9539683   439061 
  664000   0.63596877    -2.174631    -2.174631     -1.22068  0.084034554    -2.174631   0.95395099   439061 
  665000   0.63618829   -2.1745795   -2.1745795   -1.2202993  0.084789301   -2.1745795   0.95428027   439061 
  666000   0.63547546   -2.1742976   -2.1742976   -1.2210866  0.087500586   -2.1742976   0.95321102   439061 
  667000    0.6348532   -2.1745489   -2.1745489   -1.2222712  0.085444138   -2.1745489   0.95227764   439061 
  668000   0.63409262   -2.1741114   -2.1741114   -1.2229746  0.089326514   -2.1741114   0.95113677   439061 
  669000   0.63494363   -2.1756785   -2.1756785   -1.2232653  0.086047357   -2.1756785   0.95241328   439061 
  670000   0.63375466    -2.174824    -2.174824   -1.2241942  0.085498641    -2.174824   0.95062983   439061 
  671000   0.63348172   -2.1746553   -2.1746553   -1.2244349  0.081603056   -2.1746553   0.95022041   439061 
  672000   0.63453997   -2.1760502   -2.1760502   -1.2242424  0.085399032   -2.1760502   0.95180778   439061 
  673000   0.63323651   -2.1749018   -2.1749018   -1.2250492   0.08533446   -2.1749018    0.9498526   439061 
  674000    0.6331605   -2.1759883   -2.1759883   -1.2262498  0.080205946   -2.1759883   0.94973859   439061 
  675000   0.63435093   -2.1771158   -2.1771158   -1.2255916  0.085439584   -2.1771158   0.95152422   439061 
  676000   0.63454053   -2.1783395   -2.1783395   -1.2265309  0.083238674   -2.1783395   0.95180863   439061 
  677000   0.63366954   -2.1785055   -2.1785055   -1.2280033    0.0818767   -2.1785055   0.95050214   439061 
  678000   0.63430869   -2.1793155   -2.1793155   -1.2278546  0.085882268   -2.1793155   0.95146087   439061 
  679000   0.63388886   -2.1791271   -2.1791271    -1.228296  0.083302397   -2.1791271   0.95083113   439061 
  680000   0.63430441   -2.1803334   -2.1803334    -1.228879  0.084018421   -2.1803334   0.95145444   439061 
  681000   0.63344971   -2.1799675   -2.1799675   -1.2297951  0.086313277   -2.1799675    0.9501724   439061 
  682000   0.63457264   -2.1823754   -2.1823754   -1.2305186  0.087983945   -2.1823754    0.9518568   439061 
  683000   0.63360703   -2.1816682   -2.1816682   -1.2312598  0.088045893   -2.1816682   0.95040838   439061 
  684000   0.63361418   -2.1828594   -2.1828594   -1.2324403  0.086364557   -2.1828594   0.95041911   439061 
  685000    0.6328959   -2.1827954   -2.1827954   -1.2334537  0.085449956   -2.1827954   0.94934169   439061 
  686000   0.63345558   -2.1850657   -2.1850657   -1.2348845   0.08394782   -2.1850657   0.95018121   439061 
  687000   0.63302985    -2.183714    -2.183714   -1.2341714  0.082876347    -2.183714   0.94954261   439061 
  688000   0.63268566   -2.1836117   -2.1836117   -1.2345854  0.086316616   -2.1836117   0.94902633   439061 
  689000   0.63206942   -2.1833606   -2.1833606   -1.2352586  0.086394951   -2.1833606   0.94810197   439061 
  690000   0.63246091     -2.18444     -2.18444   -1.2357508  0.081538874     -2.18444    0.9486892   439061 
  691000   0.63106654   -2.1829692   -2.1829692   -1.2363715  0.083950023   -2.1829692   0.94659766   439061 
  692000   0.63193626   -2.1847637   -2.1847637   -1.2368614  0.081770191   -2.1847637   0.94790224   439061 
  693000   0.63188066   -2.1849401   -2.1849401   -1.2371213  0.081301406   -2.1849401   0.94781883   439061 
  694000   0.63237451   -2.1864992   -2.1864992   -1.2379396  0.080128946   -2.1864992   0.94855961   439061 
  695000   0.63161665   -2.1858636   -2.1858636   -1.2384408  0.082509937   -2.1858636   0.94742282   439061 
  696000   0.63249583   -2.1886944   -2.1886944   -1.2399528  0.082954285   -2.1886944   0.94874159   439061 
  697000   0.63126712   -2.1867111   -2.1867111   -1.2398125  0.084484772   -2.1867111   0.94689852   439061 
  698000   0.63071623    -2.186755    -2.186755   -1.2406828  0.086445217    -2.186755   0.94607218   439061 
  699000   0.63311794   -2.1895953   -2.1895953   -1.2399205  0.081282015   -2.1895953   0.94967475   439061 
  700000    0.6314858   -2.1886526   -2.1886526   -1.2414261  0.082607219   -2.1886526   0.94722655   439061 
  701000   0.63153231   -2.1896364   -2.1896364   -1.2423401  0.081686303   -2.1896364   0.94729631   439061 
  702000   0.63099313   -2.1889793   -2.1889793   -1.2424917  0.081791502   -2.1889793   0.94648753   439061 
  703000   0.63093647   -2.1881397   -2.1881397   -1.2417371  0.081742541   -2.1881397   0.94640255   439061 
  704000   0.63152567   -2.1895294   -2.1895294   -1.2422431  0.086402861   -2.1895294   0.94728635   439061 
  705000   0.62947712   -2.1882873   -2.1882873   -1.2440737  0.078603469   -2.1882873   0.94421353   439061 
  706000   0.63025761   -2.1898399   -2.1898399   -1.2444557  0.084578111   -2.1898399   0.94538425   439061 
  707000   0.62985465   -2.1892737   -2.1892737   -1.2444939  0.079448242   -2.1892737   0.94477982   439061 
  708000   0.63025694   -2.1900215   -2.1900215   -1.2446382  0.081008795   -2.1900215   0.94538326   439061 
  709000   0.62988432    -2.189943    -2.189943   -1.2451186  0.079638833    -2.189943   0.94482433   439061 
  710000   0.62952482   -2.1905979   -2.1905979   -1.2463129  0.079580488   -2.1905979   0.94428508   439061 
  711000   0.62975313   -2.1909823   -2.1909823   -1.2463547  0.077378273   -2.1909823   0.94462754   439061 
  712000   0.62965894   -2.1908786   -2.1908786   -1.2463924  0.081407548   -2.1908786   0.94448626   439061 
  713000   0.62902348   -2.1905659   -2.1905659   -1.2470328  0.080206349   -2.1905659   0.94353307   439061 
  714000    0.6290222   -2.1914173   -2.1914173   -1.2478861  0.076847412   -2.1914173   0.94353115   439061 
  715000   0.63022908   -2.1928735   -2.1928735    -1.247532    0.0810063   -2.1928735   0.94534147   439061 
  716000   0.62986257   -2.1923289   -2.1923289   -1.2475372  0.079077404   -2.1923289    0.9447917   439061 
  717000   0.62920289   -2.1921784   -2.1921784   -1.2483762  0.079477815   -2.1921784   0.94380218   439061 
  718000   0.62884322   -2.1922976   -2.1922976   -1.2490349   0.07822973   -2.1922976   0.94326269   439061 
  719000   0.62926359   -2.1929549   -2.1929549   -1.2490617  0.079745541   -2.1929549   0.94389324   439061 
  720000   0.62979876   -2.1942405   -2.1942405   -1.2495445  0.077782343   -2.1942405   0.94469599   439061 
  721000   0.62997716   -2.1951241   -2.1951241   -1.2501605    0.0773243   -2.1951241   0.94496358   439061 
  722000   0.62928065   -2.1948782   -2.1948782   -1.2509594  0.077536427   -2.1948782   0.94391882   439061 
  723000   0.62942057   -2.1951263   -2.1951263   -1.2509976  0.076295104   -2.1951263    0.9441287   439061 
  724000   0.62832813   -2.1946016   -2.1946016   -1.2521115  0.076175794   -2.1946016   0.94249005   439061 
  725000   0.62738169   -2.1935471   -2.1935471   -1.2524767  0.083537532   -2.1935471   0.94107039   439061 
  726000   0.62896227   -2.1956583   -2.1956583    -1.252217  0.080489624   -2.1956583   0.94344126   439061 
  727000   0.62777011   -2.1943821   -2.1943821   -1.2527291  0.078317793   -2.1943821   0.94165302   439061 
  728000   0.62810039   -2.1954902   -2.1954902   -1.2533418  0.079779975   -2.1954902   0.94214845   439061 
  729000   0.62793896   -2.1957045   -2.1957045   -1.2537982  0.077305004   -2.1957045   0.94190629   439061 
  730000   0.62710178   -2.1945197   -2.1945197   -1.2538692  0.077519472   -2.1945197   0.94065053   439061 
  731000   0.62815747   -2.1962777   -2.1962777   -1.2540436  0.078919346   -2.1962777   0.94223406   439061 
  732000   0.62765019   -2.1957904   -2.1957904   -1.2543173  0.081779908   -2.1957904   0.94147315   439061 
  733000   0.62791192   -2.1965259   -2.1965259   -1.2546602  0.080038741   -2.1965259   0.94186573   439061 
  734000   0.62680368   -2.1960085   -2.1960085   -1.2558051  0.078799458   -2.1960085   0.94020338   439061 
  735000   0.62733343    -2.197492    -2.197492    -1.256494  0.079717534    -2.197492   0.94099799   439061 
  736000   0.62576209    -2.195503    -2.195503    -1.256862  0.081971983    -2.195503   0.93864099   439061 
  737000    0.6282436   -2.1994307   -2.1994307   -1.2570675  0.078183843   -2.1994307   0.94236325   439061 
  738000   0.62740781   -2.1987128   -2.1987128   -1.2576032  0.077520338   -2.1987128   0.94110958   439061 
  739000   0.62691354   -2.1989771   -2.1989771    -1.258609  0.076763796   -2.1989771   0.94036817   439061 
  740000   0.62569863   -2.1981661   -2.1981661   -1.2596203  0.078096857   -2.1981661   0.93854581   439061 
  741000   0.62593233   -2.1991066   -2.1991066   -1.2602103  0.078723154   -2.1991066   0.93889635   439061 
  742000   0.62661732    -2.200649    -2.200649   -1.2607252  0.080872465    -2.200649   0.93992384   439061 
  743000    0.6265355   -2.2005564   -2.2005564   -1.2607553   0.08196657   -2.2005564   0.93980111   439061 
  744000   0.62673691   -2.2011945   -2.2011945   -1.2610913   0.07610811   -2.2011945   0.94010322   439061 
  745000   0.62680374   -2.2016111   -2.2016111   -1.2614076  0.079754652   -2.2016111   0.94020347   439061 
  746000    0.6257117   -2.2011522   -2.2011522   -1.2625868  0.078169837   -2.2011522   0.93856541   439061 
  747000   0.62618937   -2.2029973   -2.2029973   -1.2637154  0.071736894   -2.2029973   0.93928192   439061 
  748000   0.62566556   -2.2013806   -2.2013806   -1.2628844  0.075679154   -2.2013806   0.93849621   439061 
  749000   0.62640319   -2.2034253   -2.2034253   -1.2638227  0.076294537   -2.2034253   0.93960264   439061 
  750000   0.62533062   -2.2030443   -2.2030443   -1.2650505  0.076562228   -2.2030443   0.93799379   439061 
  751000   0.62476905   -2.2027487   -2.2027487   -1.2655973  0.073252874   -2.2027487   0.93715144   439061 
  752000   0.62510956   -2.2036322   -2.2036322     -1.26597  0.073226951   -2.2036322   0.93766221   439061 
  753000   0.62459936   -2.2029266   -2.2029266   -1.2660297  0.076643464   -2.2029266   0.93689691   439061 
  754000   0.62558667   -2.2047919   -2.2047919    -1.266414  0.075668522   -2.2047919   0.93837787   439061 
  755000   0.62487289   -2.2033762   -2.2033762    -1.266069  0.075660321   -2.2033762    0.9373072   439061 
  756000   0.62528945   -2.2044831   -2.2044831   -1.2665511  0.078551507   -2.2044831   0.93793204   439061 
  757000   0.62482163   -2.2048673   -2.2048673    -1.267637  0.076381607   -2.2048673   0.93723031   439061 
  758000   0.62483547   -2.2054524   -2.2054524   -1.2682013  0.074333165   -2.2054524   0.93725107   439061 
  759000   0.62405992   -2.2043973   -2.2043973   -1.2683095  0.077199272   -2.2043973   0.93608775   439061 
  760000   0.62418961    -2.204803    -2.204803   -1.2685207  0.077939437    -2.204803   0.93628228   439061 
  761000   0.62478581   -2.2058315   -2.2058315   -1.2686549  0.075312786   -2.2058315   0.93717657   439061 
  762000   0.62369323   -2.2048765   -2.2048765   -1.2693388  0.076133365   -2.2048765   0.93553772   439061 
  763000   0.62400507   -2.2072761   -2.2072761   -1.2712706  0.073901435   -2.2072761   0.93600547   439061 
  764000   0.62421807   -2.2077348   -2.2077348   -1.2714098  0.075423608   -2.2077348   0.93632497   439061 
  765000   0.62422068   -2.2071119   -2.2071119    -1.270783  0.072230646   -2.2071119   0.93632889   439061 
  766000   0.62517988   -2.2087743   -2.2087743   -1.2710066  0.076954143   -2.2087743   0.93776769   439061 
  767000   0.62421932   -2.2083605   -2.2083605   -1.2720337  0.077488063   -2.2083605   0.93632685   439061 
  768000   0.62365485   -2.2083682   -2.2083682   -1.2728881  0.077413629   -2.2083682   0.93548015   439061 
  769000   0.62376575   -2.2092336   -2.2092336   -1.2735871  0.075026133   -2.2092336   0.93564649   439061 
  770000   0.62298015   -2.2090049   -2.2090049   -1.2745368  0.073269031   -2.2090049    0.9344681   439061 
  771000   0.62289071    -2.209786    -2.209786   -1.2754521  0.073907433    -2.209786   0.93433394   439061 
  772000   0.62343541   -2.2100369   -2.2100369   -1.2748859  0.075823564   -2.2100369   0.93515099   439061 
  773000   0.62237837   -2.2086916   -2.2086916   -1.2751262  0.076556587   -2.2086916   0.93356543   439061 
  774000   0.62357302    -2.209771    -2.209771   -1.2744136  0.076318754    -2.209771   0.93535739   439061 
  775000   0.62420189   -2.2110542   -2.2110542   -1.2747535  0.073508199   -2.2110542   0.93630071   439061 
  776000   0.62417451   -2.2114304   -2.2114304   -1.2751707  0.074542623   -2.2114304   0.93625963   439061 
  777000   0.62302067   -2.2100357   -2.2100357   -1.2755068  0.077570044   -2.2100357   0.93452888   439061 
  778000    0.6230009   -2.2104658   -2.2104658   -1.2759666  0.077181218   -2.2104658   0.93449922   439061 
  779000   0.62191217   -2.2097844   -2.2097844   -1.2769183  0.077491196   -2.2097844   0.93286612   439061 
  780000   0.62231747    -2.211028    -2.211028   -1.2775539  0.074614779    -2.211028   0.93347408   439061 
  781000   0.62203385    -2.210778    -2.210778   -1.2777294  0.073892882    -2.210778   0.93304865   439061 
  782000   0.62268679   -2.2120649   -2.2120649   -1.2780368  0.069534418   -2.2120649   0.93402805   439061 
  783000   0.62288509   -2.2128093   -2.2128093   -1.2784838  0.070838733   -2.2128093    0.9343255   439061 
  784000   0.62243902   -2.2120868   -2.2120868   -1.2784304  0.072261143   -2.2120868    0.9336564   439061 
  785000   0.62188488   -2.2121013   -2.2121013   -1.2792761  0.072287124   -2.2121013   0.93282519   439061 
  786000   0.62195092   -2.2118143   -2.2118143     -1.27889   0.07387002   -2.2118143   0.93292426   439061 
  787000   0.62158412    -2.211632    -2.211632   -1.2792579  0.073266295    -2.211632   0.93237406   439061 
  788000   0.62087008   -2.2118207   -2.2118207   -1.2805177  0.073109833   -2.2118207   0.93130301   439061 
  789000   0.62211043   -2.2134257   -2.2134257   -1.2802621  0.073761493   -2.2134257   0.93316352   439061 
  790000   0.62178915   -2.2134806   -2.2134806    -1.280799  0.070887469   -2.2134806   0.93268159   439061 
  791000   0.62112742   -2.2129575   -2.2129575   -1.2812685  0.071792207   -2.2129575   0.93168901   439061 
  792000   0.62139605   -2.2135765   -2.2135765   -1.2814845  0.072074331   -2.2135765   0.93209195   439061 
  793000   0.62166293   -2.2140766   -2.2140766   -1.2815843  0.068654588   -2.2140766   0.93249227   439061 
  794000   0.62205188   -2.2147316   -2.2147316   -1.2816559  0.073584358   -2.2147316    0.9330757   439061 
  795000   0.62114035   -2.2147186   -2.2147186   -1.2830102  0.073612225   -2.2147186   0.93170841   439061 
  796000   0.62025827   -2.2135096   -2.2135096   -1.2831244  0.072536909   -2.2135096   0.93038528   439061 
  797000   0.62057488   -2.2144031   -2.2144031   -1.2835429  0.074566062   -2.2144031    0.9308602   439061 
  798000   0.62080533   -2.2156657   -2.2156657   -1.2844598  0.069322197   -2.2156657   0.93120587   439061 
  799000   0.62096035   -2.2154568   -2.2154568   -1.2840184  0.075319566   -2.2154568   0.93143841   439061 
  800000   0.62170734   -2.2168985   -2.2168985   -1.2843396  0.074970611   -2.2168985   0.93255889   439061 
  801000   0.62106148    -2.216116    -2.216116   -1.2845259  0.070823958    -2.216116    0.9315901   439061 
  802000   0.62156506   -2.2179396   -2.2179396   -1.2855941  0.071484486   -2.2179396   0.93234546   439061 
  803000   0.62138628   -2.2189557   -2.2189557   -1.2868784  0.069457831   -2.2189557   0.93207729   439061 
  804000   0.62119812   -2.2188075   -2.2188075   -1.2870124  0.070469979   -2.2188075   0.93179506   439061 
  805000   0.62035986   -2.2184314   -2.2184314   -1.2878937  0.071922195   -2.2184314   0.93053767   439061 
  806000   0.61973851   -2.2184486   -2.2184486   -1.2888429  0.071973188   -2.2184486   0.92960564   439061 
  807000   0.61916681   -2.2184128   -2.2184128   -1.2896647  0.070926729   -2.2184128   0.92874809   439061 
  808000   0.61984776   -2.2198694   -2.2198694   -1.2900998  0.068612954   -2.2198694   0.92976953   439061 
  809000   0.62070498   -2.2213074   -2.2213074    -1.290252  0.069942092   -2.2213074   0.93105535   439061 
  810000   0.62020069   -2.2200201   -2.2200201   -1.2897212   0.07443897   -2.2200201   0.93029892   439061 
  811000   0.62109521   -2.2222149   -2.2222149   -1.2905742  0.073974871   -2.2222149    0.9316407   439061 
  812000   0.62012617   -2.2210458   -2.2210458   -1.2908587  0.072855101   -2.2210458   0.93018714   439061 
  813000   0.61885386   -2.2192575   -2.2192575   -1.2909788   0.07294858   -2.2192575   0.92827867   439061 
  814000   0.62027287   -2.2212903   -2.2212903   -1.2908831  0.072888309   -2.2212903   0.93040719   439061 
  815000    0.6204792   -2.2228253   -2.2228253   -1.2921087  0.068508223   -2.2228253   0.93071668   439061 
  816000   0.62005238   -2.2223454   -2.2223454   -1.2922689  0.069717253   -2.2223454   0.93007645   439061 
  817000   0.61922786   -2.2224057   -2.2224057    -1.293566  0.071095185   -2.2224057   0.92883967   439061 
  818000   0.61953171   -2.2225929   -2.2225929   -1.2932975  0.072854376   -2.2225929   0.92929545   439061 
  819000   0.62027269   -2.2239936   -2.2239936   -1.2935867  0.069128823   -2.2239936   0.93040692   439061 
  820000   0.61892374   -2.2219573   -2.2219573   -1.2935738  0.074675422   -2.2219573    0.9283835   439061 
  821000   0.61804913   -2.2224086   -2.2224086    -1.295337  0.072487823   -2.2224086   0.92707158   439061 
  822000   0.61773162   -2.2228665   -2.2228665   -1.2962712  0.070781045   -2.2228665   0.92659532   439061 
  823000   0.61793093   -2.2243932   -2.2243932   -1.2974989  0.070660509   -2.2243932   0.92689429   439061 
  824000    0.6181405   -2.2250045   -2.2250045   -1.2977959  0.073089941   -2.2250045   0.92720863   439061 
  825000    0.6180165   -2.2243752   -2.2243752   -1.2973525  0.071810427   -2.2243752   0.92702263   439061 
  826000   0.61837911   -2.2259342   -2.2259342   -1.2983676  0.067792243   -2.2259342   0.92756656   439061 
  827000   0.61933613   -2.2278638   -2.2278638   -1.2988617  0.069922032   -2.2278638   0.92900208   439061 
  828000   0.61959639   -2.2278855   -2.2278855   -1.2984931  0.070051479   -2.2278855   0.92939247   439061 
  829000   0.61780847   -2.2266688   -2.2266688   -1.2999583  0.071834954   -2.2266688   0.92671059   439061 
  830000   0.61840413   -2.2285472   -2.2285472   -1.3009431  0.070238537   -2.2285472   0.92760409   439061 
  831000   0.61830756   -2.2282846   -2.2282846   -1.3008254  0.069335868   -2.2282846   0.92745923   439061 
  832000   0.61805782   -2.2281836   -2.2281836    -1.301099  0.070153441   -2.2281836   0.92708462   439061 
  833000   0.61842253    -2.228998    -2.228998   -1.3013663  0.070233921    -2.228998   0.92763169   439061 
  834000   0.61804568   -2.2281916   -2.2281916   -1.3011252  0.068197529   -2.2281916   0.92706641   439061 
  835000   0.61892746   -2.2298454   -2.2298454   -1.3014564  0.070873951   -2.2298454   0.92838907   439061 
  836000   0.61795648   -2.2284185   -2.2284185   -1.3014859  0.067668782   -2.2284185   0.92693261   439061 
  837000    0.6179825   -2.2298641   -2.2298641   -1.3028925  0.072650064   -2.2298641   0.92697164   439061 
  838000   0.61717055     -2.22889     -2.22889   -1.3031362  0.069442843     -2.22889   0.92575372   439061 
  839000     0.616749   -2.2291555   -2.2291555   -1.3040341  0.070561731   -2.2291555    0.9251214   439061 
  840000   0.61673193   -2.2295157   -2.2295157   -1.3044199  0.069550829   -2.2295157   0.92509578   439061 
  841000   0.61617116   -2.2291392   -2.2291392   -1.3048846  0.066166121   -2.2291392   0.92425464   439061 
  842000   0.61648826   -2.2291137   -2.2291137   -1.3043834  0.068403767   -2.2291137   0.92473028   439061 
  843000   0.61717056    -2.229912    -2.229912   -1.3041582   0.06683902    -2.229912   0.92575374   439061 
  844000   0.61671817   -2.2298474   -2.2298474   -1.3047722  0.070251912   -2.2298474   0.92507515   439061 
  845000   0.61641092   -2.2294362   -2.2294362    -1.304822  0.068538707   -2.2294362   0.92461427   439061 
  846000   0.61624292   -2.2301845   -2.2301845   -1.3058222  0.065993719   -2.2301845   0.92436228   439061 
  847000   0.61579604   -2.2302008   -2.2302008   -1.3065089  0.065637088   -2.2302008   0.92369196   439061 
  848000   0.61577116   -2.2301347   -2.2301347   -1.3064801  0.065881052   -2.2301347   0.92365464   439061 
  849000   0.61630338   -2.2305177   -2.2305177   -1.3060648  0.067647682   -2.2305177   0.92445296   439061 
  850000   0.61646741   -2.2310207   -2.2310207   -1.3063217  0.064974427   -2.2310207   0.92469901   439061 
  851000   0.61657666   -2.2320417   -2.2320417   -1.3071788  0.066854409   -2.2320417   0.92486288   439061 
  852000    0.6163089   -2.2321342   -2.2321342   -1.3076729  0.066355497   -2.2321342   0.92446125   439061 
  853000   0.61564886    -2.232241    -2.232241   -1.3087698  0.065971656    -2.232241   0.92347119   439061 
  854000   0.61582287    -2.233509    -2.233509   -1.3097768  0.070142431    -2.233509    0.9237322   439061 
  855000   0.61552741    -2.232732    -2.232732   -1.3094429  0.070616211    -2.232732   0.92328901   439061 
  856000   0.61634102    -2.234068    -2.234068   -1.3095586  0.067328351    -2.234068   0.92450942   439061 
  857000   0.61591698   -2.2346308   -2.2346308   -1.3107574  0.067443169   -2.2346308   0.92387337   439061 
  858000   0.61564007   -2.2340199   -2.2340199   -1.3105619  0.069017934   -2.2340199     0.923458   439061 
  859000   0.61609099   -2.2352843   -2.2352843   -1.3111499  0.069106781   -2.2352843   0.92413438   439061 
  860000   0.61655244   -2.2371399   -2.2371399   -1.3123134  0.064473364   -2.2371399   0.92482655   439061 
  861000   0.61540237   -2.2359008   -2.2359008   -1.3127994  0.069918404   -2.2359008   0.92310145   439061 
  862000   0.61584749   -2.2367619   -2.2367619   -1.3129928  0.070202609   -2.2367619   0.92376913   439061 
  863000   0.61712036   -2.2387144   -2.2387144    -1.313036  0.070998645   -2.2387144   0.92567844   439061 
  864000   0.61662081   -2.2382472   -2.2382472   -1.3133181  0.070195117   -2.2382472   0.92492911   439061 
  865000   0.61663445   -2.2384855   -2.2384855    -1.313536  0.068436901   -2.2384855   0.92494956   439061 
  866000    0.6169765   -2.2405449   -2.2405449   -1.3150822  0.068274956   -2.2405449   0.92546264   439061 
  867000   0.61620772   -2.2410305   -2.2410305    -1.316721  0.070041601   -2.2410305   0.92430947   439061 
  868000   0.61467982   -2.2389765   -2.2389765   -1.3169588  0.067247347   -2.2389765   0.92201763   439061 
  869000   0.61528854   -2.2409689   -2.2409689   -1.3180382  0.065020382   -2.2409689   0.92293071   439061 
  870000    0.6149287   -2.2406984   -2.2406984   -1.3183074  0.067381162   -2.2406984   0.92239095   439061 
  871000   0.61502399   -2.2413617   -2.2413617   -1.3188278  0.067305019   -2.2413617   0.92253389   439061 
  872000   0.61449718    -2.241367    -2.241367   -1.3196234  0.067905138    -2.241367   0.92174367   439061 
  873000   0.61480605   -2.2418873   -2.2418873   -1.3196803   0.06767954   -2.2418873   0.92220697   439061 
  874000   0.61392149   -2.2408644   -2.2408644   -1.3199843  0.068341497   -2.2408644   0.92088014   439061 
  875000   0.61504577   -2.2410228   -2.2410228   -1.3184563  0.069117046   -2.2410228   0.92256655   439061 
  876000   0.61433361   -2.2407839   -2.2407839   -1.3192855   0.06997505   -2.2407839   0.92149832   439061 
  877000   0.61483258    -2.241115    -2.241115   -1.3188682     0.067945    -2.241115   0.92224676   439061 
  878000   0.61394634   -2.2407798   -2.2407798   -1.3198624  0.067088776   -2.2407798   0.92091742   439061 
  879000   0.61440421   -2.2417075   -2.2417075   -1.3201033  0.066691007   -2.2417075   0.92160422   439061 
  880000   0.61369293   -2.2411613   -2.2411613    -1.320624  0.064016157   -2.2411613    0.9205373   439061 
  881000   0.61376169   -2.2418283   -2.2418283   -1.3211879  0.066922608   -2.2418283   0.92064044   439061 
  882000   0.61363623   -2.2413635   -2.2413635   -1.3209113  0.059779726   -2.2413635   0.92045224   439061 
  883000   0.61334285   -2.2413072   -2.2413072   -1.3212951  0.061908632   -2.2413072   0.92001218   439061 
  884000   0.61279947    -2.240914    -2.240914   -1.3217169  0.064161041    -2.240914   0.91919711   439061 
  885000   0.61274365   -2.2409919   -2.2409919   -1.3218785  0.063790146   -2.2409919   0.91911338   439061 
  886000   0.61177422   -2.2406494   -2.2406494   -1.3229902  0.065515603   -2.2406494   0.91765923   439061 
  887000   0.61245116    -2.240983    -2.240983   -1.3223083  0.063593454    -2.240983   0.91867464   439061 
  888000   0.61322278   -2.2420288   -2.2420288   -1.3221967  0.064290992   -2.2420288   0.91983208   439061 
  889000   0.61352409   -2.2432378   -2.2432378   -1.3229538   0.06097507   -2.2432378   0.92028403   439061 
  890000   0.61338335   -2.2430119   -2.2430119    -1.322939  0.064570138   -2.2430119   0.92007293   439061 
  891000   0.61444731   -2.2448169   -2.2448169    -1.323148  0.066006536   -2.2448169   0.92166886   439061 
  892000    0.6137427   -2.2442631   -2.2442631   -1.3236512  0.066301503   -2.2442631   0.92061195   439061 
  893000   0.61247864   -2.2433765   -2.2433765   -1.3246606  0.066045269   -2.2433765   0.91871587   439061 
  894000   0.61415003   -2.2446236   -2.2446236   -1.3234007  0.064461143   -2.2446236   0.92122295   439061 
  895000   0.61422768    -2.245467    -2.245467   -1.3241275  0.066228212    -2.245467   0.92133942   439061 
  896000   0.61404234   -2.2465884   -2.2465884    -1.325527  0.068130838   -2.2465884   0.92106141   439061 
  897000   0.61417795      -2.2468      -2.2468   -1.3255352  0.070216359      -2.2468   0.92126482   439061 
  898000   0.61336041    -2.246188    -2.246188   -1.3261495  0.068192258    -2.246188   0.92003851   439061 
  899000   0.61338084   -2.2471039   -2.2471039   -1.3270348   0.06401162   -2.2471039   0.92006917   439061 
  900000   0.61306559   -2.2476711   -2.2476711   -1.3280748  0.066730978   -2.2476711   0.91959629   439061 
  901000   0.61346263   -2.2491677   -2.2491677   -1.3289759  0.069251793   -2.2491677   0.92019184   439061 
  902000   0.61324048   -2.2487596   -2.2487596    -1.328901  0.066197018   -2.2487596   0.91985863   439061 
  903000   0.61308695   -2.2494484   -2.2494484     -1.32982  0.068558041   -2.2494484   0.91962834   439061 
  904000   0.61319798    -2.249835    -2.249835   -1.3300401  0.063843121    -2.249835   0.91979488   439061 
  905000   0.61328761   -2.2509512   -2.2509512   -1.3310219   0.06448632   -2.2509512   0.91992932   439061 
  906000   0.61361669   -2.2514204   -2.2514204   -1.3309975  0.064367183   -2.2514204   0.92042294   439061 
  907000   0.61316908   -2.2506695   -2.2506695    -1.330918  0.066162271   -2.2506695   0.91975153   439061 
  908000   0.61296258   -2.2508433   -2.2508433   -1.3314015  0.065219865   -2.2508433   0.91944178   439061 
  909000   0.61293173   -2.2513585   -2.2513585    -1.331963  0.065821656   -2.2513585   0.91939551   439061 
  910000   0.61357542   -2.2524146   -2.2524146   -1.3320535  0.060778579   -2.2524146   0.92036104   439061 
  911000    0.6126306   -2.2509104   -2.2509104   -1.3319666  0.065105935   -2.2509104   0.91894381   439061 
  912000    0.6130505   -2.2523866   -2.2523866   -1.3328129  0.064018725   -2.2523866   0.91957366   439061 
  913000   0.61216997   -2.2507497   -2.2507497   -1.3324969  0.064064169   -2.2507497   0.91825286   439061 
  914000    0.6117529   -2.2514121   -2.2514121   -1.3337848  0.065029869   -2.2514121   0.91762725   439061 
  915000   0.61183847   -2.2518491   -2.2518491   -1.3340935  0.064019601   -2.2518491   0.91775561   439061 
  916000   0.61095725   -2.2509231   -2.2509231   -1.3344893  0.064177665   -2.2509231   0.91643379   439061 
  917000   0.61241171   -2.2532388   -2.2532388   -1.3346233  0.065078276   -2.2532388   0.91861548   439061 
  918000   0.61245173   -2.2524265   -2.2524265    -1.333751  0.061288552   -2.2524265    0.9186755   439061 
  919000   0.61225499   -2.2522791   -2.2522791   -1.3338988  0.061338966   -2.2522791   0.91838039   439061 
  920000   0.61340153   -2.2542466   -2.2542466   -1.3341464  0.063245321   -2.2542466    0.9201002   439061 
  921000     0.611332   -2.2515868   -2.2515868   -1.3345909  0.065157356   -2.2515868   0.91699591   439061 
  922000   0.61108169   -2.2527714   -2.2527714    -1.336151  0.061349729   -2.2527714   0.91662044   439061 
  923000   0.61093753   -2.2525123   -2.2525123    -1.336108  0.065003284   -2.2525123   0.91640421   439061 
  924000   0.61024007   -2.2518831   -2.2518831   -1.3365251  0.062178292   -2.2518831   0.91535802   439061 
  925000   0.61014549   -2.2512818   -2.2512818   -1.3360656  0.062276647   -2.2512818   0.91521616   439061 
  926000   0.61058626   -2.2522835   -2.2522835   -1.3364062  0.063632891   -2.2522835   0.91587731   439061 
  927000   0.61075355   -2.2526909   -2.2526909   -1.3365626  0.064519933   -2.2526909   0.91612823   439061 
  928000   0.61065469   -2.2531247   -2.2531247   -1.3371448  0.064822824   -2.2531247   0.91597995   439061 
  929000    0.6120753   -2.2548311   -2.2548311   -1.3367202  0.060558752   -2.2548311   0.91811086   439061 
  930000   0.61190595   -2.2546685   -2.2546685   -1.3368116  0.065361541   -2.2546685   0.91785684   439061 
  931000   0.61131445   -2.2539651   -2.2539651   -1.3369955  0.064342662   -2.2539651   0.91696959   439061 
  932000   0.61158069   -2.2541822   -2.2541822   -1.3368132  0.063000412   -2.2541822   0.91736894   439061 
  933000   0.61229974   -2.2567152   -2.2567152   -1.3382677  0.063702487   -2.2567152   0.91844751   439061 
  934000   0.61268871   -2.2567747   -2.2567747   -1.3377437  0.060813017   -2.2567747   0.91903098   439061 
  935000   0.61142514   -2.2563381   -2.2563381   -1.3392025  0.063844275   -2.2563381   0.91713562   439061 
  936000   0.61104074   -2.2562799   -2.2562799   -1.3397209  0.064952449   -2.2562799   0.91655903   439061 
  937000   0.61147952   -2.2565799   -2.2565799   -1.3393627  0.062353248   -2.2565799   0.91721719   439061 
  938000   0.61031986   -2.2558404   -2.2558404   -1.3403627  0.061927166   -2.2558404    0.9154777   439061 
  939000   0.61079272   -2.2572626   -2.2572626   -1.3410756  0.064592276   -2.2572626     0.916187   439061 
  940000   0.61156849    -2.259071    -2.259071   -1.3417204  0.063577763    -2.259071   0.91735065   439061 
  941000   0.61050779   -2.2570193   -2.2570193   -1.3412597  0.065209831   -2.2570193    0.9157596   439061 
  942000   0.61104269   -2.2586944   -2.2586944   -1.3421324  0.061526289   -2.2586944   0.91656194   439061 
  943000   0.61114722   -2.2590238   -2.2590238    -1.342305  0.057405153   -2.2590238   0.91671874   439061 
  944000   0.61068068   -2.2595273   -2.2595273   -1.3435084   0.06495586   -2.2595273   0.91601893   439061 
  945000   0.61045184   -2.2594219   -2.2594219   -1.3437463  0.061162865   -2.2594219   0.91567567   439061 
  946000    0.6099947   -2.2600774   -2.2600774   -1.3450875  0.061286497   -2.2600774   0.91498997   439061 
  947000     0.610031   -2.2604847   -2.2604847   -1.3454403  0.059346733   -2.2604847   0.91504441   439061 
  948000   0.60980898   -2.2600201   -2.2600201   -1.3453087  0.062420326   -2.2600201   0.91471139   439061 
  949000   0.61036013   -2.2613929   -2.2613929   -1.3458548  0.059687331   -2.2613929   0.91553811   439061 
  950000   0.60977297   -2.2613918   -2.2613918   -1.3467344  0.064054432   -2.2613918   0.91465736   439061 
  951000    0.6092404   -2.2609558   -2.2609558   -1.3470973  0.060587195   -2.2609558   0.91385852   439061 
  952000   0.61125897    -2.263385    -2.263385   -1.3464987  0.060171407    -2.263385   0.91688637   439061 
  953000   0.61022768   -2.2624066   -2.2624066   -1.3470672  0.067935476   -2.2624066   0.91533944   439061 
  954000    0.6098777   -2.2622828   -2.2622828   -1.3474684  0.064628864   -2.2622828   0.91481447   439061 
  955000   0.60931561   -2.2620956   -2.2620956   -1.3481243  0.063648944   -2.2620956   0.91397133   439061 
  956000   0.61020953   -2.2631805   -2.2631805   -1.3478683   0.06361834   -2.2631805   0.91531222   439061 
  957000   0.60989103   -2.2640234   -2.2640234    -1.349189  0.062648069   -2.2640234   0.91483447   439061 
  958000   0.60924898   -2.2630083   -2.2630083    -1.349137  0.061010194   -2.2630083   0.91387138   439061 
  959000   0.60994703   -2.2640596   -2.2640596   -1.3491411  0.061475385   -2.2640596   0.91491846   439061 
  960000   0.61040229   -2.2654351   -2.2654351   -1.3498337  0.057718862   -2.2654351   0.91560134   439061 
  961000   0.61070083   -2.2647195   -2.2647195   -1.3486703  0.061923603   -2.2647195   0.91604916   439061 
  962000    0.6087199   -2.2625062   -2.2625062   -1.3494284  0.063032651   -2.2625062   0.91307777   439061 
  963000   0.60910846   -2.2631192   -2.2631192   -1.3494586  0.060234137   -2.2631192   0.91366061   439061 
  964000   0.60958364   -2.2650095   -2.2650095   -1.3506361  0.059084535   -2.2650095   0.91437337   439061 
  965000    0.6094724   -2.2646786   -2.2646786   -1.3504721  0.060111627   -2.2646786   0.91420651   439061 
  966000   0.61004471   -2.2661802   -2.2661802   -1.3511152  0.058933609   -2.2661802   0.91506498   439061 
  967000   0.60932994   -2.2662293   -2.2662293   -1.3522365   0.06191096   -2.2662293   0.91399282   439061 
  968000   0.60906296   -2.2658118   -2.2658118   -1.3522194  0.058852698   -2.2658118   0.91359236   439061 
  969000    0.6086009   -2.2659752   -2.2659752    -1.353076  0.062508171   -2.2659752   0.91289927   439061 
  970000   0.60730662   -2.2650966   -2.2650966   -1.3541387  0.059141039   -2.2650966   0.91095786   439061 
  971000   0.60717619   -2.2657543   -2.2657543   -1.3549921  0.062839022   -2.2657543   0.91076221   439061 
  972000   0.60706289   -2.2666999   -2.2666999   -1.3561076  0.061090679   -2.2666999   0.91059227   439061 
  973000   0.60874116   -2.2692227   -2.2692227    -1.356113  0.056554104   -2.2692227   0.91310966   439061 
  974000   0.60801909   -2.2685587   -2.2685587   -1.3565322  0.056774892   -2.2685587   0.91202655   439061 
  975000   0.60894167   -2.2698838   -2.2698838   -1.3564734   0.06421846   -2.2698838   0.91341042   439061 
  976000   0.60868765   -2.2700181   -2.2700181   -1.3569887  0.060825543   -2.2700181    0.9130294   439061 
  977000   0.60923854   -2.2708795   -2.2708795   -1.3570237  0.061926782   -2.2708795   0.91385573   439061 
  978000   0.60819762   -2.2708076   -2.2708076   -1.3585132  0.059500205   -2.2708076   0.91229436   439061 
  979000   0.60821462   -2.2715842   -2.2715842   -1.3592644  0.060912393   -2.2715842   0.91231985   439061 
  980000   0.60839184   -2.2723077   -2.2723077    -1.359722  0.063426979   -2.2723077   0.91258568   439061 
  981000   0.60799907   -2.2711121   -2.2711121   -1.3591156  0.067406288   -2.2711121   0.91199653   439061 
  982000   0.60897246   -2.2731519   -2.2731519   -1.3596953   0.06092073   -2.2731519   0.91345661   439061 
  983000   0.60880348   -2.2731112   -2.2731112   -1.3599081  0.063016942   -2.2731112   0.91320314   439061 
  984000   0.60820139   -2.2733164   -2.2733164   -1.3610164  0.063386046   -2.2733164   0.91230001   439061 
  985000   0.60842479   -2.2739285   -2.2739285   -1.3612934  0.062531192   -2.2739285    0.9126351   439061 
  986000   0.60851922   -2.2746542   -2.2746542   -1.3618774  0.061836422   -2.2746542   0.91277674   439061 
  987000   0.60793578    -2.274335    -2.274335   -1.3624334  0.058685631    -2.274335   0.91190159   439061 
  988000   0.60728458   -2.2737825   -2.2737825   -1.3628577  0.060083003   -2.2737825    0.9109248   439061 
  989000   0.60729562   -2.2734433   -2.2734433   -1.3625019  0.060475645   -2.2734433   0.91094135   439061 
  990000    0.6070956   -2.2728895   -2.2728895   -1.3622481   0.05911211   -2.2728895   0.91064133   439061 
  991000   0.60782254   -2.2736089   -2.2736089   -1.3618772  0.060694536   -2.2736089   0.91173174   439061 
  992000   0.60749513    -2.274044    -2.274044   -1.3628034  0.059833394    -2.274044   0.91124063   439061 
  993000   0.60725594   -2.2733885   -2.2733885   -1.3625067  0.060354026   -2.2733885   0.91088184   439061 
  994000   0.60719323   -2.2738636   -2.2738636   -1.3630758  0.061520754   -2.2738636   0.91078777   439061 
  995000    0.6066307    -2.273588    -2.273588   -1.3636441  0.059632424    -2.273588   0.90994397   439061 
  996000   0.60753506   -2.2745116   -2.2745116   -1.3632111  0.059562455   -2.2745116   0.91130052   439061 
  997000   0.60702981    -2.273821    -2.273821   -1.3632784  0.058726181    -2.273821   0.91054263   439061 
  998000   0.60703202    -2.274849    -2.274849    -1.364303  0.057568831    -2.274849   0.91054596   439061 
  999000   0.60612372   -2.2745165   -2.2745165    -1.365333  0.060473565   -2.2745165    0.9091835   439061 
 1000000   0.60735753    -2.276654    -2.276654   -1.3656198  0.054575151    -2.276654   0.91103422   439061 
 1001000   0.60698225   -2.2760459   -2.2760459   -1.3655746  0.059405542   -2.2760459    0.9104713   439061 
 1002000   0.60712374   -2.2765249   -2.2765249   -1.3658414  0.057692228   -2.2765249   0.91068354   439061 
 1003000   0.60756028   -2.2769363   -2.2769363   -1.3655979  0.062055217   -2.2769363   0.91133835   439061 
 1004000   0.60734686   -2.2765763   -2.2765763   -1.3655581   0.06110948   -2.2765763   0.91101822   439061 
 1005000   0.60761245   -2.2765998   -2.2765998   -1.3651832  0.064094579   -2.2765998    0.9114166   439061 
 1006000   0.60812827   -2.2789287   -2.2789287   -1.3667384  0.059092286   -2.2789287   0.91219032   439061 
 1007000   0.60762863   -2.2785051   -2.2785051   -1.3670643  0.063108086   -2.2785051   0.91144087   439061 
 1008000    0.6060923   -2.2769763   -2.2769763   -1.3678399  0.065074053   -2.2769763   0.90913638   439061 
 1009000   0.60623055   -2.2775809   -2.2775809   -1.3682372   0.05782416   -2.2775809   0.90934376   439061 
 1010000   0.60618264   -2.2783377   -2.2783377   -1.3690658  0.060266428   -2.2783377   0.90927189   439061 
 1011000   0.60602023   -2.2791311   -2.2791311   -1.3701028  0.057596131   -2.2791311   0.90902828   439061 
 1012000   0.60611393   -2.2784745   -2.2784745   -1.3693057  0.056020473   -2.2784745   0.90916882   439061 
 1013000   0.60628087   -2.2788936   -2.2788936   -1.3694744  0.057436622   -2.2788936   0.90941924   439061 
 1014000   0.60586794   -2.2787777   -2.2787777   -1.3699779  0.056665589   -2.2787777   0.90879984   439061 
 1015000   0.60532056   -2.2784673   -2.2784673   -1.3704885  0.052439378   -2.2784673   0.90797877   439061 
 1016000   0.60604054   -2.2792173   -2.2792173   -1.3701585  0.056710811   -2.2792173   0.90905874   439061 
 1017000   0.60595573   -2.2795695   -2.2795695    -1.370638  0.054992096   -2.2795695   0.90893153   439061 
 1018000   0.60406485   -2.2783296   -2.2783296   -1.3722344  0.057631826   -2.2783296   0.90609521   439061 
 1019000    0.6054284   -2.2801256   -2.2801256   -1.3719851  0.058254101   -2.2801256   0.90814053   439061 
 1020000   0.60599379   -2.2808314   -2.2808314   -1.3718427  0.054892161   -2.2808314   0.90898862   439061 
 1021000    0.6056664   -2.2814375   -2.2814375     -1.37294  0.056949793   -2.2814375   0.90849753   439061 
 1022000   0.60484863   -2.2812734   -2.2812734   -1.3740025  0.058112519   -2.2812734   0.90727088   439061 
 1023000   0.60479727   -2.2812783   -2.2812783   -1.3740845  0.058299305   -2.2812783   0.90719384   439061 
 1024000   0.60531369   -2.2814999   -2.2814999   -1.3735315  0.059023689   -2.2814999   0.90796847   439061 
 1025000   0.60526786   -2.2820482   -2.2820482   -1.3741484  0.061148118   -2.2820482   0.90789973   439061 
 1026000   0.60575031   -2.2827502   -2.2827502   -1.3741268  0.062926773   -2.2827502   0.90862339   439061 
 1027000    0.6056542   -2.2833131   -2.2833131   -1.3748339  0.056193863   -2.2833131   0.90847923   439061 
 1028000   0.60594154   -2.2844505   -2.2844505   -1.3755403  0.060301181   -2.2844505   0.90891024   439061 
 1029000   0.60564089    -2.284828    -2.284828   -1.3763687  0.061467818    -2.284828   0.90845926   439061 
 1030000   0.60584576   -2.2851474   -2.2851474   -1.3763809  0.060471766   -2.2851474   0.90876658   439061 
 1031000    0.6059355   -2.2859615   -2.2859615   -1.3770603  0.058590699   -2.2859615   0.90890118   439061 
 1032000   0.60529664   -2.2850522   -2.2850522   -1.3771093  0.060916579   -2.2850522   0.90794289   439061 
 1033000    0.6051655   -2.2852008   -2.2852008   -1.3774546  0.060443941   -2.2852008   0.90774619   439061 
 1034000   0.60582724   -2.2868694   -2.2868694   -1.3781306    0.0614857   -2.2868694   0.90873879   439061 
 1035000   0.60543352   -2.2871566   -2.2871566   -1.3790084  0.056936201   -2.2871566   0.90814821   439061 
 1036000   0.60580389   -2.2873404   -2.2873404   -1.3786366  0.055073111   -2.2873404   0.90870376   439061 
 1037000   0.60529639   -2.2879103   -2.2879103   -1.3799677  0.056245314   -2.2879103   0.90794252   439061 
 1038000   0.60439136   -2.2865671   -2.2865671   -1.3799821  0.054326017   -2.2865671   0.90658498   439061 
 1039000   0.60568014   -2.2881168   -2.2881168   -1.3795987  0.057637549   -2.2881168   0.90851814   439061 
 1040000   0.60503193   -2.2876563   -2.2876563   -1.3801105  0.055387009   -2.2876563   0.90754582   439061 
 1041000    0.6048962   -2.2883233   -2.2883233   -1.3809811  0.059730642   -2.2883233   0.90734223   439061 
 1042000   0.60468608   -2.2880819   -2.2880819   -1.3810548  0.060131061   -2.2880819   0.90702705   439061 
 1043000   0.60422274   -2.2875627   -2.2875627   -1.3812306  0.057748576   -2.2875627   0.90633204   439061 
 1044000   0.60414602   -2.2882274   -2.2882274   -1.3820104  0.055328739   -2.2882274   0.90621696   439061 
 1045000   0.60401766   -2.2886416   -2.2886416   -1.3826172  0.057616515   -2.2886416   0.90602442   439061 
 1046000   0.60434377   -2.2891862   -2.2891862   -1.3826726   0.05625261   -2.2891862    0.9065136   439061 
 1047000   0.60452977   -2.2894816   -2.2894816   -1.3826891  0.057499552   -2.2894816   0.90679258   439061 
 1048000   0.60425038   -2.2882844   -2.2882844   -1.3819109  0.060720422   -2.2882844    0.9063735   439061 
 1049000    0.6048752   -2.2895601   -2.2895601   -1.3822494  0.055401894   -2.2895601   0.90731073   439061 
 1050000   0.60372142   -2.2888502   -2.2888502   -1.3832701  0.060167308   -2.2888502   0.90558007   439061 
 1051000   0.60495047     -2.29089     -2.29089   -1.3834663  0.054999934     -2.29089   0.90742364   439061 
 1052000   0.60411932   -2.2899153   -2.2899153   -1.3837384  0.053223656   -2.2899153   0.90617692   439061 
 1053000   0.60450923   -2.2902944   -2.2902944   -1.3835326  0.059336616   -2.2902944   0.90676178   439061 
 1054000   0.60496557   -2.2914863   -2.2914863     -1.38404  0.058642009   -2.2914863   0.90744629   439061 
 1055000   0.60489009   -2.2910891   -2.2910891    -1.383756  0.056530548   -2.2910891   0.90733306   439061 
 1056000   0.60413385   -2.2905649   -2.2905649   -1.3843662  0.057641237   -2.2905649   0.90619872   439061 
 1057000   0.60387093    -2.291168    -2.291168   -1.3853637  0.051670168    -2.291168   0.90580433   439061 
 1058000   0.60414237   -2.2917443   -2.2917443   -1.3855328  0.053837789   -2.2917443    0.9062115   439061 
 1059000   0.60317075   -2.2917486   -2.2917486   -1.3869945  0.052819058   -2.2917486   0.90475407   439061 
 1060000    0.6026401    -2.291123    -2.291123   -1.3871649  0.056320295    -2.291123   0.90395809   439061 
 1061000   0.60274901   -2.2921839   -2.2921839   -1.3880625  0.053997442   -2.2921839   0.90412145   439061 
 1062000    0.6030299   -2.2919732   -2.2919732   -1.3874304  0.053970966   -2.2919732   0.90454279   439061 
 1063000   0.60313744   -2.2923332   -2.2923332   -1.3876291  0.056718138   -2.2923332    0.9047041   439061 
 1064000   0.60309356   -2.2923576   -2.2923576   -1.3877193  0.053181617   -2.2923576   0.90463828   439061 
 1065000   0.60266709   -2.2915961   -2.2915961   -1.3875975   0.05767844   -2.2915961   0.90399858   439061 
 1066000    0.6031476   -2.2928628   -2.2928628   -1.3881434  0.057331043   -2.2928628   0.90471934   439061 
 1067000   0.60392222   -2.2943353   -2.2943353    -1.388454  0.055889076   -2.2943353   0.90588127   439061 
 1068000   0.60279645   -2.2928513   -2.2928513   -1.3886587  0.058091966   -2.2928513   0.90419262   439061 
 1069000   0.60353604   -2.2953312   -2.2953312   -1.3900292  0.054657516   -2.2953312   0.90530199   439061 
 1070000   0.60231795   -2.2935502   -2.2935502   -1.3900754  0.055862059   -2.2935502   0.90347486   439061 
 1071000   0.60258162   -2.2946194   -2.2946194    -1.390749  0.056963106   -2.2946194   0.90387037   439061 
 1072000   0.60277346   -2.2954684   -2.2954684   -1.3913102  0.057960237   -2.2954684   0.90415813   439061 
 1073000   0.60402291   -2.2966908   -2.2966908   -1.3906585  0.056015525   -2.2966908   0.90603231   439061 
 1074000   0.60321757   -2.2967016   -2.2967016   -1.3918773  0.056570298   -2.2967016    0.9048243   439061 
 1075000      0.60289   -2.2961859   -2.2961859    -1.391853  0.057427741   -2.2961859   0.90433295   439061 
 1076000   0.60398056    -2.298115    -2.298115   -1.3921462  0.057056058    -2.298115   0.90596877   439061 
 1077000    0.6048855   -2.2987675   -2.2987675   -1.3914413  0.054646239   -2.2987675   0.90732618   439061 
 1078000    0.6032454   -2.2973115   -2.2973115   -1.3924454  0.057174083   -2.2973115   0.90486604   439061 
 1079000    0.6038456    -2.298758    -2.298758   -1.3929917  0.056235604    -2.298758   0.90576634   439061 
 1080000    0.6032051   -2.2987314   -2.2987314   -1.3939258  0.060156681   -2.2987314   0.90480559   439061 
 1081000    0.6050834   -2.3020873   -2.3020873   -1.3944643  0.058381193   -2.3020873   0.90762303   439061 
 1082000   0.60369922   -2.3004295   -2.3004295   -1.3948827  0.061906964   -2.3004295   0.90554676   439061 
 1083000   0.60278711   -2.3001286   -2.3001286     -1.39595  0.056167931   -2.3001286   0.90417861   439061 
 1084000   0.60219663    -2.300149    -2.300149   -1.3968561  0.057683809    -2.300149   0.90329289   439061 
 1085000    0.6022584   -2.3002542   -2.3002542   -1.3968686  0.057977489   -2.3002542   0.90338554   439061 
 1086000   0.60196386   -2.3003531   -2.3003531   -1.3974093  0.055650257   -2.3003531   0.90294373   439061 
 1087000   0.60216086    -2.301186    -2.301186   -1.3979467  0.054407082    -2.301186   0.90323923   439061 
 1088000   0.60246206   -2.3011716   -2.3011716   -1.3974806  0.051580728   -2.3011716   0.90369103   439061 
 1089000   0.60166372   -2.3011588   -2.3011588   -1.3986653  0.052970569   -2.3011588   0.90249352   439061 
 1090000   0.60117793   -2.3015667   -2.3015667   -1.3998019   0.05073449   -2.3015667   0.90176483   439061 
 1091000   0.60123228   -2.3017146   -2.3017146   -1.3998682  0.056976565   -2.3017146   0.90184636   439061 
 1092000   0.60109344   -2.3021073   -2.3021073   -1.4004692  0.053105967   -2.3021073   0.90163811   439061 
 1093000   0.60176361   -2.3026848   -2.3026848   -1.4000414  0.051824575   -2.3026848   0.90264336   439061 
 1094000    0.6011198    -2.302802    -2.302802   -1.4011244  0.049134065    -2.302802   0.90167764   439061 
 1095000   0.60169425   -2.3029173   -2.3029173    -1.400378  0.053945847   -2.3029173   0.90253932   439061 
 1096000   0.60118723   -2.3018005   -2.3018005   -1.4000217  0.052048483   -2.3018005   0.90177879   439061 
 1097000   0.60088673   -2.3024634   -2.3024634   -1.4011354  0.052997413   -2.3024634   0.90132804   439061 
 1098000   0.60182723   -2.3043814   -2.3043814   -1.4016426  0.051545661   -2.3043814   0.90273878   439061 
 1099000   0.60226285   -2.3049941   -2.3049941   -1.4016019  0.054936719   -2.3049941   0.90339222   439061 
 1100000   0.60146794   -2.3041357   -2.3041357   -1.4019358    0.0570145   -2.3041357   0.90219985   439061 
 1101000   0.60168018   -2.3062022   -2.3062022    -1.403684  0.055813867   -2.3062022   0.90251821   439061 
 1102000   0.60228042   -2.3067638   -2.3067638   -1.4033453  0.051017208   -2.3067638   0.90341857   439061 
 1103000   0.60118362   -2.3051843   -2.3051843   -1.4034109  0.057222265   -2.3051843   0.90177338   439061 
 1104000   0.60140559   -2.3053683   -2.3053683    -1.403262  0.056366789   -2.3053683   0.90210634   439061 
 1105000   0.60102727   -2.3065604   -2.3065604   -1.4050216  0.056026961   -2.3065604   0.90153885   439061 
 1106000   0.60083431   -2.3067518   -2.3067518   -1.4055023  0.053154881   -2.3067518   0.90124942   439061 
 1107000   0.60139481   -2.3077238   -2.3077238   -1.4056336  0.052768895   -2.3077238   0.90209016   439061 
 1108000   0.60162313   -2.3074755   -2.3074755   -1.4050428  0.054198676   -2.3074755   0.90243265   439061 
 1109000   0.60234822    -2.309086    -2.309086   -1.4055658  0.054307741    -2.309086   0.90352027   439061 
 1110000   0.60160508   -2.3085973   -2.3085973   -1.4061917  0.054712911   -2.3085973   0.90240557   439061 
 1111000   0.60027432   -2.3063814   -2.3063814   -1.4059719  0.058036034   -2.3063814   0.90040943   439061 
 1112000   0.60091205   -2.3076641   -2.3076641   -1.4062981  0.054012404   -2.3076641   0.90136603   439061 
 1113000   0.60048985   -2.3072949   -2.3072949   -1.4065622  0.054796627   -2.3072949   0.90073272   439061 
 1114000   0.60095967   -2.3079824   -2.3079824    -1.406545  0.056729125   -2.3079824   0.90143745   439061 
 1115000   0.60064365   -2.3078786   -2.3078786   -1.4069152  0.054684154   -2.3078786   0.90096342   439061 
 1116000   0.60112508   -2.3091152   -2.3091152   -1.4074296  0.054827171   -2.3091152   0.90168556   439061 
 1117000   0.60161691   -2.3099331   -2.3099331   -1.4075098  0.054547001   -2.3099331   0.90242331   439061 
 1118000   0.60110756   -2.3097655   -2.3097655   -1.4081063  0.056431816   -2.3097655   0.90165928   439061 
 1119000   0.60080628   -2.3100785   -2.3100785   -1.4088712  0.057614321   -2.3100785   0.90120737   439061 
 1120000   0.60039408   -2.3102089   -2.3102089   -1.4096199  0.057274632   -2.3102089   0.90058907   439061 
 1121000   0.60030254   -2.3095818   -2.3095818     -1.40913  0.056791147   -2.3095818   0.90045176   439061 
 1122000    0.6009096   -2.3107911   -2.3107911   -1.4094288  0.055004044   -2.3107911   0.90136235   439061 
 1123000   0.60079726   -2.3104636   -2.3104636   -1.4092697  0.055789603   -2.3104636   0.90119384   439061 
 1124000   0.60069309    -2.310424    -2.310424   -1.4093864   0.05697559    -2.310424   0.90103759   439061 
 1125000   0.60055278    -2.311289    -2.311289   -1.4104619   0.05442878    -2.311289   0.90082711   439061 
 1126000     0.601324   -2.3119424   -2.3119424   -1.4099585  0.054845133   -2.3119424   0.90198394   439061 
 1127000   0.59990109   -2.3111021   -2.3111021   -1.4112525  0.055185861   -2.3111021   0.89984959   439061 
 1128000   0.60055505    -2.312514    -2.312514   -1.4116835  0.050535629    -2.312514   0.90083052   439061 
 1129000   0.60048343   -2.3116437   -2.3116437   -1.4109206  0.052988433   -2.3116437    0.9007231   439061 
 1130000   0.60098202    -2.313021    -2.313021     -1.41155  0.053392611    -2.313021   0.90147098   439061 
 1131000   0.60006565   -2.3118226   -2.3118226   -1.4117262  0.052499215   -2.3118226   0.90009643   439061 
 1132000   0.60009099   -2.3127501   -2.3127501   -1.4126157  0.052490104   -2.3127501   0.90013443   439061 
 1133000   0.59980616   -2.3120608   -2.3120608   -1.4123536  0.052921742   -2.3120608    0.8997072   439061 
 1134000   0.59991866   -2.3119236   -2.3119236   -1.4120476  0.052730817   -2.3119236   0.89987595   439061 
 1135000   0.59981877   -2.3124255   -2.3124255   -1.4126994  0.053928153   -2.3124255   0.89972611   439061 
 1136000   0.59893626   -2.3118063   -2.3118063    -1.413404  0.055097383   -2.3118063   0.89840235   439061 
 1137000    0.6005355   -2.3143171   -2.3143171   -1.4135159  0.055160112   -2.3143171    0.9008012   439061 
 1138000    0.5998861   -2.3132673   -2.3132673   -1.4134402  0.057070522   -2.3132673    0.8998271   439061 
 1139000   0.60021392   -2.3148368   -2.3148368    -1.414518   0.05256456   -2.3148368   0.90031883   439061 
 1140000   0.60076331   -2.3151383   -2.3151383   -1.4139954  0.052855021   -2.3151383   0.90114292   439061 
 1141000   0.60043318   -2.3152677   -2.3152677     -1.41462  0.058858747   -2.3152677   0.90064773   439061 
 1142000   0.60049863   -2.3166041   -2.3166041   -1.4158582  0.051131235   -2.3166041    0.9007459   439061 
 1143000   0.60049995   -2.3166901   -2.3166901   -1.4159422  0.053005064   -2.3166901   0.90074787   439061 
 1144000   0.59981927   -2.3164441   -2.3164441   -1.4167173  0.052513327   -2.3164441   0.89972685   439061 
 1145000    0.5989968   -2.3151947   -2.3151947   -1.4167015  0.054146442   -2.3151947   0.89849315   439061 
 1146000   0.59936388   -2.3145272   -2.3145272   -1.4154835  0.055813239   -2.3145272   0.89904377   439061 
 1147000   0.60024352   -2.3176167   -2.3176167   -1.4172535  0.052852853   -2.3176167   0.90036323   439061 
 1148000   0.59916418   -2.3171918   -2.3171918   -1.4184475  0.052829473   -2.3171918   0.89874422   439061 
 1149000   0.59927161    -2.316862    -2.316862   -1.4179567  0.053440043    -2.316862   0.89890537   439061 
 1150000    0.5987116   -2.3163084   -2.3163084   -1.4182431  0.055409694   -2.3163084   0.89806535   439061 
 1151000   0.59883525    -2.316892    -2.316892   -1.4186412  0.053465387    -2.316892   0.89825083   439061 
 1152000   0.59949414   -2.3192119   -2.3192119   -1.4199728  0.053716622   -2.3192119   0.89923916   439061 
 1153000   0.59791207   -2.3167016   -2.3167016   -1.4198356  0.053031347   -2.3167016   0.89686607   439061 
 1154000   0.59852518   -2.3188586   -2.3188586   -1.4210728  0.055072682   -2.3188586   0.89778573   439061 
 1155000   0.59874153   -2.3192597   -2.3192597   -1.4211494   0.05382318   -2.3192597   0.89811026   439061 
 1156000   0.59899485   -2.3198596   -2.3198596   -1.4213694  0.054099386   -2.3198596   0.89849024   439061 
 1157000   0.59893033   -2.3212175   -2.3212175   -1.4228241  0.051593232   -2.3212175   0.89839345   439061 
 1158000   0.59804257   -2.3200929   -2.3200929   -1.4230311  0.055280608   -2.3200929   0.89706181   439061 
 1159000   0.59888787   -2.3218538   -2.3218538    -1.423524  0.053082292   -2.3218538   0.89832976   439061 
 1160000   0.59854702   -2.3216069   -2.3216069   -1.4237884  0.052740858   -2.3216069   0.89781848   439061 
 1161000   0.59827421   -2.3216512   -2.3216512   -1.4242419  0.055725581   -2.3216512   0.89740927   439061 
 1162000   0.59984865   -2.3246758   -2.3246758   -1.4249049   0.04970089   -2.3246758   0.89977092   439061 
 1163000   0.60002228   -2.3250467   -2.3250467   -1.4250153  0.053182871   -2.3250467   0.90003138   439061 
 1164000   0.59878327   -2.3240865   -2.3240865   -1.4259136  0.058451522   -2.3240865   0.89817285   439061 
 1165000   0.59883071   -2.3245686   -2.3245686   -1.4263246  0.054577391   -2.3245686   0.89824402   439061 
 1166000   0.59797336   -2.3229494   -2.3229494   -1.4259914  0.053947017   -2.3229494     0.896958   439061 
 1167000   0.59714523   -2.3224988   -2.3224988    -1.426783  0.055922515   -2.3224988    0.8957158   439061 
 1168000   0.59858939   -2.3256345   -2.3256345   -1.4277524  0.050313703   -2.3256345   0.89788204   439061 
 1169000   0.59868206   -2.3256738   -2.3256738   -1.4276528  0.050857431   -2.3256738   0.89802104   439061 
 1170000   0.59765073    -2.324647    -2.324647    -1.428173  0.053485002    -2.324647   0.89647405   439061 
 1171000   0.59779335   -2.3255357   -2.3255357   -1.4288477   0.05576169   -2.3255357   0.89668798   439061 
 1172000   0.59799477   -2.3253256   -2.3253256   -1.4283355   0.05284678   -2.3253256   0.89699011   439061 
 1173000   0.59829253   -2.3261989   -2.3261989   -1.4287621  0.055675793   -2.3261989   0.89743675   439061 
 1174000   0.59841099   -2.3268406   -2.3268406   -1.4292262   0.05455562   -2.3268406   0.89761444   439061 
 1175000   0.59860851    -2.327404    -2.327404   -1.4294932  0.053963215    -2.327404   0.89791073   439061 
 1176000   0.59819283    -2.326266    -2.326266   -1.4289788  0.055504078    -2.326266    0.8972872   439061 
 1177000   0.59916683    -2.328381    -2.328381   -1.4296328  0.051854872    -2.328381    0.8987482   439061 
 1178000   0.59878892   -2.3285501   -2.3285501   -1.4303688  0.052833648   -2.3285501   0.89818133   439061 
 1179000   0.59854297   -2.3277709   -2.3277709   -1.4299585  0.052111531   -2.3277709   0.89781241   439061 
 1180000   0.59859078   -2.3277576   -2.3277576   -1.4298735  0.056931347   -2.3277576   0.89788412   439061 
 1181000   0.59931995   -2.3288978   -2.3288978     -1.42992  0.055346458   -2.3288978   0.89897788   439061 
 1182000   0.59863184   -2.3286275   -2.3286275   -1.4306818  0.056088696   -2.3286275   0.89794571   439061 
 1183000   0.59885693   -2.3291685   -2.3291685   -1.4308852  0.055397932   -2.3291685   0.89828335   439061 
 1184000   0.59834632   -2.3282516   -2.3282516   -1.4307341   0.05226647   -2.3282516   0.89751743   439061 
 1185000   0.59843135   -2.3296132   -2.3296132   -1.4319682  0.048116699   -2.3296132   0.89764499   439061 
 1186000   0.59794008   -2.3290737   -2.3290737   -1.4321656  0.052746261   -2.3290737   0.89690808   439061 
 1187000   0.59815621   -2.3292021   -2.3292021   -1.4319698  0.052450872   -2.3292021   0.89723228   439061 
 1188000   0.59815658   -2.3297532   -2.3297532   -1.4325204   0.05066046   -2.3297532   0.89723283   439061 
 1189000   0.59770152   -2.3295329   -2.3295329   -1.4329827  0.051111272   -2.3295329   0.89655024   439061 
 1190000   0.59823671   -2.3300008   -2.3300008   -1.4326478  0.050306382   -2.3300008   0.89735302   439061 
 1191000   0.59692694   -2.3291553   -2.3291553   -1.4337669  0.053574413   -2.3291553   0.89538837   439061 
 1192000   0.59687294   -2.3299842   -2.3299842   -1.4346768  0.054428843   -2.3299842   0.89530738   439061 
 1193000   0.59625778   -2.3290882   -2.3290882   -1.4347036  0.051984608   -2.3290882   0.89438463   439061 
 1194000    0.5972285   -2.3301434   -2.3301434   -1.4343027  0.050595839   -2.3301434   0.89584071   439061 
 1195000   0.59819853   -2.3318282   -2.3318282   -1.4345324  0.051338399   -2.3318282   0.89729575   439061 
 1196000   0.59688929   -2.3298275   -2.3298275   -1.4344956   0.05076178   -2.3298275   0.89533189   439061 
 1197000   0.59672304   -2.3306388   -2.3306388   -1.4355563  0.051322747   -2.3306388   0.89508253   439061 
 1198000   0.59688096   -2.3309468   -2.3309468   -1.4356274   0.05096124   -2.3309468    0.8953194   439061 
 1199000   0.59741911   -2.3315724   -2.3315724   -1.4354458  0.053289798   -2.3315724   0.89612663   439061 
 1200000   0.59674744   -2.3320517   -2.3320517   -1.4369326  0.050818593   -2.3320517   0.89511912   439061 
 1201000   0.59693299   -2.3325308   -2.3325308   -1.4371333  0.050309517   -2.3325308   0.89539745   439061 
 1202000   0.59798085   -2.3339262   -2.3339262    -1.436957  0.049278453   -2.3339262   0.89696924   439061 
 1203000   0.59786709   -2.3338072   -2.3338072   -1.4370086  0.047169271   -2.3338072    0.8967986   439061 
 1204000   0.59700587   -2.3335988   -2.3335988    -1.438092  0.052303296   -2.3335988   0.89550676   439061 
 1205000   0.59640578    -2.333719    -2.333719   -1.4391124  0.052188089    -2.333719   0.89460664   439061 
 1206000   0.59689535   -2.3341166   -2.3341166   -1.4387757  0.052156129   -2.3341166   0.89534098   439061 
 1207000   0.59746161   -2.3340376   -2.3340376   -1.4378473  0.056358168   -2.3340376   0.89619037   439061 
 1208000   0.59687577   -2.3344202   -2.3344202   -1.4391086  0.049029962   -2.3344202   0.89531162   439061 
 1209000    0.5961175   -2.3336551   -2.3336551   -1.4394809  0.051375243   -2.3336551   0.89417422   439061 
 1210000   0.59701458   -2.3353692   -2.3353692   -1.4398494  0.050229258   -2.3353692   0.89551983   439061 
 1211000   0.59627696   -2.3343244   -2.3343244    -1.439911  0.054319163   -2.3343244    0.8944134   439061 
 1212000   0.59624396   -2.3348631   -2.3348631   -1.4404992  0.053180162   -2.3348631    0.8943639   439061 
 1213000   0.59695249   -2.3356206   -2.3356206   -1.4401939   0.05075012   -2.3356206    0.8954267   439061 
 1214000   0.59661658   -2.3353056   -2.3353056   -1.4403828  0.046193068   -2.3353056   0.89492283   439061 
 1215000   0.59616679   -2.3356643   -2.3356643   -1.4414161  0.052478362   -2.3356643   0.89424815   439061 
 1216000   0.59589205   -2.3362518   -2.3362518   -1.4424158  0.050333285   -2.3362518   0.89383603   439061 
 1217000   0.59537166   -2.3354967   -2.3354967   -1.4424413  0.051015372   -2.3354967   0.89305545   439061 
 1218000   0.59580019   -2.3366915   -2.3366915   -1.4429933  0.051704251   -2.3366915   0.89369825   439061 
 1219000   0.59595845   -2.3379552   -2.3379552   -1.4440196  0.048839903   -2.3379552   0.89393563   439061 
 1220000   0.59575198   -2.3376649   -2.3376649   -1.4440389  0.052335625   -2.3376649   0.89362593   439061 
 1221000   0.59572348   -2.3385998   -2.3385998   -1.4450166  0.050102617   -2.3385998   0.89358319   439061 
 1222000   0.59577043   -2.3379651   -2.3379651   -1.4443115  0.049864171   -2.3379651   0.89365361   439061 
 1223000   0.59638515   -2.3399981   -2.3399981   -1.4454224  0.051989336   -2.3399981   0.89457569   439061 
 1224000   0.59542265   -2.3388604   -2.3388604   -1.4457285  0.051648055   -2.3388604   0.89313193   439061 
 1225000   0.59596059   -2.3395981   -2.3395981   -1.4456592  0.050565701   -2.3395981   0.89393885   439061 
 1226000   0.59545919   -2.3389712   -2.3389712   -1.4457844  0.055953868   -2.3389712   0.89318676   439061 
 1227000   0.59514531   -2.3390721   -2.3390721   -1.4463562  0.052186118   -2.3390721   0.89271593   439061 
 1228000   0.59572332   -2.3399097   -2.3399097   -1.4463267   0.05325572   -2.3399097   0.89358294   439061 
 1229000   0.59564439    -2.340518    -2.340518   -1.4470535  0.050823873    -2.340518   0.89346455   439061 
 1230000    0.5961705   -2.3417768   -2.3417768   -1.4475231    0.0528688   -2.3417768   0.89425371   439061 
 1231000    0.5948986   -2.3402882   -2.3402882   -1.4479423  0.051974072   -2.3402882   0.89234587   439061 
 1232000   0.59636941    -2.341689    -2.341689   -1.4471369   0.05014735    -2.341689   0.89455208   439061 
 1233000   0.59639058   -2.3424082   -2.3424082   -1.4478244  0.049491056   -2.3424082   0.89458384   439061 
 1234000   0.59589311   -2.3416854   -2.3416854   -1.4478478   0.04941268   -2.3416854   0.89383763   439061 
 1235000   0.59526345   -2.3407457   -2.3407457   -1.4478525  0.047938433   -2.3407457   0.89289314   439061 
 1236000   0.59587032   -2.3411018   -2.3411018   -1.4472984  0.050693438   -2.3411018   0.89380345   439061 
 1237000   0.59620188   -2.3420859   -2.3420859   -1.4477851  0.049065524   -2.3420859   0.89430079   439061 
 1238000   0.59545422    -2.341592    -2.341592   -1.4484127  0.049767326    -2.341592    0.8931793   439061 
 1239000   0.59477134    -2.341287    -2.341287    -1.449132  0.042928732    -2.341287   0.89215498   439061 
 1240000   0.59546029   -2.3427749   -2.3427749   -1.4495865  0.049349558   -2.3427749   0.89318841   439061 
 1241000   0.59487331   -2.3422099   -2.3422099    -1.449902  0.049479633   -2.3422099   0.89230793   439061 
 1242000   0.59495402   -2.3427059   -2.3427059   -1.4502769  0.045989775   -2.3427059   0.89242899   439061 
 1243000   0.59574315    -2.344006    -2.344006   -1.4503933  0.048701967    -2.344006   0.89361269   439061 
 1244000   0.59493279   -2.3437704   -2.3437704   -1.4513732  0.045122818   -2.3437704   0.89239716   439061 
 1245000   0.59429044   -2.3419156   -2.3419156    -1.450482  0.051935861   -2.3419156   0.89143363   439061 
 1246000   0.59613488   -2.3448006   -2.3448006   -1.4506003  0.050267093   -2.3448006   0.89420028   439061 
 1247000   0.59499325   -2.3438469   -2.3438469    -1.451359   0.05185356   -2.3438469   0.89248785   439061 
 1248000   0.59545962   -2.3459464   -2.3459464    -1.452759  0.049775395   -2.3459464   0.89318739   439061 
 1249000   0.59483366   -2.3459064   -2.3459064    -1.453658  0.048332613   -2.3459064   0.89224845   439061 
 1250000   0.59526128   -2.3474801   -2.3474801   -1.4545902  0.050001427   -2.3474801   0.89288989   439061 
 1251000   0.59409746   -2.3458629   -2.3458629   -1.4547187  0.051971233   -2.3458629   0.89114417   439061 
 1252000   0.59584471   -2.3481808   -2.3481808   -1.4544158  0.048564658   -2.3481808   0.89376502   439061 
 1253000   0.59596836   -2.3489217   -2.3489217   -1.4549711  0.049586155   -2.3489217   0.89395051   439061 
 1254000   0.59506397   -2.3474731   -2.3474731   -1.4548792  0.054129384   -2.3474731   0.89259393   439061 
 1255000   0.59650504   -2.3500882   -2.3500882   -1.4553326  0.049637062   -2.3500882   0.89475552   439061 
 1256000   0.59510918   -2.3485824   -2.3485824   -1.4559207  0.052077903   -2.3485824   0.89266173   439061 
 1257000   0.59497898   -2.3485251   -2.3485251   -1.4560587  0.051901903   -2.3485251   0.89246643   439061 
 1258000   0.59487318   -2.3482398   -2.3482398    -1.455932  0.049374346   -2.3482398   0.89230774   439061 
 1259000   0.59482305   -2.3487794   -2.3487794   -1.4565469  0.052489061   -2.3487794   0.89223255   439061 
 1260000    0.5940506   -2.3485888   -2.3485888   -1.4575149  0.052692349   -2.3485888   0.89107386   439061 
 1261000   0.59449698   -2.3498042   -2.3498042   -1.4580607  0.048768334   -2.3498042   0.89174344   439061 
 1262000   0.59426998   -2.3499746   -2.3499746   -1.4585716  0.049618018   -2.3499746   0.89140294   439061 
 1263000   0.59374567    -2.349309    -2.349309   -1.4586925  0.046978153    -2.349309   0.89061647   439061 
 1264000   0.59422124   -2.3488971   -2.3488971   -1.4575673  0.051223433   -2.3488971   0.89132984   439061 
 1265000    0.5943012   -2.3490144   -2.3490144   -1.4575647  0.049335143   -2.3490144   0.89144976   439061 
 1266000   0.59414056   -2.3497454   -2.3497454   -1.4585366  0.049765512   -2.3497454   0.89120881   439061 
 1267000   0.59322039   -2.3485614   -2.3485614   -1.4587329  0.047177428   -2.3485614   0.88982855   439061 
 1268000   0.59421002   -2.3495193   -2.3495193   -1.4582063  0.048874101   -2.3495193     0.891313   439061 
 1269000   0.59495663   -2.3507813   -2.3507813   -1.4583484  0.046431566   -2.3507813   0.89243291   439061 
 1270000   0.59490268   -2.3505937   -2.3505937   -1.4582417  0.044930649   -2.3505937   0.89235198   439061 
 1271000   0.59526201   -2.3509769   -2.3509769   -1.4580859  0.051951579   -2.3509769   0.89289098   439061 
 1272000   0.59540291   -2.3514409   -2.3514409   -1.4583386  0.048643558   -2.3514409   0.89310233   439061 
 1273000   0.59490619   -2.3515472   -2.3515472     -1.45919  0.050604316   -2.3515472   0.89235725   439061 
 1274000   0.59514326   -2.3522905   -2.3522905   -1.4595776  0.047520246   -2.3522905   0.89271286   439061 
 1275000   0.59533916   -2.3525844   -2.3525844   -1.4595777  0.052080089   -2.3525844   0.89300671   439061 
 1276000   0.59430404   -2.3522062   -2.3522062   -1.4607522  0.049747262   -2.3522062   0.89145402   439061 
 1277000    0.5951199   -2.3524622   -2.3524622   -1.4597844  0.052595506   -2.3524622   0.89267781   439061 
 1278000   0.59429696   -2.3527817   -2.3527817   -1.4613383   0.05022758   -2.3527817    0.8914434   439061 
 1279000   0.59411663   -2.3533496   -2.3533496   -1.4621767  0.050849428   -2.3533496   0.89117291   439061 
 1280000   0.59453357   -2.3529055   -2.3529055   -1.4611072   0.04936793   -2.3529055   0.89179832   439061 
 1281000   0.59459534   -2.3540463   -2.3540463   -1.4621554  0.050409831   -2.3540463   0.89189098   439061 
 1282000   0.59386134    -2.353591    -2.353591    -1.462801  0.048379877    -2.353591   0.89078998   439061 
 1283000   0.59413931   -2.3541926   -2.3541926   -1.4629857  0.047500651   -2.3541926   0.89120694   439061 
 1284000   0.59383795   -2.3537375   -2.3537375   -1.4629826  0.047495096   -2.3537375    0.8907549   439061 
 1285000   0.59453813   -2.3545881   -2.3545881    -1.462783  0.048670263   -2.3545881   0.89180517   439061 
 1286000   0.59390692   -2.3530931   -2.3530931   -1.4622347  0.050644293   -2.3530931   0.89085836   439061 
 1287000   0.59439253   -2.3540398   -2.3540398   -1.4624531  0.047972967   -2.3540398   0.89158676   439061 
 1288000   0.59352871   -2.3543501   -2.3543501    -1.464059  0.042364765   -2.3543501   0.89029103   439061 
 1289000   0.59441352   -2.3547906   -2.3547906   -1.4631723  0.045370102   -2.3547906   0.89161825   439061 
 1290000   0.59368576   -2.3537735   -2.3537735   -1.4632469  0.049655331   -2.3537735   0.89052661   439061 
 1291000   0.59480661   -2.3563421   -2.3563421   -1.4641342  0.046986045   -2.3563421   0.89220789   439061 
 1292000   0.59379673   -2.3545611   -2.3545611   -1.4638681   0.05018875   -2.3545611   0.89069307   439061 
 1293000   0.59483049   -2.3561796   -2.3561796   -1.4639359  0.051966179   -2.3561796   0.89224371   439061 
 1294000   0.59421643    -2.355524    -2.355524   -1.4642014  0.049239419    -2.355524   0.89132262   439061 
 1295000   0.59471808    -2.356578    -2.356578   -1.4645029  0.049483421    -2.356578    0.8920751   439061 
 1296000   0.59375989   -2.3563981   -2.3563981   -1.4657602  0.049784468   -2.3563981   0.89063781   439061 
 1297000   0.59378921   -2.3562476   -2.3562476   -1.4655658  0.050790464   -2.3562476   0.89068178   439061 
 1298000   0.59342367   -2.3564577   -2.3564577   -1.4663243  0.049502138   -2.3564577   0.89013348   439061 
 1299000   0.59268288   -2.3558898   -2.3558898   -1.4668675  0.048748535   -2.3558898    0.8890223   439061 
 1300000   0.59284438   -2.3560511   -2.3560511   -1.4667865  0.049250708   -2.3560511   0.88926455   439061 
 1301000   0.59326401   -2.3572632   -2.3572632   -1.4673692   0.04747314   -2.3572632   0.88989399   439061 
 1302000   0.59240086   -2.3563113   -2.3563113    -1.467712  0.051046375   -2.3563113   0.88859927   439061 
 1303000   0.59174995   -2.3556869   -2.3556869    -1.468064  0.047937005   -2.3556869    0.8876229   439061 
 1304000   0.59297358   -2.3579448   -2.3579448   -1.4684865  0.051191452   -2.3579448   0.88945835   439061 
 1305000   0.59320407   -2.3576452   -2.3576452   -1.4678412  0.046268929   -2.3576452   0.88980407   439061 
 1306000   0.59278565   -2.3582143   -2.3582143   -1.4690378   0.04848192   -2.3582143   0.88917645   439061 
 1307000   0.59259209   -2.3592638   -2.3592638   -1.4703777  0.043948871   -2.3592638   0.88888611   439061 
 1308000   0.59264316   -2.3594982   -2.3594982   -1.4705355  0.045512272   -2.3594982   0.88896271   439061 
 1309000    0.5925197   -2.3598447   -2.3598447   -1.4710671  0.045790231   -2.3598447   0.88877752   439061 
 1310000    0.5921913   -2.3597433   -2.3597433   -1.4714584  0.050968961   -2.3597433   0.88828493   439061 
 1311000   0.59362687   -2.3619708   -2.3619708   -1.4715325  0.045186768   -2.3619708   0.89043828   439061 
 1312000   0.59260188   -2.3606573   -2.3606573   -1.4717565  0.047890144   -2.3606573    0.8889008   439061 
 1313000   0.59217993   -2.3605287   -2.3605287   -1.4722608  0.049324439   -2.3605287   0.88826787   439061 
 1314000   0.59311782   -2.3627014   -2.3627014   -1.4730267   0.04934691   -2.3627014   0.88967471   439061 
 1315000   0.59292518   -2.3626269   -2.3626269   -1.4732411  0.049656898   -2.3626269   0.88938574   439061 
 1316000   0.59350059   -2.3634675   -2.3634675   -1.4732187  0.046933421   -2.3634675   0.89024886   439061 
 1317000   0.59308155   -2.3644407   -2.3644407   -1.4748204  0.051383887   -2.3644407   0.88962029   439061 
 1318000   0.59221769   -2.3634444   -2.3634444   -1.4751199  0.051227264   -2.3634444   0.88832451   439061 
 1319000   0.59300252   -2.3638992   -2.3638992   -1.4743975  0.055287447   -2.3638992   0.88950176   439061 
 1320000   0.59305209   -2.3646262   -2.3646262   -1.4750501  0.047770187   -2.3646262   0.88957611   439061 
 1321000   0.59234893   -2.3633015   -2.3633015   -1.4747801  0.049591713   -2.3633015   0.88852136   439061 
 1322000   0.59334776   -2.3662193   -2.3662193   -1.4761997  0.048301904   -2.3662193   0.89001961   439061 
 1323000   0.59179132   -2.3643029   -2.3643029   -1.4766179  0.050511632   -2.3643029   0.88768496   439061 
 1324000   0.59222226   -2.3657846   -2.3657846   -1.4774532  0.041563431   -2.3657846   0.88833137   439061 
 1325000   0.59159081   -2.3649347   -2.3649347   -1.4775505  0.048826565   -2.3649347    0.8873842   439061 
 1326000    0.5917206   -2.3654046   -2.3654046   -1.4778257  0.046873504   -2.3654046   0.88757887   439061 
 1327000   0.59208909   -2.3646246   -2.3646246    -1.476493  0.046481757   -2.3646246   0.88813161   439061 
 1328000   0.59231271   -2.3650933   -2.3650933   -1.4766262  0.049711431   -2.3650933   0.88846704   439061 
 1329000   0.59252549   -2.3652408   -2.3652408   -1.4764546  0.046960158   -2.3652408   0.88878621   439061 
 1330000   0.59241051   -2.3655951   -2.3655951   -1.4769813  0.045320461   -2.3655951   0.88861374   439061 
 1331000   0.59137944   -2.3644445   -2.3644445   -1.4773774  0.047288574   -2.3644445   0.88706714   439061 
 1332000   0.59182964   -2.3657803   -2.3657803   -1.4780378  0.046172588   -2.3657803   0.88774243   439061 
 1333000   0.59238572   -2.3662088   -2.3662088   -1.4776323  0.044847341   -2.3662088   0.88857655   439061 
 1334000   0.59206091    -2.367174    -2.367174   -1.4790846  0.044430897    -2.367174   0.88808935   439061 
 1335000   0.59249115   -2.3674715   -2.3674715   -1.4787368  0.045145549   -2.3674715   0.88873469   439061 
 1336000   0.59162543   -2.3674222   -2.3674222    -1.479986  0.047664432   -2.3674222   0.88743612   439061 
 1337000   0.59179511   -2.3671598   -2.3671598   -1.4794691  0.049641911   -2.3671598   0.88769064   439061 
 1338000     0.592949   -2.3684796   -2.3684796   -1.4790582  0.051258345   -2.3684796   0.88942147   439061 
 1339000   0.59274204   -2.3682614   -2.3682614   -1.4791503  0.050305252   -2.3682614   0.88911104   439061 
 1340000   0.59233332   -2.3683485   -2.3683485   -1.4798506  0.045402987   -2.3683485   0.88849795   439061 
 1341000   0.59232875   -2.3684148   -2.3684148   -1.4799237  0.050823063   -2.3684148    0.8884911   439061 
 1342000   0.59198434   -2.3682401   -2.3682401   -1.4802657  0.050251833   -2.3682401   0.88797448   439061 
 1343000   0.59245317   -2.3684789   -2.3684789   -1.4798012  0.046581845   -2.3684789   0.88867774   439061 
 1344000   0.59131944   -2.3685255   -2.3685255   -1.4815484  0.051957328   -2.3685255   0.88697714   439061 
 1345000   0.59084626   -2.3681226   -2.3681226   -1.4818552  0.045695449   -2.3681226   0.88626737   439061 
 1346000    0.5916094   -2.3698719   -2.3698719   -1.4824598  0.047359393   -2.3698719   0.88741208   439061 
 1347000   0.59127195   -2.3688142   -2.3688142   -1.4819083  0.046705635   -2.3688142    0.8869059   439061 
 1348000   0.59130411   -2.3696874   -2.3696874   -1.4827333  0.046283779   -2.3696874   0.88695415   439061 
 1349000   0.59218448   -2.3710202   -2.3710202   -1.4827455  0.044059792   -2.3710202    0.8882747   439061 
 1350000   0.59087919   -2.3695748   -2.3695748    -1.483258  0.047540694   -2.3695748   0.88631677   439061 
 1351000   0.59152794   -2.3708111   -2.3708111   -1.4835212  0.047495206   -2.3708111   0.88728989   439061 
 1352000   0.59083319   -2.3697169   -2.3697169   -1.4834692  0.049589594   -2.3697169   0.88624776   439061 
 1353000   0.59083323    -2.370629    -2.370629   -1.4843812  0.047869283    -2.370629   0.88624783   439061 
 1354000   0.59098551   -2.3717713   -2.3717713   -1.4852951  0.047113895   -2.3717713   0.88647625   439061 
 1355000   0.59022362   -2.3712353   -2.3712353   -1.4859019  0.047014691   -2.3712353   0.88533341   439061 
 1356000   0.59051608   -2.3712388   -2.3712388   -1.4854667  0.046919306   -2.3712388   0.88577211   439061 
 1357000   0.59049416   -2.3717432   -2.3717432    -1.486004  0.049637379   -2.3717432   0.88573922   439061 
 1358000   0.59052956   -2.3713726   -2.3713726   -1.4855803  0.048504386   -2.3713726   0.88579233   439061 
 1359000    0.5905741   -2.3714981   -2.3714981    -1.485639  0.045706193   -2.3714981   0.88585913   439061 
 1360000   0.59114397   -2.3724432   -2.3724432   -1.4857293  0.047675466   -2.3724432   0.88671393   439061 
 1361000   0.59176669   -2.3739431   -2.3739431   -1.4862951  0.047811215   -2.3739431   0.88764801   439061 
 1362000   0.59163664   -2.3735115   -2.3735115   -1.4860586  0.048865337   -2.3735115   0.88745293   439061 
 1363000   0.59231884   -2.3749817   -2.3749817   -1.4865054  0.049655701   -2.3749817   0.88847624   439061 
 1364000    0.5920437   -2.3742521   -2.3742521   -1.4861885  0.043800555   -2.3742521   0.88806353   439061 
 1365000   0.59167807   -2.3739152   -2.3739152   -1.4864001  0.045699944   -2.3739152   0.88751508   439061 
 1366000   0.59103967   -2.3732105   -2.3732105   -1.4866531  0.049646923   -2.3732105   0.88655748   439061 
 1367000   0.59098927   -2.3731386   -2.3731386   -1.4866567  0.046418003   -2.3731386   0.88648189   439061 
 1368000   0.59080035    -2.373965    -2.373965   -1.4877665  0.050626824    -2.373965   0.88619851   439061 
 1369000   0.59016969   -2.3732938   -2.3732938   -1.4880412  0.048514416   -2.3732938   0.88525252   439061 
 1370000   0.59058927   -2.3745953   -2.3745953   -1.4887134  0.045182795   -2.3745953   0.88588189   439061 
 1371000   0.59055303   -2.3741738   -2.3741738   -1.4883462    0.0427073   -2.3741738   0.88582753   439061 
 1372000   0.59050904   -2.3740726   -2.3740726   -1.4883111  0.047230272   -2.3740726   0.88576154   439061 
 1373000   0.59149052   -2.3755892   -2.3755892   -1.4883554   0.04263351   -2.3755892   0.88723376   439061 
 1374000   0.59082638   -2.3751245   -2.3751245    -1.488887  0.045221591   -2.3751245   0.88623755   439061 
 1375000   0.58926908   -2.3734055   -2.3734055   -1.4895039  0.045776152   -2.3734055    0.8839016   439061 
 1376000    0.5901831   -2.3742427   -2.3742427     -1.48897   0.04868393   -2.3742427   0.88527264   439061 
 1377000   0.59039531   -2.3740533   -2.3740533   -1.4884624  0.048039025   -2.3740533   0.88559095   439061 
 1378000   0.59120356   -2.3753312   -2.3753312   -1.4885279  0.046700247   -2.3753312   0.88680331   439061 
 1379000    0.5910083   -2.3766929   -2.3766929   -1.4901825   0.04456337   -2.3766929   0.88651043   439061 
 1380000   0.59033347   -2.3768665   -2.3768665   -1.4913683   0.04289176   -2.3768665   0.88549819   439061 
 1381000   0.59008958   -2.3769761   -2.3769761   -1.4918438   0.04381268   -2.3769761   0.88513236   439061 
 1382000   0.58846843   -2.3756265   -2.3756265   -1.4929259  0.047739134   -2.3756265   0.88270064   439061 
 1383000   0.58978655   -2.3775268   -2.3775268    -1.492849  0.043803228   -2.3775268   0.88467781   439061 
 1384000   0.58947074     -2.37798     -2.37798   -1.4937759  0.043423944     -2.37798    0.8842041   439061 
 1385000   0.58917972   -2.3775076   -2.3775076     -1.49374  0.046153346   -2.3775076   0.88376756   439061 
 1386000   0.59026828   -2.3790873   -2.3790873   -1.4936869   0.04819397   -2.3790873    0.8854004   439061 
 1387000   0.59103705   -2.3797655   -2.3797655   -1.4932119  0.044673895   -2.3797655   0.88655356   439061 
 1388000   0.59073028   -2.3794101   -2.3794101   -1.4933167  0.045914613   -2.3794101   0.88609341   439061 
 1389000   0.59103643   -2.3805241   -2.3805241   -1.4939715  0.049076076   -2.3805241   0.88655263   439061 
 1390000   0.59069606   -2.3804138   -2.3804138   -1.4943717  0.046386865   -2.3804138   0.88604207   439061 
 1391000   0.59087499    -2.381226    -2.381226   -1.4949156  0.040915472    -2.381226   0.88631047   439061 
 1392000   0.59059713   -2.3808045   -2.3808045   -1.4949108  0.047080864   -2.3808045   0.88589368   439061 
 1393000   0.59136391   -2.3829346   -2.3829346   -1.4958907  0.046565848   -2.3829346   0.88704385   439061 
 1394000   0.59065401   -2.3821809   -2.3821809   -1.4962019  0.047687674   -2.3821809     0.885979   439061 
 1395000    0.5906337   -2.3818981   -2.3818981   -1.4959496   0.04577866   -2.3818981   0.88594853   439061 
 1396000   0.59027372   -2.3811133   -2.3811133   -1.4957048  0.049250258   -2.3811133   0.88540856   439061 
 1397000   0.59009766   -2.3816476   -2.3816476   -1.4965032  0.042317485   -2.3816476   0.88514448   439061 
 1398000   0.59048146   -2.3824851   -2.3824851    -1.496765  0.045692654   -2.3824851   0.88572017   439061 
 1399000   0.59079879   -2.3824149   -2.3824149   -1.4962187  0.045144449   -2.3824149   0.88619617   439061 
 1400000   0.59049958   -2.3823887   -2.3823887   -1.4966414  0.044806714   -2.3823887   0.88574736   439061 
 1401000   0.58993184   -2.3815133   -2.3815133   -1.4966176  0.048098571   -2.3815133   0.88489574   439061 
 1402000   0.58964641   -2.3815384   -2.3815384   -1.4970708  0.046463866   -2.3815384    0.8844676   439061 
 1403000   0.59042926   -2.3831158   -2.3831158    -1.497474  0.047158504   -2.3831158   0.88564187   439061 
 1404000   0.58902565   -2.3809922   -2.3809922   -1.4974557  0.047489614   -2.3809922   0.88353646   439061 
 1405000   0.58887804   -2.3821556   -2.3821556   -1.4988405  0.044055341   -2.3821556   0.88331505   439061 
 1406000   0.58910765   -2.3823791   -2.3823791   -1.4987196  0.042852115   -2.3823791   0.88365947   439061 
 1407000   0.58947957   -2.3825166   -2.3825166   -1.4982992  0.042367592   -2.3825166   0.88421734   439061 
 1408000   0.58939838   -2.3824177   -2.3824177   -1.4983221  0.046796325   -2.3824177   0.88409556   439061 
 1409000   0.58917578   -2.3823967   -2.3823967    -1.498635  0.045679835   -2.3823967   0.88376165   439061 
 1410000    0.5904602   -2.3838218   -2.3838218   -1.4981335  0.043624944   -2.3838218   0.88568829   439061 
 1411000   0.59000519   -2.3837269   -2.3837269   -1.4987211  0.043028131   -2.3837269   0.88500577   439061 
 1412000   0.58987968   -2.3840095   -2.3840095    -1.499192  0.047860161   -2.3840095   0.88481751   439061 
 1413000   0.58964853   -2.3846564   -2.3846564   -1.5001856  0.048811467   -2.3846564   0.88447078   439061 
 1414000   0.58926327   -2.3847541   -2.3847541   -1.5008612  0.042165808   -2.3847541   0.88389289   439061 
 1415000     0.589434   -2.3843533   -2.3843533   -1.5002043  0.043676121   -2.3843533   0.88414899   439061 
 1416000   0.59040982   -2.3862291   -2.3862291   -1.5006163  0.042260373   -2.3862291   0.88561271   439061 
 1417000   0.58999399   -2.3860431   -2.3860431   -1.5010541  0.042255436   -2.3860431   0.88498897   439061 
 1418000   0.59011901   -2.3869568   -2.3869568   -1.5017803  0.043720765   -2.3869568    0.8851765   439061 
 1419000   0.58850923   -2.3852895   -2.3852895   -1.5025277   0.04397363   -2.3852895   0.88276184   439061 
 1420000   0.58920515   -2.3868676   -2.3868676   -1.5030619  0.044345353   -2.3868676   0.88380572   439061 
 1421000    0.5893803   -2.3862684   -2.3862684   -1.5021999  0.046657479   -2.3862684   0.88406844   439061 
 1422000    0.5887803    -2.385994    -2.385994   -1.5028256  0.046547947    -2.385994   0.88316843   439061 
 1423000   0.58865864   -2.3856606   -2.3856606   -1.5026747  0.044548413   -2.3856606   0.88298595   439061 
 1424000   0.58957089   -2.3866931   -2.3866931   -1.5023388  0.046670381   -2.3866931   0.88435432   439061 
 1425000   0.58981893   -2.3875006   -2.3875006   -1.5027742  0.044108924   -2.3875006   0.88472638   439061 
 1426000   0.58968778   -2.3875673   -2.3875673   -1.5030376  0.048573082   -2.3875673   0.88452966   439061 
 1427000   0.58931557   -2.3884259   -2.3884259   -1.5044546  0.042342897   -2.3884259   0.88397134   439061 
 1428000   0.58853129   -2.3870654   -2.3870654   -1.5042704  0.043933085   -2.3870654   0.88279493   439061 
 1429000   0.58919399   -2.3883604   -2.3883604   -1.5045714  0.043190582   -2.3883604   0.88378898   439061 
 1430000   0.58849722    -2.387745    -2.387745   -1.5050012   0.04659923    -2.387745   0.88274381   439061 
 1431000   0.58973273   -2.3891604   -2.3891604   -1.5045634  0.046574486   -2.3891604   0.88459707   439061 
 1432000    0.5889896   -2.3887569   -2.3887569   -1.5052745  0.043779685   -2.3887569   0.88348239   439061 
 1433000   0.58852682   -2.3884076   -2.3884076   -1.5056194  0.046389245   -2.3884076   0.88278822   439061 
 1434000    0.5890292   -2.3895798   -2.3895798    -1.506038  0.046748204   -2.3895798   0.88354178   439061 
 1435000   0.58857124   -2.3902201   -2.3902201   -1.5073653  0.045061179   -2.3902201   0.88285485   439061 
 1436000   0.58881159   -2.3910331   -2.3910331   -1.5078178  0.039207983   -2.3910331   0.88321537   439061 
 1437000     0.589038   -2.3904671   -2.3904671   -1.5069121  0.042869963   -2.3904671   0.88355499   439061 
 1438000    0.5894364   -2.3917326   -2.3917326     -1.50758  0.044057705   -2.3917326   0.88415259   439061 
 1439000   0.58888214   -2.3911039   -2.3911039   -1.5077827  0.045177417   -2.3911039   0.88332119   439061 
 1440000   0.58950149   -2.3925586   -2.3925586   -1.5083084  0.044354962   -2.3925586   0.88425022   439061 
 1441000   0.58868054   -2.3925241   -2.3925241   -1.5095053  0.046315991   -2.3925241   0.88301879   439061 
 1442000   0.58824942   -2.3912367   -2.3912367   -1.5088646  0.048287414   -2.3912367   0.88237211   439061 
 1443000   0.58847107   -2.3924119   -2.3924119   -1.5097073   0.04703508   -2.3924119    0.8827046   439061 
 1444000    0.5879678   -2.3927014   -2.3927014   -1.5107518  0.043472988   -2.3927014   0.88194969   439061 
 1445000   0.58780056   -2.3928102   -2.3928102   -1.5111114  0.044996666   -2.3928102   0.88169884   439061 
 1446000   0.58729155   -2.3918739   -2.3918739   -1.5109386   0.04532846   -2.3918739   0.88093531   439061 
 1447000   0.58813984    -2.393808    -2.393808   -1.5116003  0.043003855    -2.393808   0.88220775   439061 
 1448000   0.58734095    -2.393103    -2.393103   -1.5120936  0.043370821    -2.393103   0.88100942   439061 
 1449000   0.58802223   -2.3940715   -2.3940715   -1.5120402  0.045524275   -2.3940715   0.88203133   439061 
 1450000   0.58804819    -2.393927    -2.393927   -1.5118567  0.045526117    -2.393927   0.88207027   439061 
 1451000   0.58753625   -2.3931717   -2.3931717   -1.5118694  0.044349978   -2.3931717   0.88130237   439061 
 1452000   0.58715874   -2.3923092   -2.3923092   -1.5115731   0.04182281   -2.3923092   0.88073611   439061 
 1453000   0.58734924   -2.3923408   -2.3923408    -1.511319    0.0456532   -2.3923408   0.88102185   439061 
 1454000   0.58691914   -2.3920373   -2.3920373   -1.5116606  0.043273116   -2.3920373    0.8803767   439061 
 1455000   0.58735171   -2.3927419   -2.3927419   -1.5117164  0.044693802   -2.3927419   0.88102557   439061 
 1456000   0.58805112   -2.3938337   -2.3938337    -1.511759  0.043558082   -2.3938337   0.88207468   439061 
 1457000   0.58776955   -2.3941958   -2.3941958   -1.5125435   0.03578088   -2.3941958   0.88165232   439061 
 1458000   0.58779375    -2.393756    -2.393756   -1.5120674  0.045263674    -2.393756   0.88168862   439061 
 1459000   0.58766898   -2.3935093   -2.3935093   -1.5120078  0.042187776   -2.3935093   0.88150146   439061 
 1460000   0.58792004   -2.3941554   -2.3941554   -1.5122774  0.044433795   -2.3941554   0.88187805   439061 
 1461000   0.58770035   -2.3954065   -2.3954065    -1.513858  0.045177423   -2.3954065   0.88154851   439061 
 1462000   0.58826849    -2.395443    -2.395443   -1.5130423  0.043935957    -2.395443   0.88240072   439061 
 1463000   0.58732057   -2.3956611   -2.3956611   -1.5146823  0.045038816   -2.3956611   0.88097885   439061 
 1464000   0.58839387   -2.3969367   -2.3969367   -1.5143479  0.046890329   -2.3969367    0.8825888   439061 
 1465000   0.58752487   -2.3958648   -2.3958648   -1.5145795  0.045491851   -2.3958648   0.88128529   439061 
 1466000     0.588898   -2.3976611   -2.3976611   -1.5143161  0.042504708   -2.3976611   0.88334499   439061 
 1467000    0.5887148   -2.3979834   -2.3979834   -1.5149132  0.045118163   -2.3979834   0.88307019   439061 
 1468000   0.58793617   -2.3973667   -2.3973667   -1.5154645  0.041616218   -2.3973667   0.88190225   439061 
 1469000   0.58798053   -2.3983126   -2.3983126   -1.5163438  0.046384896   -2.3983126   0.88196879   439061 
 1470000   0.58725528   -2.3979926   -2.3979926   -1.5171117  0.044510507   -2.3979926   0.88088091   439061 
 1471000   0.58752526   -2.3977398   -2.3977398   -1.5164539  0.045399275   -2.3977398   0.88128588   439061 
 1472000   0.58781075   -2.3987481   -2.3987481   -1.5170339  0.045788657   -2.3987481   0.88171412   439061 
 1473000   0.58803885   -2.4006342   -2.4006342    -1.518578  0.044554636   -2.4006342   0.88205626   439061 
 1474000   0.58692335   -2.3991536   -2.3991536   -1.5187706  0.045322757   -2.3991536   0.88038302   439061 
 1475000    0.5868656   -2.3991036   -2.3991036   -1.5188072  0.042681813   -2.3991036   0.88029639   439061 
 1476000   0.58754457   -2.4000462   -2.4000462   -1.5187313  0.038821765   -2.4000462   0.88131485   439061 
 1477000   0.58594285   -2.3977217   -2.3977217   -1.5188095  0.044515002   -2.3977217   0.87891227   439061 
 1478000   0.58671163   -2.3989325   -2.3989325   -1.5188671  0.040689242   -2.3989325   0.88006545   439061 
 1479000   0.58641963   -2.3988098   -2.3988098   -1.5191824  0.043430014   -2.3988098   0.87962744   439061 
 1480000   0.58609938   -2.3987801   -2.3987801    -1.519633  0.043607559   -2.3987801   0.87914706   439061 
 1481000   0.58693827    -2.398831    -2.398831   -1.5184256  0.040300238    -2.398831    0.8804054   439061 
 1482000   0.58728457   -2.3994081   -2.3994081   -1.5184833  0.044469538   -2.3994081   0.88092485   439061 
 1483000   0.58732402   -2.4001883   -2.4001883   -1.5192042  0.039263154   -2.4001883   0.88098402   439061 
 1484000   0.58625018   -2.3996942   -2.3996942   -1.5203209  0.041835558   -2.3996942   0.87937327   439061 
 1485000   0.58669551    -2.400062    -2.400062   -1.5200207  0.046263201    -2.400062   0.88004126   439061 
 1486000   0.58713432   -2.4003173   -2.4003173   -1.5196179  0.043408367   -2.4003173   0.88069947   439061 
 1487000   0.58779663   -2.4008606   -2.4008606   -1.5191676  0.043641704   -2.4008606   0.88169294   439061 
 1488000    0.5868855   -2.4007283   -2.4007283   -1.5204021  0.041452714   -2.4007283   0.88032625   439061 
 1489000   0.58759034    -2.401758    -2.401758   -1.5203745  0.044324931    -2.401758   0.88138351   439061 
 1490000   0.58703128   -2.4015926   -2.4015926   -1.5210477  0.042633469   -2.4015926   0.88054491   439061 
 1491000   0.58682144   -2.4011037   -2.4011037   -1.5208735  0.040310171   -2.4011037   0.88023016   439061 
 1492000   0.58620903   -2.4006615   -2.4006615   -1.5213499  0.048577088   -2.4006615   0.87931155   439061 
 1493000   0.58710875   -2.4022033   -2.4022033   -1.5215421   0.04554408   -2.4022033   0.88066112   439061 
 1494000   0.58638598   -2.4012461   -2.4012461   -1.5216692  0.047744394   -2.4012461   0.87957696   439061 
 1495000   0.58719551   -2.4031073   -2.4031073    -1.522316   0.04198075   -2.4031073   0.88079125   439061 
 1496000   0.58697811    -2.402562    -2.402562   -1.5220969  0.044201411    -2.402562   0.88046515   439061 
 1497000   0.58612636   -2.4018878   -2.4018878   -1.5227002  0.042832499   -2.4018878   0.87918753   439061 
 1498000   0.58601446   -2.4017277   -2.4017277    -1.522708  0.044138635   -2.4017277   0.87901969   439061 
 1499000   0.58595726   -2.4027655   -2.4027655   -1.5238317   0.04380329   -2.4027655   0.87893389   439061 
 1500000   0.58750386   -2.4050426   -2.4050426   -1.5237888  0.043515302   -2.4050426   0.88125378   439061 
 1501000   0.58705888   -2.4043911   -2.4043911   -1.5238047  0.045164414   -2.4043911   0.88058632   439061 
 1502000   0.58693669   -2.4040216   -2.4040216   -1.5236185  0.042563628   -2.4040216   0.88040303   439061 
 1503000   0.58701541   -2.4040518   -2.4040518   -1.5235307  0.042898882   -2.4040518    0.8805211   439061 
 1504000   0.58577991   -2.4020773   -2.4020773   -1.5234094  0.040444452   -2.4020773   0.87866787   439061 
 1505000   0.58693236   -2.4044942   -2.4044942   -1.5240977  0.045352674   -2.4044942   0.88039654   439061 
 1506000   0.58655224   -2.4038584   -2.4038584    -1.524032  0.043288345   -2.4038584   0.87982635   439061 
 1507000   0.58655778   -2.4046855   -2.4046855   -1.5248509   0.04380781   -2.4046855   0.87983466   439061 
 1508000   0.58702262   -2.4057482   -2.4057482   -1.5252163  0.041505128   -2.4057482   0.88053192   439061 
 1509000   0.58598506   -2.4041941   -2.4041941   -1.5252185  0.048310597   -2.4041941   0.87897558   439061 
 1510000   0.58631782   -2.4060482   -2.4060482   -1.5265735  0.040781887   -2.4060482   0.87947472   439061 
 1511000   0.58665523    -2.407654    -2.407654   -1.5276732  0.038200295    -2.407654   0.87998084   439061 
 1512000   0.58541175   -2.4048864   -2.4048864   -1.5267707  0.046080216   -2.4048864   0.87811563   439061 
 1513000   0.58626489    -2.407145    -2.407145   -1.5277497  0.045456908    -2.407145   0.87939533   439061 
 1514000    0.5864323   -2.4072901   -2.4072901   -1.5276437  0.042419583   -2.4072901   0.87964644   439061 
 1515000   0.58589786   -2.4062655   -2.4062655   -1.5274207  0.042364705   -2.4062655   0.87884478   439061 
 1516000   0.58618037   -2.4070214   -2.4070214   -1.5277529  0.044464083   -2.4070214   0.87926855   439061 
 1517000   0.58649411   -2.4076274   -2.4076274   -1.5278882   0.04210963   -2.4076274   0.87973916   439061 
 1518000   0.58714389   -2.4088679   -2.4088679   -1.5281541  0.045477291   -2.4088679   0.88071383   439061 
 1519000   0.58703753   -2.4089255   -2.4089255   -1.5283712  0.042693587   -2.4089255   0.88055429   439061 
 1520000   0.58631519   -2.4075959   -2.4075959   -1.5281252  0.040756655   -2.4075959   0.87947078   439061 
 1521000   0.58697376   -2.4093794   -2.4093794   -1.5289208  0.043201217   -2.4093794   0.88045863   439061 
 1522000   0.58597935   -2.4083269   -2.4083269   -1.5293599  0.042842187   -2.4083269   0.87896703   439061 
 1523000   0.58718141   -2.4097291   -2.4097291    -1.528959   0.03514472   -2.4097291   0.88077011   439061 
 1524000   0.58575486   -2.4082158   -2.4082158   -1.5295855  0.040204234   -2.4082158   0.87863029   439061 
 1525000   0.58474615   -2.4066941   -2.4066941   -1.5295768  0.041633575   -2.4066941   0.87711723   439061 
 1526000   0.58597547   -2.4084562   -2.4084562   -1.5294949  0.041913079   -2.4084562   0.87896121   439061 
 1527000   0.58610754   -2.4086229   -2.4086229   -1.5294636  0.040786338   -2.4086229   0.87915931   439061 
 1528000   0.58508449   -2.4069933   -2.4069933   -1.5293686  0.037945301   -2.4069933   0.87762474   439061 
 1529000   0.58650664   -2.4087444   -2.4087444   -1.5289864  0.041561535   -2.4087444   0.87975795   439061 
 1530000   0.58654827   -2.4087911   -2.4087911   -1.5289707  0.043486884   -2.4087911    0.8798204   439061 
 1531000   0.58581535   -2.4074241   -2.4074241    -1.528703  0.042439053   -2.4074241   0.87872103   439061 
 1532000    0.5861636    -2.408594    -2.408594   -1.5293506  0.040179723    -2.408594   0.87924339   439061 
 1533000   0.58562802      -2.4084      -2.4084   -1.5299599  0.039617464      -2.4084   0.87844004   439061 
 1534000   0.58574538   -2.4091901   -2.4091901    -1.530574  0.039085127   -2.4091901   0.87861606   439061 
 1535000   0.58531747   -2.4094226   -2.4094226   -1.5314484  0.037985601   -2.4094226    0.8779742   439061 
 1536000   0.58551518   -2.4104218   -2.4104218   -1.5321511  0.041455141   -2.4104218   0.87827077   439061 
 1537000    0.5855758   -2.4115279   -2.4115279   -1.5331662  0.038168361   -2.4115279    0.8783617   439061 
 1538000   0.58540399    -2.410678    -2.410678    -1.532574  0.042516402    -2.410678   0.87810398   439061 
 1539000   0.58690208   -2.4133964   -2.4133964   -1.5330453  0.041947495   -2.4133964   0.88035111   439061 
 1540000   0.58507053   -2.4116029   -2.4116029   -1.5339991  0.042577501   -2.4116029    0.8776038   439061 
 1541000   0.58602843   -2.4133231   -2.4133231   -1.5342824  0.045583637   -2.4133231   0.87904064   439061 
 1542000   0.58603667   -2.4134693   -2.4134693   -1.5344163  0.040982141   -2.4134693     0.879053   439061 
 1543000   0.58674085   -2.4145494   -2.4145494   -1.5344401  0.043292412   -2.4145494   0.88010927   439061 
 1544000   0.58611977   -2.4136033   -2.4136033   -1.5344257   0.04521518   -2.4136033   0.87917766   439061 
 1545000   0.58506044   -2.4130201   -2.4130201   -1.5354315  0.042332826   -2.4130201   0.87758865   439061 
 1546000   0.58571474    -2.413956    -2.413956   -1.5353859  0.044562925    -2.413956   0.87857011   439061 
 1547000   0.58618153   -2.4146175   -2.4146175   -1.5353472  0.045290331   -2.4146175   0.87927029   439061 
 1548000   0.58586889   -2.4150348   -2.4150348   -1.5362335  0.044950037   -2.4150348   0.87880133   439061 
 1549000   0.58601307   -2.4154545   -2.4154545   -1.5364369  0.041710641   -2.4154545    0.8790176   439061 
 1550000   0.58555612   -2.4144104   -2.4144104   -1.5360783  0.042956237   -2.4144104   0.87833217   439061 
 1551000   0.58617442    -2.414935    -2.414935   -1.5356754  0.042433173    -2.414935   0.87925962   439061 
 1552000   0.58541568    -2.414204    -2.414204   -1.5360825  0.043381082    -2.414204   0.87812152   439061 
 1553000   0.58536109   -2.4140291   -2.4140291   -1.5359895  0.042889629   -2.4140291   0.87803963   439061 
 1554000   0.58499137   -2.4134044   -2.4134044   -1.5359193  0.041877522   -2.4134044   0.87748505   439061 
 1555000    0.5846494    -2.413068    -2.413068   -1.5360959   0.04011998    -2.413068   0.87697211   439061 
 1556000   0.58600399   -2.4148968   -2.4148968   -1.5358929  0.039754867   -2.4148968   0.87900399   439061 
 1557000   0.58569169   -2.4146687   -2.4146687   -1.5361332   0.03899729   -2.4146687   0.87853554   439061 
 1558000   0.58457226    -2.413596    -2.413596   -1.5367397   0.04211101    -2.413596   0.87685639   439061 
 1559000   0.58504337   -2.4145304   -2.4145304   -1.5369673  0.043097943   -2.4145304   0.87756306   439061 
 1560000   0.58439508   -2.4141427   -2.4141427   -1.5375521  0.040792431   -2.4141427   0.87659062   439061 
 1561000    0.5852844   -2.4154202   -2.4154202   -1.5374956  0.039356254   -2.4154202   0.87792459   439061 
 1562000   0.58370752   -2.4130475   -2.4130475   -1.5374882  0.043099562   -2.4130475   0.87555929   439061 
 1563000   0.58490866   -2.4153488   -2.4153488   -1.5379878  0.044320176   -2.4153488   0.87736099   439061 
 1564000   0.58522811   -2.4164866   -2.4164866   -1.5386465  0.040862856   -2.4164866   0.87784017   439061 
 1565000   0.58498191   -2.4159209   -2.4159209     -1.53845  0.041682005   -2.4159209   0.87747086   439061 
 1566000   0.58553445   -2.4165833   -2.4165833   -1.5382836  0.041530644   -2.4165833   0.87829967   439061 
 1567000   0.58476457   -2.4159656   -2.4159656   -1.5388207   0.04421643   -2.4159656   0.87714486   439061 
 1568000   0.58548989   -2.4169075   -2.4169075   -1.5386746  0.043254048   -2.4169075   0.87823284   439061 
 1569000   0.58567375   -2.4177895   -2.4177895   -1.5392808  0.043063026   -2.4177895   0.87850863   439061 
 1570000    0.5841477    -2.415405    -2.415405   -1.5391855  0.044188549    -2.415405   0.87621956   439061 
 1571000   0.58523029   -2.4184489   -2.4184489   -1.5406055   0.03817123   -2.4184489   0.87784344   439061 
 1572000   0.58466683   -2.4175318   -2.4175318   -1.5405336  0.043786787   -2.4175318   0.87699825   439061 
 1573000   0.58461745   -2.4168861   -2.4168861   -1.5399619  0.042897777   -2.4168861   0.87692418   439061 
 1574000   0.58642095   -2.4184024   -2.4184024    -1.538773   0.04595976   -2.4184024   0.87962942   439061 
 1575000   0.58560415   -2.4186257   -2.4186257   -1.5402215  0.038688061   -2.4186257   0.87840423   439061 
 1576000   0.58439972   -2.4177496   -2.4177496    -1.541152  0.043897732   -2.4177496   0.87659758   439061 
 1577000   0.58436638   -2.4176227   -2.4176227   -1.5410751  0.043054625   -2.4176227   0.87654758   439061 
 1578000   0.58562175   -2.4200801   -2.4200801   -1.5416495  0.041237834   -2.4200801   0.87843063   439061 
 1579000   0.58438108   -2.4180681   -2.4180681   -1.5414985  0.040194156   -2.4180681   0.87656963   439061 
 1580000    0.5846473   -2.4188748   -2.4188748   -1.5419059  0.041567143   -2.4188748   0.87696895   439061 
 1581000     0.584228   -2.4173901   -2.4173901   -1.5410501  0.041534283   -2.4173901      0.87634   439061 
 1582000   0.58459209   -2.4180925   -2.4180925   -1.5412063  0.038353832   -2.4180925   0.87688614   439061 
 1583000   0.58371106   -2.4176683   -2.4176683   -1.5421037  0.041254062   -2.4176683   0.87556459   439061 
 1584000   0.58366753   -2.4182127   -2.4182127   -1.5427134  0.042856714   -2.4182127   0.87549929   439061 
 1585000   0.58312459   -2.4173389   -2.4173389    -1.542654  0.038673648   -2.4173389   0.87468489   439061 
 1586000   0.58404724   -2.4182763   -2.4182763   -1.5422074  0.041822658   -2.4182763   0.87606886   439061 
 1587000   0.58474632   -2.4198853   -2.4198853   -1.5427678  0.035828287   -2.4198853   0.87711748   439061 
 1588000   0.58412867   -2.4191643   -2.4191643   -1.5429733  0.041628452   -2.4191643   0.87619102   439061 
 1589000   0.58551849   -2.4207403   -2.4207403   -1.5424646  0.040198685   -2.4207403   0.87827573   439061 
 1590000   0.58494253   -2.4210326   -2.4210326   -1.5436208  0.040442459   -2.4210326   0.87741179   439061 
 1591000   0.58426075    -2.420596    -2.420596   -1.5442068   0.03741722    -2.420596   0.87638914   439061 
 1592000   0.58330233   -2.4191952   -2.4191952   -1.5442437  0.041316415   -2.4191952    0.8749515   439061 
 1593000   0.58482497   -2.4220872   -2.4220872   -1.5448517  0.039533559   -2.4220872   0.87723545   439061 
 1594000   0.58470175    -2.422623    -2.422623   -1.5455724  0.043928665    -2.422623   0.87705062   439061 
 1595000   0.58376437   -2.4219608   -2.4219608   -1.5463162  0.039900852   -2.4219608   0.87564456   439061 
 1596000   0.58451556   -2.4224639   -2.4224639   -1.5456926  0.041905797   -2.4224639   0.87677134   439061 
 1597000   0.58419901   -2.4227181   -2.4227181   -1.5464216  0.042607936   -2.4227181   0.87629652   439061 
 1598000   0.58480151   -2.4234483   -2.4234483    -1.546248  0.042220081   -2.4234483   0.87720027   439061 
 1599000   0.58524788   -2.4241053   -2.4241053   -1.5462355  0.039894282   -2.4241053   0.87786981   439061 
 1600000   0.58459713   -2.4234779   -2.4234779   -1.5465842  0.041338334   -2.4234779    0.8768937   439061 
 1601000   0.58441645   -2.4237757   -2.4237757    -1.547153  0.043485911   -2.4237757   0.87662268   439061 
 1602000   0.58374544   -2.4231412   -2.4231412   -1.5475251  0.038893115   -2.4231412   0.87561616   439061 
 1603000   0.58411603    -2.424684    -2.424684    -1.548512  0.039913251    -2.424684   0.87617205   439061 
 1604000   0.58385352   -2.4234651   -2.4234651   -1.5476868  0.040410863   -2.4234651   0.87577829   439061 
 1605000   0.58455899   -2.4244518   -2.4244518   -1.5476153  0.036871155   -2.4244518   0.87683648   439061 
 1606000   0.58418772   -2.4239954   -2.4239954   -1.5477158  0.040868664   -2.4239954   0.87627959   439061 
 1607000   0.58485971   -2.4246918   -2.4246918   -1.5474042  0.041390762   -2.4246918   0.87728756   439061 
 1608000   0.58433987   -2.4251833   -2.4251833   -1.5486755  0.043279058   -2.4251833   0.87650781   439061 
 1609000   0.58420317     -2.42448     -2.42448   -1.5481772   0.04364502     -2.42448   0.87630276   439061 
 1610000   0.58403054   -2.4243428   -2.4243428    -1.548299  0.044078115   -2.4243428   0.87604382   439061 
 1611000   0.58386113   -2.4248623   -2.4248623   -1.5490726  0.043864387   -2.4248623    0.8757897   439061 
 1612000   0.58408941   -2.4257249   -2.4257249   -1.5495928  0.040931687   -2.4257249   0.87613212   439061 
 1613000   0.58322244   -2.4253124   -2.4253124   -1.5504807  0.040855163   -2.4253124   0.87483166   439061 
 1614000   0.58405665   -2.4267259   -2.4267259   -1.5506429   0.03646195   -2.4267259   0.87608299   439061 
 1615000   0.58368132   -2.4254666   -2.4254666   -1.5499466  0.045314093   -2.4254666   0.87551999   439061 
 1616000   0.58373004   -2.4249437   -2.4249437   -1.5493507  0.043731524   -2.4249437   0.87559307   439061 
 1617000   0.58443577   -2.4264564   -2.4264564   -1.5498047  0.037963139   -2.4264564   0.87665166   439061 
 1618000   0.58377029   -2.4256785   -2.4256785   -1.5500251  0.040631212   -2.4256785   0.87565344   439061 
 1619000   0.58463248   -2.4267787   -2.4267787    -1.549832  0.043170868   -2.4267787   0.87694673   439061 
 1620000   0.58467286   -2.4272988   -2.4272988   -1.5502915  0.042170884   -2.4272988   0.87700729   439061 
 1621000   0.58430315   -2.4279513   -2.4279513   -1.5514986  0.040808571   -2.4279513   0.87645272   439061 
 1622000   0.58498586   -2.4282229   -2.4282229   -1.5507461  0.040039195   -2.4282229   0.87747679   439061 
 1623000   0.58334326   -2.4269178   -2.4269178   -1.5519049  0.040053771   -2.4269178    0.8750129   439061 
 1624000   0.58318198   -2.4268585   -2.4268585   -1.5520876  0.039904211   -2.4268585   0.87477098   439061 
 1625000   0.58305638   -2.4272106   -2.4272106    -1.552628  0.042739835   -2.4272106   0.87458258   439061 
 1626000   0.58338643   -2.4281618   -2.4281618   -1.5530842  0.040214068   -2.4281618   0.87507764   439061 
 1627000   0.58296467   -2.4272887   -2.4272887   -1.5528437  0.041967702   -2.4272887   0.87444502   439061 
 1628000   0.58232165   -2.4270948   -2.4270948   -1.5536143   0.04416961   -2.4270948   0.87348048   439061 
 1629000   0.58273204   -2.4286978   -2.4286978   -1.5546017   0.04356764   -2.4286978   0.87409607   439061 
 1630000    0.5830374   -2.4290841   -2.4290841   -1.5545299  0.035373372   -2.4290841   0.87455411   439061 
 1631000   0.58345632   -2.4296958   -2.4296958   -1.5545133   0.03991654   -2.4296958   0.87518248   439061 
 1632000   0.58312876   -2.4289874   -2.4289874   -1.5542963  0.040175689   -2.4289874   0.87469114   439061 
 1633000   0.58379856   -2.4308703   -2.4308703   -1.5551745  0.036207364   -2.4308703   0.87569585   439061 
 1634000   0.58324134   -2.4308062   -2.4308062   -1.5559462  0.039934295   -2.4308062   0.87486002   439061 
 1635000   0.58459915   -2.4324706   -2.4324706   -1.5555738  0.045344447   -2.4324706   0.87689673   439061 
 1636000   0.58362099   -2.4310424   -2.4310424    -1.555613  0.043682201   -2.4310424    0.8754295   439061 
 1637000    0.5842193   -2.4324167   -2.4324167   -1.5560897  0.041106958   -2.4324167   0.87632696   439061 
 1638000   0.58292557   -2.4312323   -2.4312323   -1.5568459  0.038972999   -2.4312323   0.87438637   439061 
 1639000   0.58324124   -2.4321778   -2.4321778   -1.5573179  0.040045468   -2.4321778   0.87485987   439061 
 1640000   0.58291729   -2.4318634   -2.4318634   -1.5574895  0.040819276   -2.4318634   0.87437395   439061 
 1641000   0.58253719   -2.4330765   -2.4330765   -1.5592727  0.044131246   -2.4330765   0.87380379   439061 
 1642000   0.58304617   -2.4343505   -2.4343505   -1.5597832  0.040038489   -2.4343505   0.87456727   439061 
 1643000   0.58329806   -2.4348232   -2.4348232   -1.5598781  0.041124622   -2.4348232    0.8749451   439061 
 1644000   0.58343583   -2.4340486   -2.4340486   -1.5588968  0.046378821   -2.4340486   0.87515176   439061 
 1645000   0.58362263   -2.4339283   -2.4339283   -1.5584964  0.045242479   -2.4339283   0.87543195   439061 
 1646000   0.58347937   -2.4336383   -2.4336383   -1.5584213  0.041683544   -2.4336383   0.87521706   439061 
 1647000   0.58348987   -2.4335261   -2.4335261   -1.5582933  0.043568213   -2.4335261   0.87523282   439061 
 1648000   0.58284719   -2.4331993   -2.4331993   -1.5589305  0.043884476   -2.4331993    0.8742688   439061 
 1649000   0.58342049   -2.4351273   -2.4351273   -1.5599986  0.037340643   -2.4351273   0.87512873   439061 
 1650000   0.58285501    -2.434552    -2.434552   -1.5602714  0.041949013    -2.434552   0.87428053   439061 
 1651000   0.58299797   -2.4347801   -2.4347801   -1.5602852  0.039437261   -2.4347801   0.87449497   439061 
 1652000   0.58289003   -2.4345032   -2.4345032   -1.5601702  0.041029305   -2.4345032   0.87433306   439061 
 1653000   0.58190288   -2.4323143   -2.4323143   -1.5594619  0.041536008   -2.4323143   0.87285234   439061 
 1654000   0.58283629    -2.434472    -2.434472   -1.5602195  0.037507225    -2.434472   0.87425245   439061 
 1655000   0.58272484   -2.4340808   -2.4340808   -1.5599955  0.043528246   -2.4340808   0.87408526   439061 
 1656000   0.58252509   -2.4342265   -2.4342265   -1.5604409  0.040892026   -2.4342265   0.87378564   439061 
 1657000   0.58207628   -2.4342876   -2.4342876   -1.5611751  0.042121905   -2.4342876   0.87311243   439061 
 1658000   0.58261865   -2.4357761   -2.4357761   -1.5618501  0.038297029   -2.4357761   0.87392598   439061 
 1659000   0.58112739   -2.4334646   -2.4334646   -1.5617755  0.041242823   -2.4334646   0.87168909   439061 
 1660000   0.58133949   -2.4345074   -2.4345074   -1.5625002  0.040210502   -2.4345074   0.87200725   439061 
 1661000   0.58050864    -2.433871    -2.433871     -1.56311  0.038648944    -2.433871   0.87076098   439061 
 1662000   0.58146873   -2.4356245   -2.4356245   -1.5634234  0.038466286   -2.4356245   0.87220111   439061 
 1663000   0.58153301    -2.435982    -2.435982   -1.5636845  0.037118794    -2.435982   0.87229753   439061 
 1664000   0.58199459   -2.4367668   -2.4367668   -1.5637769   0.03936406   -2.4367668    0.8729899   439061 
 1665000   0.58189637   -2.4372941   -2.4372941   -1.5644516  0.041355227   -2.4372941   0.87284257   439061 
 1666000   0.58192351   -2.4379632   -2.4379632   -1.5650799  0.039979111   -2.4379632   0.87288328   439061 
 1667000   0.58342845   -2.4404547   -2.4404547    -1.565314  0.039633684   -2.4404547   0.87514069   439061 
 1668000   0.58283075   -2.4398583   -2.4398583   -1.5656142  0.039794395   -2.4398583   0.87424413   439061 
 1669000   0.58200221   -2.4392875   -2.4392875   -1.5662862  0.041903519   -2.4392875   0.87300133   439061 
 1670000   0.58215176   -2.4394185   -2.4394185   -1.5661928  0.040123368   -2.4394185   0.87322566   439061 
 1671000   0.58200657   -2.4404394   -2.4404394   -1.5674316   0.04284243   -2.4404394   0.87300786   439061 
 1672000   0.58224361   -2.4406001   -2.4406001   -1.5672366  0.039620777   -2.4406001   0.87336343   439061 
 1673000   0.58217913   -2.4404893   -2.4404893   -1.5672226  0.044864854   -2.4404893    0.8732667   439061 
 1674000   0.58179955    -2.440429    -2.440429   -1.5677316  0.041088206    -2.440429   0.87269734   439061 
 1675000    0.5818905   -2.4410345   -2.4410345   -1.5682008  0.039286461   -2.4410345   0.87283377   439061 
 1676000   0.58221444   -2.4419397   -2.4419397   -1.5686201   0.03873101   -2.4419397   0.87331966   439061 
 1677000   0.58198899   -2.4416207   -2.4416207   -1.5686392  0.041424728   -2.4416207   0.87298149   439061 
 1678000   0.58217199   -2.4416372   -2.4416372   -1.5683812  0.036581762   -2.4416372     0.873256   439061 
 1679000   0.58273673   -2.4426129   -2.4426129   -1.5685098  0.039186189   -2.4426129   0.87410311   439061 
 1680000   0.58216856   -2.4417157   -2.4417157   -1.5684649  0.038608588   -2.4417157   0.87325084   439061 
 1681000   0.58216144   -2.4415753   -2.4415753   -1.5683352    0.0418882   -2.4415753   0.87324018   439061 
 1682000   0.58277498   -2.4419381   -2.4419381   -1.5677776  0.043397591   -2.4419381   0.87416047   439061 
 1683000   0.58234902   -2.4416961   -2.4416961   -1.5681746  0.042267195   -2.4416961   0.87352154   439061 
 1684000   0.58254249   -2.4426269   -2.4426269   -1.5688151  0.041181009   -2.4426269   0.87381174   439061 
 1685000   0.58239304   -2.4427928   -2.4427928   -1.5692053    0.0387683   -2.4427928   0.87358757   439061 
 1686000    0.5834499   -2.4431268   -2.4431268   -1.5679539  0.041049411   -2.4431268   0.87517286   439061 
 1687000   0.58234395   -2.4422021   -2.4422021   -1.5686881  0.039887591   -2.4422021   0.87351393   439061 
 1688000   0.58177572   -2.4413324   -2.4413324   -1.5686708  0.036488928   -2.4413324   0.87266159   439061 
 1689000   0.58197911   -2.4419838   -2.4419838   -1.5690171  0.038922524   -2.4419838   0.87296667   439061 
 1690000   0.58189853   -2.4421989   -2.4421989   -1.5693531  0.039875084   -2.4421989    0.8728458   439061 
 1691000   0.58109394   -2.4404674   -2.4404674   -1.5688285  0.038743748   -2.4404674   0.87163892   439061 
 1692000   0.58194656   -2.4420173   -2.4420173   -1.5690994  0.038472543   -2.4420173   0.87291785   439061 
 1693000   0.58116205   -2.4410631   -2.4410631   -1.5693221  0.038068272   -2.4410631   0.87174108   439061 
 1694000   0.58122827   -2.4403021   -2.4403021   -1.5684616  0.037486045   -2.4403021   0.87184042   439061 
 1695000   0.58138507   -2.4409079   -2.4409079   -1.5688322  0.039035804   -2.4409079   0.87207562   439061 
 1696000    0.5814149   -2.4404887   -2.4404887   -1.5683684   0.03759628   -2.4404887   0.87212036   439061 
 1697000   0.58200062   -2.4415032   -2.4415032   -1.5685043  0.038817141   -2.4415032   0.87299894   439061 
 1698000     0.583154   -2.4432129   -2.4432129   -1.5684839  0.038015765   -2.4432129     0.874729   439061 
 1699000   0.58137429   -2.4409431   -2.4409431   -1.5688836  0.041709889   -2.4409431   0.87205945   439061 
 1700000   0.58237412   -2.4429379   -2.4429379   -1.5693787  0.040840259   -2.4429379   0.87355919   439061 
 1701000   0.58148999   -2.4423495   -2.4423495   -1.5701165  0.039430553   -2.4423495     0.872233   439061 
 1702000   0.58259697   -2.4441046   -2.4441046   -1.5702112  0.036705154   -2.4441046   0.87389347   439061 
 1703000    0.5828157   -2.4441662   -2.4441662   -1.5699446  0.043430952   -2.4441662   0.87422157   439061 
 1704000   0.58206578   -2.4442833   -2.4442833   -1.5711866  0.038728935   -2.4442833   0.87309669   439061 
 1705000   0.58159497   -2.4438433   -2.4438433   -1.5714528  0.043693527   -2.4438433   0.87239047   439061 
 1706000   0.58235581   -2.4442806   -2.4442806   -1.5707489  0.037863444   -2.4442806   0.87353173   439061 
 1707000   0.58175793   -2.4439289   -2.4439289    -1.571294  0.040971168   -2.4439289    0.8726349   439061 
 1708000   0.58334993    -2.445536    -2.445536   -1.5705131  0.041613638    -2.445536    0.8750229   439061 
 1709000   0.58223873   -2.4452095   -2.4452095   -1.5718534  0.041427378   -2.4452095   0.87335611   439061 
 1710000   0.58282297   -2.4462185   -2.4462185    -1.571986  0.040291466   -2.4462185   0.87423246   439061 
 1711000   0.58231732   -2.4452552   -2.4452552   -1.5717813  0.042558868   -2.4452552   0.87347399   439061 
 1712000    0.5819437   -2.4446094   -2.4446094   -1.5716958  0.039595079   -2.4446094   0.87291357   439061 
 1713000    0.5817294   -2.4447976   -2.4447976   -1.5722055  0.037697777   -2.4447976   0.87259212   439061 
 1714000   0.58211656    -2.446185    -2.446185   -1.5730122  0.038154438    -2.446185   0.87317286   439061 
 1715000   0.58191423   -2.4459012   -2.4459012   -1.5730318  0.036307153   -2.4459012   0.87286936   439061 
 1716000   0.58215147   -2.4464494   -2.4464494   -1.5732242  0.038378968   -2.4464494   0.87322521   439061 
 1717000   0.58135497   -2.4456564   -2.4456564   -1.5736259  0.041513234   -2.4456564   0.87203047   439061 
 1718000   0.58063311   -2.4448964   -2.4448964   -1.5739487  0.040799698   -2.4448964   0.87094769   439061 
 1719000   0.58223262   -2.4469795   -2.4469795   -1.5736326  0.041593816   -2.4469795   0.87334694   439061 
 1720000   0.58198638   -2.4471413   -2.4471413   -1.5741637  0.035202588   -2.4471413   0.87297758   439061 
 1721000   0.58225991   -2.4472136   -2.4472136   -1.5738258  0.035907286   -2.4472136   0.87338787   439061 
 1722000   0.58027653   -2.4449744   -2.4449744   -1.5745615  0.039492234   -2.4449744   0.87041282   439061 
 1723000    0.5813539   -2.4461582   -2.4461582   -1.5741293  0.040940189   -2.4461582   0.87202887   439061 
 1724000   0.58152882   -2.4473658   -2.4473658   -1.5750745  0.036574875   -2.4473658   0.87229125   439061 
 1725000   0.58052567   -2.4463114   -2.4463114   -1.5755249  0.036609311   -2.4463114   0.87078653   439061 
 1726000   0.58117389   -2.4466646   -2.4466646   -1.5749058  0.040759858   -2.4466646   0.87175885   439061 
 1727000   0.58142644   -2.4485242   -2.4485242   -1.5763866  0.034111729   -2.4485242   0.87213767   439061 
 1728000   0.58194331    -2.448908    -2.448908    -1.575995  0.037580724    -2.448908   0.87291298   439061 
 1729000   0.58147776   -2.4486247   -2.4486247     -1.57641  0.038139084   -2.4486247   0.87221466   439061 
 1730000   0.58140908   -2.4493121   -2.4493121   -1.5772005   0.03450436   -2.4493121   0.87211164   439061 
 1731000   0.58110909   -2.4484334   -2.4484334   -1.5767718  0.041308509   -2.4484334   0.87166165   439061 
 1732000   0.58094004   -2.4483276   -2.4483276   -1.5769195  0.041575511   -2.4483276   0.87140808   439061 
 1733000   0.58118752   -2.4493564   -2.4493564   -1.5775771  0.039301836   -2.4493564   0.87177929   439061 
 1734000   0.58172872     -2.45096     -2.45096   -1.5783689  0.040772707     -2.45096   0.87259109   439061 
 1735000   0.58073188   -2.4495618   -2.4495618    -1.578466  0.040197757   -2.4495618   0.87109584   439061 
 1736000   0.58240922    -2.452262    -2.452262   -1.5786501  0.041345649    -2.452262   0.87361184   439061 
 1737000   0.58160374   -2.4521942   -2.4521942   -1.5797906  0.040664634   -2.4521942   0.87240362   439061 
 1738000   0.58025271   -2.4507355   -2.4507355   -1.5803584  0.039899989   -2.4507355   0.87037709   439061 
 1739000   0.58102793    -2.451743    -2.451743   -1.5802031  0.037475006    -2.451743    0.8715399   439061 
 1740000   0.58094722    -2.452128    -2.452128   -1.5807092  0.040648566    -2.452128   0.87141885   439061 
 1741000   0.58074688   -2.4516663   -2.4516663   -1.5805479  0.042549029   -2.4516663   0.87111833   439061 
 1742000   0.58008559   -2.4517407   -2.4517407   -1.5816143  0.039936381   -2.4517407    0.8701264   439061 
 1743000   0.58121049   -2.4533547   -2.4533547   -1.5815409    0.0403987   -2.4533547   0.87181375   439061 
 1744000   0.58023092   -2.4529232   -2.4529232   -1.5825788  0.042992489   -2.4529232    0.8703444   439061 
 1745000   0.58082138   -2.4538274   -2.4538274   -1.5825973  0.037412833   -2.4538274   0.87123008   439061 
 1746000   0.58043344   -2.4532859   -2.4532859   -1.5826377  0.038388228   -2.4532859   0.87064818   439061 
 1747000   0.58069876   -2.4528356   -2.4528356   -1.5817894  0.043122891   -2.4528356   0.87104616   439061 
 1748000   0.58092385    -2.453811    -2.453811   -1.5824272  0.036775224    -2.453811    0.8713838   439061 
 1749000   0.58042768   -2.4533265   -2.4533265   -1.5826869  0.039331784   -2.4533265   0.87063954   439061 
 1750000   0.57960607   -2.4521061   -2.4521061    -1.582699  0.043001626   -2.4521061   0.86940712   439061 
 1751000   0.58021175   -2.4529295   -2.4529295   -1.5826138  0.036978357   -2.4529295   0.87031564   439061 
 1752000   0.58072399   -2.4543939   -2.4543939   -1.5833099   0.03541329   -2.4543939     0.871084   439061 
 1753000   0.57993437   -2.4537582   -2.4537582   -1.5838587  0.035355791   -2.4537582   0.86989958   439061 
 1754000   0.57973526   -2.4545068   -2.4545068   -1.5849059   0.03559613   -2.4545068   0.86960091   439061 
 1755000   0.57959106    -2.454096    -2.454096   -1.5847113  0.036406546    -2.454096   0.86938461   439061 
 1756000   0.58109074    -2.455773    -2.455773   -1.5841389  0.040050752    -2.455773   0.87163412   439061 
 1757000   0.58063529   -2.4554269   -2.4554269   -1.5844759  0.038660585   -2.4554269   0.87095095   439061 
 1758000   0.58085132   -2.4552307   -2.4552307   -1.5839557  0.040140284   -2.4552307   0.87127499   439061 
 1759000   0.58066731   -2.4549039   -2.4549039   -1.5839049  0.040180674   -2.4549039   0.87099898   439061 
 1760000   0.58072788    -2.455602    -2.455602   -1.5845122  0.042307891    -2.455602   0.87108984   439061 
 1761000   0.58103594   -2.4560512   -2.4560512   -1.5844993   0.04318205   -2.4560512   0.87155193   439061 
 1762000   0.58068322   -2.4563798   -2.4563798   -1.5853569  0.041223235   -2.4563798   0.87102285   439061 
 1763000   0.58131236   -2.4570737   -2.4570737   -1.5851071   0.04263269   -2.4570737   0.87196656   439061 
 1764000   0.58128385   -2.4573783   -2.4573783   -1.5854546  0.038486742   -2.4573783   0.87192378   439061 
 1765000   0.58073217   -2.4574151   -2.4574151   -1.5863188  0.041935519   -2.4574151   0.87109628   439061 
 1766000   0.58042137   -2.4575097   -2.4575097   -1.5868797  0.039819056   -2.4575097   0.87063007   439061 
 1767000   0.58042478   -2.4581838   -2.4581838   -1.5875486  0.038413729   -2.4581838   0.87063518   439061 
 1768000   0.57994497    -2.458137    -2.458137   -1.5882216  0.038670999    -2.458137   0.86991547   439061 
 1769000   0.58088638   -2.4594912   -2.4594912   -1.5881636  0.036909563   -2.4594912   0.87132759   439061 
 1770000   0.57961019   -2.4579117   -2.4579117   -1.5884984  0.036210907   -2.4579117    0.8694133   439061 
 1771000   0.58013291   -2.4580192   -2.4580192   -1.5878218  0.036737177   -2.4580192   0.87019738   439061 
 1772000   0.58009046   -2.4579392   -2.4579392   -1.5878055  0.038301749   -2.4579392   0.87013371   439061 
 1773000    0.5801168   -2.4575423   -2.4575423   -1.5873691  0.034279568   -2.4575423   0.87017322   439061 
 1774000   0.57992125   -2.4577509   -2.4577509    -1.587871   0.03930851   -2.4577509   0.86987989   439061 
 1775000   0.58054199   -2.4590108   -2.4590108   -1.5881998  0.037524783   -2.4590108   0.87081101   439061 
 1776000   0.58026538   -2.4592077   -2.4592077   -1.5888117  0.037353218   -2.4592077   0.87039609   439061 
 1777000   0.57989411   -2.4580243   -2.4580243   -1.5881851  0.040390045   -2.4580243   0.86983919   439061 
 1778000   0.57881084   -2.4579307   -2.4579307   -1.5897164  0.039049156   -2.4579307   0.86821428   439061 
 1779000   0.57936667   -2.4589876   -2.4589876   -1.5899395   0.03895458   -2.4589876   0.86904802   439061 
 1780000   0.57983895   -2.4601367   -2.4601367   -1.5903802  0.035184634   -2.4601367   0.86975644   439061 
 1781000   0.57991758   -2.4600385   -2.4600385   -1.5901641  0.036651013   -2.4600385   0.86987439   439061 
 1782000   0.57973819   -2.4601394   -2.4601394   -1.5905341  0.040749984   -2.4601394    0.8696053   439061 
 1783000   0.58068322   -2.4620734   -2.4620734   -1.5910506  0.035863949   -2.4620734   0.87102284   439061 
 1784000   0.57954044   -2.4605373   -2.4605373   -1.5912286  0.040220124   -2.4605373   0.86930868   439061 
 1785000   0.58025472   -2.4619411   -2.4619411    -1.591561   0.03792187   -2.4619411    0.8703801   439061 
 1786000   0.58043869   -2.4624674   -2.4624674   -1.5918114  0.038535286   -2.4624674   0.87065606   439061 
 1787000   0.58031529    -2.462589    -2.462589   -1.5921181  0.040793644    -2.462589   0.87047095   439061 
 1788000   0.57965002   -2.4614893   -2.4614893   -1.5920163  0.041001572   -2.4614893   0.86947304   439061 
 1789000   0.57970559   -2.4616394   -2.4616394    -1.592083  0.039618562   -2.4616394   0.86955641   439061 
 1790000   0.57957756    -2.462016    -2.462016   -1.5926516  0.038265614    -2.462016   0.86936436   439061 
 1791000   0.57974159   -2.4626954   -2.4626954    -1.593085  0.040142019   -2.4626954   0.86961041   439061 
 1792000   0.57937731   -2.4620201   -2.4620201   -1.5929561  0.040914898   -2.4620201   0.86906398   439061 
 1793000   0.57940441   -2.4628114   -2.4628114   -1.5937067  0.037008494   -2.4628114   0.86910464   439061 
 1794000   0.57986497   -2.4630682   -2.4630682   -1.5932727  0.039547554   -2.4630682   0.86979548   439061 
 1795000   0.57973744   -2.4632629   -2.4632629   -1.5936587  0.036980718   -2.4632629   0.86960417   439061 
 1796000   0.57979652   -2.4630434   -2.4630434   -1.5933506  0.039878116   -2.4630434    0.8696928   439061 
 1797000   0.58031453    -2.463518    -2.463518   -1.5930482  0.038893536    -2.463518   0.87046981   439061 
 1798000   0.57895865   -2.4616581   -2.4616581   -1.5932221  0.041893915   -2.4616581     0.868436   439061 
 1799000   0.57897224   -2.4618281   -2.4618281   -1.5933717  0.038072981   -2.4618281   0.86845638   439061 
 1800000   0.57912435   -2.4622705   -2.4622705   -1.5935859  0.036113163   -2.4622705   0.86868455   439061 
 1801000   0.57888934   -2.4628409   -2.4628409   -1.5945088  0.038756688   -2.4628409   0.86833203   439061 
 1802000   0.57936798   -2.4629779   -2.4629779   -1.5939279  0.037985291   -2.4629779      0.86905   439061 
 1803000   0.57939976   -2.4633604   -2.4633604   -1.5942627  0.037811451   -2.4633604   0.86909766   439061 
 1804000   0.57865438   -2.4621864   -2.4621864   -1.5942068  0.038624309   -2.4621864    0.8679796   439061 
 1805000    0.5793691   -2.4633311   -2.4633311   -1.5942794   0.03692624   -2.4633311   0.86905167   439061 
 1806000   0.57999999   -2.4640898   -2.4640898   -1.5940918  0.033960107   -2.4640898   0.86999801   439061 
 1807000   0.57804448   -2.4622048   -2.4622048     -1.59514  0.038384351   -2.4622048   0.86706475   439061 
 1808000   0.57900532   -2.4628476   -2.4628476   -1.5943416  0.039574052   -2.4628476   0.86850601   439061 
 1809000   0.57950559   -2.4637607   -2.4637607   -1.5945043  0.038831599   -2.4637607    0.8692564   439061 
 1810000   0.57849625    -2.462218    -2.462218   -1.5944756  0.037733522    -2.462218   0.86774239   439061 
 1811000   0.57955672   -2.4644911   -2.4644911    -1.595158  0.037876332   -2.4644911   0.86933309   439061 
 1812000   0.57922586   -2.4634753   -2.4634753   -1.5946384  0.036135163   -2.4634753   0.86883682   439061 
 1813000   0.57915829   -2.4644818   -2.4644818   -1.5957463  0.036885946   -2.4644818   0.86873546   439061 
 1814000   0.57942355   -2.4646611   -2.4646611   -1.5955278   0.03762012   -2.4646611   0.86913335   439061 
 1815000   0.57851117   -2.4640009   -2.4640009   -1.5962362  0.039892564   -2.4640009   0.86776478   439061 
 1816000   0.57884422   -2.4647358   -2.4647358   -1.5964715  0.034085609   -2.4647358   0.86826435   439061 
 1817000     0.580269   -2.4671491   -2.4671491   -1.5967475  0.033693898   -2.4671491   0.87040152   439061 
 1818000   0.57824965    -2.464819    -2.464819   -1.5974466  0.035550681    -2.464819   0.86737249   439061 
 1819000   0.57894407   -2.4663565   -2.4663565   -1.5979424  0.040752505   -2.4663565   0.86841413   439061 
 1820000   0.57884562    -2.465975    -2.465975   -1.5977086  0.036529979    -2.465975   0.86826645   439061 
 1821000   0.57889926   -2.4665992   -2.4665992   -1.5982523  0.037725857   -2.4665992    0.8683469   439061 
 1822000   0.57902692   -2.4666329   -2.4666329   -1.5980945  0.039361531   -2.4666329   0.86853839   439061 
 1823000   0.57914084   -2.4674769   -2.4674769   -1.5987676  0.033746783   -2.4674769   0.86870928   439061 
 1824000   0.57893133    -2.466267    -2.466267    -1.597872  0.038635254    -2.466267   0.86839502   439061 
 1825000   0.57921187   -2.4671393   -2.4671393   -1.5983234  0.039478462   -2.4671393   0.86881582   439061 
 1826000    0.5799428   -2.4691199   -2.4691199   -1.5992076  0.037927663   -2.4691199   0.86991222   439061 
 1827000   0.57949909   -2.4686081   -2.4686081   -1.5993614  0.041741356   -2.4686081   0.86924665   439061 
 1828000   0.57883428   -2.4678325   -2.4678325    -1.599583  0.039528481   -2.4678325   0.86824945   439061 
 1829000   0.57938501    -2.468914    -2.468914   -1.5998385  0.037554277    -2.468914   0.86907553   439061 
 1830000    0.5789254   -2.4679624   -2.4679624   -1.5995762  0.040892384   -2.4679624   0.86838613   439061 
 1831000    0.5792828   -2.4685618   -2.4685618   -1.5996395  0.036874056   -2.4685618   0.86892223   439061 
 1832000    0.5791158    -2.468269    -2.468269   -1.5995973  0.035985654    -2.468269   0.86867173   439061 
 1833000   0.57767874   -2.4674546   -2.4674546   -1.6009385  0.035428087   -2.4674546   0.86651614   439061 
 1834000   0.57857422   -2.4690221   -2.4690221   -1.6011628  0.035824715   -2.4690221   0.86785936   439061 
 1835000   0.57761933   -2.4676391   -2.4676391   -1.6012121  0.039963698   -2.4676391   0.86642702   439061 
 1836000   0.57822472   -2.4683459   -2.4683459   -1.6010108  0.036300751   -2.4683459    0.8673351   439061 
 1837000   0.57855396   -2.4697656   -2.4697656   -1.6019366  0.037529931   -2.4697656   0.86782897   439061 
 1838000    0.5783641   -2.4691783   -2.4691783   -1.6016341  0.039984709   -2.4691783   0.86754418   439061 
 1839000   0.57802512   -2.4691741   -2.4691741   -1.6021384  0.038018371   -2.4691741   0.86703571   439061 
 1840000   0.57893616   -2.4707117   -2.4707117   -1.6023095  0.033448421   -2.4707117   0.86840226   439061 
 1841000    0.5786138   -2.4710258   -2.4710258   -1.6031071  0.036829906   -2.4710258   0.86791872   439061 
 1842000   0.57839506   -2.4704292   -2.4704292   -1.6028386  0.037051013   -2.4704292   0.86759061   439061 
 1843000   0.57869877   -2.4711396   -2.4711396   -1.6030935  0.037698933   -2.4711396   0.86804618   439061 
 1844000   0.57797676    -2.470421    -2.470421   -1.6034578  0.038901929    -2.470421   0.86696316   439061 
 1845000   0.57807604   -2.4707925   -2.4707925   -1.6036804  0.035535268   -2.4707925   0.86711209   439061 
 1846000    0.5787486   -2.4722216   -2.4722216   -1.6041006  0.038136534   -2.4722216   0.86812093   439061 
 1847000   0.57905818   -2.4724897   -2.4724897   -1.6039044  0.035655663   -2.4724897   0.86858529   439061 
 1848000   0.57958508   -2.4727594   -2.4727594   -1.6033838   0.03561555   -2.4727594   0.86937563   439061 
 1849000   0.57824363   -2.4709598   -2.4709598   -1.6035964   0.04099619   -2.4709598   0.86736346   439061 
 1850000    0.5782543    -2.471813    -2.471813   -1.6044336  0.038868142    -2.471813   0.86737947   439061 
 1851000   0.57891987   -2.4729197   -2.4729197   -1.6045418  0.035451152   -2.4729197   0.86837783   439061 
 1852000   0.57715201   -2.4704792   -2.4704792   -1.6047532    0.0368578   -2.4704792   0.86572605   439061 
 1853000    0.5780484   -2.4727841   -2.4727841   -1.6057134  0.031935601   -2.4727841   0.86707063   439061 
 1854000    0.5779409    -2.472976    -2.472976   -1.6060667  0.032865274    -2.472976   0.86690937   439061 
 1855000   0.57766992   -2.4726693   -2.4726693   -1.6061664  0.036787138   -2.4726693   0.86650291   439061 
 1856000   0.57873189   -2.4730649   -2.4730649    -1.604969  0.033843464   -2.4730649   0.86809585   439061 
 1857000   0.57866059   -2.4730754   -2.4730754   -1.6050865  0.035038816   -2.4730754   0.86798892   439061 
 1858000    0.5777163   -2.4725556   -2.4725556   -1.6059832  0.037948584   -2.4725556   0.86657247   439061 
 1859000   0.57797642    -2.473438    -2.473438   -1.6064753  0.032794909    -2.473438   0.86696266   439061 
 1860000   0.57857539   -2.4740058   -2.4740058   -1.6061447  0.038634494   -2.4740058   0.86786111   439061 
 1861000   0.57854119   -2.4745056   -2.4745056   -1.6066958    0.0376357   -2.4745056   0.86780981   439061 
 1862000   0.57839349   -2.4743222   -2.4743222   -1.6067339  0.033268568   -2.4743222   0.86758826   439061 
 1863000   0.57767722   -2.4742691   -2.4742691   -1.6077553   0.03675952   -2.4742691   0.86651386   439061 
 1864000   0.57857037   -2.4756083   -2.4756083   -1.6077547  0.039925946   -2.4756083   0.86785358   439061 
 1865000   0.57658394   -2.4732042   -2.4732042   -1.6083302  0.041022351   -2.4732042   0.86487394   439061 
 1866000   0.57826816   -2.4760418   -2.4760418   -1.6086415  0.039106223   -2.4760418   0.86740026   439061 
 1867000   0.57869146   -2.4758921   -2.4758921   -1.6078569  0.036932749   -2.4758921   0.86803522   439061 
 1868000   0.57813552   -2.4756888   -2.4756888   -1.6084875  0.040819371   -2.4756888    0.8672013   439061 
 1869000   0.57891501    -2.477385    -2.477385   -1.6090145  0.034958934    -2.477385   0.86837054   439061 
 1870000   0.57756648   -2.4762783   -2.4762783   -1.6099305  0.040339494   -2.4762783   0.86634774   439061 
 1871000    0.5781124    -2.477428    -2.477428   -1.6102614  0.040176616    -2.477428   0.86716662   439061 
 1872000   0.57819241   -2.4773799   -2.4773799   -1.6100933   0.03979656   -2.4773799   0.86728664   439061 
 1873000   0.57784999   -2.4772047   -2.4772047   -1.6104317  0.039983535   -2.4772047   0.86677301   439061 
 1874000   0.57954988   -2.4793008   -2.4793008    -1.609978  0.036986287   -2.4793008   0.86932284   439061 
 1875000   0.57813522   -2.4777281   -2.4777281   -1.6105272  0.038463789   -2.4777281   0.86720085   439061 
 1876000   0.57903265   -2.4790098   -2.4790098   -1.6104628  0.037949796   -2.4790098     0.868547   439061 
 1877000   0.57876447   -2.4792196   -2.4792196   -1.6110749   0.03554794   -2.4792196   0.86814472   439061 
 1878000   0.57831474   -2.4787208   -2.4787208   -1.6112506  0.034006369   -2.4787208   0.86747013   439061 
 1879000   0.57704593   -2.4774241   -2.4774241   -1.6118572  0.038085241   -2.4774241   0.86556692   439061 
 1880000   0.57709081   -2.4774159   -2.4774159   -1.6117817  0.036647406   -2.4774159   0.86563424   439061 
 1881000   0.57658057    -2.476854    -2.476854   -1.6119852  0.036674846    -2.476854   0.86486888   439061 
 1882000   0.57642977   -2.4766859   -2.4766859   -1.6120432  0.038050176   -2.4766859   0.86464269   439061 
 1883000   0.57663204   -2.4769774   -2.4769774   -1.6120314  0.036641785   -2.4769774   0.86494609   439061 
 1884000   0.57645977   -2.4772389   -2.4772389   -1.6125512  0.033708199   -2.4772389   0.86468769   439061 
 1885000   0.57647713   -2.4773209   -2.4773209   -1.6126072  0.033506371   -2.4773209   0.86471372   439061 
 1886000   0.57703089   -2.4774691   -2.4774691   -1.6119247  0.033990472   -2.4774691   0.86554437   439061 
 1887000   0.57700226   -2.4789057   -2.4789057   -1.6134043  0.036449551   -2.4789057   0.86550142   439061 
 1888000   0.57772402    -2.479503    -2.479503   -1.6129189  0.036978677    -2.479503   0.86658406   439061 
 1889000   0.57795296   -2.4798521   -2.4798521   -1.6129247  0.034547979   -2.4798521   0.86692747   439061 
 1890000   0.57824758   -2.4805953   -2.4805953   -1.6132259  0.034160836   -2.4805953   0.86736939   439061 
 1891000   0.57786496   -2.4795945   -2.4795945    -1.612799  0.036104079   -2.4795945   0.86679546   439061 
 1892000   0.57791167   -2.4796056   -2.4796056     -1.61274  0.035357585   -2.4796056   0.86686553   439061 
 1893000   0.57761746   -2.4801087   -2.4801087   -1.6136845  0.036923463   -2.4801087   0.86642421   439061 
 1894000   0.57695187   -2.4800431   -2.4800431   -1.6146173  0.036471633   -2.4800431   0.86542583   439061 
 1895000    0.5771934   -2.4799891   -2.4799891    -1.614201  0.039212185   -2.4799891   0.86578813   439061 
 1896000   0.57794727   -2.4803875   -2.4803875   -1.6134686  0.042501756   -2.4803875   0.86691893   439061 
 1897000   0.57690934   -2.4797705   -2.4797705   -1.6144085  0.038967249   -2.4797705   0.86536205   439061 
 1898000   0.57892022   -2.4826201   -2.4826201   -1.6142417  0.040936574   -2.4826201   0.86837835   439061 
 1899000   0.57840886   -2.4825674   -2.4825674   -1.6149561  0.038841429   -2.4825674   0.86761131   439061 
 1900000   0.57781385   -2.4808997   -2.4808997   -1.6141809  0.038797579   -2.4808997    0.8667188   439061 
 1901000   0.57737757   -2.4812174   -2.4812174    -1.615153   0.03917672   -2.4812174   0.86606438   439061 
 1902000   0.57732904   -2.4822021   -2.4822021   -1.6162106  0.037140268   -2.4822021   0.86599159   439061 
 1903000   0.57773899    -2.483282    -2.483282   -1.6166755  0.040284876    -2.483282   0.86660651   439061 
 1904000   0.57694798   -2.4822424   -2.4822424   -1.6168224  0.037337393   -2.4822424      0.86542   439061 
 1905000   0.57626379   -2.4814897   -2.4814897    -1.617096  0.037508347   -2.4814897   0.86439372   439061 
 1906000   0.57654867   -2.4815741   -2.4815741   -1.6167531  0.038240112   -2.4815741   0.86482103   439061 
 1907000   0.57673264   -2.4812138   -2.4812138   -1.6161168  0.038240306   -2.4812138     0.865097   439061 
 1908000   0.57788226   -2.4830569   -2.4830569   -1.6162354  0.034109141   -2.4830569   0.86682141   439061 
 1909000   0.57740419   -2.4832365   -2.4832365   -1.6171322  0.032643497   -2.4832365   0.86610431   439061 
 1910000   0.57690796   -2.4823943   -2.4823943   -1.6170344  0.031476051   -2.4823943   0.86535997   439061 
 1911000   0.57638717   -2.4813382   -2.4813382   -1.6167594  0.034212787   -2.4813382   0.86457879   439061 
 1912000    0.5767363   -2.4822539   -2.4822539   -1.6171514  0.034612745   -2.4822539   0.86510249   439061 
 1913000   0.57642701   -2.4822487   -2.4822487   -1.6176102  0.033734836   -2.4822487   0.86463854   439061 
 1914000   0.57614312   -2.4816577   -2.4816577    -1.617445  0.035554105   -2.4816577   0.86421272   439061 
 1915000   0.57628462   -2.4828414   -2.4828414   -1.6184164  0.034386958   -2.4828414   0.86442497   439061 
 1916000    0.5771566   -2.4830134   -2.4830134   -1.6172805  0.035184836   -2.4830134   0.86573292   439061 
 1917000   0.57665718   -2.4827418   -2.4827418    -1.617758  0.035412616   -2.4827418   0.86498381   439061 
 1918000   0.57721658   -2.4841063   -2.4841063   -1.6182834  0.036345106   -2.4841063    0.8658229   439061 
 1919000   0.57788546    -2.485057    -2.485057   -1.6182307  0.034762081    -2.485057   0.86682622   439061 
 1920000   0.57820952    -2.486081    -2.486081   -1.6187687  0.034549466    -2.486081    0.8673123   439061 
 1921000   0.57832718   -2.4863683   -2.4863683   -1.6188795  0.031800811   -2.4863683   0.86748879   439061 
 1922000   0.57688079   -2.4842231   -2.4842231   -1.6189039  0.037778301   -2.4842231   0.86531922   439061 
 1923000   0.57698472   -2.4848709   -2.4848709   -1.6193958  0.038940208   -2.4848709   0.86547511   439061 
 1924000   0.57644315   -2.4840505   -2.4840505   -1.6193877  0.036077542   -2.4840505   0.86466275   439061 
 1925000   0.57627432   -2.4852661   -2.4852661   -1.6208566  0.034268831   -2.4852661   0.86440951   439061 
 1926000   0.57594501   -2.4848099   -2.4848099   -1.6208944  0.036371075   -2.4848099   0.86391555   439061 
 1927000   0.57743025   -2.4867486   -2.4867486   -1.6206052  0.037107332   -2.4867486    0.8661434   439061 
 1928000   0.57687936   -2.4862484   -2.4862484   -1.6209313  0.035762937   -2.4862484   0.86531707   439061 
 1929000   0.57655344   -2.4853274   -2.4853274   -1.6204992  0.038558675   -2.4853274   0.86482819   439061 
 1930000   0.57699603   -2.4867467   -2.4867467   -1.6212547  0.034545916   -2.4867467   0.86549207   439061 
 1931000   0.57738004   -2.4874324   -2.4874324   -1.6213643  0.033213488   -2.4874324   0.86606809   439061 
 1932000   0.57594828   -2.4858048   -2.4858048   -1.6218843  0.031051497   -2.4858048   0.86392045   439061 
 1933000   0.57579525   -2.4866158   -2.4866158   -1.6229249  0.037787374   -2.4866158    0.8636909   439061 
 1934000   0.57531315   -2.4867496   -2.4867496   -1.6237818  0.037177208   -2.4867496   0.86296776   439061 
 1935000   0.57657069   -2.4884327   -2.4884327   -1.6235786  0.033715323   -2.4884327   0.86485407   439061 
 1936000   0.57641813   -2.4883487   -2.4883487   -1.6237234  0.035804506   -2.4883487   0.86462522   439061 
 1937000   0.57702059   -2.4892171   -2.4892171   -1.6236882  0.035679412   -2.4892171   0.86552891   439061 
 1938000   0.57741335    -2.489469    -2.489469   -1.6233509  0.038290427    -2.489469   0.86611805   439061 
 1939000   0.57691476   -2.4881233   -2.4881233   -1.6227532  0.037256665   -2.4881233   0.86537018   439061 
 1940000    0.5769405   -2.4900381   -2.4900381   -1.6246293  0.036770419   -2.4900381   0.86540879   439061 
 1941000   0.57745845   -2.4904629   -2.4904629   -1.6242772   0.03959821   -2.4904629    0.8661857   439061 
 1942000   0.57677434    -2.490448    -2.490448   -1.6252885  0.036331909    -2.490448   0.86515954   439061 
 1943000   0.57780615   -2.4910706   -2.4910706   -1.6243633  0.035137809   -2.4910706   0.86670725   439061 
 1944000   0.57763012   -2.4903678   -2.4903678   -1.6239246  0.037549447   -2.4903678   0.86644321   439061 
 1945000   0.57668162   -2.4899792   -2.4899792   -1.6249587  0.039233905   -2.4899792   0.86502046   439061 
 1946000   0.57638016   -2.4894103   -2.4894103   -1.6248421  0.033977471   -2.4894103   0.86456827   439061 
 1947000   0.57625629   -2.4893381   -2.4893381   -1.6249557   0.04043997   -2.4893381   0.86438247   439061 
 1948000   0.57653249   -2.4899919   -2.4899919   -1.6251951  0.036128686   -2.4899919   0.86479677   439061 
 1949000   0.57717917   -2.4913311   -2.4913311   -1.6255644  0.036489473   -2.4913311   0.86576679   439061 
 1950000   0.57705608   -2.4913618   -2.4913618   -1.6257797   0.03680118   -2.4913618   0.86558215   439061 
 1951000   0.57629064   -2.4908887   -2.4908887   -1.6264547  0.035116614   -2.4908887   0.86443399   439061 
 1952000   0.57577202   -2.4899461   -2.4899461     -1.62629  0.034772536   -2.4899461   0.86365606   439061 
 1953000   0.57540939    -2.489759    -2.489759   -1.6266469  0.035432632    -2.489759   0.86311211   439061 
 1954000   0.57543147   -2.4895015   -2.4895015   -1.6263563  0.033634861   -2.4895015   0.86314524   439061 
 1955000   0.57581572   -2.4911382   -2.4911382   -1.6274165   0.03445537   -2.4911382   0.86372162   439061 
 1956000   0.57602398   -2.4918291   -2.4918291   -1.6277951  0.034714185   -2.4918291     0.864034   439061 
 1957000   0.57579583   -2.4905937   -2.4905937   -1.6269019  0.033554592   -2.4905937   0.86369177   439061 
 1958000   0.57504867    -2.489313    -2.489313    -1.626742  0.033324053    -2.489313   0.86257105   439061 
 1959000   0.57605401   -2.4904681   -2.4904681    -1.626389  0.034199922   -2.4904681   0.86407904   439061 
 1960000   0.57652855    -2.491372    -2.491372   -1.6265811  0.040543483    -2.491372   0.86479085   439061 
 1961000   0.57569633   -2.4912989   -2.4912989   -1.6277564  0.032830637   -2.4912989   0.86354253   439061 
 1962000   0.57568674   -2.4917572   -2.4917572   -1.6282291  0.033807488   -2.4917572   0.86352814   439061 
 1963000   0.57624365   -2.4920349   -2.4920349   -1.6276713  0.035104505   -2.4920349    0.8643635   439061 
 1964000    0.5761953   -2.4930067   -2.4930067   -1.6287157  0.036567768   -2.4930067   0.86429098   439061 
 1965000   0.57620777   -2.4938853   -2.4938853   -1.6295756  0.032607277   -2.4938853   0.86430968   439061 
 1966000   0.57589113   -2.4931838   -2.4931838   -1.6293491  0.030340144   -2.4931838   0.86383472   439061 
 1967000   0.57625684   -2.4938201   -2.4938201   -1.6294368  0.036935027   -2.4938201   0.86438329   439061 
 1968000   0.57575366   -2.4929171   -2.4929171   -1.6292886  0.036873958   -2.4929171   0.86362852   439061 
 1969000   0.57471213   -2.4923054   -2.4923054   -1.6302391  0.038278229   -2.4923054   0.86206624   439061 
 1970000   0.57703403   -2.4942869   -2.4942869   -1.6287378   0.04143208   -2.4942869   0.86554908   439061 
 1971000    0.5764633   -2.4940014   -2.4940014   -1.6293084  0.035780157   -2.4940014   0.86469298   439061 
 1972000   0.57637994   -2.4937452   -2.4937452   -1.6291772  0.036857165   -2.4937452   0.86456794   439061 
 1973000   0.57602058   -2.4932086   -2.4932086   -1.6291797  0.037266405   -2.4932086    0.8640289   439061 
 1974000   0.57692785   -2.4945998   -2.4945998     -1.62921  0.037961746   -2.4945998    0.8653898   439061 
 1975000   0.57671914   -2.4951959   -2.4951959   -1.6301192  0.035780603   -2.4951959   0.86507675   439061 
 1976000    0.5765518   -2.4945155   -2.4945155   -1.6296898  0.038379519   -2.4945155   0.86482573   439061 
 1977000   0.57584752   -2.4942308   -2.4942308   -1.6304614  0.034918123   -2.4942308   0.86376931   439061 
 1978000   0.57483898    -2.493256    -2.493256   -1.6309995  0.037920622    -2.493256   0.86225651   439061 
 1979000   0.57569399   -2.4943419   -2.4943419   -1.6308029  0.034949531   -2.4943419   0.86353902   439061 
 1980000   0.57460201   -2.4937011   -2.4937011   -1.6318001  0.031402826   -2.4937011   0.86190106   439061 
 1981000    0.5745894   -2.4944991   -2.4944991   -1.6326169  0.030210541   -2.4944991   0.86188214   439061 
 1982000   0.57478984   -2.4948666   -2.4948666   -1.6326838  0.035481212   -2.4948666    0.8621828   439061 
 1983000    0.5747397   -2.4947239   -2.4947239   -1.6326163  0.033957346   -2.4947239   0.86210759   439061 
 1984000   0.57499138   -2.4945944   -2.4945944   -1.6321093  0.036763389   -2.4945944   0.86248511   439061 
 1985000   0.57588836   -2.4960175   -2.4960175   -1.6321869  0.034618078   -2.4960175   0.86383058   439061 
 1986000   0.57611109    -2.496296    -2.496296   -1.6321314  0.036714685    -2.496296   0.86416466   439061 
 1987000   0.57556065    -2.495585    -2.495585    -1.632246  0.038648594    -2.495585     0.863339   439061 
 1988000   0.57603453   -2.4966525   -2.4966525   -1.6326027  0.036129431   -2.4966525   0.86404983   439061 
 1989000   0.57568104   -2.4977337   -2.4977337   -1.6342141  0.033609524   -2.4977337   0.86351959   439061 
 1990000   0.57550521   -2.4968822   -2.4968822   -1.6336263  0.037797276   -2.4968822   0.86325585   439061 
 1991000   0.57516849   -2.4970557   -2.4970557    -1.634305  0.037863608   -2.4970557   0.86275077   439061 
 1992000   0.57509835   -2.4976095   -2.4976095    -1.634964   0.03424426   -2.4976095   0.86264557   439061 
 1993000   0.57573813   -2.4986728   -2.4986728   -1.6350675  0.030645443   -2.4986728   0.86360523   439061 
 1994000   0.57566467   -2.4994188   -2.4994188   -1.6359237  0.033410246   -2.4994188   0.86349503   439061 
 1995000   0.57442004   -2.4970391   -2.4970391    -1.635411  0.035556839   -2.4970391   0.86162809   439061 
 1996000    0.5754357   -2.4984432   -2.4984432   -1.6352916  0.033028355   -2.4984432   0.86315158   439061 
 1997000   0.57518482   -2.4989548   -2.4989548   -1.6361795  0.033182408   -2.4989548   0.86277526   439061 
 1998000   0.57491718   -2.4995107   -2.4995107   -1.6371369   0.03354289   -2.4995107    0.8623738   439061 
 1999000    0.5753874   -2.4996447   -2.4996447   -1.6365656  0.033591635   -2.4996447   0.86307913   439061 
 2000000   0.57581056   -2.5010013   -2.5010013   -1.6372875  0.036228787   -2.5010013   0.86371387   439061 
 2001000   0.57606856   -2.5008323   -2.5008323   -1.6367314  0.038648147   -2.5008323   0.86410088   439061 
 2002000   0.57517927   -2.5000089   -2.5000089    -1.637242  0.038976444   -2.5000089   0.86276694   439061 
 2003000   0.57554625   -2.5004219   -2.5004219   -1.6371045  0.034099051   -2.5004219   0.86331741   439061 
 2004000   0.57547882   -2.5005039   -2.5005039   -1.6372876  0.040929058   -2.5005039   0.86321626   439061 
 2005000    0.5747994   -2.4995227   -2.4995227   -1.6373255  0.038641983   -2.4995227   0.86219714   439061 
 2006000   0.57597728   -2.5015801   -2.5015801   -1.6376162  0.034764996   -2.5015801   0.86396395   439061 
 2007000   0.57538436   -2.5008954   -2.5008954   -1.6378208   0.03983982   -2.5008954   0.86307458   439061 
 2008000   0.57425773   -2.4996649   -2.4996649   -1.6382803  0.032958394   -2.4996649   0.86138463   439061 
 2009000   0.57521299   -2.5013068   -2.5013068   -1.6384893  0.031251324   -2.5013068   0.86281752   439061 
 2010000   0.57472555   -2.4999432   -2.4999432   -1.6378568  0.037690794   -2.4999432   0.86208637   439061 
 2011000   0.57384754   -2.4995821   -2.4995821   -1.6388128  0.030541865   -2.4995821   0.86076934   439061 
 2012000    0.5743713   -2.5004438   -2.5004438   -1.6388888  0.031949947   -2.5004438   0.86155499   439061 
 2013000   0.57484757   -2.5008908   -2.5008908   -1.6386214  0.033896757   -2.5008908    0.8622694   439061 
 2014000    0.5748156   -2.5011438   -2.5011438   -1.6389223  0.032655863   -2.5011438   0.86222144   439061 
 2015000   0.57467742   -2.5012312   -2.5012312   -1.6392171  0.035900565   -2.5012312   0.86201416   439061 
 2016000   0.57463195   -2.5009952   -2.5009952   -1.6390493  0.036600154   -2.5009952   0.86194596   439061 
 2017000   0.57426375   -2.5006655   -2.5006655   -1.6392718  0.037324062   -2.5006655   0.86139366   439061 
 2018000   0.57434459   -2.5014656   -2.5014656   -1.6399507  0.035739841   -2.5014656   0.86151492   439061 
 2019000   0.57415884   -2.5011918   -2.5011918   -1.6399555  0.034022585   -2.5011918    0.8612363   439061 
 2020000   0.57508137   -2.5031742   -2.5031742   -1.6405541  0.034172486   -2.5031742   0.86262009   439061 
 2021000   0.57550116   -2.5034522   -2.5034522   -1.6402025  0.034082293   -2.5034522   0.86324977   439061 
 2022000   0.57496767   -2.5034295   -2.5034295   -1.6409799  0.034379386   -2.5034295   0.86244954   439061 
 2023000   0.57402783   -2.5027729   -2.5027729   -1.6417331  0.034003318   -2.5027729   0.86103978   439061 
 2024000   0.57407072   -2.5029578   -2.5029578   -1.6418537  0.036437478   -2.5029578   0.86110411   439061 
 2025000   0.57457091   -2.5042348   -2.5042348   -1.6423804  0.035319164   -2.5042348   0.86185441   439061 
 2026000   0.57423261   -2.5034853   -2.5034853   -1.6421383  0.035701627   -2.5034853   0.86134695   439061 
 2027000   0.57556379    -2.505426    -2.505426   -1.6420822  0.035641747    -2.505426   0.86334373   439061 
 2028000   0.57485546   -2.5053683   -2.5053683   -1.6430871  0.032908004   -2.5053683   0.86228122   439061 
 2029000   0.57554157   -2.5058693   -2.5058693   -1.6425589  0.035585744   -2.5058693   0.86331039   439061 
 2030000   0.57477858   -2.5046754   -2.5046754   -1.6425095   0.03628661   -2.5046754   0.86216591   439061 
 2031000   0.57551762   -2.5067948   -2.5067948   -1.6435204   0.03783016   -2.5067948   0.86327446   439061 
 2032000   0.57560521    -2.506847    -2.506847   -1.6434411  0.037791386    -2.506847   0.86340584   439061 
 2033000   0.57465001   -2.5060158   -2.5060158   -1.6440428  0.038184865   -2.5060158   0.86197305   439061 
 2034000   0.57527256   -2.5071087   -2.5071087   -1.6442019  0.035716655   -2.5071087   0.86290687   439061 
 2035000   0.57500251   -2.5072268   -2.5072268    -1.644725  0.031763883   -2.5072268   0.86250181   439061 
 2036000   0.57409456   -2.5059754   -2.5059754   -1.6448355  0.035923322   -2.5059754   0.86113988   439061 
 2037000     0.574197   -2.5065363   -2.5065363   -1.6452428   0.03365753   -2.5065363   0.86129354   439061 
 2038000   0.57420176   -2.5062977   -2.5062977    -1.644997  0.037770428   -2.5062977   0.86130068   439061 
 2039000   0.57341108   -2.5057114   -2.5057114   -1.6455967  0.036181383   -2.5057114   0.86011466   439061 
 2040000   0.57423797   -2.5068753   -2.5068753   -1.6455203  0.033981966   -2.5068753   0.86135499   439061 
 2041000   0.57343298   -2.5059997   -2.5059997   -1.6458522  0.038117167   -2.5059997   0.86014751   439061 
 2042000   0.57472149   -2.5072235   -2.5072235   -1.6451432  0.034391003   -2.5072235   0.86208027   439061 
 2043000   0.57434698   -2.5075549   -2.5075549   -1.6460364  0.032732832   -2.5075549   0.86151851   439061 
 2044000   0.57443864   -2.5078498   -2.5078498   -1.6461938  0.033785951   -2.5078498     0.861656   439061 
 2045000   0.57350548   -2.5077528   -2.5077528   -1.6474965   0.03399129   -2.5077528   0.86025626   439061 
 2046000   0.57436231   -2.5086729   -2.5086729   -1.6471314  0.035077286   -2.5086729    0.8615415   439061 
 2047000   0.57438066   -2.5094527   -2.5094527   -1.6478836  0.033607003   -2.5094527   0.86156903   439061 
 2048000   0.57410075   -2.5084527   -2.5084527   -1.6473035  0.033754539   -2.5084527   0.86114917   439061 
 2049000   0.57509564   -2.5097325   -2.5097325    -1.647091  0.030713091   -2.5097325    0.8626415   439061 
 2050000   0.57446668   -2.5093324   -2.5093324   -1.6476344  0.030993844   -2.5093324   0.86169806   439061 
 2051000   0.57480544   -2.5092757   -2.5092757   -1.6470695  0.038329182   -2.5092757    0.8622062   439061 
 2052000   0.57480723   -2.5087141   -2.5087141   -1.6465053  0.038555835   -2.5087141   0.86220887   439061 
 2053000   0.57448339   -2.5079581   -2.5079581    -1.646235  0.036499518   -2.5079581   0.86172312   439061 
 2054000   0.57462183   -2.5087448   -2.5087448    -1.646814  0.033926177   -2.5087448   0.86193079   439061 
 2055000   0.57476585   -2.5096318   -2.5096318    -1.647485  0.033152776   -2.5096318   0.86214681   439061 
 2056000   0.57436887   -2.5085545   -2.5085545   -1.6470031  0.037257022   -2.5085545   0.86155135   439061 
 2057000   0.57426122   -2.5088903   -2.5088903   -1.6475004  0.031896431   -2.5088903   0.86138987   439061 
 2058000   0.57445606   -2.5078912   -2.5078912   -1.6462091   0.03709647   -2.5078912   0.86168212   439061 
 2059000   0.57397158   -2.5085262   -2.5085262   -1.6475708  0.031713979   -2.5085262   0.86095541   439061 
 2060000   0.57380778   -2.5080167   -2.5080167    -1.647307  0.035315794   -2.5080167   0.86070971   439061 
 2061000   0.57326241   -2.5083642   -2.5083642   -1.6484726  0.031214271   -2.5083642   0.85989166   439061 
 2062000   0.57376541   -2.5085845   -2.5085845   -1.6479383  0.030472714   -2.5085845   0.86064616   439061 
 2063000   0.57253906    -2.507599    -2.507599   -1.6487924  0.029619125    -2.507599   0.85880664   439061 
 2064000   0.57247622   -2.5079025   -2.5079025   -1.6491902  0.028969255   -2.5079025   0.85871237   439061 
 2065000   0.57260103   -2.5076912   -2.5076912   -1.6487916   0.03008815   -2.5076912   0.85889959   439061 
 2066000   0.57287029   -2.5080722   -2.5080722   -1.6487687  0.034152017   -2.5080722   0.85930348   439061 
 2067000   0.57438241   -2.5098135   -2.5098135   -1.6482418  0.030648249   -2.5098135   0.86157166   439061 
 2068000   0.57424962   -2.5086873   -2.5086873   -1.6473148  0.033097619   -2.5086873   0.86137247   439061 
 2069000     0.574167   -2.5087335   -2.5087335    -1.647485   0.03530405   -2.5087335   0.86124853   439061 
 2070000   0.57426115   -2.5095703   -2.5095703   -1.6481805   0.03396469   -2.5095703   0.86138976   439061 
 2071000   0.57479229   -2.5111597   -2.5111597   -1.6489732  0.035641473   -2.5111597   0.86218646   439061 
 2072000   0.57461613   -2.5112203   -2.5112203   -1.6492981  0.032088327   -2.5112203   0.86192224   439061 
 2073000   0.57441148   -2.5107524   -2.5107524   -1.6491371  0.034765407   -2.5107524   0.86161526   439061 
 2074000   0.57423608    -2.511401    -2.511401   -1.6500488  0.033909556    -2.511401   0.86135216   439061 
 2075000   0.57470214   -2.5120978   -2.5120978   -1.6500466  0.035891161   -2.5120978   0.86205125   439061 
 2076000   0.57532711    -2.512344    -2.512344   -1.6493553  0.035646653    -2.512344    0.8629887   439061 
 2077000   0.57421631   -2.5114915   -2.5114915    -1.650169  0.036697069   -2.5114915    0.8613225   439061 
 2078000   0.57445266   -2.5119276   -2.5119276   -1.6502506  0.033406871   -2.5119276   0.86167703   439061 
 2079000   0.57440281   -2.5125107   -2.5125107   -1.6509085   0.03530652   -2.5125107   0.86160225   439061 
 2080000   0.57486523   -2.5128051   -2.5128051   -1.6505093  0.030865533   -2.5128051   0.86229587   439061 
 2081000   0.57496383   -2.5134534   -2.5134534   -1.6510096  0.030204287   -2.5134534   0.86244378   439061 
 2082000   0.57426812   -2.5126363   -2.5126363   -1.6512361  0.036445405   -2.5126363   0.86140022   439061 
 2083000   0.57355883   -2.5116545   -2.5116545   -1.6513182  0.040641188   -2.5116545   0.86033628   439061 
 2084000    0.5738629   -2.5125473   -2.5125473    -1.651755  0.033359072   -2.5125473   0.86079238   439061 
 2085000   0.57409743   -2.5131983   -2.5131983   -1.6520541  0.033186065   -2.5131983   0.86114419   439061 
 2086000   0.57313386   -2.5123333   -2.5123333   -1.6526345  0.032600727   -2.5123333   0.85969883   439061 
 2087000   0.57332801   -2.5130042   -2.5130042   -1.6530141  0.033072887   -2.5130042   0.85999006   439061 
 2088000   0.57295053    -2.512417    -2.512417   -1.6529932  0.037500695    -2.512417   0.85942383   439061 
 2089000    0.5731742   -2.5121739   -2.5121739   -1.6524146   0.03511251   -2.5121739   0.85975934   439061 
 2090000   0.57313849    -2.512249    -2.512249   -1.6525432  0.031707878    -2.512249   0.85970578   439061 
 2091000   0.57275545   -2.5121281   -2.5121281   -1.6529969  0.035355724   -2.5121281   0.85913123   439061 
 2092000   0.57397227   -2.5137343   -2.5137343   -1.6527778  0.033428424   -2.5137343   0.86095645   439061 
 2093000   0.57324542   -2.5128392   -2.5128392    -1.652973  0.033069612   -2.5128392   0.85986618   439061 
 2094000    0.5734135   -2.5132925   -2.5132925   -1.6531742  0.031344492   -2.5132925   0.86011829   439061 
 2095000    0.5744941   -2.5139753   -2.5139753   -1.6522361  0.032611361   -2.5139753   0.86173919   439061 
 2096000   0.57364556   -2.5129895   -2.5129895   -1.6525232  0.036684495   -2.5129895   0.86046639   439061 
 2097000   0.57445727   -2.5142076   -2.5142076   -1.6525236  0.032552651   -2.5142076   0.86168394   439061 
 2098000   0.57357638   -2.5126804   -2.5126804   -1.6523178  0.034103299   -2.5126804   0.86036262   439061 
 2099000   0.57315032   -2.5126395   -2.5126395    -1.652916   0.03299008   -2.5126395   0.85972353   439061 
 2100000   0.57411517   -2.5144645   -2.5144645   -1.6532937  0.031162088   -2.5144645   0.86117079   439061 
 2101000   0.57475863   -2.5156102   -2.5156102   -1.6534742  0.035646516   -2.5156102   0.86213598   439061 
 2102000   0.57351669   -2.5144455   -2.5144455   -1.6541724  0.032280918   -2.5144455   0.86027308   439061 
 2103000   0.57296589   -2.5136332   -2.5136332   -1.6541863  0.036488747   -2.5136332   0.85944688   439061 
 2104000   0.57317822   -2.5139253   -2.5139253   -1.6541599  0.034735257   -2.5139253   0.85976537   439061 
 2105000   0.57336123   -2.5146683   -2.5146683   -1.6546285  0.031571947   -2.5146683   0.86003989   439061 
 2106000   0.57299735   -2.5142364   -2.5142364   -1.6547423  0.037262683   -2.5142364   0.85949407   439061 
 2107000   0.57277559   -2.5153951   -2.5153951   -1.6562336  0.030731985   -2.5153951   0.85916143   439061 
 2108000   0.57241305    -2.515296    -2.515296   -1.6566784  0.034635711    -2.515296   0.85861761   439061 
 2109000   0.57318455   -2.5158525   -2.5158525   -1.6560776  0.034742074   -2.5158525   0.85977486   439061 
 2110000   0.57315974   -2.5155211   -2.5155211   -1.6557835  0.039194273   -2.5155211   0.85973764   439061 
 2111000   0.57384979   -2.5166349   -2.5166349   -1.6558621  0.035438941   -2.5166349   0.86077272   439061 
 2112000   0.57376385   -2.5168572   -2.5168572   -1.6562134  0.035835363   -2.5168572   0.86064381   439061 
 2113000   0.57396287   -2.5175416   -2.5175416   -1.6565993    0.0393323   -2.5175416   0.86094234   439061 
 2114000   0.57490875   -2.5192145   -2.5192145   -1.6568533  0.032241144   -2.5192145   0.86236117   439061 
 2115000   0.57452166   -2.5174502   -2.5174502   -1.6556696  0.034395076   -2.5174502   0.86178053   439061 
 2116000   0.57347749   -2.5172188   -2.5172188   -1.6570045  0.038248352   -2.5172188   0.86021428   439061 
 2117000   0.57427451   -2.5187633   -2.5187633   -1.6573535  0.037361367   -2.5187633    0.8614098   439061 
 2118000   0.57379859   -2.5184495   -2.5184495   -1.6577536  0.037610089   -2.5184495   0.86069592   439061 
 2119000   0.57360686   -2.5182746   -2.5182746   -1.6578662   0.03670999   -2.5182746   0.86040833   439061 
 2120000   0.57357601   -2.5192053   -2.5192053   -1.6588433  0.029268595   -2.5192053   0.86036205   439061 
 2121000   0.57351796   -2.5182763   -2.5182763   -1.6580014  0.029906702   -2.5182763   0.86027498   439061 
 2122000   0.57332374   -2.5183512   -2.5183512   -1.6583676  0.036132082   -2.5183512   0.85998364   439061 
 2123000   0.57347189   -2.5178719   -2.5178719    -1.657666  0.034440436   -2.5178719   0.86020587   439061 
 2124000   0.57337378   -2.5180246   -2.5180246   -1.6579659  0.033117154   -2.5180246   0.86005872   439061 
 2125000   0.57316867    -2.517984    -2.517984    -1.658233   0.03252493    -2.517984   0.85975105   439061 
 2126000   0.57353859    -2.518759    -2.518759   -1.6584531  0.032977797    -2.518759   0.86030593   439061 
 2127000   0.57318227   -2.5182896   -2.5182896   -1.6585181  0.031931273   -2.5182896   0.85977145   439061 
 2128000   0.57193764   -2.5174684   -2.5174684   -1.6595639  0.031832066   -2.5174684   0.85790451   439061 
 2129000   0.57206558   -2.5179057   -2.5179057   -1.6598093  0.036559348   -2.5179057   0.85809641   439061 
 2130000   0.57189109   -2.5178826   -2.5178826   -1.6600479  0.032151389   -2.5178826   0.85783468   439061 
 2131000   0.57314529    -2.520315    -2.520315    -1.660599  0.029932828    -2.520315   0.85971598   439061 
 2132000   0.57278915   -2.5192625   -2.5192625   -1.6600807  0.032725971   -2.5192625   0.85918176   439061 
 2133000   0.57183977   -2.5186838   -2.5186838   -1.6609261  0.035238855   -2.5186838    0.8577577   439061 
 2134000     0.571999   -2.5195413   -2.5195413   -1.6615447  0.034664176   -2.5195413   0.85799655   439061 
 2135000   0.57307377   -2.5210985   -2.5210985   -1.6614898  0.035042495   -2.5210985    0.8596087   439061 
 2136000   0.57365048   -2.5218205   -2.5218205   -1.6613467  0.031879275   -2.5218205   0.86047377   439061 
 2137000   0.57274024   -2.5209314   -2.5209314    -1.661823  0.036267865   -2.5209314    0.8591084   439061 
 2138000   0.57341346   -2.5226236   -2.5226236   -1.6625054  0.034926167   -2.5226236   0.86011823   439061 
 2139000   0.57363613   -2.5234297   -2.5234297   -1.6629775  0.034034739   -2.5234297   0.86045223   439061 
 2140000   0.57314453   -2.5230254   -2.5230254   -1.6633105  0.035988586   -2.5230254   0.85971484   439061 
 2141000   0.57328477   -2.5237166   -2.5237166   -1.6637914  0.037337698   -2.5237166    0.8599252   439061 
 2142000   0.57239745    -2.521805    -2.521805   -1.6632108  0.037980444    -2.521805   0.85859422   439061 
 2143000   0.57332493   -2.5237934   -2.5237934    -1.663808  0.034887848   -2.5237934   0.85998544   439061 
 2144000   0.57358823   -2.5246954   -2.5246954    -1.664315  0.036238491   -2.5246954   0.86038039   439061 
 2145000    0.5728947   -2.5235272   -2.5235272   -1.6641871  0.035393668   -2.5235272   0.85934009   439061 
 2146000   0.57309168   -2.5247602   -2.5247602   -1.6651246  0.033320967   -2.5247602   0.85963556   439061 
 2147000   0.57290554    -2.523786    -2.523786   -1.6644296  0.034659621    -2.523786   0.85935635   439061 
 2148000   0.57316169   -2.5240408   -2.5240408   -1.6643002  0.032983614   -2.5240408   0.85974057   439061 
 2149000   0.57293136   -2.5241506   -2.5241506   -1.6647556   0.03242968   -2.5241506   0.85939508   439061 
 2150000   0.57261755   -2.5238283   -2.5238283   -1.6649039  0.030517952   -2.5238283   0.85892437   439061 
 2151000    0.5722729   -2.5227248   -2.5227248   -1.6643174   0.03265859   -2.5227248   0.85840739   439061 
 2152000   0.57270746   -2.5243829   -2.5243829   -1.6653237  0.034469475   -2.5243829   0.85905923   439061 
 2153000   0.57218802   -2.5230975   -2.5230975   -1.6648174  0.031086156   -2.5230975   0.85828007   439061 
 2154000   0.57293918   -2.5238077   -2.5238077   -1.6644009  0.036445164   -2.5238077   0.85940682   439061 
 2155000   0.57313842   -2.5241728   -2.5241728   -1.6644671  0.034536667   -2.5241728   0.85970567   439061 
 2156000   0.57286112   -2.5241348   -2.5241348   -1.6648451  0.035939467   -2.5241348   0.85928972   439061 
 2157000   0.57358342   -2.5243262   -2.5243262    -1.663953  0.035768162   -2.5243262   0.86037316   439061 
 2158000   0.57283975   -2.5230541   -2.5230541   -1.6637964  0.034286794   -2.5230541   0.85925766   439061 
 2159000   0.57245613   -2.5231083   -2.5231083   -1.6644261  0.035443791   -2.5231083   0.85868224   439061 
 2160000   0.57207934   -2.5232542   -2.5232542   -1.6651372  0.030169293   -2.5232542   0.85811706   439061 
 2161000   0.57262839   -2.5242222   -2.5242222   -1.6652816  0.033295936   -2.5242222   0.85894064   439061 
 2162000   0.57187031   -2.5233563   -2.5233563   -1.6655528  0.029690265   -2.5233563    0.8578035   439061 
 2163000   0.57233525   -2.5249333   -2.5249333   -1.6664323  0.034255659   -2.5249333   0.85850092   439061 
 2164000   0.57191933    -2.524489    -2.524489   -1.6666119  0.035053691    -2.524489   0.85787704   439061 
 2165000   0.57082832   -2.5235032   -2.5235032   -1.6672627  0.034026519   -2.5235032   0.85624054   439061 
 2166000   0.57144211   -2.5233816   -2.5233816   -1.6662204   0.03382422   -2.5233816   0.85716121   439061 
 2167000   0.57233032   -2.5255224   -2.5255224   -1.6670289  0.032852446   -2.5255224   0.85849353   439061 
 2168000   0.57269794   -2.5256451   -2.5256451   -1.6666002  0.031592923   -2.5256451   0.85904496   439061 
 2169000   0.57296725   -2.5262535   -2.5262535   -1.6668046  0.030185951   -2.5262535   0.85944891   439061 
 2170000   0.57248608   -2.5259493   -2.5259493   -1.6672221   0.02941374   -2.5259493   0.85872716   439061 
 2171000   0.57260569   -2.5258808   -2.5258808   -1.6669742  0.032575969   -2.5258808   0.85890657   439061 
 2172000   0.57210887   -2.5256012   -2.5256012   -1.6674399  0.037290264   -2.5256012   0.85816135   439061 
 2173000   0.57210528   -2.5258294   -2.5258294   -1.6676734  0.032606409   -2.5258294   0.85815596   439061 
 2174000   0.57261935   -2.5268493   -2.5268493   -1.6679223  0.032584602   -2.5268493   0.85892706   439061 
 2175000    0.5719928   -2.5251387   -2.5251387   -1.6671514  0.033681498   -2.5251387   0.85798725   439061 
 2176000   0.57198895   -2.5261816   -2.5261816   -1.6682001  0.032577655   -2.5261816   0.85798147   439061 
 2177000   0.57343698   -2.5282428   -2.5282428   -1.6680892    0.0339093   -2.5282428   0.86015351   439061 
 2178000   0.57298584    -2.528033    -2.528033   -1.6685561  0.031681741    -2.528033    0.8594768   439061 
 2179000   0.57229452   -2.5267005   -2.5267005   -1.6682606  0.033800745   -2.5267005   0.85843983   439061 
 2180000   0.57289308   -2.5272585   -2.5272585   -1.6679208  0.037187838   -2.5272585   0.85933766   439061 
 2181000   0.57348577   -2.5285972   -2.5285972   -1.6683705   0.02982811   -2.5285972   0.86022669   439061 
 2182000   0.57229559   -2.5278478   -2.5278478   -1.6694064  0.028306425   -2.5278478   0.85844142   439061 
 2183000   0.57270218   -2.5290445   -2.5290445   -1.6699932     0.033609   -2.5290445   0.85905131   439061 
 2184000   0.57212945   -2.5285912   -2.5285912    -1.670399  0.030908419   -2.5285912   0.85819222   439061 
 2185000   0.57156574   -2.5283677   -2.5283677   -1.6710211  0.034254182   -2.5283677   0.85734666   439061 
 2186000   0.57195564   -2.5285316   -2.5285316   -1.6706001  0.033768945   -2.5285316   0.85793151   439061 
 2187000   0.57142388    -2.527844    -2.527844   -1.6707101   0.03809828    -2.527844   0.85713387   439061 
 2188000   0.57100272   -2.5287836   -2.5287836   -1.6722815  0.029363493   -2.5287836   0.85650213   439061 
 2189000   0.57071455   -2.5290285   -2.5290285   -1.6729586  0.032077143   -2.5290285   0.85606988   439061 
 2190000    0.5715324    -2.528503    -2.528503   -1.6712063  0.032921504    -2.528503   0.85729664   439061 
 2191000   0.57229873   -2.5295959   -2.5295959   -1.6711497  0.035795811   -2.5295959   0.85844613   439061 
 2192000   0.57175736   -2.5289713   -2.5289713   -1.6713372  0.033703549   -2.5289713   0.85763409   439061 
 2193000   0.57164155   -2.5292136   -2.5292136   -1.6717533  0.033540824   -2.5292136   0.85746037   439061 
 2194000   0.57131953   -2.5294308   -2.5294308   -1.6724535  0.030229885   -2.5294308   0.85697734   439061 
 2195000   0.57263592   -2.5306605   -2.5306605   -1.6717086  0.033027427   -2.5306605   0.85895192   439061 
 2196000   0.57114136    -2.527763    -2.527763   -1.6710529  0.030078197    -2.527763   0.85671008   439061 
 2197000   0.57093535   -2.5276487   -2.5276487   -1.6712476  0.034002635   -2.5276487   0.85640107   439061 
 2198000   0.57193844   -2.5287285   -2.5287285   -1.6708228  0.032277998   -2.5287285   0.85790571   439061 
 2199000   0.57207143   -2.5288685   -2.5288685   -1.6707633  0.035409501   -2.5288685   0.85810519   439061 
 2200000   0.57180042   -2.5283975   -2.5283975   -1.6706988  0.032129782   -2.5283975   0.85769867   439061 
 2201000   0.57201163   -2.5290464   -2.5290464   -1.6710309  0.036070739   -2.5290464   0.85801549   439061 
 2202000   0.57327721   -2.5309395   -2.5309395   -1.6710256  0.030375291   -2.5309395   0.85991386   439061 
 2203000   0.57297891   -2.5300703   -2.5300703   -1.6706039  0.037031194   -2.5300703   0.85946641   439061 
 2204000   0.57180019   -2.5284529   -2.5284529   -1.6707546  0.036790338   -2.5284529   0.85769833   439061 
 2205000   0.57283426   -2.5299398   -2.5299398   -1.6706904  0.034041853   -2.5299398   0.85924944   439061 
 2206000   0.57171326   -2.5282084   -2.5282084   -1.6706404  0.029107136   -2.5282084   0.85756793   439061 
 2207000   0.57144499   -2.5281045   -2.5281045    -1.670939  0.032855274   -2.5281045   0.85716554   439061 
 2208000   0.57104235   -2.5275581   -2.5275581   -1.6709965  0.034472666   -2.5275581   0.85656158   439061 
 2209000   0.57207818   -2.5293339   -2.5293339   -1.6712186  0.032613916   -2.5293339   0.85811531   439061 
 2210000   0.57170462   -2.5296985   -2.5296985   -1.6721435  0.032064425   -2.5296985   0.85755498   439061 
 2211000   0.57156689   -2.5292165   -2.5292165   -1.6718681  0.032194101   -2.5292165   0.85734838   439061 
 2212000   0.57166502   -2.5287295   -2.5287295    -1.671234   0.02762952   -2.5287295   0.85749557   439061 
 2213000   0.57168888   -2.5290397   -2.5290397   -1.6715083  0.030577316   -2.5290397   0.85753137   439061 
 2214000   0.57217711   -2.5294211   -2.5294211   -1.6711573  0.032225953   -2.5294211   0.85826371   439061 
 2215000   0.57141688   -2.5282585   -2.5282585   -1.6711351  0.033195189   -2.5282585   0.85712337   439061 
 2216000   0.57226797    -2.530172    -2.530172    -1.671772  0.031360345    -2.530172   0.85840001   439061 
 2217000   0.57215246   -2.5297773   -2.5297773   -1.6715506   0.03384544   -2.5297773   0.85822674   439061 
 2218000   0.57086214   -2.5291231   -2.5291231   -1.6728318  0.031403807   -2.5291231   0.85629127   439061 
 2219000    0.5717912   -2.5297536   -2.5297536   -1.6720687  0.035313627   -2.5297536   0.85768484   439061 
 2220000    0.5717818   -2.5311127   -2.5311127   -1.6734419  0.034619779   -2.5311127   0.85767074   439061 
 2221000   0.57134049    -2.531247    -2.531247   -1.6742382   0.03455734    -2.531247   0.85700878   439061 
 2222000   0.57247576   -2.5334341   -2.5334341   -1.6747224  0.034490268   -2.5334341   0.85871168   439061 
 2223000   0.57277919   -2.5337804   -2.5337804   -1.6746135  0.032513041   -2.5337804   0.85916683   439061 
 2224000   0.57183515   -2.5331111   -2.5331111   -1.6753603  0.035220549   -2.5331111   0.85775077   439061 
 2225000   0.57231805   -2.5336841   -2.5336841    -1.675209  0.034851197   -2.5336841   0.85847512   439061 
 2226000   0.57228723   -2.5344933   -2.5344933   -1.6760644   0.03645069   -2.5344933   0.85842889   439061 
 2227000   0.57164952   -2.5339022   -2.5339022   -1.6764299  0.037132032   -2.5339022   0.85747233   439061 
 2228000   0.57145053     -2.53452     -2.53452   -1.6773462  0.037881937     -2.53452   0.85717385   439061 
 2229000   0.57174335   -2.5349879   -2.5349879   -1.6773748  0.030901833   -2.5349879   0.85761307   439061 
 2230000   0.57238647   -2.5358393   -2.5358393   -1.6772615  0.034301213   -2.5358393   0.85857776   439061 
 2231000   0.57170722   -2.5342534   -2.5342534   -1.6766946  0.035384775   -2.5342534   0.85755888   439061 
 2232000   0.57187958   -2.5349799   -2.5349799   -1.6771625  0.032660177   -2.5349799   0.85781741   439061 
 2233000    0.5713336   -2.5347702   -2.5347702   -1.6777718  0.033249453   -2.5347702   0.85699845   439061 
 2234000   0.57191774   -2.5352763   -2.5352763   -1.6774017  0.035530995   -2.5352763   0.85787465   439061 
 2235000    0.5724431   -2.5363025   -2.5363025   -1.6776398  0.032212718   -2.5363025    0.8586627   439061 
 2236000   0.57199668   -2.5364302   -2.5364302   -1.6784371  0.035594539   -2.5364302   0.85799307   439061 
 2237000   0.57110261   -2.5352072   -2.5352072   -1.6785553  0.032046594   -2.5352072   0.85665196   439061 
 2238000   0.57062891   -2.5341837   -2.5341837   -1.6782423  0.029336008   -2.5341837   0.85594141   439061 
 2239000   0.57124487   -2.5346254   -2.5346254     -1.67776  0.030462046   -2.5346254   0.85686536   439061 
 2240000   0.57101723   -2.5346225   -2.5346225   -1.6780986  0.031147486   -2.5346225   0.85652389   439061 
 2241000    0.5714981   -2.5357688   -2.5357688   -1.6785236  0.030313107   -2.5357688   0.85724519   439061 
 2242000   0.57045208   -2.5344445   -2.5344445   -1.6787683  0.030536961   -2.5344445   0.85567617   439061 
 2243000   0.57098377   -2.5346637   -2.5346637     -1.67819  0.029565244   -2.5346637   0.85647371   439061 
 2244000    0.5707789   -2.5346651   -2.5346651   -1.6784987  0.030518307   -2.5346651   0.85616641   439061 
 2245000   0.57002666   -2.5336696   -2.5336696   -1.6786316  0.029781245   -2.5336696   0.85503804   439061 
 2246000   0.57021117   -2.5344526   -2.5344526   -1.6791378  0.027182132   -2.5344526    0.8553148   439061 
 2247000   0.57076614   -2.5349927   -2.5349927   -1.6788455  0.028911385   -2.5349927   0.85614726   439061 
 2248000    0.5703091   -2.5347267   -2.5347267    -1.679265  0.032455882   -2.5347267    0.8554617   439061 
 2249000   0.57038618    -2.534945    -2.534945   -1.6793677  0.027708067    -2.534945   0.85557732   439061 
 2250000   0.57119887   -2.5366281   -2.5366281   -1.6798318  0.029188582   -2.5366281   0.85679636   439061 
 2251000    0.5708675   -2.5360085   -2.5360085   -1.6797092  0.033566799   -2.5360085    0.8562993   439061 
 2252000   0.57058761   -2.5366385   -2.5366385   -1.6807591  0.031248118   -2.5366385   0.85587947   439061 
 2253000   0.57056923    -2.537407    -2.537407   -1.6815551  0.031878221    -2.537407   0.85585189   439061 
 2254000   0.57162117   -2.5386246   -2.5386246   -1.6811948  0.031423292   -2.5386246   0.85742981   439061 
 2255000   0.57122257   -2.5382409   -2.5382409    -1.681409    0.0301807   -2.5382409    0.8568319   439061 
 2256000   0.57295704   -2.5400452   -2.5400452   -1.6806116  0.035965021   -2.5400452    0.8594336   439061 
 2257000    0.5715782   -2.5386994   -2.5386994   -1.6813341  0.032430354   -2.5386994   0.85736535   439061 
 2258000   0.57234651   -2.5400941   -2.5400941   -1.6815763  0.033745815   -2.5400941   0.85851782   439061 
 2259000   0.57171527   -2.5389042   -2.5389042   -1.6813332  0.035366445   -2.5389042   0.85757095   439061 
 2260000    0.5717415   -2.5399126   -2.5399126   -1.6823023  0.035775022   -2.5399126    0.8576103   439061 
 2261000   0.57191594    -2.540086    -2.540086   -1.6822141  0.033797028    -2.540086   0.85787196   439061 
 2262000   0.57177684   -2.5399216   -2.5399216   -1.6822583  0.036465351   -2.5399216    0.8576633   439061 
 2263000   0.57284024   -2.5413749   -2.5413749   -1.6821165  0.030740783   -2.5413749    0.8592584   439061 
 2264000    0.5713266   -2.5393119   -2.5393119   -1.6823239  0.033251984   -2.5393119   0.85698795   439061 
 2265000   0.57186202   -2.5398588   -2.5398588   -1.6820677  0.030971281   -2.5398588   0.85779108   439061 
 2266000   0.57137608   -2.5393449   -2.5393449   -1.6822827  0.032604446   -2.5393449   0.85706217   439061 
 2267000   0.57073343   -2.5381706   -2.5381706   -1.6820724  0.030663892   -2.5381706    0.8560982   439061 
 2268000   0.57165016   -2.5397213   -2.5397213    -1.682248  0.030170498   -2.5397213   0.85747328   439061 
 2269000   0.56975882   -2.5373074   -2.5373074   -1.6826711  0.031781939   -2.5373074   0.85463628   439061 
 2270000   0.57016178   -2.5378614   -2.5378614   -1.6826207  0.029941153   -2.5378614   0.85524072   439061 
 2271000   0.57031311   -2.5374023   -2.5374023   -1.6819346  0.031172865   -2.5374023   0.85546772   439061 
 2272000   0.57081022   -2.5387286   -2.5387286   -1.6825153  0.024834431   -2.5387286   0.85621338   439061 
 2273000   0.57003743    -2.537194    -2.537194   -1.6821398   0.02987262    -2.537194    0.8550542   439061 
 2274000   0.57003453   -2.5381095   -2.5381095   -1.6830596  0.025181685   -2.5381095   0.85504984   439061 
 2275000     0.570457   -2.5377081   -2.5377081   -1.6820246  0.029315016   -2.5377081   0.85568355   439061 
 2276000   0.56915023   -2.5371102   -2.5371102   -1.6833868  0.029290327   -2.5371102   0.85372339   439061 
 2277000    0.5704944    -2.538327    -2.538327   -1.6825874  0.031234458    -2.538327   0.85573965   439061 
 2278000   0.57139143   -2.5388607   -2.5388607   -1.6817755  0.029179236   -2.5388607   0.85708519   439061 
 2279000   0.57080166   -2.5391128   -2.5391128   -1.6829122  0.028087775   -2.5391128   0.85620053   439061 
 2280000   0.57060385   -2.5396116   -2.5396116   -1.6837078  0.029183227   -2.5396116   0.85590382   439061 
 2281000   0.57130102   -2.5407471   -2.5407471   -1.6837976  0.029321837   -2.5407471   0.85694958   439061 
 2282000   0.57055399   -2.5402687   -2.5402687   -1.6844396  0.030346632   -2.5402687   0.85582903   439061 
 2283000   0.57065558   -2.5412882   -2.5412882   -1.6853068  0.032803402   -2.5412882   0.85598142   439061 
 2284000   0.57038035   -2.5408748   -2.5408748   -1.6853062  0.034345786   -2.5408748   0.85556858   439061 
 2285000   0.57101875   -2.5414371   -2.5414371    -1.684911  0.038649543   -2.5414371   0.85652617   439061 
 2286000   0.57076451   -2.5415196   -2.5415196   -1.6853748  0.030684681   -2.5415196   0.85614481   439061 
 2287000   0.57087787   -2.5416788   -2.5416788    -1.685364  0.033380589   -2.5416788   0.85631485   439061 
 2288000    0.5707251   -2.5423014   -2.5423014   -1.6862157  0.030407766   -2.5423014   0.85608571   439061 
 2289000   0.57023388   -2.5422294   -2.5422294   -1.6868805  0.035559268   -2.5422294   0.85534887   439061 
 2290000   0.57035054   -2.5424432   -2.5424432   -1.6869193  0.031695264   -2.5424432   0.85552386   439061 
 2291000   0.57023866   -2.5429307   -2.5429307   -1.6875746  0.031838089   -2.5429307   0.85535604   439061 
 2292000   0.56983571   -2.5429912   -2.5429912   -1.6882396  0.028494198   -2.5429912   0.85475162   439061 
 2293000    0.5699979   -2.5424781   -2.5424781   -1.6874833  0.033054013   -2.5424781    0.8549949   439061 
 2294000   0.57103891   -2.5436269   -2.5436269   -1.6870705  0.035969674   -2.5436269   0.85655642   439061 
 2295000   0.57090664   -2.5432791   -2.5432791   -1.6869211  0.035499736   -2.5432791   0.85635801   439061 
 2296000   0.57149604   -2.5444764   -2.5444764   -1.6872343   0.03138396   -2.5444764   0.85724211   439061 
 2297000   0.56984647   -2.5424597   -2.5424597   -1.6876919  0.030412297   -2.5424597   0.85476776   439061 
 2298000   0.56987612   -2.5428599   -2.5428599   -1.6880477  0.031855765   -2.5428599   0.85481223   439061 
 2299000   0.57123953   -2.5438249   -2.5438249   -1.6869676  0.030313757   -2.5438249   0.85685734   439061 
 2300000   0.57080803   -2.5430919   -2.5430919   -1.6868818  0.031627813   -2.5430919    0.8562101   439061 
 2301000   0.57012604   -2.5417228   -2.5417228   -1.6865357  0.031354288   -2.5417228   0.85518711   439061 
 2302000     0.569842   -2.5414392   -2.5414392   -1.6866781  0.032189299   -2.5414392   0.85476106   439061 
 2303000   0.57001381   -2.5424187   -2.5424187   -1.6873999  0.029791192   -2.5424187   0.85501876   439061 
 2304000   0.56985174   -2.5424053   -2.5424053   -1.6876296  0.033125223   -2.5424053   0.85477567   439061 
 2305000   0.56960944   -2.5430905   -2.5430905   -1.6886782  0.028626576   -2.5430905   0.85441222   439061 
 2306000    0.5699506   -2.5435852   -2.5435852   -1.6886613  0.029628198   -2.5435852   0.85492395   439061 
 2307000   0.56926439   -2.5425844   -2.5425844   -1.6886897  0.030618797   -2.5425844   0.85389463   439061 
 2308000   0.56925179   -2.5428462   -2.5428462   -1.6889705   0.02741259   -2.5428462   0.85387575   439061 
 2309000   0.56937967   -2.5425941   -2.5425941   -1.6885265  0.032165075   -2.5425941   0.85406757   439061 
 2310000   0.56952157   -2.5435028   -2.5435028   -1.6892223  0.035131762   -2.5435028   0.85428041   439061 
 2311000   0.57084892   -2.5446185   -2.5446185   -1.6883471   0.03248785   -2.5446185   0.85627143   439061 
 2312000   0.57100971   -2.5452132   -2.5452132   -1.6887006  0.031307334   -2.5452132   0.85651261   439061 
 2313000   0.57190876   -2.5461488   -2.5461488   -1.6882876  0.035596224   -2.5461488   0.85786119   439061 
 2314000   0.57120424   -2.5451147   -2.5451147   -1.6883103  0.037596241   -2.5451147   0.85680441   439061 
 2315000   0.57122483   -2.5458757   -2.5458757   -1.6890404  0.033453712   -2.5458757    0.8568353   439061 
 2316000   0.57118117   -2.5453234   -2.5453234   -1.6885536  0.032543239   -2.5453234    0.8567698   439061 
 2317000   0.57131474   -2.5463067   -2.5463067   -1.6893365  0.032416416   -2.5463067   0.85697016   439061 
 2318000   0.56994687   -2.5445184   -2.5445184   -1.6896001  0.034035902   -2.5445184   0.85491836   439061 
 2319000   0.57096905    -2.545666    -2.545666   -1.6892144   0.03339507    -2.545666   0.85645162   439061 
 2320000   0.57175227   -2.5469774   -2.5469774    -1.689351   0.02897503   -2.5469774   0.85762646   439061 
 2321000   0.57109162    -2.546033    -2.546033   -1.6893975  0.030813281    -2.546033   0.85663548   439061 
 2322000   0.57031333   -2.5443291   -2.5443291   -1.6888611  0.030510185   -2.5443291   0.85546804   439061 
 2323000   0.57010516   -2.5448417   -2.5448417   -1.6896859  0.031110819   -2.5448417    0.8551558   439061 
 2324000   0.56898858   -2.5433835   -2.5433835   -1.6899025  0.028709472   -2.5433835   0.85348093   439061 
 2325000   0.56974884   -2.5458814   -2.5458814   -1.6912601  0.026632646   -2.5458814   0.85462131   439061 
 2326000   0.56891418   -2.5446381   -2.5446381   -1.6912688   0.02706277   -2.5446381   0.85336933   439061 
 2327000   0.56835082   -2.5441819   -2.5441819   -1.6916576  0.031286586   -2.5441819   0.85252429   439061 
 2328000   0.56872162   -2.5440088   -2.5440088   -1.6909283    0.0292197   -2.5440088   0.85308048   439061 
 2329000    0.5686606   -2.5440371   -2.5440371   -1.6910481  0.031928971   -2.5440371   0.85298896   439061 
 2330000   0.56924674   -2.5449824   -2.5449824   -1.6911143  0.027465829   -2.5449824   0.85386816   439061 
 2331000   0.56916912   -2.5450528   -2.5450528   -1.6913011  0.025219454   -2.5450528   0.85375173   439061 
 2332000   0.56921883   -2.5448193   -2.5448193    -1.690993   0.02855258   -2.5448193    0.8538263   439061 
 2333000   0.56939984   -2.5456962   -2.5456962   -1.6915984  0.029815568   -2.5456962   0.85409781   439061 
 2334000   0.56977591   -2.5459802   -2.5459802   -1.6913183  0.029329153   -2.5459802   0.85466192   439061 
 2335000   0.57082618   -2.5478373   -2.5478373      -1.6916  0.029007074   -2.5478373   0.85623731   439061 
 2336000    0.5707566   -2.5473917   -2.5473917   -1.6912587  0.036442443   -2.5473917   0.85613296   439061 
 2337000   0.56945765   -2.5468411   -2.5468411   -1.6926566  0.033948964   -2.5468411   0.85418453   439061 
 2338000   0.57009071    -2.547968    -2.547968   -1.6928339  0.029194305    -2.547968   0.85513412   439061 
 2339000    0.5700439   -2.5482232   -2.5482232   -1.6931592  0.030510081   -2.5482232   0.85506391   439061 
 2340000   0.56992496   -2.5481698   -2.5481698   -1.6932843  0.033174501   -2.5481698   0.85488549   439061 
 2341000    0.5700119   -2.5488611   -2.5488611   -1.6938452  0.029064328   -2.5488611    0.8550159   439061 
 2342000   0.56982995   -2.5490627   -2.5490627   -1.6943197   0.03175437   -2.5490627   0.85474298   439061 
 2343000   0.57017094   -2.5488976   -2.5488976   -1.6936431  0.031737969   -2.5488976   0.85525446   439061 
 2344000   0.56885789   -2.5478654   -2.5478654   -1.6945805   0.03396494   -2.5478654   0.85328489   439061 
 2345000   0.57032655   -2.5500226   -2.5500226   -1.6945347  0.033357642   -2.5500226   0.85548787   439061 
 2346000   0.56977693   -2.5490063   -2.5490063   -1.6943428  0.033247926   -2.5490063   0.85466345   439061 
 2347000   0.57000774   -2.5494633   -2.5494633   -1.6944536  0.031132091   -2.5494633   0.85500966   439061 
 2348000   0.57003429   -2.5505594   -2.5505594     -1.69551  0.029364254   -2.5505594   0.85504949   439061 
 2349000   0.57034329   -2.5504771   -2.5504771   -1.6949641  0.033515589   -2.5504771   0.85551298   439061 
 2350000   0.56995409   -2.5495986   -2.5495986   -1.6946694  0.034123606   -2.5495986   0.85492919   439061 
 2351000   0.56974306   -2.5502152   -2.5502152   -1.6956025  0.030876196   -2.5502152   0.85461265   439061 
 2352000   0.56897063    -2.548809    -2.548809    -1.695355  0.033875317    -2.548809     0.853454   439061 
 2353000   0.56940319    -2.549361    -2.549361   -1.6952582   0.02881679    -2.549361   0.85410284   439061 
 2354000   0.57029694   -2.5493486   -2.5493486   -1.6939051    0.0318033   -2.5493486   0.85544346   439061 
 2355000    0.5693272   -2.5489448   -2.5489448    -1.694956  0.030346758   -2.5489448   0.85398886   439061 
 2356000   0.57039116    -2.549907    -2.549907   -1.6943222  0.033369863    -2.549907   0.85558479   439061 
 2357000   0.56946662   -2.5497318   -2.5497318   -1.6955338  0.029003027   -2.5497318   0.85419799   439061 
 2358000   0.57062332   -2.5513128   -2.5513128   -1.6953798  0.027756372   -2.5513128   0.85593303   439061 
 2359000   0.56950862   -2.5488921   -2.5488921   -1.6946311  0.032156229   -2.5488921   0.85426098   439061 
 2360000   0.56964191   -2.5485834   -2.5485834   -1.6941225  0.032941872   -2.5485834   0.85446091   439061 
 2361000   0.57016799   -2.5490683   -2.5490683   -1.6938182  0.029749854   -2.5490683   0.85525004   439061 
 2362000   0.56988777   -2.5479624   -2.5479624   -1.6931327  0.033370253   -2.5479624   0.85482971   439061 
 2363000   0.56923417   -2.5467692   -2.5467692   -1.6929199  0.033591891   -2.5467692   0.85384931   439061 
 2364000   0.56981338   -2.5487863   -2.5487863   -1.6940682    0.0319458   -2.5487863   0.85471813   439061 
 2365000   0.56972225   -2.5492814   -2.5492814      -1.6947  0.027773839   -2.5492814   0.85458142   439061 
 2366000   0.56916688   -2.5487701   -2.5487701   -1.6950217  0.025869068   -2.5487701   0.85374838   439061 
 2367000   0.56940362   -2.5491036   -2.5491036   -1.6950001  0.028322863   -2.5491036   0.85410348   439061 
 2368000   0.56964769   -2.5489437   -2.5489437   -1.6944742  0.030023839   -2.5489437   0.85446959   439061 
 2369000   0.56814966   -2.5466909   -2.5466909   -1.6944683   0.03443881   -2.5466909   0.85222255   439061 
 2370000    0.5693946   -2.5487515   -2.5487515   -1.6946615  0.026314749   -2.5487515   0.85408996   439061 
 2371000   0.56934925   -2.5486375   -2.5486375   -1.6946156  0.031495074   -2.5486375   0.85402193   439061 
 2372000   0.56949627   -2.5502617   -2.5502617   -1.6960192  0.030131582   -2.5502617   0.85424247   439061 
 2373000   0.57020174   -2.5511386   -2.5511386   -1.6958379  0.029326062   -2.5511386   0.85530067   439061 
 2374000   0.56957625   -2.5506711   -2.5506711   -1.6963087  0.031156107   -2.5506711   0.85436243   439061 
 2375000   0.56985175   -2.5512397   -2.5512397   -1.6964641  0.029757361   -2.5512397   0.85477568   439061 
 2376000   0.57083344   -2.5524316   -2.5524316   -1.6961834  0.027115159   -2.5524316   0.85624822   439061 
 2377000   0.57014514   -2.5512748   -2.5512748    -1.696059   0.03333464   -2.5512748   0.85521576   439061 
 2378000   0.57082058   -2.5530137   -2.5530137   -1.6967848  0.029510446   -2.5530137   0.85622892   439061 
 2379000    0.5687234   -2.5505312   -2.5505312    -1.697448  0.031618482   -2.5505312   0.85308316   439061 
 2380000   0.56954872   -2.5522885   -2.5522885   -1.6979674  0.032903819   -2.5522885   0.85432114   439061 
 2381000   0.56991927   -2.5532945   -2.5532945   -1.6984175  0.031838893   -2.5532945   0.85487695   439061 
 2382000   0.56943511   -2.5526819   -2.5526819   -1.6985312  0.029738975   -2.5526819   0.85415073   439061 
 2383000   0.56930972    -2.552449    -2.552449   -1.6984863  0.031538691    -2.552449   0.85396263   439061 
 2384000   0.56910918   -2.5534584   -2.5534584   -1.6997966  0.029530154   -2.5534584   0.85366182   439061 
 2385000   0.56893546   -2.5536853   -2.5536853    -1.700284  0.028154432   -2.5536853   0.85340125   439061 
 2386000   0.56950403   -2.5535997   -2.5535997   -1.6993456   0.03180627   -2.5535997    0.8542541   439061 
 2387000   0.56995677   -2.5543337   -2.5543337   -1.6994005  0.029950206   -2.5543337    0.8549332   439061 
 2388000   0.56999589   -2.5546031   -2.5546031   -1.6996112  0.026928194   -2.5546031   0.85499188   439061 
 2389000   0.56907096   -2.5537706   -2.5537706   -1.7001661  0.027208131   -2.5537706   0.85360449   439061 
 2390000   0.57058377   -2.5549239   -2.5549239   -1.6990502  0.032290014   -2.5549239   0.85587371   439061 
 2391000   0.56977354   -2.5544348   -2.5544348   -1.6997764  0.033170051   -2.5544348   0.85465837   439061 
 2392000   0.56913753   -2.5547302   -2.5547302   -1.7010259  0.031392153   -2.5547302   0.85370435   439061 
 2393000   0.56903109   -2.5543725   -2.5543725   -1.7008278  0.031715288   -2.5543725   0.85354469   439061 
 2394000   0.56932421    -2.554223    -2.554223   -1.7002386  0.031178697    -2.554223   0.85398437   439061 
 2395000   0.56967844   -2.5547641   -2.5547641   -1.7002484  0.031872129   -2.5547641   0.85451571   439061 
 2396000   0.57016416   -2.5548561   -2.5548561   -1.6996118  0.030680026   -2.5548561   0.85524429   439061 
 2397000   0.57090945   -2.5558966   -2.5558966   -1.6995344  0.032131824   -2.5558966   0.85636222   439061 
 2398000   0.56985203   -2.5547488   -2.5547488   -1.6999727  0.030063877   -2.5547488   0.85477611   439061 
 2399000   0.56945368    -2.554589    -2.554589   -1.7004105  0.030592755    -2.554589   0.85417857   439061 
 2400000   0.56943881   -2.5544675   -2.5544675   -1.7003113  0.032040546   -2.5544675   0.85415627   439061 
 2401000    0.5691631   -2.5548707   -2.5548707   -1.7011279  0.031178424   -2.5548707   0.85374271   439061 
 2402000   0.56909126    -2.554866    -2.554866   -1.7012311  0.030392175    -2.554866   0.85363494   439061 
 2403000   0.56914862   -2.5546202   -2.5546202   -1.7008993  0.030303067   -2.5546202   0.85372099   439061 
 2404000   0.56901988   -2.5546185   -2.5546185   -1.7010906  0.029606591   -2.5546185   0.85352787   439061 
 2405000   0.56864045   -2.5533112   -2.5533112   -1.7003525  0.033162909   -2.5533112   0.85295873   439061 
 2406000   0.56971527   -2.5544211   -2.5544211   -1.6998501  0.032071271   -2.5544211   0.85457096   439061 
 2407000   0.56895983   -2.5540719   -2.5540719   -1.7006341  0.033779433   -2.5540719   0.85343781   439061 
 2408000   0.56918091   -2.5548518   -2.5548518   -1.7010823    0.0294511   -2.5548518   0.85376942   439061 
 2409000   0.56824951   -2.5550117   -2.5550117   -1.7026394  0.027573619   -2.5550117   0.85237232   439061 
 2410000     0.568493   -2.5549555   -2.5549555    -1.702218   0.02972772   -2.5549555   0.85273755   439061 
 2411000     0.567756   -2.5542038   -2.5542038   -1.7025717   0.02741188   -2.5542038   0.85163206   439061 
 2412000   0.56907453   -2.5561024   -2.5561024   -1.7024925  0.028730811   -2.5561024   0.85360985   439061 
 2413000   0.56877362   -2.5565916   -2.5565916   -1.7034331  0.026620475   -2.5565916   0.85315849   439061 
 2414000   0.56867188   -2.5562703   -2.5562703   -1.7032644  0.027871239   -2.5562703   0.85300588   439061 
 2415000   0.56846315   -2.5564271   -2.5564271   -1.7037343   0.02690166   -2.5564271   0.85269279   439061 
 2416000   0.56981657   -2.5580925   -2.5580925   -1.7033696  0.032172867   -2.5580925   0.85472291   439061 
 2417000   0.56915382   -2.5563741   -2.5563741   -1.7026453   0.03352589   -2.5563741   0.85372879   439061 
 2418000   0.56957716   -2.5576068   -2.5576068    -1.703243  0.031395754   -2.5576068    0.8543638   439061 
 2419000   0.56928147   -2.5575885   -2.5575885   -1.7036682  0.033594229   -2.5575885   0.85392027   439061 
 2420000   0.56933148   -2.5568439   -2.5568439   -1.7028486   0.03654989   -2.5568439   0.85399527   439061 
 2421000   0.56998586   -2.5586111   -2.5586111   -1.7036343  0.032410289   -2.5586111   0.85497684   439061 
 2422000   0.56936374   -2.5580916   -2.5580916   -1.7040479  0.032877958   -2.5580916   0.85404367   439061 
 2423000   0.56905283   -2.5587745   -2.5587745   -1.7051972   0.03009501   -2.5587745    0.8535773   439061 
 2424000    0.5690201    -2.558163    -2.558163   -1.7046348  0.030298196    -2.558163   0.85352821   439061 
 2425000   0.56885943   -2.5579824   -2.5579824   -1.7046952  0.033988355   -2.5579824    0.8532872   439061 
 2426000   0.56823308   -2.5573389   -2.5573389   -1.7049912  0.029997372   -2.5573389   0.85234767   439061 
 2427000   0.56940165   -2.5583832   -2.5583832   -1.7042827  0.032154845   -2.5583832   0.85410053   439061 
 2428000   0.56996458    -2.560138    -2.560138   -1.7051931  0.029108065    -2.560138   0.85494493   439061 
 2429000    0.5696409   -2.5591787   -2.5591787   -1.7047193  0.029372428   -2.5591787   0.85445941   439061 
 2430000   0.56965597   -2.5595604   -2.5595604   -1.7050784  0.030172455   -2.5595604   0.85448201   439061 
 2431000   0.56817502   -2.5582973   -2.5582973   -1.7060367  0.032167575   -2.5582973   0.85226059   439061 
 2432000   0.56982578   -2.5592263   -2.5592263   -1.7044896   0.03001042   -2.5592263   0.85473672   439061 
 2433000   0.56836026   -2.5574812   -2.5574812   -1.7049428  0.036684919   -2.5574812   0.85253845   439061 
 2434000   0.56996064   -2.5591831   -2.5591831   -1.7042441  0.033689739   -2.5591831   0.85493902   439061 
 2435000   0.56972044   -2.5601788   -2.5601788   -1.7056001  0.028715727   -2.5601788   0.85457872   439061 
 2436000   0.56884111   -2.5592404   -2.5592404   -1.7059807  0.028779963   -2.5592404   0.85325972   439061 
 2437000   0.56826677   -2.5586359   -2.5586359   -1.7062377  0.031506018   -2.5586359   0.85239821   439061 
 2438000   0.56861934   -2.5600137   -2.5600137   -1.7070866  0.027947477   -2.5600137   0.85292707   439061 
 2439000   0.56941205   -2.5601515   -2.5601515   -1.7060354  0.025161454   -2.5601515   0.85411612   439061 
 2440000   0.56877368   -2.5595251   -2.5595251   -1.7063666  0.027854131   -2.5595251   0.85315858   439061 
 2441000   0.56902325    -2.559268    -2.559268   -1.7057351  0.030530764    -2.559268   0.85353293   439061 
 2442000   0.56868367   -2.5599987   -2.5599987   -1.7069751   0.02926038   -2.5599987   0.85302356   439061 
 2443000   0.56847467   -2.5601326   -2.5601326   -1.7074225   0.03255635   -2.5601326   0.85271007   439061 
 2444000   0.56908195   -2.5607001   -2.5607001   -1.7070791  0.027615809   -2.5607001   0.85362099   439061 
 2445000   0.56840694   -2.5605192   -2.5605192   -1.7079107  0.031179507   -2.5605192   0.85260846   439061 
 2446000   0.56780571   -2.5598265   -2.5598265   -1.7081199  0.029529593   -2.5598265   0.85170662   439061 
 2447000   0.56819092   -2.5610544   -2.5610544     -1.70877  0.030145631   -2.5610544   0.85228444   439061 
 2448000   0.56846999    -2.560793    -2.560793     -1.70809  0.033768993    -2.560793   0.85270304   439061 
 2449000   0.56885229   -2.5618909   -2.5618909   -1.7086144  0.029991437   -2.5618909    0.8532765   439061 
 2450000   0.56788384   -2.5607653   -2.5607653   -1.7089415  0.033787241   -2.5607653   0.85182382   439061 
 2451000   0.56839709   -2.5615477   -2.5615477    -1.708954  0.030627391   -2.5615477   0.85259369   439061 
 2452000   0.56916437   -2.5624254   -2.5624254   -1.7086808  0.030828889   -2.5624254   0.85374461   439061 
 2453000   0.56889869   -2.5625442   -2.5625442   -1.7091981  0.030478164   -2.5625442   0.85334609   439061 
 2454000   0.56906767   -2.5647157   -2.5647157   -1.7111162  0.027886584   -2.5647157   0.85359957   439061 
 2455000   0.56877038   -2.5637403   -2.5637403   -1.7105867  0.029741355   -2.5637403   0.85315363   439061 
 2456000   0.56881825   -2.5640217   -2.5640217   -1.7107963  0.027987147   -2.5640217   0.85322543   439061 
 2457000   0.56849011   -2.5635906   -2.5635906   -1.7108574  0.032238295   -2.5635906   0.85273322   439061 
 2458000   0.56837059   -2.5640868   -2.5640868   -1.7115328  0.029571048   -2.5640868   0.85255394   439061 
 2459000   0.56917841   -2.5646123   -2.5646123   -1.7108467  0.029660319   -2.5646123   0.85376567   439061 
 2460000   0.56785215   -2.5633379   -2.5633379   -1.7115617  0.030908019   -2.5633379   0.85177629   439061 
 2461000   0.56788019   -2.5634835   -2.5634835   -1.7116651  0.030461111   -2.5634835   0.85181835   439061 
 2462000   0.56785432   -2.5636815   -2.5636815   -1.7119019  0.026478905   -2.5636815   0.85177954   439061 
 2463000   0.56777215   -2.5635223   -2.5635223    -1.711866  0.031584716   -2.5635223   0.85165629   439061 
 2464000   0.56774211   -2.5626863   -2.5626863   -1.7110751  0.028378433   -2.5626863   0.85161122   439061 
 2465000   0.56738954   -2.5616596   -2.5616596   -1.7105772  0.031612111   -2.5616596   0.85108237   439061 
 2466000   0.56859337   -2.5637665   -2.5637665   -1.7108784   0.02668982   -2.5637665   0.85288811   439061 
 2467000   0.56822836   -2.5634758   -2.5634758   -1.7111351  0.030956307   -2.5634758    0.8523406   439061 
 2468000    0.5682408    -2.564069    -2.564069   -1.7117097  0.027529277    -2.564069   0.85235926   439061 
 2469000   0.56749798   -2.5631606   -2.5631606   -1.7119156   0.02724929   -2.5631606   0.85124503   439061 
 2470000   0.56824362   -2.5649525   -2.5649525   -1.7125891  0.027497733   -2.5649525   0.85236348   439061 
 2471000   0.56745739   -2.5631424   -2.5631424   -1.7119583  0.034322387   -2.5631424   0.85118414   439061 
 2472000   0.56746933   -2.5626783   -2.5626783   -1.7114762  0.029536737   -2.5626783   0.85120205   439061 
 2473000   0.56835951   -2.5636667   -2.5636667   -1.7111293  0.030350011   -2.5636667   0.85253733   439061 
 2474000   0.56838542     -2.56345     -2.56345   -1.7108738   0.03302536     -2.56345   0.85257619   439061 
 2475000   0.56841932   -2.5649142   -2.5649142   -1.7122872  0.027498847   -2.5649142   0.85262704   439061 
 2476000   0.56758274   -2.5641907   -2.5641907   -1.7128185  0.028088386   -2.5641907   0.85137217   439061 
 2477000   0.56770462   -2.5645446   -2.5645446   -1.7129896   0.02886667   -2.5645446   0.85155499   439061 
 2478000   0.56757863    -2.564555    -2.564555    -1.713189  0.025088722    -2.564555   0.85136601   439061 
 2479000   0.56655717   -2.5628212   -2.5628212   -1.7129874  0.032284355   -2.5628212   0.84983382   439061 
 2480000   0.56773681   -2.5636579   -2.5636579   -1.7120546  0.027141225   -2.5636579   0.85160328   439061 
 2481000   0.56788795   -2.5644758   -2.5644758   -1.7126458  0.028704696   -2.5644758   0.85182998   439061 
 2482000   0.56761875   -2.5639426   -2.5639426   -1.7125164  0.032562959   -2.5639426   0.85142619   439061 
 2483000   0.56814934   -2.5648283   -2.5648283   -1.7126062  0.031445544   -2.5648283   0.85222207   439061 
 2484000   0.56921343   -2.5662087   -2.5662087   -1.7123905  0.029489826   -2.5662087    0.8538182   439061 
 2485000   0.56810017   -2.5659297   -2.5659297   -1.7137814  0.030971327   -2.5659297   0.85214832   439061 
 2486000   0.56766675   -2.5653197   -2.5653197   -1.7138215  0.031666486   -2.5653197   0.85149818   439061 
 2487000   0.56842001   -2.5666901   -2.5666901    -1.714062  0.031622671   -2.5666901   0.85262807   439061 
 2488000   0.56839981   -2.5665297   -2.5665297    -1.713932  0.032210151   -2.5665297   0.85259778   439061 
 2489000    0.5673695   -2.5661917   -2.5661917   -1.7151394  0.029739024   -2.5661917   0.85105231   439061 
 2490000   0.56759064   -2.5669396   -2.5669396   -1.7155556  0.028213495   -2.5669396   0.85138403   439061 
 2491000   0.56719864   -2.5666121   -2.5666121    -1.715816  0.029053819   -2.5666121   0.85079603   439061 
 2492000   0.56738573   -2.5662314   -2.5662314   -1.7151547  0.032590719   -2.5662314   0.85107666   439061 
 2493000   0.56785192   -2.5673544   -2.5673544   -1.7155784  0.028123124   -2.5673544   0.85177593   439061 
 2494000   0.56786103   -2.5682186   -2.5682186    -1.716429  0.028646281   -2.5682186   0.85178961   439061 
 2495000   0.56858068   -2.5688642   -2.5688642   -1.7159951  0.030652574   -2.5688642   0.85286908   439061 
 2496000   0.56865589   -2.5691659   -2.5691659    -1.716184  0.029084246   -2.5691659   0.85298189   439061 
 2497000   0.56843378    -2.569234    -2.569234   -1.7165853  0.029242619    -2.569234   0.85264874   439061 
 2498000   0.56768495   -2.5681566   -2.5681566   -1.7166311  0.028349053   -2.5681566   0.85152549   439061 
 2499000   0.56692982   -2.5679863   -2.5679863   -1.7175935  0.027744274   -2.5679863   0.85039279   439061 
 2500000   0.56855031   -2.5698431   -2.5698431   -1.7170196  0.027646931   -2.5698431   0.85282352   439061 
 2501000   0.56636924   -2.5672455   -2.5672455   -1.7176936  0.029634075   -2.5672455   0.84955193   439061 
 2502000   0.56697931   -2.5685066   -2.5685066   -1.7180396  0.023497138   -2.5685066   0.85046703   439061 
 2503000   0.56641006   -2.5681683   -2.5681683   -1.7185551  0.025944262   -2.5681683   0.84961315   439061 
 2504000   0.56744886   -2.5692102   -2.5692102   -1.7180388  0.030485018   -2.5692102   0.85117135   439061 
 2505000   0.56704101   -2.5689094   -2.5689094   -1.7183498   0.02825812   -2.5689094   0.85055957   439061 
 2506000   0.56689971   -2.5689704   -2.5689704   -1.7186228  0.029006535   -2.5689704   0.85034763   439061 
 2507000   0.56722282   -2.5684812   -2.5684812   -1.7176489   0.03251984   -2.5684812   0.85083229   439061 
 2508000   0.56797112   -2.5698744   -2.5698744   -1.7179196  0.029544296   -2.5698744   0.85195473   439061 
 2509000   0.56778201   -2.5693326   -2.5693326   -1.7176616  0.027649543   -2.5693326   0.85167108   439061 
 2510000   0.56747223   -2.5691022   -2.5691022   -1.7178958    0.0293489   -2.5691022   0.85120641   439061 
 2511000   0.56796336   -2.5703979   -2.5703979   -1.7184548  0.029558521   -2.5703979    0.8519431   439061 
 2512000   0.56853963   -2.5712224   -2.5712224   -1.7184149  0.027838709   -2.5712224    0.8528075   439061 
 2513000   0.56705409   -2.5694836   -2.5694836   -1.7189045  0.030355311   -2.5694836   0.85057919   439061 
 2514000   0.56628721   -2.5689902   -2.5689902   -1.7195613  0.035487058   -2.5689902   0.84942888   439061 
 2515000   0.56727061   -2.5707816   -2.5707816   -1.7198776  0.029695673   -2.5707816   0.85090397   439061 
 2516000   0.56727464   -2.5703606   -2.5703606   -1.7194506  0.031330596   -2.5703606   0.85091002   439061 
 2517000   0.56816129    -2.571839    -2.571839    -1.719599  0.030263112    -2.571839   0.85223999   439061 
 2518000   0.56812952   -2.5717567   -2.5717567   -1.7195644  0.031038604   -2.5717567   0.85219233   439061 
 2519000   0.56806091   -2.5715953   -2.5715953   -1.7195059  0.032032656   -2.5715953   0.85208943   439061 
 2520000   0.56722387   -2.5704662   -2.5704662   -1.7196324  0.034746188   -2.5704662   0.85083386   439061 
 2521000   0.56875916   -2.5723792   -2.5723792   -1.7192424  0.032986111   -2.5723792   0.85313679   439061 
 2522000   0.56764454   -2.5713112   -2.5713112   -1.7198463  0.033453428   -2.5713112   0.85146488   439061 
 2523000   0.56794429   -2.5719884   -2.5719884   -1.7200739  0.032181279   -2.5719884   0.85191449   439061 
 2524000    0.5678731   -2.5714711   -2.5714711   -1.7196634  0.028846595   -2.5714711    0.8518077   439061 
 2525000   0.56654925   -2.5701164   -2.5701164   -1.7202944   0.03071697   -2.5701164   0.84982195   439061 
 2526000   0.56659428   -2.5700149   -2.5700149   -1.7201254  0.028123827   -2.5700149   0.84988948   439061 
 2527000   0.56730232   -2.5715378   -2.5715378   -1.7205863  0.029049201   -2.5715378   0.85095155   439061 
 2528000   0.56712506   -2.5707443   -2.5707443   -1.7200586  0.029334818   -2.5707443   0.85068565   439061 
 2529000   0.56763667   -2.5707855   -2.5707855   -1.7193324   0.02881664   -2.5707855   0.85145306   439061 
 2530000   0.56798693   -2.5704425   -2.5704425    -1.718464  0.032344949   -2.5704425   0.85197846   439061 
 2531000   0.56703263   -2.5701983   -2.5701983   -1.7196513  0.027901986   -2.5701983   0.85054701   439061 
 2532000   0.56610771   -2.5681078   -2.5681078   -1.7189481  0.029937819   -2.5681078   0.84915963   439061 
 2533000   0.56781164   -2.5704539   -2.5704539   -1.7187384  0.029233216   -2.5704539   0.85171551   439061 
 2534000   0.56681651   -2.5687507   -2.5687507   -1.7185279  0.029634275   -2.5687507   0.85022283   439061 
 2535000   0.56749191    -2.570818    -2.570818   -1.7195821  0.029573051    -2.570818   0.85123592   439061 
 2536000   0.56664137   -2.5695806   -2.5695806   -1.7196204  0.027893123   -2.5695806   0.84996012   439061 
 2537000   0.56683473   -2.5713729   -2.5713729   -1.7211227  0.023496574   -2.5713729   0.85025015   439061 
 2538000   0.56624349   -2.5695208   -2.5695208   -1.7201575  0.025028748   -2.5695208    0.8493633   439061 
 2539000   0.56624274   -2.5695578   -2.5695578   -1.7201957  0.027861742   -2.5695578   0.84936218   439061 
 2540000   0.56662435   -2.5701006   -2.5701006   -1.7201661  0.029330669   -2.5701006   0.84993459   439061 
 2541000   0.56766875   -2.5714609   -2.5714609   -1.7199598  0.026805552   -2.5714609   0.85150118   439061 
 2542000   0.56714557   -2.5709167   -2.5709167   -1.7202003  0.028364733   -2.5709167   0.85071642   439061 
 2543000   0.56747991   -2.5724175   -2.5724175   -1.7211996  0.027374827   -2.5724175   0.85121792   439061 
 2544000   0.56714803   -2.5709323   -2.5709323   -1.7202122  0.025693498   -2.5709323    0.8507201   439061 
 2545000   0.56858344   -2.5731958   -2.5731958   -1.7203226  0.026919614   -2.5731958   0.85287321   439061 
 2546000   0.56753449   -2.5721527   -2.5721527   -1.7208529  0.027692266   -2.5721527   0.85129979   439061 
 2547000   0.56770633   -2.5730943   -2.5730943   -1.7215367  0.034167119   -2.5730943   0.85155755   439061 
 2548000     0.566765   -2.5723587   -2.5723587   -1.7222131  0.029336654   -2.5723587   0.85014557   439061 
 2549000   0.56701185   -2.5737585   -2.5737585   -1.7232427  0.028132888   -2.5737585   0.85051584   439061 
 2550000   0.56508862   -2.5723201   -2.5723201   -1.7246891  0.030756781   -2.5723201     0.847631   439061 
 2551000   0.56659474   -2.5748275   -2.5748275   -1.7249373  0.030976956   -2.5748275   0.84989017   439061 
 2552000   0.56701113   -2.5746634   -2.5746634   -1.7241486  0.028344263   -2.5746634   0.85051475   439061 
 2553000   0.56692482   -2.5742686   -2.5742686   -1.7238833  0.030825507   -2.5742686   0.85038529   439061 
 2554000   0.56793694   -2.5755341   -2.5755341   -1.7236306  0.029214213   -2.5755341   0.85190347   439061 
 2555000   0.56741549   -2.5731107   -2.5731107   -1.7219894  0.035978771   -2.5731107    0.8511213   439061 
 2556000   0.56848992   -2.5749022   -2.5749022   -1.7221693  0.032311518   -2.5749022   0.85273293   439061 
 2557000   0.56777606   -2.5747333   -2.5747333   -1.7230711  0.035719173   -2.5747333   0.85166215   439061 
 2558000   0.56783637   -2.5741019   -2.5741019   -1.7223493  0.033639724   -2.5741019   0.85175262   439061 
 2559000   0.56785203   -2.5757149   -2.5757149   -1.7239388  0.033202561   -2.5757149    0.8517761   439061 
 2560000   0.56750671   -2.5756913   -2.5756913   -1.7244331  0.028040899   -2.5756913   0.85125813   439061 
 2561000   0.56627462   -2.5750074   -2.5750074   -1.7255974  0.028694622   -2.5750074      0.84941   439061 
 2562000   0.56556744   -2.5729816   -2.5729816   -1.7246324  0.029666322   -2.5729816   0.84834923   439061 
 2563000   0.56606836   -2.5736985   -2.5736985   -1.7245979  0.027095349   -2.5736985    0.8491006   439061 
 2564000   0.56570972   -2.5737463   -2.5737463   -1.7251836  0.028911713   -2.5737463   0.84856265   439061 
 2565000   0.56738592   -2.5761289   -2.5761289    -1.725052  0.028415848   -2.5761289   0.85107694   439061 
 2566000   0.56624473    -2.575141    -2.575141   -1.7257759  0.027522195    -2.575141   0.84936516   439061 
 2567000   0.56732562   -2.5759013   -2.5759013   -1.7249148   0.02608035   -2.5759013   0.85098649   439061 
 2568000   0.56701673   -2.5746557   -2.5746557   -1.7241326  0.029052822   -2.5746557   0.85052316   439061 
 2569000   0.56738111   -2.5747183   -2.5747183   -1.7236485  0.029155978   -2.5747183   0.85106973   439061 
 2570000   0.56593643   -2.5726681   -2.5726681   -1.7237653  0.029569855   -2.5726681   0.84890272   439061 
 2571000   0.56697701   -2.5745213   -2.5745213   -1.7240577  0.026535211   -2.5745213   0.85046357   439061 
 2572000   0.56656646   -2.5742253   -2.5742253   -1.7243775  0.031887085   -2.5742253   0.84984775   439061 
 2573000   0.56698147   -2.5741132   -2.5741132   -1.7236429  0.031610725   -2.5741132   0.85047027   439061 
 2574000   0.56641843   -2.5737234   -2.5737234   -1.7240977  0.026591804   -2.5737234   0.84962572   439061 
 2575000   0.56615079   -2.5735972   -2.5735972   -1.7243729  0.028998606   -2.5735972   0.84922425   439061 
 2576000    0.5667675   -2.5749831   -2.5749831   -1.7248338  0.028552728   -2.5749831   0.85014931   439061 
 2577000   0.56544289   -2.5738553   -2.5738553   -1.7256929  0.027524687   -2.5738553   0.84816241   439061 
 2578000   0.56472493   -2.5732932   -2.5732932   -1.7262078  0.027242307   -2.5732932   0.84708546   439061 
 2579000   0.56594147   -2.5749049   -2.5749049   -1.7259946  0.027168729   -2.5749049   0.84891027   439061 
 2580000   0.56639108   -2.5753074   -2.5753074   -1.7257227  0.028131681   -2.5753074   0.84958468   439061 
 2581000   0.56631418   -2.5755156   -2.5755156   -1.7260463  0.025623395   -2.5755156   0.84946934   439061 
 2582000   0.56599911   -2.5750032   -2.5750032   -1.7260065  0.032602788   -2.5750032   0.84899673   439061 
 2583000   0.56851013   -2.5779714   -2.5779714   -1.7252081  0.027633771   -2.5779714   0.85276326   439061 
 2584000   0.56779391   -2.5773926   -2.5773926   -1.7257036   0.02830054   -2.5773926   0.85168893   439061 
 2585000   0.56755466   -2.5784218   -2.5784218   -1.7270918  0.030267948   -2.5784218   0.85133006   439061 
 2586000   0.56786075   -2.5787795   -2.5787795   -1.7269903  0.031902808   -2.5787795   0.85178918   439061 
 2587000   0.56737387   -2.5781833   -2.5781833   -1.7271245  0.034169441   -2.5781833   0.85105887   439061 
 2588000   0.56782566   -2.5788615   -2.5788615    -1.727125  0.030173873   -2.5788615   0.85173655   439061 
 2589000   0.56706819   -2.5792269   -2.5792269   -1.7286266  0.029909967   -2.5792269   0.85060035   439061 
 2590000   0.56654338   -2.5783439   -2.5783439   -1.7285308  0.030919529   -2.5783439   0.84981314   439061 
 2591000   0.56704786   -2.5793141   -2.5793141   -1.7287443   0.02916359   -2.5793141   0.85056986   439061 
 2592000   0.56605948   -2.5778753   -2.5778753    -1.728788  0.030417619   -2.5778753   0.84908728   439061 
 2593000   0.56691787   -2.5791097   -2.5791097   -1.7287349  0.030687453   -2.5791097   0.85037487   439061 
 2594000    0.5673343   -2.5806181   -2.5806181   -1.7296186  0.033350443   -2.5806181   0.85099951   439061 
 2595000   0.56633205   -2.5795864   -2.5795864   -1.7300902  0.029163144   -2.5795864   0.84949614   439061 
 2596000   0.56691131   -2.5803126   -2.5803126   -1.7299475  0.025611278   -2.5803126   0.85036503   439061 
 2597000   0.56594327   -2.5783329   -2.5783329   -1.7294199  0.031213596   -2.5783329   0.84891297   439061 
 2598000   0.56681179   -2.5795812   -2.5795812   -1.7293654  0.027527839   -2.5795812   0.85021575   439061 
 2599000   0.56496059   -2.5780424   -2.5780424   -1.7306034  0.029460302   -2.5780424   0.84743896   439061 
 2600000   0.56587426   -2.5792779   -2.5792779   -1.7304684  0.026083926   -2.5792779   0.84880946   439061 
 2601000   0.56654537   -2.5791895   -2.5791895   -1.7293734  0.025028641   -2.5791895   0.84981612   439061 
 2602000   0.56599418   -2.5787689   -2.5787689   -1.7297796  0.029086907   -2.5787689   0.84898933   439061 
 2603000   0.56561351   -2.5787578   -2.5787578   -1.7303395  0.028939063   -2.5787578   0.84841833   439061 
 2604000   0.56661249   -2.5796274   -2.5796274   -1.7297106  0.022934958   -2.5796274    0.8499168   439061 
 2605000   0.56601261   -2.5784981   -2.5784981   -1.7294811  0.027994006   -2.5784981   0.84901698   439061 
 2606000    0.5657632   -2.5784377   -2.5784377   -1.7297948  0.028199132   -2.5784377   0.84864287   439061 
 2607000   0.56606233   -2.5787992   -2.5787992   -1.7297077  0.028194211   -2.5787992   0.84909157   439061 
 2608000   0.56541615   -2.5774038   -2.5774038   -1.7292815   0.02808931   -2.5774038   0.84812229   439061 
 2609000   0.56651044   -2.5794345   -2.5794345   -1.7296708  0.030809075   -2.5794345   0.84976372   439061 
 2610000   0.56579809   -2.5796785   -2.5796785   -1.7309833  0.031437924   -2.5796785    0.8486952   439061 
 2611000   0.56545469   -2.5804477   -2.5804477   -1.7322676  0.027081267   -2.5804477    0.8481801   439061 
 2612000   0.56638922   -2.5812552   -2.5812552   -1.7316733  0.023763444   -2.5812552   0.84958189   439061 
 2613000   0.56642288   -2.5807158   -2.5807158   -1.7310834  0.026704686   -2.5807158   0.84963239   439061 
 2614000   0.56597872   -2.5807036   -2.5807036   -1.7317375  0.028174536   -2.5807036   0.84896614   439061 
 2615000   0.56561168   -2.5805473   -2.5805473   -1.7321317  0.029524294   -2.5805473   0.84841559   439061 
 2616000    0.5662184   -2.5827091   -2.5827091   -1.7333834  0.032555266   -2.5827091   0.84932566   439061 
 2617000   0.56574113   -2.5825042   -2.5825042   -1.7338944  0.031715652   -2.5825042   0.84860976   439061 
 2618000   0.56677094   -2.5834583   -2.5834583   -1.7333039  0.030745013   -2.5834583   0.85015447   439061 
 2619000   0.56630021   -2.5831929   -2.5831929   -1.7337445  0.029101165   -2.5831929   0.84944839   439061 
 2620000   0.56600551   -2.5831436   -2.5831436   -1.7341373  0.029249005   -2.5831436   0.84900633   439061 
 2621000   0.56627303   -2.5837156   -2.5837156    -1.734308  0.027133464   -2.5837156   0.84940762   439061 
 2622000   0.56610339   -2.5834528   -2.5834528   -1.7342997   0.03239809   -2.5834528   0.84915315   439061 
 2623000   0.56609897   -2.5832016   -2.5832016   -1.7340551  0.035470053   -2.5832016   0.84914652   439061 
 2624000   0.56645553   -2.5841487   -2.5841487   -1.7344674  0.033122136   -2.5841487   0.84968135   439061 
 2625000   0.56615726   -2.5846608   -2.5846608   -1.7354269  0.027091031   -2.5846608   0.84923396   439061 
 2626000   0.56659054   -2.5850168   -2.5850168   -1.7351329  0.027605156   -2.5850168   0.84988387   439061 
 2627000   0.56641942   -2.5858404   -2.5858404   -1.7362132  0.027205605   -2.5858404   0.84962719   439061 
 2628000   0.56560952   -2.5843278   -2.5843278   -1.7359155  0.032488449   -2.5843278   0.84841234   439061 
 2629000    0.5650511   -2.5833742   -2.5833742   -1.7357995  0.026395188   -2.5833742   0.84757472   439061 
 2630000   0.56473099   -2.5833926   -2.5833926   -1.7362981  0.029002051   -2.5833926   0.84709455   439061 
 2631000   0.56456752   -2.5831714   -2.5831714    -1.736322  0.027173134   -2.5831714   0.84684936   439061 
 2632000   0.56532976   -2.5838683   -2.5838683   -1.7358756  0.025612559   -2.5838683   0.84799271   439061 
 2633000   0.56553769   -2.5838202   -2.5838202   -1.7355156  0.025069946   -2.5838202    0.8483046   439061 
 2634000   0.56593087   -2.5836044   -2.5836044     -1.73471   0.02745725   -2.5836044   0.84889438   439061 
 2635000   0.56626126   -2.5848045   -2.5848045   -1.7354145  0.029220912   -2.5848045   0.84938996   439061 
 2636000   0.56502175   -2.5821598   -2.5821598   -1.7346291  0.030965131   -2.5821598    0.8475307   439061 
 2637000     0.565695   -2.5833312   -2.5833312   -1.7347906  0.026458233   -2.5833312   0.84854057   439061 
 2638000   0.56596542   -2.5837137   -2.5837137   -1.7347675  0.028584204   -2.5837137   0.84894619   439061 
 2639000   0.56565528   -2.5828883   -2.5828883   -1.7344073  0.031821816   -2.5828883   0.84848099   439061 
 2640000   0.56516033    -2.582861    -2.582861   -1.7351224  0.028675584    -2.582861   0.84773856   439061 
 2641000   0.56599174   -2.5838068   -2.5838068   -1.7348212  0.027574445   -2.5838068   0.84898567   439061 
 2642000   0.56641177   -2.5836508   -2.5836508   -1.7340351  0.029222867   -2.5836508   0.84961571   439061 
 2643000   0.56650351   -2.5842964   -2.5842964   -1.7345431  0.031986201   -2.5842964   0.84975334   439061 
 2644000   0.56704783   -2.5846674   -2.5846674   -1.7340976   0.02565456   -2.5846674    0.8505698   439061 
 2645000   0.56563111   -2.5830313   -2.5830313   -1.7345866  0.028640769   -2.5830313   0.84844473   439061 
 2646000   0.56539223    -2.583022    -2.583022   -1.7349355  0.029533977    -2.583022   0.84808641   439061 
 2647000   0.56555504   -2.5833378   -2.5833378   -1.7350072  0.026797403   -2.5833378   0.84833063   439061 
 2648000   0.56566821   -2.5836679   -2.5836679   -1.7351675  0.026358279   -2.5836679   0.84850039   439061 
 2649000    0.5646246   -2.5831686   -2.5831686   -1.7362336  0.027607129   -2.5831686   0.84693497   439061 
 2650000   0.56496019    -2.583333    -2.583333   -1.7358947  0.025327617    -2.583333   0.84743835   439061 
 2651000   0.56474344   -2.5829866   -2.5829866   -1.7358734  0.027783609   -2.5829866   0.84711323   439061 
 2652000   0.56437985   -2.5830075   -2.5830075   -1.7364396  0.026139029   -2.5830075   0.84656785   439061 
 2653000   0.56553858   -2.5842226   -2.5842226   -1.7359166  0.026551315   -2.5842226   0.84830594   439061 
 2654000    0.5660352   -2.5853526   -2.5853526   -1.7363017  0.027287685   -2.5853526   0.84905087   439061 
 2655000   0.56560115   -2.5844123   -2.5844123   -1.7360125  0.028017237   -2.5844123   0.84839979   439061 
 2656000   0.56623192   -2.5849079   -2.5849079   -1.7355619  0.030669505   -2.5849079   0.84934594   439061 
 2657000   0.56643488   -2.5842998   -2.5842998   -1.7346494  0.029610323   -2.5842998   0.84965039   439061 
 2658000   0.56599644   -2.5844974   -2.5844974   -1.7355047   0.03005095   -2.5844974   0.84899272   439061 
 2659000   0.56633854   -2.5855781   -2.5855781   -1.7360723   0.02857683   -2.5855781   0.84950587   439061 
 2660000   0.56472616   -2.5841183   -2.5841183    -1.737031  0.028331751   -2.5841183   0.84708731   439061 
 2661000   0.56529513   -2.5857528   -2.5857528    -1.737812   0.02670194   -2.5857528   0.84794077   439061 
 2662000   0.56549504   -2.5869818   -2.5869818   -1.7387412  0.027416784   -2.5869818   0.84824063   439061 
 2663000   0.56500497    -2.586177    -2.586177   -1.7386715  0.028058279    -2.586177   0.84750552   439061 
 2664000   0.56517014   -2.5866777   -2.5866777   -1.7389244  0.028880543   -2.5866777   0.84775328   439061 
 2665000   0.56479708   -2.5858529   -2.5858529   -1.7386592  0.033373089   -2.5858529   0.84719369   439061 
 2666000   0.56448022   -2.5851804   -2.5851804    -1.738462  0.030182677   -2.5851804    0.8467184   439061 
 2667000   0.56557388   -2.5870874   -2.5870874   -1.7387285   0.02716502   -2.5870874   0.84835888   439061 
 2668000   0.56538603     -2.58676     -2.58676   -1.7386829  0.030835089     -2.58676   0.84807712   439061 
 2669000   0.56598672   -2.5873484   -2.5873484   -1.7383702  0.028008015   -2.5873484   0.84897815   439061 
 2670000   0.56560678    -2.586669    -2.586669   -1.7382608  0.029280821    -2.586669   0.84840824   439061 
 2671000   0.56655287   -2.5882417   -2.5882417   -1.7384143  0.027797689   -2.5882417   0.84982736   439061 
 2672000   0.56592093   -2.5866005   -2.5866005    -1.737721  0.031325869   -2.5866005   0.84887946   439061 
 2673000   0.56656735   -2.5877404   -2.5877404   -1.7378913  0.030417138   -2.5877404   0.84984909   439061 
 2674000   0.56585019   -2.5867877   -2.5867877   -1.7380143  0.027529604   -2.5867877   0.84877335   439061 
 2675000   0.56646264   -2.5879067   -2.5879067   -1.7382147  0.026382631   -2.5879067   0.84969202   439061 
 2676000   0.56606875   -2.5878506   -2.5878506   -1.7387494  0.023226065   -2.5878506   0.84910119   439061 
 2677000   0.56536062   -2.5874486   -2.5874486   -1.7394096  0.028621311   -2.5874486     0.848039   439061 
 2678000   0.56563969    -2.587193    -2.587193   -1.7387354  0.024285799    -2.587193   0.84845761   439061 
 2679000    0.5659706   -2.5877725   -2.5877725   -1.7388185  0.024660906   -2.5877725   0.84895396   439061 
 2680000   0.56592862   -2.5883119   -2.5883119   -1.7394209  0.025706272   -2.5883119     0.848891   439061 
 2681000   0.56513267   -2.5875944   -2.5875944   -1.7398973   0.03132324   -2.5875944   0.84769707   439061 
 2682000   0.56555805    -2.587619    -2.587619   -1.7392839  0.031561488    -2.587619   0.84833514   439061 
 2683000   0.56562063   -2.5873383   -2.5873383   -1.7389092  0.030029202   -2.5873383   0.84842902   439061 
 2684000   0.56562468   -2.5880192   -2.5880192   -1.7395841  0.029175544   -2.5880192   0.84843509   439061 
 2685000   0.56688922    -2.589199    -2.589199   -1.7388671  0.027923816    -2.589199    0.8503319   439061 
 2686000   0.56702654   -2.5890289   -2.5890289    -1.738491  0.024941416   -2.5890289   0.85053787   439061 
 2687000    0.5665207   -2.5885839   -2.5885839   -1.7388047  0.028038208   -2.5885839   0.84977912   439061 
 2688000   0.56526828   -2.5872397   -2.5872397   -1.7393392  0.032341186   -2.5872397   0.84790048   439061 
 2689000   0.56583411   -2.5877216   -2.5877216   -1.7389724  0.028581811   -2.5877216   0.84874924   439061 
 2690000   0.56590147   -2.5887879   -2.5887879   -1.7399376  0.030153498   -2.5887879   0.84885027   439061 
 2691000   0.56452838   -2.5870402   -2.5870402   -1.7402495  0.027962113   -2.5870402   0.84679065   439061 
 2692000   0.56567026   -2.5890409   -2.5890409   -1.7405375  0.024447527   -2.5890409   0.84850346   439061 
 2693000   0.56464396    -2.587415    -2.587415    -1.740451  0.027220844    -2.587415   0.84696401   439061 
 2694000   0.56456793   -2.5869792   -2.5869792   -1.7401292  0.027114937   -2.5869792   0.84684997   439061 
 2695000   0.56563948   -2.5885594   -2.5885594   -1.7401021  0.025744848   -2.5885594   0.84845729   439061 
 2696000   0.56556525    -2.588248    -2.588248    -1.739902  0.032426281    -2.588248   0.84834594   439061 
 2697000   0.56509757   -2.5882457   -2.5882457   -1.7406013  0.030865505   -2.5882457   0.84764442   439061 
 2698000    0.5656887   -2.5890711   -2.5890711     -1.74054  0.024390251   -2.5890711   0.84853112   439061 
 2699000   0.56556717   -2.5891404   -2.5891404   -1.7407916  0.025704152   -2.5891404   0.84834883   439061 
 2700000    0.5662555   -2.5895205   -2.5895205   -1.7401392  0.029817061   -2.5895205   0.84938132   439061 
 2701000   0.56662296   -2.5901928   -2.5901928   -1.7402603  0.028495371   -2.5901928   0.84993251   439061 
 2702000   0.56590585   -2.5896069   -2.5896069   -1.7407501  0.026481149   -2.5896069   0.84885684   439061 
 2703000   0.56644682   -2.5903917   -2.5903917   -1.7407234  0.025806429   -2.5903917   0.84966829   439061 
 2704000   0.56655438   -2.5904356   -2.5904356    -1.740606  0.030582573   -2.5904356   0.84982963   439061 
 2705000   0.56571897   -2.5900845   -2.5900845    -1.741508  0.027438134   -2.5900845   0.84857653   439061 
 2706000   0.56535954   -2.5905141   -2.5905141   -1.7424767  0.031067833   -2.5905141   0.84803738   439061 
 2707000   0.56530529   -2.5906173   -2.5906173   -1.7426613  0.027606554   -2.5906173   0.84795601   439061 
 2708000   0.56482886   -2.5900835   -2.5900835   -1.7428422  0.028922286   -2.5900835   0.84724137   439061 
 2709000    0.5643609   -2.5888598   -2.5888598   -1.7423203  0.028420574   -2.5888598   0.84653942   439061 
 2710000   0.56592812    -2.590298    -2.590298   -1.7414077  0.029708676    -2.590298   0.84889025   439061 
 2711000    0.5655794   -2.5903171   -2.5903171   -1.7419499   0.02869384   -2.5903171   0.84836716   439061 
 2712000   0.56594909   -2.5907463   -2.5907463   -1.7418246  0.030542601   -2.5907463   0.84892171   439061 
 2713000   0.56583941   -2.5914379   -2.5914379   -1.7426807  0.031512248   -2.5914379   0.84875718   439061 
 2714000   0.56606908   -2.5911099   -2.5911099   -1.7420083  0.031778426   -2.5911099   0.84910168   439061 
 2715000   0.56645254   -2.5923474   -2.5923474   -1.7426705  0.030110434   -2.5923474   0.84967687   439061 
 2716000   0.56603046   -2.5911736   -2.5911736   -1.7421299  0.030881289   -2.5911736   0.84904376   439061 
 2717000   0.56662257   -2.5916168   -2.5916168   -1.7416849  0.029270847   -2.5916168   0.84993192   439061 
 2718000   0.56602716   -2.5914265   -2.5914265   -1.7423877  0.029586194   -2.5914265    0.8490388   439061 
 2719000   0.56692859   -2.5928439   -2.5928439   -1.7424529  0.027331234   -2.5928439   0.85039095   439061 
 2720000   0.56528658   -2.5906016   -2.5906016   -1.7426737  0.030910154   -2.5906016   0.84792794   439061 
 2721000   0.56543838   -2.5913244   -2.5913244   -1.7431687  0.030091304   -2.5913244   0.84815564   439061 
 2722000   0.56548938   -2.5913304   -2.5913304   -1.7430983  0.029299064   -2.5913304   0.84823214   439061 
 2723000   0.56539564   -2.5908363   -2.5908363   -1.7427447  0.026450802   -2.5908363   0.84809153   439061 
 2724000   0.56623038   -2.5930974   -2.5930974   -1.7437537  0.028655895   -2.5930974   0.84934363   439061 
 2725000   0.56615974   -2.5929513   -2.5929513   -1.7437136  0.026225278   -2.5929513   0.84923767   439061 
 2726000   0.56509129   -2.5912572   -2.5912572   -1.7436222  0.024978962   -2.5912572     0.847635   439061 
 2727000   0.56601451   -2.5926022   -2.5926022   -1.7435824  0.025988186   -2.5926022   0.84901983   439061 
 2728000   0.56587068   -2.5925451   -2.5925451    -1.743741   0.02873448   -2.5925451   0.84880408   439061 
 2729000   0.56559046   -2.5924114   -2.5924114   -1.7440276   0.02826505   -2.5924114   0.84838375   439061 
 2730000   0.56550624   -2.5924754   -2.5924754    -1.744218  0.029833005   -2.5924754   0.84825742   439061 
 2731000   0.56472179   -2.5923977   -2.5923977    -1.745317  0.022919003   -2.5923977   0.84708075   439061 
 2732000   0.56453015    -2.591394    -2.591394   -1.7446007  0.024957639    -2.591394    0.8467933   439061 
 2733000   0.56438755   -2.5918996   -2.5918996   -1.7453202  0.025954161   -2.5918996    0.8465794   439061 
 2734000   0.56476947   -2.5924857   -2.5924857   -1.7453334  0.026260461   -2.5924857   0.84715228   439061 
 2735000   0.56491115   -2.5927206   -2.5927206   -1.7453558  0.028328648   -2.5927206   0.84736479   439061 
 2736000   0.56490266   -2.5925386   -2.5925386   -1.7451866  0.027562299   -2.5925386   0.84735206   439061 
 2737000   0.56466908   -2.5923252   -2.5923252   -1.7453235  0.026330637   -2.5923252    0.8470017   439061 
 2738000   0.56640432   -2.5949487   -2.5949487   -1.7453441  0.025622718   -2.5949487   0.84960455   439061 
 2739000   0.56638018   -2.5944105   -2.5944105   -1.7448422   0.02507818   -2.5944105   0.84956833   439061 
 2740000   0.56643409   -2.5947142   -2.5947142    -1.745065  0.031708459   -2.5947142   0.84964919   439061 
 2741000     0.565979   -2.5950007   -2.5950007   -1.7460341  0.029931322   -2.5950007   0.84896657   439061 
 2742000   0.56629908   -2.5954615   -2.5954615   -1.7460148  0.028575511   -2.5954615   0.84944668   439061 
 2743000   0.56500247   -2.5945337   -2.5945337    -1.747032  0.029484596   -2.5945337   0.84750177   439061 
 2744000   0.56567148   -2.5957913   -2.5957913    -1.747286   0.02795687   -2.5957913   0.84850528   439061 
 2745000   0.56509037   -2.5952659   -2.5952659   -1.7476322  0.026717482   -2.5952659   0.84763363   439061 
 2746000   0.56499544   -2.5958708   -2.5958708   -1.7483795  0.028598116   -2.5958708   0.84749123   439061 
 2747000   0.56581013   -2.5963627   -2.5963627   -1.7476494  0.027424562   -2.5963627   0.84871326   439061 
 2748000   0.56662187   -2.5968118   -2.5968118   -1.7468809  0.025899325   -2.5968118   0.84993087   439061 
 2749000    0.5656577   -2.5948382   -2.5948382   -1.7463535  0.030461484   -2.5948382   0.84848462   439061 
 2750000   0.56550095   -2.5955973   -2.5955973   -1.7473478  0.030362285   -2.5955973    0.8482495   439061 
 2751000   0.56565879    -2.595882    -2.595882   -1.7473958  0.030995816    -2.595882   0.84848625   439061 
 2752000   0.56563515   -2.5959707   -2.5959707   -1.7475199  0.028333117   -2.5959707    0.8484508   439061 
 2753000   0.56559371   -2.5957487   -2.5957487   -1.7473601  0.030387785   -2.5957487   0.84838863   439061 
 2754000   0.56458091    -2.594731    -2.594731   -1.7478616  0.029151439    -2.594731   0.84686944   439061 
 2755000   0.56466161   -2.5950009   -2.5950009   -1.7480105  0.027887035   -2.5950009   0.84699048   439061 
 2756000   0.56464532   -2.5947073   -2.5947073   -1.7477413  0.029050736   -2.5947073   0.84696605   439061 
 2757000    0.5652874   -2.5952764   -2.5952764   -1.7473472  0.026340434   -2.5952764   0.84792917   439061 
 2758000   0.56492397   -2.5950674   -2.5950674   -1.7476834   0.02299451   -2.5950674   0.84738403   439061 
 2759000   0.56446897   -2.5951188   -2.5951188   -1.7484173  0.027412449   -2.5951188   0.84670153   439061 
 2760000   0.56466994   -2.5956838   -2.5956838   -1.7486808  0.025270904   -2.5956838   0.84700298   439061 
 2761000   0.56456955   -2.5958829   -2.5958829   -1.7490305  0.025050149   -2.5958829   0.84685239   439061 
 2762000   0.56422369   -2.5956968   -2.5956968   -1.7493632  0.028323074   -2.5956968    0.8463336   439061 
 2763000   0.56426121   -2.5960072   -2.5960072   -1.7496173  0.027064849   -2.5960072   0.84638989   439061 
 2764000   0.56384637   -2.5957495   -2.5957495   -1.7499819  0.027576646   -2.5957495   0.84576762   439061 
 2765000   0.56465383   -2.5971982   -2.5971982   -1.7502194  0.026674428   -2.5971982   0.84697881   439061 
 2766000   0.56385698   -2.5965671   -2.5965671   -1.7507836  0.024735949   -2.5965671   0.84578355   439061 
 2767000   0.56340111   -2.5969611   -2.5969611   -1.7518613   0.02387118   -2.5969611   0.84509975   439061 
 2768000    0.5640983      -2.5977      -2.5977   -1.7515545   0.02619535      -2.5977   0.84614552   439061 
 2769000   0.56476763   -2.5987954   -2.5987954   -1.7516459  0.027559877   -2.5987954   0.84714952   439061 
 2770000   0.56418867   -2.5986327   -2.5986327   -1.7523517  0.031066732   -2.5986327   0.84628107   439061 
 2771000   0.56447149   -2.5993202   -2.5993202   -1.7526149  0.027484403   -2.5993202   0.84670531   439061 
 2772000   0.56567011   -2.6012971   -2.6012971   -1.7527938  0.029284509   -2.6012971   0.84850323   439061 
 2773000   0.56554219   -2.6001637   -2.6001637   -1.7518524  0.030114173   -2.6001637   0.84831135   439061 
 2774000   0.56658527   -2.6017299   -2.6017299   -1.7518539   0.02849843   -2.6017299   0.84987596   439061 
 2775000   0.56690783   -2.6016772   -2.6016772   -1.7513174   0.03100653   -2.6016772    0.8503598   439061 
 2776000   0.56590283    -2.600519    -2.600519   -1.7516667  0.030216641    -2.600519   0.84885231   439061 
 2777000    0.5660504   -2.6009837   -2.6009837     -1.75191  0.030030776   -2.6009837   0.84907367   439061 
 2778000   0.56593662   -2.6014116   -2.6014116   -1.7525086  0.029578266   -2.6014116   0.84890299   439061 
 2779000   0.56584097   -2.6015153   -2.6015153   -1.7527558  0.028094995   -2.6015153   0.84875952   439061 
 2780000   0.56424326   -2.5999821   -2.5999821   -1.7536191  0.026533556   -2.5999821   0.84636297   439061 
 2781000   0.56445113   -2.6002226   -2.6002226   -1.7535478  0.026040226   -2.6002226   0.84667476   439061 
 2782000   0.56404205   -2.5999027   -2.5999027   -1.7538415  0.026903749   -2.5999027   0.84606115   439061 
 2783000   0.56408344   -2.5995315   -2.5995315   -1.7534083  0.024555411   -2.5995315   0.84612323   439061 
 2784000   0.56388265   -2.5993937   -2.5993937   -1.7535717  0.025480514   -2.5993937   0.84582204   439061 
 2785000   0.56347479    -2.597975    -2.597975   -1.7527647  0.024270548    -2.597975   0.84521026   439061 
 2786000   0.56425274   -2.5990889   -2.5990889   -1.7527118  0.024960403   -2.5990889   0.84637718   439061 
 2787000   0.56413065   -2.5980008   -2.5980008   -1.7518068  0.026485656   -2.5980008   0.84619405   439061 
 2788000   0.56526232   -2.5992657   -2.5992657   -1.7513741  0.022424789   -2.5992657   0.84789155   439061 
 2789000   0.56453834   -2.5983215   -2.5983215   -1.7515159  0.023818329   -2.5983215   0.84680559   439061 
 2790000   0.56410873   -2.5978154   -2.5978154   -1.7516542  0.028664385   -2.5978154   0.84616118   439061 
 2791000   0.56508087   -2.5993521   -2.5993521   -1.7517327  0.026403074   -2.5993521   0.84761938   439061 
 2792000   0.56434121   -2.5987007   -2.5987007   -1.7521908  0.028034271   -2.5987007   0.84650989   439061 
 2793000   0.56421739   -2.5981406   -2.5981406   -1.7518165  0.027302827   -2.5981406   0.84632416   439061 
 2794000   0.56435478   -2.5979785   -2.5979785   -1.7514482   0.02894831   -2.5979785   0.84653024   439061 
 2795000   0.56511704   -2.5990212   -2.5990212   -1.7513475   0.02952408   -2.5990212   0.84767363   439061 
 2796000    0.5648034   -2.5991319   -2.5991319   -1.7519287  0.029282797   -2.5991319   0.84720318   439061 
 2797000   0.56496803   -2.6007754   -2.6007754   -1.7533253  0.027616779   -2.6007754   0.84745011   439061 
 2798000   0.56498875   -2.6010894   -2.6010894   -1.7536083  0.027631764   -2.6010894    0.8474812   439061 
 2799000   0.56411682   -2.6002058   -2.6002058   -1.7540325  0.028785212   -2.6002058   0.84617331   439061 
 2800000      0.56476   -2.6006746   -2.6006746   -1.7535365  0.027393989   -2.6006746   0.84713808   439061 
 2801000   0.56420058   -2.6007538   -2.6007538   -1.7544548  0.026441281   -2.6007538   0.84629894   439061 
 2802000   0.56411617   -2.6005533   -2.6005533    -1.754381  0.028228057   -2.6005533   0.84617233   439061 
 2803000   0.56487672   -2.6021832   -2.6021832   -1.7548701  0.026906463   -2.6021832   0.84731315   439061 
 2804000   0.56388689   -2.6003058   -2.6003058   -1.7544774  0.031143877   -2.6003058   0.84582841   439061 
 2805000   0.56562086   -2.6036989   -2.6036989   -1.7552695  0.028302225   -2.6036989   0.84842936   439061 
 2806000   0.56438681   -2.6013822   -2.6013822   -1.7548039  0.033320983   -2.6013822   0.84657828   439061 
 2807000   0.56535932   -2.6028589   -2.6028589   -1.7548219  0.027940123   -2.6028589   0.84803705   439061 
 2808000    0.5654059   -2.6030135   -2.6030135   -1.7549065  0.032074493   -2.6030135   0.84810692   439061 
 2809000   0.56438536   -2.6011257   -2.6011257   -1.7545496  0.030265562   -2.6011257   0.84657612   439061 
 2810000   0.56431823   -2.6018486   -2.6018486   -1.7553732  0.028163109   -2.6018486   0.84647542   439061 
 2811000   0.56470935   -2.6032748   -2.6032748   -1.7562127   0.02652873   -2.6032748    0.8470621   439061 
 2812000   0.56479955   -2.6034136   -2.6034136   -1.7562162  0.025167213   -2.6034136   0.84719739   439061 
 2813000    0.5642803   -2.6022891   -2.6022891   -1.7558706   0.02998717   -2.6022891   0.84641852   439061 
 2814000    0.5634946   -2.6010527   -2.6010527   -1.7558127  0.029477885   -2.6010527   0.84523997   439061 
 2815000    0.5641133   -2.6026199   -2.6026199   -1.7564519  0.026216935   -2.6026199   0.84616802   439061 
 2816000   0.56389739   -2.6026503   -2.6026503   -1.7568061   0.02803569   -2.6026503   0.84584415   439061 
 2817000   0.56437976   -2.6026706   -2.6026706   -1.7561029  0.025386063   -2.6026706   0.84656772   439061 
 2818000   0.56354218   -2.6022444   -2.6022444   -1.7569331  0.027084733   -2.6022444   0.84531135   439061 
 2819000   0.56419397   -2.6027098   -2.6027098   -1.7564208  0.025478414   -2.6027098   0.84628903   439061 
 2820000   0.56406497   -2.6022419   -2.6022419   -1.7561464  0.027292641   -2.6022419   0.84609552   439061 
 2821000   0.56411363   -2.6024066   -2.6024066   -1.7562381  0.025933258   -2.6024066   0.84616852   439061 
 2822000   0.56378401   -2.6025414   -2.6025414   -1.7568674  0.023167838   -2.6025414   0.84567409   439061 
 2823000   0.56292425   -2.6007322   -2.6007322   -1.7563477  0.026215572   -2.6007322   0.84438446   439061 
 2824000   0.56308012   -2.6017322   -2.6017322   -1.7571139  0.027012131   -2.6017322   0.84461825   439061 
 2825000   0.56353595   -2.6021925   -2.6021925   -1.7568906  0.025636955   -2.6021925   0.84530199   439061 
 2826000   0.56365589    -2.602328    -2.602328   -1.7568461  0.029515512    -2.602328   0.84548192   439061 
 2827000   0.56492765   -2.6039729   -2.6039729   -1.7565834  0.030116964   -2.6039729   0.84738955   439061 
 2828000   0.56560532    -2.604423    -2.604423   -1.7560169  0.030003029    -2.604423   0.84840604   439061 
 2829000    0.5651546   -2.6046355   -2.6046355   -1.7569056  0.028220085   -2.6046355   0.84772998   439061 
 2830000   0.56503633   -2.6039781   -2.6039781   -1.7564255  0.030298496   -2.6039781   0.84755256   439061 
 2831000   0.56482305   -2.6042821   -2.6042821   -1.7570495  0.029972631   -2.6042821   0.84723265   439061 
 2832000   0.56489643   -2.6046116   -2.6046116   -1.7572689  0.026875889   -2.6046116   0.84734272   439061 
 2833000   0.56416194   -2.6031823   -2.6031823   -1.7569413  0.027615762   -2.6031823   0.84624099   439061 
 2834000   0.56538781   -2.6046816   -2.6046816   -1.7566019  0.032060349   -2.6046816   0.84807978   439061 
 2835000   0.56504659   -2.6042706   -2.6042706   -1.7567027  0.028775169   -2.6042706   0.84756796   439061 
 2836000    0.5650131   -2.6040053   -2.6040053   -1.7564876  0.030815132   -2.6040053   0.84751772   439061 
 2837000   0.56502597   -2.6039253   -2.6039253   -1.7563883  0.027306095   -2.6039253   0.84753702   439061 
 2838000    0.5648405   -2.6038475   -2.6038475   -1.7565887  0.026124101   -2.6038475   0.84725882   439061 
 2839000   0.56452948   -2.6029895   -2.6029895   -1.7561972  0.028028672   -2.6029895   0.84679229   439061 
 2840000   0.56398015   -2.6026742   -2.6026742   -1.7567059  0.025615795   -2.6026742    0.8459683   439061 
 2841000   0.56414352   -2.6019824   -2.6019824   -1.7557691  0.026247023   -2.6019824   0.84621335   439061 
 2842000   0.56372964   -2.6018857   -2.6018857   -1.7562932  0.024241742   -2.6018857   0.84559253   439061 
 2843000   0.56403655   -2.6022019   -2.6022019    -1.756149  0.024689196   -2.6022019    0.8460529   439061 
 2844000    0.5636688   -2.6007738   -2.6007738   -1.7552725  0.025993009   -2.6007738   0.84550128   439061 
 2845000   0.56454938   -2.6026862   -2.6026862   -1.7558641  0.024060641   -2.6026862   0.84682214   439061 
 2846000   0.56427562   -2.6027479   -2.6027479   -1.7563364  0.023447613   -2.6027479    0.8464115   439061 
 2847000   0.56509544   -2.6035205   -2.6035205   -1.7558792  0.025164126   -2.6035205   0.84764123   439061 
 2848000   0.56437132   -2.6020939   -2.6020939   -1.7555389  0.023078456   -2.6020939   0.84655505   439061 
 2849000   0.56359015   -2.6011323   -2.6011323    -1.755749  0.026637304   -2.6011323    0.8453833   439061 
 2850000   0.56323249    -2.600434    -2.600434   -1.7555872  0.028991972    -2.600434   0.84484681   439061 
 2851000   0.56310646   -2.6015813   -2.6015813   -1.7569236  0.022725087   -2.6015813   0.84465777   439061 
 2852000   0.56383934   -2.6018416   -2.6018416   -1.7560845  0.027256129   -2.6018416   0.84575709   439061 
 2853000   0.56401186   -2.6027406   -2.6027406   -1.7567247  0.027914353   -2.6027406   0.84601586   439061 
 2854000   0.56452497   -2.6033222   -2.6033222   -1.7565366  0.024384635   -2.6033222   0.84678553   439061 
 2855000   0.56382296   -2.6025924   -2.6025924   -1.7568599  0.025429858   -2.6025924   0.84573251   439061 
 2856000   0.56447458   -2.6028378   -2.6028378   -1.7561278   0.02756759   -2.6028378   0.84670994   439061 
 2857000   0.56489621     -2.60423     -2.60423   -1.7568877  0.025481861     -2.60423   0.84734238   439061 
 2858000   0.56463217   -2.6038671   -2.6038671   -1.7569208  0.028436258   -2.6038671   0.84694632   439061 
 2859000   0.56448804    -2.603601    -2.603601   -1.7568709  0.028608185    -2.603601   0.84673013   439061 
 2860000   0.56498599   -2.6043498   -2.6043498   -1.7568728  0.027370859   -2.6043498   0.84747706   439061 
 2861000   0.56492879   -2.6043811   -2.6043811   -1.7569898  0.034876919   -2.6043811   0.84739126   439061 
 2862000   0.56424821   -2.6036003   -2.6036003     -1.75723  0.030346998   -2.6036003   0.84637039   439061 
 2863000   0.56463084   -2.6044919   -2.6044919   -1.7575475  0.028394129   -2.6044919   0.84694433   439061 
 2864000   0.56421018   -2.6052679   -2.6052679   -1.7589546  0.023047167   -2.6052679   0.84631334   439061 
 2865000   0.56316659   -2.6029659   -2.6029659   -1.7582179  0.029912418   -2.6029659   0.84474796   439061 
 2866000   0.56531679   -2.6061152   -2.6061152    -1.758142  0.024864763   -2.6061152   0.84797325   439061 
 2867000   0.56407957   -2.6050111   -2.6050111   -1.7588937  0.027167483   -2.6050111   0.84611742   439061 
 2868000   0.56395657   -2.6045787   -2.6045787   -1.7586458  0.026791742   -2.6045787   0.84593293   439061 
 2869000   0.56351257   -2.6043791   -2.6043791   -1.7591121  0.027482373   -2.6043791   0.84526694   439061 
 2870000   0.56446697   -2.6064963   -2.6064963   -1.7597978  0.028243013   -2.6064963   0.84669852   439061 
 2871000   0.56341524   -2.6048419   -2.6048419    -1.759721  0.028040597   -2.6048419   0.84512094   439061 
 2872000   0.56275942   -2.6045813   -2.6045813   -1.7604441  0.026153957   -2.6045813   0.84413721   439061 
 2873000   0.56338083   -2.6045141   -2.6045141   -1.7594447  0.029690691   -2.6045141   0.84506931   439061 
 2874000   0.56405849   -2.6059578   -2.6059578    -1.759872  0.025290739   -2.6059578   0.84608581   439061 
 2875000   0.56384075   -2.6053655   -2.6053655   -1.7596063    0.0282789   -2.6053655    0.8457592   439061 
 2876000   0.56340361    -2.604573    -2.604573   -1.7594695   0.03040094    -2.604573    0.8451035   439061 
 2877000   0.56273434   -2.6037996   -2.6037996      -1.7597   0.03119373   -2.6037996   0.84409959   439061 
 2878000   0.56437388   -2.6061701   -2.6061701   -1.7596112  0.029654604   -2.6061701   0.84655889   439061 
 2879000   0.56426011    -2.606098    -2.606098   -1.7597097  0.027471715    -2.606098   0.84638824   439061 
 2880000   0.56436865   -2.6056387   -2.6056387   -1.7590877  0.030675891   -2.6056387   0.84655105   439061 
 2881000   0.56513687   -2.6072259   -2.6072259   -1.7595226  0.028210314   -2.6072259   0.84770337   439061 
 2882000   0.56430738   -2.6066335   -2.6066335   -1.7601744   0.02476157   -2.6066335   0.84645914   439061 
 2883000   0.56316018   -2.6047844   -2.6047844   -1.7600461  0.028102475   -2.6047844   0.84473834   439061 
 2884000   0.56434146   -2.6070144   -2.6070144   -1.7605042  0.023561182   -2.6070144   0.84651026   439061 
 2885000   0.56435672   -2.6078124   -2.6078124   -1.7612792  0.024908531   -2.6078124   0.84653315   439061 
 2886000   0.56372694   -2.6075908   -2.6075908   -1.7620023  0.024084491   -2.6075908   0.84558849   439061 
 2887000    0.5628331   -2.6056715   -2.6056715   -1.7614238  0.031411341   -2.6056715   0.84424773   439061 
 2888000   0.56426248   -2.6074411   -2.6074411   -1.7610493  0.026775216   -2.6074411   0.84639178   439061 
 2889000   0.56322839   -2.6057891   -2.6057891   -1.7609484  0.028704322   -2.6057891   0.84484066   439061 
 2890000   0.56394092   -2.6069322   -2.6069322   -1.7610227  0.024788157   -2.6069322   0.84590945   439061 
 2891000   0.56393661   -2.6068811   -2.6068811   -1.7609781  0.027517602   -2.6068811   0.84590299   439061 
 2892000   0.56425825   -2.6077266   -2.6077266   -1.7613412  0.024336724   -2.6077266   0.84638545   439061 
 2893000   0.56422318   -2.6081972   -2.6081972   -1.7618643  0.028353177   -2.6081972   0.84633285   439061 
 2894000   0.56459216    -2.607693    -2.607693   -1.7608067  0.028357031    -2.607693   0.84688631   439061 
 2895000   0.56385245   -2.6076123   -2.6076123   -1.7618355  0.031463863   -2.6076123   0.84577674   439061 
 2896000   0.56383288   -2.6074551   -2.6074551   -1.7617077   0.02959632   -2.6074551   0.84574739   439061 
 2897000   0.56365693   -2.6071727   -2.6071727   -1.7616892  0.025564765   -2.6071727   0.84548347   439061 
 2898000   0.56417807   -2.6082858   -2.6082858   -1.7620207  0.029186721   -2.6082858   0.84626518   439061 
 2899000   0.56384357   -2.6089546   -2.6089546   -1.7631912  0.025595978   -2.6089546   0.84576343   439061 
 2900000   0.56425335   -2.6078946   -2.6078946   -1.7615165    0.0260117   -2.6078946    0.8463781   439061 
 2901000   0.56400558   -2.6079707   -2.6079707   -1.7619642  0.027095527   -2.6079707   0.84600645   439061 
 2902000   0.56334497   -2.6076206   -2.6076206   -1.7626051  0.028098941   -2.6076206   0.84501554   439061 
 2903000   0.56400576    -2.609771    -2.609771   -1.7637642  0.025898764    -2.609771   0.84600672   439061 
 2904000   0.56413758    -2.609799    -2.609799   -1.7635946  0.027306975    -2.609799   0.84620444   439061 
 2905000   0.56395031   -2.6095614   -2.6095614   -1.7636379  0.025296528   -2.6095614   0.84592354   439061 
 2906000   0.56493336   -2.6104669   -2.6104669   -1.7630688  0.022145152   -2.6104669   0.84739811   439061 
 2907000   0.56445336   -2.6095537   -2.6095537   -1.7628756  0.025952372   -2.6095537   0.84667811   439061 
 2908000   0.56354895   -2.6081099   -2.6081099   -1.7627884  0.027195467   -2.6081099    0.8453215   439061 
 2909000     0.563657    -2.608028    -2.608028   -1.7625445  0.026912755    -2.608028   0.84548357   439061 
 2910000   0.56467419   -2.6093977   -2.6093977   -1.7623883  0.027086636   -2.6093977   0.84700936   439061 
 2911000    0.5639066   -2.6079616   -2.6079616   -1.7621036  0.026318197   -2.6079616   0.84585797   439061 
 2912000   0.56439459   -2.6094447   -2.6094447   -1.7628547  0.025621127   -2.6094447   0.84658996   439061 
 2913000   0.56340012   -2.6087875   -2.6087875   -1.7636893  0.028282825   -2.6087875   0.84509825   439061 
 2914000   0.56296152   -2.6089121   -2.6089121   -1.7644718  0.024252717   -2.6089121   0.84444036   439061 
 2915000   0.56315039   -2.6092106   -2.6092106   -1.7644869  0.021512112   -2.6092106   0.84472366   439061 
 2916000   0.56366733    -2.610003    -2.610003    -1.764504  0.018575649    -2.610003   0.84549907   439061 
 2917000   0.56280398   -2.6094864   -2.6094864   -1.7652823  0.023543044   -2.6094864   0.84420405   439061 
 2918000   0.56333401   -2.6097451   -2.6097451    -1.764746  0.024143816   -2.6097451   0.84499909   439061 
 2919000   0.56401638   -2.6096976   -2.6096976    -1.763675  0.025318512   -2.6096976   0.84602264   439061 
 2920000    0.5645249   -2.6099424   -2.6099424    -1.763157  0.024067858   -2.6099424   0.84678542   439061 
 2921000   0.56297829   -2.6081784   -2.6081784   -1.7637129  0.028819919   -2.6081784   0.84446551   439061 
 2922000   0.56415494   -2.6101065   -2.6101065    -1.763876  0.023375925   -2.6101065   0.84623049   439061 
 2923000   0.56405687   -2.6104408   -2.6104408   -1.7643574   0.02774883   -2.6104408   0.84608338   439061 
 2924000   0.56463757   -2.6111658   -2.6111658   -1.7642114  0.028144273   -2.6111658   0.84695442   439061 
 2925000   0.56351143   -2.6092354   -2.6092354   -1.7639702   0.02856027   -2.6092354   0.84526522   439061 
 2926000   0.56336735   -2.6092908   -2.6092908   -1.7642417  0.029646542   -2.6092908    0.8450491   439061 
 2927000   0.56380501   -2.6106016   -2.6106016    -1.764896  0.030240253   -2.6106016   0.84570558   439061 
 2928000   0.56303601   -2.6100732   -2.6100732   -1.7655211  0.029974854   -2.6100732   0.84455209   439061 
 2929000   0.56349651     -2.61126     -2.61126   -1.7660172  0.025691794     -2.61126   0.84524285   439061 
 2930000   0.56321284   -2.6112585   -2.6112585   -1.7664411  0.027305233   -2.6112585   0.84481733   439061 
 2931000   0.56373694   -2.6116773   -2.6116773   -1.7660739  0.027336524   -2.6116773   0.84560348   439061 
 2932000   0.56357992   -2.6118833   -2.6118833   -1.7665154  0.026272519   -2.6118833   0.84536795   439061 
 2933000   0.56314963   -2.6105536   -2.6105536   -1.7658311  0.029972317   -2.6105536   0.84472253   439061 
 2934000   0.56373414   -2.6113864   -2.6113864   -1.7657871  0.028872106   -2.6113864   0.84559929   439061 
 2935000   0.56291618   -2.6102244   -2.6102244    -1.765852  0.028513049   -2.6102244   0.84437234   439061 
 2936000   0.56414749   -2.6121721   -2.6121721   -1.7659528  0.024140978   -2.6121721   0.84621931   439061 
 2937000    0.5638091   -2.6116224   -2.6116224   -1.7659107  0.029986698   -2.6116224   0.84571173   439061 
 2938000    0.5644768   -2.6125583   -2.6125583    -1.765845  0.025729073   -2.6125583   0.84671328   439061 
 2939000   0.56493518   -2.6125882   -2.6125882   -1.7651874   0.03104602   -2.6125882   0.84740084   439061 
 2940000   0.56323597   -2.6111359   -2.6111359   -1.7662839  0.027674479   -2.6111359   0.84485203   439061 
 2941000   0.56251372   -2.6100087   -2.6100087     -1.76624  0.029048283   -2.6100087   0.84376865   439061 
 2942000    0.5632925    -2.611411    -2.611411   -1.7664742  0.027411583    -2.611411   0.84493682   439061 
 2943000   0.56350148   -2.6120147   -2.6120147   -1.7667644  0.025227455   -2.6120147    0.8452503   439061 
 2944000   0.56350582   -2.6119956   -2.6119956   -1.7667388  0.023574994   -2.6119956    0.8452568   439061 
 2945000   0.56372241   -2.6121582   -2.6121582   -1.7665765  0.024482499   -2.6121582   0.84558168   439061 
 2946000   0.56320592   -2.6119429   -2.6119429    -1.767136  0.024956741   -2.6119429   0.84480695   439061 
 2947000   0.56335239   -2.6119027   -2.6119027    -1.766876  0.027789014   -2.6119027   0.84502666   439061 
 2948000   0.56351348   -2.6122053   -2.6122053    -1.766937  0.025697054   -2.6122053    0.8452683   439061 
 2949000   0.56308576    -2.611737    -2.611737   -1.7671103  0.022242171    -2.611737   0.84462671   439061 
 2950000   0.56262951   -2.6117133   -2.6117133   -1.7677709  0.025438592   -2.6117133   0.84394235   439061 
 2951000   0.56217576   -2.6108252   -2.6108252   -1.7675635  0.029779856   -2.6108252   0.84326172   439061 
 2952000   0.56279349   -2.6115548   -2.6115548   -1.7673665  0.027605219   -2.6115548   0.84418831   439061 
 2953000   0.56286894   -2.6122049   -2.6122049   -1.7679034  0.025045571   -2.6122049   0.84430149   439061 
 2954000   0.56340675   -2.6125027   -2.6125027   -1.7673945  0.024392624   -2.6125027    0.8451082   439061 
 2955000   0.56290473   -2.6123922   -2.6123922   -1.7680371  0.026831296   -2.6123922   0.84435517   439061 
 2956000   0.56304773   -2.6122747   -2.6122747   -1.7677051  0.026858436   -2.6122747   0.84456966   439061 
 2957000     0.563372   -2.6130786   -2.6130786   -1.7680226   0.02561655   -2.6130786   0.84505607   439061 
 2958000   0.56305378   -2.6126667   -2.6126667    -1.768088  0.028869168   -2.6126667   0.84457874   439061 
 2959000   0.56427474   -2.6138763   -2.6138763   -1.7674661  0.027748784   -2.6138763   0.84641019   439061 
 2960000   0.56447903   -2.6141051   -2.6141051   -1.7673885   0.03016441   -2.6141051   0.84671662   439061 
 2961000   0.56342407   -2.6127413   -2.6127413   -1.7676071  0.029139244   -2.6127413   0.84513418   439061 
 2962000   0.56254303   -2.6120625   -2.6120625   -1.7682499  0.027547939   -2.6120625   0.84381262   439061 
 2963000   0.56319104   -2.6134381   -2.6134381   -1.7686535   0.02685097   -2.6134381   0.84478463   439061 
 2964000   0.56265357   -2.6126007   -2.6126007   -1.7686222  0.030129905   -2.6126007   0.84397843   439061 
 2965000   0.56258629    -2.612729    -2.612729   -1.7688515  0.028445076    -2.612729   0.84387751   439061 
 2966000   0.56318395   -2.6137532   -2.6137532   -1.7689792  0.024788517   -2.6137532   0.84477399   439061 
 2967000   0.56197717   -2.6118595   -2.6118595   -1.7688957  0.027519524   -2.6118595   0.84296384   439061 
 2968000   0.56315586   -2.6136579   -2.6136579    -1.768926  0.022939831   -2.6136579   0.84473186   439061 
 2969000   0.56262769     -2.61334     -2.61334   -1.7694004  0.027149789     -2.61334   0.84393961   439061 
 2970000   0.56328662   -2.6149931   -2.6149931   -1.7700651  0.022732736   -2.6149931   0.84492801   439061 
 2971000   0.56256349   -2.6140306   -2.6140306   -1.7701873  0.025031903   -2.6140306   0.84384332   439061 
 2972000   0.56206688   -2.6136017   -2.6136017   -1.7705033  0.022436251   -2.6136017    0.8430984   439061 
 2973000   0.56178754   -2.6132623   -2.6132623   -1.7705829  0.023464604   -2.6132623    0.8426794   439061 
 2974000   0.56261157   -2.6149341   -2.6149341   -1.7710187  0.024592665   -2.6149341   0.84391543   439061 
 2975000   0.56284931   -2.6145547   -2.6145547   -1.7702827    0.0271688   -2.6145547   0.84427204   439061 
 2976000   0.56323764   -2.6152217   -2.6152217   -1.7703672  0.025968748   -2.6152217   0.84485453   439061 
 2977000   0.56315654   -2.6160405   -2.6160405   -1.7713076  0.025172157   -2.6160405   0.84473289   439061 
 2978000   0.56316729   -2.6153273   -2.6153273   -1.7705783  0.026294533   -2.6153273   0.84474901   439061 
 2979000   0.56369653   -2.6168703   -2.6168703   -1.7713274  0.030484793   -2.6168703   0.84554287   439061 
 2980000   0.56449034   -2.6168457   -2.6168457   -1.7701121  0.030909057   -2.6168457   0.84673358   439061 
 2981000   0.56342988   -2.6160141   -2.6160141   -1.7708712  0.030455411   -2.6160141   0.84514289   439061 
 2982000    0.5642216   -2.6164677   -2.6164677   -1.7701372  0.031166048   -2.6164677   0.84633048   439061 
 2983000   0.56362261    -2.616346    -2.616346    -1.770914  0.028253277    -2.616346   0.84543199   439061 
 2984000   0.56359869   -2.6158724   -2.6158724   -1.7704763  0.028211993   -2.6158724   0.84539612   439061 
 2985000   0.56316971    -2.615517    -2.615517   -1.7707644  0.027581287    -2.615517   0.84475263   439061 
 2986000   0.56292369   -2.6166389   -2.6166389   -1.7722553   0.02452022   -2.6166389    0.8443836   439061 
 2987000   0.56265674    -2.615459    -2.615459   -1.7714759  0.029454638    -2.615459   0.84398318   439061 
 2988000   0.56282069   -2.6161107   -2.6161107   -1.7718816  0.024543856   -2.6161107   0.84422911   439061 
 2989000   0.56267044   -2.6156623   -2.6156623   -1.7716586  0.022676171   -2.6156623   0.84400373   439061 
 2990000   0.56255564   -2.6155009   -2.6155009   -1.7716694  0.024822309   -2.6155009   0.84383155   439061 
 2991000    0.5627493    -2.615556    -2.615556    -1.771434  0.025690575    -2.615556   0.84412203   439061 
 2992000   0.56250948   -2.6156301   -2.6156301   -1.7718678  0.025961169   -2.6156301    0.8437623   439061 
 2993000   0.56164336   -2.6139516   -2.6139516   -1.7714885  0.029402332   -2.6139516   0.84246313   439061 
 2994000   0.56288389   -2.6146828   -2.6146828   -1.7703589  0.027703088   -2.6146828   0.84432391   439061 
 2995000   0.56259413   -2.6144328   -2.6144328   -1.7705436  0.027585239   -2.6144328   0.84388927   439061 
 2996000   0.56248465   -2.6136875   -2.6136875   -1.7699625  0.028639905   -2.6136875   0.84372506   439061 
 2997000   0.56259258   -2.6143578   -2.6143578   -1.7704708  0.025077608   -2.6143578   0.84388694   439061 
 2998000   0.56319221   -2.6157635   -2.6157635   -1.7709771  0.023382747   -2.6157635   0.84478639   439061 
 2999000   0.56237078   -2.6147006   -2.6147006   -1.7711464  0.021912901   -2.6147006   0.84355424   439061 
 3000000   0.56237403   -2.6144589   -2.6144589   -1.7708998  0.025502671   -2.6144589   0.84355912   439061 
 3001000   0.56204597   -2.6143783   -2.6143783   -1.7713112  0.024625538   -2.6143783   0.84306703   439061 
 3002000    0.5622865   -2.6143516   -2.6143516   -1.7709238  0.025069763   -2.6143516   0.84342782   439061 
 3003000   0.56309284    -2.615854    -2.615854   -1.7712167  0.025868525    -2.615854   0.84463733   439061 
 3004000   0.56254478   -2.6153585   -2.6153585   -1.7715432  0.031008847   -2.6153585   0.84381525   439061 
 3005000   0.56139654     -2.61465     -2.61465   -1.7725571  0.026603396     -2.61465   0.84209289   439061 
 3006000   0.56331557   -2.6180901   -2.6180901   -1.7731187  0.024081771   -2.6180901   0.84497143   439061 
 3007000   0.56269767   -2.6164017   -2.6164017   -1.7723571  0.026829315   -2.6164017   0.84404459   439061 
 3008000   0.56218473   -2.6170409   -2.6170409   -1.7737657  0.025549075   -2.6170409   0.84327518   439061 
 3009000   0.56200392   -2.6177252   -2.6177252   -1.7747212  0.025368709   -2.6177252   0.84300397   439061 
 3010000   0.56185901   -2.6174085   -2.6174085   -1.7746219  0.029949048   -2.6174085   0.84278659   439061 
 3011000   0.56229406   -2.6175718   -2.6175718   -1.7741326  0.024667985   -2.6175718   0.84343917   439061 
 3012000   0.56241644   -2.6176442   -2.6176442   -1.7740215  0.026395184   -2.6176442   0.84362274   439061 
 3013000    0.5625965   -2.6177656   -2.6177656   -1.7738728  0.028946303   -2.6177656   0.84389283   439061 
 3014000   0.56321293   -2.6190778   -2.6190778   -1.7742603  0.026894293   -2.6190778   0.84481747   439061 
 3015000   0.56368451   -2.6193576   -2.6193576   -1.7738328  0.027229173   -2.6193576   0.84552484   439061 
 3016000   0.56417028   -2.6187392   -2.6187392   -1.7724857  0.029796418   -2.6187392    0.8462535   439061 
 3017000   0.56401083   -2.6190979   -2.6190979   -1.7730836  0.029445674   -2.6190979   0.84601432   439061 
 3018000    0.5638864   -2.6189661   -2.6189661   -1.7731385  0.028426762   -2.6189661   0.84582767   439061 
 3019000    0.5633848   -2.6183381   -2.6183381   -1.7732628  0.028278238   -2.6183381   0.84507528   439061 
 3020000   0.56241142   -2.6179001   -2.6179001   -1.7742849  0.028755132   -2.6179001    0.8436152   439061 
 3021000   0.56267522   -2.6181957   -2.6181957   -1.7741848  0.027472029   -2.6181957   0.84401091   439061 
 3022000    0.5622029   -2.6173336   -2.6173336   -1.7740312  0.026597673   -2.6173336   0.84330243   439061 
 3023000   0.56146992   -2.6176939   -2.6176939    -1.775491  0.021644096   -2.6176939   0.84220296   439061 
 3024000   0.56155563   -2.6168546   -2.6168546   -1.7745231  0.022170085   -2.6168546   0.84233152   439061 
 3025000   0.56124189   -2.6167094   -2.6167094   -1.7748485  0.021506761   -2.6167094   0.84186091   439061 
 3026000   0.56257235   -2.6175519   -2.6175519   -1.7736952  0.025562525   -2.6175519   0.84385661   439061 
 3027000   0.56305796   -2.6181828   -2.6181828   -1.7735978  0.023188157   -2.6181828   0.84458502   439061 
 3028000   0.56206448   -2.6167733   -2.6167733   -1.7736785  0.023315004   -2.6167733   0.84309479   439061 
 3029000   0.56203313   -2.6161804   -2.6161804   -1.7731326  0.025156996   -2.6161804   0.84304777   439061 
 3030000   0.56230188   -2.6172703   -2.6172703   -1.7738194  0.024560362   -2.6172703   0.84345089   439061 
 3031000   0.56314224   -2.6172497   -2.6172497   -1.7725382  0.030111554   -2.6172497   0.84471144   439061 
 3032000   0.56156273   -2.6159835   -2.6159835   -1.7736413  0.026124769   -2.6159835   0.84234218   439061 
 3033000   0.56216628   -2.6171988   -2.6171988   -1.7739513  0.026398237   -2.6171988    0.8432475   439061 
 3034000   0.56179342   -2.6169617   -2.6169617   -1.7742735  0.025836583   -2.6169617   0.84268822   439061 
 3035000   0.56300027   -2.6185157   -2.6185157   -1.7740172  0.026263931   -2.6185157   0.84449848   439061 
 3036000   0.56197324   -2.6172826   -2.6172826   -1.7743247  0.027690658   -2.6172826   0.84295794   439061 
 3037000   0.56229009    -2.619138    -2.619138   -1.7757048  0.023503723    -2.619138   0.84343321   439061 
 3038000   0.56175489   -2.6186699   -2.6186699   -1.7760395  0.024921177   -2.6186699   0.84263042   439061 
 3039000   0.56230527   -2.6193106   -2.6193106   -1.7758546  0.024969014   -2.6193106   0.84345598   439061 
 3040000   0.56247298   -2.6197743   -2.6197743   -1.7760668  0.026494816   -2.6197743   0.84370755   439061 
 3041000   0.56234062   -2.6193714   -2.6193714   -1.7758623  0.028487795   -2.6193714   0.84350901   439061 
 3042000   0.56198626    -2.618886    -2.618886   -1.7759086  0.030695673    -2.618886   0.84297746   439061 
 3043000   0.56227723   -2.6198457   -2.6198457   -1.7764317  0.030027256   -2.6198457   0.84341392   439061 
 3044000   0.56280664   -2.6201867   -2.6201867   -1.7759786  0.026148005   -2.6201867   0.84420804   439061 
 3045000   0.56323075   -2.6205371   -2.6205371   -1.7756929  0.026480635   -2.6205371    0.8448442   439061 
 3046000   0.56289566   -2.6202756   -2.6202756    -1.775934  0.029318508   -2.6202756   0.84434157   439061 
 3047000   0.56271184   -2.6203372   -2.6203372   -1.7762713   0.02692829   -2.6203372   0.84406584   439061 
 3048000   0.56207376   -2.6197916   -2.6197916   -1.7766829  0.029360473   -2.6197916   0.84310872   439061 
 3049000   0.56294675   -2.6216545   -2.6216545   -1.7772363  0.024869805   -2.6216545    0.8444182   439061 
 3050000   0.56257198   -2.6207515   -2.6207515   -1.7768954  0.026068209   -2.6207515   0.84385605   439061 
 3051000   0.56207127   -2.6202022   -2.6202022   -1.7770973  0.025305585   -2.6202022   0.84310498   439061 
 3052000   0.56127113   -2.6193957   -2.6193957   -1.7774909  0.028193957   -2.6193957   0.84190478   439061 
 3053000    0.5617397   -2.6206103   -2.6206103   -1.7780027  0.029801689   -2.6206103   0.84260763   439061 
 3054000   0.56111356   -2.6189177   -2.6189177   -1.7772493  0.026804708   -2.6189177   0.84166843   439061 
 3055000   0.56156035   -2.6194649   -2.6194649   -1.7771263  0.027272779   -2.6194649   0.84233861   439061 
 3056000   0.56139805   -2.6196042   -2.6196042    -1.777509  0.023104534   -2.6196042   0.84209516   439061 
 3057000   0.56229025   -2.6210169   -2.6210169   -1.7775835  0.025386565   -2.6210169   0.84343345   439061 
 3058000    0.5618944   -2.6197087   -2.6197087    -1.776869  0.027391864   -2.6197087   0.84283968   439061 
 3059000   0.56253609   -2.6203598   -2.6203598   -1.7765576  0.030254765   -2.6203598   0.84380222   439061 
 3060000    0.5628388   -2.6204168   -2.6204168   -1.7761605  0.026501603   -2.6204168   0.84425628   439061 
 3061000    0.5622462   -2.6207307   -2.6207307   -1.7773633  0.025102364   -2.6207307   0.84336738   439061 
 3062000   0.56248049   -2.6205139   -2.6205139   -1.7767951  0.027240506   -2.6205139   0.84371881   439061 
 3063000     0.562426   -2.6207791   -2.6207791   -1.7771421   0.02919317   -2.6207791   0.84363709   439061 
 3064000   0.56179254   -2.6204421   -2.6204421   -1.7777552   0.02552902   -2.6204421   0.84268689   439061 
 3065000   0.56292442   -2.6221313   -2.6221313   -1.7777466  0.021726903   -2.6221313   0.84438471   439061 
 3066000   0.56181591   -2.6200433   -2.6200433   -1.7773214  0.027837827   -2.6200433   0.84272195   439061 
 3067000   0.56107836   -2.6202228   -2.6202228   -1.7786072  0.025075276   -2.6202228   0.84161563   439061 
 3068000   0.56096301   -2.6209607   -2.6209607   -1.7795181  0.026099975   -2.6209607   0.84144259   439061 
 3069000   0.56251752   -2.6225607   -2.6225607   -1.7787863   0.02463688   -2.6225607   0.84377436   439061 
 3070000   0.56218357   -2.6213392   -2.6213392   -1.7780657  0.022830443   -2.6213392   0.84327343   439061 
 3071000   0.56215748    -2.620676    -2.620676   -1.7774417  0.027039855    -2.620676    0.8432343   439061 
 3072000   0.56225841   -2.6206849   -2.6206849   -1.7772992  0.027380164   -2.6206849    0.8433857   439061 
 3073000   0.56142234   -2.6207045   -2.6207045   -1.7785729  0.025962554   -2.6207045   0.84213159   439061 
 3074000   0.56243088   -2.6221608   -2.6221608   -1.7785164  0.027886568   -2.6221608    0.8436444   439061 
 3075000    0.5622914   -2.6217767   -2.6217767   -1.7783415  0.027686569   -2.6217767   0.84343517   439061 
 3076000    0.5628346   -2.6230004   -2.6230004   -1.7787504   0.02624754   -2.6230004   0.84424998   439061 
 3077000   0.56162148    -2.621252    -2.621252   -1.7788217  0.029480899    -2.621252    0.8424303   439061 
 3078000    0.5614885   -2.6213202   -2.6213202   -1.7790894  0.025662251   -2.6213202   0.84223083   439061 
 3079000     0.560938   -2.6209536   -2.6209536   -1.7795485  0.027329406   -2.6209536   0.84140508   439061 
 3080000   0.56130648    -2.622209    -2.622209   -1.7802512  0.026035224    -2.622209   0.84195781   439061 
 3081000   0.56195041   -2.6227506   -2.6227506   -1.7798269   0.02605499   -2.6227506    0.8429237   439061 
 3082000   0.56118842   -2.6223173   -2.6223173   -1.7805366  0.025396323   -2.6223173   0.84178071   439061 
 3083000   0.56204179   -2.6236742   -2.6236742   -1.7806135  0.023795908   -2.6236742   0.84306077   439061 
 3084000   0.56069742    -2.621915    -2.621915   -1.7808708  0.026126076    -2.621915   0.84104422   439061 
 3085000   0.56170071   -2.6228566   -2.6228566   -1.7803075  0.023650363   -2.6228566   0.84254914   439061 
 3086000   0.56143047   -2.6225657   -2.6225657   -1.7804219  0.026327637   -2.6225657   0.84214378   439061 
 3087000   0.56235153   -2.6243297   -2.6243297   -1.7808043   0.02563686   -2.6243297   0.84352537   439061 
 3088000   0.56225041   -2.6246201   -2.6246201   -1.7812464   0.02702161   -2.6246201    0.8433737   439061 
 3089000   0.56213564   -2.6237732   -2.6237732   -1.7805716  0.024932581   -2.6237732   0.84320154   439061 
 3090000   0.56231514    -2.623859    -2.623859   -1.7803882   0.02984525    -2.623859   0.84347079   439061 
 3091000   0.56315817   -2.6244388   -2.6244388   -1.7797035  0.027525831   -2.6244388   0.84473534   439061 
 3092000   0.56237812   -2.6236556   -2.6236556   -1.7800903  0.025919461   -2.6236556   0.84356526   439061 
 3093000   0.56291385   -2.6254395   -2.6254395   -1.7810707   0.02740308   -2.6254395   0.84436885   439061 
 3094000   0.56241607   -2.6245119   -2.6245119   -1.7808897  0.030247589   -2.6245119   0.84362219   439061 
 3095000   0.56239053   -2.6252138   -2.6252138   -1.7816299   0.03051599   -2.6252138   0.84358387   439061 
 3096000   0.56245692    -2.626248    -2.626248   -1.7825646  0.025290922    -2.626248   0.84368347   439061 
 3097000   0.56143577   -2.6251316   -2.6251316   -1.7829798  0.027911832   -2.6251316   0.84215174   439061 
 3098000   0.56185146   -2.6251255   -2.6251255   -1.7823502  0.026026138   -2.6251255   0.84277527   439061 
 3099000   0.56067083   -2.6233437   -2.6233437   -1.7823394  0.025706508   -2.6233437   0.84100434   439061 
 3100000   0.56144686   -2.6245357   -2.6245357   -1.7823673  0.024343477   -2.6245357   0.84216838   439061 
 3101000   0.56098762    -2.624368    -2.624368   -1.7828885  0.029057002    -2.624368   0.84147952   439061 
 3102000   0.56148461   -2.6255663   -2.6255663   -1.7833413  0.027380242   -2.6255663     0.842225   439061 
 3103000   0.56310319   -2.6267862   -2.6267862   -1.7821334  0.023557953   -2.6267862   0.84465287   439061 
 3104000   0.56261475   -2.6256652   -2.6256652    -1.781745  0.028324726   -2.6256652   0.84392021   439061 
 3105000   0.56195494   -2.6249756   -2.6249756   -1.7820451  0.023705608   -2.6249756   0.84293049   439061 
 3106000   0.56172998   -2.6254891   -2.6254891   -1.7828961  0.023583431   -2.6254891   0.84259306   439061 
 3107000   0.56049151   -2.6239732   -2.6239732   -1.7832379  0.022720989   -2.6239732   0.84073536   439061 
 3108000   0.56156783   -2.6253894   -2.6253894   -1.7830395  0.023494876   -2.6253894   0.84234983   439061 
 3109000   0.56045014   -2.6247673   -2.6247673    -1.784094   0.02095473   -2.6247673    0.8406733   439061 
 3110000   0.56011558   -2.6250321   -2.6250321   -1.7848606  0.022301801   -2.6250321   0.84017146   439061 
 3111000   0.56035681   -2.6250409   -2.6250409   -1.7845076  0.025377985   -2.6250409   0.84053331   439061 
 3112000   0.56028668   -2.6251607   -2.6251607   -1.7847326  0.031335356   -2.6251607   0.84042811   439061 
 3113000   0.56173548   -2.6266736   -2.6266736   -1.7840723  0.020890734   -2.6266736    0.8426013   439061 
 3114000   0.56114974   -2.6254883   -2.6254883   -1.7837656  0.027651291   -2.6254883   0.84172269   439061 
 3115000    0.5615815   -2.6259426   -2.6259426   -1.7835723   0.02797543   -2.6259426   0.84237034   439061 
 3116000   0.56137931    -2.626456    -2.626456    -1.784389    0.0249618    -2.626456   0.84206704   439061 
 3117000   0.56133155   -2.6260839   -2.6260839   -1.7840885  0.025417629   -2.6260839   0.84199541   439061 
 3118000   0.56144065   -2.6259087   -2.6259087   -1.7837496   0.02794265   -2.6259087   0.84215906   439061 
 3119000   0.56129104   -2.6259777   -2.6259777   -1.7840431  0.027186733   -2.6259777   0.84193464   439061 
 3120000   0.56135621   -2.6269818   -2.6269818   -1.7849494  0.027259626   -2.6269818    0.8420324   439061 
 3121000   0.56116467   -2.6275437   -2.6275437   -1.7857986  0.027681118   -2.6275437    0.8417451   439061 
 3122000   0.56151775   -2.6272844   -2.6272844   -1.7850097  0.027139297   -2.6272844    0.8422747   439061 
 3123000   0.56208791   -2.6275246   -2.6275246   -1.7843947   0.02792131   -2.6275246   0.84312995   439061 
 3124000   0.56071216   -2.6266297   -2.6266297   -1.7855634   0.02893811   -2.6266297   0.84106632   439061 
 3125000   0.56049311   -2.6261889   -2.6261889   -1.7854512  0.025886495   -2.6261889   0.84073775   439061 
 3126000   0.56065279   -2.6275184   -2.6275184   -1.7865411   0.02477764   -2.6275184   0.84097726   439061 
 3127000   0.56073708   -2.6274663   -2.6274663   -1.7863626  0.027417975   -2.6274663    0.8411037   439061 
 3128000    0.5615293   -2.6280585   -2.6280585   -1.7857664  0.027542097   -2.6280585   0.84229203   439061 
 3129000   0.56214251   -2.6296672   -2.6296672   -1.7864553  0.024645386   -2.6296672   0.84321185   439061 
 3130000   0.56172851   -2.6279473   -2.6279473   -1.7853564  0.025721522   -2.6279473   0.84259085   439061 
 3131000   0.56183582   -2.6277922   -2.6277922   -1.7850404  0.025356012   -2.6277922   0.84275182   439061 
 3132000   0.56244951   -2.6283444   -2.6283444   -1.7846721  0.023914917   -2.6283444   0.84367235   439061 
 3133000   0.56172947   -2.6275683   -2.6275683    -1.784976  0.023316163   -2.6275683   0.84259229   439061 
 3134000   0.56119539   -2.6265375   -2.6265375   -1.7847463  0.031408787   -2.6265375   0.84179117   439061 
 3135000    0.5611765   -2.6267608   -2.6267608    -1.784998  0.030036907   -2.6267608   0.84176284   439061 
 3136000   0.56121257   -2.6270062   -2.6270062   -1.7851893  0.027701007   -2.6270062   0.84181694   439061 
 3137000   0.56138069    -2.627829    -2.627829   -1.7857599  0.025665591    -2.627829   0.84206911   439061 
 3138000   0.56087022   -2.6276511   -2.6276511   -1.7863477  0.022572396   -2.6276511   0.84130341   439061 
 3139000   0.56009759   -2.6272517   -2.6272517   -1.7871072  0.024428749   -2.6272517   0.84014447   439061 
 3140000   0.56056835   -2.6275977   -2.6275977   -1.7867471  0.022802197   -2.6275977   0.84085061   439061 
 3141000   0.55908008   -2.6263714   -2.6263714   -1.7877532  0.022248041   -2.6263714    0.8386182   439061 
 3142000   0.56086759   -2.6279865   -2.6279865   -1.7866871  0.022025742   -2.6279865   0.84129947   439061 
 3143000   0.56049064   -2.6278041   -2.6278041   -1.7870701   0.02223789   -2.6278041   0.84073404   439061 
 3144000   0.56061949   -2.6280757   -2.6280757   -1.7871483  0.024474958   -2.6280757   0.84092732   439061 
 3145000   0.56076599   -2.6282816   -2.6282816   -1.7871345  0.022648765   -2.6282816   0.84114707   439061 
 3146000   0.56056169   -2.6278288   -2.6278288   -1.7869882  0.025784874   -2.6278288   0.84084062   439061 
 3147000   0.56054888   -2.6280984   -2.6280984    -1.787277  0.026754001   -2.6280984   0.84082141   439061 
 3148000   0.56073649   -2.6280164   -2.6280164   -1.7869136  0.026659912   -2.6280164   0.84110282   439061 
 3149000   0.56115537   -2.6288187   -2.6288187   -1.7870876  0.025636609   -2.6288187   0.84173114   439061 
 3150000   0.56209727    -2.630311    -2.630311    -1.787167  0.026552923    -2.630311   0.84314399   439061 
 3151000   0.56165616   -2.6304493   -2.6304493   -1.7879669  0.025759671   -2.6304493   0.84248233   439061 
 3152000    0.5613924   -2.6295602   -2.6295602   -1.7874735  0.029576837   -2.6295602   0.84208668   439061 
 3153000   0.56223351    -2.631945    -2.631945   -1.7885966  0.026396887    -2.631945   0.84334834   439061 
 3154000   0.56117213   -2.6305067   -2.6305067   -1.7887504    0.0293852   -2.6305067   0.84175628   439061 
 3155000   0.56139795   -2.6313707   -2.6313707   -1.7892757    0.0252136   -2.6313707   0.84209501   439061 
 3156000   0.56016828   -2.6309479   -2.6309479   -1.7906974  0.025543288   -2.6309479    0.8402505   439061 
 3157000   0.55978966   -2.6307508   -2.6307508   -1.7910682  0.024275841   -2.6307508   0.83968258   439061 
 3158000   0.56125647   -2.6331661   -2.6331661   -1.7912833     0.023638   -2.6331661   0.84188279   439061 
 3159000   0.56050741   -2.6312879   -2.6312879   -1.7905287  0.028408241   -2.6312879   0.84075919   439061 
 3160000   0.56207045   -2.6339263   -2.6339263   -1.7908225   0.02716287   -2.6339263   0.84310376   439061 
 3161000   0.56192459   -2.6332049   -2.6332049     -1.79032  0.026408015   -2.6332049   0.84288497   439061 
 3162000   0.56144028   -2.6321399   -2.6321399   -1.7899814  0.026495305   -2.6321399    0.8421585   439061 
 3163000     0.561802   -2.6326028   -2.6326028   -1.7899017   0.02684631   -2.6326028   0.84270108   439061 
 3164000   0.56121439   -2.6321602   -2.6321602   -1.7903406  0.026863873   -2.6321602   0.84181966   439061 
 3165000   0.56201127   -2.6329319   -2.6329319   -1.7899169  0.027512958   -2.6329319   0.84301499   439061 
 3166000   0.56121295   -2.6319247   -2.6319247   -1.7901072  0.027662191   -2.6319247    0.8418175   439061 
 3167000    0.5606564   -2.6317653   -2.6317653   -1.7907827  0.025969634   -2.6317653   0.84098269   439061 
 3168000   0.55963507   -2.6310447   -2.6310447    -1.791594   0.02483468   -2.6310447   0.83945069   439061 
 3169000    0.5598267   -2.6309172   -2.6309172   -1.7911791  0.024664857   -2.6309172   0.83973814   439061 
 3170000    0.5604208   -2.6321678   -2.6321678   -1.7915385  0.022216433   -2.6321678   0.84062929   439061 
 3171000    0.5593285   -2.6307844   -2.6307844   -1.7917936  0.025392109   -2.6307844   0.83899084   439061 
 3172000   0.56103914   -2.6316597   -2.6316597   -1.7901029  0.023901146   -2.6316597    0.8415568   439061 
 3173000   0.56010696   -2.6303159   -2.6303159   -1.7901574  0.027043987   -2.6303159   0.84015853   439061 
 3174000   0.56015947   -2.6308918   -2.6308918   -1.7906545  0.024927418   -2.6308918   0.84023729   439061 
 3175000    0.5602857   -2.6302735   -2.6302735   -1.7898469  0.028257182   -2.6302735   0.84042664   439061 
 3176000   0.55974842   -2.6309092   -2.6309092   -1.7912885   0.02099313   -2.6309092   0.83962072   439061 
 3177000   0.55937814   -2.6302462   -2.6302462   -1.7911809   0.02429478   -2.6302462    0.8390653   439061 
 3178000    0.5605529   -2.6305865   -2.6305865   -1.7897591  0.023325331   -2.6305865   0.84082743   439061 
 3179000   0.56021026   -2.6301546   -2.6301546   -1.7898411  0.025155989   -2.6301546   0.84031347   439061 
 3180000   0.56055207   -2.6306279   -2.6306279   -1.7898017  0.023717815   -2.6306279    0.8408262   439061 
 3181000   0.56070717   -2.6317157   -2.6317157   -1.7906569  0.022261793   -2.6317157   0.84105883   439061 
 3182000   0.56109512   -2.6323345   -2.6323345   -1.7906938  0.028129622   -2.6323345   0.84164076   439061 
 3183000   0.56190945   -2.6338648   -2.6338648   -1.7910025  0.023099494   -2.6338648   0.84286225   439061 
 3184000   0.56135479   -2.6334888   -2.6334888   -1.7914586  0.021774575   -2.6334888   0.84203027   439061 
 3185000   0.56079625    -2.631751    -2.631751   -1.7905585  0.025818061    -2.631751   0.84119246   439061 
 3186000   0.56079168   -2.6317311   -2.6317311   -1.7905455  0.027978144   -2.6317311   0.84118561   439061 
 3187000   0.55979939   -2.6314286   -2.6314286   -1.7917314  0.026894134   -2.6314286   0.83969717   439061 
 3188000   0.55955709   -2.6315565   -2.6315565   -1.7922228  0.025883041   -2.6315565   0.83933373   439061 
 3189000   0.56012141   -2.6321299   -2.6321299   -1.7919497  0.028111646   -2.6321299    0.8401802   439061 
 3190000   0.56087037   -2.6339983   -2.6339983   -1.7926947  0.021667973   -2.6339983   0.84130364   439061 
 3191000   0.56070505   -2.6340479   -2.6340479   -1.7929923   0.02430711   -2.6340479   0.84105565   439061 
 3192000   0.56066468   -2.6340659   -2.6340659   -1.7930708  0.021886326   -2.6340659    0.8409951   439061 
 3193000   0.55997821   -2.6330876   -2.6330876   -1.7931222  0.027082889   -2.6330876    0.8399654   439061 
 3194000   0.56046048   -2.6343304   -2.6343304   -1.7936416  0.026679898   -2.6343304   0.84068881   439061 
 3195000   0.56068834   -2.6331693   -2.6331693   -1.7921387  0.026996905   -2.6331693   0.84103059   439061 
 3196000   0.56073236   -2.6331909   -2.6331909   -1.7920942  0.026661863   -2.6331909   0.84109662   439061 
 3197000     0.560677   -2.6335912   -2.6335912   -1.7925776  0.024774369   -2.6335912   0.84101359   439061 
 3198000   0.56137414   -2.6347505   -2.6347505   -1.7926912  0.025523941   -2.6347505   0.84205929   439061 
 3199000   0.56066557   -2.6338682   -2.6338682   -1.7928717  0.024582421   -2.6338682   0.84099644   439061 
 3200000   0.56119899   -2.6338894   -2.6338894   -1.7920929  0.029534827   -2.6338894   0.84179656   439061 
 3201000   0.56115988   -2.6335183   -2.6335183   -1.7917804  0.032234508   -2.6335183    0.8417379   439061 
 3202000   0.56160016   -2.6353762   -2.6353762   -1.7929779  0.023498454   -2.6353762   0.84239832   439061 
 3203000   0.56076249   -2.6343656   -2.6343656   -1.7932237  0.026022303   -2.6343656   0.84114182   439061 
 3204000   0.56132841   -2.6346549   -2.6346549   -1.7926642  0.021238978   -2.6346549    0.8419907   439061 
 3205000    0.5613833    -2.634873    -2.634873      -1.7928  0.026158515    -2.634873   0.84207303   439061 
 3206000   0.56048079   -2.6337291   -2.6337291   -1.7930098  0.024492317   -2.6337291   0.84071927   439061 
 3207000    0.5600252   -2.6334649   -2.6334649    -1.793429  0.022226501   -2.6334649   0.84003589   439061 
 3208000    0.5606049   -2.6342487   -2.6342487   -1.7933433  0.028321373   -2.6342487   0.84090544   439061 
 3209000   0.56019562   -2.6330349   -2.6330349   -1.7927434  0.025855281   -2.6330349   0.84029152   439061 
 3210000   0.56032446   -2.6327894   -2.6327894   -1.7923047  0.029108179   -2.6327894   0.84048477   439061 
 3211000   0.56089832   -2.6343136   -2.6343136    -1.792968  0.025134522   -2.6343136   0.84134556   439061 
 3212000   0.56172357   -2.6343048   -2.6343048   -1.7917214  0.026647691   -2.6343048   0.84258344   439061 
 3213000   0.56246566   -2.6348839   -2.6348839   -1.7911873  0.025891642   -2.6348839   0.84369656   439061 
 3214000   0.56257263   -2.6349804   -2.6349804   -1.7911234  0.027898051   -2.6349804   0.84385702   439061 
 3215000   0.56111874   -2.6326919   -2.6326919   -1.7910157  0.027342901   -2.6326919    0.8416762   439061 
 3216000   0.56147801   -2.6324873   -2.6324873   -1.7902722  0.022991499   -2.6324873    0.8422151   439061 
 3217000   0.56117204   -2.6324956   -2.6324956   -1.7907395   0.02517778   -2.6324956   0.84175615   439061 
 3218000   0.56146107   -2.6334861   -2.6334861   -1.7912964  0.024445466   -2.6334861   0.84218969   439061 
 3219000   0.56143251   -2.6339717   -2.6339717   -1.7918248  0.025002307   -2.6339717   0.84214685   439061 
 3220000   0.56060593   -2.6323276   -2.6323276   -1.7914206  0.024259002   -2.6323276   0.84090698   439061 
 3221000   0.56067424   -2.6333303   -2.6333303   -1.7923208  0.024591554   -2.6333303   0.84100945   439061 
 3222000   0.55982771   -2.6321807   -2.6321807    -1.792441  0.022747875   -2.6321807   0.83973965   439061 
 3223000   0.55968287   -2.6320221   -2.6320221   -1.7924997  0.024039375   -2.6320221    0.8395224   439061 
 3224000   0.55900178   -2.6307025   -2.6307025   -1.7922018  0.024293239   -2.6307025   0.83850077   439061 
 3225000   0.56104832   -2.6329452   -2.6329452   -1.7913747  0.021165302   -2.6329452   0.84157056   439061 
 3226000   0.56051674     -2.63228     -2.63228   -1.7915068  0.025935003     -2.63228    0.8407732   439061 
 3227000   0.56101202   -2.6326966   -2.6326966   -1.7911805   0.02328607   -2.6326966   0.84151611   439061 
 3228000   0.56059113   -2.6319818   -2.6319818   -1.7910971  0.025906014   -2.6319818   0.84088478   439061 
 3229000   0.56159013   -2.6332243   -2.6332243    -1.790841  0.024466051   -2.6332243   0.84238328   439061 
 3230000   0.56122701    -2.633021    -2.633021   -1.7911824  0.025429374    -2.633021   0.84183859   439061 
 3231000    0.5611666   -2.6320886   -2.6320886   -1.7903406  0.026240568   -2.6320886   0.84174798   439061 
 3232000   0.56086678   -2.6341964   -2.6341964   -1.7928981  0.020554815   -2.6341964   0.84129825   439061 
 3233000    0.5601157   -2.6330188   -2.6330188   -1.7928472  0.024163209   -2.6330188   0.84017163   439061 
 3234000   0.56038974   -2.6338047   -2.6338047    -1.793222  0.025007834   -2.6338047   0.84058269   439061 
 3235000   0.56033819    -2.633842    -2.633842   -1.7933366  0.024757784    -2.633842   0.84050537   439061 
 3236000   0.56058656   -2.6340945   -2.6340945   -1.7932165  0.026828809   -2.6340945   0.84087792   439061 
 3237000   0.56053092   -2.6346472   -2.6346472   -1.7938527  0.027291379   -2.6346472   0.84079447   439061 
 3238000   0.56154099   -2.6356831   -2.6356831   -1.7933735  0.025430782   -2.6356831   0.84230956   439061 
 3239000   0.56054474   -2.6346137   -2.6346137   -1.7937985  0.025046293   -2.6346137   0.84081519   439061 
 3240000    0.5601739   -2.6346952   -2.6346952   -1.7944363  0.026426645   -2.6346952   0.84025894   439061 
 3241000   0.56100038   -2.6362955   -2.6362955   -1.7947969  0.021315644   -2.6362955   0.84149866   439061 
 3242000    0.5606262   -2.6357071   -2.6357071   -1.7947697  0.024279817   -2.6357071   0.84093739   439061 
 3243000   0.56052129   -2.6357212   -2.6357212   -1.7949412  0.025458008   -2.6357212   0.84078002   439061 
 3244000   0.56061655   -2.6360958   -2.6360958   -1.7951729  0.024744212   -2.6360958   0.84092291   439061 
 3245000   0.56048352   -2.6358075   -2.6358075   -1.7950841  0.028649772   -2.6358075   0.84072336   439061 
 3246000   0.56098305   -2.6364061   -2.6364061   -1.7949335  0.024593161   -2.6364061   0.84147266   439061 
 3247000   0.56035594   -2.6351818   -2.6351818   -1.7946498  0.026845818   -2.6351818   0.84053199   439061 
 3248000   0.56058308   -2.6354095   -2.6354095   -1.7945368  0.024127383   -2.6354095    0.8408727   439061 
 3249000   0.56121262   -2.6370143   -2.6370143   -1.7951973  0.024494301   -2.6370143   0.84181701   439061 
 3250000   0.56002223   -2.6359684   -2.6359684    -1.795937  0.025758796   -2.6359684   0.84003143   439061 
 3251000   0.56112435    -2.636971    -2.636971   -1.7952864  0.025132514    -2.636971   0.84168461   439061 
 3252000   0.56053642   -2.6368123   -2.6368123   -1.7960096  0.020343062   -2.6368123   0.84080271   439061 
 3253000   0.56085389    -2.637686    -2.637686    -1.796407  0.020820897    -2.637686   0.84127892   439061 
 3254000   0.55999018   -2.6367941   -2.6367941   -1.7968107  0.025174495   -2.6367941   0.83998336   439061 
 3255000   0.55990917   -2.6372697   -2.6372697   -1.7974079  0.021464319   -2.6372697   0.83986184   439061 
 3256000   0.56053524   -2.6380695   -2.6380695   -1.7972686  0.020479523   -2.6380695   0.84080095   439061 
 3257000   0.55948226   -2.6359716   -2.6359716   -1.7967502   0.02528588   -2.6359716   0.83922147   439061 
 3258000   0.56000634   -2.6365852   -2.6365852   -1.7965776  0.028960079   -2.6365852    0.8400076   439061 
 3259000   0.56106872   -2.6377531   -2.6377531   -1.7961519  0.026355826   -2.6377531   0.84160117   439061 
 3260000   0.56105563   -2.6379552   -2.6379552   -1.7963736   0.02333459   -2.6379552   0.84158154   439061 
 3261000   0.56049251    -2.637333    -2.637333   -1.7965962  0.027426575    -2.637333   0.84073686   439061 
 3262000   0.56060294   -2.6375838   -2.6375838   -1.7966814  0.025357351   -2.6375838    0.8409025   439061 
 3263000   0.56032632    -2.637555    -2.637555   -1.7970674  0.025155256    -2.637555   0.84048757   439061 
 3264000   0.56029464   -2.6367327   -2.6367327   -1.7962926  0.027203348   -2.6367327   0.84044004   439061 
 3265000   0.55976811   -2.6363775   -2.6363775   -1.7967273  0.028020573   -2.6363775   0.83965025   439061 
 3266000   0.56069294   -2.6375367   -2.6375367   -1.7964992  0.024616353   -2.6375367   0.84103749   439061 
 3267000   0.56071482    -2.637286    -2.637286   -1.7962157  0.026221572    -2.637286   0.84107032   439061 
 3268000   0.56030317   -2.6367238   -2.6367238    -1.796271  0.024740192   -2.6367238   0.84045284   439061 
 3269000   0.56026786   -2.6367543   -2.6367543   -1.7963545  0.025578608   -2.6367543   0.84039987   439061 
 3270000   0.56046963   -2.6367826   -2.6367826     -1.79608  0.025430251   -2.6367826   0.84070253   439061 
 3271000   0.56042824   -2.6370436   -2.6370436   -1.7964032  0.024988327   -2.6370436   0.84064044   439061 
 3272000   0.56116082   -2.6380642   -2.6380642   -1.7963249  0.026220496   -2.6380642   0.84173932   439061 
 3273000   0.56008068   -2.6362122   -2.6362122   -1.7960931   0.02545015   -2.6362122    0.8401191   439061 
 3274000   0.56082296   -2.6369384   -2.6369384   -1.7957059  0.025913019   -2.6369384   0.84123252   439061 
 3275000   0.56004364   -2.6354716   -2.6354716    -1.795408   0.02755517   -2.6354716   0.84006355   439061 
 3276000    0.5598454   -2.6351002   -2.6351002    -1.795334  0.024602282   -2.6351002   0.83976619   439061 
 3277000   0.56042627   -2.6362586   -2.6362586   -1.7956212  0.019086384   -2.6362586   0.84063749   439061 
 3278000   0.55977386   -2.6350523   -2.6350523   -1.7953934  0.026062606   -2.6350523   0.83965887   439061 
 3279000   0.56035428   -2.6357187   -2.6357187   -1.7951892  0.025726672   -2.6357187   0.84052951   439061 
 3280000   0.56090568   -2.6357832   -2.6357832   -1.7944266  0.025076171   -2.6357832    0.8413566   439061 
 3281000   0.55945499   -2.6344882   -2.6344882   -1.7953076  0.027399366   -2.6344882   0.83918057   439061 
 3282000   0.56036733    -2.635741    -2.635741   -1.7951919  0.022192583    -2.635741   0.84054907   439061 
 3283000   0.56076995   -2.6366534   -2.6366534   -1.7955004   0.02236308   -2.6366534   0.84115301   439061 
 3284000   0.56027813   -2.6344757   -2.6344757   -1.7940604  0.025722353   -2.6344757   0.84041528   439061 
 3285000    0.5598839   -2.6351464   -2.6351464   -1.7953224  0.023076778   -2.6351464   0.83982394   439061 
 3286000   0.56004664   -2.6354399   -2.6354399   -1.7953718  0.021712225   -2.6354399   0.84006804   439061 
 3287000   0.55861836   -2.6348146   -2.6348146    -1.796889  0.024102033   -2.6348146   0.83792563   439061 
 3288000   0.55905365   -2.6357033   -2.6357033   -1.7971247  0.020928124   -2.6357033   0.83857857   439061 
 3289000   0.56013622   -2.6365295   -2.6365295   -1.7963271  0.022279328   -2.6365295   0.84020241   439061 
 3290000   0.56044707   -2.6367546   -2.6367546   -1.7960859  0.022430061   -2.6367546    0.8406687   439061 
 3291000   0.55947019   -2.6361945   -2.6361945   -1.7969911  0.024276662   -2.6361945   0.83920337   439061 
 3292000   0.56057545   -2.6373034   -2.6373034   -1.7964421   0.02950401   -2.6373034   0.84086127   439061 
 3293000   0.56059734   -2.6378638   -2.6378638   -1.7969697  0.029517854   -2.6378638   0.84089409   439061 
 3294000   0.56047998    -2.638741    -2.638741   -1.7980229  0.022037096    -2.638741   0.84071806   439061 
 3295000   0.56023137   -2.6380403   -2.6380403   -1.7976952  0.023673418   -2.6380403   0.84034515   439061 
 3296000   0.56004004   -2.6379176   -2.6379176   -1.7978595  0.029466276   -2.6379176   0.84005815   439061 
 3297000   0.56012811   -2.6387756   -2.6387756   -1.7985854  0.026959778   -2.6387756   0.84019025   439061 
 3298000   0.56014565   -2.6395007   -2.6395007   -1.7992842  0.026519259   -2.6395007   0.84021656   439061 
 3299000    0.5608788    -2.641214    -2.641214   -1.7998977  0.024787989    -2.641214   0.84131629   439061 
 3300000   0.55959396   -2.6401515   -2.6401515   -1.8007625  0.027956773   -2.6401515   0.83938903   439061 
 3301000   0.56020735   -2.6409479   -2.6409479   -1.8006387  0.023904006   -2.6409479   0.84030912   439061 
 3302000   0.56017214   -2.6408559   -2.6408559   -1.8005996  0.023850484   -2.6408559   0.84025629   439061 
 3303000   0.55959367   -2.6400204   -2.6400204   -1.8006318  0.028806847   -2.6400204   0.83938859   439061 
 3304000    0.5595098   -2.6407994   -2.6407994   -1.8015366  0.024147252   -2.6407994   0.83926278   439061 
 3305000     0.559091   -2.6406372   -2.6406372   -1.8020026  0.022126409   -2.6406372   0.83863459   439061 
 3306000    0.5588831   -2.6404629   -2.6404629   -1.8021401   0.02172016   -2.6404629   0.83832273   439061 
 3307000   0.55973762   -2.6419908   -2.6419908   -1.8023863  0.023828323   -2.6419908   0.83960451   439061 
 3308000   0.55939695   -2.6415286   -2.6415286   -1.8024351  0.023797999   -2.6415286   0.83909351   439061 
 3309000   0.55927546   -2.6413247   -2.6413247   -1.8024134  0.025358086   -2.6413247   0.83891128   439061 
 3310000   0.56002029   -2.6413336   -2.6413336   -1.8013051  0.021163294   -2.6413336   0.84002852   439061 
 3311000   0.56060046    -2.642047    -2.642047   -1.8011482  0.024400884    -2.642047   0.84089877   439061 
 3312000   0.56045381   -2.6418686   -2.6418686   -1.8011898  0.025540272   -2.6418686    0.8406788   439061 
 3313000   0.55970246   -2.6406844   -2.6406844   -1.8011326  0.027790763   -2.6406844   0.83955178   439061 
 3314000    0.5606179   -2.6415044   -2.6415044   -1.8005795  0.023935921   -2.6415044   0.84092493   439061 
 3315000   0.56064583    -2.641104    -2.641104   -1.8001372  0.024411814    -2.641104   0.84096683   439061 
 3316000   0.56000251   -2.6404533   -2.6404533   -1.8004514  0.027120025   -2.6404533   0.84000186   439061 
 3317000   0.56021895   -2.6412919   -2.6412919   -1.8009654  0.023143511   -2.6412919   0.84032651   439061 
 3318000   0.55963719   -2.6404906   -2.6404906   -1.8010367  0.024861491   -2.6404906   0.83945387   439061 
 3319000   0.55980709   -2.6403216   -2.6403216   -1.8006129  0.021121413   -2.6403216   0.83970873   439061 
 3320000   0.55890627   -2.6385969   -2.6385969   -1.8002394  0.023018884   -2.6385969    0.8383575   439061 
 3321000    0.5593899   -2.6398123   -2.6398123   -1.8007294  0.022812498   -2.6398123   0.83908294   439061 
 3322000   0.55943101   -2.6394111   -2.6394111   -1.8002665  0.022009946   -2.6394111    0.8391446   439061 
 3323000   0.55966716   -2.6395228   -2.6395228    -1.800024  0.020093127   -2.6395228   0.83949882   439061 
 3324000    0.5590075    -2.639074    -2.639074   -1.8005647  0.026773728    -2.639074   0.83850934   439061 
 3325000   0.55927758    -2.640403    -2.640403   -1.8014885  0.021595746    -2.640403   0.83891445   439061 
 3326000   0.55856919   -2.6390589   -2.6390589   -1.8012071  0.021506354   -2.6390589   0.83785188   439061 
 3327000   0.55904694   -2.6387704   -2.6387704   -1.8002019  0.020530517   -2.6387704    0.8385685   439061 
 3328000   0.55821772   -2.6374647   -2.6374647     -1.80014  0.023843483   -2.6374647   0.83732467   439061 
 3329000   0.56000761   -2.6396602   -2.6396602   -1.7996507  0.024813291   -2.6396602   0.84000951   439061 
 3330000   0.56060867   -2.6412053   -2.6412053   -1.8002942  0.025110216   -2.6412053   0.84091109   439061 
 3331000   0.55909257   -2.6388953   -2.6388953   -1.8002583  0.027334633   -2.6388953   0.83863694   439061 
 3332000   0.56035798   -2.6404322   -2.6404322   -1.7998971  0.023312267   -2.6404322   0.84053505   439061 
 3333000   0.55922147   -2.6401316   -2.6401316   -1.8013013  0.028140014   -2.6401316    0.8388303   439061 
 3334000   0.56091435   -2.6419287   -2.6419287   -1.8005591  0.025440008   -2.6419287    0.8413696   439061 
 3335000   0.56074744   -2.6424923   -2.6424923   -1.8013731   0.02602927   -2.6424923   0.84111925   439061 
 3336000   0.55985813   -2.6409515   -2.6409515   -1.8011662  0.025671456   -2.6409515   0.83978528   439061 
 3337000    0.5590093   -2.6407498   -2.6407498   -1.8022378  0.023995193   -2.6407498   0.83851204   439061 
 3338000   0.55961869   -2.6414439   -2.6414439   -1.8020178  0.025844854   -2.6414439   0.83942613   439061 
 3339000    0.5600226   -2.6413377   -2.6413377   -1.8013057  0.026289944   -2.6413377   0.84003199   439061 
 3340000   0.56062866   -2.6433266   -2.6433266   -1.8023856  0.022231565   -2.6433266   0.84094108   439061 
 3341000   0.55922793     -2.64069     -2.64069   -1.8018501   0.02617771     -2.64069   0.83883998   439061 
 3342000   0.55919591   -2.6415122   -2.6415122   -1.8027203  0.027789786   -2.6415122   0.83879195   439061 
 3343000   0.55960628   -2.6419049   -2.6419049   -1.8024974  0.027673653   -2.6419049   0.83940752   439061 
 3344000   0.55911448   -2.6415225   -2.6415225   -1.8028526  0.024494628   -2.6415225   0.83866981   439061 
 3345000   0.55899733   -2.6416053   -2.6416053   -1.8031112  0.024461666   -2.6416053   0.83849409   439061 
 3346000   0.55910272   -2.6413906   -2.6413906   -1.8027384  0.028547408   -2.6413906   0.83865217   439061 
 3347000   0.55939341   -2.6418894   -2.6418894   -1.8028012  0.026070255   -2.6418894    0.8390882   439061 
 3348000    0.5591617   -2.6417565   -2.6417565   -1.8030159  0.024691948   -2.6417565   0.83874063   439061 
 3349000    0.5589715   -2.6416491   -2.6416491   -1.8031938  0.024750657   -2.6416491   0.83845534   439061 
 3350000   0.55870066   -2.6413176   -2.6413176   -1.8032685  0.027230884   -2.6413176   0.83804909   439061 
 3351000   0.55944371   -2.6418178   -2.6418178   -1.8026541  0.027098478   -2.6418178   0.83916365   439061 
 3352000   0.55866016   -2.6408465   -2.6408465   -1.8028582  0.025345373   -2.6408465   0.83798833   439061 
 3353000   0.55989162   -2.6430582   -2.6430582   -1.8032227  0.023196707   -2.6430582   0.83983551   439061 
 3354000   0.56037811   -2.6428151   -2.6428151   -1.8022499  0.024185817   -2.6428151   0.84056525   439061 
 3355000   0.55958779   -2.6430321   -2.6430321   -1.8036523  0.026136722   -2.6430321   0.83937978   439061 
 3356000   0.56020674   -2.6431242   -2.6431242    -1.802816  0.023377527   -2.6431242    0.8403082   439061 
 3357000   0.55940434    -2.642516    -2.642516   -1.8034114  0.025949741    -2.642516    0.8391046   439061 
 3358000   0.55908173   -2.6422414   -2.6422414   -1.8036207  0.022303658   -2.6422414   0.83862068   439061 
 3359000   0.55967166   -2.6427107   -2.6427107   -1.8032051  0.027359379   -2.6427107   0.83950559   439061 
 3360000   0.55926326   -2.6425659   -2.6425659   -1.8036729  0.025998438   -2.6425659   0.83889297   439061 
 3361000   0.55869161   -2.6430931   -2.6430931   -1.8050576  0.024466806   -2.6430931   0.83803551   439061 
 3362000   0.55924349   -2.6427852   -2.6427852   -1.8039219  0.022160504   -2.6427852   0.83886333   439061 
 3363000   0.55870143   -2.6415731   -2.6415731   -1.8035229  0.025019273   -2.6415731   0.83805023   439061 
 3364000    0.5586955   -2.6417092   -2.6417092   -1.8036679  0.026065178   -2.6417092   0.83804134   439061 
 3365000   0.55976928   -2.6432715   -2.6432715   -1.8036195  0.024773653   -2.6432715   0.83965201   439061 
 3366000   0.55849922   -2.6415366   -2.6415366   -1.8037897   0.02997781   -2.6415366   0.83774692   439061 
 3367000   0.55918622   -2.6427505   -2.6427505   -1.8039731  0.023628258   -2.6427505   0.83877742   439061 
 3368000   0.55888891   -2.6427138   -2.6427138   -1.8043823  0.024837517   -2.6427138   0.83833146   439061 
 3369000    0.5592761   -2.6433867   -2.6433867   -1.8044745   0.02345612   -2.6433867   0.83891224   439061 
 3370000   0.55917693   -2.6435395   -2.6435395    -1.804776  0.026004468   -2.6435395   0.83876348   439061 
 3371000    0.5599413   -2.6444509   -2.6444509   -1.8045409  0.025758594   -2.6444509   0.83991004   439061 
 3372000   0.55928345   -2.6434177   -2.6434177   -1.8044945  0.024457037   -2.6434177   0.83892326   439061 
 3373000   0.56014614    -2.644868    -2.644868   -1.8046507  0.021746897    -2.644868    0.8402173   439061 
 3374000   0.55939674   -2.6434457   -2.6434457   -1.8043525  0.024709278   -2.6434457   0.83909319   439061 
 3375000   0.55904975   -2.6432128   -2.6432128   -1.8046401  0.025872034   -2.6432128   0.83857271   439061 
 3376000   0.55761801   -2.6421073   -2.6421073   -1.8056822  0.028041295   -2.6421073   0.83642511   439061 
 3377000    0.5586537   -2.6433337   -2.6433337   -1.8053551  0.024686388   -2.6433337   0.83797865   439061 
 3378000   0.55983908   -2.6443818   -2.6443818   -1.8046251  0.024662338   -2.6443818    0.8397567   439061 
 3379000   0.55935902   -2.6437639   -2.6437639   -1.8047273  0.025628513   -2.6437639   0.83903662   439061 
 3380000   0.55920857   -2.6432282   -2.6432282   -1.8044172  0.023052388   -2.6432282   0.83881095   439061 
 3381000   0.55918196   -2.6433847   -2.6433847   -1.8046137   0.02350066   -2.6433847   0.83877103   439061 
 3382000    0.5593929   -2.6429788   -2.6429788   -1.8038914   0.02814985   -2.6429788   0.83908743   439061 
 3383000   0.55935281   -2.6429207   -2.6429207   -1.8038934  0.025495192   -2.6429207   0.83902731   439061 
 3384000   0.55980823    -2.643628    -2.643628   -1.8039176  0.022524094    -2.643628   0.83971044   439061 
 3385000   0.55835846   -2.6410666   -2.6410666   -1.8035308  0.028981643   -2.6410666   0.83753579   439061 
 3386000   0.55876674   -2.6421938   -2.6421938   -1.8040456  0.024224755   -2.6421938   0.83814821   439061 
 3387000   0.55867055   -2.6423104   -2.6423104   -1.8043065  0.024072696   -2.6423104   0.83800392   439061 
 3388000    0.5587184   -2.6431601   -2.6431601   -1.8050844  0.020728942   -2.6431601   0.83807569   439061 
 3389000   0.55852278   -2.6425992   -2.6425992   -1.8048169  0.026078291   -2.6425992   0.83778226   439061 
 3390000   0.55844932   -2.6425137   -2.6425137   -1.8048417  0.025093701   -2.6425137   0.83767207   439061 
 3391000   0.55883491   -2.6431287   -2.6431287   -1.8048782  0.023272891   -2.6431287   0.83825045   439061 
 3392000   0.55764755   -2.6420805   -2.6420805   -1.8056111  0.028307302   -2.6420805   0.83646943   439061 
 3393000    0.5585512   -2.6438983   -2.6438983   -1.8060734  0.021715802   -2.6438983   0.83782489   439061 
 3394000   0.55810562   -2.6434051   -2.6434051   -1.8062486  0.027864095   -2.6434051   0.83715652   439061 
 3395000   0.55869835   -2.6442324   -2.6442324   -1.8061868  0.023534182   -2.6442324   0.83804561   439061 
 3396000   0.55874952    -2.643801    -2.643801   -1.8056786  0.022852284    -2.643801   0.83812237   439061 
 3397000   0.55919982   -2.6437368   -2.6437368   -1.8049389  0.028332816   -2.6437368   0.83879782   439061 
 3398000   0.55912542    -2.643909    -2.643909   -1.8052227  0.021483681    -2.643909   0.83868622   439061 
 3399000   0.56021116   -2.6452021   -2.6452021   -1.8048873  0.026244467   -2.6452021   0.84031483   439061 
 3400000   0.55924308   -2.6441947   -2.6441947    -1.805332  0.027974965   -2.6441947   0.83886272   439061 
 3401000   0.56001218    -2.645191    -2.645191   -1.8051747  0.026461303    -2.645191   0.84001635   439061 
 3402000    0.5598471   -2.6446331   -2.6446331   -1.8048643  0.026024867   -2.6446331   0.83976873   439061 
 3403000   0.55962901   -2.6447533   -2.6447533   -1.8053117  0.024680164   -2.6447533    0.8394416   439061 
 3404000   0.55980668   -2.6457857   -2.6457857   -1.8060775  0.025199018   -2.6457857   0.83970811   439061 
 3405000   0.55881873   -2.6445614   -2.6445614   -1.8063352  0.024820735   -2.6445614   0.83822619   439061 
 3406000   0.55875423   -2.6451295   -2.6451295   -1.8070001  0.021033624   -2.6451295   0.83812944   439061 
 3407000    0.5582199   -2.6449032   -2.6449032   -1.8075753  0.025374126   -2.6449032   0.83732794   439061 
 3408000   0.55773834   -2.6445153   -2.6445153   -1.8079097  0.021795001   -2.6445153    0.8366056   439061 
 3409000    0.5583457   -2.6447138   -2.6447138   -1.8071971  0.021198304   -2.6447138   0.83751664   439061 
 3410000   0.55856295   -2.6443077   -2.6443077   -1.8064652  0.024851788   -2.6443077   0.83784251   439061 
 3411000   0.55898388   -2.6447012   -2.6447012   -1.8062273  0.022794308   -2.6447012   0.83847392   439061 
 3412000   0.55924233    -2.645142    -2.645142   -1.8062804  0.024611233    -2.645142   0.83886158   439061 
 3413000   0.55927142   -2.6461205   -2.6461205   -1.8072153  0.026190399   -2.6461205   0.83890522   439061 
 3414000   0.55927268   -2.6450093   -2.6450093   -1.8061022  0.021657606   -2.6450093   0.83890711   439061 
 3415000   0.55912127   -2.6451312   -2.6451312   -1.8064512   0.02426489   -2.6451312      0.83868   439061 
 3416000    0.5585124   -2.6432619   -2.6432619   -1.8054952  0.026355001   -2.6432619   0.83776668   439061 
 3417000   0.55929114   -2.6440815   -2.6440815   -1.8051467  0.026162151   -2.6440815    0.8389348   439061 
 3418000   0.56005331   -2.6452445   -2.6452445   -1.8051664  0.024719585   -2.6452445   0.84007805   439061 
 3419000   0.55901144   -2.6438111   -2.6438111   -1.8052959  0.026545504   -2.6438111   0.83851525   439061 
 3420000   0.55942054   -2.6439013   -2.6439013   -1.8047724  0.023573814   -2.6439013   0.83912889   439061 
 3421000   0.55927147    -2.644094    -2.644094   -1.8051887  0.025262207    -2.644094   0.83890529   439061 
 3422000   0.55949028   -2.6443808   -2.6443808   -1.8051473   0.02555794   -2.6443808   0.83923351   439061 
 3423000    0.5593761   -2.6436959   -2.6436959   -1.8046336  0.021097903   -2.6436959   0.83906225   439061 
 3424000   0.55876854   -2.6431126   -2.6431126   -1.8049617  0.027409451   -2.6431126   0.83815089   439061 
 3425000   0.55874495   -2.6429282   -2.6429282   -1.8048127  0.023525638   -2.6429282   0.83811552   439061 
 3426000   0.55902033   -2.6420403   -2.6420403   -1.8035118   0.02596256   -2.6420403   0.83852858   439061 
 3427000   0.55893046    -2.642286    -2.642286   -1.8038922  0.023693322    -2.642286   0.83839379   439061 
 3428000   0.55893198   -2.6419322   -2.6419322   -1.8035362  0.024843455   -2.6419322   0.83839606   439061 
 3429000   0.55874762   -2.6423799   -2.6423799   -1.8042604  0.026390803   -2.6423799   0.83811952   439061 
 3430000   0.55866189   -2.6425567   -2.6425567   -1.8045658  0.022586657   -2.6425567   0.83799092   439061 
 3431000    0.5582393   -2.6423231   -2.6423231    -1.804966  0.023619171   -2.6423231   0.83735704   439061 
 3432000    0.5586435   -2.6425251   -2.6425251   -1.8045618  0.016636005   -2.6425251   0.83796335   439061 
 3433000   0.55881026   -2.6428367   -2.6428367   -1.8046232  0.021987437   -2.6428367   0.83821348   439061 
 3434000   0.55779549   -2.6416692   -2.6416692   -1.8049779  0.024456113   -2.6416692   0.83669133   439061 
 3435000   0.55918118   -2.6433402   -2.6433402   -1.8045703  0.022912912   -2.6433402   0.83876985   439061 
 3436000   0.55870271   -2.6430519   -2.6430519   -1.8049997  0.022756376   -2.6430519   0.83805216   439061 
 3437000   0.55914961    -2.643656    -2.643656   -1.8049335  0.023727696    -2.643656    0.8387225   439061 
 3438000   0.55816077   -2.6435413   -2.6435413    -1.806302  0.022077449   -2.6435413   0.83723925   439061 
 3439000   0.55846695   -2.6430201   -2.6430201   -1.8053216  0.028325003   -2.6430201   0.83769851   439061 
 3440000   0.56033274   -2.6462211   -2.6462211   -1.8057239  0.022084072   -2.6462211   0.84049719   439061 
 3441000    0.5586631   -2.6443325   -2.6443325   -1.8063397  0.021997448   -2.6443325   0.83799274   439061 
 3442000   0.55906948   -2.6452798   -2.6452798   -1.8066775  0.026367291   -2.6452798   0.83860231   439061 
 3443000   0.55783884   -2.6442742   -2.6442742   -1.8075178  0.027485478   -2.6442742   0.83675636   439061 
 3444000   0.55868619   -2.6458182   -2.6458182   -1.8077908  0.023127757   -2.6458182   0.83802737   439061 
 3445000   0.55871071   -2.6460516   -2.6460516   -1.8079875  0.027540047   -2.6460516   0.83806415   439061 
 3446000   0.55926465   -2.6465563   -2.6465563   -1.8076612  0.025048244   -2.6465563   0.83889506   439061 
 3447000    0.5596872   -2.6479111   -2.6479111   -1.8083822   0.02339664   -2.6479111   0.83952888   439061 
 3448000   0.56024944   -2.6483111   -2.6483111   -1.8079388   0.02774593   -2.6483111   0.84037224   439061 
 3449000   0.55906256   -2.6470367   -2.6470367   -1.8084448  0.026776401   -2.6470367   0.83859192   439061 
 3450000   0.55994839   -2.6478833   -2.6478833   -1.8079626  0.025160546   -2.6478833   0.83992067   439061 
 3451000   0.55968613   -2.6479092   -2.6479092   -1.8083819  0.026837676   -2.6479092   0.83952729   439061 
 3452000   0.55911668   -2.6467563   -2.6467563   -1.8080832  0.025527396   -2.6467563    0.8386731   439061 
 3453000   0.55969099   -2.6474362   -2.6474362   -1.8079017  0.024798647   -2.6474362   0.83953457   439061 
 3454000    0.5589564   -2.6462622   -2.6462622   -1.8078295  0.025769724   -2.6462622   0.83843269   439061 
 3455000   0.55874045   -2.6460116   -2.6460116   -1.8079028  0.026505053   -2.6460116   0.83810877   439061 
 3456000   0.55795042   -2.6458997   -2.6458997    -1.808976  0.027195122   -2.6458997   0.83692372   439061 
 3457000   0.55900372   -2.6466482   -2.6466482   -1.8081446  0.024207743   -2.6466482   0.83850366   439061 
 3458000   0.55844859   -2.6459033   -2.6459033   -1.8082323  0.023903539   -2.6459033   0.83767097   439061 
 3459000   0.55873995   -2.6463935   -2.6463935   -1.8082855   0.01937106   -2.6463935   0.83810802   439061 
 3460000   0.55777317   -2.6456384   -2.6456384   -1.8089806  0.021159566   -2.6456384   0.83665785   439061 
 3461000   0.55830997   -2.6461611   -2.6461611   -1.8086981  0.022053591   -2.6461611   0.83746305   439061 
 3462000   0.55823475   -2.6452397   -2.6452397   -1.8078894  0.025660977   -2.6452397   0.83735022   439061 
 3463000   0.55952348   -2.6465187   -2.6465187   -1.8072353  0.022770436   -2.6465187   0.83928332   439061 
 3464000   0.55852474   -2.6454012   -2.6454012    -1.807616  0.021169963   -2.6454012    0.8377852   439061 
 3465000   0.55897828   -2.6457258   -2.6457258   -1.8072603  0.022266166   -2.6457258   0.83846551   439061 
 3466000   0.55795585   -2.6446762   -2.6446762   -1.8077444  0.024471083   -2.6446762   0.83693188   439061 
 3467000   0.55876548   -2.6460013   -2.6460013   -1.8078549  0.022213795   -2.6460013   0.83814631   439061 
 3468000   0.55799091   -2.6446993   -2.6446993   -1.8077148  0.024404752   -2.6446993   0.83698445   439061 
 3469000   0.55775291   -2.6449229   -2.6449229   -1.8082954  0.020912147   -2.6449229   0.83662745   439061 
 3470000   0.55891591   -2.6459807   -2.6459807   -1.8076088   0.02264477   -2.6459807   0.83837195   439061 
 3471000   0.55939457   -2.6465981   -2.6465981   -1.8075082   0.02139491   -2.6465981   0.83908994   439061 
 3472000   0.55911077    -2.647077    -2.647077   -1.8084127  0.023798576    -2.647077   0.83866424   439061 
 3473000   0.55965444   -2.6470685   -2.6470685   -1.8075888  0.022871566   -2.6470685   0.83947976   439061 
 3474000   0.55959243   -2.6472194   -2.6472194   -1.8078326  0.028011036   -2.6472194   0.83938673   439061 
 3475000   0.55895546   -2.6462493   -2.6462493   -1.8078181  0.027261106   -2.6462493   0.83843128   439061 
 3476000   0.55962462   -2.6473156   -2.6473156   -1.8078806  0.024424113   -2.6473156   0.83943501   439061 
 3477000    0.5601298   -2.6482894   -2.6482894   -1.8080966  0.024915918   -2.6482894   0.84019279   439061 
 3478000   0.55937048   -2.6476601   -2.6476601   -1.8086063  0.027484886   -2.6476601   0.83905381   439061 
 3479000   0.55881195   -2.6473051   -2.6473051   -1.8090891  0.021171549   -2.6473051   0.83821601   439061 
 3480000    0.5591091   -2.6473543   -2.6473543   -1.8086925  0.024597152   -2.6473543   0.83866174   439061 
 3481000   0.55846125    -2.647284    -2.647284    -1.809594  0.024279252    -2.647284   0.83768997   439061 
 3482000   0.55785246   -2.6459178   -2.6459178    -1.809141  0.021631962   -2.6459178   0.83677679   439061 
 3483000   0.55777919   -2.6464432   -2.6464432   -1.8097763  0.024889788   -2.6464432   0.83666689   439061 
 3484000   0.55849853   -2.6465519   -2.6465519    -1.808806  0.024116768   -2.6465519   0.83774589   439061 
 3485000   0.55800814   -2.6462499   -2.6462499   -1.8092396  0.025450373   -2.6462499   0.83701031   439061 
 3486000   0.55887578   -2.6475696   -2.6475696   -1.8092578  0.020046505   -2.6475696   0.83831175   439061 
 3487000   0.55812765   -2.6462001   -2.6462001   -1.8090105  0.019173865   -2.6462001   0.83718957   439061 
 3488000   0.55850687   -2.6465774   -2.6465774    -1.808819    0.0236819   -2.6465774    0.8377584   439061 
 3489000    0.5581541    -2.646658    -2.646658   -1.8094287  0.023668072    -2.646658   0.83722924   439061 
 3490000   0.55881789   -2.6476046   -2.6476046   -1.8093797  0.020213149   -2.6476046   0.83822492   439061 
 3491000   0.55790607   -2.6455116   -2.6455116   -1.8086544  0.023411713   -2.6455116    0.8368572   439061 
 3492000   0.55867298   -2.6483157   -2.6483157   -1.8103081   0.02131899   -2.6483157   0.83800756   439061 
 3493000   0.55834699   -2.6473818   -2.6473818   -1.8098632   0.02367579   -2.6473818   0.83751858   439061 
 3494000   0.55820387   -2.6476719   -2.6476719    -1.810368  0.023710417   -2.6476719    0.8373039   439061 
 3495000   0.55921955   -2.6486235   -2.6486235   -1.8097961  0.020945743   -2.6486235   0.83882742   439061 
 3496000   0.55689833   -2.6456196   -2.6456196    -1.810274  0.023904708   -2.6456196   0.83534559   439061 
 3497000   0.55782533   -2.6480373   -2.6480373   -1.8113012  0.023617873   -2.6480373   0.83673609   439061 
 3498000   0.55708883   -2.6471387   -2.6471387   -1.8115073  0.025180725   -2.6471387   0.83563135   439061 
 3499000   0.55833126   -2.6492108   -2.6492108   -1.8117158  0.020236447   -2.6492108   0.83749499   439061 
 3500000   0.55744236   -2.6486547   -2.6486547    -1.812493  0.023037172   -2.6486547   0.83616163   439061 
 3501000   0.55828878     -2.65005     -2.65005   -1.8126187  0.023106505     -2.65005   0.83743126   439061 
 3502000   0.55856614   -2.6505121   -2.6505121   -1.8126648  0.021149491   -2.6505121    0.8378473   439061 
 3503000   0.55836737   -2.6496403   -2.6496403   -1.8120911  0.025891315   -2.6496403   0.83754914   439061 
 3504000   0.55900399   -2.6495784   -2.6495784   -1.8110744  0.024942572   -2.6495784   0.83850408   439061 
 3505000    0.5591111   -2.6493394   -2.6493394   -1.8106746  0.029548356   -2.6493394   0.83866475   439061 
 3506000   0.55985492   -2.6509584   -2.6509584    -1.811178  0.023765548   -2.6509584   0.83978047   439061 
 3507000   0.55983648   -2.6508037   -2.6508037   -1.8110509  0.025151492   -2.6508037   0.83975281   439061 
 3508000   0.55866104   -2.6499726   -2.6499726    -1.811983  0.028436101   -2.6499726   0.83798965   439061 
 3509000   0.55904177   -2.6500714   -2.6500714   -1.8115107  0.024978268   -2.6500714   0.83856075   439061 
 3510000    0.5590094   -2.6491288   -2.6491288   -1.8106166  0.024958039   -2.6491288    0.8385122   439061 
 3511000   0.55825986   -2.6482215   -2.6482215   -1.8108336  0.025482357   -2.6482215   0.83738788   439061 
 3512000   0.55761855   -2.6481122   -2.6481122   -1.8116863  0.022323196   -2.6481122   0.83642592   439061 
 3513000   0.55721901   -2.6478755   -2.6478755   -1.8120489  0.020774331   -2.6478755   0.83582662   439061 
 3514000   0.55736311   -2.6479092   -2.6479092   -1.8118664  0.027003222   -2.6479092   0.83604276   439061 
 3515000   0.55801523   -2.6488405   -2.6488405   -1.8118196   0.02144951   -2.6488405   0.83702094   439061 
 3516000   0.55749961   -2.6488072   -2.6488072   -1.8125597  0.017942442   -2.6488072   0.83624751   439061 
 3517000   0.55744189   -2.6478716   -2.6478716   -1.8117106  0.021239852   -2.6478716   0.83616094   439061 
 3518000   0.55700401   -2.6473678   -2.6473678   -1.8118637  0.019366435   -2.6473678   0.83550412   439061 
 3519000   0.55745256   -2.6477187   -2.6477187   -1.8115418  0.018734703   -2.6477187   0.83617694   439061 
 3520000   0.55765248    -2.647973    -2.647973   -1.8114962  0.020524731    -2.647973   0.83647681   439061 
 3521000   0.55778325   -2.6488207   -2.6488207   -1.8121478  0.021067951   -2.6488207   0.83667296   439061 
 3522000   0.55773987   -2.6490057   -2.6490057   -1.8123978  0.020937012   -2.6490057    0.8366079   439061 
 3523000   0.55689789    -2.647583    -2.647583    -1.812238  0.024084755    -2.647583   0.83534493   439061 
 3524000   0.55786384   -2.6493282   -2.6493282   -1.8125344  0.021435487   -2.6493282   0.83679386   439061 
 3525000   0.55756152   -2.6490239   -2.6490239   -1.8126835  0.024680047   -2.6490239   0.83634037   439061 
 3526000   0.55657541   -2.6483661   -2.6483661   -1.8135049  0.025123214   -2.6483661   0.83486122   439061 
 3527000   0.55881251   -2.6517001   -2.6517001   -1.8134833  0.020630282   -2.6517001   0.83821686   439061 
 3528000   0.55841327   -2.6505981   -2.6505981   -1.8129801  0.025999864   -2.6505981   0.83761799   439061 
 3529000   0.55842867   -2.6508058   -2.6508058   -1.8131647  0.027913582   -2.6508058    0.8376411   439061 
 3530000   0.55954163   -2.6523406   -2.6523406   -1.8130301  0.026006756   -2.6523406   0.83931053   439061 
 3531000   0.55896118   -2.6525425   -2.6525425   -1.8141026  0.027253252   -2.6525425   0.83843985   439061 
 3532000   0.55984727   -2.6531526   -2.6531526   -1.8133836  0.027247079   -2.6531526     0.839769   439061 
 3533000   0.55937177   -2.6521387   -2.6521387    -1.813083  0.029039731   -2.6521387   0.83905575   439061 
 3534000   0.55918831   -2.6526295   -2.6526295   -1.8138489  0.026511459   -2.6526295   0.83878055   439061 
 3535000   0.55812794   -2.6514192   -2.6514192   -1.8142292  0.026887983   -2.6514192   0.83719001   439061 
 3536000   0.55854404   -2.6515635   -2.6515635   -1.8137494  0.028361092   -2.6515635   0.83781415   439061 
 3537000   0.55852492   -2.6512965   -2.6512965    -1.813511  0.023585201   -2.6512965   0.83778547   439061 
 3538000   0.55823994   -2.6516083   -2.6516083   -1.8142503  0.023171099   -2.6516083   0.83735801   439061 
 3539000   0.55859372   -2.6521668   -2.6521668   -1.8142782   0.02259926   -2.6521668   0.83788866   439061 
 3540000   0.55914734   -2.6523214   -2.6523214   -1.8136023  0.023699913   -2.6523214   0.83871909   439061 
 3541000     0.557238   -2.6505326   -2.6505326   -1.8146775  0.022192134   -2.6505326    0.8358551   439061 
 3542000   0.55742605   -2.6499992   -2.6499992    -1.813862  0.026266447   -2.6499992   0.83613718   439061 
 3543000   0.55760377   -2.6503931   -2.6503931   -1.8139894  0.023820387   -2.6503931   0.83640375   439061 
 3544000   0.55723669   -2.6503405   -2.6503405   -1.8144874  0.023000851   -2.6503405   0.83585314   439061 
 3545000    0.5576915   -2.6505318   -2.6505318   -1.8139965  0.024279705   -2.6505318   0.83653535   439061 
 3546000   0.55745582   -2.6513395   -2.6513395   -1.8151577   0.01785675   -2.6513395   0.83618183   439061 
 3547000   0.55734456   -2.6504379   -2.6504379    -1.814423  0.020890136   -2.6504379   0.83601494   439061 
 3548000   0.55763609    -2.650426    -2.650426   -1.8139738   0.01996629    -2.650426   0.83645222   439061 
 3549000   0.55715408   -2.6505587   -2.6505587   -1.8148295  0.024296256   -2.6505587   0.83572922   439061 
 3550000    0.5575614    -2.651335    -2.651335   -1.8149948  0.021102989    -2.651335    0.8363402   439061 
 3551000   0.55750282   -2.6509977   -2.6509977   -1.8147453  0.024712441   -2.6509977   0.83625233   439061 
 3552000   0.55676664   -2.6496754   -2.6496754   -1.8145274  0.026484773   -2.6496754   0.83514806   439061 
 3553000   0.55828635   -2.6518525   -2.6518525   -1.8144249  0.021711227   -2.6518525   0.83742761   439061 
 3554000   0.55778512   -2.6513314   -2.6513314   -1.8146556   0.01827237   -2.6513314   0.83667578   439061 
 3555000   0.55815544   -2.6517192   -2.6517192    -1.814488  0.028585824   -2.6517192   0.83723125   439061 
 3556000   0.55802594   -2.6512939   -2.6512939   -1.8142569  0.027368865   -2.6512939     0.837037   439061 
 3557000   0.55713282   -2.6502343   -2.6502343    -1.814537  0.026686632   -2.6502343   0.83569732   439061 
 3558000   0.55859981   -2.6528884   -2.6528884   -1.8149905  0.024850379   -2.6528884    0.8378978   439061 
 3559000   0.55829422   -2.6530573   -2.6530573   -1.8156179  0.023954539   -2.6530573   0.83743942   439061 
 3560000   0.55777837   -2.6523259   -2.6523259   -1.8156603  0.025172084   -2.6523259   0.83666565   439061 
 3561000    0.5573189   -2.6513277   -2.6513277   -1.8153512  0.026233365   -2.6513277   0.83597644   439061 
 3562000   0.55866938   -2.6520887   -2.6520887   -1.8140866  0.028937159   -2.6520887   0.83800216   439061 
 3563000   0.55887154   -2.6528027   -2.6528027   -1.8144973  0.022319876   -2.6528027    0.8383054   439061 
 3564000   0.55835503   -2.6522826   -2.6522826    -1.814752  0.026214092   -2.6522826   0.83753063   439061 
 3565000   0.55905156   -2.6525549   -2.6525549   -1.8139795  0.023236745   -2.6525549   0.83857542   439061 
 3566000   0.55927344   -2.6530929   -2.6530929   -1.8141846  0.029729106   -2.6530929   0.83890825   439061 
 3567000   0.55777676   -2.6518103   -2.6518103    -1.815147   0.02618505   -2.6518103   0.83666323   439061 
 3568000   0.55924308   -2.6534277   -2.6534277   -1.8145649  0.025227873   -2.6534277   0.83886271   439061 
 3569000   0.55858758    -2.652449    -2.652449   -1.8145696  0.020392316    -2.652449   0.83787946   439061 
 3570000   0.55745615   -2.6511239   -2.6511239   -1.8149416  0.024002598   -2.6511239   0.83618233   439061 
 3571000   0.55826023   -2.6515278   -2.6515278   -1.8141394  0.022955526   -2.6515278   0.83738844   439061 
 3572000   0.55843813   -2.6515424   -2.6515424   -1.8138871  0.021660599   -2.6515424   0.83765529   439061 
 3573000   0.55808686   -2.6516768   -2.6516768   -1.8145484  0.021960402   -2.6516768   0.83712839   439061 
 3574000    0.5578898   -2.6509892   -2.6509892   -1.8141564  0.023129512   -2.6509892    0.8368328   439061 
 3575000   0.55781511   -2.6512298   -2.6512298   -1.8145091  0.020511753   -2.6512298   0.83672076   439061 
 3576000   0.55716268   -2.6506146   -2.6506146   -1.8148725  0.019631201   -2.6506146   0.83574211   439061 
 3577000   0.55785554   -2.6513555   -2.6513555   -1.8145741  0.019143266   -2.6513555   0.83678141   439061 
 3578000   0.55759226   -2.6503212   -2.6503212   -1.8139347  0.017963685   -2.6503212   0.83638649   439061 
 3579000   0.55701498   -2.6497465   -2.6497465   -1.8142259  0.019319406   -2.6497465   0.83552056   439061 
 3580000   0.55761264   -2.6499267   -2.6499267   -1.8135097  0.022923618   -2.6499267   0.83641706   439061 
 3581000   0.55786406   -2.6502164   -2.6502164   -1.8134222  0.026834652   -2.6502164   0.83679418   439061 
 3582000   0.55786268   -2.6511154   -2.6511154   -1.8143233  0.023833196   -2.6511154   0.83679211   439061 
 3583000   0.55787752   -2.6509719   -2.6509719   -1.8141576  0.024160749   -2.6509719   0.83681437   439061 
 3584000   0.55770152   -2.6504891   -2.6504891   -1.8139387  0.023206092   -2.6504891   0.83655037   439061 
 3585000   0.55727845   -2.6503403   -2.6503403   -1.8144245  0.025877906   -2.6503403   0.83591577   439061 
 3586000   0.55865961   -2.6519521   -2.6519521   -1.8139646  0.026616902   -2.6519521    0.8379875   439061 
 3587000   0.55806441   -2.6520759   -2.6520759   -1.8149812  0.025042947   -2.6520759    0.8370947   439061 
 3588000   0.55848421   -2.6531574   -2.6531574    -1.815433  0.023135146   -2.6531574   0.83772441   439061 
 3589000   0.55893043   -2.6529594   -2.6529594   -1.8145657  0.025808779   -2.6529594   0.83839373   439061 
 3590000   0.55851282   -2.6523112   -2.6523112   -1.8145439  0.024316846   -2.6523112   0.83776732   439061 
 3591000   0.55896249   -2.6537837   -2.6537837   -1.8153419  0.021634858   -2.6537837   0.83844183   439061 
 3592000   0.55833294   -2.6531026   -2.6531026   -1.8156051  0.022117503   -2.6531026    0.8374975   439061 
 3593000   0.55767633   -2.6522162   -2.6522162   -1.8157036  0.024527661   -2.6522162   0.83651259   439061 
 3594000   0.55785689   -2.6526941   -2.6526941   -1.8159107  0.023754665   -2.6526941   0.83678343   439061 
 3595000   0.55764767   -2.6532263   -2.6532263   -1.8167567  0.023185304   -2.6532263    0.8364696   439061 
 3596000   0.55755993   -2.6521536   -2.6521536   -1.8158156  0.023202548   -2.6521536     0.836338   439061 
 3597000   0.55824505   -2.6531405   -2.6531405   -1.8157749  0.026468647   -2.6531405   0.83736567   439061 
 3598000   0.55782614   -2.6527835   -2.6527835   -1.8160462  0.024352638   -2.6527835   0.83673731   439061 
 3599000   0.55826168    -2.653155    -2.653155   -1.8157643  0.025640036    -2.653155   0.83739062   439061 
 3600000   0.55875463   -2.6530456   -2.6530456   -1.8149156  0.025903591   -2.6530456   0.83813004   439061 
 3601000   0.55916953   -2.6536448   -2.6536448   -1.8148924    0.0268129   -2.6536448   0.83875239   439061 
 3602000   0.55774323   -2.6524841   -2.6524841   -1.8158712  0.026551957   -2.6524841   0.83661294   439061 
 3603000   0.55785313   -2.6528859   -2.6528859   -1.8161081  0.024839829   -2.6528859   0.83677779   439061 
 3604000   0.55824199    -2.653398    -2.653398   -1.8160369  0.022844123    -2.653398   0.83736108   439061 
 3605000   0.55872622   -2.6531987   -2.6531987   -1.8151112  0.026168902   -2.6531987   0.83808742   439061 
 3606000   0.55789214   -2.6527218   -2.6527218   -1.8158855  0.026745118   -2.6527218    0.8368363   439061 
 3607000   0.55795175   -2.6527728   -2.6527728   -1.8158471  0.025288227   -2.6527728   0.83692573   439061 
 3608000    0.5579354   -2.6522043   -2.6522043   -1.8153031   0.02690188   -2.6522043    0.8369012   439061 
 3609000   0.55905985   -2.6534259   -2.6534259    -1.814838   0.02569627   -2.6534259   0.83858786   439061 
 3610000    0.5585999   -2.6526858   -2.6526858   -1.8147878  0.025586556   -2.6526858   0.83789794   439061 
 3611000   0.55871091   -2.6525655   -2.6525655    -1.814501  0.025562091   -2.6525655   0.83806446   439061 
 3612000   0.55878638   -2.6530046   -2.6530046   -1.8148269  0.024585853   -2.6530046   0.83817767   439061 
 3613000   0.55773809   -2.6516834   -2.6516834   -1.8150782  0.024872365   -2.6516834   0.83660523   439061 
 3614000   0.55795673   -2.6521326   -2.6521326   -1.8151994  0.024378755   -2.6521326    0.8369332   439061 
 3615000   0.55806367   -2.6527143   -2.6527143   -1.8156207  0.023174234   -2.6527143    0.8370936   439061 
 3616000   0.55785209   -2.6524494   -2.6524494   -1.8156732  0.021082099   -2.6524494   0.83677624   439061 
 3617000    0.5574412   -2.6517104   -2.6517104   -1.8155505  0.019943037   -2.6517104    0.8361599   439061 
 3618000   0.55730619   -2.6510276   -2.6510276   -1.8150702   0.02438682   -2.6510276   0.83595738   439061 
 3619000   0.55701004   -2.6515398   -2.6515398   -1.8160266  0.020267894   -2.6515398   0.83551315   439061 
 3620000   0.55806645   -2.6532173   -2.6532173   -1.8161195   0.01985934   -2.6532173   0.83709778   439061 
 3621000   0.55780637   -2.6526143   -2.6526143   -1.8159067  0.023782361   -2.6526143   0.83670766   439061 
 3622000   0.55832093   -2.6539631   -2.6539631   -1.8164836  0.021828293   -2.6539631   0.83747948   439061 
 3623000   0.55890518   -2.6550343   -2.6550343   -1.8166784  0.027323057   -2.6550343   0.83835586   439061 
 3624000   0.55780559   -2.6528776   -2.6528776   -1.8161711  0.023718636   -2.6528776   0.83670648   439061 
 3625000   0.55802783   -2.6535024   -2.6535024   -1.8164626  0.022059578   -2.6535024   0.83703984   439061 
 3626000   0.55920275   -2.6547006   -2.6547006   -1.8158984  0.023131625   -2.6547006   0.83880221   439061 
 3627000    0.5588804   -2.6540219   -2.6540219   -1.8157033  0.027205954   -2.6540219   0.83831869   439061 
 3628000   0.55898855   -2.6548881   -2.6548881   -1.8164072  0.025146406   -2.6548881   0.83848092   439061 
 3629000   0.55821268   -2.6532095   -2.6532095   -1.8158923  0.026505454   -2.6532095   0.83731711   439061 
 3630000   0.55853842   -2.6533573   -2.6533573   -1.8155515   0.02650823   -2.6533573   0.83780573   439061 
 3631000    0.5589244   -2.6543154   -2.6543154   -1.8159307   0.02594113   -2.6543154   0.83838468   439061 
 3632000   0.55830345   -2.6538136   -2.6538136   -1.8163603  0.026940229   -2.6538136   0.83745326   439061 
 3633000   0.55837328   -2.6552319   -2.6552319   -1.8176738  0.025201527   -2.6552319   0.83755801   439061 
 3634000   0.55804743   -2.6540216   -2.6540216   -1.8169523  0.023803608   -2.6540216   0.83706924   439061 
 3635000   0.55794981   -2.6536515   -2.6536515   -1.8167286  0.024369329   -2.6536515   0.83692281   439061 
 3636000   0.55842881   -2.6543984   -2.6543984   -1.8167571   0.02310461   -2.6543984    0.8376413   439061 
 3637000   0.55773894   -2.6534365   -2.6534365     -1.81683  0.026003697   -2.6534365   0.83660651   439061 
 3638000   0.55842707   -2.6550585   -2.6550585   -1.8174198  0.018754082   -2.6550585   0.83763869   439061 
 3639000   0.55833905   -2.6540803   -2.6540803   -1.8165736  0.020773577   -2.6540803   0.83750667   439061 
 3640000   0.55884815   -2.6540588   -2.6540588   -1.8157885  0.023146786   -2.6540588   0.83827031   439061 
 3641000   0.55761859   -2.6523491   -2.6523491   -1.8159232  0.025662084   -2.6523491   0.83642598   439061 
 3642000   0.55870546   -2.6547085   -2.6547085   -1.8166522  0.023683222   -2.6547085   0.83805628   439061 
 3643000   0.55780188   -2.6538346   -2.6538346   -1.8171337  0.028958644   -2.6538346   0.83670091   439061 
 3644000   0.55855286   -2.6551699   -2.6551699   -1.8173425  0.019939431   -2.6551699   0.83782739   439061 
 3645000   0.55747462   -2.6527944   -2.6527944   -1.8165844  0.025938297   -2.6527944   0.83621003   439061 
 3646000   0.55707227   -2.6520301   -2.6520301   -1.8164236  0.026683461   -2.6520301   0.83560651   439061 
 3647000   0.55705658   -2.6523343   -2.6523343   -1.8167514   0.02263023   -2.6523343   0.83558297   439061 
 3648000   0.55784113   -2.6532933   -2.6532933   -1.8165335  0.021749238   -2.6532933   0.83675979   439061 
 3649000   0.55747686   -2.6530064   -2.6530064    -1.816793  0.022270933   -2.6530064   0.83621339   439061 
 3650000   0.55774346     -2.65335     -2.65335   -1.8167368  0.024172027     -2.65335   0.83661328   439061 
 3651000   0.55916658     -2.65503     -2.65503   -1.8162821  0.022931477     -2.65503   0.83874796   439061 
 3652000   0.55889728     -2.65453     -2.65453    -1.816186   0.02055794     -2.65453   0.83834401   439061 
 3653000   0.55922145   -2.6547498   -2.6547498   -1.8159195  0.025604628   -2.6547498   0.83883027   439061 
 3654000   0.55895018   -2.6549635   -2.6549635   -1.8165401  0.024245587   -2.6549635   0.83842336   439061 
 3655000   0.55817255   -2.6542251   -2.6542251   -1.8169682   0.02411753   -2.6542251   0.83725692   439061 
 3656000   0.55800912   -2.6542564   -2.6542564   -1.8172446  0.021220925   -2.6542564   0.83701178   439061 
 3657000   0.55844968   -2.6548833   -2.6548833   -1.8172107  0.022119118   -2.6548833   0.83767262   439061 
 3658000   0.55741641   -2.6539211   -2.6539211   -1.8177984  0.028398486   -2.6539211   0.83612272   439061 
 3659000   0.55790215   -2.6550208   -2.6550208   -1.8181695  0.022068294   -2.6550208   0.83685132   439061 
 3660000   0.55790893   -2.6550464   -2.6550464   -1.8181849  0.023311003   -2.6550464   0.83686148   439061 
 3661000   0.55829343   -2.6560958   -2.6560958   -1.8186576  0.028663537   -2.6560958   0.83743824   439061 
 3662000   0.55838076   -2.6559475   -2.6559475   -1.8183783  0.023948047   -2.6559475   0.83756924   439061 
 3663000   0.55889177   -2.6565253   -2.6565253   -1.8181896  0.024801213   -2.6565253   0.83833574   439061 
 3664000   0.55786395   -2.6547984   -2.6547984   -1.8180044  0.024332867   -2.6547984   0.83679401   439061 
 3665000   0.55834978   -2.6558734   -2.6558734   -1.8183506   0.02555465   -2.6558734   0.83752276   439061 
 3666000   0.55663385   -2.6541801   -2.6541801   -1.8192313  0.025573883   -2.6541801   0.83494887   439061 
 3667000   0.55810323   -2.6557444   -2.6557444   -1.8185915  0.022401321   -2.6557444   0.83715293   439061 
 3668000   0.55748215   -2.6554565   -2.6554565   -1.8192352  0.019030064   -2.6554565   0.83622132   439061 
 3669000   0.55716882   -2.6542761   -2.6542761   -1.8185248  0.023783873   -2.6542761   0.83575132   439061 
 3670000   0.55806106     -2.65457     -2.65457   -1.8174803  0.021182167     -2.65457   0.83708969   439061 
 3671000   0.55738473   -2.6545861   -2.6545861   -1.8185109  0.025836022   -2.6545861   0.83607519   439061 
 3672000   0.55858732   -2.6560663   -2.6560663   -1.8181872  0.022926367   -2.6560663   0.83787907   439061 
 3673000    0.5583884   -2.6551595   -2.6551595   -1.8175788  0.025773113   -2.6551595   0.83758069   439061 
 3674000   0.55815768   -2.6544772   -2.6544772   -1.8172426  0.027014998   -2.6544772   0.83723461   439061 
 3675000   0.55783744   -2.6554972   -2.6554972    -1.818743   0.02203264   -2.6554972   0.83675425   439061 
 3676000   0.55782036   -2.6558644   -2.6558644   -1.8191358   0.01987964   -2.6558644   0.83672863   439061 
 3677000   0.55705362   -2.6545439   -2.6545439   -1.8189654  0.022598189   -2.6545439   0.83557852   439061 
 3678000   0.55762581   -2.6553062   -2.6553062   -1.8188694  0.020239499   -2.6553062   0.83643681   439061 
 3679000   0.55748937   -2.6552636   -2.6552636   -1.8190314  0.021429058   -2.6552636   0.83623216   439061 
 3680000   0.55741029   -2.6553779   -2.6553779   -1.8192644  0.023211258   -2.6553779   0.83611352   439061 
 3681000    0.5575452   -2.6555794   -2.6555794   -1.8192635  0.018333639   -2.6555794   0.83631589   439061 
 3682000   0.55737895   -2.6555292   -2.6555292   -1.8194627  0.021191321   -2.6555292   0.83606652   439061 
 3683000   0.55827947   -2.6561554   -2.6561554   -1.8187381  0.025839951   -2.6561554    0.8374173   439061 
 3684000   0.55827328   -2.6559135   -2.6559135   -1.8185055  0.022612639   -2.6559135   0.83740801   439061 
 3685000   0.55782918    -2.654498    -2.654498   -1.8177561   0.02716622    -2.654498   0.83674187   439061 
 3686000   0.55826331   -2.6559525   -2.6559525   -1.8185595  0.022993092   -2.6559525   0.83739305   439061 
 3687000   0.55846546    -2.655627    -2.655627   -1.8179307  0.026611452    -2.655627   0.83769628   439061 
 3688000    0.5576204   -2.6558833   -2.6558833   -1.8194546   0.02469989   -2.6558833    0.8364287   439061 
 3689000   0.55661512   -2.6541327   -2.6541327   -1.8192119  0.028914356   -2.6541327   0.83492078   439061 
 3690000   0.55762641   -2.6552754   -2.6552754   -1.8188377  0.023661356   -2.6552754   0.83643771   439061 
 3691000   0.55777896   -2.6561868   -2.6561868   -1.8195203   0.02151721   -2.6561868   0.83666654   439061 
 3692000    0.5577097   -2.6566806   -2.6566806   -1.8201179  0.018617399   -2.6566806   0.83656265   439061 
 3693000   0.55719225   -2.6562766   -2.6562766   -1.8204902  0.020700316   -2.6562766   0.83578647   439061 
 3694000     0.556348   -2.6551852   -2.6551852   -1.8206651  0.025561769   -2.6551852    0.8345201   439061 
 3695000   0.55744496   -2.6572614   -2.6572614   -1.8210959  0.021229133   -2.6572614   0.83616554   439061 
 3696000   0.55718841   -2.6569714   -2.6569714   -1.8211907  0.018947231   -2.6569714   0.83578071   439061 
 3697000   0.55709728   -2.6567926   -2.6567926   -1.8211486  0.023601143   -2.6567926   0.83564402   439061 
 3698000   0.55798965    -2.658312    -2.658312   -1.8213295  0.024168113    -2.658312   0.83698257   439061 
 3699000   0.55743257   -2.6567174   -2.6567174   -1.8205704  0.026484082   -2.6567174   0.83614695   439061 
 3700000   0.55734028   -2.6568146   -2.6568146   -1.8208061  0.026441871   -2.6568146   0.83600851   439061 
 3701000    0.5582259   -2.6587611   -2.6587611   -1.8214241  0.022042322   -2.6587611   0.83733694   439061 
 3702000   0.55888996   -2.6592947   -2.6592947   -1.8209617  0.023876662   -2.6592947   0.83833303   439061 
 3703000   0.55736475    -2.657331    -2.657331   -1.8212858  0.025191872    -2.657331   0.83604523   439061 
 3704000   0.55777059   -2.6584757   -2.6584757   -1.8218218  0.023282455   -2.6584757   0.83665398   439061 
 3705000   0.55739009   -2.6581116   -2.6581116   -1.8220284  0.023438238   -2.6581116   0.83608322   439061 
 3706000   0.55780712   -2.6579416   -2.6579416   -1.8212328   0.02760681   -2.6579416   0.83670878   439061 
 3707000   0.55825009    -2.658344    -2.658344   -1.8209708  0.023254472    -2.658344   0.83737323   439061 
 3708000    0.5573071   -2.6571547   -2.6571547    -1.821196  0.025326931   -2.6571547   0.83595875   439061 
 3709000   0.55812862   -2.6583319   -2.6583319   -1.8211409    0.0261755   -2.6583319   0.83719102   439061 
 3710000   0.55856586   -2.6582731   -2.6582731   -1.8204262  0.020550951   -2.6582731   0.83784689   439061 
 3711000   0.55806581   -2.6572176   -2.6572176   -1.8201208  0.024102645   -2.6572176   0.83709681   439061 
 3712000   0.55781116   -2.6570572   -2.6570572   -1.8203424  0.024922802   -2.6570572   0.83671483   439061 
 3713000   0.55778872    -2.656805    -2.656805   -1.8201238  0.025808831    -2.656805   0.83668118   439061 
 3714000   0.55735177    -2.656825    -2.656825   -1.8207993  0.022858392    -2.656825   0.83602574   439061 
 3715000   0.55758713   -2.6567843   -2.6567843   -1.8204055  0.020437321   -2.6567843    0.8363788   439061 
 3716000   0.55817202   -2.6572104   -2.6572104   -1.8199543  0.026362696   -2.6572104   0.83725612   439061 
 3717000   0.55760692   -2.6561929   -2.6561929   -1.8197844  0.022278763   -2.6561929   0.83640847   439061 
 3718000   0.55735527   -2.6558924   -2.6558924   -1.8198614   0.02180502   -2.6558924     0.836031   439061 
 3719000   0.55704259   -2.6559611   -2.6559611   -1.8203991  0.021846615   -2.6559611   0.83556198   439061 
 3720000   0.55658313    -2.655731    -2.655731   -1.8208582  0.023913257    -2.655731    0.8348728   439061 
 3721000   0.55650536   -2.6559965   -2.6559965   -1.8212404  0.016902999   -2.6559965   0.83475614   439061 
 3722000   0.55620408   -2.6551245   -2.6551245   -1.8208203  0.023130005   -2.6551245   0.83430423   439061 
 3723000   0.55814615   -2.6577072   -2.6577072   -1.8204899  0.017870904   -2.6577072   0.83721731   439061 
 3724000   0.55744063   -2.6571325   -2.6571325   -1.8209735  0.019283876   -2.6571325   0.83615904   439061 
 3725000     0.558078   -2.6583064   -2.6583064   -1.8211913  0.018889657   -2.6583064   0.83711509   439061 
 3726000   0.55769847   -2.6561868   -2.6561868    -1.819641  0.026197066   -2.6561868    0.8365458   439061 
 3727000   0.55780559   -2.6566567   -2.6566567   -1.8199503  0.026012796   -2.6566567   0.83670648   439061 
 3728000   0.55780843   -2.6564866   -2.6564866   -1.8197758  0.021811166   -2.6564866   0.83671074   439061 
 3729000   0.55777304   -2.6578385   -2.6578385   -1.8211809  0.021841282   -2.6578385   0.83665765   439061 
 3730000    0.5571844   -2.6565609   -2.6565609   -1.8207862   0.02263869   -2.6565609    0.8357747   439061 
 3731000   0.55705888   -2.6571714   -2.6571714   -1.8215849  0.023898917   -2.6571714   0.83558641   439061 
 3732000    0.5571834   -2.6582126   -2.6582126   -1.8224394  0.023844746   -2.6582126    0.8357732   439061 
 3733000   0.55688628   -2.6584549   -2.6584549   -1.8231274  0.025160365   -2.6584549   0.83532751   439061 
 3734000    0.5581025   -2.6597415   -2.6597415   -1.8225896  0.026894169   -2.6597415   0.83715185   439061 
 3735000   0.55773122   -2.6591222   -2.6591222   -1.8225272   0.02709691   -2.6591222   0.83659492   439061 
 3736000   0.55766363   -2.6595883   -2.6595883   -1.8230948  0.022944431   -2.6595883   0.83649353   439061 
 3737000   0.55753005   -2.6588189   -2.6588189   -1.8225257  0.024518993   -2.6588189   0.83629317   439061 
 3738000    0.5576087    -2.658975    -2.658975   -1.8225638  0.023747372    -2.658975   0.83641114   439061 
 3739000   0.55791508   -2.6603344   -2.6603344   -1.8234636    0.0220854   -2.6603344   0.83687071   439061 
 3740000   0.55751645    -2.659349    -2.659349   -1.8230762  0.023477165    -2.659349   0.83627277   439061 
 3741000   0.55754561   -2.6605602   -2.6605602   -1.8242436  0.021989515   -2.6605602    0.8363165   439061 
 3742000   0.55719329   -2.6594661   -2.6594661   -1.8236781  0.022652544   -2.6594661   0.83578803   439061 
 3743000   0.55749751   -2.6597472   -2.6597472   -1.8235029   0.02392934   -2.6597472   0.83624437   439061 
 3744000   0.55782409   -2.6605137   -2.6605137   -1.8237794  0.018698758   -2.6605137   0.83673423   439061 
 3745000   0.55733979   -2.6593627   -2.6593627   -1.8233549  0.025962965   -2.6593627   0.83600779   439061 
 3746000   0.55719559   -2.6593003   -2.6593003   -1.8235088  0.023227032   -2.6593003   0.83579149   439061 
 3747000   0.55712472   -2.6594049   -2.6594049   -1.8237197  0.020215209   -2.6594049   0.83568518   439061 
 3748000   0.55695901   -2.6596453   -2.6596453   -1.8242087  0.022934337   -2.6596453   0.83543661   439061 
 3749000   0.55643647   -2.6593357   -2.6593357   -1.8246829   0.02566486   -2.6593357   0.83465281   439061 
 3750000   0.55615342   -2.6594216   -2.6594216   -1.8251933  0.023157706   -2.6594216   0.83422822   439061 
 3751000   0.55694566   -2.6601516   -2.6601516   -1.8247351  0.021346957   -2.6601516   0.83541658   439061 
 3752000   0.55706579   -2.6597714   -2.6597714   -1.8241746  0.022197983   -2.6597714   0.83559678   439061 
 3753000   0.55720445   -2.6599369   -2.6599369   -1.8241321  0.021002282   -2.6599369   0.83580478   439061 
 3754000   0.55706057   -2.6603065   -2.6603065   -1.8247176  0.020772163   -2.6603065   0.83558895   439061 
 3755000   0.55859894   -2.6614347   -2.6614347   -1.8235382  0.022341634   -2.6614347    0.8378965   439061 
 3756000   0.55694374   -2.6594556   -2.6594556   -1.8240419  0.026194877   -2.6594556   0.83541371   439061 
 3757000   0.55708409   -2.6605009   -2.6605009   -1.8248766   0.02714003   -2.6605009   0.83562423   439061 
 3758000   0.55702671   -2.6607143   -2.6607143   -1.8251761  0.023746192   -2.6607143   0.83553816   439061 
 3759000    0.5576471   -2.6607623   -2.6607623   -1.8242936  0.027048306   -2.6607623   0.83646875   439061 
 3760000   0.55787054   -2.6614031   -2.6614031   -1.8245992  0.023287204   -2.6614031   0.83680391   439061 
 3761000   0.55688704   -2.6596662   -2.6596662   -1.8243376  0.021693469   -2.6596662   0.83532866   439061 
 3762000    0.5568613   -2.6609182   -2.6609182   -1.8256281  0.021344305   -2.6609182   0.83529005   439061 
 3763000   0.55704311   -2.6613148   -2.6613148    -1.825752   0.02355743   -2.6613148   0.83556276   439061 
 3764000   0.55751358   -2.6613092   -2.6613092   -1.8250407  0.025254194   -2.6613092   0.83626846   439061 
 3765000   0.55749785   -2.6609595   -2.6609595   -1.8247146  0.022972985   -2.6609595   0.83624486   439061 
 3766000   0.55591793   -2.6595531   -2.6595531   -1.8256781  0.025469108   -2.6595531   0.83387499   439061 
 3767000   0.55676345   -2.6600723   -2.6600723    -1.824929  0.020151081   -2.6600723   0.83514327   439061 
 3768000   0.55668634   -2.6598957   -2.6598957   -1.8248681  0.023640638   -2.6598957   0.83502761   439061 
 3769000   0.55675863    -2.659799    -2.659799   -1.8246629  0.022629013    -2.659799   0.83513604   439061 
 3770000   0.55691596   -2.6606424   -2.6606424   -1.8252704  0.021808198   -2.6606424   0.83537204   439061 
 3771000   0.55682226    -2.659855    -2.659855   -1.8246235  0.025087589    -2.659855   0.83523149   439061 
 3772000   0.55660227   -2.6596829   -2.6596829   -1.8247814  0.021779628   -2.6596829    0.8349015   439061 
 3773000   0.55756857   -2.6612886   -2.6612886   -1.8249376  0.020821929   -2.6612886   0.83635095   439061 
 3774000   0.55628992   -2.6602692   -2.6602692   -1.8258362  0.019543669   -2.6602692   0.83443298   439061 
 3775000   0.55594501   -2.6589943   -2.6589943   -1.8250787  0.023444777   -2.6589943   0.83391562   439061 
 3776000   0.55558888   -2.6598006   -2.6598006   -1.8264192  0.022350316   -2.6598006   0.83338142   439061 
 3777000   0.55568593   -2.6592806   -2.6592806   -1.8257536  0.022164413   -2.6592806   0.83352699   439061 
 3778000   0.55651764   -2.6614844   -2.6614844   -1.8267098  0.020568413   -2.6614844   0.83477456   439061 
 3779000   0.55658461   -2.6609433   -2.6609433   -1.8260683   0.02276422   -2.6609433   0.83487501   439061 
 3780000   0.55642943   -2.6613117   -2.6613117   -1.8266695  0.020927509   -2.6613117   0.83464225   439061 
 3781000   0.55675218   -2.6613406   -2.6613406   -1.8262142  0.023246976   -2.6613406   0.83512636   439061 
 3782000   0.55750855   -2.6620648   -2.6620648   -1.8258039  0.022122839   -2.6620648   0.83626092   439061 
 3783000   0.55704315   -2.6623156   -2.6623156   -1.8267528  0.024071612   -2.6623156   0.83556283   439061 
 3784000   0.55706042   -2.6619639   -2.6619639   -1.8263751  0.026278651   -2.6619639   0.83558872   439061 
 3785000   0.55688688   -2.6619424   -2.6619424    -1.826614  0.026900096   -2.6619424   0.83532842   439061 
 3786000   0.55710056   -2.6624253   -2.6624253   -1.8267763   0.02423747   -2.6624253   0.83564894   439061 
 3787000   0.55699534   -2.6632901   -2.6632901    -1.827799  0.022351948   -2.6632901    0.8354911   439061 
 3788000   0.55609954   -2.6624319   -2.6624319   -1.8282845   0.02581012   -2.6624319    0.8341474   439061 
 3789000   0.55662171   -2.6628778   -2.6628778   -1.8279471  0.024268731   -2.6628778   0.83493067   439061 
 3790000    0.5571118   -2.6630968   -2.6630968    -1.827431   0.02266021   -2.6630968    0.8356658   439061 
 3791000   0.55569946   -2.6607496   -2.6607496   -1.8272023  0.027906474   -2.6607496    0.8335473   439061 
 3792000   0.55699306   -2.6634022   -2.6634022   -1.8279145  0.025420501   -2.6634022   0.83548768   439061 
 3793000   0.55659876   -2.6622855   -2.6622855   -1.8273893  0.024519698   -2.6622855   0.83489624   439061 
 3794000   0.55713708   -2.6624194   -2.6624194   -1.8267157  0.023345659   -2.6624194   0.83570372   439061 
 3795000   0.55695832   -2.6621072   -2.6621072   -1.8266716  0.025224381   -2.6621072   0.83543558   439061 
 3796000   0.55711439   -2.6625298   -2.6625298   -1.8268602  0.020398655   -2.6625298   0.83566967   439061 
 3797000   0.55632205   -2.6614646   -2.6614646   -1.8269834  0.022448551   -2.6614646   0.83448117   439061 
 3798000   0.55715217   -2.6623114   -2.6623114    -1.826585   0.02443871   -2.6623114   0.83572635   439061 
 3799000   0.55603387   -2.6608741   -2.6608741   -1.8268252  0.021962841   -2.6608741    0.8340489   439061 
 3800000   0.55673167   -2.6623277   -2.6623277   -1.8272321  0.020164901   -2.6623277    0.8350956   439061 
 3801000   0.55601213   -2.6611052   -2.6611052   -1.8270889  0.025180197   -2.6611052    0.8340163   439061 
 3802000   0.55513222   -2.6604705   -2.6604705    -1.827774  0.022189789   -2.6604705   0.83269643   439061 
 3803000   0.55601465   -2.6614895   -2.6614895   -1.8274694  0.020775506   -2.6614895   0.83402007   439061 
 3804000   0.55606272   -2.6611944   -2.6611944   -1.8271022  0.019616574   -2.6611944   0.83409218   439061 
 3805000   0.55709397   -2.6624304   -2.6624304   -1.8267914  0.016884029   -2.6624304   0.83563905   439061 
 3806000   0.55690455   -2.6621005   -2.6621005   -1.8267455  0.021304008   -2.6621005   0.83535492   439061 
 3807000   0.55652617   -2.6613069   -2.6613069   -1.8265196  0.022227561   -2.6613069   0.83478735   439061 
 3808000   0.55675893    -2.661669    -2.661669   -1.8265325  0.020287122    -2.661669   0.83513649   439061 
 3809000   0.55757087   -2.6621928   -2.6621928   -1.8258384  0.022505794   -2.6621928   0.83635441   439061 
 3810000    0.5573497   -2.6622968   -2.6622968   -1.8262741  0.027529027   -2.6622968   0.83602265   439061 
 3811000   0.55669072   -2.6614336   -2.6614336   -1.8263995  0.027189189   -2.6614336   0.83503418   439061 
 3812000   0.55600432   -2.6606457   -2.6606457   -1.8266411  0.025146577   -2.6606457   0.83400459   439061 
 3813000   0.55659542   -2.6623915   -2.6623915   -1.8275002  0.022797642   -2.6623915   0.83489123   439061 
 3814000   0.55530742   -2.6612925   -2.6612925   -1.8283333  0.022144233   -2.6612925   0.83295924   439061 
 3815000   0.55608425   -2.6626726   -2.6626726   -1.8285482  0.021926248   -2.6626726   0.83412448   439061 
 3816000   0.55568449   -2.6621575   -2.6621575   -1.8286326   0.02347408   -2.6621575   0.83352484   439061 
 3817000   0.55527816   -2.6620299   -2.6620299   -1.8291146  0.023431071   -2.6620299   0.83291535   439061 
 3818000   0.55592105   -2.6629628   -2.6629628   -1.8290831  0.020664983   -2.6629628   0.83387967   439061 
 3819000   0.55509997   -2.6616581   -2.6616581     -1.82901  0.023274069   -2.6616581   0.83264807   439061 
 3820000   0.55602436   -2.6623163   -2.6623163   -1.8282817  0.024733203   -2.6623163   0.83403464   439061 
 3821000    0.5573498   -2.6637709   -2.6637709   -1.8277481  0.023421231   -2.6637709   0.83602279   439061 
 3822000   0.55639163   -2.6629394   -2.6629394   -1.8283539  0.026774861   -2.6629394   0.83458554   439061 
 3823000   0.55683656   -2.6637514   -2.6637514   -1.8284985  0.025190013   -2.6637514   0.83525293   439061 
 3824000   0.55731272   -2.6648272   -2.6648272     -1.82886  0.024218547   -2.6648272   0.83596717   439061 
 3825000   0.55706131   -2.6649869   -2.6649869   -1.8293968  0.022212005   -2.6649869   0.83559006   439061 
 3826000   0.55642209   -2.6638456   -2.6638456   -1.8292143  0.023923166   -2.6638456   0.83463124   439061 
 3827000   0.55768929   -2.6649729   -2.6649729   -1.8284409  0.019039085   -2.6649729   0.83653203   439061 
 3828000    0.5570419   -2.6641166   -2.6641166   -1.8285556  0.027524119   -2.6641166   0.83556095   439061 
 3829000   0.55713211   -2.6644841   -2.6644841   -1.8287878  0.027286139   -2.6644841   0.83569626   439061 
 3830000   0.55651019   -2.6634296   -2.6634296   -1.8286662  0.026373658   -2.6634296   0.83476339   439061 
 3831000   0.55663237    -2.662199    -2.662199   -1.8272524  0.023307724    -2.662199   0.83494665   439061 
 3832000   0.55704236   -2.6630071   -2.6630071   -1.8274455  0.025171912   -2.6630071   0.83556163   439061 
 3833000   0.55749596   -2.6633226   -2.6633226   -1.8270806  0.021624902   -2.6633226   0.83624204   439061 
 3834000   0.55741918   -2.6626675   -2.6626675   -1.8265406  0.024864783   -2.6626675   0.83612687   439061 
 3835000   0.55733147   -2.6632506   -2.6632506   -1.8272553  0.024081741   -2.6632506   0.83599531   439061 
 3836000    0.5556039   -2.6614723   -2.6614723   -1.8280683  0.025021003   -2.6614723   0.83340395   439061 
 3837000   0.55697584   -2.6621048   -2.6621048   -1.8266429  0.016856806   -2.6621048   0.83546186   439061 
 3838000   0.55602502   -2.6612686   -2.6612686    -1.827233  0.019712967   -2.6612686   0.83403562   439061 
 3839000   0.55591448   -2.6608784   -2.6608784   -1.8270086  0.020565217   -2.6608784   0.83386982   439061 
 3840000   0.55613445   -2.6615392   -2.6615392   -1.8273394   0.01676297   -2.6615392   0.83419978   439061 
 3841000    0.5557753   -2.6605012   -2.6605012   -1.8268401  0.019138613   -2.6605012   0.83366105   439061 
 3842000   0.55609168   -2.6614031   -2.6614031   -1.8272674  0.016166376   -2.6614031   0.83413562   439061 
 3843000   0.55533772   -2.6600034   -2.6600034   -1.8269988  0.022088966   -2.6600034   0.83300469   439061 
 3844000   0.55629771   -2.6613851   -2.6613851   -1.8269405  0.020604268   -2.6613851   0.83444467   439061 
 3845000   0.55580468   -2.6612642   -2.6612642   -1.8275591  0.022956081   -2.6612642   0.83370513   439061 
 3846000   0.55675246   -2.6626211   -2.6626211   -1.8274943   0.02090035   -2.6626211   0.83512678   439061 
 3847000   0.55620022   -2.6616119   -2.6616119   -1.8273135  0.023388525   -2.6616119   0.83429843   439061 
 3848000   0.55717521   -2.6622506   -2.6622506   -1.8264897  0.021851407   -2.6622506   0.83576092   439061 
 3849000   0.55670534   -2.6628194   -2.6628194   -1.8277633  0.019783173   -2.6628194    0.8350561   439061 
 3850000   0.55736229   -2.6636893   -2.6636893   -1.8276477  0.022952159   -2.6636893   0.83604153   439061 
 3851000   0.55588682   -2.6619651   -2.6619651   -1.8281367  0.024869545   -2.6619651   0.83382833   439061 
 3852000   0.55639601   -2.6623208   -2.6623208   -1.8277287  0.022737954   -2.6623208   0.83459212   439061 
 3853000   0.55685097   -2.6638245   -2.6638245     -1.82855  0.024499178   -2.6638245   0.83527455   439061 
 3854000   0.55645245   -2.6633912   -2.6633912   -1.8287144  0.024663654   -2.6633912   0.83467678   439061 
 3855000   0.55798247   -2.6654676   -2.6654676   -1.8284958  0.022989285   -2.6654676    0.8369718   439061 
 3856000   0.55658246   -2.6640393   -2.6640393   -1.8291675  0.025882235   -2.6640393   0.83487178   439061 
 3857000   0.55663951   -2.6632339   -2.6632339   -1.8282765  0.023739451   -2.6632339   0.83495736   439061 
 3858000   0.55726346   -2.6647771   -2.6647771   -1.8288838  0.025928499   -2.6647771   0.83589329   439061 
 3859000   0.55722187    -2.665633    -2.665633   -1.8298021  0.023801197    -2.665633    0.8358309   439061 
 3860000   0.55536633   -2.6639962   -2.6639962   -1.8309486  0.024487142   -2.6639962    0.8330476   439061 
 3861000   0.55531785   -2.6636411   -2.6636411   -1.8306662  0.019607254   -2.6636411   0.83297488   439061 
 3862000   0.55509926   -2.6629255   -2.6629255   -1.8302785  0.019910632   -2.6629255     0.832647   439061 
 3863000   0.55598207   -2.6638152   -2.6638152    -1.829844  0.021320493   -2.6638152   0.83397121   439061 
 3864000   0.55731747   -2.6648287   -2.6648287   -1.8288544  0.022504932   -2.6648287   0.83597429   439061 
 3865000   0.55677886    -2.663567    -2.663567   -1.8284006  0.025895885    -2.663567   0.83516638   439061 
 3866000   0.55704372   -2.6642805   -2.6642805   -1.8287168  0.022207663   -2.6642805   0.83556367   439061 
 3867000   0.55596936   -2.6629048   -2.6629048   -1.8289526   0.02713497   -2.6629048   0.83395214   439061 
 3868000   0.55682442   -2.6640189   -2.6640189   -1.8287842   0.02137311   -2.6640189   0.83523472   439061 
 3869000   0.55605961   -2.6628221   -2.6628221   -1.8287346  0.021145272   -2.6628221   0.83408752   439061 
 3870000   0.55558922   -2.6625227   -2.6625227   -1.8291408  0.022705089   -2.6625227   0.83338193   439061 
 3871000   0.55548037   -2.6622861   -2.6622861   -1.8290675  0.023854574   -2.6622861   0.83321866   439061 
 3872000   0.55564277   -2.6634039   -2.6634039   -1.8299417  0.021987911   -2.6634039   0.83346226   439061 
 3873000   0.55604425   -2.6630008   -2.6630008   -1.8289363   0.01999076   -2.6630008   0.83406448   439061 
 3874000   0.55593663   -2.6627002   -2.6627002   -1.8287972  0.023132267   -2.6627002   0.83390304   439061 
 3875000   0.55662039   -2.6640764   -2.6640764   -1.8291477  0.021302144   -2.6640764   0.83492868   439061 
 3876000   0.55628906   -2.6636958   -2.6636958   -1.8292641   0.02567227   -2.6636958   0.83443169   439061 
 3877000   0.55623219   -2.6637005   -2.6637005   -1.8293541  0.021428464   -2.6637005   0.83434638   439061 
 3878000   0.55701448   -2.6651718   -2.6651718    -1.829652   0.02672882   -2.6651718   0.83551982   439061 
 3879000   0.55606305   -2.6637789   -2.6637789   -1.8296862  0.026451767   -2.6637789   0.83409267   439061 
 3880000   0.55534233   -2.6628597   -2.6628597   -1.8298481  0.023090367   -2.6628597    0.8330116   439061 
 3881000      0.55569   -2.6641186   -2.6641186   -1.8305855  0.020766103   -2.6641186   0.83353311   439061 
 3882000   0.55554795   -2.6644684   -2.6644684   -1.8311483  0.024190288   -2.6644684   0.83332003   439061 
 3883000   0.55631179   -2.6655331   -2.6655331   -1.8310673  0.022063877   -2.6655331   0.83446579   439061 
 3884000   0.55588781   -2.6642908   -2.6642908    -1.830461  0.025825298   -2.6642908   0.83382982   439061 
 3885000   0.55604435   -2.6649554   -2.6649554   -1.8308908  0.020198104   -2.6649554   0.83406462   439061 
 3886000   0.55592966   -2.6655837   -2.6655837   -1.8316911  0.019109165   -2.6655837   0.83389258   439061 
 3887000   0.55513123   -2.6639418   -2.6639418   -1.8312468  0.020082284   -2.6639418   0.83269495   439061 
 3888000   0.55630321   -2.6651067   -2.6651067   -1.8306537  0.025400937   -2.6651067   0.83445292   439061 
 3889000   0.55573307   -2.6645366   -2.6645366   -1.8309388   0.02557088   -2.6645366    0.8335977   439061 
 3890000   0.55681146   -2.6661059   -2.6661059   -1.8308906  0.023406014   -2.6661059   0.83521529   439061 
 3891000   0.55601416   -2.6656482   -2.6656482   -1.8316289  0.025951863   -2.6656482   0.83401934   439061 
 3892000    0.5564004   -2.6654561   -2.6654561   -1.8308574  0.023658309   -2.6654561   0.83459869   439061 
 3893000   0.55629296   -2.6650081   -2.6650081   -1.8305706  0.027463925   -2.6650081   0.83443754   439061 
 3894000   0.55576799    -2.665689    -2.665689   -1.8320389  0.025711034    -2.665689   0.83365008   439061 
 3895000   0.55643136   -2.6659456   -2.6659456   -1.8313004  0.021435834   -2.6659456   0.83464514   439061 
 3896000   0.55705111   -2.6659152   -2.6659152   -1.8303405  0.025568597   -2.6659152   0.83557476   439061 
 3897000   0.55705586   -2.6658743   -2.6658743   -1.8302924   0.02231992   -2.6658743   0.83558189   439061 
 3898000    0.5559643   -2.6646859   -2.6646859   -1.8307414  0.024768923   -2.6646859   0.83394455   439061 
 3899000    0.5558082   -2.6651484   -2.6651484    -1.831438  0.023729362   -2.6651484    0.8337104   439061 
 3900000    0.5555502     -2.66484     -2.66484   -1.8315166  0.020322466     -2.66484    0.8333234   439061 
 3901000    0.5557685   -2.6646866   -2.6646866   -1.8310358   0.02196296   -2.6646866   0.83365084   439061 
 3902000   0.55552041   -2.6644925   -2.6644925   -1.8312138   0.02189726   -2.6644925   0.83327871   439061 
 3903000   0.55596499   -2.6651393   -2.6651393   -1.8311937  0.021112386   -2.6651393   0.83394559   439061 
 3904000     0.555777   -2.6644468   -2.6644468   -1.8307832  0.024722056   -2.6644468    0.8336636   439061 
 3905000   0.55649462   -2.6658406   -2.6658406   -1.8311006  0.020698509   -2.6658406   0.83474003   439061 
 3906000   0.55631821   -2.6650188   -2.6650188   -1.8305434  0.021809955   -2.6650188   0.83447541   439061 
 3907000   0.55497214   -2.6632167   -2.6632167   -1.8307604  0.019058352   -2.6632167   0.83245631   439061 
 3908000   0.55581483   -2.6649748   -2.6649748   -1.8312544   0.02077838   -2.6649748   0.83372035   439061 
 3909000   0.55622104    -2.665482    -2.665482   -1.8311524   0.02199925    -2.665482   0.83432966   439061 
 3910000   0.55626702   -2.6660964   -2.6660964   -1.8316978  0.020315144   -2.6660964   0.83439863   439061 
 3911000   0.55467024   -2.6637189   -2.6637189   -1.8317154  0.025380121   -2.6637189   0.83200347   439061 
 3912000    0.5554408   -2.6652757   -2.6652757   -1.8321164  0.022105177   -2.6652757    0.8331593   439061 
 3913000   0.55583783    -2.665242    -2.665242   -1.8314872  0.020688647    -2.665242   0.83375485   439061 
 3914000   0.55709792   -2.6671393   -2.6671393   -1.8314943  0.023709812   -2.6671393   0.83564498   439061 
 3915000   0.55630256   -2.6662479   -2.6662479   -1.8317959  0.023136941   -2.6662479   0.83445194   439061 
 3916000   0.55612257   -2.6667478   -2.6667478   -1.8325659  0.021949067   -2.6667478   0.83418195   439061 
 3917000    0.5545868   -2.6654691   -2.6654691   -1.8335908  0.025365368   -2.6654691    0.8318783   439061 
 3918000   0.55490388   -2.6655759   -2.6655759    -1.833222   0.02452277   -2.6655759   0.83235392   439061 
 3919000   0.55615227   -2.6680137   -2.6680137   -1.8337872  0.020672636   -2.6680137   0.83422651   439061 
 3920000   0.55444071   -2.6651684   -2.6651684   -1.8335093  0.022867236   -2.6651684   0.83165917   439061 
 3921000   0.55609039   -2.6669939   -2.6669939   -1.8328602  0.023562359   -2.6669939   0.83413369   439061 
 3922000   0.55650795    -2.667482    -2.667482    -1.832722  0.024865922    -2.667482   0.83476002   439061 
 3923000   0.55613829   -2.6666968   -2.6666968   -1.8324913  0.026544017   -2.6666968   0.83420553   439061 
 3924000   0.55614182   -2.6676171   -2.6676171   -1.8334062  0.026092972   -2.6676171   0.83421082   439061 
 3925000   0.55615473   -2.6676152   -2.6676152    -1.833385  0.024086928   -2.6676152   0.83423019   439061 
 3926000   0.55627749    -2.668383    -2.668383   -1.8339687  0.026216277    -2.668383   0.83441433   439061 
 3927000   0.55696768   -2.6683452   -2.6683452   -1.8328956   0.02349128   -2.6683452   0.83544962   439061 
 3928000   0.55624163    -2.667442    -2.667442   -1.8330815  0.023623039    -2.667442   0.83436054   439061 
 3929000   0.55542704   -2.6667931   -2.6667931   -1.8336544  0.023805622   -2.6667931   0.83313866   439061 
 3930000   0.55542671   -2.6667654   -2.6667654   -1.8336272  0.019200413   -2.6667654   0.83313817   439061 
 3931000   0.55621006   -2.6689442   -2.6689442    -1.834631  0.020572341   -2.6689442   0.83431319   439061 
 3932000   0.55490941   -2.6675858   -2.6675858   -1.8352236  0.021582528   -2.6675858   0.83236222   439061 
 3933000    0.5548638   -2.6672267   -2.6672267   -1.8349329  0.020610955   -2.6672267    0.8322938   439061 
 3934000   0.55551184   -2.6675057   -2.6675057   -1.8342399  0.020656536   -2.6675057   0.83326586   439061 
 3935000   0.55573954    -2.667142    -2.667142   -1.8335346  0.021159059    -2.667142   0.83360741   439061 
 3936000   0.55512946   -2.6658126   -2.6658126   -1.8331203  0.020722509   -2.6658126   0.83269229   439061 
 3937000   0.55543312    -2.667226    -2.667226   -1.8340783  0.021971776    -2.667226   0.83314778   439061 
 3938000    0.5557672   -2.6676212   -2.6676212   -1.8339723  0.019113514   -2.6676212    0.8336489   439061 
 3939000   0.55614618   -2.6682579   -2.6682579   -1.8340406  0.021600791   -2.6682579   0.83421737   439061 
 3940000   0.55607752   -2.6676612   -2.6676612   -1.8335468  0.022306136   -2.6676612   0.83411438   439061 
 3941000   0.55670181   -2.6681919   -2.6681919   -1.8331411   0.02254518   -2.6681919   0.83505081   439061 
 3942000   0.55578891   -2.6677288   -2.6677288   -1.8340473  0.021036574   -2.6677288   0.83368147   439061 
 3943000   0.55543334   -2.6677183   -2.6677183   -1.8345702  0.018699142   -2.6677183   0.83314812   439061 
 3944000   0.55596416   -2.6685619   -2.6685619   -1.8346175  0.020768231   -2.6685619   0.83394434   439061 
 3945000   0.55622336    -2.669533    -2.669533   -1.8351998  0.018145625    -2.669533   0.83433314   439061 
 3946000   0.55490235   -2.6684859   -2.6684859   -1.8361343  0.018268044   -2.6684859   0.83235163   439061 
 3947000   0.55607644   -2.6690059   -2.6690059   -1.8348931  0.016310492   -2.6690059   0.83411275   439061 
 3948000   0.55510956   -2.6680478   -2.6680478   -1.8353854  0.017542255   -2.6680478   0.83266244   439061 
 3949000   0.55607459    -2.669167    -2.669167    -1.835057  0.023106015    -2.669167   0.83410999   439061 
 3950000   0.55544503    -2.668594    -2.668594   -1.8354284  0.024049197    -2.668594   0.83316565   439061 
 3951000   0.55521845   -2.6683161   -2.6683161   -1.8354904  0.022842242   -2.6683161   0.83282577   439061 
 3952000   0.55571829   -2.6691284   -2.6691284   -1.8355529  0.023765942   -2.6691284   0.83357553   439061 
 3953000   0.55642156   -2.6700571   -2.6700571   -1.8354267  0.021762227   -2.6700571   0.83463044   439061 
 3954000   0.55742133   -2.6716823   -2.6716823   -1.8355522  0.021372258   -2.6716823   0.83613009   439061 
 3955000   0.55611047   -2.6693897   -2.6693897   -1.8352259  0.023820563   -2.6693897    0.8341638   439061 
 3956000   0.55725091   -2.6696564   -2.6696564   -1.8337819  0.024086587   -2.6696564   0.83587446   439061 
 3957000   0.55812949   -2.6700641   -2.6700641   -1.8328718  0.023970147   -2.6700641   0.83719233   439061 
 3958000   0.55597183   -2.6679103   -2.6679103   -1.8339544  0.027634069   -2.6679103   0.83395584   439061 
 3959000   0.55628564   -2.6682954   -2.6682954   -1.8338688  0.025644373   -2.6682954   0.83442656   439061 
 3960000   0.55664071   -2.6685667   -2.6685667   -1.8336075   0.02796361   -2.6685667   0.83495917   439061 
 3961000   0.55556678   -2.6676829   -2.6676829   -1.8343347  0.024419476   -2.6676829   0.83334827   439061 
 3962000   0.55552606   -2.6680977   -2.6680977   -1.8348105  0.021114065   -2.6680977   0.83328719   439061 
 3963000   0.55543415   -2.6686513   -2.6686513   -1.8355019  0.018840453   -2.6686513   0.83314932   439061 
 3964000   0.55481677     -2.66798     -2.66798   -1.8357568  0.017744508     -2.66798   0.83222327   439061 
 3965000   0.55550875   -2.6688809   -2.6688809   -1.8356196  0.021357214   -2.6688809   0.83326123   439061 
 3966000   0.55463338   -2.6676021   -2.6676021   -1.8356539  0.017407514   -2.6676021   0.83194817   439061 
 3967000   0.55443437   -2.6674268   -2.6674268   -1.8357771  0.018920476   -2.6674268   0.83164966   439061 
 3968000   0.55528984   -2.6685134   -2.6685134   -1.8355806  0.016906393   -2.6685134   0.83293286   439061 
 3969000   0.55462725   -2.6673008   -2.6673008   -1.8353618  0.019727171   -2.6673008   0.83193897   439061 
 3970000   0.55548083   -2.6683898   -2.6683898   -1.8351704  0.019810408   -2.6683898   0.83321935   439061 
 3971000   0.55564858   -2.6682322   -2.6682322   -1.8347613  0.019673233   -2.6682322   0.83347098   439061 
 3972000   0.55499701   -2.6682235   -2.6682235   -1.8357298  0.023863188   -2.6682235   0.83249362   439061 
 3973000   0.55694151    -2.670376    -2.670376   -1.8349656  0.022288559    -2.670376   0.83541036   439061 
 3974000   0.55613096   -2.6691373   -2.6691373   -1.8349428  0.024897048   -2.6691373   0.83419454   439061 
 3975000   0.55613108   -2.6694065   -2.6694065   -1.8352118  0.026771598   -2.6694065   0.83419471   439061 
 3976000   0.55563585   -2.6697203   -2.6697203   -1.8362684  0.022301481   -2.6697203   0.83345188   439061 
 3977000   0.55560671    -2.669732    -2.669732   -1.8363238  0.022897244    -2.669732   0.83340816   439061 
 3978000   0.55673065   -2.6711976   -2.6711976   -1.8361036  0.022808757   -2.6711976   0.83509408   439061 
 3979000   0.55690501   -2.6716594   -2.6716594   -1.8363038  0.022082581   -2.6716594   0.83535561   439061 
 3980000   0.55692891   -2.6714962   -2.6714962   -1.8361048  0.019232231   -2.6714962   0.83539147   439061 
 3981000   0.55613386   -2.6712645   -2.6712645   -1.8370657  0.020752795   -2.6712645   0.83419889   439061 
 3982000   0.55509005   -2.6697292   -2.6697292    -1.837096  0.023390814   -2.6697292   0.83263318   439061 
 3983000   0.55534693   -2.6704632   -2.6704632   -1.8374447  0.024558838   -2.6704632   0.83301849   439061 
 3984000   0.55552733   -2.6711062   -2.6711062   -1.8378171  0.019969169   -2.6711062   0.83328909   439061 
 3985000   0.55522294   -2.6701413   -2.6701413   -1.8373088  0.023037087   -2.6701413   0.83283251   439061 
 3986000   0.55536331   -2.6699828   -2.6699828   -1.8369398  0.022752692   -2.6699828   0.83304306   439061 
 3987000   0.55614784    -2.670365    -2.670365   -1.8361451  0.022767317    -2.670365   0.83421986   439061 
 3988000   0.55527329   -2.6698717   -2.6698717   -1.8369636  0.022071625   -2.6698717   0.83290804   439061 
 3989000   0.55521988   -2.6698581   -2.6698581   -1.8370302   0.02817304   -2.6698581   0.83282793   439061 
 3990000   0.55612093   -2.6709174   -2.6709174   -1.8367379  0.025219719   -2.6709174   0.83417949   439061 
 3991000   0.55588484   -2.6704049   -2.6704049   -1.8365796  0.023511072   -2.6704049   0.83382536   439061 
 3992000   0.55555436   -2.6696537   -2.6696537    -1.836324  0.020141213   -2.6696537   0.83332964   439061 
 3993000   0.55530519   -2.6695807   -2.6695807   -1.8366248  0.023848872   -2.6695807   0.83295589   439061 
 3994000   0.55541961   -2.6690532   -2.6690532   -1.8359257  0.021386202   -2.6690532   0.83312752   439061 
 3995000   0.55591555   -2.6701486   -2.6701486   -1.8362772  0.021543055   -2.6701486   0.83387142   439061 
 3996000   0.55540159   -2.6689826   -2.6689826   -1.8358821  0.021730226   -2.6689826   0.83310048   439061 
 3997000   0.55494544   -2.6687635   -2.6687635   -1.8363472  0.022693363   -2.6687635   0.83241626   439061 
 3998000   0.55526612    -2.669211    -2.669211   -1.8363137  0.021137959    -2.669211   0.83289729   439061 
 3999000    0.5550739   -2.6694005   -2.6694005   -1.8367916  0.021528788   -2.6694005   0.83260895   439061 
 4000000   0.55463919   -2.6687707   -2.6687707   -1.8368138  0.021899736   -2.6687707    0.8319569   439061 
 4001000   0.55579589   -2.6699404   -2.6699404   -1.8362485   0.02364892   -2.6699404   0.83369193   439061 
 4002000   0.55517627   -2.6698599   -2.6698599   -1.8370974  0.020494601   -2.6698599    0.8327625   439061 
 4003000   0.55505404   -2.6701809   -2.6701809   -1.8376017  0.019701359   -2.6701809   0.83257916   439061 
 4004000   0.55489409    -2.669657    -2.669657   -1.8373178   0.02282957    -2.669657   0.83233924   439061 
 4005000   0.55637828   -2.6713157   -2.6713157   -1.8367502  0.016845741   -2.6713157   0.83456551   439061 
 4006000   0.55486041   -2.6683096   -2.6683096   -1.8360209  0.022901399   -2.6683096   0.83228872   439061 
 4007000   0.55613883   -2.6703502   -2.6703502   -1.8361439  0.022608235   -2.6703502   0.83420635   439061 
 4008000   0.55511986   -2.6694367   -2.6694367   -1.8367588  0.024747618   -2.6694367   0.83267789   439061 
 4009000   0.55647979   -2.6707097   -2.6707097    -1.835992  0.022327852   -2.6707097   0.83471778   439061 
 4010000   0.55652088   -2.6715446   -2.6715446   -1.8367652   0.02088863   -2.6715446   0.83477942   439061 
 4011000   0.55636787    -2.670889    -2.670889    -1.836339  0.026834711    -2.670889    0.8345499   439061 
 4012000    0.5558388   -2.6705814   -2.6705814   -1.8368251  0.026036174   -2.6705814   0.83375631   439061 
 4013000   0.55565217   -2.6705721   -2.6705721   -1.8370958  0.023368496   -2.6705721   0.83347636   439061 
 4014000   0.55532053   -2.6696621   -2.6696621   -1.8366832  0.023387869   -2.6696621    0.8329789   439061 
 4015000   0.55474846   -2.6691577   -2.6691577    -1.837037  0.023493187   -2.6691577   0.83212079   439061 
 4016000   0.55575731   -2.6707379   -2.6707379   -1.8371038  0.024743077   -2.6707379   0.83363407   439061 
 4017000   0.55576198   -2.6712131   -2.6712131    -1.837572  0.022751714   -2.6712131   0.83364108   439061 
 4018000   0.55520215   -2.6691489   -2.6691489   -1.8363476  0.022425323   -2.6691489   0.83280133   439061 
 4019000   0.55395113   -2.6685647   -2.6685647   -1.8376399  0.023087241   -2.6685647    0.8309248   439061 
 4020000   0.55510087   -2.6700301   -2.6700301   -1.8373807   0.02022053   -2.6700301    0.8326494   439061 
 4021000   0.55362054   -2.6687768   -2.6687768   -1.8383479  0.021825902   -2.6687768   0.83042892   439061 
 4022000   0.55436139   -2.6693316   -2.6693316   -1.8377914  0.021492236   -2.6693316    0.8315402   439061 
 4023000   0.55492205   -2.6700268   -2.6700268   -1.8376456  0.018392121   -2.6700268   0.83238118   439061 
 4024000   0.55537291   -2.6705318   -2.6705318   -1.8374743  0.018471011   -2.6705318   0.83305747   439061 
 4025000   0.55478881   -2.6703583   -2.6703583    -1.838177  0.022738033   -2.6703583   0.83218133   439061 
 4026000   0.55541874   -2.6716264   -2.6716264   -1.8385001  0.020710908   -2.6716264   0.83312621   439061 
 4027000   0.55517394   -2.6722957   -2.6722957   -1.8395367  0.020174203   -2.6722957   0.83275901   439061 
 4028000   0.55489789   -2.6710001   -2.6710001   -1.8386552  0.020938772   -2.6710001   0.83234494   439061 
 4029000   0.55529603   -2.6719625   -2.6719625   -1.8390204  0.024482861   -2.6719625   0.83294215   439061 
 4030000   0.55513456   -2.6715159   -2.6715159    -1.838816  0.021916769   -2.6715159   0.83269995   439061 
 4031000   0.55540218   -2.6713731   -2.6713731   -1.8382718   0.02080005   -2.6713731   0.83310138   439061 
 4032000   0.55572021   -2.6719592   -2.6719592   -1.8383808  0.023941814   -2.6719592   0.83357842   439061 
 4033000   0.55507875    -2.671577    -2.671577   -1.8389608  0.024682091    -2.671577   0.83261623   439061 
 4034000   0.55558564   -2.6723337   -2.6723337   -1.8389572  0.024863745   -2.6723337   0.83337657   439061 
 4035000   0.55596534   -2.6722206   -2.6722206   -1.8382745  0.024377068   -2.6722206   0.83394611   439061 
 4036000   0.55599735   -2.6727628   -2.6727628   -1.8387687  0.025288692   -2.6727628   0.83399412   439061 
 4037000   0.55480217   -2.6719857   -2.6719857   -1.8397844  0.023336448   -2.6719857   0.83220136   439061 
 4038000   0.55548143   -2.6725517   -2.6725517   -1.8393314  0.023489213   -2.6725517   0.83322024   439061 
 4039000    0.5549826   -2.6732314   -2.6732314   -1.8407594  0.020582589   -2.6732314   0.83247201   439061 
 4040000   0.55681816   -2.6751194   -2.6751194    -1.839894  0.019304506   -2.6751194   0.83522534   439061 
 4041000   0.55571608   -2.6731625   -2.6731625   -1.8395903  0.023400941   -2.6731625   0.83357222   439061 
 4042000   0.55608357   -2.6735719   -2.6735719   -1.8394484  0.023414996   -2.6735719   0.83412345   439061 
 4043000   0.55450024   -2.6717802   -2.6717802   -1.8400318  0.023895142   -2.6717802   0.83174846   439061 
 4044000   0.55568532   -2.6729833   -2.6729833   -1.8394572  0.024492467   -2.6729833   0.83352608   439061 
 4045000   0.55581825   -2.6726144   -2.6726144   -1.8388889  0.023093171   -2.6726144   0.83372547   439061 
 4046000   0.55557302   -2.6718415   -2.6718415   -1.8384839  0.022675504   -2.6718415   0.83335764   439061 
 4047000   0.55511334   -2.6719374   -2.6719374   -1.8392692  0.022271819   -2.6719374   0.83266811   439061 
 4048000   0.55581975    -2.672111    -2.672111   -1.8383832   0.02297342    -2.672111   0.83372772   439061 
 4049000   0.55595016    -2.672138    -2.672138   -1.8382147   0.01990803    -2.672138   0.83392334   439061 
 4050000   0.55636266   -2.6723201   -2.6723201    -1.837778  0.018089773   -2.6723201   0.83454209   439061 
 4051000   0.55542256   -2.6716214   -2.6716214   -1.8384894  0.020880862   -2.6716214   0.83313194   439061 
 4052000   0.55516763   -2.6708738   -2.6708738   -1.8381242  0.024393825   -2.6708738   0.83274955   439061 
 4053000   0.55502527   -2.6709613   -2.6709613   -1.8384253  0.027432514   -2.6709613   0.83253601   439061 
 4054000   0.55579855   -2.6713123   -2.6713123   -1.8376164   0.02410865   -2.6713123   0.83369593   439061 
 4055000   0.55504937   -2.6703932   -2.6703932    -1.837821  0.022327774   -2.6703932   0.83257216   439061 
 4056000   0.55657906   -2.6721105   -2.6721105   -1.8372439  0.020962088   -2.6721105   0.83486668   439061 
 4057000    0.5556242   -2.6705352   -2.6705352   -1.8371008  0.021953706   -2.6705352    0.8334344   439061 
 4058000   0.55465235   -2.6702282   -2.6702282   -1.8382516  0.021227504   -2.6702282   0.83197663   439061 
 4059000   0.55487536   -2.6699396   -2.6699396   -1.8376285  0.023454896   -2.6699396   0.83231115   439061 
 4060000   0.55496354   -2.6704268   -2.6704268   -1.8379834  0.018369772   -2.6704268   0.83244342   439061 
 4061000   0.55517179   -2.6706052   -2.6706052   -1.8378494  0.019970704   -2.6706052   0.83275578   439061 
 4062000   0.55456454   -2.6694157   -2.6694157   -1.8375708  0.021851858   -2.6694157   0.83184491   439061 
 4063000   0.55590689   -2.6710525   -2.6710525    -1.837194  0.025094843   -2.6710525   0.83385844   439061 
 4064000    0.5558048   -2.6708364   -2.6708364   -1.8371311  0.021573693   -2.6708364    0.8337053   439061 
 4065000   0.55535505   -2.6706881   -2.6706881   -1.8376575  0.022539479   -2.6706881   0.83303068   439061 
 4066000   0.55556238   -2.6701259   -2.6701259   -1.8367843  0.023717708   -2.6701259   0.83334167   439061 
 4067000   0.55553652   -2.6698681   -2.6698681   -1.8365652  0.027306531   -2.6698681   0.83330289   439061 
 4068000   0.55493875   -2.6700735   -2.6700735   -1.8376672  0.026678815   -2.6700735   0.83240622   439061 
 4069000   0.55500175   -2.6707127   -2.6707127   -1.8382119  0.022978314   -2.6707127   0.83250073   439061 
 4070000   0.55403397   -2.6697772   -2.6697772   -1.8387281  0.022315717   -2.6697772   0.83104906   439061 
 4071000   0.55486534   -2.6709223   -2.6709223   -1.8386262  0.021505621   -2.6709223   0.83229611   439061 
 4072000   0.55457137   -2.6709347   -2.6709347   -1.8390796  0.019418511   -2.6709347   0.83185515   439061 
 4073000   0.55474295   -2.6709482   -2.6709482   -1.8388357  0.021442899   -2.6709482   0.83211253   439061 
 4074000   0.55465606   -2.6709119   -2.6709119   -1.8389297  0.017943632   -2.6709119    0.8319822   439061 
 4075000   0.55479081   -2.6709043   -2.6709043     -1.83872  0.018482176   -2.6709043   0.83218432   439061 
 4076000   0.55443424   -2.6703253   -2.6703253   -1.8386758   0.02651411   -2.6703253   0.83164946   439061 
 4077000   0.55642777   -2.6730787   -2.6730787   -1.8384389  0.025172167   -2.6730787   0.83463975   439061 
 4078000   0.55619966   -2.6723625   -2.6723625    -1.838065  0.025231376   -2.6723625   0.83429759   439061 
 4079000   0.55593869   -2.6723937   -2.6723937   -1.8384876   0.02488325   -2.6723937   0.83390614   439061 
 4080000   0.55699618   -2.6732717   -2.6732717   -1.8377793  0.024943201   -2.6732717   0.83549236   439061 
 4081000   0.55595148   -2.6717283   -2.6717283   -1.8378029  0.024141041   -2.6717283   0.83392532   439061 
 4082000   0.55585946   -2.6726743   -2.6726743    -1.838887  0.022250155   -2.6726743   0.83378729   439061 
 4083000   0.55537623   -2.6709074   -2.6709074   -1.8378449  0.025712167   -2.6709074   0.83306244   439061 
 4084000   0.55605172   -2.6718564   -2.6718564   -1.8377808  0.018176029   -2.6718564   0.83407567   439061 
 4085000    0.5565263   -2.6725862   -2.6725862   -1.8377986  0.022452909   -2.6725862   0.83478755   439061 
 4086000   0.55550132   -2.6711697   -2.6711697   -1.8379196  0.019871528   -2.6711697   0.83325009   439061 
 4087000   0.55504156   -2.6708398   -2.6708398   -1.8382794  0.022241089   -2.6708398   0.83256045   439061 
 4088000   0.55493938   -2.6713404   -2.6713404   -1.8389333  0.020826016   -2.6713404   0.83240718   439061 
 4089000    0.5546635   -2.6712783   -2.6712783   -1.8392849  0.020839036   -2.6712783   0.83199335   439061 
 4090000   0.55438316   -2.6698919   -2.6698919   -1.8383191  0.024843046   -2.6698919   0.83157285   439061 
 4091000   0.55557845   -2.6717771   -2.6717771   -1.8384113  0.021092757   -2.6717771   0.83336578   439061 
 4092000   0.55513048   -2.6716224   -2.6716224   -1.8389286  0.020225727   -2.6716224   0.83269382   439061 
 4093000    0.5547185   -2.6705158   -2.6705158   -1.8384399  0.022638364   -2.6705158   0.83207586   439061 
 4094000   0.55413995   -2.6700605   -2.6700605   -1.8388525  0.025632878   -2.6700605   0.83120804   439061 
 4095000   0.55508196    -2.671428    -2.671428   -1.8388069  0.022208425    -2.671428   0.83262104   439061 
 4096000    0.5551333   -2.6708408   -2.6708408   -1.8381428  0.025003734   -2.6708408   0.83269805   439061 
 4097000   0.55531062   -2.6710444   -2.6710444   -1.8380804  0.021712004   -2.6710444   0.83296404   439061 
 4098000   0.55470776   -2.6707711   -2.6707711   -1.8387113  0.022717631   -2.6707711   0.83205975   439061 
 4099000   0.55498218    -2.671427    -2.671427   -1.8389557  0.021406784    -2.671427   0.83247137   439061 
 4100000   0.55501478   -2.6718608   -2.6718608   -1.8393406  0.020171801   -2.6718608   0.83252027   439061 
 4101000   0.55426472   -2.6717859   -2.6717859   -1.8403907  0.019108613   -2.6717859   0.83139519   439061 
 4102000   0.55434019   -2.6715489   -2.6715489   -1.8400405  0.021722494   -2.6715489   0.83150839   439061 
 4103000   0.55439261   -2.6715227   -2.6715227   -1.8399357  0.021368675   -2.6715227   0.83158702   439061 
 4104000   0.55469946     -2.67176     -2.67176   -1.8397127  0.022855508     -2.67176    0.8320473   439061 
 4105000   0.55440019   -2.6715868   -2.6715868   -1.8399884  0.023995196   -2.6715868   0.83159839   439061 
 4106000   0.55513035   -2.6726658   -2.6726658   -1.8399722   0.02379381   -2.6726658   0.83269363   439061 
 4107000   0.55513774   -2.6722614   -2.6722614   -1.8395567  0.023751887   -2.6722614   0.83270471   439061 
 4108000   0.55443763   -2.6712427   -2.6712427   -1.8395881  0.022368322   -2.6712427   0.83165455   439061 
 4109000   0.55568445   -2.6732635   -2.6732635   -1.8397387   0.02509763   -2.6732635   0.83352478   439061 
 4110000   0.55524764   -2.6732952   -2.6732952   -1.8404256  0.025266971   -2.6732952   0.83286956   439061 
 4111000   0.55520941   -2.6728651   -2.6728651   -1.8400528  0.023769532   -2.6728651   0.83281222   439061 
 4112000   0.55456937   -2.6726574   -2.6726574   -1.8408053  0.019446114   -2.6726574   0.83185216   439061 
 4113000   0.55534548   -2.6734524   -2.6734524   -1.8404361   0.02205246   -2.6734524   0.83301632   439061 
 4114000   0.55469516   -2.6721879   -2.6721879    -1.840147  0.028043254   -2.6721879   0.83204084   439061 
 4115000   0.55593313   -2.6731683   -2.6731683   -1.8392705  0.022338562   -2.6731683   0.83389779   439061 
 4116000   0.55594157   -2.6738577   -2.6738577   -1.8399472  0.023851257   -2.6738577   0.83391046   439061 
 4117000   0.55552889   -2.6733076   -2.6733076   -1.8400162  0.026038416   -2.6733076   0.83329143   439061 
 4118000    0.5564929   -2.6743255   -2.6743255    -1.839588  0.022705031   -2.6743255   0.83473745   439061 
 4119000   0.55512057   -2.6732027   -2.6732027   -1.8405238    0.0230393   -2.6732027   0.83267896   439061 
 4120000   0.55628632   -2.6738922   -2.6738922   -1.8394646   0.02158536   -2.6738922   0.83442758   439061 
 4121000   0.55609797   -2.6730077   -2.6730077   -1.8388626  0.025011081   -2.6730077   0.83414506   439061 
 4122000   0.55581668    -2.673095    -2.673095   -1.8393719  0.024680963    -2.673095   0.83372312   439061 
 4123000   0.55514814   -2.6729481   -2.6729481   -1.8402278  0.022049697   -2.6729481   0.83272032   439061 
 4124000    0.5551711   -2.6721863   -2.6721863   -1.8394315   0.02147378   -2.6721863   0.83275475   439061 
 4125000   0.55481494   -2.6720287   -2.6720287   -1.8398082  0.023852995   -2.6720287   0.83222052   439061 
 4126000   0.55509461   -2.6724191   -2.6724191   -1.8397791  0.020192306   -2.6724191   0.83264001   439061 
 4127000   0.55456312   -2.6722217   -2.6722217   -1.8403789  0.021742797   -2.6722217   0.83184278   439061 
 4128000   0.55607541    -2.673146    -2.673146   -1.8390348  0.022236459    -2.673146   0.83411121   439061 
 4129000   0.55545448   -2.6716375   -2.6716375   -1.8384576  0.018435437   -2.6716375   0.83317982   439061 
 4130000   0.55463111   -2.6708697   -2.6708697    -1.838925  0.022351375   -2.6708697   0.83194477   439061 
 4131000   0.55534072   -2.6703234   -2.6703234   -1.8373142  0.025140013   -2.6703234   0.83300918   439061 
 4132000   0.55561838   -2.6712153   -2.6712153   -1.8377896  0.022092207   -2.6712153   0.83342567   439061 
 4133000    0.5562919   -2.6716185   -2.6716185   -1.8371825  0.022014597   -2.6716185   0.83443595   439061 
 4134000   0.55560279   -2.6709058   -2.6709058   -1.8375036  0.019061023   -2.6709058   0.83340228   439061 
 4135000   0.55469071   -2.6700998   -2.6700998   -1.8380657  0.020522725   -2.6700998   0.83203417   439061 
 4136000   0.55480499   -2.6708603   -2.6708603   -1.8386547  0.023416873   -2.6708603   0.83220559   439061 
 4137000   0.55480525   -2.6708812   -2.6708812   -1.8386753  0.020103318   -2.6708812   0.83220597   439061 
 4138000   0.55548011   -2.6723336   -2.6723336   -1.8391153  0.016897893   -2.6723336   0.83321827   439061 
 4139000   0.55432563   -2.6710346   -2.6710346    -1.839548  0.017194213   -2.6710346   0.83148655   439061 
 4140000    0.5535437   -2.6707791   -2.6707791   -1.8404655  0.021795805   -2.6707791   0.83031365   439061 
 4141000    0.5546481   -2.6724774   -2.6724774   -1.8405072  0.017750099   -2.6724774   0.83197026   439061 
 4142000   0.55465361    -2.673221    -2.673221   -1.8412425  0.017241427    -2.673221   0.83197852   439061 
 4143000   0.55472892   -2.6722544   -2.6722544   -1.8401629  0.020909566   -2.6722544   0.83209148   439061 
 4144000   0.55506338   -2.6722114   -2.6722114   -1.8396182  0.023805685   -2.6722114   0.83259318   439061 
 4145000   0.55478756   -2.6722574   -2.6722574    -1.840078  0.024919137   -2.6722574   0.83217945   439061 
 4146000   0.55559276   -2.6738058   -2.6738058   -1.8404186  0.023011411   -2.6738058   0.83338725   439061 
 4147000   0.55511959   -2.6732024   -2.6732024   -1.8405249  0.025370696   -2.6732024   0.83267748   439061 
 4148000   0.55607474   -2.6743285   -2.6743285   -1.8402183  0.026718424   -2.6743285   0.83411021   439061 
 4149000   0.55564396   -2.6740121   -2.6740121   -1.8405481  0.024937911   -2.6740121   0.83346404   439061 
 4150000   0.55570078   -2.6748691   -2.6748691   -1.8413199  0.022938882   -2.6748691   0.83354927   439061 
 4151000   0.55525495    -2.674171    -2.674171   -1.8412905  0.024748595    -2.674171   0.83288052   439061 
 4152000   0.55498305   -2.6731397   -2.6731397    -1.840667  0.025629768   -2.6731397   0.83247268   439061 
 4153000   0.55516324   -2.6746101   -2.6746101   -1.8418672    0.0241235   -2.6746101   0.83274296   439061 
 4154000   0.55412787   -2.6733877   -2.6733877   -1.8421978   0.02310194   -2.6733877   0.83118991   439061 
 4155000   0.55518728   -2.6738627   -2.6738627   -1.8410837  0.023468354   -2.6738627   0.83277902   439061 
 4156000   0.55495606   -2.6739871   -2.6739871   -1.8415549  0.024565892   -2.6739871    0.8324322   439061 
 4157000   0.55539542   -2.6748058   -2.6748058   -1.8417146  0.023688407   -2.6748058   0.83309123   439061 
 4158000   0.55460081   -2.6727627   -2.6727627   -1.8408634  0.027414874   -2.6727627   0.83189932   439061 
 4159000   0.55429993   -2.6725681   -2.6725681   -1.8411201  0.023486836   -2.6725681     0.831448   439061 
 4160000   0.55426375   -2.6726431   -2.6726431   -1.8412494  0.020388844   -2.6726431   0.83139373   439061 
 4161000    0.5541731   -2.6732926   -2.6732926   -1.8420349  0.019498262   -2.6732926   0.83125776   439061 
 4162000   0.55483714   -2.6731733   -2.6731733   -1.8409195  0.023198288   -2.6731733   0.83225382   439061 
 4163000   0.55517676   -2.6733652   -2.6733652   -1.8406019  0.023424552   -2.6733652   0.83276324   439061 
 4164000   0.55462263   -2.6725706   -2.6725706   -1.8406385  0.022211263   -2.6725706   0.83193205   439061 
 4165000   0.55473396   -2.6729234   -2.6729234   -1.8408243  0.021169882   -2.6729234   0.83209905   439061 
 4166000   0.55441235   -2.6736392   -2.6736392   -1.8420225  0.020489742   -2.6736392   0.83161664   439061 
 4167000   0.55501052   -2.6740292   -2.6740292   -1.8415154  0.021563677   -2.6740292   0.83251388   439061 
 4168000   0.55431064    -2.673503    -2.673503   -1.8420389   0.02270758    -2.673503   0.83146407   439061 
 4169000   0.55393592   -2.6727272   -2.6727272   -1.8418252  0.021848235   -2.6727272   0.83090199   439061 
 4170000    0.5541263   -2.6742881   -2.6742881   -1.8431005  0.023098108   -2.6742881   0.83118756   439061 
 4171000   0.55412556   -2.6742936   -2.6742936   -1.8431071  0.019564872   -2.6742936   0.83118645   439061 
 4172000   0.55496073   -2.6743542   -2.6743542    -1.841915  0.021028585   -2.6743542    0.8324392   439061 
 4173000   0.55520904   -2.6755538   -2.6755538   -1.8427421  0.016777768   -2.6755538   0.83281167   439061 
 4174000   0.55477756   -2.6746982   -2.6746982   -1.8425338  0.023219995   -2.6746982   0.83216445   439061 
 4175000   0.55493837   -2.6754314   -2.6754314   -1.8430258  0.022845919   -2.6754314   0.83240565   439061 
 4176000    0.5547744   -2.6741728   -2.6741728   -1.8420131  0.024175669   -2.6741728   0.83215971   439061 
 4177000     0.555475   -2.6748762   -2.6748762   -1.8416656  0.020836965   -2.6748762    0.8332106   439061 
 4178000   0.55477814   -2.6747143   -2.6747143    -1.842549  0.023586865   -2.6747143   0.83216531   439061 
 4179000   0.55534113   -2.6760003   -2.6760003   -1.8429905  0.022279095   -2.6760003    0.8330098   439061 
 4180000   0.55484923   -2.6751234   -2.6751234   -1.8428515  0.024795041   -2.6751234   0.83227194   439061 
 4181000   0.55487238   -2.6755811   -2.6755811   -1.8432744  0.024731583   -2.6755811   0.83230668   439061 
 4182000   0.55431071   -2.6752048   -2.6752048   -1.8437406  0.024866784   -2.6752048   0.83146417   439061 
 4183000   0.55496495   -2.6761648   -2.6761648   -1.8437193  0.021992829   -2.6761648   0.83244552   439061 
 4184000    0.5546857   -2.6755533   -2.6755533   -1.8435267  0.022700096   -2.6755533   0.83202666   439061 
 4185000   0.55457858   -2.6749156   -2.6749156   -1.8430496  0.023572916   -2.6749156   0.83186597   439061 
 4186000   0.55493351   -2.6746435   -2.6746435   -1.8422451  0.025244431   -2.6746435   0.83239836   439061 
 4187000   0.55465901   -2.6743662   -2.6743662   -1.8423795  0.025059631   -2.6743662   0.83198663   439061 
 4188000   0.55645544   -2.6756226   -2.6756226   -1.8409413   0.02361438   -2.6756226   0.83468125   439061 
 4189000   0.55603732    -2.675658    -2.675658    -1.841604  0.021832637    -2.675658   0.83405408   439061 
 4190000   0.55650191   -2.6763037   -2.6763037   -1.8415527  0.020083438   -2.6763037   0.83475097   439061 
 4191000   0.55506644   -2.6740727   -2.6740727    -1.841475  0.024765901   -2.6740727   0.83259776   439061 
 4192000   0.55476919   -2.6739449   -2.6739449    -1.841793  0.023013664   -2.6739449   0.83215189   439061 
 4193000   0.55485704   -2.6742363   -2.6742363   -1.8419527  0.021517601   -2.6742363   0.83228367   439061 
 4194000   0.55541006   -2.6754426   -2.6754426   -1.8423294  0.017325089   -2.6754426   0.83311319   439061 
 4195000   0.55460704   -2.6742082   -2.6742082   -1.8422995  0.017371936   -2.6742082   0.83190867   439061 
 4196000    0.5547237    -2.673931    -2.673931   -1.8418473  0.023098607    -2.673931   0.83208365   439061 
 4197000   0.55414406   -2.6740489   -2.6740489   -1.8428347    0.0192939   -2.6740489    0.8312142   439061 
 4198000   0.55414646   -2.6737145   -2.6737145   -1.8424967  0.021054564   -2.6737145    0.8312178   439061 
 4199000   0.55494572   -2.6739238   -2.6739238   -1.8415071  0.022845515   -2.6739238   0.83241669   439061 
 4200000   0.55545327   -2.6739506   -2.6739506   -1.8407726  0.020068048   -2.6739506     0.833178   439061 
 4201000   0.55452781    -2.672423    -2.672423   -1.8406332  0.024574661    -2.672423   0.83178982   439061 
 4202000   0.55446898   -2.6728167   -2.6728167   -1.8411151  0.024187699   -2.6728167   0.83170158   439061 
 4203000   0.55483378   -2.6736479   -2.6736479   -1.8413991  0.023124169   -2.6736479   0.83224877   439061 
 4204000   0.55529825   -2.6745109   -2.6745109   -1.8415654  0.021811185   -2.6745109   0.83294548   439061 
 4205000   0.55455549   -2.6733049   -2.6733049   -1.8414736  0.023174625   -2.6733049   0.83183134   439061 
 4206000   0.55481216   -2.6736309   -2.6736309   -1.8414145  0.020338167   -2.6736309   0.83221635   439061 
 4207000   0.55389058   -2.6726106   -2.6726106   -1.8417767  0.020603849   -2.6726106   0.83083397   439061 
 4208000   0.55520681   -2.6749202   -2.6749202   -1.8421119  0.018197752   -2.6749202   0.83280831   439061 
 4209000   0.55533784   -2.6755805   -2.6755805   -1.8425756  0.017777135   -2.6755805   0.83300487   439061 
 4210000   0.55458144   -2.6735222   -2.6735222   -1.8416519  0.021158864   -2.6735222   0.83187026   439061 
 4211000   0.55504481    -2.674207    -2.674207   -1.8416417  0.021060267    -2.674207   0.83256532   439061 
 4212000   0.55598257   -2.6761484   -2.6761484   -1.8421764  0.020036995   -2.6761484   0.83397196   439061 
 4213000   0.55487094   -2.6750194   -2.6750194   -1.8427149  0.024509392   -2.6750194   0.83230451   439061 
 4214000   0.55552056   -2.6754254   -2.6754254   -1.8421465  0.023228113   -2.6754254   0.83327894   439061 
 4215000   0.55525033   -2.6755841   -2.6755841   -1.8427105   0.02445045   -2.6755841    0.8328736   439061 
 4216000   0.55467564   -2.6754917   -2.6754917   -1.8434801  0.024572636   -2.6754917   0.83201156   439061 
 4217000   0.55527812   -2.6759214   -2.6759214   -1.8430061  0.027403283   -2.6759214   0.83291529   439061 
 4218000    0.5540503   -2.6747689   -2.6747689   -1.8436953  0.025154239   -2.6747689   0.83107356   439061 
 4219000   0.55502076   -2.6761725   -2.6761725   -1.8436432  0.022772445   -2.6761725   0.83252925   439061 
 4220000   0.55539803   -2.6766264   -2.6766264   -1.8435313  0.020617536   -2.6766264   0.83309514   439061 
 4221000   0.55450381   -2.6750596   -2.6750596   -1.8433058   0.02162217   -2.6750596   0.83175383   439061 
 4222000   0.55466661   -2.6759604   -2.6759604   -1.8439624  0.020387097   -2.6759604   0.83199803   439061 
 4223000   0.55579366   -2.6771381   -2.6771381   -1.8434495  0.024230223   -2.6771381   0.83368859   439061 
 4224000   0.55526781   -2.6760322   -2.6760322   -1.8431324  0.020155047   -2.6760322   0.83289981   439061 
 4225000   0.55519856   -2.6762598   -2.6762598   -1.8434639  0.026349812   -2.6762598   0.83279595   439061 
 4226000   0.55465135   -2.6757479   -2.6757479   -1.8437727  0.024807647   -2.6757479   0.83197514   439061 
 4227000   0.55519904   -2.6768955   -2.6768955   -1.8440988  0.021215195   -2.6768955   0.83279666   439061 
 4228000    0.5544078   -2.6754916   -2.6754916   -1.8438818  0.021310899   -2.6754916    0.8316098   439061 
 4229000   0.55421365   -2.6752345   -2.6752345   -1.8439159  0.021988723   -2.6752345   0.83131859   439061 
 4230000   0.55479681   -2.6757096   -2.6757096   -1.8435163  0.021533907   -2.6757096   0.83219331   439061 
 4231000   0.55399311   -2.6753529   -2.6753529   -1.8443651  0.024334574   -2.6753529   0.83098777   439061 
 4232000   0.55465221   -2.6761941   -2.6761941   -1.8442177   0.02217173   -2.6761941   0.83197642   439061 
 4233000   0.55563577   -2.6768848   -2.6768848    -1.843433  0.023052229   -2.6768848   0.83345175   439061 
 4234000   0.55529316   -2.6754058   -2.6754058   -1.8424679  0.023518727   -2.6754058   0.83293785   439061 
 4235000   0.55502484   -2.6748979   -2.6748979   -1.8423626  0.025853106   -2.6748979   0.83253536   439061 
 4236000   0.55508384    -2.675249    -2.675249   -1.8426252    0.0209567    -2.675249   0.83262386   439061 
 4237000   0.55498174   -2.6754665   -2.6754665   -1.8429958  0.020843385   -2.6754665   0.83247072   439061 
 4238000     0.553936    -2.674905    -2.674905   -1.8440028  0.017587006    -2.674905   0.83090211   439061 
 4239000   0.55384132   -2.6745788   -2.6745788   -1.8438187  0.023345544   -2.6745788   0.83076009   439061 
 4240000   0.55442341   -2.6748381   -2.6748381   -1.8432049  0.024604131   -2.6748381   0.83163321   439061 
 4241000   0.55507503   -2.6754794   -2.6754794   -1.8428688  0.021974012   -2.6754794   0.83261064   439061 
 4242000   0.55453043   -2.6747804   -2.6747804   -1.8429867  0.019801855   -2.6747804   0.83179375   439061 
 4243000    0.5549325   -2.6743964   -2.6743964   -1.8419995  0.019383982   -2.6743964   0.83239686   439061 
 4244000   0.55464919   -2.6741893   -2.6741893   -1.8422174  0.024769923   -2.6741893   0.83197189   439061 
 4245000   0.55547713   -2.6747515   -2.6747515   -1.8415377  0.020161746   -2.6747515    0.8332138   439061 
 4246000   0.55520987   -2.6744634   -2.6744634   -1.8416505  0.020309948   -2.6744634   0.83281291   439061 
 4247000   0.55534175   -2.6755599   -2.6755599   -1.8425491  0.017137993   -2.6755599   0.83301073   439061 
 4248000   0.55518877   -2.6748858   -2.6748858   -1.8421046  0.024339331   -2.6748858   0.83278125   439061 
 4249000   0.55524106    -2.675533    -2.675533   -1.8426733  0.019878541    -2.675533   0.83285969   439061 
 4250000   0.55561826   -2.6756076   -2.6756076   -1.8421822  0.020544038   -2.6756076   0.83342549   439061 
 4251000   0.55441832   -2.6737543   -2.6737543   -1.8421287  0.021695422   -2.6737543   0.83162559   439061 
 4252000   0.55524667   -2.6760673   -2.6760673   -1.8431992  0.019172967   -2.6760673   0.83286811   439061 
 4253000   0.55533183   -2.6760143   -2.6760143   -1.8430184  0.022157892   -2.6760143   0.83299585   439061 
 4254000   0.55480893   -2.6753941   -2.6753941   -1.8431826  0.023030192   -2.6753941   0.83221149   439061 
 4255000   0.55447529   -2.6754792   -2.6754792   -1.8437682  0.024575173   -2.6754792   0.83171104   439061 
 4256000   0.55480161   -2.6752118   -2.6752118   -1.8430113  0.020697169   -2.6752118   0.83220052   439061 
 4257000   0.55501864   -2.6749849   -2.6749849   -1.8424589  0.023068418   -2.6749849   0.83252606   439061 
 4258000   0.55522479   -2.6755788   -2.6755788   -1.8427436  0.023658989   -2.6755788    0.8328353   439061 
 4259000   0.55485822   -2.6752678   -2.6752678   -1.8429823   0.02205283   -2.6752678   0.83228543   439061 
 4260000   0.55564618   -2.6767854   -2.6767854    -1.843318   0.02025635   -2.6767854   0.83346737   439061 
 4261000   0.55452432   -2.6754909   -2.6754909   -1.8437063  0.026596375   -2.6754909   0.83178459   439061 
 4262000    0.5547926   -2.6758701   -2.6758701   -1.8436831   0.02579739   -2.6758701     0.832187   439061 
 4263000   0.55505973   -2.6768371   -2.6768371   -1.8442494  0.024483463   -2.6768371    0.8325877   439061 
 4264000   0.55433376   -2.6761236   -2.6761236   -1.8446249  0.023593016   -2.6761236   0.83149874   439061 
 4265000   0.55539526   -2.6772494   -2.6772494   -1.8441584  0.020928826   -2.6772494   0.83309099   439061 
 4266000   0.55451534   -2.6758179   -2.6758179   -1.8440468   0.02363549   -2.6758179   0.83177111   439061 
 4267000   0.55578738   -2.6773833   -2.6773833   -1.8437041  0.022376177   -2.6773833   0.83367916   439061 
 4268000   0.55511742   -2.6774648   -2.6774648   -1.8447905  0.022377256   -2.6774648   0.83267423   439061 
 4269000   0.55379593   -2.6751429   -2.6751429   -1.8444509  0.022519199   -2.6751429     0.830692   439061 
 4270000   0.55435686   -2.6761668   -2.6761668   -1.8446334  0.022068798   -2.6761668   0.83153339   439061 
 4271000   0.55400701   -2.6762693   -2.6762693   -1.8452607  0.019863643   -2.6762693   0.83100863   439061 
 4272000   0.55386718    -2.676095    -2.676095   -1.8452961  0.024976812    -2.676095   0.83079888   439061 
 4273000   0.55454774   -2.6768908   -2.6768908    -1.845071  0.023252405   -2.6768908   0.83181972   439061 
 4274000   0.55423009   -2.6762262   -2.6762262   -1.8448829  0.019759284   -2.6762262   0.83134324   439061 
 4275000    0.5544695   -2.6768296   -2.6768296   -1.8451272  0.017191872   -2.6768296   0.83170236   439061 
 4276000   0.55464243    -2.677002    -2.677002   -1.8450403   0.01926292    -2.677002   0.83196174   439061 
 4277000   0.55452802    -2.677234    -2.677234   -1.8454439  0.022652016    -2.677234   0.83179013   439061 
 4278000   0.55491641   -2.6772006   -2.6772006   -1.8448279  0.019776048   -2.6772006   0.83237271   439061 
 4279000   0.55463566   -2.6773546   -2.6773546    -1.845403  0.018120089   -2.6773546    0.8319516   439061 
 4280000   0.55433132   -2.6768995   -2.6768995   -1.8454044  0.022585753   -2.6768995   0.83149508   439061 
 4281000   0.55363361    -2.676476    -2.676476   -1.8460275  0.021711946    -2.676476   0.83044852   439061 
 4282000   0.55519642   -2.6779732   -2.6779732   -1.8451805  0.022521628   -2.6779732   0.83279274   439061 
 4283000   0.55372664   -2.6768308   -2.6768308   -1.8462427  0.020168669   -2.6768308   0.83058806   439061 
 4284000   0.55324725   -2.6763178   -2.6763178   -1.8464488  0.021903102   -2.6763178   0.82986899   439061 
 4285000   0.55459264   -2.6782457   -2.6782457   -1.8463586  0.016716995   -2.6782457   0.83188707   439061 
 4286000   0.55380601   -2.6770542   -2.6770542   -1.8463471  0.026515698   -2.6770542   0.83070713   439061 
 4287000   0.55415539   -2.6765339   -2.6765339   -1.8453027  0.025045913   -2.6765339    0.8312312   439061 
 4288000   0.55470513   -2.6772465   -2.6772465   -1.8451907  0.023890094   -2.6772465   0.83205579   439061 
 4289000   0.55574781   -2.6795666   -2.6795666   -1.8459468  0.026983423   -2.6795666   0.83361982   439061 
 4290000   0.55572638   -2.6793689   -2.6793689   -1.8457812  0.025121174   -2.6793689   0.83358768   439061 
 4291000   0.55574535   -2.6795262   -2.6795262   -1.8459101  0.022213836   -2.6795262   0.83361613   439061 
 4292000   0.55635592   -2.6800054   -2.6800054   -1.8454734  0.019575626   -2.6800054   0.83453197   439061 
 4293000   0.55592393   -2.6795741   -2.6795741   -1.8456901  0.022336546   -2.6795741   0.83388399   439061 
 4294000   0.55424741    -2.677512    -2.677512   -1.8461428  0.019496827    -2.677512   0.83136923   439061 
 4295000   0.55376794   -2.6773259   -2.6773259   -1.8466758  0.022159339   -2.6773259   0.83065002   439061 
 4296000   0.55475327   -2.6788934   -2.6788934   -1.8467654  0.021863053   -2.6788934   0.83212801   439061 
 4297000    0.5547102   -2.6792823   -2.6792823   -1.8472189  0.023303736   -2.6792823   0.83206341   439061 
 4298000   0.55453107   -2.6782564   -2.6782564   -1.8464617  0.019053658   -2.6782564   0.83179472   439061 
 4299000   0.55397158   -2.6779534   -2.6779534   -1.8469979  0.022290713   -2.6779534   0.83095548   439061 
 4300000   0.55366761   -2.6780912   -2.6780912   -1.8475916  0.018913722   -2.6780912   0.83049952   439061 
 4301000   0.55463121   -2.6780551   -2.6780551   -1.8461102   0.02049692   -2.6780551   0.83194491   439061 
 4302000   0.55374395    -2.676502    -2.676502    -1.845888  0.021792271    -2.676502   0.83061403   439061 
 4303000   0.55473032   -2.6776357   -2.6776357   -1.8455421   0.02108124   -2.6776357   0.83209359   439061 
 4304000   0.55424632   -2.6775464   -2.6775464   -1.8461788   0.02184049   -2.6775464   0.83136758   439061 
 4305000   0.55498825   -2.6775601   -2.6775601   -1.8450796   0.02364476   -2.6775601   0.83248048   439061 
 4306000   0.55548439   -2.6776641   -2.6776641   -1.8444394  0.023800229   -2.6776641   0.83322468   439061 
 4307000   0.55494003   -2.6776688   -2.6776688   -1.8452607  0.023599219   -2.6776688   0.83240814   439061 
 4308000   0.55438218   -2.6767998   -2.6767998   -1.8452285  0.023243165   -2.6767998   0.83157137   439061 
 4309000   0.55415599   -2.6769296   -2.6769296   -1.8456975  0.022484466   -2.6769296   0.83123209   439061 
 4310000   0.55479643   -2.6774279   -2.6774279   -1.8452352  0.023118766   -2.6774279   0.83219274   439061 
 4311000   0.55487464   -2.6784547   -2.6784547   -1.8461446  0.018402609   -2.6784547   0.83231006   439061 
 4312000   0.55390421   -2.6772881   -2.6772881   -1.8464337  0.021544109   -2.6772881   0.83085442   439061 
 4313000   0.55365323   -2.6769673   -2.6769673   -1.8464893  0.022474029   -2.6769673   0.83047795   439061 
 4314000   0.55424866   -2.6769663   -2.6769663   -1.8455952  0.023105784   -2.6769663    0.8313711   439061 
 4315000   0.55465862   -2.6782146   -2.6782146   -1.8462286  0.018078928   -2.6782146   0.83198603   439061 
 4316000    0.5540964   -2.6763998   -2.6763998   -1.8452571  0.023577332   -2.6763998    0.8311427   439061 
 4317000   0.55408497   -2.6763811   -2.6763811   -1.8452556  0.023865272   -2.6763811   0.83112555   439061 
 4318000   0.55397901   -2.6766116   -2.6766116    -1.845645  0.022201634   -2.6766116   0.83096663   439061 
 4319000   0.55402291   -2.6770129   -2.6770129   -1.8459805  0.022516118   -2.6770129   0.83103246   439061 
 4320000   0.55528051   -2.6784299   -2.6784299    -1.845511  0.022213748   -2.6784299   0.83291887   439061 
 4321000    0.5548047   -2.6781881   -2.6781881   -1.8459829  0.020583468   -2.6781881   0.83220515   439061 
 4322000    0.5543288   -2.6778394   -2.6778394   -1.8463481  0.020719756   -2.6778394    0.8314913   439061 
 4323000   0.55343703   -2.6761575   -2.6761575   -1.8460038  0.022014772   -2.6761575   0.83015366   439061 
 4324000   0.55433628   -2.6780827   -2.6780827   -1.8465802  0.024291053   -2.6780827   0.83150253   439061 
 4325000   0.55287716   -2.6762517   -2.6762517   -1.8469379  0.021209178   -2.6762517   0.82931385   439061 
 4326000   0.55390625   -2.6768214   -2.6768214   -1.8459639  0.023638685   -2.6768214   0.83085748   439061 
 4327000   0.55455095    -2.678463    -2.678463   -1.8466384  0.021310918    -2.678463   0.83182453   439061 
 4328000   0.55445002   -2.6790267   -2.6790267   -1.8473536  0.019546068   -2.6790267   0.83167314   439061 
 4329000   0.55438562   -2.6787905   -2.6787905    -1.847214  0.025329065   -2.6787905   0.83157654   439061 
 4330000   0.55449874   -2.6791839   -2.6791839   -1.8474377  0.023444039   -2.6791839   0.83174622   439061 
 4331000   0.55449053   -2.6793373   -2.6793373   -1.8476034  0.024343388   -2.6793373   0.83173391   439061 
 4332000   0.55422224   -2.6782595   -2.6782595    -1.846928  0.024576589   -2.6782595   0.83133147   439061 
 4333000   0.55437735   -2.6787125   -2.6787125   -1.8471484  0.020894216   -2.6787125   0.83156413   439061 
 4334000   0.55439096   -2.6792256   -2.6792256    -1.847641  0.022951236   -2.6792256   0.83158455   439061 
 4335000   0.55416177   -2.6789119   -2.6789119   -1.8476711  0.021852864   -2.6789119   0.83124077   439061 
 4336000   0.55446769   -2.6797695   -2.6797695   -1.8480698  0.023564381   -2.6797695   0.83169964   439061 
 4337000   0.55488425   -2.6810427   -2.6810427   -1.8487182  0.017939269   -2.6810427   0.83232448   439061 
 4338000   0.55402923   -2.6797974   -2.6797974   -1.8487555  0.021550602   -2.6797974   0.83104195   439061 
 4339000   0.55469605    -2.680766    -2.680766   -1.8487238   0.02414147    -2.680766   0.83204218   439061 
 4340000   0.55466368   -2.6810773   -2.6810773   -1.8490837  0.020222029   -2.6810773   0.83199362   439061 
 4341000   0.55326231   -2.6789458   -2.6789458   -1.8490542  0.024448914   -2.6789458   0.82989158   439061 
 4342000   0.55337312   -2.6792285   -2.6792285   -1.8491707  0.023199165   -2.6792285    0.8300578   439061 
 4343000   0.55471846   -2.6810081   -2.6810081   -1.8489323  0.022386836   -2.6810081   0.83207579   439061 
 4344000   0.55482613   -2.6804438   -2.6804438   -1.8482065  0.023869087   -2.6804438    0.8322373   439061 
 4345000   0.55505619   -2.6803046   -2.6803046   -1.8477222  0.023699202   -2.6803046   0.83258239   439061 
 4346000   0.55456121   -2.6798849   -2.6798849    -1.848045  0.024112249   -2.6798849   0.83183991   439061 
 4347000   0.55480006   -2.6795843   -2.6795843   -1.8473861   0.02322224   -2.6795843   0.83219819   439061 
 4348000   0.55454244   -2.6793108   -2.6793108    -1.847499  0.021983767   -2.6793108   0.83181177   439061 
 4349000   0.55547584   -2.6804203   -2.6804203   -1.8472085  0.024518804   -2.6804203   0.83321187   439061 
 4350000   0.55535221   -2.6809534   -2.6809534   -1.8479269  0.020919382   -2.6809534   0.83302642   439061 
 4351000   0.55500814   -2.6799673   -2.6799673    -1.847457  0.025181024   -2.6799673   0.83251031   439061 
 4352000   0.55328361    -2.677802    -2.677802   -1.8478785  0.025065737    -2.677802   0.82992352   439061 
 4353000   0.55465029   -2.6793314   -2.6793314   -1.8473578  0.022577554   -2.6793314   0.83197354   439061 
 4354000   0.55406835   -2.6784794   -2.6784794   -1.8473787  0.022715242   -2.6784794   0.83110063   439061 
 4355000   0.55324744   -2.6776617   -2.6776617   -1.8477925  0.021774767   -2.6776617   0.82986927   439061 
 4356000   0.55407265   -2.6798466   -2.6798466   -1.8487395  0.018317332   -2.6798466   0.83110709   439061 
 4357000   0.55326059   -2.6786142   -2.6786142   -1.8487252  0.022603035   -2.6786142   0.82988899   439061 
 4358000   0.55238714    -2.677549    -2.677549   -1.8489701  0.016059945    -2.677549   0.82857882   439061 
 4359000   0.55316648   -2.6786469   -2.6786469   -1.8488991  0.018284962   -2.6786469   0.82974783   439061 
 4360000   0.55266709   -2.6773206   -2.6773206   -1.8483218  0.018372775   -2.6773206   0.82899875   439061 
 4361000   0.55410026   -2.6789981   -2.6789981   -1.8478496  0.021193239   -2.6789981   0.83114849   439061 
 4362000   0.55412758   -2.6784353   -2.6784353   -1.8472458  0.016440292   -2.6784353   0.83118947   439061 
 4363000   0.55447688   -2.6795113   -2.6795113   -1.8477979  0.025065685   -2.6795113   0.83171343   439061 
 4364000   0.55370747   -2.6786896   -2.6786896   -1.8481303   0.02188977   -2.6786896   0.83055931   439061 
 4365000   0.55468251   -2.6800425   -2.6800425   -1.8480206  0.024227736   -2.6800425   0.83202186   439061 
 4366000   0.55479585   -2.6806639   -2.6806639    -1.848472  0.022562053   -2.6806639   0.83219187   439061 
 4367000   0.55427685   -2.6802198   -2.6802198   -1.8488064  0.023692772   -2.6802198   0.83141338   439061 
 4368000   0.55391027   -2.6799025   -2.6799025    -1.849039  0.023909633   -2.6799025   0.83086351   439061 
 4369000   0.55458914   -2.6799457   -2.6799457   -1.8480639  0.022631471   -2.6799457   0.83188182   439061 
 4370000   0.55490469   -2.6807228   -2.6807228   -1.8483677   0.02672903   -2.6807228   0.83235514   439061 
 4371000   0.55435786   -2.6797525   -2.6797525   -1.8482176  0.024534797   -2.6797525    0.8315349   439061 
 4372000   0.55494296   -2.6811051   -2.6811051   -1.8486925   0.02160612   -2.6811051   0.83241254   439061 
 4373000   0.55466954   -2.6809036   -2.6809036   -1.8489012  0.024676125   -2.6809036   0.83200242   439061 
 4374000    0.5536589   -2.6792404   -2.6792404   -1.8487539   0.02458846   -2.6792404   0.83048645   439061 
 4375000   0.55374215   -2.6792354   -2.6792354    -1.848624  0.021741555   -2.6792354   0.83061133   439061 
 4376000   0.55454098   -2.6805925   -2.6805925   -1.8487829  0.018815432   -2.6805925   0.83180958   439061 
 4377000   0.55464845   -2.6797514   -2.6797514   -1.8477806  0.021762797   -2.6797514   0.83197078   439061 
 4378000   0.55366976   -2.6780157   -2.6780157   -1.8475129  0.022092952   -2.6780157   0.83050274   439061 
 4379000   0.55434966   -2.6789398   -2.6789398   -1.8474172  0.020687469   -2.6789398    0.8315226   439061 
 4380000   0.55487787   -2.6798399   -2.6798399    -1.847525  0.023084363   -2.6798399   0.83231491   439061 
 4381000   0.55404064    -2.679706    -2.679706   -1.8486469  0.023279437    -2.679706   0.83105906   439061 
 4382000   0.55424655    -2.679708    -2.679708   -1.8483401  0.020068928    -2.679708   0.83136792   439061 
 4383000   0.55355165   -2.6777615   -2.6777615   -1.8474359  0.024876788   -2.6777615   0.83032558   439061 
 4384000   0.55430074   -2.6780063   -2.6780063    -1.846557  0.020880909   -2.6780063   0.83144922   439061 
 4385000   0.55411231   -2.6781015   -2.6781015   -1.8469349  0.022836282   -2.6781015   0.83116657   439061 
 4386000   0.55377357   -2.6785644   -2.6785644   -1.8479059  0.021882943   -2.6785644   0.83065846   439061 
 4387000   0.55403027   -2.6786937   -2.6786937   -1.8476502  0.020516006   -2.6786937   0.83104351   439061 
 4388000   0.55368223   -2.6775848   -2.6775848   -1.8470634  0.019036166   -2.6775848   0.83052145   439061 
 4389000   0.55403847   -2.6787634   -2.6787634   -1.8477076  0.022104803   -2.6787634   0.83105581   439061 
 4390000   0.55429141    -2.679733    -2.679733   -1.8482978  0.020699934    -2.679733   0.83143523   439061 
 4391000   0.55444906   -2.6791059   -2.6791059   -1.8474342  0.022573974   -2.6791059   0.83167169   439061 
 4392000   0.55398439    -2.679263    -2.679263   -1.8482883  0.019766725    -2.679263   0.83097469   439061 
 4393000   0.55393944   -2.6797207   -2.6797207   -1.8488135   0.01869228   -2.6797207   0.83090727   439061 
 4394000   0.55356495   -2.6792938   -2.6792938   -1.8489483  0.020736756   -2.6792938   0.83034554   439061 
 4395000   0.55396552   -2.6798379   -2.6798379   -1.8488916  0.018584767   -2.6798379   0.83094639   439061 
 4396000   0.55368694   -2.6790647   -2.6790647   -1.8485362  0.021394562   -2.6790647   0.83052852   439061 
 4397000   0.55335871   -2.6780087   -2.6780087   -1.8479725  0.023210107   -2.6780087   0.83003617   439061 
 4398000   0.55371356   -2.6784165   -2.6784165    -1.847848  0.023895822   -2.6784165   0.83056845   439061 
 4399000   0.55500128    -2.680357    -2.680357   -1.8478569  0.021856853    -2.680357   0.83250002   439061 
 4400000    0.5533752   -2.6791311   -2.6791311   -1.8490702  0.023672925   -2.6791311    0.8300609   439061 
 4401000   0.55495691   -2.6809028   -2.6809028   -1.8484694  0.021442595   -2.6809028   0.83243347   439061 
 4402000   0.55426684   -2.6793422   -2.6793422   -1.8479439  0.028351525   -2.6793422   0.83139836   439061 
 4403000   0.55501499   -2.6812713   -2.6812713   -1.8487507  0.023237833   -2.6812713   0.83252058   439061 
 4404000     0.555752   -2.6822409   -2.6822409   -1.8486148  0.020208909   -2.6822409    0.8336261   439061 
 4405000    0.5540184   -2.6800565   -2.6800565   -1.8490308  0.025742379   -2.6800565   0.83102571   439061 
 4406000   0.55466698   -2.6807789   -2.6807789   -1.8487804  0.025244908   -2.6807789   0.83199858   439061 
 4407000   0.55515561    -2.681215    -2.681215   -1.8484834   0.02141094    -2.681215   0.83273151   439061 
 4408000   0.55409239   -2.6792481   -2.6792481   -1.8481114  0.020336299   -2.6792481    0.8311367   439061 
 4409000   0.55457522   -2.6795672   -2.6795672   -1.8477063  0.023152724   -2.6795672   0.83186094   439061 
 4410000    0.5541072    -2.678935    -2.678935    -1.847776  0.022044127    -2.678935   0.83115891   439061 
 4411000   0.55425118   -2.6794953   -2.6794953   -1.8481204  0.019714453   -2.6794953   0.83137488   439061 
 4412000   0.55353431   -2.6790739   -2.6790739   -1.8487743  0.021127509   -2.6790739   0.83029957   439061 
 4413000   0.55320104   -2.6784116   -2.6784116   -1.8486119  0.015587276   -2.6784116   0.82979967   439061 
 4414000   0.55310795    -2.677619    -2.677619    -1.847959  0.018433548    -2.677619   0.82966003   439061 
 4415000   0.55345441   -2.6785015   -2.6785015   -1.8483218  0.025263007   -2.6785015   0.83017972   439061 
 4416000   0.55418933   -2.6795347   -2.6795347   -1.8482526  0.016302481   -2.6795347    0.8312821   439061 
 4417000   0.55337138   -2.6779092   -2.6779092    -1.847854   0.01986292   -2.6779092   0.83005518   439061 
 4418000   0.55453096   -2.6795375   -2.6795375   -1.8477429  0.019290162   -2.6795375   0.83179454   439061 
 4419000   0.55482947    -2.679307    -2.679307   -1.8470646   0.02099973    -2.679307   0.83224231   439061 
 4420000   0.55561082   -2.6798589   -2.6798589   -1.8464446  0.021563651   -2.6798589   0.83341433   439061 
 4421000   0.55459719   -2.6782183   -2.6782183   -1.8463244  0.023359791   -2.6782183   0.83189389   439061 
 4422000   0.55464326   -2.6784217   -2.6784217   -1.8464587  0.025303066   -2.6784217     0.831963   439061 
 4423000    0.5539172   -2.6784312   -2.6784312   -1.8475573  0.024175997   -2.6784312    0.8308739   439061 
 4424000   0.55434166   -2.6784215   -2.6784215   -1.8469109  0.023611567   -2.6784215    0.8315106   439061 
 4425000   0.55442662   -2.6792187   -2.6792187   -1.8475807  0.022209368   -2.6792187   0.83163804   439061 
 4426000   0.55341778   -2.6780919   -2.6780919   -1.8479672  0.023956335   -2.6780919   0.83012478   439061 
 4427000   0.55256927   -2.6785876   -2.6785876   -1.8497356  0.023244857   -2.6785876   0.82885202   439061 
 4428000   0.55426204   -2.6813215   -2.6813215   -1.8499304  0.020770562   -2.6813215   0.83139117   439061 
 4429000   0.55354992    -2.680071    -2.680071    -1.849748  0.019949778    -2.680071   0.83032299   439061 
 4430000    0.5536734   -2.6809498   -2.6809498   -1.8504416  0.016130397   -2.6809498   0.83050821   439061 
 4431000   0.55317455   -2.6794214   -2.6794214   -1.8496614  0.019503075   -2.6794214   0.82975994   439061 
 4432000   0.55350381   -2.6799539   -2.6799539   -1.8497001  0.016674548   -2.6799539   0.83025382   439061 
 4433000   0.55333991   -2.6797458   -2.6797458   -1.8497379  0.019280371   -2.6797458   0.83000797   439061 
 4434000   0.55368066   -2.6807189   -2.6807189   -1.8501998  0.022887887   -2.6807189    0.8305191   439061 
 4435000   0.55434166   -2.6812864   -2.6812864   -1.8497758  0.023538294   -2.6812864    0.8315106   439061 
 4436000   0.55455254   -2.6811104   -2.6811104   -1.8492835  0.023675699   -2.6811104   0.83182692   439061 
 4437000   0.55432264   -2.6804483   -2.6804483   -1.8489662  0.027766275   -2.6804483   0.83148206   439061 
 4438000   0.55505607   -2.6809661   -2.6809661   -1.8483838  0.024099209   -2.6809661   0.83258221   439061 
 4439000     0.555043   -2.6810265   -2.6810265   -1.8484639  0.024081967   -2.6810265    0.8325626   439061 
 4440000   0.55506912   -2.6815408   -2.6815408   -1.8489391  0.024922047   -2.6815408   0.83260178   439061 
 4441000    0.5553055   -2.6809733   -2.6809733    -1.848017  0.024573166   -2.6809733   0.83295635   439061 
 4442000   0.55507231   -2.6807373   -2.6807373   -1.8481307  0.023757835   -2.6807373   0.83260657   439061 
 4443000   0.55447063   -2.6798882   -2.6798882   -1.8481841  0.024367044   -2.6798882   0.83170405   439061 
 4444000   0.55382755   -2.6794573   -2.6794573   -1.8487179  0.024165487   -2.6794573   0.83073944   439061 
 4445000   0.55472603   -2.6807741   -2.6807741    -1.848687  0.020123372   -2.6807741   0.83208714   439061 
 4446000   0.55395042   -2.6787191   -2.6787191   -1.8477953  0.021871411   -2.6787191   0.83092373   439061 
 4447000   0.55419039   -2.6789582   -2.6789582   -1.8476745  0.017415431   -2.6789582   0.83128369   439061 
 4448000   0.55379258   -2.6787549   -2.6787549   -1.8480679  0.021498463   -2.6787549   0.83068698   439061 
 4449000   0.55416478   -2.6796312   -2.6796312   -1.8483859  0.020295422   -2.6796312   0.83124528   439061 
 4450000   0.55269015    -2.677657    -2.677657   -1.8486236  0.017847351    -2.677657   0.82903333   439061 
 4451000   0.55314068   -2.6780937   -2.6780937   -1.8483846  0.018725392   -2.6780937   0.82970913   439061 
 4452000   0.55317167   -2.6777407   -2.6777407   -1.8479851  0.016502692   -2.6777407   0.82975562   439061 
 4453000   0.55358614   -2.6785129   -2.6785129   -1.8481356  0.016654631   -2.6785129   0.83037732   439061 
 4454000   0.55317385   -2.6780739   -2.6780739    -1.848315  0.019715077   -2.6780739   0.82975888   439061 
 4455000   0.55391652   -2.6793334   -2.6793334   -1.8484605  0.021859657   -2.6793334   0.83087289   439061 
 4456000   0.55417448   -2.6799465   -2.6799465   -1.8486867  0.023695067   -2.6799465   0.83125983   439061 
 4457000   0.55454443   -2.6806503   -2.6806503   -1.8488355  0.020090126   -2.6806503   0.83181475   439061 
 4458000   0.55395338   -2.6798168   -2.6798168   -1.8488887  0.022981624   -2.6798168   0.83092818   439061 
 4459000   0.55422521   -2.6806852   -2.6806852   -1.8493493  0.023398429   -2.6806852   0.83133592   439061 
 4460000   0.55460088   -2.6809651   -2.6809651   -1.8490657  0.022399231   -2.6809651   0.83189943   439061 
 4461000   0.55514345   -2.6822809   -2.6822809   -1.8495676  0.023750011   -2.6822809   0.83271328   439061 
 4462000    0.5544435   -2.6813022   -2.6813022   -1.8496389  0.023392678   -2.6813022   0.83166335   439061 
 4463000   0.55465059   -2.6812713   -2.6812713   -1.8492973  0.025471634   -2.6812713   0.83197399   439061 
 4464000   0.55490711   -2.6819149   -2.6819149   -1.8495561  0.023824938   -2.6819149   0.83235877   439061 
 4465000    0.5551039   -2.6832382   -2.6832382   -1.8505843  0.023444565   -2.6832382   0.83265396   439061 
 4466000   0.55408457   -2.6817441   -2.6817441   -1.8506192  0.023309153   -2.6817441   0.83112496   439061 
 4467000   0.55414719   -2.6820956   -2.6820956   -1.8508767  0.021556447   -2.6820956   0.83121889   439061 
 4468000   0.55425955   -2.6824006   -2.6824006   -1.8510132  0.021503825   -2.6824006   0.83138743   439061 
 4469000   0.55415564   -2.6812155   -2.6812155    -1.849984  0.025210051   -2.6812155   0.83123156   439061 
 4470000   0.55414666   -2.6815321   -2.6815321    -1.850314  0.021971674   -2.6815321    0.8312181   439061 
 4471000   0.55488057    -2.682137    -2.682137   -1.8498181  0.023759275    -2.682137   0.83231896   439061 
 4472000   0.55460615   -2.6818632   -2.6818632   -1.8499558  0.021819482   -2.6818632   0.83190733   439061 
 4473000   0.55446691    -2.682127    -2.682127   -1.8504286   0.02275081    -2.682127   0.83169847   439061 
 4474000   0.55482374   -2.6820574   -2.6820574   -1.8498237  0.022760876   -2.6820574   0.83223372   439061 
 4475000    0.5535451   -2.6806161   -2.6806161   -1.8503003  0.022578366   -2.6806161   0.83031576   439061 
 4476000   0.55525328   -2.6824266   -2.6824266   -1.8495486  0.024321679   -2.6824266   0.83287802   439061 
 4477000   0.55378787    -2.680395    -2.680395    -1.849715  0.024996929    -2.680395   0.83067991   439061 
 4478000   0.55399036   -2.6809662   -2.6809662   -1.8499825  0.022488263   -2.6809662   0.83098365   439061 
 4479000   0.55409428   -2.6813407   -2.6813407   -1.8502011  0.019214874   -2.6813407   0.83113952   439061 
 4480000   0.55394051   -2.6808971   -2.6808971   -1.8499882  0.021947969   -2.6808971   0.83090887   439061 
 4481000   0.55352937   -2.6803243   -2.6803243   -1.8500321  0.018149182   -2.6803243   0.83029217   439061 
 4482000    0.5532902   -2.6804878   -2.6804878   -1.8505544   0.01907666   -2.6804878   0.82993341   439061 
 4483000   0.55211607   -2.6791683   -2.6791683   -1.8509961  0.018560488   -2.6791683   0.82817221   439061 
 4484000   0.55271174   -2.6795507   -2.6795507    -1.850485  0.020844137   -2.6795507   0.82906573   439061 
 4485000   0.55404952    -2.681254    -2.681254   -1.8501816  0.017230863    -2.681254   0.83107239   439061 
 4486000   0.55440002   -2.6815363   -2.6815363   -1.8499381  0.017471599   -2.6815363   0.83159814   439061 
 4487000   0.55370592   -2.6804272   -2.6804272   -1.8498702  0.021634273   -2.6804272   0.83055699   439061 
 4488000   0.55426031   -2.6811983   -2.6811983   -1.8498098  0.021551965   -2.6811983   0.83138856   439061 
 4489000   0.55391699   -2.6809846   -2.6809846   -1.8501111  0.020634061   -2.6809846   0.83087359   439061 
 4490000    0.5544598   -2.6819488   -2.6819488    -1.850261  0.019953715   -2.6819488    0.8316878   439061 
 4491000   0.55462734    -2.681523    -2.681523   -1.8495839  0.022122013    -2.681523   0.83193912   439061 
 4492000   0.55378391   -2.6809022   -2.6809022   -1.8502282  0.022139952   -2.6809022   0.83067397   439061 
 4493000    0.5543407   -2.6816502   -2.6816502    -1.850141  0.026116086   -2.6816502   0.83150916   439061 
 4494000   0.55404222   -2.6810661   -2.6810661   -1.8500047   0.02657548   -2.6810661   0.83106144   439061 
 4495000   0.55374035   -2.6812395   -2.6812395   -1.8506309  0.021885299   -2.6812395   0.83060863   439061 
 4496000   0.55412622   -2.6807109   -2.6807109   -1.8495234   0.02469243   -2.6807109   0.83118743   439061 
 4497000   0.55377602    -2.679478    -2.679478   -1.8488159  0.026112659    -2.679478   0.83066214   439061 
 4498000   0.55502139   -2.6818191   -2.6818191   -1.8492889  0.024976711   -2.6818191   0.83253019   439061 
 4499000   0.55439923   -2.6816251   -2.6816251   -1.8500281  0.022525255   -2.6816251   0.83159695   439061 
 4500000   0.55373266   -2.6812259   -2.6812259   -1.8506288  0.020139373   -2.6812259    0.8305971   439061 
 4501000   0.55415416   -2.6804575   -2.6804575   -1.8492282  0.022481594   -2.6804575   0.83122934   439061 
 4502000   0.55429864   -2.6810522   -2.6810522   -1.8496062  0.021671724   -2.6810522   0.83144606   439061 
 4503000   0.55466044   -2.6816433   -2.6816433   -1.8496545  0.016046349   -2.6816433   0.83198876   439061 
 4504000   0.55401822   -2.6805768   -2.6805768   -1.8495514  0.018653474   -2.6805768   0.83102544   439061 
 4505000   0.55377327   -2.6803022   -2.6803022   -1.8496442  0.024094375   -2.6803022   0.83065801   439061 
 4506000   0.55381184   -2.6802896   -2.6802896   -1.8495738  0.020138251   -2.6802896   0.83071587   439061 
 4507000   0.55418529   -2.6798878   -2.6798878   -1.8486117  0.020099258   -2.6798878   0.83127605   439061 
 4508000   0.55481689   -2.6802285   -2.6802285   -1.8480051  0.022940548   -2.6802285   0.83222343   439061 
 4509000   0.55402826   -2.6786908   -2.6786908   -1.8476503  0.022759489   -2.6786908    0.8310405   439061 
 4510000   0.55430698   -2.6799982   -2.6799982   -1.8485397   0.01886583   -2.6799982   0.83145858   439061 
 4511000   0.55306394   -2.6780973   -2.6780973   -1.8485033   0.02280682   -2.6780973   0.82959402   439061 
 4512000   0.55367996   -2.6791949   -2.6791949   -1.8486768  0.020924069   -2.6791949   0.83051804   439061 
 4513000   0.55412285   -2.6798192   -2.6798192   -1.8486368  0.019002421   -2.6798192   0.83118238   439061 
 4514000   0.55433416   -2.6797665   -2.6797665   -1.8482671  0.019141677   -2.6797665   0.83149934   439061 
 4515000    0.5537549   -2.6786643   -2.6786643   -1.8480339  0.018859679   -2.6786643   0.83063046   439061 
 4516000    0.5537716   -2.6783729   -2.6783729   -1.8477174  0.021547817   -2.6783729   0.83065551   439061 
 4517000   0.55437849   -2.6792543   -2.6792543   -1.8476885  0.020569157   -2.6792543   0.83156584   439061 
 4518000   0.55408497   -2.6791802   -2.6791802   -1.8480546  0.023779305   -2.6791802   0.83112557   439061 
 4519000   0.55346973   -2.6784945   -2.6784945   -1.8482918  0.021503513   -2.6784945   0.83020271   439061 
 4520000   0.55383125   -2.6791495   -2.6791495   -1.8484045  0.020763831   -2.6791495   0.83074498   439061 
 4521000    0.5531952   -2.6788386   -2.6788386   -1.8490477  0.017671286   -2.6788386    0.8297909   439061 
 4522000   0.55301183   -2.6788346   -2.6788346   -1.8493187  0.020846255   -2.6788346   0.82951586   439061 
 4523000    0.5533263   -2.6788603   -2.6788603   -1.8488728  0.023549521   -2.6788603   0.82998755   439061 
 4524000   0.55310175   -2.6801493   -2.6801493   -1.8504985    0.0194935   -2.6801493   0.82965073   439061 
 4525000   0.55367559   -2.6800958   -2.6800958   -1.8495843  0.018357048   -2.6800958    0.8305115   439061 
 4526000   0.55349391   -2.6792437   -2.6792437   -1.8490047  0.024522707   -2.6792437   0.83023897   439061 
 4527000   0.55405261   -2.6811327   -2.6811327   -1.8500557  0.020289307   -2.6811327   0.83107702   439061 
 4528000   0.55351811   -2.6807912   -2.6807912   -1.8505159  0.018433915   -2.6807912   0.83027527   439061 
 4529000   0.55444104   -2.6831583   -2.6831583   -1.8514986  0.015083664   -2.6831583   0.83165967   439061 
 4530000   0.55368902   -2.6810898   -2.6810898   -1.8505581  0.021642345   -2.6810898   0.83053164   439061 
 4531000   0.55378142   -2.6821566   -2.6821566   -1.8514864  0.020924698   -2.6821566   0.83067024   439061 
 4532000   0.55354297   -2.6815488   -2.6815488   -1.8512362  0.020519336   -2.6815488   0.83031257   439061 
 4533000   0.55316822   -2.6812565   -2.6812565    -1.851506  0.021359335   -2.6812565   0.82975044   439061 
 4534000   0.55347376   -2.6822091   -2.6822091   -1.8520004  0.024474677   -2.6822091   0.83020875   439061 
 4535000   0.55404523   -2.6824721   -2.6824721   -1.8514061  0.021796874   -2.6824721   0.83106596   439061 
 4536000   0.55416915   -2.6833013   -2.6833013   -1.8520495  0.021853672   -2.6833013   0.83125183   439061 
 4537000   0.55394997   -2.6833943   -2.6833943   -1.8524712  0.021155129   -2.6833943   0.83092306   439061 
 4538000   0.55400392   -2.6841017   -2.6841017   -1.8530978  0.022423535   -2.6841017   0.83100399   439061 
 4539000   0.55288075   -2.6821334   -2.6821334   -1.8528141  0.023188545   -2.6821334   0.82931924   439061 
 4540000   0.55462045   -2.6846651   -2.6846651   -1.8527363  0.020500796   -2.6846651   0.83192878   439061 
 4541000   0.55402165   -2.6831849   -2.6831849   -1.8521543  0.028499589   -2.6831849   0.83103058   439061 
 4542000    0.5551131   -2.6846836   -2.6846836   -1.8520158  0.022672297   -2.6846836   0.83266776   439061 
 4543000   0.55488562   -2.6838673   -2.6838673   -1.8515408  0.024231079   -2.6838673   0.83232654   439061 
 4544000   0.55484707   -2.6839724   -2.6839724   -1.8517037  0.025043805   -2.6839724   0.83226871   439061 
 4545000   0.55460263   -2.6841531   -2.6841531    -1.852251  0.022146238   -2.6841531   0.83190205   439061 
 4546000   0.55503748    -2.685175    -2.685175   -1.8526207  0.019988352    -2.685175   0.83255432   439061 
 4547000   0.55385885   -2.6830823   -2.6830823   -1.8522959  0.024185317   -2.6830823   0.83078638   439061 
 4548000   0.55329874    -2.682205    -2.682205   -1.8522588  0.024035721    -2.682205   0.82994622   439061 
 4549000   0.55369599   -2.6829702   -2.6829702   -1.8524281    0.0216054   -2.6829702   0.83054209   439061 
 4550000   0.55304685   -2.6815427   -2.6815427   -1.8519743  0.023152262   -2.6815427   0.82956839   439061 
 4551000   0.55316763   -2.6820179   -2.6820179   -1.8522683  0.018746964   -2.6820179   0.82974956   439061 
 4552000   0.55397319   -2.6821403   -2.6821403   -1.8511824  0.019523113   -2.6821403   0.83095789   439061 
 4553000   0.55381327   -2.6818591   -2.6818591   -1.8511411  0.019299999   -2.6818591   0.83071801   439061 
 4554000   0.55282429   -2.6806717   -2.6806717   -1.8514371  0.024029129   -2.6806717   0.82923455   439061 
 4555000   0.55281308   -2.6801933   -2.6801933   -1.8509755  0.024000081   -2.6801933   0.82921773   439061 
 4556000   0.55326992   -2.6804357   -2.6804357   -1.8505327  0.023993801   -2.6804357   0.82990298   439061 
 4557000   0.55291663   -2.6803011   -2.6803011   -1.8509281  0.019889179   -2.6803011   0.82937306   439061 
 4558000   0.55381122   -2.6812789   -2.6812789    -1.850564  0.018206719   -2.6812789   0.83071494   439061 
 4559000   0.55274622   -2.6794981   -2.6794981   -1.8503806  0.023519222   -2.6794981   0.82911745   439061 
 4560000   0.55398126   -2.6810189   -2.6810189   -1.8500489  0.016502695   -2.6810189      0.83097   439061 
 4561000   0.55316501   -2.6807544   -2.6807544   -1.8510088  0.022306574   -2.6807544   0.82974563   439061 
 4562000   0.55351719   -2.6814166   -2.6814166   -1.8511427  0.019550468   -2.6814166    0.8302739   439061 
 4563000   0.55275402   -2.6799995   -2.6799995   -1.8508704  0.018760488   -2.6799995   0.82912914   439061 
 4564000   0.55390666   -2.6816885   -2.6816885   -1.8508304  0.019854065   -2.6816885    0.8308581   439061 
 4565000   0.55402289    -2.682026    -2.682026   -1.8509936   0.01934771    -2.682026   0.83103244   439061 
 4566000   0.55391892   -2.6823399   -2.6823399   -1.8514634  0.020239132   -2.6823399   0.83087649   439061 
 4567000   0.55374292   -2.6834351   -2.6834351   -1.8528227  0.017422569   -2.6834351   0.83061249   439061 
 4568000   0.55350192   -2.6832622   -2.6832622   -1.8530112  0.018992832   -2.6832622   0.83025099   439061 
 4569000   0.55397181   -2.6827856   -2.6827856   -1.8518298  0.023598027   -2.6827856   0.83095582   439061 
 4570000   0.55391672   -2.6831423   -2.6831423   -1.8522691  0.027503195   -2.6831423   0.83087319   439061 
 4571000   0.55411319   -2.6838047   -2.6838047   -1.8526368  0.023849064   -2.6838047   0.83116788   439061 
 4572000    0.5547141    -2.684337    -2.684337   -1.8522678  0.024768032    -2.684337   0.83206926   439061 
 4573000   0.55448411    -2.684992    -2.684992   -1.8532678  0.021856614    -2.684992   0.83172427   439061 
 4574000   0.55451008   -2.6854948   -2.6854948   -1.8537316   0.02816541   -2.6854948   0.83176323   439061 
 4575000   0.55434597    -2.685604    -2.685604   -1.8540869  0.025419166    -2.685604   0.83151706   439061 
 4576000    0.5542802   -2.6858134   -2.6858134    -1.854395  0.023038534   -2.6858134   0.83141841   439061 
 4577000   0.55442591   -2.6845662   -2.6845662   -1.8529292  0.023773984   -2.6845662   0.83163697   439061 
 4578000   0.55385372   -2.6848526   -2.6848526   -1.8540739  0.025462488   -2.6848526   0.83077869   439061 
 4579000   0.55353516   -2.6843877   -2.6843877   -1.8540868  0.023374095   -2.6843877   0.83030085   439061 
 4580000   0.55361763   -2.6850276   -2.6850276   -1.8546031  0.021900946   -2.6850276   0.83042456   439061 
 4581000   0.55347047   -2.6856782   -2.6856782   -1.8554744  0.019182995   -2.6856782   0.83020381   439061 
 4582000   0.55310395   -2.6843772   -2.6843772   -1.8547232  0.025386338   -2.6843772   0.82965404   439061 
 4583000   0.55344082   -2.6855833   -2.6855833   -1.8554239  0.019933758   -2.6855833   0.83015934   439061 
 4584000   0.55361072   -2.6844148   -2.6844148   -1.8540006  0.022574905   -2.6844148   0.83041419   439061 
 4585000   0.55275506   -2.6831367   -2.6831367    -1.854006  0.020177489   -2.6831367   0.82913071   439061 
 4586000    0.5521121   -2.6824051   -2.6824051   -1.8542388  0.022363739   -2.6824051   0.82816627   439061 
 4587000   0.55169342   -2.6824968   -2.6824968   -1.8549585  0.018750465   -2.6824968   0.82753825   439061 
 4588000   0.55213475   -2.6832715   -2.6832715   -1.8550712  0.019280399   -2.6832715   0.82820025   439061 
 4589000   0.55175545   -2.6825644   -2.6825644   -1.8549331  0.022425421   -2.6825644   0.82763129   439061 
 4590000   0.55351524   -2.6841376   -2.6841376   -1.8538666  0.019888177   -2.6841376   0.83027097   439061 
 4591000   0.55372852   -2.6843563   -2.6843563   -1.8537654  0.020219394   -2.6843563    0.8305909   439061 
 4592000    0.5547301   -2.6853352   -2.6853352    -1.853242  0.019115011   -2.6853352   0.83209325   439061 
 4593000   0.55353162   -2.6831398   -2.6831398   -1.8528443  0.024428737   -2.6831398   0.83029554   439061 
 4594000   0.55393133   -2.6842064   -2.6842064   -1.8533113  0.023092291   -2.6842064    0.8308951   439061 
 4595000   0.55452278     -2.68401     -2.68401   -1.8522278  0.028989954     -2.68401   0.83178228   439061 
 4596000   0.55533617   -2.6854336   -2.6854336   -1.8524313  0.025075163   -2.6854336   0.83300236   439061 
 4597000   0.55506845   -2.6844286   -2.6844286   -1.8518278  0.021351469   -2.6844286   0.83260078   439061 
 4598000   0.55409203   -2.6828636   -2.6828636   -1.8517275  0.027155313   -2.6828636   0.83113616   439061 
 4599000   0.55475661   -2.6833825   -2.6833825   -1.8512495  0.024787283   -2.6833825   0.83213301   439061 
 4600000   0.55360395   -2.6825393   -2.6825393   -1.8521353  0.023879961   -2.6825393   0.83040403   439061 
 4601000   0.55400917   -2.6823969   -2.6823969    -1.851385  0.027340594   -2.6823969   0.83101186   439061 
 4602000   0.55462223   -2.6823309   -2.6823309   -1.8503995  0.020532959   -2.6823309   0.83193144   439061 
 4603000   0.55325695    -2.681393    -2.681393   -1.8515095  0.022014186    -2.681393   0.82988353   439061 
 4604000   0.55329265   -2.6816908   -2.6816908   -1.8517538  0.018012419   -2.6816908   0.82993709   439061 
 4605000   0.55237976   -2.6792614   -2.6792614   -1.8506936  0.022759986   -2.6792614   0.82856776   439061 
 4606000   0.55367579   -2.6805743   -2.6805743   -1.8500626  0.018512522   -2.6805743   0.83051179   439061 
 4607000   0.55252769   -2.6796534   -2.6796534   -1.8508637   0.02275939   -2.6796534   0.82878964   439061 
 4608000   0.55384125   -2.6806519   -2.6806519    -1.849892   0.01742737   -2.6806519   0.83075998   439061 
 4609000   0.55332596   -2.6803037   -2.6803037   -1.8503166  0.020726717   -2.6803037   0.82998705   439061 
 4610000    0.5533238   -2.6804736   -2.6804736   -1.8504898  0.013808994   -2.6804736   0.82998381   439061 
 4611000   0.55243454   -2.6787629   -2.6787629   -1.8501129   0.01898948   -2.6787629   0.82864993   439061 
 4612000   0.55300575   -2.6800732   -2.6800732   -1.8505664  0.020025904   -2.6800732   0.82950673   439061 
 4613000    0.5543472   -2.6815703   -2.6815703   -1.8500514  0.022245612   -2.6815703   0.83151891   439061 
 4614000   0.55383274   -2.6811003   -2.6811003   -1.8503531  0.023217972   -2.6811003   0.83074721   439061 
 4615000   0.55374493   -2.6815402   -2.6815402   -1.8509247  0.019044198   -2.6815402   0.83061551   439061 
 4616000   0.55332462     -2.68119     -2.68119   -1.8512049   0.02335786     -2.68119   0.82998504   439061 
 4617000    0.5538761    -2.682393    -2.682393   -1.8515808  0.022126539    -2.682393   0.83081225   439061 
 4618000   0.55370265   -2.6832472   -2.6832472   -1.8526951  0.020125808   -2.6832472   0.83055209   439061 
 4619000   0.55457108   -2.6843665   -2.6843665   -1.8525118   0.02483378   -2.6843665   0.83185472   439061 
 4620000   0.55426117   -2.6834083   -2.6834083   -1.8520184  0.026374799   -2.6834083   0.83138986   439061 
 4621000   0.55438879   -2.6836427   -2.6836427   -1.8520614  0.024500009   -2.6836427   0.83158129   439061 
 4622000   0.55463221   -2.6840676   -2.6840676   -1.8521212  0.022696412   -2.6840676   0.83194641   439061 
 4623000   0.55425128   -2.6840424   -2.6840424   -1.8526674  0.023479711   -2.6840424   0.83137503   439061 
 4624000    0.5536637   -2.6834246   -2.6834246   -1.8529309  0.025783952   -2.6834246   0.83049366   439061 
 4625000   0.55465286   -2.6849339   -2.6849339   -1.8529565  0.021321635   -2.6849339   0.83197739   439061 
 4626000   0.55341151   -2.6839316   -2.6839316   -1.8538163  0.023986024   -2.6839316   0.83011537   439061 
 4627000   0.55398721   -2.6852058   -2.6852058   -1.8542269  0.024526188   -2.6852058   0.83097892   439061 
 4628000   0.55359001   -2.6849172   -2.6849172   -1.8545341  0.020883575   -2.6849172   0.83038312   439061 
 4629000   0.55307576    -2.683459    -2.683459   -1.8538472  0.022411785    -2.683459   0.82961174   439061 
 4630000   0.55257258   -2.6826621   -2.6826621   -1.8538051  0.023899518   -2.6826621   0.82885698   439061 
 4631000   0.55311142   -2.6833259   -2.6833259   -1.8536607  0.021457235   -2.6833259   0.82966524   439061 
 4632000   0.55437689   -2.6845012   -2.6845012   -1.8529378  0.019635929   -2.6845012   0.83156344   439061 
 4633000   0.55331835   -2.6837101   -2.6837101   -1.8537345   0.02033711   -2.6837101   0.82997563   439061 
 4634000   0.55459772    -2.684918    -2.684918   -1.8530233  0.023341616    -2.684918   0.83189469   439061 
 4635000   0.55348192   -2.6843697   -2.6843697   -1.8541487  0.019961817   -2.6843697   0.83022099   439061 
 4636000   0.55275674   -2.6834527   -2.6834527   -1.8543195  0.021132742   -2.6834527   0.82913322   439061 
 4637000   0.55305938   -2.6831678   -2.6831678   -1.8535806  0.024226259   -2.6831678   0.82958719   439061 
 4638000   0.55340218   -2.6844158   -2.6844158   -1.8543144  0.019328949   -2.6844158   0.83010138   439061 
 4639000   0.55375488   -2.6835639   -2.6835639   -1.8529335  0.022090083   -2.6835639   0.83063043   439061 
 4640000   0.55412146    -2.684257    -2.684257   -1.8530767  0.022282564    -2.684257    0.8311803   439061 
 4641000   0.55237984   -2.6825857   -2.6825857   -1.8540178  0.023423622   -2.6825857   0.82856787   439061 
 4642000   0.55360757   -2.6835376   -2.6835376   -1.8531281  0.020001681   -2.6835376   0.83040946   439061 
 4643000   0.55350086     -2.68373     -2.68373   -1.8534806  0.020305274     -2.68373    0.8302494   439061 
 4644000   0.55413025   -2.6846032   -2.6846032   -1.8534098  0.022704813   -2.6846032   0.83119348   439061 
 4645000   0.55339571   -2.6837608   -2.6837608   -1.8536691  0.021683204   -2.6837608   0.83009167   439061 
 4646000   0.55300845   -2.6837422   -2.6837422   -1.8542314  0.020286823   -2.6837422   0.82951078   439061 
 4647000   0.55348149   -2.6847531   -2.6847531   -1.8545328  0.019673907   -2.6847531   0.83022034   439061 
 4648000   0.55256925    -2.683657    -2.683657    -1.854805  0.021849009    -2.683657   0.82885198   439061 
 4649000   0.55228854   -2.6831416   -2.6831416   -1.8547107  0.022082296   -2.6831416   0.82843093   439061 
 4650000   0.55336088    -2.684304    -2.684304   -1.8542646  0.020067649    -2.684304   0.83003943   439061 
 4651000    0.5525744   -2.6832925   -2.6832925   -1.8544328  0.023401713   -2.6832925   0.82885971   439061 
 4652000   0.55321205   -2.6839562   -2.6839562     -1.85414  0.018478926   -2.6839562   0.82981619   439061 
 4653000   0.55253876   -2.6832863   -2.6832863     -1.85448  0.021724936   -2.6832863   0.82880625   439061 
 4654000   0.55327875   -2.6845385   -2.6845385   -1.8546223  0.024295348   -2.6845385   0.82991624   439061 
 4655000   0.55441374   -2.6852814   -2.6852814   -1.8536627  0.023399752   -2.6852814   0.83161872   439061 
 4656000   0.55346458   -2.6846269   -2.6846269   -1.8544319  0.022109801   -2.6846269   0.83019498   439061 
 4657000   0.55401356   -2.6854311   -2.6854311   -1.8544127  0.021594648   -2.6854311   0.83101844   439061 
 4658000   0.55419291   -2.6853449   -2.6853449   -1.8540575  0.025726674   -2.6853449   0.83128747   439061 
 4659000    0.5539344   -2.6850297   -2.6850297     -1.85413  0.022352524   -2.6850297   0.83089971   439061 
 4660000   0.55415449   -2.6853066   -2.6853066   -1.8540767  0.021188311   -2.6853066   0.83122985   439061 
 4661000   0.55317176   -2.6842549   -2.6842549   -1.8544992  0.018464287   -2.6842549   0.82975575   439061 
 4662000   0.55276851   -2.6842615   -2.6842615   -1.8551106  0.024683813   -2.6842615   0.82915087   439061 
 4663000   0.55339964   -2.6859228   -2.6859228   -1.8558253  0.019350532   -2.6859228   0.83009757   439061 
 4664000   0.55254563   -2.6848944   -2.6848944   -1.8560778  0.018599125   -2.6848944   0.82881656   439061 
 4665000   0.55330932   -2.6856643   -2.6856643   -1.8557022  0.022321546   -2.6856643    0.8299621   439061 
 4666000   0.55356329   -2.6854202   -2.6854202   -1.8550771  0.022215071   -2.6854202   0.83034305   439061 
 4667000   0.55370696   -2.6848907   -2.6848907   -1.8543322  0.024108879   -2.6848907   0.83055855   439061 
 4668000   0.55381791   -2.6839617   -2.6839617   -1.8532368  0.021420963   -2.6839617   0.83072497   439061 
 4669000   0.55351034   -2.6832098   -2.6832098   -1.8529461  0.022141123   -2.6832098   0.83026362   439061 
 4670000   0.55405485   -2.6849816   -2.6849816   -1.8539012  0.018250095   -2.6849816   0.83108038   439061 
 4671000    0.5536148   -2.6833097   -2.6833097   -1.8528893   0.02475255   -2.6833097   0.83042031   439061 
 4672000   0.55379827   -2.6837019   -2.6837019   -1.8530064  0.022030579   -2.6837019   0.83069552   439061 
 4673000   0.55332539   -2.6825517   -2.6825517   -1.8525655  0.020218045   -2.6825517    0.8299862   439061 
 4674000   0.55359786   -2.6834259   -2.6834259    -1.853031  0.019812626   -2.6834259   0.83039491   439061 
 4675000   0.55354882   -2.6836644   -2.6836644   -1.8533431  0.019420733   -2.6836644   0.83032134   439061 
 4676000   0.55341446   -2.6824575   -2.6824575   -1.8523377  0.020249149   -2.6824575    0.8301198   439061 
 4677000   0.55315959   -2.6828698   -2.6828698   -1.8531323  0.019145673   -2.6828698   0.82973749   439061 
 4678000   0.55282521   -2.6828446   -2.6828446   -1.8536087  0.023735971   -2.6828446   0.82923592   439061 
 4679000    0.5528999   -2.6828713   -2.6828713   -1.8535233  0.019244432   -2.6828713   0.82934795   439061 
 4680000    0.5524717   -2.6832419   -2.6832419   -1.8545362  0.018234674   -2.6832419   0.82870567   439061 
 4681000   0.55265175   -2.6835327   -2.6835327    -1.854557  0.017188927   -2.6835327   0.82897573   439061 
 4682000   0.55344208   -2.6830675   -2.6830675   -1.8529063  0.019442993   -2.6830675   0.83016123   439061 
 4683000   0.55238886   -2.6824353   -2.6824353   -1.8538539    0.0204104   -2.6824353    0.8285814   439061 
 4684000   0.55244433   -2.6819786   -2.6819786    -1.853314   0.02106949   -2.6819786   0.82866461   439061 
 4685000   0.55328972   -2.6835458   -2.6835458   -1.8536131  0.022201974   -2.6835458   0.82993269   439061 
 4686000   0.55361835   -2.6836284   -2.6836284   -1.8532028  0.017707264   -2.6836284   0.83042563   439061 
 4687000   0.55372439   -2.6842865   -2.6842865   -1.8537018  0.018476553   -2.6842865   0.83058469   439061 
 4688000   0.55329186   -2.6832219   -2.6832219    -1.853286  0.024591687   -2.6832219    0.8299359   439061 
 4689000   0.55366056   -2.6842484   -2.6842484   -1.8537595  0.022203479   -2.6842484   0.83048894   439061 
 4690000   0.55353048    -2.684413    -2.684413   -1.8541192  0.021462242    -2.684413   0.83029383   439061 
 4691000   0.55377714   -2.6843179   -2.6843179   -1.8536541  0.028218285   -2.6843179   0.83066382   439061 
 4692000   0.55410758   -2.6858123   -2.6858123   -1.8546528   0.02218977   -2.6858123   0.83115948   439061 
 4693000   0.55396738   -2.6857099   -2.6857099   -1.8547607  0.023731103   -2.6857099   0.83094917   439061 
 4694000   0.55287244   -2.6844535   -2.6844535   -1.8551468  0.024608823   -2.6844535   0.82930677   439061 
 4695000   0.55444697   -2.6869249   -2.6869249   -1.8552563  0.020150734   -2.6869249   0.83166855   439061 
 4696000   0.55219971   -2.6836641   -2.6836641   -1.8553664   0.02224899   -2.6836641   0.82829768   439061 
 4697000   0.55345986   -2.6856899   -2.6856899    -1.855502  0.020425943   -2.6856899   0.83018789   439061 
 4698000   0.55373036   -2.6854094   -2.6854094   -1.8548157  0.021539127   -2.6854094   0.83059365   439061 
 4699000   0.55350824   -2.6851671   -2.6851671   -1.8549066  0.021575522   -2.6851671   0.83026047   439061 
 4700000   0.55314059   -2.6843734   -2.6843734   -1.8546644  0.024446783   -2.6843734   0.82970899   439061 
 4701000   0.55338022   -2.6851193   -2.6851193   -1.8550508  0.019331678   -2.6851193   0.83006843   439061 
 4702000   0.55380732   -2.6851188   -2.6851188   -1.8544097  0.020553688   -2.6851188   0.83070908   439061 
 4703000   0.55357092   -2.6845727   -2.6845727   -1.8542182  0.022235903   -2.6845727   0.83035449   439061 
 4704000   0.55240451   -2.6844409   -2.6844409   -1.8558361  0.022947808   -2.6844409   0.82860488   439061 
 4705000   0.55260341   -2.6846753   -2.6846753   -1.8557721  0.017785958   -2.6846753   0.82890322   439061 
 4706000   0.55309559   -2.6850307   -2.6850307   -1.8553892  0.018670856   -2.6850307   0.82964149   439061 
 4707000   0.55282791   -2.6842905   -2.6842905   -1.8550505  0.017701325   -2.6842905   0.82923998   439061 
 4708000    0.5527276   -2.6827523   -2.6827523   -1.8536628  0.021071969   -2.6827523   0.82908952   439061 
 4709000   0.55365009   -2.6846092   -2.6846092    -1.854136  0.023218012   -2.6846092   0.83047325   439061 
 4710000   0.55327353   -2.6840202   -2.6840202   -1.8541118  0.022899424   -2.6840202    0.8299084   439061 
 4711000   0.55337153   -2.6841853   -2.6841853   -1.8541299  0.022799402   -2.6841853    0.8300554   439061 
 4712000   0.55360689    -2.684623    -2.684623   -1.8542145  0.023963256    -2.684623   0.83040845   439061 
 4713000   0.55389154   -2.6853503   -2.6853503   -1.8545149  0.021406117   -2.6853503   0.83083541   439061 
 4714000   0.55431822   -2.6853393   -2.6853393   -1.8538638  0.019291371   -2.6853393   0.83147544   439061 
 4715000    0.5536964   -2.6850126   -2.6850126   -1.8544699  0.020859202   -2.6850126    0.8305427   439061 
 4716000   0.55346828   -2.6843681   -2.6843681   -1.8541676  0.022008124   -2.6843681   0.83020054   439061 
 4717000   0.55378517   -2.6851943   -2.6851943   -1.8545184   0.02143572   -2.6851943   0.83067586   439061 
 4718000   0.55436124   -2.6855188   -2.6855188   -1.8539789  0.023135364   -2.6855188   0.83153996   439061 
 4719000   0.55304313   -2.6837277   -2.6837277   -1.8541649  0.021906787   -2.6837277   0.82956281   439061 
 4720000   0.55340692   -2.6847104   -2.6847104   -1.8546019   0.01851946   -2.6847104   0.83010849   439061 
 4721000   0.55323087     -2.68432     -2.68432   -1.8544755  0.022082091     -2.68432   0.82984442   439061 
 4722000   0.55288635   -2.6845774   -2.6845774   -1.8552497  0.021857141   -2.6845774   0.82932764   439061 
 4723000   0.55266944   -2.6850895   -2.6850895   -1.8560872  0.020754769   -2.6850895   0.82900227   439061 
 4724000   0.55203637   -2.6840907   -2.6840907   -1.8560381  0.017650027   -2.6840907   0.82805267   439061 
 4725000    0.5521415   -2.6842232   -2.6842232   -1.8560128  0.019039617   -2.6842232   0.82821036   439061 
 4726000   0.55239821   -2.6837834   -2.6837834   -1.8551879  0.017827103   -2.6837834   0.82859543   439061 
 4727000   0.55320058   -2.6856453   -2.6856453   -1.8558463  0.018078988   -2.6856453   0.82979898   439061 
 4728000   0.55254785   -2.6848657   -2.6848657   -1.8560458   0.02026334   -2.6848657   0.82881988   439061 
 4729000    0.5534393    -2.685403    -2.685403   -1.8552459  0.018666129    -2.685403   0.83015706   439061 
 4730000   0.55407676   -2.6865606   -2.6865606   -1.8554473  0.016641413   -2.6865606   0.83111324   439061 
 4731000   0.55321208   -2.6859891   -2.6859891   -1.8561729  0.021394291   -2.6859891   0.82981623   439061 
 4732000   0.55411423   -2.6872923   -2.6872923   -1.8561228   0.01922014   -2.6872923   0.83116946   439061 
 4733000    0.5532379   -2.6858268   -2.6858268   -1.8559718  0.022855721   -2.6858268   0.82985495   439061 
 4734000   0.55413722   -2.6868262   -2.6868262   -1.8556222  0.023493257   -2.6868262   0.83120394   439061 
 4735000   0.55417382   -2.6866973   -2.6866973   -1.8554384  0.023196332   -2.6866973   0.83125883   439061 
 4736000   0.55350375    -2.685849    -2.685849   -1.8555952  0.026400561    -2.685849   0.83025373   439061 
 4737000     0.553924   -2.6869094   -2.6869094   -1.8560253  0.026082722   -2.6869094    0.8308841   439061 
 4738000    0.5545585   -2.6880991   -2.6880991   -1.8562632  0.026510139   -2.6880991   0.83183586   439061 
 4739000   0.55343014   -2.6864065   -2.6864065   -1.8562632  0.025566886   -2.6864065   0.83014331   439061 
 4740000   0.55356686   -2.6863299   -2.6863299   -1.8559815  0.023149263   -2.6863299    0.8303484   439061 
 4741000   0.55361785   -2.6869612   -2.6869612   -1.8565363  0.020846526   -2.6869612   0.83042488   439061 
 4742000   0.55259058   -2.6861227   -2.6861227   -1.8572388  0.017162063   -2.6861227   0.82888398   439061 
 4743000   0.55279434   -2.6855633   -2.6855633   -1.8563737  0.019339896   -2.6855633   0.82918963   439061 
 4744000   0.55196939   -2.6847579   -2.6847579   -1.8568057  0.020047877   -2.6847579   0.82795221   439061 
 4745000   0.55296272   -2.6857826   -2.6857826   -1.8563404  0.019594593   -2.6857826    0.8294422   439061 
 4746000   0.55279018   -2.6849205   -2.6849205   -1.8557372  0.020990611   -2.6849205   0.82918339   439061 
 4747000    0.5536418   -2.6855747   -2.6855747   -1.8551138  0.019940558   -2.6855747   0.83046081   439061 
 4748000   0.55267938   -2.6842286   -2.6842286   -1.8552114  0.025867572   -2.6842286   0.82901718   439061 
 4749000   0.55252974   -2.6850089   -2.6850089   -1.8562162  0.023686269   -2.6850089   0.82879272   439061 
 4750000   0.55346091   -2.6852577   -2.6852577   -1.8550682  0.022405472   -2.6852577   0.83018948   439061 
 4751000     0.553308   -2.6843734   -2.6843734   -1.8544133  0.023876361   -2.6843734    0.8299601   439061 
 4752000    0.5536005   -2.6854268   -2.6854268    -1.855028  0.020140923   -2.6854268   0.83039885   439061 
 4753000   0.55345162   -2.6854897   -2.6854897   -1.8553141  0.020724328   -2.6854897   0.83017553   439061 
 4754000   0.55210549   -2.6843636   -2.6843636   -1.8562072  0.020568581   -2.6843636   0.82815635   439061 
 4755000   0.55300162   -2.6857701   -2.6857701   -1.8562695  0.021601446   -2.6857701   0.82950054   439061 
 4756000   0.55215944   -2.6838611   -2.6838611   -1.8556238   0.02263667   -2.6838611   0.82823728   439061 
 4757000   0.55311413   -2.6856247   -2.6856247   -1.8559554  0.017948661   -2.6856247   0.82966931   439061 
 4758000   0.55243238    -2.685274    -2.685274   -1.8566274  0.023282742    -2.685274   0.82864669   439061 
 4759000   0.55328552   -2.6864479   -2.6864479   -1.8565215  0.020201306   -2.6864479   0.82992639   439061 
 4760000   0.55324778   -2.6857506   -2.6857506   -1.8558808  0.019429904   -2.6857506   0.82986979   439061 
 4761000   0.55275835   -2.6856578   -2.6856578   -1.8565221  0.023271841   -2.6856578   0.82913563   439061 
 4762000   0.55366302   -2.6866075   -2.6866075   -1.8561149  0.024659564   -2.6866075   0.83049264   439061 
 4763000   0.55298416   -2.6862667   -2.6862667   -1.8567923  0.023125314   -2.6862667   0.82947435   439061 
 4764000   0.55383486   -2.6866803   -2.6866803   -1.8559299    0.0203726   -2.6866803    0.8307504   439061 
 4765000   0.55379156    -2.687102    -2.687102   -1.8564166  0.024171839    -2.687102   0.83068544   439061 
 4766000   0.55230556   -2.6851945   -2.6851945   -1.8567381  0.025687061   -2.6851945   0.82845645   439061 
 4767000   0.55390371   -2.6864025   -2.6864025   -1.8555488  0.021331082   -2.6864025   0.83085367   439061 
 4768000   0.55393042   -2.6872648   -2.6872648   -1.8563711  0.018961393   -2.6872648   0.83089374   439061 
 4769000   0.55330854   -2.6864289   -2.6864289    -1.856468  0.017228634   -2.6864289   0.82996092   439061 
 4770000   0.55264689   -2.6853957   -2.6853957   -1.8564273   0.02128705   -2.6853957   0.82896845   439061 
 4771000   0.55279859   -2.6857089   -2.6857089   -1.8565129  0.016773972   -2.6857089     0.829196   439061 
 4772000   0.55344437    -2.686117    -2.686117   -1.8559524  0.018273774    -2.686117   0.83016467   439061 
 4773000   0.55241575   -2.6841126   -2.6841126   -1.8554908  0.024381962   -2.6841126   0.82862174   439061 
 4774000   0.55357902   -2.6861647   -2.6861647   -1.8557981  0.020836607   -2.6861647   0.83036664   439061 
 4775000   0.55240913   -2.6853284   -2.6853284   -1.8567166   0.02170742   -2.6853284    0.8286118   439061 
 4776000   0.55271422    -2.685666    -2.685666   -1.8565966   0.02307871    -2.685666   0.82906944   439061 
 4777000   0.55247352   -2.6858014   -2.6858014    -1.857093   0.02029546   -2.6858014   0.82870839   439061 
 4778000   0.55146716   -2.6841221   -2.6841221   -1.8569233  0.022771518   -2.6841221   0.82719886   439061 
 4779000   0.55204976   -2.6843671   -2.6843671   -1.8562944   0.01967207   -2.6843671   0.82807276   439061 
 4780000    0.5531647   -2.6861529   -2.6861529   -1.8564077  0.019278027   -2.6861529   0.82974516   439061 
 4781000   0.55291824   -2.6855192   -2.6855192   -1.8561437  0.019369255   -2.6855192   0.82937546   439061 
 4782000   0.55348168   -2.6866777   -2.6866777   -1.8564571   0.01869581   -2.6866777   0.83022063   439061 
 4783000   0.55327691   -2.6855177   -2.6855177   -1.8556043  0.023360989   -2.6855177   0.82991347   439061 
 4784000   0.55303484   -2.6850032   -2.6850032   -1.8554528   0.02393005   -2.6850032   0.82955037   439061 
 4785000   0.55437307   -2.6870555   -2.6870555   -1.8554978   0.02301651   -2.6870555   0.83155771   439061 
 4786000   0.55308602   -2.6843729   -2.6843729   -1.8547457  0.025100235   -2.6843729   0.82962715   439061 
 4787000   0.55334438   -2.6856051   -2.6856051   -1.8555904  0.020355833   -2.6856051   0.83001469   439061 
 4788000   0.55379136   -2.6861846   -2.6861846   -1.8554995  0.020364954   -2.6861846   0.83068514   439061 
 4789000   0.55351118   -2.6857388   -2.6857388   -1.8554739  0.021574039   -2.6857388   0.83026488   439061 
 4790000   0.55391279   -2.6869869   -2.6869869   -1.8561196  0.021296856   -2.6869869   0.83086729   439061 
 4791000   0.55350123    -2.686507    -2.686507    -1.856257  0.019059166    -2.686507   0.83024996   439061 
 4792000   0.55293776   -2.6851048   -2.6851048   -1.8557001  0.023272933   -2.6851048   0.82940476   439061 
 4793000   0.55317521   -2.6859861   -2.6859861   -1.8562251  0.020181909   -2.6859861   0.82976093   439061 
 4794000   0.55392271   -2.6865729   -2.6865729   -1.8556907   0.01907455   -2.6865729   0.83088218   439061 
 4795000   0.55265476   -2.6850551   -2.6850551   -1.8560749  0.020104659   -2.6850551   0.82898025   439061 
 4796000   0.55317623   -2.6856876   -2.6856876   -1.8559252  0.019117792   -2.6856876   0.82976245   439061 
 4797000   0.55390381   -2.6857256   -2.6857256   -1.8548717  0.020641752   -2.6857256   0.83085383   439061 
 4798000   0.55347044    -2.685486    -2.685486   -1.8552822  0.021583323    -2.685486   0.83020378   439061 
 4799000   0.55355718   -2.6865594   -2.6865594   -1.8562256  0.022191743   -2.6865594   0.83033388   439061 
 4800000   0.55397996   -2.6873542   -2.6873542   -1.8563862  0.019749202   -2.6873542   0.83096805   439061 
 4801000   0.55401144   -2.6869329   -2.6869329   -1.8559176  0.018902393   -2.6869329   0.83101526   439061 
 4802000   0.55364367   -2.6863431   -2.6863431   -1.8558795  0.024450275   -2.6863431   0.83046361   439061 
 4803000   0.55281421    -2.686455    -2.686455   -1.8572355  0.021023014    -2.686455   0.82921943   439061 
 4804000   0.55270973   -2.6862664   -2.6862664   -1.8572037  0.020389508   -2.6862664   0.82906271   439061 
 4805000   0.55355004   -2.6872592   -2.6872592    -1.856936  0.018474443   -2.6872592   0.83032317   439061 
 4806000   0.55315385   -2.6868948   -2.6868948   -1.8571659  0.018267291   -2.6868948   0.82972889   439061 
 4807000   0.55342365   -2.6868894   -2.6868894   -1.8567558  0.022930029   -2.6868894   0.83013359   439061 
 4808000   0.55355499   -2.6875401   -2.6875401   -1.8572095  0.027815097   -2.6875401    0.8303306   439061 
 4809000   0.55398823   -2.6879167   -2.6879167   -1.8569362  0.020108624   -2.6879167   0.83098046   439061 
 4810000   0.55379201   -2.6874457   -2.6874457   -1.8567596  0.021686707   -2.6874457   0.83068612   439061 
 4811000   0.55336615   -2.6879661   -2.6879661   -1.8579187  0.021595855   -2.6879661   0.83004734   439061 
 4812000   0.55350892   -2.6875223   -2.6875223   -1.8572608   0.02254706   -2.6875223   0.83026149   439061 
 4813000   0.55314984   -2.6878738   -2.6878738   -1.8581509   0.02133633   -2.6878738   0.82972287   439061 
 4814000   0.55351061   -2.6880381   -2.6880381   -1.8577741  0.017667209   -2.6880381   0.83026403   439061 
 4815000   0.55296839   -2.6876125   -2.6876125   -1.8581618  0.022193452   -2.6876125    0.8294507   439061 
 4816000   0.55276164   -2.6871445   -2.6871445   -1.8580039  0.021844173   -2.6871445   0.82914057   439061 
 4817000   0.55375559   -2.6886342   -2.6886342   -1.8580027  0.021701974   -2.6886342   0.83063149   439061 
 4818000   0.55370622   -2.6879562   -2.6879562   -1.8573988  0.025111671   -2.6879562   0.83055744   439061 
 4819000   0.55418418   -2.6880438   -2.6880438   -1.8567694  0.021709519   -2.6880438   0.83127437   439061 
 4820000   0.55332056   -2.6879425   -2.6879425   -1.8579636  0.020066384   -2.6879425   0.82997894   439061 
 4821000   0.55350503   -2.6879376   -2.6879376   -1.8576819   0.02118024   -2.6879376   0.83025566   439061 
 4822000   0.55271635   -2.6873513   -2.6873513   -1.8582787   0.02178241   -2.6873513   0.82907264   439061 
 4823000   0.55226399   -2.6865784   -2.6865784   -1.8581843  0.017899964   -2.6865784   0.82839409   439061 
 4824000   0.55257566   -2.6867286   -2.6867286    -1.857867  0.020360928   -2.6867286    0.8288616   439061 
 4825000   0.55288606   -2.6870915   -2.6870915   -1.8577643  0.023754809   -2.6870915    0.8293272   439061 
 4826000   0.55270842   -2.6867616   -2.6867616   -1.8577009   0.02355705   -2.6867616   0.82906074   439061 
 4827000   0.55314026   -2.6867948   -2.6867948   -1.8570863  0.023626532   -2.6867948   0.82970849   439061 
 4828000   0.55406559   -2.6883839   -2.6883839   -1.8572874  0.021908876   -2.6883839   0.83109649   439061 
 4829000   0.55353646   -2.6873985   -2.6873985   -1.8570957  0.022045721   -2.6873985    0.8303028   439061 
 4830000   0.55335537   -2.6875353   -2.6875353   -1.8575041   0.02171616   -2.6875353   0.83003117   439061 
 4831000   0.55301048   -2.6863628   -2.6863628    -1.856849  0.021148673   -2.6863628   0.82951382   439061 
 4832000   0.55278813   -2.6870194   -2.6870194   -1.8578391   0.01769724   -2.6870194   0.82918031   439061 
 4833000   0.55289971   -2.6873004   -2.6873004   -1.8579528  0.016474027   -2.6873004   0.82934768   439061 
 4834000   0.55272998   -2.6866053   -2.6866053   -1.8575122  0.020780095   -2.6866053   0.82909308   439061 
 4835000   0.55286139   -2.6863163   -2.6863163   -1.8570261  0.022463564   -2.6863163    0.8292902   439061 
 4836000   0.55351822   -2.6872761   -2.6872761   -1.8570006  0.021709623   -2.6872761   0.83027544   439061 
 4837000    0.5528385    -2.685957    -2.685957   -1.8567011  0.027487808    -2.685957   0.82925586   439061 
 4838000   0.55314174    -2.686677    -2.686677   -1.8569663  0.025027124    -2.686677   0.82971071   439061 
 4839000   0.55385827   -2.6863894   -2.6863894   -1.8556039  0.023150523   -2.6863894   0.83078551   439061 
 4840000   0.55391764   -2.6864273   -2.6864273   -1.8555528  0.024194599   -2.6864273   0.83087457   439061 
 4841000   0.55415021   -2.6871166   -2.6871166   -1.8558932   0.02433088   -2.6871166   0.83122342   439061 
 4842000   0.55307131   -2.6858392   -2.6858392   -1.8562341  0.022062423   -2.6858392   0.82960507   439061 
 4843000   0.55368422   -2.6861085   -2.6861085   -1.8555841  0.022148675   -2.6861085   0.83052444   439061 
 4844000   0.55356695   -2.6868223   -2.6868223   -1.8564738  0.019913388   -2.6868223   0.83034854   439061 
 4845000   0.55256015   -2.6861871   -2.6861871   -1.8573488  0.019753809   -2.6861871   0.82883834   439061 
 4846000   0.55220825   -2.6863119   -2.6863119   -1.8580014  0.018846723   -2.6863119   0.82831048   439061 
 4847000   0.55149811   -2.6848799   -2.6848799   -1.8576346   0.01705051   -2.6848799   0.82724528   439061 
 4848000   0.55113954    -2.684217    -2.684217   -1.8575095  0.019943689    -2.684217   0.82670743   439061 
 4849000   0.55234778   -2.6870444   -2.6870444   -1.8585246  0.016134355   -2.6870444   0.82851978   439061 
 4850000   0.55202069   -2.6859948   -2.6859948   -1.8579656  0.017663769   -2.6859948   0.82802914   439061 
 4851000   0.55259643   -2.6877176   -2.6877176   -1.8588249  0.017591563   -2.6877176   0.82889276   439061 
 4852000   0.55283035   -2.6871021   -2.6871021   -1.8578585  0.019327851   -2.6871021   0.82924364   439061 
 4853000   0.55277479   -2.6875952   -2.6875952   -1.8584349  0.019905872   -2.6875952    0.8291603   439061 
 4854000   0.55285275   -2.6876057   -2.6876057   -1.8583285  0.019990541   -2.6876057   0.82927724   439061 
 4855000   0.55290521   -2.6874397   -2.6874397   -1.8580837  0.022733279   -2.6874397   0.82935592   439061 
 4856000   0.55354406   -2.6886488   -2.6886488   -1.8583346  0.023056233   -2.6886488    0.8303142   439061 
 4857000   0.55270043   -2.6877062   -2.6877062   -1.8586574  0.021790177   -2.6877062   0.82904876   439061 
 4858000   0.55282611   -2.6889509   -2.6889509   -1.8597136  0.022152248   -2.6889509   0.82923728   439061 
 4859000   0.55351828    -2.688996    -2.688996   -1.8587205  0.024098804    -2.688996   0.83027553   439061 
 4860000   0.55358869   -2.6898157   -2.6898157   -1.8594346  0.024997055   -2.6898157   0.83038114   439061 
 4861000   0.55258538   -2.6887904   -2.6887904   -1.8599142  0.027788287   -2.6887904   0.82887619   439061 
 4862000   0.55302582   -2.6883554   -2.6883554   -1.8588186  0.028156531   -2.6883554   0.82953684   439061 
 4863000   0.55422584   -2.6900865   -2.6900865   -1.8587496  0.025831564   -2.6900865   0.83133686   439061 
 4864000   0.55304211   -2.6884812   -2.6884812   -1.8589199  0.027944405   -2.6884812   0.82956127   439061 
 4865000   0.55345351   -2.6899606   -2.6899606   -1.8597823  0.024927162   -2.6899606   0.83017838   439061 
 4866000   0.55365092   -2.6900128   -2.6900128   -1.8595383  0.023536134   -2.6900128   0.83047449   439061 
 4867000   0.55220726   -2.6886644   -2.6886644   -1.8603554  0.021793292   -2.6886644   0.82830901   439061 
 4868000   0.55251904   -2.6886403   -2.6886403   -1.8598636  0.020649405   -2.6886403   0.82877667   439061 
 4869000   0.55204268   -2.6877115   -2.6877115   -1.8596494  0.020969905   -2.6877115   0.82806213   439061 
 4870000   0.55278009    -2.688677    -2.688677   -1.8595087  0.019329572    -2.688677   0.82916824   439061 
 4871000   0.55332199   -2.6886093   -2.6886093   -1.8586282  0.021648913   -2.6886093    0.8299811   439061 
 4872000   0.55234211   -2.6877984   -2.6877984   -1.8592871  0.020082601   -2.6877984   0.82851128   439061 
 4873000   0.55249132   -2.6873308   -2.6873308   -1.8585957  0.016624489   -2.6873308   0.82873509   439061 
 4874000   0.55174839   -2.6870546   -2.6870546   -1.8594339  0.016251166   -2.6870546    0.8276207   439061 
 4875000    0.5519464    -2.687852    -2.687852   -1.8599343  0.018946972    -2.687852   0.82791771   439061 
 4876000   0.55270927   -2.6876621   -2.6876621   -1.8586001  0.016090913   -2.6876621   0.82906201   439061 
 4877000   0.55255026   -2.6878674   -2.6878674   -1.8590439  0.018738335   -2.6878674    0.8288235   439061 
 4878000    0.5520861    -2.687614    -2.687614   -1.8594867  0.017558608    -2.687614   0.82812727   439061 
 4879000   0.55213519   -2.6873936   -2.6873936   -1.8591927  0.021919969   -2.6873936   0.82820089   439061 
 4880000   0.55214869    -2.688103    -2.688103   -1.8598819   0.02285541    -2.688103   0.82822115   439061 
 4881000   0.55255951   -2.6887135   -2.6887135   -1.8598761  0.023252234   -2.6887135   0.82883737   439061 
 4882000    0.5528882   -2.6892904   -2.6892904     -1.85996  0.025229785   -2.6892904   0.82933041   439061 
 4883000   0.55261188   -2.6898702   -2.6898702   -1.8609543  0.019092077   -2.6898702   0.82891593   439061 
 4884000   0.55269765   -2.6895537   -2.6895537   -1.8605091   0.02300084   -2.6895537   0.82904458   439061 
 4885000   0.55148413   -2.6888524   -2.6888524    -1.861628  0.021024685   -2.6888524   0.82722432   439061 
 4886000   0.55262715    -2.690317    -2.690317   -1.8613781  0.024170297    -2.690317   0.82893883   439061 
 4887000   0.55317726   -2.6911849   -2.6911849   -1.8614209  0.021514291   -2.6911849     0.829764   439061 
 4888000   0.55349314   -2.6917233   -2.6917233   -1.8614855  0.022080521   -2.6917233   0.83023782   439061 
 4889000   0.55303843   -2.6907486   -2.6907486   -1.8611928  0.023080731   -2.6907486   0.82955575   439061 
 4890000   0.55370282   -2.6908695   -2.6908695   -1.8603172  0.024163477   -2.6908695   0.83055234   439061 
 4891000   0.55226722   -2.6897541   -2.6897541   -1.8613551  0.028079387   -2.6897541   0.82839895   439061 
 4892000   0.55400059   -2.6917634   -2.6917634   -1.8607644    0.0250159   -2.6917634   0.83099899   439061 
 4893000   0.55297691   -2.6902867   -2.6902867   -1.8608232  0.025163453   -2.6902867   0.82946348   439061 
 4894000   0.55315208   -2.6907835   -2.6907835   -1.8610573  0.025385294   -2.6907835   0.82972623   439061 
 4895000   0.55255552   -2.6909562   -2.6909562   -1.8621248  0.019400893   -2.6909562   0.82883139   439061 
 4896000   0.55150769   -2.6898223   -2.6898223   -1.8625627  0.021666034   -2.6898223   0.82725965   439061 
 4897000   0.55210808   -2.6902368   -2.6902368   -1.8620765  0.019218717   -2.6902368   0.82816024   439061 
 4898000   0.55144927   -2.6894269   -2.6894269   -1.8622549  0.019441754   -2.6894269   0.82717201   439061 
 4899000   0.55189951   -2.6893411   -2.6893411   -1.8614937  0.019769371   -2.6893411   0.82784739   439061 
 4900000   0.55270074    -2.690734    -2.690734   -1.8616848  0.022105604    -2.690734   0.82904922   439061 
 4901000   0.55241265   -2.6899332   -2.6899332   -1.8613161  0.021737878   -2.6899332   0.82861708   439061 
 4902000   0.55232149   -2.6892896   -2.6892896   -1.8608092  0.021799737   -2.6892896   0.82848035   439061 
 4903000   0.55260186   -2.6893973   -2.6893973   -1.8604964  0.020676239   -2.6893973    0.8289009   439061 
 4904000   0.55246667   -2.6900084   -2.6900084   -1.8613103  0.017774802   -2.6900084   0.82869811   439061 
 4905000   0.55272316   -2.6910765   -2.6910765   -1.8619936  0.020436394   -2.6910765   0.82908285   439061 
 4906000    0.5533167    -2.691848    -2.691848   -1.8618748  0.022455065    -2.691848   0.82997316   439061 
 4907000    0.5524897   -2.6908199   -2.6908199   -1.8620872  0.019601197   -2.6908199   0.82873267   439061 
 4908000   0.55289193   -2.6913437   -2.6913437   -1.8620077  0.017768496   -2.6913437     0.829336   439061 
 4909000   0.55217169   -2.6909769   -2.6909769   -1.8627213  0.017360078   -2.6909769   0.82825565   439061 
 4910000   0.55306014   -2.6913852   -2.6913852   -1.8617969  0.021253566   -2.6913852   0.82958833   439061 
 4911000   0.55283937   -2.6913182   -2.6913182    -1.862061  0.024365556   -2.6913182   0.82925716   439061 
 4912000   0.55271943   -2.6909176   -2.6909176   -1.8618403  0.019203011   -2.6909176   0.82907725   439061 
 4913000   0.55227921   -2.6902369   -2.6902369     -1.86182  0.025268218   -2.6902369   0.82841693   439061 
 4914000   0.55299692   -2.6914397   -2.6914397   -1.8619462  0.019881797   -2.6914397    0.8294935   439061 
 4915000   0.55281462   -2.6914446   -2.6914446   -1.8622246  0.022448437   -2.6914446   0.82922004   439061 
 4916000   0.55285012   -2.6911095   -2.6911095   -1.8618362  0.020679832   -2.6911095   0.82927328   439061 
 4917000   0.55340866   -2.6919462   -2.6919462   -1.8618351  0.019032956   -2.6919462    0.8301111   439061 
 4918000   0.55261266    -2.690744    -2.690744   -1.8618269   0.02188023    -2.690744    0.8289171   439061 
 4919000    0.5526753   -2.6910921   -2.6910921   -1.8620811  0.021197777   -2.6910921   0.82901106   439061 
 4920000    0.5525984   -2.6912328   -2.6912328   -1.8623371  0.022685719   -2.6912328   0.82889572   439061 
 4921000   0.55211617   -2.6908701   -2.6908701   -1.8626978  0.024293114   -2.6908701   0.82817237   439061 
 4922000   0.55176117   -2.6908869   -2.6908869    -1.863247  0.023008976   -2.6908869   0.82763987   439061 
 4923000   0.55317036   -2.6920119   -2.6920119   -1.8622582  0.020702949   -2.6920119   0.82975365   439061 
 4924000   0.55275691     -2.69201     -2.69201   -1.8628765  0.022623118     -2.69201   0.82913348   439061 
 4925000   0.55240571   -2.6910881   -2.6910881   -1.8624814   0.02102242   -2.6910881   0.82860668   439061 
 4926000    0.5517166   -2.6907264   -2.6907264   -1.8631534  0.020993015   -2.6907264   0.82757301   439061 
 4927000   0.55143529   -2.6908949   -2.6908949   -1.8637438  0.023264094   -2.6908949   0.82715105   439061 
 4928000   0.55209971   -2.6916516   -2.6916516   -1.8635039  0.016621603   -2.6916516   0.82814768   439061 
 4929000   0.55214577   -2.6922708   -2.6922708   -1.8640541  0.016531071   -2.6922708   0.82821677   439061 
 4930000   0.55173595   -2.6914712   -2.6914712   -1.8638691   0.01834789   -2.6914712   0.82760205   439061 
 4931000     0.552071   -2.6922255   -2.6922255   -1.8641208  0.021799405   -2.6922255   0.82810462   439061 
 4932000   0.55287914   -2.6922781   -2.6922781   -1.8629612  0.022597391   -2.6922781   0.82931682   439061 
 4933000   0.55292609   -2.6918298   -2.6918298   -1.8624426  0.027271573   -2.6918298   0.82938725   439061 
 4934000   0.55248827   -2.6920902   -2.6920902   -1.8633596  0.024572523   -2.6920902   0.82873051   439061 
 4935000   0.55311272   -2.6926999   -2.6926999   -1.8630327  0.026900562   -2.6926999   0.82966719   439061 
 4936000   0.55321466   -2.6929852   -2.6929852   -1.8631651  0.021808177   -2.6929852    0.8298201   439061 
 4937000   0.55255169    -2.691823    -2.691823   -1.8629974  0.021561236    -2.691823   0.82882564   439061 
 4938000   0.55262184    -2.691828    -2.691828   -1.8628971  0.021718901    -2.691828   0.82893086   439061 
 4939000   0.55251752   -2.6917454   -2.6917454    -1.862971  0.024341733   -2.6917454    0.8287744   439061 
 4940000   0.55213133   -2.6919785   -2.6919785   -1.8637834  0.018977506   -2.6919785   0.82819511   439061 
 4941000    0.5530364   -2.6925144   -2.6925144   -1.8629617  0.019578182   -2.6925144   0.82955272   439061 
 4942000   0.55243855   -2.6922716   -2.6922716   -1.8636157  0.022864609   -2.6922716   0.82865594   439061 
 4943000   0.55301942   -2.6933468   -2.6933468   -1.8638196  0.020223647   -2.6933468   0.82952725   439061 
 4944000    0.5519221   -2.6914271   -2.6914271   -1.8635458  0.023613979   -2.6914271   0.82788126   439061 
 4945000   0.55161001     -2.69101     -2.69101   -1.8635968  0.022590087     -2.69101   0.82741313   439061 
 4946000    0.5524288   -2.6921584   -2.6921584   -1.8635171  0.018129998   -2.6921584   0.82864132   439061 
 4947000   0.55200414   -2.6927246   -2.6927246   -1.8647203  0.017290741   -2.6927246   0.82800432   439061 
 4948000   0.55193734   -2.6925303   -2.6925303   -1.8646262   0.01960667   -2.6925303   0.82790413   439061 
 4949000   0.55152688   -2.6907983   -2.6907983   -1.8635099  0.024759566   -2.6907983   0.82728843   439061 
 4950000   0.55306207   -2.6926769   -2.6926769   -1.8630856  0.022638527   -2.6926769   0.82959121   439061 
 4951000   0.55281861   -2.6922898   -2.6922898   -1.8630638  0.020249575   -2.6922898   0.82922603   439061 
 4952000   0.55322779   -2.6925991   -2.6925991   -1.8627593  0.021880199   -2.6925991    0.8298398   439061 
 4953000   0.55318215   -2.6918881   -2.6918881   -1.8621167  0.023023919   -2.6918881   0.82977134   439061 
 4954000    0.5530323   -2.6923774   -2.6923774   -1.8628309   0.02114797   -2.6923774   0.82954657   439061 
 4955000   0.55300607   -2.6926879   -2.6926879   -1.8631807  0.023101364   -2.6926879   0.82950721   439061 
 4956000   0.55245336   -2.6914756   -2.6914756   -1.8627975  0.023172869   -2.6914756   0.82867815   439061 
 4957000   0.55193683   -2.6910462   -2.6910462   -1.8631429   0.02072786   -2.6910462   0.82790335   439061 
 4958000   0.55205443   -2.6913641   -2.6913641   -1.8632844  0.022808494   -2.6913641   0.82807976   439061 
 4959000   0.55266088   -2.6925478   -2.6925478   -1.8635584  0.022348587   -2.6925478   0.82898944   439061 
 4960000   0.55238962   -2.6919377   -2.6919377   -1.8633552  0.019041894   -2.6919377   0.82858254   439061 
 4961000   0.55250507   -2.6913171   -2.6913171   -1.8625614  0.020370231   -2.6913171   0.82875572   439061 
 4962000    0.5522446   -2.6905824   -2.6905824   -1.8622174  0.023114628   -2.6905824   0.82836501   439061 
 4963000   0.55256187   -2.6909859   -2.6909859    -1.862145  0.023777794   -2.6909859   0.82884092   439061 
 4964000   0.55216237   -2.6898455   -2.6898455   -1.8616038  0.023215229   -2.6898455   0.82824167   439061 
 4965000   0.55225471   -2.6896086   -2.6896086   -1.8612284  0.025334356   -2.6896086   0.82838018   439061 
 4966000   0.55259289    -2.689595    -2.689595   -1.8607075  0.023981898    -2.689595   0.82888745   439061 
 4967000     0.553157   -2.6908137   -2.6908137   -1.8610801   0.02104665   -2.6908137   0.82973361   439061 
 4968000   0.55149356   -2.6891932   -2.6891932   -1.8619547   0.02322865   -2.6891932   0.82723846   439061 
 4969000   0.55177812   -2.6896933   -2.6896933    -1.862028  0.019535583   -2.6896933   0.82766529   439061 
 4970000   0.55247901   -2.6903695   -2.6903695   -1.8616529  0.018278013   -2.6903695   0.82871662   439061 
 4971000   0.55144694   -2.6894395   -2.6894395   -1.8622709  0.019984513   -2.6894395   0.82716853   439061 
 4972000   0.55292656   -2.6916965   -2.6916965   -1.8623085  0.018321607   -2.6916965   0.82938795   439061 
 4973000   0.55216709   -2.6896464   -2.6896464   -1.8613977  0.020607261   -2.6896464   0.82824874   439061 
 4974000   0.55212686   -2.6892857   -2.6892857   -1.8610973    0.0197237   -2.6892857    0.8281884   439061 
 4975000   0.55344694   -2.6915128   -2.6915128   -1.8613443  0.022991836   -2.6915128   0.83016851   439061 
 4976000   0.55203699   -2.6893028   -2.6893028   -1.8612493  0.023490236   -2.6893028    0.8280536   439061 
 4977000   0.55339136    -2.691461    -2.691461   -1.8613758  0.019672349    -2.691461   0.83008515   439061 
 4978000   0.55156411   -2.6887226   -2.6887226   -1.8613784  0.024535819   -2.6887226   0.82734429   439061 
 4979000   0.55206693   -2.6906322   -2.6906322   -1.8625337  0.019539531   -2.6906322   0.82809851   439061 
 4980000   0.55308215   -2.6907451   -2.6907451   -1.8611238  0.021658683   -2.6907451   0.82962134   439061 
 4981000   0.55253207   -2.6900928   -2.6900928   -1.8612966  0.020135898   -2.6900928   0.82879621   439061 
 4982000    0.5523989   -2.6898067   -2.6898067   -1.8612103  0.022683522   -2.6898067   0.82859646   439061 
 4983000   0.55242543   -2.6896092   -2.6896092   -1.8609729  0.025899138   -2.6896092   0.82863626   439061 
 4984000   0.55292312   -2.6912855   -2.6912855   -1.8619027  0.021489706   -2.6912855   0.82938279   439061 
 4985000   0.55245757   -2.6908519   -2.6908519   -1.8621675  0.021252398   -2.6908519   0.82868447   439061 
 4986000   0.55223838    -2.691489    -2.691489   -1.8631333  0.019965634    -2.691489   0.82835568   439061 
 4987000   0.55258909   -2.6916179   -2.6916179   -1.8627361  0.020601511   -2.6916179   0.82888175   439061 
 4988000   0.55095819   -2.6893317   -2.6893317   -1.8628963  0.017432861   -2.6893317   0.82643541   439061 
 4989000   0.55171439   -2.6903746   -2.6903746   -1.8628049  0.019132237   -2.6903746    0.8275697   439061 
 4990000   0.55160631   -2.6900509   -2.6900509   -1.8626434  0.022587446   -2.6900509   0.82740759   439061 
 4991000   0.55213701   -2.6916575   -2.6916575   -1.8634539  0.021035616   -2.6916575   0.82820363   439061 
 4992000   0.55248126   -2.6917703   -2.6917703   -1.8630503  0.022573584   -2.6917703      0.82872   439061 
 4993000   0.55217004   -2.6916186   -2.6916186   -1.8633654   0.01995661   -2.6916186   0.82825317   439061 
 4994000   0.55274137   -2.6927386   -2.6927386   -1.8636284  0.019869461   -2.6927386   0.82911017   439061 
 4995000   0.55286832   -2.6927884   -2.6927884   -1.8634878  0.022744149   -2.6927884   0.82930059   439061 
 4996000   0.55231754   -2.6921719   -2.6921719   -1.8636975  0.019563265   -2.6921719   0.82847442   439061 
 4997000   0.55249234   -2.6925777   -2.6925777   -1.8638411  0.019535707   -2.6925777   0.82873662   439061 
 4998000   0.55296868   -2.6929605   -2.6929605   -1.8635094   0.02016737   -2.6929605   0.82945112   439061 
 4999000   0.55253129   -2.6921701   -2.6921701   -1.8633751  0.019688587   -2.6921701   0.82879505   439061 
 5000000   0.55204834   -2.6914272   -2.6914272   -1.8633566  0.023720011   -2.6914272   0.82807063   439061 
Loop time of 6073.04 on 192 procs for 5000000 steps with 439061 atoms

Performance: 355670.363 tau/day, 823.311 timesteps/s
89.4% CPU use with 192 MPI tasks x 1 OpenMP threads

MPI task timing breakdown:
Section |  min time  |  avg time  |  max time  |%varavg|  %CPU | %total
-----------------------------------------------------------------------
Pair    | 1409.2     | 2587.3     | 3015.5     | 880.2 |  91.8 | 42.60
Bond    | 3.1341     | 3.2878     | 3.4706     |   4.4 | 100.0 |  0.05
Neigh   | 713.04     | 1062.3     | 1174.8     | 386.2 |  97.4 | 17.49
Comm    | 909.97     | 1750.8     | 3250       |1421.6 |  85.7 | 28.83
Output  | 276.85     | 277.24     | 277.25     |   0.2 |  67.1 |  4.57
Modify  | 131.49     | 230.49     | 643.86     |1113.5 |  89.1 |  3.80
Other   |            | 161.6      |            |       |       |  2.66

Nlocal:        2286.78 ave        2564 max        1999 min
Histogram: 1 2 3 4 65 107 3 4 2 1
Nghost:        2860.31 ave        3104 max        2152 min
Histogram: 5 31 11 1 0 0 0 0 14 130
Neighs:        43519.4 ave       47682 max       24264 min
Histogram: 3 6 8 6 1 0 0 0 73 95

Total # of neighbors = 8355725
Ave neighs/atom = 19.030898
Ave special neighs/atom = 0.0000000
Neighbor list builds = 488948
Dangerous builds = 356109
write_data	data.lj
System init for write_data ...


## Evaporation
#region          regevap block EDGE EDGE EDGE EDGE 140 EDGE units box
#fix             4 solvent evaporate ${evap} 1 regevap 156415

#run 		20000000
Total wall time: 1:41:17
