LAMMPS (29 Oct 2020)
  using 1 OpenMP thread(s) per MPI task
# Simple rigid body system
# needed variables: startTemp, temp

units		lj
atom_style	full
dimension 	3
boundary	p p f
pair_style	lj/cut/opt 2.5


variable 	sigma		equal 1.0
variable 	epsilon 	equal 1.0


region		box block 0 160 0 160 0 160
create_box 	3 box
Created orthogonal box = (0.0000000 0.0000000 0.0000000) to (160.00000 160.00000 160.00000)
  4 by 4 by 8 MPI processor grid
lattice 	sc 1.0
Lattice spacing in x,y,z = 1.0000000 1.0000000 1.0000000

create_atoms 	1 region box
Created 4096000 atoms
  create_atoms CPU = 0.090 seconds

mass		1 1.0
mass		2 1.0
mass		3 1.0


group		solvent type 1
4096000 atoms in group solvent


velocity 	solvent create ${startTemp} 563435 loop geom
velocity 	solvent create 0.5 563435 loop geom

read_data	data.vac add append
Reading data file ...
  orthogonal box = (0.0000000 0.0000000 0.0000000) to (160.00000 160.00000 320.00000)
  4 by 4 by 8 MPI processor grid
Finding 1-2 1-3 1-4 neighbors ...
  special bond factors lj:    0.0      0.0      0.0     
  special bond factors coul:  0.0      0.0      0.0     
     0 = max # of 1-2 neighbors
     0 = max # of 1-3 neighbors
     0 = max # of 1-4 neighbors
     1 = max # of special neighbors
  special bonds CPU = 1.760 seconds
  read_data CPU = 1.819 seconds

neighbor 	0.4 bin

pair_coeff	1 1 1.0 1.0
pair_coeff	2 2 0.0 0.0
pair_coeff	3 3 0.0 0.0
pair_coeff	2 3 0.0 0.0
pair_coeff	1 2*3 0.0 0.0

pair_modify 	shift yes


balance 	1.05 shift z 10 1.05
Balancing ...
Neighbor list info ...
  update every 1 steps, delay 10 steps, check yes
  max neighbors/atom: 2000, page size: 100000
  master list distance cutoff = 2.9
  ghost atom cutoff = 2.9
  binsize = 1.45, bins = 111 111 221
  1 neighbor lists, perpetual/occasional/extra = 1 0 0
  (1) pair lj/cut/opt, perpetual
      attributes: half, newton on
      pair build: half/bin/newton
      stencil: half/bin/3d/newton
      bin: standard
 rebalancing time: 0.071 seconds
  iteration count = 5
  initial/final maximal load/proc = 64000.000 40000.000
  initial/final imbalance factor  = 2.0000000 1.2500000
  x cuts: 0.0000000 0.25 0.5 0.75 1.0000000
  y cuts: 0.0000000 0.25 0.5 0.75 1.0000000
  z cuts: 0.0000000 0.0625 0.12890625 0.1875 0.2578125 0.30859375 0.38671875 0.4375 1.0000000


####################### WALLS ###########################


region	       low block  EDGE EDGE EDGE EDGE 0 2

region 	       top block  EDGE EDGE EDGE EDGE 159 160


delete_atoms   region low
WARNING: Ignoring 'compress yes' for molecular system (src/delete_atoms.cpp:125)
Deleted 76800 atoms, new total = 4019200

delete_atoms   region top
WARNING: Ignoring 'compress yes' for molecular system (src/delete_atoms.cpp:125)
Deleted 25600 atoms, new total = 3993600


variable       epsilonWall equal 2*${epsilon}
variable       epsilonWall equal 2*1

variable       cutoffTop   equal   0.7147*${sigma}
variable       cutoffTop   equal   0.7147*1

variable       cutoffLow   equal   3*${sigma}
variable       cutoffLow   equal   3*1


fix            topWall all wall/lj93 zhi EDGE                ${epsilonWall} ${sigma} ${cutoffTop} units box
fix            topWall all wall/lj93 zhi EDGE                2 ${sigma} ${cutoffTop} units box
fix            topWall all wall/lj93 zhi EDGE                2 1 ${cutoffTop} units box
fix            topWall all wall/lj93 zhi EDGE                2 1 0.7147 units box

fix            lowWall all wall/lj93 zlo EDGE                ${epsilonWall} ${sigma} ${cutoffLow} units box
fix            lowWall all wall/lj93 zlo EDGE                2 ${sigma} ${cutoffLow} units box
fix            lowWall all wall/lj93 zlo EDGE                2 1 ${cutoffLow} units box
fix            lowWall all wall/lj93 zlo EDGE                2 1 3 units box


###################### COMPUTES ##########################

compute        bin1 solvent chunk/atom bin/1d z upper 1.0



######################	FIXES ############################


fix 		peclet solvent ave/chunk 1000 1 1000 bin1 density/number norm 		 none ave one file density.profile

fix 		2 solvent nve

## Thermostat


region		regthermo block EDGE EDGE EDGE EDGE 0 20

group 		thermo dynamic solvent region regthermo every 1000
dynamic group thermo defined

fix 		3 thermo langevin ${startTemp} ${temp} 10 156453
fix 		3 thermo langevin 0.5 ${temp} 10 156453
fix 		3 thermo langevin 0.5 1.0 10 156453



#### Load balancing


fix 		bal all balance 1000 1.05 shift z 10 1.05


############### Diagnostics and computes ###################
#compute 	com cube	  rigid/local	1 mol x y z
#compute 	quat cube	  rigid/local	1 mol quatw quati quatj quatk

thermo 		1000
thermo_style 	custom step temp epair evdwl etotal press pe ke vol

dump		1 all custom 100000 dump.lammpstrj id mol type x y z
dump 		2 all image 10000 image.*.png type type
dump 		3 all movie 1000 movie.avi type type
#dump 		com cube local 1000 dump.*.xyz c_com[*]
#dump		quat cube      local 1000 dump.*.quat c_quat[*]


restart 	500000 restart.dat
timestep 	0.0025
timer 		full
New timer settings: style=full  mode=nosync  timeout=off


run		1000000
Setting up Verlet run ...
  Unit style    : lj
  Current step  : 0
  Time step     : 0.0025
Per MPI rank memory allocation (min/avg/max) = 31.86 | 38.71 | 41.48 Mbytes
Step Temp E_pair E_vdwl TotEng Press PotEng KinEng Volume 
       0   0.49997217   -3.3137429   -3.3137429   -2.5637849    8.4475947   -3.3137429   0.74995807      8192000 
    1000     1.421823   -4.7582231   -4.7582231   -2.6254892    4.8155792   -4.7582231     2.132734      8192000 
    2000    1.4171755   -4.8206614   -4.8206614   -2.6948986    4.0885927   -4.8206614    2.1257627      8192000 
    3000    1.4133121   -4.8813547   -4.8813547   -2.7613871    3.3783723   -4.8813547    2.1199676      8192000 
    4000    1.3806878    -4.891466    -4.891466   -2.8204348    2.8264109    -4.891466    2.0710312      8192000 
    5000     1.343976    -4.888835    -4.888835   -2.8728715    2.3525917    -4.888835    2.0159635      8192000 
    6000    1.3246452   -4.9044926   -4.9044926   -2.9175253    1.8426063   -4.9044926    1.9869673      8192000 
    7000    1.3168308   -4.9258539   -4.9258539   -2.9506081    1.3045985   -4.9258539    1.9752457      8192000 
    8000    1.3034942   -4.9262615   -4.9262615   -2.9710208   0.81582372   -4.9262615    1.9552408      8192000 
    9000    1.2766263   -4.8958987   -4.8958987   -2.9809597    0.4262142   -4.8958987     1.914939      8192000 
   10000    1.2400134   -4.8442884   -4.8442884   -2.9842689   0.13752714   -4.8442884    1.8600196      8192000 
   11000    1.2005455    -4.784117    -4.784117   -2.9832992 -0.063925528    -4.784117    1.8008178      8192000 
   12000    1.1634767   -4.7250826   -4.7250826    -2.979868  -0.18282444   -4.7250826    1.7452146      8192000 
   13000    1.1390755    -4.683433    -4.683433   -2.9748201  -0.21363333    -4.683433    1.7086129      8192000 
   14000     1.135552   -4.6729348   -4.6729348   -2.9696072  -0.15497384   -4.6729348    1.7033276      8192000 
   15000    1.1432013   -4.6796298   -4.6796298   -2.9648284 -0.067275237   -4.6796298    1.7148015      8192000 
   16000    1.1517121   -4.6894131   -4.6894131   -2.9618454  0.010046745   -4.6894131    1.7275677      8192000 
   17000    1.1584852   -4.6987845   -4.6987845   -2.9610572  0.066824874   -4.6987845    1.7377274      8192000 
   18000     1.161895   -4.7054191   -4.7054191    -2.962577   0.10044276   -4.7054191    1.7428421      8192000 
   19000    1.1635003   -4.7108236   -4.7108236   -2.9655736   0.11994075   -4.7108236      1.74525      8192000 
   20000    1.1630511   -4.7138831   -4.7138831   -2.9693069   0.13628386   -4.7138831    1.7445762      8192000 
   21000    1.1624384   -4.7167212   -4.7167212    -2.973064   0.14567701   -4.7167212    1.7436571      8192000 
   22000    1.1611404   -4.7179583   -4.7179583   -2.9762481    0.1445017   -4.7179583    1.7417102      8192000 
   23000    1.1606096   -4.7199202   -4.7199202   -2.9790062   0.14329236   -4.7199202     1.740914      8192000 
   24000    1.1609855   -4.7223937   -4.7223937   -2.9809159   0.14889932   -4.7223937    1.7414778      8192000 
   25000    1.1637903   -4.7282814   -4.7282814   -2.9825963   0.16448331   -4.7282814    1.7456851      8192000 
   26000     1.166705   -4.7340454   -4.7340454   -2.9839882   0.18456563   -4.7340454    1.7500571      8192000 
   27000    1.1691221   -4.7388052   -4.7388052   -2.9851225   0.20482474   -4.7388052    1.7536827      8192000 
   28000    1.1695601   -4.7409858   -4.7409858   -2.9866461   0.21378341   -4.7409858    1.7543398      8192000 
   29000    1.1683933   -4.7409561   -4.7409561   -2.9883666   0.21470479   -4.7409561    1.7525894      8192000 
   30000    1.1671094   -4.7406927   -4.7406927   -2.9900291   0.20737681   -4.7406927    1.7506636      8192000 
   31000    1.1650604   -4.7392838   -4.7392838   -2.9916936   0.19951031   -4.7392838    1.7475902      8192000 
   32000    1.1636467   -4.7384465   -4.7384465   -2.9929769   0.19517016   -4.7384465    1.7454696      8192000 
   33000     1.162391   -4.7379757   -4.7379757   -2.9943896   0.19118697   -4.7379757    1.7435861      8192000 
   34000    1.1616412   -4.7380404   -4.7380404   -2.9955791   0.19203743   -4.7380404    1.7424613      8192000 
   35000    1.1621214   -4.7398713   -4.7398713   -2.9966897   0.19403598   -4.7398713    1.7431817      8192000 
   36000     1.162469   -4.7414481   -4.7414481   -2.9977451   0.20100799   -4.7414481    1.7437031      8192000 
   37000    1.1634919   -4.7440031   -4.7440031   -2.9987658   0.20830218   -4.7440031    1.7452374      8192000 
   38000    1.1643523   -4.7462405   -4.7462405   -2.9997124    0.2157733   -4.7462405    1.7465281      8192000 
   39000    1.1645488   -4.7477084   -4.7477084   -3.0008857   0.22232623   -4.7477084    1.7468227      8192000 
   40000      1.16525   -4.7498121   -4.7498121   -3.0019374   0.22590493   -4.7498121    1.7478746      8192000 
   41000    1.1651016   -4.7507096   -4.7507096   -3.0030577   0.22978156   -4.7507096    1.7476519      8192000 
   42000    1.1647485   -4.7514577   -4.7514577   -3.0043353   0.23208952   -4.7514577    1.7471223      8192000 
   43000    1.1651891   -4.7532355   -4.7532355   -3.0054523   0.24033394   -4.7532355    1.7477833      8192000 
   44000    1.1678905    -4.759108    -4.759108   -3.0072727   0.41292021    -4.759108    1.7518353      8192000 
   45000    1.1686761   -4.7613075   -4.7613075   -3.0082938   0.75675002   -4.7613075    1.7530137      8192000 
   46000    1.1685856   -4.7620979   -4.7620979   -3.0092199     1.116041   -4.7620979    1.7528779      8192000 
   47000    1.1679793   -4.7622284   -4.7622284     -3.01026    1.4637562   -4.7622284    1.7519685      8192000 
   48000    1.1674573   -4.7625185   -4.7625185    -3.011333    1.8188388   -4.7625185    1.7511855      8192000 
   49000    1.1685505   -4.7650595   -4.7650595   -3.0122342    2.1772707   -4.7650595    1.7528253      8192000 
   50000    1.1707646   -4.7694135   -4.7694135    -3.013267    2.4702536   -4.7694135    1.7561465      8192000 
   51000    1.1750093   -4.7764749   -4.7764749   -3.0139614    2.3523727   -4.7764749    1.7625136      8192000 
   52000    1.1752313   -4.7775927   -4.7775927   -3.0147462    2.0882014   -4.7775927    1.7628465      8192000 
   53000    1.1738852   -4.7765116   -4.7765116   -3.0156842    1.8495022   -4.7765116    1.7608274      8192000 
   54000    1.1741623   -4.7775368   -4.7775368   -3.0162939    1.6106813   -4.7775368     1.761243      8192000 
   55000    1.1687439   -4.7698727   -4.7698727   -3.0167574    1.3392868   -4.7698727    1.7531153      8192000 
   56000     1.156899   -4.7527177   -4.7527177   -3.0173697    1.1071167   -4.7527177    1.7353481      8192000 
   57000    1.1380067   -4.7252827   -4.7252827   -3.0182731   0.91402344   -4.7252827    1.7070096      8192000 
   58000     1.115507   -4.6925826   -4.6925826   -3.0193226   0.74659072   -4.6925826    1.6732601      8192000 
   59000    1.0901453   -4.6554839   -4.6554839   -3.0202664   0.58418715   -4.6554839    1.6352175      8192000 
   60000    1.0618861   -4.6141752   -4.6141752   -3.0213465   0.44439592   -4.6141752    1.5928287      8192000 
   61000    1.0358096   -4.5761886   -4.5761886   -3.0224747   0.32347201   -4.5761886     1.553714      8192000 
   62000    1.0098867   -4.5382744   -4.5382744   -3.0234447   0.22197443   -4.5382744    1.5148297      8192000 
   63000   0.98449948    -4.501251    -4.501251   -3.0245021   0.13404632    -4.501251    1.4767489      8192000 
   64000   0.95964098   -4.4651267   -4.4651267   -3.0256656  0.059680665   -4.4651267    1.4394611      8192000 
   65000   0.93820219   -4.4339228   -4.4339228   -3.0266199  0.010154499   -4.4339228    1.4073029      8192000 
   66000   0.92121381   -4.4096046   -4.4096046   -3.0277843 -0.027933252   -4.4096046    1.3818204      8192000 
   67000   0.90746652   -4.3898023   -4.3898023   -3.0286028 -0.051139991   -4.3898023    1.3611994      8192000 
   68000   0.89852449   -4.3776701   -4.3776701   -3.0298837 -0.060374686   -4.3776701    1.3477864      8192000 
   69000   0.89263442   -4.3701367   -4.3701367   -3.0311854 -0.063017446   -4.3701367    1.3389513      8192000 
   70000   0.88946638   -4.3663988   -4.3663988   -3.0321996 -0.052756722   -4.3663988    1.3341992      8192000 
   71000    0.8893463   -4.3674899   -4.3674899   -3.0334707 -0.034546962   -4.3674899    1.3340191      8192000 
   72000   0.89104434   -4.3713172   -4.3713172    -3.034751 -0.013988301   -4.3713172    1.3365662      8192000 
   73000   0.89375541   -4.3767567   -4.3767567   -3.0361239  0.013068549   -4.3767567    1.3406328      8192000 
   74000   0.89695997   -4.3830356   -4.3830356    -3.037596  0.033862227   -4.3830356    1.3454396      8192000 
   75000   0.90004349   -4.3891075   -4.3891075   -3.0390426  0.056147517   -4.3891075    1.3500649      8192000 
   76000    0.9025726   -4.3945398   -4.3945398   -3.0406813  0.076719251   -4.3945398    1.3538586      8192000 
   77000   0.90431951    -4.398725    -4.398725    -3.042246  0.091417414    -4.398725    1.3564789      8192000 
   78000   0.90508892   -4.4014734   -4.4014734   -3.0438404   0.10641814   -4.4014734     1.357633      8192000 
   79000   0.90627362   -4.4049455   -4.4049455   -3.0455354   0.11534633   -4.4049455    1.3594101      8192000 
   80000   0.90637769   -4.4067172   -4.4067172    -3.047151   0.12412699   -4.4067172    1.3595662      8192000 
   81000   0.90650446   -4.4088244   -4.4088244   -3.0490681   0.12942876   -4.4088244    1.3597563      8192000 
   82000   0.90640881   -4.4106366   -4.4106366   -3.0510237   0.13614496   -4.4106366    1.3596129      8192000 
   83000   0.90580486   -4.4117234   -4.4117234   -3.0530164   0.13711375   -4.4117234    1.3587069      8192000 
   84000   0.90396963   -4.4110433   -4.4110433   -3.0550892   0.13881114   -4.4110433    1.3559541      8192000 
   85000   0.90261236   -4.4110463   -4.4110463   -3.0571281   0.13903019   -4.4110463    1.3539182      8192000 
   86000   0.90097117   -4.4106172   -4.4106172   -3.0591608   0.13425313   -4.4106172    1.3514564      8192000 
   87000   0.89861795   -4.4091434   -4.4091434   -3.0612168   0.13138537   -4.4091434    1.3479266      8192000 
   88000   0.89596426   -4.4075132   -4.4075132   -3.0635671   0.12620644   -4.4075132     1.343946      8192000 
   89000    0.8935511    -4.406122    -4.406122   -3.0657957   0.12188989    -4.406122    1.3403263      8192000 
   90000   0.89134267   -4.4051113   -4.4051113   -3.0680976   0.11736208   -4.4051113    1.3370137      8192000 
   91000   0.88948515   -4.4048585   -4.4048585   -3.0706311   0.11040493   -4.4048585    1.3342274      8192000 
   92000   0.88721542   -4.4039704   -4.4039704   -3.0731477   0.10400146   -4.4039704    1.3308228      8192000 
   93000   0.88473518   -4.4025822   -4.4025822   -3.0754798  0.095855193   -4.4025822    1.3271024      8192000 
   94000   0.88239119   -4.4014813   -4.4014813   -3.0778948  0.083425052   -4.4014813    1.3235865      8192000 
   95000   0.87870812   -4.3981881   -4.3981881   -3.0801262  0.076357519   -4.3981881    1.3180619      8192000 
   96000   0.87585637   -4.3959547   -4.3959547   -3.0821705  0.066738292   -4.3959547    1.3137842      8192000 
   97000   0.87292794   -4.3936387   -4.3936387   -3.0842471  0.057632395   -4.3936387    1.3093916      8192000 
   98000   0.87077685   -4.3922682   -4.3922682   -3.0861032   0.05025308   -4.3922682    1.3061649      8192000 
   99000   0.86819589   -4.3906238   -4.3906238   -3.0883303  0.046194903   -4.3906238    1.3022935      8192000 
  100000   0.86679515   -4.3903218   -4.3903218   -3.0901294   0.04535976   -4.3903218    1.3001924      8192000 
  101000   0.86580771   -4.3909087   -4.3909087   -3.0921975  0.042404504   -4.3909087    1.2987112      8192000 
  102000   0.86532336   -4.3922015   -4.3922015   -3.0942168  0.042175212   -4.3922015    1.2979847      8192000 
  103000   0.86541567   -4.3943522   -4.3943522    -3.096229  0.043973718   -4.3943522    1.2981232      8192000 
  104000   0.86614265   -4.3975755   -4.3975755   -3.0983618   0.04609879   -4.3975755    1.2992136      8192000 
  105000   0.86635182   -4.3997755   -4.3997755   -3.1002481  0.052796312   -4.3997755    1.2995274      8192000 
  106000   0.86702854   -4.4029985   -4.4029985   -3.1024561  0.056353167   -4.4029985    1.3005425      8192000 
  107000   0.86783701   -4.4060521   -4.4060521   -3.1042969  0.063048892   -4.4060521    1.3017552      8192000 
  108000   0.86867786    -4.409186    -4.409186   -3.1061695   0.06847513    -4.409186    1.3030165      8192000 
  109000   0.86966644   -4.4125948   -4.4125948   -3.1080955  0.072822468   -4.4125948    1.3044993      8192000 
  110000    0.8699722   -4.4150432   -4.4150432   -3.1100853   0.07618186   -4.4150432     1.304958      8192000 
  111000   0.86991507   -4.4166811   -4.4166811   -3.1118088  0.083648651   -4.4166811    1.3048723      8192000 
  112000   0.87060323   -4.4196364   -4.4196364   -3.1137319  0.086122345   -4.4196364    1.3059045      8192000 
  113000   0.87101554   -4.4222552   -4.4222552   -3.1157322  0.087672462   -4.4222552     1.306523      8192000 
  114000   0.87067976   -4.4237662   -4.4237662   -3.1177469  0.090392558   -4.4237662    1.3060193      8192000 
  115000   0.87120616   -4.4263492   -4.4263492   -3.1195403  0.091974625   -4.4263492    1.3068089      8192000 
  116000   0.87117844    -4.428162    -4.428162   -3.1213947  0.090827611    -4.428162    1.3067673      8192000 
  117000   0.87076622   -4.4292599   -4.4292599   -3.1231109  0.091346688   -4.4292599     1.306149      8192000 
  118000    0.8697629   -4.4297109   -4.4297109   -3.1250668   0.08871242   -4.4297109     1.304644      8192000 
  119000   0.86905425   -4.4305091   -4.4305091    -3.126928  0.084621668   -4.4305091    1.3035811      8192000 
  120000   0.86822586   -4.4311439   -4.4311439   -3.1288054  0.080098602   -4.4311439    1.3023385      8192000 
  121000   0.86712166   -4.4315124   -4.4315124   -3.1308302  0.077034578   -4.4315124    1.3006822      8192000 
  122000   0.86595098   -4.4316502   -4.4316502    -3.132724  0.073257054   -4.4316502    1.2989262      8192000 
  123000    0.8652868   -4.4323299   -4.4323299   -3.1344001  0.070784316   -4.4323299    1.2979299      8192000 
  124000   0.86498006   -4.4337007   -4.4337007    -3.136231  0.069045491   -4.4337007    1.2974698      8192000 
  125000   0.86487316   -4.4352323   -4.4352323   -3.1379228  0.069151145   -4.4352323    1.2973094      8192000 
  126000   0.86468427    -4.436378    -4.436378   -3.1393519  0.072312383    -4.436378    1.2970261      8192000 
  127000   0.86468081   -4.4383293   -4.4383293   -3.1413084  0.072481441   -4.4383293    1.2970209      8192000 
  128000   0.86557789   -4.4414549   -4.4414549   -3.1430884  0.073435326   -4.4414549    1.2983665      8192000 
  129000   0.86538528   -4.4429101   -4.4429101   -3.1448325  0.080004217   -4.4429101    1.2980776      8192000 
  130000   0.86675397   -4.4467049   -4.4467049   -3.1465742  0.081691566   -4.4467049    1.3001306      8192000 
  131000   0.86794802   -4.4501571   -4.4501571   -3.1482353  0.088991279   -4.4501571    1.3019217      8192000 
  132000   0.86957298   -4.4545619   -4.4545619   -3.1502027  0.094842393   -4.4545619    1.3043591      8192000 
  133000   0.87140795    -4.459015    -4.459015   -3.1519034   0.10335029    -4.459015    1.3071116      8192000 
  134000    0.8734883   -4.4640186   -4.4640186   -3.1537865   0.11268283   -4.4640186    1.3102321      8192000 
  135000   0.87568864   -4.4692255   -4.4692255   -3.1556928   0.12230006   -4.4692255    1.3135326      8192000 
  136000   0.87771603   -4.4743189   -4.4743189   -3.1577452    0.1342202   -4.4743189    1.3165737      8192000 
  137000   0.88075388   -4.4808835   -4.4808835    -3.159753   0.14456825   -4.4808835    1.3211305      8192000 
  138000   0.88422348   -4.4878856   -4.4878856   -3.1615507   0.15873179   -4.4878856    1.3263349      8192000 
  139000    0.8868618   -4.4940492   -4.4940492   -3.1637569   0.17381859   -4.4940492    1.3302924      8192000 
  140000   0.89062331   -4.5019121   -4.5019121   -3.1659774   0.19078418   -4.5019121    1.3359346      8192000 
  141000   0.89414665    -4.509686    -4.509686   -3.1684664   0.20930893    -4.509686    1.3412196      8192000 
  142000   0.89860399   -4.5187083   -4.5187083   -3.1708026   0.22921932   -4.5187083    1.3479056      8192000 
  143000   0.90265999   -4.5275287   -4.5275287    -3.173539   0.25372028   -4.5275287    1.3539896      8192000 
  144000   0.90676987   -4.5366935   -4.5366935    -3.176539   0.28230013   -4.5366935    1.3601545      8192000 
  145000   0.91098235   -4.5461364   -4.5461364   -3.1796632   0.31558484   -4.5461364    1.3664732      8192000 
  146000   0.91632273   -4.5574041   -4.5574041   -3.1829203   0.34432248   -4.5574041    1.3744838      8192000 
  147000   0.92084385     -4.56758     -4.56758   -3.1863146   0.37956812     -4.56758    1.3812654      8192000 
  148000    0.9255314   -4.5779856   -4.5779856   -3.1896888    0.4161766   -4.5779856    1.3882968      8192000 
  149000   0.92992305    -4.588185    -4.588185   -3.1933008   0.45425649    -4.588185    1.3948842      8192000 
  150000   0.93412305   -4.5983814   -4.5983814   -3.1971971   0.49083316   -4.5983814    1.4011842      8192000 
  151000   0.93761483   -4.6076029   -4.6076029    -3.201181   0.52670405   -4.6076029    1.4064219      8192000 
  152000   0.94119541   -4.6171031   -4.6171031   -3.2053103   0.55807568   -4.6171031    1.4117928      8192000 
  153000   0.94326829   -4.6246383   -4.6246383   -3.2097363   0.58639015   -4.6246383    1.4149021      8192000 
  154000   0.94492718   -4.6312187   -4.6312187   -3.2138283   0.60790978   -4.6312187    1.4173904      8192000 
  155000   0.94539987   -4.6359801   -4.6359801   -3.2178806   0.62320601   -4.6359801    1.4180995      8192000 
  156000   0.94504024   -4.6395604   -4.6395604   -3.2220004   0.62785617   -4.6395604      1.41756      8192000 
  157000   0.94357655   -4.6413718   -4.6413718   -3.2260073    0.6247607   -4.6413718    1.4153645      8192000 
  158000   0.94136423   -4.6418069   -4.6418069   -3.2297609   0.61430432   -4.6418069     1.412046      8192000 
  159000   0.93848168   -4.6411632   -4.6411632   -3.2334411   0.59942968   -4.6411632    1.4077222      8192000 
  160000   0.93500932   -4.6396641   -4.6396641   -3.2371505   0.57954539   -4.6396641    1.4025136      8192000 
  161000   0.93058524   -4.6364647   -4.6364647   -3.2405872   0.55845899   -4.6364647    1.3958775      8192000 
  162000   0.92633046   -4.6332921   -4.6332921   -3.2437967   0.53222798   -4.6332921    1.3894953      8192000 
  163000   0.92063289   -4.6280347   -4.6280347   -3.2470857   0.50579435   -4.6280347     1.380949      8192000 
  164000   0.91566426   -4.6237797   -4.6237797   -3.2502836   0.47382004   -4.6237797     1.373496      8192000 
  165000   0.90973004   -4.6179712   -4.6179712   -3.2533765   0.44036698   -4.6179712    1.3645947      8192000 
  166000   0.90311587   -4.6107368   -4.6107368   -3.2560633   0.40618347   -4.6107368    1.3546735      8192000 
  167000   0.89627689   -4.6031757   -4.6031757   -3.2587607    0.3667539   -4.6031757     1.344415      8192000 
  168000   0.88927834   -4.5948927   -4.5948927   -3.2609755   0.32918296   -4.5948927    1.3339172      8192000 
  169000   0.88199387   -4.5860375   -4.5860375    -3.263047   0.28911851   -4.5860375    1.3229905      8192000 
  170000   0.87444138   -4.5760598   -4.5760598   -3.2643981    0.2505408   -4.5760598    1.3116617      8192000 
  171000   0.86673052   -4.5659653   -4.5659653   -3.2658699   0.21052521   -4.5659653    1.3000955      8192000 
  172000   0.85905815   -4.5554052   -4.5554052   -3.2668183   0.17362443   -4.5554052    1.2885869      8192000 
  173000   0.85129503   -4.5443248   -4.5443248   -3.2673826   0.14085329   -4.5443248    1.2769422      8192000 
  174000   0.84385299   -4.5337595   -4.5337595   -3.2679803   0.10850565   -4.5337595    1.2657792      8192000 
  175000   0.83638024   -4.5228869   -4.5228869   -3.2683169  0.077898004   -4.5228869      1.25457      8192000 
  176000   0.82831209   -4.5111261   -4.5111261   -3.2686583  0.050947967   -4.5111261    1.2424678      8192000 
  177000   0.82152254   -4.5009952   -4.5009952   -3.2687117  0.025417271   -4.5009952    1.2322835      8192000 
  178000    0.8145736   -4.4907725   -4.4907725   -3.2689124 0.0037832575   -4.4907725    1.2218601      8192000 
  179000   0.80813957   -4.4811242   -4.4811242   -3.2689152 -0.016194741   -4.4811242     1.212209      8192000 
  180000   0.80208185   -4.4718767   -4.4718767   -3.2687542 -0.032692124   -4.4718767    1.2031225      8192000 
  181000   0.79699113    -4.464104    -4.464104   -3.2686176  -0.04789681    -4.464104    1.1954864      8192000 
  182000   0.79277165   -4.4574886   -4.4574886   -3.2683314 -0.058166307   -4.4574886    1.1891572      8192000 
  183000   0.78918225   -4.4520175   -4.4520175   -3.2682445 -0.069660317   -4.4520175    1.1837731      8192000 
  184000   0.78669318   -4.4479731   -4.4479731   -3.2679336 -0.074897312   -4.4479731    1.1800395      8192000 
  185000   0.78577297   -4.4463946   -4.4463946   -3.2677354   -0.0755309   -4.4463946    1.1786592      8192000 
  186000   0.78589103   -4.4464864   -4.4464864   -3.2676501 -0.075323374   -4.4464864    1.1788362      8192000 
  187000   0.78612213   -4.4466017   -4.4466017   -3.2674188  -0.06714365   -4.4466017    1.1791829      8192000 
  188000   0.78787706    -4.449418    -4.449418   -3.2676028 -0.061654661    -4.449418    1.1818153      8192000 
  189000   0.79052294    -4.453441    -4.453441   -3.2676569  -0.05063052    -4.453441    1.1857841      8192000 
  190000   0.79368454   -4.4581625   -4.4581625    -3.267636 -0.039258718   -4.4581625    1.1905265      8192000 
  191000   0.79720483   -4.4637227   -4.4637227   -3.2679157 -0.026049099   -4.4637227     1.195807      8192000 
  192000   0.80053433    -4.469259    -4.469259   -3.2684578 -0.0097200678    -4.469259    1.2008012      8192000 
  193000   0.80418113   -4.4751558   -4.4751558   -3.2688844 0.0070314771   -4.4751558    1.2062714      8192000 
  194000   0.80822656   -4.4816899   -4.4816899   -3.2693504   0.02190177   -4.4816899    1.2123395      8192000 
  195000   0.81125303   -4.4866326   -4.4866326   -3.2697534  0.037100664   -4.4866326    1.2168792      8192000 
  196000   0.81388414   -4.4912964   -4.4912964   -3.2704705  0.046908542   -4.4912964    1.2208259      8192000 
  197000   0.81596572   -4.4950333   -4.4950333   -3.2710851  0.058023485   -4.4950333    1.2239483      8192000 
  198000   0.81729634   -4.4973237   -4.4973237   -3.2713795  0.066358503   -4.4973237    1.2259442      8192000 
  199000   0.81803906    -4.499021    -4.499021   -3.2719627  0.070544013    -4.499021    1.2270583      8192000 
  200000   0.81840388   -4.4997872   -4.4997872   -3.2721816  0.070029539   -4.4997872    1.2276055      8192000 
  201000   0.81792546   -4.4991885   -4.4991885   -3.2723006  0.068798856   -4.4991885    1.2268879      8192000 
  202000   0.81711534   -4.4979494   -4.4979494   -3.2722767  0.065573287   -4.4979494    1.2256727      8192000 
  203000   0.81534683   -4.4955991   -4.4955991   -3.2725792  0.059202538   -4.4955991    1.2230199      8192000 
  204000   0.81364891   -4.4931493   -4.4931493   -3.2726762  0.048247514   -4.4931493    1.2204731      8192000 
  205000    0.8109689   -4.4892205   -4.4892205   -3.2727675  0.040578802   -4.4892205     1.216453      8192000 
  206000   0.80823401   -4.4853221   -4.4853221   -3.2729714  0.028709624   -4.4853221    1.2123507      8192000 
  207000   0.80614236   -4.4824878   -4.4824878   -3.2732746  0.017055124   -4.4824878    1.2092132      8192000 
  208000   0.80351917   -4.4786809   -4.4786809   -3.2734024 0.0084804567   -4.4786809    1.2052785      8192000 
  209000   0.80114067   -4.4753966   -4.4753966   -3.2736859 0.0024567151   -4.4753966    1.2017107      8192000 
  210000   0.79943265   -4.4730667   -4.4730667    -3.273918 -0.0054767342   -4.4730667    1.1991487      8192000 
  211000   0.79778687   -4.4711334   -4.4711334   -3.2744534 -0.0096620304   -4.4711334      1.19668      8192000 
  212000   0.79681575   -4.4698991   -4.4698991   -3.2746758 -0.014325571   -4.4698991    1.1952233      8192000 
  213000   0.79642541   -4.4694957   -4.4694957   -3.2748579 -0.014545538   -4.4694957    1.1946378      8192000 
  214000    0.7963485   -4.4694514   -4.4694514   -3.2749289 -0.014265417   -4.4694514    1.1945225      8192000 
  215000   0.79742964   -4.4713835   -4.4713835   -3.2752394 -0.010677165   -4.4713835    1.1961442      8192000 
  216000   0.79868922   -4.4732861   -4.4732861   -3.2752526 -0.0049723975   -4.4732861    1.1980335      8192000 
  217000   0.80018444   -4.4756372   -4.4756372   -3.2753609 0.0034087004   -4.4756372    1.2002764      8192000 
  218000   0.80234677   -4.4788736   -4.4788736   -3.2753538  0.012837855   -4.4788736    1.2035199      8192000 
  219000   0.80512359   -4.4831542   -4.4831542   -3.2754691   0.02318696   -4.4831542    1.2076851      8192000 
  220000   0.80752295    -4.486635    -4.486635   -3.2753509  0.033542126    -4.486635    1.2112841      8192000 
  221000   0.80972193   -4.4899801   -4.4899801   -3.2753975  0.045611875   -4.4899801    1.2145826      8192000 
  222000   0.81206291   -4.4934376   -4.4934376   -3.2753436  0.053113734   -4.4934376    1.2180941      8192000 
  223000   0.81315554   -4.4953089   -4.4953089   -3.2755759  0.061397311   -4.4953089     1.219733      8192000 
  224000   0.81405167    -4.496779    -4.496779   -3.2757018  0.063541742    -4.496779    1.2210772      8192000 
  225000   0.81336127   -4.4958285   -4.4958285   -3.2757869  0.067808936   -4.4958285    1.2200416      8192000 
  226000   0.81315067   -4.4956172   -4.4956172   -3.2758915   0.06413717   -4.4956172    1.2197257      8192000 
  227000    0.8116768   -4.4936199   -4.4936199    -3.276105  0.059390207   -4.4936199    1.2175149      8192000 
  228000   0.81047683   -4.4917536   -4.4917536   -3.2760387  0.051679589   -4.4917536    1.2157149      8192000 
  229000   0.80772507   -4.4874648   -4.4874648   -3.2758775  0.044139588   -4.4874648    1.2115873      8192000 
  230000   0.80572875   -4.4844924   -4.4844924   -3.2758996  0.031511254   -4.4844924    1.2085928      8192000 
  231000   0.80333612   -4.4808533   -4.4808533   -3.2758494  0.023161598   -4.4808533    1.2050039      8192000 
  232000    0.8005978   -4.4767883   -4.4767883   -3.2758919  0.015872304   -4.4767883    1.2008964      8192000 
  233000   0.79926404   -4.4744728   -4.4744728    -3.275577 0.0048731968   -4.4744728    1.1988958      8192000 
  234000   0.79773095   -4.4721481   -4.4721481    -3.275552 -0.0029117575   -4.4721481    1.1965961      8192000 
  235000   0.79630927   -4.4698755   -4.4698755   -3.2754119 -0.001956739   -4.4698755    1.1944636      8192000 
  236000   0.79588983   -4.4693401   -4.4693401   -3.2755057 -0.0077539844   -4.4693401    1.1938345      8192000 
  237000   0.79588165   -4.4690526   -4.4690526   -3.2752304 -0.0064574714   -4.4690526    1.1938222      8192000 
  238000   0.79612286   -4.4690292   -4.4690292   -3.2748452 -0.0042734321   -4.4690292     1.194184      8192000 
  239000    0.7971716   -4.4705345   -4.4705345   -3.2747774 -0.00083862164   -4.4705345    1.1957571      8192000 
  240000    0.7984674   -4.4721827   -4.4721827   -3.2744819 0.0058219267   -4.4721827    1.1977008      8192000 
  241000   0.80024132    -4.474523    -4.474523   -3.2741613  0.013452884    -4.474523    1.2003617      8192000 
  242000   0.80235575   -4.4772941   -4.4772941   -3.2737608  0.021403498   -4.4772941    1.2035333      8192000 
  243000   0.80347766   -4.4792935   -4.4792935   -3.2740773  0.029879257   -4.4792935    1.2052162      8192000 
  244000   0.80542448   -4.4820721   -4.4820721   -3.2739357  0.038402248   -4.4820721    1.2081364      8192000 
  245000   0.80682526   -4.4840682   -4.4840682   -3.2738306  0.046007147   -4.4840682    1.2102376      8192000 
  246000   0.80770898   -4.4851775   -4.4851775   -3.2736144  0.052634278   -4.4851775    1.2115632      8192000 
  247000    0.8085399   -4.4863448   -4.4863448   -3.2735352  0.055689038   -4.4863448    1.2128096      8192000 
  248000    0.8090531    -4.486855    -4.486855   -3.2732757  0.056049398    -4.486855    1.2135793      8192000 
  249000   0.80938628   -4.4871618   -4.4871618   -3.2730827   0.05442833   -4.4871618    1.2140791      8192000 
  250000   0.80786991   -4.4846732   -4.4846732   -3.2728687  0.053120245   -4.4846732    1.2118046      8192000 
  251000    0.8067893   -4.4826258   -4.4826258   -3.2724422  0.047720692   -4.4826258    1.2101836      8192000 
  252000   0.80546033   -4.4806335   -4.4806335   -3.2724433    0.0413844   -4.4806335    1.2081902      8192000 
  253000   0.80341774   -4.4773655   -4.4773655   -3.2722392  0.034376793   -4.4773655    1.2051263      8192000 
  254000    0.8018077   -4.4746384   -4.4746384   -3.2719271  0.025781411   -4.4746384    1.2027113      8192000 
  255000   0.79972298   -4.4711701   -4.4711701   -3.2715859  0.018496694   -4.4711701    1.1995842      8192000 
  256000    0.7982998   -4.4688239   -4.4688239   -3.2713745  0.010982419   -4.4688239    1.1974494      8192000 
  257000   0.79702973   -4.4665118   -4.4665118   -3.2709675 0.0055285395   -4.4665118    1.1955443      8192000 
  258000   0.79588579   -4.4643645   -4.4643645   -3.2705361 0.0025619019   -4.4643645    1.1938284      8192000 
  259000   0.79491405    -4.462729    -4.462729   -3.2703582 -0.00075700087    -4.462729    1.1923708      8192000 
  260000   0.79479111   -4.4619433   -4.4619433    -3.269757 -0.00065903415   -4.4619433    1.1921864      8192000 
  261000   0.79508801   -4.4618668   -4.4618668   -3.2692351 -0.00031419656   -4.4618668    1.1926317      8192000 
  262000   0.79565167    -4.462178    -4.462178   -3.2687007 0.0028026125    -4.462178    1.1934772      8192000 
  263000   0.79690409   -4.4635851   -4.4635851   -3.2682292 0.0074263557   -4.4635851    1.1953558      8192000 
  264000   0.79764615   -4.4643927   -4.4643927   -3.2679238   0.01427286   -4.4643927    1.1964689      8192000 
  265000   0.79921345   -4.4663505   -4.4663505   -3.2675306  0.020945969   -4.4663505    1.1988199      8192000 
  266000   0.80086517   -4.4682216   -4.4682216   -3.2669241  0.026307125   -4.4682216    1.2012975      8192000 
  267000   0.80204546   -4.4697598   -4.4697598   -3.2666919  0.033991708   -4.4697598    1.2030679      8192000 
  268000   0.80323509   -4.4708844   -4.4708844   -3.2660321  0.039788341   -4.4708844    1.2048523      8192000 
  269000   0.80400885   -4.4714653   -4.4714653   -3.2654524  0.044413586   -4.4714653     1.206013      8192000 
  270000   0.80520419   -4.4727693   -4.4727693   -3.2649633  0.047559127   -4.4727693     1.207806      8192000 
  271000   0.80541093   -4.4724012   -4.4724012   -3.2642851  0.050588452   -4.4724012    1.2081161      8192000 
  272000   0.80504522   -4.4714937   -4.4714937   -3.2639261  0.049187803   -4.4714937    1.2075675      8192000 
  273000   0.80468754    -4.470572    -4.470572    -3.263541  0.046340803    -4.470572     1.207031      8192000 
  274000    0.8039296   -4.4690765   -4.4690765   -3.2631824  0.039622165   -4.4690765    1.2058941      8192000 
  275000   0.80277674   -4.4667892   -4.4667892   -3.2626244   0.03429395   -4.4667892    1.2041648      8192000 
  276000   0.80109812   -4.4633986   -4.4633986   -3.2617517  0.032440712   -4.4633986    1.2016469      8192000 
  277000   0.79950362   -4.4603971   -4.4603971    -3.261142  0.027364558   -4.4603971    1.1992551      8192000 
  278000   0.79880219   -4.4587756   -4.4587756   -3.2605726  0.018552799   -4.4587756     1.198203      8192000 
  279000   0.79718838    -4.455604    -4.455604   -3.2598217  0.014541095    -4.455604    1.1957823      8192000 
  280000   0.79548903   -4.4524655   -4.4524655   -3.2592322  0.011514408   -4.4524655    1.1932332      8192000 
  281000    0.7952632   -4.4515827   -4.4515827   -3.2586882 0.0056280358   -4.4515827    1.1928945      8192000 
  282000   0.79464488   -4.4500838   -4.4500838   -3.2581168 0.0044695054   -4.4500838     1.191967      8192000 
  283000   0.79425057   -4.4488012   -4.4488012   -3.2574257 0.0046866133   -4.4488012    1.1913756      8192000 
  284000   0.79442035   -4.4483521   -4.4483521   -3.2567219 0.0063474698   -4.4483521    1.1916302      8192000 
  285000   0.79449089   -4.4476143   -4.4476143   -3.2558783 0.0082233893   -4.4476143     1.191736      8192000 
  286000   0.79584852   -4.4489385   -4.4489385    -3.255166  0.011083035   -4.4489385    1.1937725      8192000 
  287000   0.79656307   -4.4492883   -4.4492883    -3.254444   0.01635188   -4.4492883    1.1948443      8192000 
  288000   0.79800917    -4.450881    -4.450881   -3.2538675  0.019328909    -4.450881    1.1970135      8192000 
  289000   0.79908487   -4.4518012   -4.4518012   -3.2531742  0.026827465   -4.4518012     1.198627      8192000 
  290000   0.80040627   -4.4531479   -4.4531479   -3.2525388  0.032003379   -4.4531479    1.2006091      8192000 
  291000    0.8014009   -4.4538699   -4.4538699   -3.2517688  0.036224973   -4.4538699     1.202101      8192000 
  292000   0.80200933   -4.4538471   -4.4538471   -3.2508334  0.041862902   -4.4538471    1.2030137      8192000 
  293000   0.80271044   -4.4541631   -4.4541631   -3.2500977  0.042985985   -4.4541631    1.2040654      8192000 
  294000   0.80327835   -4.4543862   -4.4543862    -3.249469  0.044117768   -4.4543862    1.2049172      8192000 
  295000   0.80288302   -4.4530273   -4.4530273   -3.2487031   0.04460811   -4.4530273    1.2043242      8192000 
  296000   0.80243445    -4.451649    -4.451649   -3.2479976  0.042078377    -4.451649    1.2036514      8192000 
  297000   0.80146584   -4.4495843   -4.4495843   -3.2473859  0.040722969   -4.4495843    1.2021985      8192000 
  298000   0.80089261   -4.4479405   -4.4479405   -3.2466019  0.035841828   -4.4479405    1.2013386      8192000 
  299000   0.80017184   -4.4461023   -4.4461023   -3.2458449   0.03077029   -4.4461023    1.2002575      8192000 
  300000   0.79864581   -4.4431775   -4.4431775   -3.2452091  0.026833561   -4.4431775    1.1979684      8192000 
  301000   0.79784345   -4.4411148   -4.4411148     -3.24435  0.023157612   -4.4411148    1.1967649      8192000 
  302000   0.79701608   -4.4388965   -4.4388965   -3.2433727  0.018560821   -4.4388965    1.1955238      8192000 
  303000   0.79649834   -4.4373193   -4.4373193   -3.2425721  0.016589182   -4.4373193    1.1947472      8192000 
  304000   0.79605193   -4.4360889   -4.4360889   -3.2420114   0.01693615   -4.4360889    1.1940776      8192000 
  305000   0.79690969   -4.4368378   -4.4368378   -3.2414736    0.0180814   -4.4368378    1.1953642      8192000 
  306000   0.79824299   -4.4379823   -4.4379823   -3.2406181  0.027224683   -4.4379823    1.1973642      8192000 
  307000   0.80096651   -4.4410718   -4.4410718   -3.2396223  0.038791247   -4.4410718    1.2014495      8192000 
  308000   0.80441196    -4.445455    -4.445455   -3.2388373  0.055540886    -4.445455    1.2066176      8192000 
  309000     0.808235   -4.4505156   -4.4505156   -3.2381634  0.081868302   -4.4505156    1.2123522      8192000 
  310000   0.81336635    -4.457527    -4.457527   -3.2374778   0.10550896    -4.457527    1.2200492      8192000 
  311000   0.81870367   -4.4649941   -4.4649941    -3.236939   0.13854655   -4.4649941    1.2280552      8192000 
  312000    0.8240854   -4.4724239   -4.4724239   -3.2362961   0.17748496   -4.4724239    1.2361278      8192000 
  313000   0.82996691   -4.4805675   -4.4805675   -3.2356174   0.21225495   -4.4805675    1.2449501      8192000 
  314000   0.83567839   -4.4885171   -4.4885171   -3.2349998   0.24180357   -4.4885171    1.2535173      8192000 
  315000   0.83973414   -4.4941183   -4.4941183   -3.2345174    0.2684181   -4.4941183    1.2596009      8192000 
  316000   0.84327191   -4.4989144   -4.4989144   -3.2340068   0.28857463   -4.4989144    1.2649075      8192000 
  317000    0.8452304   -4.5010972   -4.5010972    -3.233252   0.30180261   -4.5010972    1.2678453      8192000 
  318000   0.84676435   -4.5028793   -4.5028793   -3.2327331    0.3035284   -4.5028793    1.2701462      8192000 
  319000   0.84590686   -4.5009653   -4.5009653   -3.2321053   0.30000905   -4.5009653      1.26886      8192000 
  320000   0.84392489   -4.4973056   -4.4973056   -3.2314186   0.28189218   -4.4973056     1.265887      8192000 
  321000   0.84017152   -4.4911345   -4.4911345   -3.2308775   0.25406953   -4.4911345     1.260257      8192000 
  322000   0.83497009   -4.4825629   -4.4825629   -3.2301081   0.22357235   -4.4825629    1.2524548      8192000 
  323000   0.82887264   -4.4728733   -4.4728733   -3.2295646   0.18949272   -4.4728733    1.2433086      8192000 
  324000   0.82254971   -4.4628597   -4.4628597   -3.2290355   0.15547094   -4.4628597    1.2338243      8192000 
  325000   0.81673339   -4.4536762   -4.4536762   -3.2285764   0.12601375   -4.4536762    1.2250998      8192000 
  326000   0.81167191   -4.4457148   -4.4457148   -3.2282072  0.098653406   -4.4457148    1.2175076      8192000 
  327000   0.80695806   -4.4381427   -4.4381427   -3.2277059  0.076686609   -4.4381427    1.2104368      8192000 
  328000    0.8033548   -4.4320141   -4.4320141   -3.2269822  0.054964549   -4.4320141    1.2050319      8192000 
  329000   0.80017498   -4.4268248   -4.4268248   -3.2265627  0.034803275   -4.4268248    1.2002622      8192000 
  330000   0.79664978   -4.4212307   -4.4212307   -3.2262564   0.02401626   -4.4212307    1.1949744      8192000 
  331000   0.79409813   -4.4171218   -4.4171218   -3.2259749  0.010536452   -4.4171218    1.1911469      8192000 
  332000   0.79143504   -4.4128814   -4.4128814   -3.2257291 0.0025812874   -4.4128814    1.1871523      8192000 
  333000   0.78954415   -4.4098968   -4.4098968   -3.2255808 -0.0036399405   -4.4098968    1.1843159      8192000 
  334000   0.78798327    -4.407358    -4.407358   -3.2253834 -0.0098109679    -4.407358    1.1819746      8192000 
  335000   0.78687296   -4.4055853   -4.4055853   -3.2252761 -0.011193732   -4.4055853    1.1803091      8192000 
  336000   0.78752284   -4.4064334   -4.4064334   -3.2251495 -0.011483563   -4.4064334     1.181284      8192000 
  337000   0.78859568   -4.4080057   -4.4080057   -3.2251124 -0.0079652031   -4.4080057    1.1828932      8192000 
  338000   0.79001267   -4.4097512   -4.4097512   -3.2247325 0.0011812808   -4.4097512    1.1850187      8192000 
  339000    0.7913094   -4.4116442   -4.4116442   -3.2246804  0.010278254   -4.4116442    1.1869638      8192000 
  340000    0.7932454    -4.414223    -4.414223   -3.2243552  0.017482812    -4.414223    1.1898678      8192000 
  341000   0.79529748   -4.4170775   -4.4170775   -3.2241316  0.024690794   -4.4170775    1.1929459      8192000 
  342000   0.79708053   -4.4195937   -4.4195937   -3.2239732  0.033510139   -4.4195937    1.1956205      8192000 
  343000   0.79904944   -4.4222327   -4.4222327   -3.2236588  0.041081753   -4.4222327    1.1985739      8192000 
  344000   0.80044989   -4.4244791   -4.4244791   -3.2238045  0.046579277   -4.4244791    1.2006745      8192000 
  345000   0.80138067   -4.4255116   -4.4255116   -3.2234409  0.054202116   -4.4255116    1.2020707      8192000 
  346000   0.80277997   -4.4276449   -4.4276449   -3.2234752  0.054971552   -4.4276449    1.2041697      8192000 
  347000     0.803344   -4.4282929   -4.4282929   -3.2232772  0.059541474   -4.4282929    1.2050157      8192000 
  348000   0.80316962   -4.4279971   -4.4279971    -3.223243   0.06101358   -4.4279971    1.2047541      8192000 
  349000   0.80341915   -4.4282361   -4.4282361   -3.2231076  0.056300892   -4.4282361    1.2051284      8192000 
  350000   0.80240879   -4.4266079   -4.4266079    -3.222995  0.053426527   -4.4266079    1.2036129      8192000 
  351000   0.80085002   -4.4241722   -4.4241722   -3.2228975  0.049494072   -4.4241722    1.2012747      8192000 
  352000   0.79932438   -4.4216796   -4.4216796   -3.2226934  0.043028529   -4.4216796    1.1989863      8192000 
  353000    0.7981667    -4.419607    -4.419607   -3.2223573  0.034528037    -4.419607    1.1972497      8192000 
  354000   0.79588011   -4.4160411   -4.4160411   -3.2222213  0.027350926   -4.4160411    1.1938199      8192000 
  355000   0.79378797   -4.4128772   -4.4128772   -3.2221955  0.017901905   -4.4128772    1.1906817      8192000 
  356000   0.79213598   -4.4103139   -4.4103139   -3.2221103  0.010393998   -4.4103139    1.1882037      8192000 
  357000   0.79019541   -4.4073949   -4.4073949    -3.222102 0.0047036019   -4.4073949    1.1852928      8192000 
  358000   0.78900646   -4.4053024   -4.4053024    -3.221793 -0.00096531293   -4.4053024    1.1835094      8192000 
  359000   0.78875249   -4.4049428   -4.4049428   -3.2218143 -0.0073604917   -4.4049428    1.1831284      8192000 
  360000     0.787469   -4.4030717   -4.4030717   -3.2218685 -0.0082680027   -4.4030717    1.1812032      8192000 
  361000   0.78756124   -4.4032606   -4.4032606   -3.2219191 -0.0087415996   -4.4032606    1.1813416      8192000 
  362000   0.78715754   -4.4025527   -4.4025527   -3.2218167 -0.0081094417   -4.4025527     1.180736      8192000 
  363000   0.78747449   -4.4028564   -4.4028564   -3.2216449 -0.0039275618   -4.4028564    1.1812114      8192000 
  364000   0.78862209   -4.4044003   -4.4044003   -3.2214675 -0.00036106156   -4.4044003    1.1829328      8192000 
  365000   0.78969854   -4.4058361   -4.4058361   -3.2212886  0.004081239   -4.4058361    1.1845475      8192000 
  366000   0.79124319   -4.4080988   -4.4080988   -3.2212343 0.0092900095   -4.4080988    1.1868645      8192000 
  367000   0.79247794   -4.4099619   -4.4099619   -3.2212452  0.016323328   -4.4099619    1.1887166      8192000 
  368000   0.79412247   -4.4123428   -4.4123428   -3.2211594  0.022558569   -4.4123428    1.1911834      8192000 
  369000   0.79596663   -4.4148572   -4.4148572   -3.2209075  0.028352436   -4.4148572    1.1939496      8192000 
  370000   0.79722973   -4.4167449   -4.4167449   -3.2209006  0.033714459   -4.4167449    1.1958443      8192000 
  371000   0.79874036   -4.4189384   -4.4189384   -3.2208282  0.038504122   -4.4189384    1.1981102      8192000 
  372000   0.79939619    -4.419558    -4.419558    -3.220464  0.045099595    -4.419558     1.199094      8192000 
  373000   0.80039252    -4.421136    -4.421136   -3.2205475  0.045994213    -4.421136    1.2005885      8192000 
  374000   0.80063101    -4.421566    -4.421566   -3.2206198  0.047755863    -4.421566    1.2009462      8192000 
  375000   0.80083115   -4.4218051   -4.4218051   -3.2205587  0.049072639   -4.4218051    1.2012464      8192000 
  376000    0.8001724   -4.4206382   -4.4206382   -3.2203799  0.047086329   -4.4206382    1.2002583      8192000 
  377000   0.79981613   -4.4198766   -4.4198766   -3.2201527   0.04342982   -4.4198766    1.1997239      8192000 
  378000   0.79888004   -4.4183587   -4.4183587   -3.2200389  0.041487758   -4.4183587    1.1983198      8192000 
  379000   0.79821831   -4.4171047   -4.4171047   -3.2197775  0.036466693   -4.4171047    1.1973272      8192000 
  380000   0.79679199   -4.4147264   -4.4147264   -3.2195387  0.030046142   -4.4147264    1.1951877      8192000 
  381000   0.79465283   -4.4114506   -4.4114506   -3.2194716  0.025793994   -4.4114506    1.1919789      8192000 
  382000   0.79385011   -4.4101154   -4.4101154   -3.2193406  0.017295953   -4.4101154    1.1907749      8192000 
  383000   0.79202066   -4.4073062   -4.4073062   -3.2192755  0.012096909   -4.4073062    1.1880307      8192000 
  384000   0.79082034   -4.4054059   -4.4054059   -3.2191757 0.0063125078   -4.4054059    1.1862302      8192000 
  385000   0.78952674   -4.4034653   -4.4034653   -3.2191755 0.0011627673   -4.4034653    1.1842898      8192000 
  386000   0.78880955   -4.4020281   -4.4020281    -3.218814 -0.0029785052   -4.4020281     1.183214      8192000 
  387000   0.78815136   -4.4009579   -4.4009579   -3.2187312 -0.0049145504   -4.4009579    1.1822267      8192000 
  388000   0.78758332   -4.3998005   -4.3998005   -3.2184258 -0.0053581348   -4.3998005    1.1813747      8192000 
  389000   0.78789989   -4.4001114   -4.4001114   -3.2182619 -0.0067012561   -4.4001114    1.1818495      8192000 
  390000   0.78798952    -4.400111    -4.400111    -3.218127 -0.0029336695    -4.400111     1.181984      8192000 
  391000   0.78914691   -4.4017827   -4.4017827   -3.2180626 -0.003529664   -4.4017827    1.1837201      8192000 
  392000   0.78967447    -4.402292    -4.402292   -3.2177806 0.0015842609    -4.402292    1.1845114      8192000 
  393000   0.79067464   -4.4034679   -4.4034679   -3.2174563 0.0066429021   -4.4034679    1.1860117      8192000 
  394000    0.7918996   -4.4049507   -4.4049507   -3.2171016  0.011141305   -4.4049507    1.1878491      8192000 
  395000   0.79356952   -4.4074185   -4.4074185   -3.2170645   0.01736184   -4.4074185     1.190354      8192000 
  396000   0.79499528    -4.409476    -4.409476   -3.2169833    0.0224084    -4.409476    1.1924926      8192000 
  397000    0.7964792   -4.4115106   -4.4115106   -3.2167921  0.026098429   -4.4115106    1.1947185      8192000 
  398000   0.79757167   -4.4128769   -4.4128769   -3.2165197  0.033229714   -4.4128769    1.1963572      8192000 
  399000   0.79859388   -4.4141362   -4.4141362   -3.2162456  0.037674988   -4.4141362    1.1978905      8192000 
  400000   0.79966886   -4.4158388   -4.4158388   -3.2163358  0.038801754   -4.4158388     1.199503      8192000 
  401000   0.79940118   -4.4153856   -4.4153856   -3.2162841  0.042912576   -4.4153856    1.1991015      8192000 
  402000   0.79962757   -4.4155511   -4.4155511   -3.2161101  0.042598022   -4.4155511    1.1994411      8192000 
  403000   0.79956509   -4.4152536   -4.4152536   -3.2159063  0.040130448   -4.4152536    1.1993473      8192000 
  404000   0.79893915   -4.4139707   -4.4139707   -3.2155623  0.038875479   -4.4139707    1.1984084      8192000 
  405000    0.7979571   -4.4125032   -4.4125032   -3.2155678  0.035145582   -4.4125032    1.1969354      8192000 
  406000   0.79710974   -4.4107605   -4.4107605   -3.2150961  0.031420711   -4.4107605    1.1956643      8192000 
  407000    0.7959441   -4.4088513   -4.4088513   -3.2149355  0.025278207   -4.4088513    1.1939159      8192000 
  408000   0.79499588   -4.4071302   -4.4071302   -3.2146367  0.021764531   -4.4071302    1.1924935      8192000 
  409000   0.79356644   -4.4048677   -4.4048677   -3.2145183  0.014645969   -4.4048677    1.1903494      8192000 
  410000   0.79258779   -4.4030753   -4.4030753   -3.2141939 0.0096443348   -4.4030753    1.1888814      8192000 
  411000   0.79118871   -4.4008547   -4.4008547   -3.2140719 0.0069798028   -4.4008547    1.1867828      8192000 
  412000   0.79014595   -4.3991066   -4.3991066    -3.213888 0.0026503116   -4.3991066    1.1852186      8192000 
  413000   0.78962531   -4.3980898   -4.3980898   -3.2136521 -0.0012240023   -4.3980898    1.1844377      8192000 
  414000   0.78937108   -4.3977447   -4.3977447   -3.2136884 -0.0042594668   -4.3977447    1.1840563      8192000 
  415000   0.78924183   -4.3973278   -4.3973278   -3.2134654 -0.0051634205   -4.3973278    1.1838624      8192000 
  416000   0.78900234   -4.3966718   -4.3966718   -3.2131686 -0.0028106446   -4.3966718    1.1835032      8192000 
  417000   0.78988832   -4.3979081   -4.3979081   -3.2130759 -0.0020363856   -4.3979081    1.1848322      8192000 
  418000   0.79046776   -4.3986379   -4.3986379   -3.2129366 -0.00022539595   -4.3986379    1.1857013      8192000 
  419000   0.79088504   -4.3991945   -4.3991945   -3.2128672 0.0028661405   -4.3991945    1.1863273      8192000 
  420000   0.79230363   -4.4009767   -4.4009767   -3.2125215 0.0088858016   -4.4009767    1.1884551      8192000 
  421000    0.7936082   -4.4029917   -4.4029917   -3.2125797  0.012309106   -4.4029917     1.190412      8192000 
  422000   0.79442593   -4.4039982   -4.4039982   -3.2123596  0.017826796   -4.4039982    1.1916386      8192000 
  423000   0.79545461   -4.4053862   -4.4053862   -3.2122046  0.022284131   -4.4053862    1.1931816      8192000 
  424000   0.79705182   -4.4073467   -4.4073467   -3.2117692  0.025396427   -4.4073467    1.1955774      8192000 
  425000   0.79747092   -4.4079431   -4.4079431   -3.2117371  0.031030134   -4.4079431    1.1962061      8192000 
  426000   0.79862601   -4.4093092   -4.4093092   -3.2113705  0.033320908   -4.4093092    1.1979387      8192000 
  427000   0.79941368   -4.4102049   -4.4102049   -3.2110847  0.034869295   -4.4102049    1.1991202      8192000 
  428000   0.79951875   -4.4100579   -4.4100579   -3.2107801  0.037885358   -4.4100579    1.1992778      8192000 
  429000   0.79925299   -4.4094008   -4.4094008   -3.2105216  0.037998255   -4.4094008    1.1988792      8192000 
  430000     0.799558   -4.4097076   -4.4097076   -3.2103708  0.035210778   -4.4097076    1.1993367      8192000 
  431000   0.79907322   -4.4086508   -4.4086508   -3.2100413  0.032985994   -4.4086508    1.1986095      8192000 
  432000   0.79792446   -4.4067826   -4.4067826   -3.2098962  0.029761446   -4.4067826    1.1968864      8192000 
  433000   0.79750067   -4.4060952   -4.4060952   -3.2098445  0.023495702   -4.4060952    1.1962507      8192000 
  434000   0.79566482   -4.4033466   -4.4033466   -3.2098497  0.021081679   -4.4033466    1.1934969      8192000 
  435000   0.79481528   -4.4018507   -4.4018507   -3.2096281  0.017592147   -4.4018507    1.1922226      8192000 
  436000   0.79406654   -4.4004651   -4.4004651   -3.2093656  0.010789641   -4.4004651    1.1910995      8192000 
  437000   0.79311108   -4.3988319   -4.3988319   -3.2091656 0.0077574578   -4.3988319    1.1896663      8192000 
  438000   0.79212206   -4.3970323   -4.3970323   -3.2088495 0.0039636114   -4.3970323    1.1881828      8192000 
  439000   0.79140338   -4.3957138   -4.3957138    -3.208609 0.00090176662   -4.3957138    1.1871048      8192000 
  440000   0.79128714   -4.3952213   -4.3952213   -3.2082908 0.00010013549   -4.3952213    1.1869304      8192000 
  441000   0.79055006   -4.3939958   -4.3939958    -3.208171 0.0020601858   -4.3939958    1.1858248      8192000 
  442000   0.79056415   -4.3938304   -4.3938304   -3.2079845 0.00013022906   -4.3938304    1.1858459      8192000 
  443000   0.79072703   -4.3938955   -4.3938955   -3.2078053 0.00056285502   -4.3938955    1.1860902      8192000 
  444000   0.79177915   -4.3953263   -4.3953263   -3.2076579 0.0013872074   -4.3953263    1.1876684      8192000 
  445000   0.79242479   -4.3961959   -4.3961959    -3.207559 0.0044574728   -4.3961959    1.1886369      8192000 
  446000   0.79354472   -4.3975053   -4.3975053   -3.2071886 0.0062414449   -4.3975053    1.1903168      8192000 
  447000   0.79448929   -4.3988204   -4.3988204   -3.2070867    0.0115579   -4.3988204    1.1917336      8192000 
  448000   0.79527172   -4.3998079   -4.3998079   -3.2069006  0.014985127   -4.3998079    1.1929073      8192000 
  449000   0.79601435   -4.4006209   -4.4006209   -3.2065996  0.019464047   -4.4006209    1.1940212      8192000 
  450000   0.79727143   -4.4022119   -4.4022119   -3.2063051  0.023627981   -4.4022119    1.1959068      8192000 
  451000   0.79823408   -4.4033962   -4.4033962   -3.2060453  0.026955059   -4.4033962    1.1973508      8192000 
  452000   0.79860307   -4.4038882   -4.4038882   -3.2059839  0.029200954   -4.4038882    1.1979043      8192000 
  453000   0.79947953   -4.4050791   -4.4050791   -3.2058601   0.03031824   -4.4050791     1.199219      8192000 
  454000   0.79976019   -4.4052213   -4.4052213   -3.2055813  0.033493308   -4.4052213      1.19964      8192000 
  455000   0.79943098   -4.4047284   -4.4047284   -3.2055822  0.033175585   -4.4047284    1.1991462      8192000 
  456000   0.79936051   -4.4044031   -4.4044031   -3.2053626  0.031602161   -4.4044031    1.1990405      8192000 
  457000   0.79893128   -4.4033651   -4.4033651   -3.2049685   0.02924867   -4.4033651    1.1983966      8192000 
  458000    0.7980519    -4.401753    -4.401753   -3.2046754   0.02747401    -4.401753    1.1970776      8192000 
  459000   0.79802639   -4.4013122   -4.4013122   -3.2042729  0.023202175   -4.4013122    1.1970393      8192000 
  460000   0.79702924   -4.3998873   -4.3998873   -3.2043437  0.020523633   -4.3998873    1.1955436      8192000 
  461000   0.79628807   -4.3985445   -4.3985445   -3.2041127  0.016909486   -4.3985445    1.1944318      8192000 
  462000   0.79500686   -4.3963242   -4.3963242   -3.2038142  0.014775381   -4.3963242      1.19251      8192000 
  463000   0.79498038   -4.3958039   -4.3958039   -3.2033336  0.009586828   -4.3958039    1.1924703      8192000 
  464000   0.79410753   -4.3944272   -4.3944272   -3.2032662 0.0071701208   -4.3944272     1.191161      8192000 
  465000   0.79345564   -4.3929683   -4.3929683   -3.2027851 0.0046152942   -4.3929683    1.1901832      8192000 
  466000   0.79334618   -4.3924156   -4.3924156   -3.2023966 0.0028628334   -4.3924156     1.190019      8192000 
  467000   0.79277722    -4.391306    -4.391306   -3.2021405 0.0024954335    -4.391306    1.1891655      8192000 
  468000   0.79322838   -4.3916137   -4.3916137   -3.2017714 0.0031250383   -4.3916137    1.1898423      8192000 
  469000   0.79307179   -4.3913047   -4.3913047   -3.2016973 0.0038553266   -4.3913047    1.1896074      8192000 
  470000   0.79325656   -4.3913684   -4.3913684   -3.2014838 0.0051359638   -4.3913684    1.1898845      8192000 
  471000   0.79421367   -4.3923523   -4.3923523   -3.2010321 0.0043547247   -4.3923523    1.1913202      8192000 
  472000   0.79467723   -4.3930124   -4.3930124   -3.2009968 0.0068120713   -4.3930124    1.1920155      8192000 
  473000   0.79516886    -4.393304    -4.393304    -3.200551 0.0091109606    -4.393304     1.192753      8192000 
  474000   0.79593001   -4.3943028   -4.3943028   -3.2004081  0.011915109   -4.3943028    1.1938947      8192000 
  475000   0.79711736   -4.3955755   -4.3955755   -3.1998998  0.014758656   -4.3955755    1.1956757      8192000 
  476000   0.79809665   -4.3968156   -4.3968156   -3.1996709  0.019399268   -4.3968156    1.1971447      8192000 
  477000   0.79833277   -4.3968161   -4.3968161   -3.1993172  0.024125419   -4.3968161    1.1974989      8192000 
  478000   0.79898118    -4.397497    -4.397497   -3.1990256  0.024385195    -4.397497    1.1984715      8192000 
  479000   0.79954297   -4.3980268   -4.3980268   -3.1987127   0.02733399   -4.3980268    1.1993141      8192000 
  480000   0.79993118   -4.3982357   -4.3982357   -3.1983393  0.027978424   -4.3982357    1.1998965      8192000 
  481000   0.80045718   -4.3986675   -4.3986675   -3.1979821   0.02853502   -4.3986675    1.2006855      8192000 
  482000   0.80011264     -4.39783     -4.39783   -3.1976613  0.028721476     -4.39783    1.2001687      8192000 
  483000   0.80018261    -4.397737    -4.397737   -3.1974634  0.026501384    -4.397737    1.2002736      8192000 
  484000    0.7993856   -4.3961434   -4.3961434   -3.1970653  0.024678976   -4.3961434    1.1990781      8192000 
  485000   0.79894137   -4.3951995   -4.3951995   -3.1967878  0.023958607   -4.3951995    1.1984118      8192000 
  486000   0.79817518     -4.39391     -4.39391   -3.1966475  0.021300771     -4.39391    1.1972625      8192000 
  487000   0.79790077   -4.3931894   -4.3931894   -3.1963386  0.017103717   -4.3931894    1.1968509      8192000 
  488000   0.79723417   -4.3918695   -4.3918695   -3.1960185   0.01482756   -4.3918695     1.195851      8192000 
  489000   0.79642058   -4.3905929   -4.3905929   -3.1959624 0.0097987801   -4.3905929    1.1946306      8192000 
  490000   0.79575841   -4.3892656   -4.3892656   -3.1956283 0.0069374883   -4.3892656    1.1936373      8192000 
  491000   0.79536361   -4.3884317   -4.3884317   -3.1953866 0.0048998732   -4.3884317    1.1930451      8192000 
  492000   0.79449386   -4.3868999   -4.3868999   -3.1951594 0.0026590799   -4.3868999    1.1917405      8192000 
  493000   0.79494948   -4.3872291   -4.3872291   -3.1948051 0.0011498294   -4.3872291    1.1924239      8192000 
  494000   0.79493071   -4.3869079   -4.3869079   -3.1945121 0.0022300609   -4.3869079    1.1923958      8192000 
  495000   0.79498985    -4.386549    -4.386549   -3.1940645 0.0033359292    -4.386549    1.1924845      8192000 
  496000   0.79499087   -4.3862009   -4.3862009   -3.1937149 0.0071054432   -4.3862009     1.192486      8192000 
  497000   0.79568652   -4.3869798   -4.3869798   -3.1934504 0.0072967164   -4.3869798    1.1935295      8192000 
  498000   0.79654095   -4.3877405   -4.3877405   -3.1929293  0.010652517   -4.3877405    1.1948111      8192000 
  499000   0.79700885   -4.3884603   -4.3884603   -3.1929473  0.010627029   -4.3884603     1.195513      8192000 
  500000    0.7977053    -4.389237    -4.389237   -3.1926793  0.014262506    -4.389237    1.1965577      8192000 
  501000   0.79886202   -4.3906654   -4.3906654   -3.1923727  0.016572763   -4.3906654    1.1982927      8192000 
  502000   0.79932301   -4.3909763   -4.3909763   -3.1919921  0.018640877   -4.3909763    1.1989842      8192000 
  503000    0.8000659   -4.3921702   -4.3921702   -3.1920717  0.021532951   -4.3921702    1.2000985      8192000 
  504000   0.80011105   -4.3919317   -4.3919317   -3.1917654  0.025872772   -4.3919317    1.2001663      8192000 
  505000   0.80071476   -4.3924604   -4.3924604   -3.1913885  0.025434295   -4.3924604    1.2010718      8192000 
  506000   0.80125967   -4.3930623   -4.3930623   -3.1911731  0.025153456   -4.3930623    1.2018892      8192000 
  507000   0.80132626   -4.3927173   -4.3927173   -3.1907282  0.026754535   -4.3927173    1.2019891      8192000 
  508000   0.80119017   -4.3922143   -4.3922143   -3.1904294  0.027548451   -4.3922143    1.2017849      8192000 
  509000   0.80138399   -4.3922453   -4.3922453   -3.1901696   0.02373508   -4.3922453    1.2020757      8192000 
  510000   0.80069353   -4.3908514   -4.3908514   -3.1898114  0.022223529   -4.3908514      1.20104      8192000 
  511000   0.80006179   -4.3896708   -4.3896708   -3.1895784  0.020360585   -4.3896708    1.2000924      8192000 
  512000   0.79956298   -4.3886755   -4.3886755   -3.1893313   0.01766672   -4.3886755    1.1993442      8192000 
  513000   0.79950704   -4.3882438   -4.3882438   -3.1889836  0.014721861   -4.3882438    1.1992603      8192000 
  514000   0.79837981    -4.386266    -4.386266   -3.1886965  0.013963959    -4.386266    1.1975694      8192000 
  515000   0.79822164   -4.3855625   -4.3855625   -3.1882304  0.011645951   -4.3855625    1.1973322      8192000 
  516000   0.79799186   -4.3847594   -4.3847594   -3.1877719 0.0082236952   -4.3847594    1.1969875      8192000 
  517000   0.79784158   -4.3843935   -4.3843935   -3.1876315 0.0047345182   -4.3843935    1.1967621      8192000 
  518000   0.79726916   -4.3831379   -4.3831379   -3.1872344 0.0043133419   -4.3831379    1.1959034      8192000 
  519000   0.79719438   -4.3827673   -4.3827673    -3.186976 0.0037805376   -4.3827673    1.1957913      8192000 
  520000   0.79695074   -4.3823565   -4.3823565   -3.1869307 0.0049715293   -4.3823565    1.1954258      8192000 
  521000   0.79767779   -4.3830053   -4.3830053   -3.1864889 0.0046694553   -4.3830053    1.1965164      8192000 
  522000    0.7973003   -4.3822462   -4.3822462    -3.186296  0.006024016   -4.3822462    1.1959502      8192000 
  523000   0.79765312   -4.3826665   -4.3826665   -3.1861872 0.0070935528   -4.3826665    1.1964794      8192000 
  524000   0.79825502    -4.383264    -4.383264   -3.1858818 0.0091331189    -4.383264    1.1973822      8192000 
  525000    0.7988262   -4.3837444   -4.3837444   -3.1855054  0.012874975   -4.3837444     1.198239      8192000 
  526000   0.79977696   -4.3848536   -4.3848536   -3.1851885  0.012386411   -4.3848536    1.1996651      8192000 
  527000   0.80019962   -4.3853184   -4.3853184   -3.1850193  0.015039989   -4.3853184    1.2002991      8192000 
  528000   0.80121638   -4.3863338   -4.3863338   -3.1845095  0.018174813   -4.3863338    1.2018243      8192000 
  529000   0.80145886   -4.3862714   -4.3862714   -3.1840834  0.021133169   -4.3862714     1.202188      8192000 
  530000    0.8022453    -4.387039    -4.387039   -3.1836713  0.022673215    -4.387039    1.2033676      8192000 
  531000   0.80278417   -4.3877148   -4.3877148   -3.1835389  0.023827547   -4.3877148     1.204176      8192000 
  532000   0.80275305   -4.3875285   -4.3875285   -3.1833992  0.024694972   -4.3875285    1.2041293      8192000 
  533000   0.80271065   -4.3872761   -4.3872761   -3.1832105  0.025032286   -4.3872761    1.2040657      8192000 
  534000   0.80325981   -4.3877607   -4.3877607   -3.1828713  0.023464569   -4.3877607    1.2048894      8192000 
  535000   0.80265413   -4.3866931   -4.3866931   -3.1827122  0.023621938   -4.3866931    1.2039809      8192000 
  536000   0.80281131   -4.3867472   -4.3867472   -3.1825305  0.021787418   -4.3867472    1.2042167      8192000 
  537000   0.80229138   -4.3854004   -4.3854004   -3.1819637  0.021670188   -4.3854004    1.2034368      8192000 
  538000   0.80133737   -4.3837455   -4.3837455   -3.1817397  0.020051625   -4.3837455    1.2020058      8192000 
  539000   0.80102429   -4.3828624   -4.3828624   -3.1813263  0.016575932   -4.3828624    1.2015361      8192000 
  540000   0.80103687   -4.3823848   -4.3823848   -3.1808298  0.013403268   -4.3823848     1.201555      8192000 
  541000   0.80020851     -4.38109     -4.38109   -3.1807775  0.012948549     -4.38109    1.2003125      8192000 
  542000   0.79997167   -4.3803152   -4.3803152    -3.180358  0.011466408   -4.3803152    1.1999572      8192000 
  543000   0.79999819   -4.3798882   -4.3798882   -3.1798912 0.0079406293   -4.3798882     1.199997      8192000 
  544000   0.79976503   -4.3793071   -4.3793071   -3.1796599 0.0051764547   -4.3793071    1.1996472      8192000 
  545000   0.79968809   -4.3789924   -4.3789924   -3.1794606 0.0039893175   -4.3789924    1.1995318      8192000 
  546000   0.79946491   -4.3784002   -4.3784002   -3.1792031 0.0042274119   -4.3784002    1.1991971      8192000 
  547000   0.79947048   -4.3778493   -4.3778493   -3.1786439 0.0056594382   -4.3778493    1.1992054      8192000 
  548000   0.79987697   -4.3780579   -4.3780579   -3.1782427 0.0073896106   -4.3780579    1.1998152      8192000 
  549000   0.80073798   -4.3791063   -4.3791063   -3.1779996 0.0067484582   -4.3791063    1.2011067      8192000 
  550000   0.80080762   -4.3787098   -4.3787098   -3.1774986  0.010859713   -4.3787098    1.2012111      8192000 
  551000   0.80100489   -4.3788273   -4.3788273   -3.1773203   0.01380736   -4.3788273     1.201507      8192000 
  552000   0.80184333   -4.3796196   -4.3796196   -3.1768549  0.016813034   -4.3796196    1.2027647      8192000 
  553000   0.80274757   -4.3804102   -4.3804102   -3.1762891  0.018011864   -4.3804102    1.2041211      8192000 
  554000   0.80291262   -4.3803282   -4.3803282   -3.1759595  0.018801955   -4.3803282    1.2043686      8192000 
  555000   0.80394282   -4.3814188   -4.3814188   -3.1755049  0.017693496   -4.3814188    1.2059139      8192000 
  556000   0.80387552   -4.3809863   -4.3809863   -3.1751733  0.022333326   -4.3809863     1.205813      8192000 
  557000   0.80386979   -4.3805294   -4.3805294    -3.174725  0.022377731   -4.3805294    1.2058044      8192000 
  558000   0.80417697   -4.3806178   -4.3806178   -3.1743527  0.023730227   -4.3806178    1.2062652      8192000 
  559000   0.80477713   -4.3812415   -4.3812415   -3.1740761  0.022100377   -4.3812415    1.2071654      8192000 
  560000   0.80486987   -4.3810077   -4.3810077   -3.1737032  0.021440336   -4.3810077    1.2073045      8192000 
  561000   0.80441826   -4.3802688   -4.3802688   -3.1736417  0.020737257   -4.3802688    1.2066271      8192000 
  562000   0.80456038   -4.3801824   -4.3801824   -3.1733421  0.019423266   -4.3801824    1.2068403      8192000 
  563000   0.80411776   -4.3788884   -4.3788884   -3.1727121   0.01844783   -4.3788884    1.2061763      8192000 
  564000   0.80371624   -4.3776994   -4.3776994   -3.1721253   0.01718722   -4.3776994    1.2055741      8192000 
  565000   0.80344265    -4.376987    -4.376987   -3.1718233  0.015069682    -4.376987    1.2051637      8192000 
  566000   0.80320366   -4.3762954   -4.3762954   -3.1714902  0.012856144   -4.3762954    1.2048052      8192000 
  567000   0.80299539   -4.3755978   -4.3755978    -3.171105  0.012769783   -4.3755978    1.2044928      8192000 
  568000   0.80292619   -4.3750134   -4.3750134   -3.1706244  0.011308652   -4.3750134     1.204389      8192000 
  569000   0.80252641   -4.3738617   -4.3738617   -3.1700724  0.010389729   -4.3738617    1.2037893      8192000 
  570000   0.80314403   -4.3742661   -4.3742661   -3.1695504 0.0083661213   -4.3742661    1.2047157      8192000 
  571000   0.80300452   -4.3735795   -4.3735795    -3.169073 0.0073799954   -4.3735795    1.2045065      8192000 
  572000   0.80253112   -4.3726333   -4.3726333   -3.1688369 0.0084949632   -4.3726333    1.2037964      8192000 
  573000   0.80280911   -4.3728157   -4.3728157   -3.1686023 0.0090768267   -4.3728157    1.2042134      8192000 
  574000   0.80260939   -4.3721641   -4.3721641   -3.1682504  0.010641125   -4.3721641    1.2039138      8192000 
  575000   0.80345789   -4.3732371   -4.3732371   -3.1680506 0.0096033642   -4.3732371    1.2051865      8192000 
  576000   0.80344651   -4.3726933   -4.3726933   -3.1675238  0.012026056   -4.3726933    1.2051695      8192000 
  577000   0.80410116   -4.3733927   -4.3733927   -3.1672413  0.011243717   -4.3733927    1.2061514      8192000 
  578000   0.80390772   -4.3728468   -4.3728468   -3.1669855  0.013614344   -4.3728468    1.2058613      8192000 
  579000   0.80502879   -4.3739824   -4.3739824   -3.1664395  0.013879661   -4.3739824    1.2075429      8192000 
  580000   0.80537443   -4.3740903   -4.3740903   -3.1660289  0.016105004   -4.3740903    1.2080613      8192000 
  581000   0.80529182   -4.3735918   -4.3735918   -3.1656543  0.018869689   -4.3735918    1.2079374      8192000 
  582000   0.80597834   -4.3744496   -4.3744496   -3.1654824  0.017662062   -4.3744496    1.2089672      8192000 
  583000   0.80652704    -4.374699    -4.374699   -3.1649087  0.019376188    -4.374699    1.2097903      8192000 
  584000   0.80628191   -4.3738019   -4.3738019   -3.1643793  0.021293472   -4.3738019    1.2094226      8192000 
  585000   0.80642634   -4.3737975   -4.3737975   -3.1641583   0.02043974   -4.3737975    1.2096392      8192000 
  586000   0.80677361   -4.3741235   -4.3741235   -3.1639634  0.020020283   -4.3741235    1.2101601      8192000 
  587000    0.8067478    -4.373836    -4.373836   -3.1637146  0.020612219    -4.373836    1.2101214      8192000 
  588000   0.80667696    -4.373286    -4.373286   -3.1632709  0.018958648    -4.373286    1.2100151      8192000 
  589000   0.80660466   -4.3729837   -4.3729837   -3.1630771  0.016148398   -4.3729837    1.2099067      8192000 
  590000   0.80632812   -4.3723655   -4.3723655   -3.1628737  0.016179642   -4.3723655    1.2094919      8192000 
  591000   0.80600786   -4.3713846   -4.3713846   -3.1623731  0.015753116   -4.3713846    1.2090115      8192000 
  592000   0.80562006   -4.3706809   -4.3706809   -3.1622511  0.015010362   -4.3706809    1.2084298      8192000 
  593000   0.80558255   -4.3703312   -4.3703312   -3.1619576  0.011691925   -4.3703312    1.2083735      8192000 
  594000   0.80550135   -4.3696831   -4.3696831   -3.1614314  0.013709688   -4.3696831    1.2082517      8192000 
  595000   0.80549452   -4.3693195   -4.3693195    -3.161078  0.011676131   -4.3693195    1.2082415      8192000 
  596000   0.80533557   -4.3687423   -4.3687423   -3.1607392  0.012101257   -4.3687423    1.2080031      8192000 
  597000     0.805416   -4.3688017   -4.3688017    -3.160678 0.0096662796   -4.3688017    1.2081237      8192000 
  598000   0.80544617     -4.36847     -4.36847    -3.160301 0.0091542226     -4.36847     1.208169      8192000 
  599000   0.80554673   -4.3681082   -4.3681082   -3.1597884 0.0087477963   -4.3681082    1.2083198      8192000 
  600000   0.80575739   -4.3682294   -4.3682294   -3.1595936 0.0092501916   -4.3682294    1.2086358      8192000 
  601000   0.80554269   -4.3677006   -4.3677006   -3.1593869  0.011773225   -4.3677006    1.2083137      8192000 
  602000   0.80573886   -4.3676592   -4.3676592   -3.1590512  0.011330564   -4.3676592     1.208608      8192000 
  603000   0.80642371   -4.3683196   -4.3683196   -3.1586843  0.012951459   -4.3683196    1.2096353      8192000 
  604000   0.80638108   -4.3679511   -4.3679511   -3.1583798  0.012675931   -4.3679511    1.2095713      8192000 
  605000   0.80681494   -4.3682426   -4.3682426   -3.1580205  0.014535426   -4.3682426    1.2102221      8192000 
  606000   0.80689435   -4.3680533   -4.3680533    -3.157712  0.017511601   -4.3680533    1.2103412      8192000 
  607000    0.8077582   -4.3689107   -4.3689107   -3.1572737   0.01547293   -4.3689107     1.211637      8192000 
  608000   0.80808531   -4.3688789   -4.3688789   -3.1567512  0.015921156   -4.3688789    1.2121277      8192000 
  609000   0.80843548   -4.3689048   -4.3689048   -3.1562519  0.017148712   -4.3689048    1.2126529      8192000 
  610000   0.80793344   -4.3678845   -4.3678845   -3.1559846  0.019921815   -4.3678845    1.2118999      8192000 
  611000   0.80840613   -4.3681816   -4.3681816   -3.1555727   0.01988196   -4.3681816    1.2126089      8192000 
  612000   0.80860634   -4.3679053   -4.3679053   -3.1549961  0.019346529   -4.3679053    1.2129092      8192000 
  613000   0.80859375   -4.3673132   -4.3673132   -3.1544228   0.01984447   -4.3673132    1.2128903      8192000 
  614000   0.80908394   -4.3675948   -4.3675948   -3.1539691  0.017696642   -4.3675948    1.2136256      8192000 
  615000   0.80887753   -4.3670317   -4.3670317   -3.1537157  0.019269387   -4.3670317     1.213316      8192000 
  616000   0.80919343    -4.367016    -4.367016   -3.1532262  0.017072263    -4.367016    1.2137898      8192000 
  617000   0.80859631   -4.3659103   -4.3659103   -3.1530162  0.016721263   -4.3659103    1.2128942      8192000 
  618000   0.80825996   -4.3650128   -4.3650128   -3.1526231  0.015986185   -4.3650128    1.2123896      8192000 
  619000   0.80816486    -4.364407    -4.364407     -3.15216   0.01379603    -4.364407     1.212247      8192000 
  620000   0.80831603   -4.3640274   -4.3640274   -3.1515536  0.014062111   -4.3640274    1.2124737      8192000 
  621000   0.80808611    -4.363438    -4.363438   -3.1513091  0.014047059    -4.363438    1.2121289      8192000 
  622000   0.80828181   -4.3632797   -4.3632797   -3.1508573  0.013110113   -4.3632797    1.2124224      8192000 
  623000   0.80802532   -4.3626538   -4.3626538   -3.1506161  0.010602213   -4.3626538    1.2120377      8192000 
  624000   0.80804135   -4.3619414   -4.3619414   -3.1498797  0.011520197   -4.3619414    1.2120617      8192000 
  625000   0.80816623   -4.3617521   -4.3617521    -3.149503  0.010533723   -4.3617521     1.212249      8192000 
  626000   0.80848196   -4.3617091   -4.3617091   -3.1489865  0.011758816   -4.3617091    1.2127226      8192000 
  627000   0.80858342   -4.3612784   -4.3612784   -3.1484036  0.013018289   -4.3612784    1.2128748      8192000 
  628000   0.80914065   -4.3617799   -4.3617799   -3.1480692  0.011324973   -4.3617799    1.2137107      8192000 
  629000   0.80962667   -4.3617444   -4.3617444   -3.1473047   0.01202054   -4.3617444    1.2144397      8192000 
  630000   0.80922675   -4.3608898   -4.3608898   -3.1470499  0.015507482   -4.3608898    1.2138398      8192000 
  631000    0.8096194   -4.3611697   -4.3611697   -3.1467409  0.015230638   -4.3611697    1.2144288      8192000 
  632000   0.80997281   -4.3611388   -4.3611388   -3.1461799  0.015075826   -4.3611388    1.2149589      8192000 
  633000   0.81040641    -4.361257    -4.361257   -3.1456477  0.016773959    -4.361257    1.2156093      8192000 
  634000   0.81086877    -4.361371    -4.361371   -3.1450681  0.016444183    -4.361371    1.2163029      8192000 
  635000   0.81056368    -4.360589    -4.360589   -3.1447438   0.01867675    -4.360589    1.2158452      8192000 
  636000   0.81087553   -4.3607549   -4.3607549   -3.1444419  0.019568327   -4.3607549     1.216313      8192000 
  637000   0.81110892   -4.3608177   -4.3608177   -3.1441546  0.019202144   -4.3608177    1.2166631      8192000 
  638000   0.81115754   -4.3603894   -4.3603894   -3.1436534  0.018958652   -4.3603894     1.216736      8192000 
  639000   0.81137603   -4.3602048   -4.3602048    -3.143141   0.01931584   -4.3602048    1.2170637      8192000 
  640000   0.81159543   -4.3602661   -4.3602661   -3.1428733  0.020454222   -4.3602661    1.2173928      8192000 
  641000   0.81142277   -4.3597924   -4.3597924   -3.1426585   0.01847476   -4.3597924    1.2171338      8192000 
  642000   0.81157954   -4.3594522   -4.3594522   -3.1420832  0.017842056   -4.3594522     1.217369      8192000 
  643000   0.81141664   -4.3588423   -4.3588423   -3.1417176  0.017480669   -4.3588423    1.2171247      8192000 
  644000   0.81152088   -4.3587885   -4.3587885   -3.1415075  0.015276999   -4.3587885     1.217281      8192000 
  645000   0.81134893   -4.3581665   -4.3581665   -3.1411434  0.017502518   -4.3581665    1.2170231      8192000 
  646000   0.81151181   -4.3580238   -4.3580238   -3.1407564  0.016646808   -4.3580238    1.2172674      8192000 
  647000   0.81191445   -4.3582375   -4.3582375   -3.1403662  0.015040511   -4.3582375    1.2178714      8192000 
  648000   0.81117316   -4.3569414   -4.3569414    -3.140182  0.017379581   -4.3569414    1.2167594      8192000 
  649000   0.81153872   -4.3571839   -4.3571839   -3.1398761  0.015519273   -4.3571839    1.2173078      8192000 
  650000   0.81155427   -4.3564599   -4.3564599   -3.1391288  0.017805617   -4.3564599    1.2173311      8192000 
  651000    0.8117969   -4.3568346   -4.3568346   -3.1391396   0.01465775   -4.3568346     1.217695      8192000 
  652000   0.81173549   -4.3562954   -4.3562954   -3.1386925  0.016676407   -4.3562954    1.2176029      8192000 
  653000   0.81221427   -4.3566205   -4.3566205   -3.1382994  0.016004429   -4.3566205    1.2183211      8192000 
  654000   0.81233356   -4.3564578   -4.3564578   -3.1379578  0.017515199   -4.3564578       1.2185      8192000 
  655000   0.81296615   -4.3572948   -4.3572948   -3.1378459  0.016302668   -4.3572948    1.2194489      8192000 
  656000   0.81284697   -4.3569305   -4.3569305   -3.1376603  0.017301214   -4.3569305    1.2192702      8192000 
  657000   0.81304445   -4.3567696   -4.3567696   -3.1372032  0.017816128   -4.3567696    1.2195664      8192000 
  658000   0.81327785   -4.3568142   -4.3568142   -3.1368977  0.017488702   -4.3568142    1.2199165      8192000 
  659000   0.81390826   -4.3571415   -4.3571415   -3.1362794  0.019150285   -4.3571415    1.2208621      8192000 
  660000   0.81407089   -4.3571054   -4.3571054   -3.1359994  0.019863881   -4.3571054     1.221106      8192000 
  661000   0.81407964   -4.3568896   -4.3568896   -3.1357704   0.02026562   -4.3568896    1.2211192      8192000 
  662000   0.81424881   -4.3566325   -4.3566325   -3.1352596  0.021253769   -4.3566325    1.2213729      8192000 
  663000    0.8148876   -4.3571549   -4.3571549   -3.1348238  0.021099622   -4.3571549    1.2223311      8192000 
  664000   0.81489668   -4.3566107   -4.3566107    -3.134266  0.022783022   -4.3566107    1.2223447      8192000 
  665000   0.81533144   -4.3568245   -4.3568245   -3.1338276  0.021852625   -4.3568245    1.2229969      8192000 
  666000   0.81557438   -4.3568155   -4.3568155   -3.1334543    0.0227823   -4.3568155    1.2233613      8192000 
  667000   0.81562212   -4.3562517   -4.3562517   -3.1328188  0.023632474   -4.3562517    1.2234329      8192000 
  668000     0.815535   -4.3559191   -4.3559191   -3.1326169  0.023937352   -4.3559191    1.2233022      8192000 
  669000   0.81556801    -4.355682    -4.355682   -3.1323303  0.024901386    -4.355682    1.2233517      8192000 
  670000   0.81575446    -4.355578    -4.355578   -3.1319466  0.023145821    -4.355578    1.2236314      8192000 
  671000    0.8157547   -4.3552543   -4.3552543   -3.1316226  0.024589086   -4.3552543    1.2236317      8192000 
  672000   0.81575199   -4.3550293   -4.3550293   -3.1314016  0.023610828   -4.3550293    1.2236277      8192000 
  673000     0.815553    -4.354366    -4.354366   -3.1310368  0.023108042    -4.354366    1.2233292      8192000 
  674000   0.81576808   -4.3542479   -4.3542479    -3.130596  0.022708111   -4.3542479    1.2236518      8192000 
  675000   0.81579014   -4.3536549   -4.3536549     -3.12997  0.022379287   -4.3536549    1.2236849      8192000 
  676000   0.81599963   -4.3535774   -4.3535774   -3.1295782  0.021500433   -4.3535774    1.2239991      8192000 
  677000   0.81588402   -4.3530859   -4.3530859   -3.1292602  0.020755218   -4.3530859    1.2238257      8192000 
  678000   0.81624516   -4.3534942   -4.3534942   -3.1291268  0.019798402   -4.3534942    1.2243674      8192000 
  679000   0.81620072   -4.3528375   -4.3528375   -3.1285367  0.021886309   -4.3528375    1.2243008      8192000 
  680000   0.81623989   -4.3525177   -4.3525177   -3.1281581     0.020061   -4.3525177    1.2243595      8192000 
  681000   0.81642084   -4.3524429   -4.3524429    -3.127812  0.021425158   -4.3524429     1.224631      8192000 
  682000   0.81628879    -4.351736    -4.351736   -3.1273031  0.021743302    -4.351736    1.2244329      8192000 
  683000   0.81689891   -4.3525883   -4.3525883   -3.1272403  0.022007645   -4.3525883    1.2253481      8192000 
  684000   0.81709129   -4.3523377   -4.3523377   -3.1267011  0.023248257   -4.3523377    1.2256366      8192000 
  685000   0.81732012    -4.352723    -4.352723   -3.1267431  0.023544668    -4.352723    1.2259799      8192000 
  686000   0.81761523   -4.3527237   -4.3527237   -3.1263011  0.025134717   -4.3527237    1.2264225      8192000 
  687000   0.81798915    -4.352739    -4.352739   -3.1257556  0.026753987    -4.352739    1.2269834      8192000 
  688000    0.8184068   -4.3529042   -4.3529042   -3.1252943  0.028952393   -4.3529042    1.2276099      8192000 
  689000   0.81871074   -4.3527403   -4.3527403   -3.1246745  0.031793423   -4.3527403    1.2280658      8192000 
  690000   0.81953965   -4.3535426   -4.3535426   -3.1242334  0.031063749   -4.3535426    1.2293092      8192000 
  691000   0.82009111   -4.3539109   -4.3539109   -3.1237746  0.033842031   -4.3539109    1.2301364      8192000 
  692000   0.82013184   -4.3539222   -4.3539222   -3.1237247  0.034268085   -4.3539222    1.2301974      8192000 
  693000   0.82062202   -4.3542009   -4.3542009   -3.1232682  0.036526472   -4.3542009    1.2309327      8192000 
  694000   0.82118913   -4.3547446   -4.3547446   -3.1229612  0.035956139   -4.3547446    1.2317834      8192000 
  695000   0.82212407   -4.3558963   -4.3558963   -3.1227105  0.038024729   -4.3558963    1.2331858      8192000 
  696000   0.82221636   -4.3557308   -4.3557308   -3.1224066  0.040970911   -4.3557308    1.2333242      8192000 
  697000    0.8226437   -4.3563303   -4.3563303   -3.1223651  0.041033856   -4.3563303    1.2339652      8192000 
  698000   0.82265875   -4.3561091   -4.3561091   -3.1221213  0.043683774   -4.3561091    1.2339878      8192000 
  699000    0.8234773   -4.3573382   -4.3573382   -3.1221226  0.043192775   -4.3573382    1.2352156      8192000 
  700000   0.82346935   -4.3570769   -4.3570769   -3.1218732   0.04530218   -4.3570769    1.2352037      8192000 
  701000   0.82439684   -4.3583694   -4.3583694   -3.1217744   0.04636955   -4.3583694    1.2365949      8192000 
  702000   0.82455898   -4.3582259   -4.3582259   -3.1213877  0.048000658   -4.3582259    1.2368382      8192000 
  703000   0.82506286   -4.3587548   -4.3587548   -3.1211608  0.050125686   -4.3587548     1.237594      8192000 
  704000   0.82550034   -4.3595461   -4.3595461   -3.1212959  0.051300605   -4.3595461    1.2382502      8192000 
  705000   0.82612147   -4.3602214   -4.3602214   -3.1210395  0.052540788   -4.3602214    1.2391819      8192000 
  706000   0.82607266   -4.3602601   -4.3602601   -3.1211515  0.054769427   -4.3602601    1.2391087      8192000 
  707000   0.82617007   -4.3605021   -4.3605021   -3.1212473  0.056764635   -4.3605021    1.2392548      8192000 
  708000   0.82666516   -4.3612456   -4.3612456   -3.1212482   0.05625297   -4.3612456    1.2399974      8192000 
  709000    0.8264423   -4.3607366   -4.3607366   -3.1210735  0.058324935   -4.3607366    1.2396631      8192000 
  710000   0.82700295   -4.3614468   -4.3614468   -3.1209427  0.056589127   -4.3614468    1.2405041      8192000 
  711000   0.82682296   -4.3609149   -4.3609149   -3.1206807  0.057666781   -4.3609149    1.2402341      8192000 
  712000   0.82682767   -4.3610308   -4.3610308   -3.1207896  0.056903072   -4.3610308    1.2402412      8192000 
  713000   0.82696135   -4.3610964   -4.3610964   -3.1206547  0.055778283   -4.3610964    1.2404417      8192000 
  714000   0.82671419   -4.3606496   -4.3606496   -3.1205786  0.056480574   -4.3606496     1.240071      8192000 
  715000   0.82641366   -4.3601742   -4.3601742   -3.1205541  0.053803636   -4.3601742    1.2396202      8192000 
  716000   0.82641567   -4.3598503   -4.3598503   -3.1202271  0.053605755   -4.3598503    1.2396232      8192000 
  717000   0.82606677    -4.358893    -4.358893   -3.1197932  0.051859276    -4.358893    1.2390998      8192000 
  718000   0.82552425    -4.357466    -4.357466   -3.1191799  0.052459348    -4.357466    1.2382861      8192000 
  719000   0.82529279   -4.3569144   -4.3569144   -3.1189755  0.049225259   -4.3569144    1.2379389      8192000 
  720000   0.82493024   -4.3561912   -4.3561912   -3.1187961  0.047619434   -4.3561912    1.2373951      8192000 
  721000   0.82446037    -4.354871    -4.354871   -3.1181807  0.046753081    -4.354871    1.2366902      8192000 
  722000    0.8242057   -4.3538689   -4.3538689   -3.1175607  0.045529316   -4.3538689    1.2363082      8192000 
  723000   0.82408815   -4.3532907   -4.3532907   -3.1171588   0.04219974   -4.3532907    1.2361319      8192000 
  724000     0.823686   -4.3521948   -4.3521948   -3.1166661  0.041050694   -4.3521948    1.2355287      8192000 
  725000   0.82360633   -4.3515633   -4.3515633   -3.1161541  0.038192669   -4.3515633    1.2354092      8192000 
  726000   0.82282554   -4.3499263   -4.3499263   -3.1156883  0.037803949   -4.3499263     1.234238      8192000 
  727000   0.82272155   -4.3491727   -4.3491727   -3.1150907  0.034533712   -4.3491727     1.234082      8192000 
  728000   0.82182464   -4.3474332   -4.3474332   -3.1146966  0.034118989   -4.3474332    1.2327366      8192000 
  729000   0.82138391   -4.3459695   -4.3459695   -3.1138939  0.033131985   -4.3459695    1.2320755      8192000 
  730000   0.82121264   -4.3448505   -4.3448505   -3.1130319  0.028736072   -4.3448505    1.2318186      8192000 
  731000   0.82058219   -4.3429153   -4.3429153   -3.1120423  0.027456638   -4.3429153     1.230873      8192000 
  732000   0.82020837   -4.3415525   -4.3415525   -3.1112403  0.024235444   -4.3415525    1.2303123      8192000 
  733000   0.81957564   -4.3397646   -4.3397646   -3.1104015  0.021197573   -4.3397646    1.2293632      8192000 
  734000   0.81916602   -4.3381383   -4.3381383   -3.1093896  0.018485505   -4.3381383    1.2287487      8192000 
  735000     0.818957   -4.3370974   -4.3370974   -3.1086622  0.013400845   -4.3370974    1.2284352      8192000 
  736000   0.81790862   -4.3346438   -4.3346438   -3.1077812   0.01343976   -4.3346438    1.2268626      8192000 
  737000   0.81808089   -4.3338578   -4.3338578   -3.1067368 0.0097875096   -4.3338578     1.227121      8192000 
  738000   0.81733402   -4.3318456   -4.3318456   -3.1058448 0.0085877214   -4.3318456    1.2260007      8192000 
  739000   0.81690521   -4.3304383   -4.3304383   -3.1050808 0.0049134557   -4.3304383    1.2253575      8192000 
  740000   0.81624441   -4.3285941   -4.3285941   -3.1042277 0.0033226094   -4.3285941    1.2243663      8192000 
  741000   0.81584954   -4.3270929   -4.3270929   -3.1033189 0.00037933669   -4.3270929     1.223774      8192000 
  742000   0.81530264   -4.3252471   -4.3252471   -3.1022934 -6.0541908e-05   -4.3252471    1.2229537      8192000 
  743000   0.81480216   -4.3236955   -4.3236955   -3.1014926 -0.0026731349   -4.3236955    1.2222029      8192000 
  744000   0.81469173    -4.322473    -4.322473   -3.1004357 -0.0058876252    -4.322473    1.2220373      8192000 
  745000   0.81461659    -4.321276    -4.321276   -3.0993515 -0.0091791215    -4.321276    1.2219246      8192000 
  746000   0.81383343   -4.3192857   -4.3192857   -3.0985359 -0.007780143   -4.3192857    1.2207498      8192000 
  747000   0.81376734   -4.3183512   -4.3183512   -3.0977005 -0.0099895546   -4.3183512    1.2206507      8192000 
  748000   0.81357117   -4.3171177   -4.3171177   -3.0967612 -0.013123878   -4.3171177    1.2203565      8192000 
  749000   0.81313711   -4.3155729   -4.3155729   -3.0958676 -0.012440044   -4.3155729    1.2197054      8192000 
  750000   0.81308054   -4.3145993   -4.3145993   -3.0949788 -0.013273519   -4.3145993    1.2196205      8192000 
  751000   0.81275247   -4.3131649   -4.3131649   -3.0940365 -0.014130293   -4.3131649    1.2191284      8192000 
  752000    0.8128521   -4.3122242   -4.3122242   -3.0929463 -0.015034957   -4.3122242    1.2192778      8192000 
  753000   0.81330282   -4.3118369   -4.3118369    -3.091883 -0.016095356   -4.3118369    1.2199539      8192000 
  754000   0.81249026   -4.3097406   -4.3097406   -3.0910055 -0.015566735   -4.3097406    1.2187351      8192000 
  755000    0.8128338   -4.3091456   -4.3091456   -3.0898953 -0.017689697   -4.3091456    1.2192504      8192000 
  756000   0.81281911   -4.3081419   -4.3081419   -3.0889135 -0.017210168   -4.3081419    1.2192284      8192000 
  757000   0.81269566   -4.3070884   -4.3070884   -3.0880452 -0.018494282   -4.3070884    1.2190432      8192000 
  758000   0.81302506   -4.3064709   -4.3064709   -3.0869336 -0.020471459   -4.3064709    1.2195373      8192000 
  759000   0.81275828    -4.305221    -4.305221   -3.0860839 -0.018547112    -4.305221    1.2191371      8192000 
  760000   0.81280931   -4.3043919   -4.3043919   -3.0851782 -0.017505262   -4.3043919    1.2192137      8192000 
  761000   0.81304335   -4.3039871   -4.3039871   -3.0844223 -0.018247665   -4.3039871    1.2195647      8192000 
  762000   0.81295652   -4.3031682   -4.3031682   -3.0837338 -0.018001323   -4.3031682    1.2194345      8192000 
  763000   0.81319055   -4.3025718   -4.3025718   -3.0827863 -0.018461329   -4.3025718    1.2197855      8192000 
  764000   0.81387537   -4.3028736   -4.3028736   -3.0820608 -0.019259258   -4.3028736    1.2208127      8192000 
  765000   0.81372729   -4.3021084   -4.3021084   -3.0815178 -0.018239858   -4.3021084    1.2205906      8192000 
  766000   0.81425427   -4.3020053   -4.3020053   -3.0806242 -0.016921959   -4.3020053    1.2213811      8192000 
  767000   0.81417504   -4.3009677   -4.3009677   -3.0797055 -0.015570819   -4.3009677    1.2212623      8192000 
  768000    0.8146898   -4.3009958   -4.3009958   -3.0789614 -0.017020057   -4.3009958    1.2220344      8192000 
  769000   0.81471422   -4.3002037   -4.3002037   -3.0781327 -0.013974493   -4.3002037     1.222071      8192000 
  770000   0.81511694   -4.3003524   -4.3003524   -3.0776773 -0.015996077   -4.3003524    1.2226751      8192000 
  771000    0.8150682   -4.2997812   -4.2997812   -3.0771792 -0.012847869   -4.2997812     1.222602      8192000 
  772000   0.81532816   -4.2996133   -4.2996133   -3.0766214 -0.011909679   -4.2996133    1.2229919      8192000 
  773000   0.81579711   -4.2997651   -4.2997651   -3.0760697 -0.012571839   -4.2997651    1.2236954      8192000 
  774000   0.81607574   -4.2994542   -4.2994542   -3.0753409 -0.012031287   -4.2994542    1.2241133      8192000 
  775000   0.81678289   -4.2997582   -4.2997582   -3.0745842 -0.011853491   -4.2997582     1.225174      8192000 
  776000   0.81702688   -4.2996003   -4.2996003   -3.0740602 -0.010698314   -4.2996003      1.22554      8192000 
  777000   0.81727571   -4.2996187   -4.2996187   -3.0737055 -0.0091458823   -4.2996187    1.2259133      8192000 
  778000   0.81788334    -4.299907    -4.299907   -3.0730823 -0.0083722434    -4.299907    1.2268247      8192000 
  779000   0.81775501   -4.2993559   -4.2993559   -3.0727237 -0.0059064302   -4.2993559    1.2266322      8192000 
  780000   0.81812431   -4.2992674   -4.2992674   -3.0720812 -0.0051387296   -4.2992674    1.2271862      8192000 
  781000    0.8185612   -4.2995917   -4.2995917   -3.0717502 -0.0030135643   -4.2995917    1.2278415      8192000 
  782000   0.81897839   -4.2999391   -4.2999391   -3.0714718 -0.0027952314   -4.2999391    1.2284673      8192000 
  783000   0.81928619   -4.3000168   -4.3000168   -3.0710878 -0.0020979601   -4.3000168     1.228929      8192000 
  784000   0.81988548    -4.300503    -4.300503   -3.0706751 0.00040756668    -4.300503    1.2298279      8192000 
  785000   0.82063765   -4.3014131   -4.3014131   -3.0704569 0.0020480203   -4.3014131    1.2309562      8192000 
  786000   0.82094087   -4.3016559   -4.3016559   -3.0702449 0.0018389667   -4.3016559     1.231411      8192000 
  787000   0.82121062   -4.3018004   -4.3018004   -3.0699848 0.0043139695   -4.3018004    1.2318156      8192000 
  788000   0.82171503   -4.3024078   -4.3024078   -3.0698356 0.0038753391   -4.3024078    1.2325722      8192000 
  789000   0.82180005   -4.3020953   -4.3020953   -3.0693956  0.006304754   -4.3020953    1.2326998      8192000 
  790000    0.8222252   -4.3024734   -4.3024734   -3.0691359  0.010525798   -4.3024734    1.2333375      8192000 
  791000   0.82296484    -4.303629    -4.303629    -3.069182 0.0079500018    -4.303629     1.234447      8192000 
  792000   0.82293932   -4.3033265   -4.3033265   -3.0689178 0.0099927303   -4.3033265    1.2344087      8192000 
  793000   0.82363581   -4.3044842   -4.3044842   -3.0690308 0.0086811593   -4.3044842    1.2354534      8192000 
  794000   0.82332828   -4.3037983   -4.3037983   -3.0688061  0.011509484   -4.3037983    1.2349921      8192000 
  795000   0.82377395   -4.3042236   -4.3042236    -3.068563  0.013402339   -4.3042236    1.2356606      8192000 
  796000   0.82401361   -4.3043512   -4.3043512   -3.0683311  0.014610612   -4.3043512    1.2360201      8192000 
  797000   0.82497401   -4.3055783   -4.3055783   -3.0681176  0.014201167   -4.3055783    1.2374607      8192000 
  798000   0.82499774   -4.3054885   -4.3054885   -3.0679922  0.017010366   -4.3054885    1.2374963      8192000 
  799000   0.82530041   -4.3056805   -4.3056805   -3.0677302  0.017832033   -4.3056805    1.2379503      8192000 
  800000   0.82530989   -4.3055032   -4.3055032   -3.0675386  0.021080995   -4.3055032    1.2379645      8192000 
  801000   0.82561331   -4.3060769   -4.3060769   -3.0676573  0.020051027   -4.3060769    1.2384197      8192000 
  802000   0.82627935   -4.3068478   -4.3068478   -3.0674291  0.020041528   -4.3068478    1.2394187      8192000 
  803000   0.82629886   -4.3068927   -4.3068927   -3.0674447  0.021921859   -4.3068927     1.239448      8192000 
  804000   0.82652013   -4.3068049   -4.3068049    -3.067025  0.024147003   -4.3068049    1.2397799      8192000 
  805000   0.82674756   -4.3068362   -4.3068362   -3.0667151  0.023331636   -4.3068362     1.240121      8192000 
  806000   0.82723925   -4.3076023   -4.3076023   -3.0667438   0.02407315   -4.3076023    1.2408586      8192000 
  807000   0.82687147   -4.3067909   -4.3067909    -3.066484  0.026075064   -4.3067909    1.2403069      8192000 
  808000   0.82739172   -4.3074651   -4.3074651   -3.0663779  0.024468131   -4.3074651    1.2410873      8192000 
  809000   0.82762527   -4.3076317   -4.3076317   -3.0661941  0.023278893   -4.3076317    1.2414376      8192000 
  810000   0.82788463   -4.3077827   -4.3077827    -3.065956  0.026400251   -4.3077827    1.2418266      8192000 
  811000   0.82817801    -4.308057    -4.308057   -3.0657903  0.026737382    -4.308057    1.2422667      8192000 
  812000    0.8278962   -4.3072786   -4.3072786   -3.0654346  0.027991398   -4.3072786     1.241844      8192000 
  813000   0.82875955   -4.3080604   -4.3080604   -3.0649214  0.027451457   -4.3080604     1.243139      8192000 
  814000   0.82847486   -4.3073398   -4.3073398   -3.0646278  0.030709117   -4.3073398     1.242712      8192000 
  815000   0.82891881    -4.307837    -4.307837   -3.0644591  0.028947632    -4.307837    1.2433779      8192000 
  816000   0.82940217   -4.3081367   -4.3081367   -3.0640338  0.029572022   -4.3081367    1.2441029      8192000 
  817000   0.82956097   -4.3082264   -4.3082264   -3.0638853  0.030201582   -4.3082264    1.2443411      8192000 
  818000    0.8292168   -4.3073666   -4.3073666   -3.0635417  0.031556593   -4.3073666    1.2438249      8192000 
  819000   0.82944222   -4.3074061   -4.3074061   -3.0632431  0.030853816   -4.3074061     1.244163      8192000 
  820000   0.82944812   -4.3073483   -4.3073483   -3.0631765  0.030111875   -4.3073483    1.2441719      8192000 
  821000   0.82914636   -4.3064607   -4.3064607   -3.0627415   0.03231256   -4.3064607    1.2437192      8192000 
  822000   0.82948778   -4.3067498   -4.3067498   -3.0625185  0.032717632   -4.3067498    1.2442314      8192000 
  823000   0.82946341   -4.3061518   -4.3061518    -3.061957  0.031990411   -4.3061518    1.2441948      8192000 
  824000   0.82965105   -4.3058879   -4.3058879   -3.0614117  0.029929784   -4.3058879    1.2444763      8192000 
  825000   0.82967031   -4.3054835   -4.3054835   -3.0609784  0.029665032   -4.3054835    1.2445052      8192000 
  826000   0.82935107    -4.304798    -4.304798   -3.0607717  0.030789733    -4.304798    1.2440263      8192000 
  827000   0.82943954   -4.3044471   -4.3044471   -3.0602882  0.029050469   -4.3044471     1.244159      8192000 
  828000   0.82961637   -4.3040917   -4.3040917   -3.0596675  0.028884071   -4.3040917    1.2444242      8192000 
  829000   0.82942271    -4.303441    -4.303441   -3.0593073  0.026889336    -4.303441    1.2441337      8192000 
  830000   0.82927946    -4.302632    -4.302632   -3.0587131  0.027099725    -4.302632    1.2439189      8192000 
  831000   0.82912753    -4.302074    -4.302074    -3.058383  0.026453348    -4.302074     1.243691      8192000 
  832000   0.82888149   -4.3011733   -4.3011733   -3.0578514  0.026855237   -4.3011733    1.2433219      8192000 
  833000   0.82880523   -4.3005995   -4.3005995    -3.057392    0.0257741   -4.3005995    1.2432075      8192000 
  834000   0.82868575   -4.2999665   -4.2999665   -3.0569382  0.023371207   -4.2999665    1.2430283      8192000 
  835000   0.82844545   -4.2992149   -4.2992149    -3.056547  0.024378066   -4.2992149    1.2426679      8192000 
  836000   0.82818433   -4.2979762   -4.2979762      -3.0557  0.024331372   -4.2979762    1.2422762      8192000 
  837000   0.82847159   -4.2977694   -4.2977694   -3.0550623  0.022551572   -4.2977694    1.2427071      8192000 
  838000   0.82809629   -4.2968139   -4.2968139   -3.0546697  0.020747981   -4.2968139    1.2421441      8192000 
  839000   0.82780434   -4.2958125   -4.2958125   -3.0541063   0.02040773   -4.2958125    1.2417062      8192000 
  840000   0.82782074   -4.2953023   -4.2953023   -3.0535715  0.019376175   -4.2953023    1.2417308      8192000 
  841000   0.82756012   -4.2944548   -4.2944548   -3.0531149  0.018237637   -4.2944548    1.2413399      8192000 
  842000   0.82767604     -4.29369     -4.29369   -3.0521762  0.017814613     -4.29369    1.2415137      8192000 
  843000   0.82740057   -4.2926511   -4.2926511   -3.0515505  0.016695179   -4.2926511    1.2411005      8192000 
  844000   0.82753342   -4.2922459   -4.2922459   -3.0509461  0.015753346   -4.2922459    1.2412998      8192000 
  845000   0.82720667   -4.2909422   -4.2909422   -3.0501325  0.015609797   -4.2909422    1.2408097      8192000 
  846000   0.82723996   -4.2904774   -4.2904774   -3.0496177  0.013887897   -4.2904774    1.2408596      8192000 
  847000   0.82711999   -4.2895996   -4.2895996   -3.0489199  0.011646715   -4.2895996    1.2406797      8192000 
  848000   0.82690357   -4.2883497   -4.2883497   -3.0479947  0.012365192   -4.2883497     1.240355      8192000 
  849000   0.82683888   -4.2873434   -4.2873434   -3.0470854  0.012134427   -4.2873434     1.240258      8192000 
  850000   0.82669538   -4.2864197   -4.2864197    -3.046377  0.011726883   -4.2864197    1.2400428      8192000 
  851000   0.82727927    -4.286404    -4.286404   -3.0454854  0.010341577    -4.286404    1.2409186      8192000 
  852000   0.82686619    -4.285119    -4.285119     -3.04482 0.0098565778    -4.285119     1.240299      8192000 
  853000   0.82676196   -4.2841059   -4.2841059   -3.0439633  0.010118262   -4.2841059    1.2401426      8192000 
  854000    0.8267683    -4.283316    -4.283316   -3.0431639 0.0088357586    -4.283316    1.2401521      8192000 
  855000   0.82675139   -4.2826391   -4.2826391   -3.0425124 0.0087398659   -4.2826391    1.2401268      8192000 
  856000   0.82669074   -4.2816348   -4.2816348    -3.041599 0.0091204335   -4.2816348    1.2400358      8192000 
  857000   0.82634911   -4.2802675   -4.2802675   -3.0407442 0.0090689788   -4.2802675    1.2395234      8192000 
  858000   0.82636623   -4.2795804   -4.2795804   -3.0400314  0.007873585   -4.2795804     1.239549      8192000 
  859000   0.82612842    -4.278716    -4.278716   -3.0395237 0.0070583216    -4.278716    1.2391923      8192000 
  860000   0.82632386   -4.2779567   -4.2779567   -3.0384713 0.0055479992   -4.2779567    1.2394855      8192000 
  861000   0.82646452   -4.2773409   -4.2773409   -3.0376445 0.0060569032   -4.2773409    1.2396965      8192000 
  862000   0.82617967   -4.2761024   -4.2761024   -3.0368332 0.0052198996   -4.2761024    1.2392692      8192000 
  863000   0.82657305   -4.2758067   -4.2758067   -3.0359474 0.0045249437   -4.2758067    1.2398593      8192000 
  864000   0.82623465   -4.2745434   -4.2745434   -3.0351917 0.0047811923   -4.2745434    1.2393517      8192000 
  865000   0.82663883   -4.2743077   -4.2743077   -3.0343498 0.0030796273   -4.2743077    1.2399579      8192000 
  866000   0.82624346   -4.2730998   -4.2730998   -3.0337349  0.002862142   -4.2730998    1.2393649      8192000 
  867000   0.82614935   -4.2724708   -4.2724708   -3.0332471 0.0035402736   -4.2724708    1.2392237      8192000 
  868000   0.82615705   -4.2716866   -4.2716866   -3.0324513 0.0032190714   -4.2716866    1.2392353      8192000 
  869000   0.82620355   -4.2708916   -4.2708916   -3.0315866 0.0045094119   -4.2708916     1.239305      8192000 
  870000   0.82633031   -4.2701563   -4.2701563   -3.0306612 0.0037819755   -4.2701563    1.2394952      8192000 
  871000    0.8265191   -4.2698361   -4.2698361   -3.0300578 0.0011723287   -4.2698361    1.2397783      8192000 
  872000   0.82657109   -4.2689231   -4.2689231   -3.0290667 0.0019545418   -4.2689231    1.2398563      8192000 
  873000   0.82691793   -4.2687784   -4.2687784   -3.0284018 0.0012986678   -4.2687784    1.2403766      8192000 
  874000   0.82669425   -4.2676102   -4.2676102   -3.0275691 -0.00035048011   -4.2676102    1.2400411      8192000 
  875000   0.82615354    -4.266247    -4.266247    -3.027017 0.0025008373    -4.266247      1.23923      8192000 
  876000   0.82703395   -4.2666499   -4.2666499   -3.0260993 0.00097171989   -4.2666499    1.2405506      8192000 
  877000    0.8269965   -4.2659434   -4.2659434   -3.0254489 0.0017044114   -4.2659434    1.2404944      8192000 
  878000   0.82668994   -4.2649953   -4.2649953   -3.0249607 0.0043502833   -4.2649953    1.2400346      8192000 
  879000   0.82728675   -4.2653458   -4.2653458    -3.024416 0.0016758437   -4.2653458    1.2409298      8192000 
  880000   0.82733508   -4.2647597   -4.2647597   -3.0237574 0.0025130327   -4.2647597    1.2410023      8192000 
  881000   0.82731298   -4.2639658   -4.2639658   -3.0229966 0.0016610028   -4.2639658    1.2409692      8192000 
  882000   0.82723825   -4.2632328   -4.2632328   -3.0223757 0.0008973881   -4.2632328    1.2408571      8192000 
  883000   0.82755781   -4.2628074   -4.2628074    -3.021471 0.0011258947   -4.2628074    1.2413364      8192000 
  884000   0.82743759   -4.2618872   -4.2618872   -3.0207311 0.0028649038   -4.2618872    1.2411561      8192000 
  885000    0.8278959   -4.2620235   -4.2620235   -3.0201799 0.0021921537   -4.2620235    1.2418435      8192000 
  886000   0.82797082   -4.2613601   -4.2613601   -3.0194042 0.0038535806   -4.2613601    1.2419559      8192000 
  887000   0.82819939   -4.2611386   -4.2611386   -3.0188398 0.0032155301   -4.2611386    1.2422988      8192000 
  888000   0.82788663   -4.2600904   -4.2600904   -3.0182607 0.0027877304   -4.2600904    1.2418296      8192000 
  889000   0.82830056   -4.2602349   -4.2602349   -3.0177843 0.0028668325   -4.2602349    1.2424505      8192000 
  890000   0.82847945   -4.2597135   -4.2597135   -3.0169946 0.0054125692   -4.2597135    1.2427189      8192000 
  891000   0.82870447   -4.2595539   -4.2595539   -3.0164975 0.0047194266   -4.2595539    1.2430564      8192000 
  892000   0.82863062   -4.2591491   -4.2591491   -3.0162035 0.0044137325   -4.2591491    1.2429456      8192000 
  893000   0.82913415   -4.2592488   -4.2592488   -3.0155479 0.0055134372   -4.2592488    1.2437009      8192000 
  894000   0.82891291   -4.2585097   -4.2585097   -3.0151406 0.0051054248   -4.2585097    1.2433691      8192000 
  895000   0.82846045   -4.2572451   -4.2572451   -3.0145547 0.0066698032   -4.2572451    1.2426904      8192000 
  896000   0.82941516   -4.2579621   -4.2579621   -3.0138397 0.0054952876   -4.2579621    1.2441224      8192000 
  897000   0.82955792    -4.257658    -4.257658   -3.0133214 0.0051600517    -4.257658    1.2443366      8192000 
  898000   0.83008829    -4.257594    -4.257594   -3.0124619 0.0044174507    -4.257594    1.2451321      8192000 
  899000   0.82975624   -4.2568421   -4.2568421    -3.012208 0.0046851452   -4.2568421     1.244634      8192000 
  900000   0.82992103   -4.2566401   -4.2566401   -3.0117589 0.0051155878   -4.2566401    1.2448812      8192000 
  901000   0.82997999   -4.2560058   -4.2560058   -3.0110361 0.0061814877   -4.2560058    1.2449697      8192000 
  902000   0.83031907   -4.2559039   -4.2559039   -3.0104256 0.0060427004   -4.2559039    1.2454783      8192000 
  903000   0.83034103   -4.2553005   -4.2553005   -3.0097893 0.0079492667   -4.2553005    1.2455112      8192000 
  904000   0.83074372   -4.2557228   -4.2557228   -3.0096075  0.006758112   -4.2557228    1.2461153      8192000 
  905000   0.83086018   -4.2553141   -4.2553141   -3.0090241 0.0065965221   -4.2553141      1.24629      8192000 
  906000   0.83118394   -4.2553713   -4.2553713   -3.0085957 0.0080976561   -4.2553713    1.2467756      8192000 
  907000   0.83091587   -4.2545127   -4.2545127   -3.0081392  0.010104668   -4.2545127    1.2463735      8192000 
  908000   0.83115445   -4.2542425   -4.2542425   -3.0075112  0.010477826   -4.2542425    1.2467314      8192000 
  909000   0.83172783   -4.2546022   -4.2546022   -3.0070108 0.0097556312   -4.2546022    1.2475914      8192000 
  910000   0.83183561   -4.2544478   -4.2544478   -3.0066947  0.010220311   -4.2544478    1.2477531      8192000 
  911000   0.83170735   -4.2539297   -4.2539297    -3.006369  0.011209198   -4.2539297    1.2475607      8192000 
  912000   0.83202916   -4.2539539   -4.2539539   -3.0059104  0.011560117   -4.2539539    1.2480434      8192000 
  913000   0.83228198   -4.2539581   -4.2539581   -3.0055355  0.010950033   -4.2539581    1.2484227      8192000 
  914000   0.83254649   -4.2540727   -4.2540727   -3.0052533 0.0092253168   -4.2540727    1.2488194      8192000 
  915000   0.83229583   -4.2533176   -4.2533176   -3.0048741  0.011700451   -4.2533176    1.2484434      8192000 
  916000   0.83287236   -4.2535201   -4.2535201   -3.0042118 0.0099284589   -4.2535201    1.2493082      8192000 
  917000   0.83298718   -4.2534333   -4.2534333   -3.0039528  0.012592768   -4.2534333    1.2494805      8192000 
  918000   0.83286493   -4.2525886   -4.2525886   -3.0032915  0.013311131   -4.2525886    1.2492971      8192000 
  919000    0.8333514   -4.2527744   -4.2527744   -3.0027476  0.012352551   -4.2527744    1.2500268      8192000 
  920000   0.83311535   -4.2522535   -4.2522535   -3.0025807  0.014368913   -4.2522535    1.2496727      8192000 
  921000   0.83322888    -4.251943    -4.251943   -3.0020999  0.013936021    -4.251943     1.249843      8192000 
  922000   0.83327649   -4.2514763   -4.2514763   -3.0015619   0.01295276   -4.2514763    1.2499144      8192000 
  923000   0.83349914   -4.2513671   -4.2513671   -3.0011187  0.014170471   -4.2513671    1.2502484      8192000 
  924000   0.83370505    -4.251331    -4.251331   -3.0007737  0.013860852    -4.251331    1.2505573      8192000 
  925000   0.83376412   -4.2507417   -4.2507417   -3.0000958  0.016308249   -4.2507417    1.2506459      8192000 
  926000   0.83353216   -4.2500443   -4.2500443   -2.9997463  0.014284746   -4.2500443    1.2502979      8192000 
  927000   0.83396972   -4.2503495   -4.2503495   -2.9993952  0.012354716   -4.2503495    1.2509543      8192000 
  928000   0.83358904   -4.2493356   -4.2493356   -2.9989524  0.013593951   -4.2493356    1.2503832      8192000 
  929000   0.83393788   -4.2496568   -4.2496568   -2.9987503  0.012733071   -4.2496568    1.2509065      8192000 
  930000   0.83421937   -4.2496364   -4.2496364   -2.9983076   0.01376142   -4.2496364    1.2513287      8192000 
  931000   0.83403121   -4.2487028   -4.2487028   -2.9976562  0.014727487   -4.2487028    1.2510465      8192000 
  932000   0.83454406   -4.2490494   -4.2490494   -2.9972336  0.014144969   -4.2490494    1.2518158      8192000 
  933000   0.83457442   -4.2486583   -4.2486583    -2.996797   0.01481848   -4.2486583    1.2518613      8192000 
  934000   0.83466587   -4.2482038   -4.2482038   -2.9962053  0.015831975   -4.2482038    1.2519985      8192000 
  935000   0.83464734   -4.2476375   -4.2476375   -2.9956668  0.016527139   -4.2476375    1.2519707      8192000 
  936000   0.83491482   -4.2476119   -4.2476119     -2.99524  0.015315296   -4.2476119    1.2523719      8192000 
  937000   0.83488794   -4.2473317   -4.2473317   -2.9950001  0.016963544   -4.2473317    1.2523316      8192000 
  938000    0.8351513   -4.2473044   -4.2473044   -2.9945778  0.016713716   -4.2473044    1.2527266      8192000 
  939000   0.83524004   -4.2468301   -4.2468301   -2.9939704  0.017979689   -4.2468301    1.2528597      8192000 
  940000   0.83543704   -4.2466985   -4.2466985   -2.9935432  0.017387218   -4.2466985    1.2531553      8192000 
  941000   0.83588004   -4.2468548   -4.2468548   -2.9930351  0.016992862   -4.2468548    1.2538197      8192000 
  942000   0.83599143   -4.2465574   -4.2465574   -2.9925706  0.015490006   -4.2465574    1.2539868      8192000 
  943000   0.83575491   -4.2457564   -4.2457564   -2.9921243  0.016060511   -4.2457564     1.253632      8192000 
  944000    0.8356421   -4.2450081   -4.2450081   -2.9915453  0.017062229   -4.2450081    1.2534628      8192000 
  945000   0.83583322   -4.2449734   -4.2449734   -2.9912238  0.016495843   -4.2449734    1.2537495      8192000 
  946000   0.83585601   -4.2443224   -4.2443224   -2.9905387  0.016562169   -4.2443224    1.2537837      8192000 
  947000   0.83614616   -4.2441541   -4.2441541   -2.9899352  0.016979136   -4.2441541    1.2542189      8192000 
  948000   0.83586935   -4.2434745   -4.2434745   -2.9896708  0.018551039   -4.2434745    1.2538037      8192000 
  949000    0.8362947   -4.2434984   -4.2434984   -2.9890567  0.018460286   -4.2434984    1.2544417      8192000 
  950000   0.83634907   -4.2427868   -4.2427868   -2.9882635  0.019864168   -4.2427868    1.2545233      8192000 
  951000   0.83658119   -4.2425664   -4.2425664   -2.9876949  0.018805536   -4.2425664    1.2548715      8192000 
  952000   0.83639639   -4.2422352   -4.2422352   -2.9876409  0.017532653   -4.2422352    1.2545943      8192000 
  953000    0.8366468   -4.2419676   -4.2419676   -2.9869977   0.01755004   -4.2419676    1.2549699      8192000 
  954000   0.83681235    -4.241516    -4.241516   -2.9862978  0.019378254    -4.241516    1.2552182      8192000 
  955000   0.83648661   -4.2405529   -4.2405529   -2.9858233  0.019209083   -4.2405529    1.2547296      8192000 
  956000    0.8369607    -4.241082    -4.241082   -2.9856413  0.016159546    -4.241082    1.2554407      8192000 
  957000   0.83678527   -4.2401183   -4.2401183   -2.9849407  0.018808921   -4.2401183    1.2551776      8192000 
  958000   0.83699811   -4.2397866   -4.2397866   -2.9842898  0.016101659   -4.2397866    1.2554968      8192000 
  959000   0.83681095   -4.2389295   -4.2389295   -2.9837134  0.016868951   -4.2389295    1.2552161      8192000 
  960000   0.83688508    -4.238672    -4.238672   -2.9833447  0.015699415    -4.238672    1.2553273      8192000 
  961000   0.83691102   -4.2380225   -4.2380225   -2.9826563  0.016004155   -4.2380225    1.2553662      8192000 
  962000   0.83706765   -4.2371857   -4.2371857   -2.9815845   0.01611385   -4.2371857    1.2556012      8192000 
  963000   0.83692775    -4.236264    -4.236264   -2.9808727  0.017115622    -4.236264    1.2553913      8192000 
  964000   0.83747199   -4.2363367   -4.2363367    -2.980129  0.017765713   -4.2363367    1.2562077      8192000 
  965000   0.83733249   -4.2356054   -4.2356054   -2.9796069  0.018212947   -4.2356054    1.2559984      8192000 
  966000   0.83779014   -4.2357616   -4.2357616   -2.9790767  0.015691441   -4.2357616    1.2566849      8192000 
  967000   0.83737592   -4.2346839   -4.2346839   -2.9786203   0.01695132   -4.2346839    1.2560636      8192000 
  968000   0.83763531   -4.2342436   -4.2342436   -2.9777909  0.016430852   -4.2342436    1.2564526      8192000 
  969000   0.83769839    -4.233808    -4.233808   -2.9772607  0.017977975    -4.233808    1.2565473      8192000 
  970000   0.83794247   -4.2337013   -4.2337013   -2.9767879  0.016404755   -4.2337013    1.2569134      8192000 
  971000   0.83782876   -4.2327461   -4.2327461   -2.9760033  0.017855555   -4.2327461    1.2567428      8192000 
  972000   0.83824225   -4.2329349   -4.2329349   -2.9755718  0.017714439   -4.2329349    1.2573631      8192000 
  973000   0.83825066   -4.2324517   -4.2324517   -2.9750761  0.017254205   -4.2324517    1.2573757      8192000 
  974000   0.83833953   -4.2320049   -4.2320049   -2.9744959  0.016575827   -4.2320049     1.257509      8192000 
  975000   0.83841205    -4.231337    -4.231337   -2.9737192  0.017050317    -4.231337    1.2576178      8192000 
  976000   0.83820025   -4.2306796   -4.2306796   -2.9733795  0.015868848   -4.2306796    1.2573001      8192000 
  977000   0.83802412   -4.2295615   -4.2295615   -2.9725256  0.017676468   -4.2295615    1.2570359      8192000 
  978000   0.83816105   -4.2288911   -4.2288911   -2.9716498  0.016752012   -4.2288911    1.2572413      8192000 
  979000    0.8385653   -4.2289635   -4.2289635   -2.9711159  0.016454658   -4.2289635    1.2578476      8192000 
  980000   0.83850823   -4.2281935   -4.2281935   -2.9704314  0.017479743   -4.2281935     1.257762      8192000 
  981000   0.83847077   -4.2276485   -4.2276485   -2.9699426  0.015356944   -4.2276485    1.2577058      8192000 
  982000   0.83812996   -4.2263837   -4.2263837   -2.9691891  0.017805619   -4.2263837    1.2571946      8192000 
  983000   0.83841417   -4.2259498   -4.2259498   -2.9683289  0.018202572   -4.2259498    1.2576209      8192000 
  984000   0.83863955   -4.2256016   -4.2256016   -2.9676426  0.015998117   -4.2256016     1.257959      8192000 
  985000   0.83883584   -4.2251833   -4.2251833   -2.9669299  0.014749163   -4.2251833    1.2582534      8192000 
  986000   0.83843745   -4.2239293   -4.2239293   -2.9662734  0.015378462   -4.2239293    1.2576559      8192000 
  987000   0.83861311   -4.2236765   -4.2236765   -2.9657571  0.013607933   -4.2236765    1.2579194      8192000 
  988000   0.83827857    -4.222489    -4.222489   -2.9650715   0.01496707    -4.222489    1.2574175      8192000 
  989000   0.83830208   -4.2216415   -4.2216415   -2.9641887  0.014173214   -4.2216415    1.2574528      8192000 
  990000   0.83815283   -4.2210483   -4.2210483   -2.9638194  0.013995813   -4.2210483    1.2572289      8192000 
  991000   0.83863084   -4.2210409   -4.2210409    -2.963095  0.012188503   -4.2210409     1.257946      8192000 
  992000   0.83837397   -4.2197661   -4.2197661   -2.9622055  0.014159754   -4.2197661    1.2575606      8192000 
  993000    0.8386381   -4.2195301   -4.2195301   -2.9615732  0.011779852   -4.2195301    1.2579568      8192000 
  994000   0.83803812   -4.2179699   -4.2179699   -2.9609131  0.015453407   -4.2179699    1.2570569      8192000 
  995000   0.83905972   -4.2186873   -4.2186873   -2.9600981    0.0126848   -4.2186873    1.2585893      8192000 
  996000   0.83865289   -4.2176398   -4.2176398   -2.9596608  0.016221496   -4.2176398     1.257979      8192000 
  997000   0.83908992   -4.2175337   -4.2175337   -2.9588991  0.013280878   -4.2175337    1.2586346      8192000 
  998000   0.83910162   -4.2170456   -4.2170456   -2.9583935      0.01194   -4.2170456    1.2586521      8192000 
  999000   0.83894489   -4.2160736   -4.2160736   -2.9576566    0.0116674   -4.2160736     1.258417      8192000 
 1000000   0.83904649   -4.2152803   -4.2152803   -2.9567109  0.011839219   -4.2152803    1.2585694      8192000 
Loop time of 41475.5 on 128 procs for 1000000 steps with 3993600 atoms

Performance: 5207.889 tau/day, 24.111 timesteps/s
99.5% CPU use with 128 MPI tasks x 1 OpenMP threads

MPI task timing breakdown:
Section |  min time  |  avg time  |  max time  |%varavg|  %CPU | %total
-----------------------------------------------------------------------
Pair    | 9136.7     | 15408      | 22005      |1865.3 |  99.7 | 37.15
Bond    | 0.54143    | 0.70629    | 0.89739    |  10.3 | 100.0 |  0.00
Neigh   | 2262.8     | 3649.6     | 5141.6     | 834.5 | 100.0 |  8.80
Comm    | 10891      | 19631      | 28530      |2245.9 |  99.3 | 47.33
Output  | 72.913     | 73.442     | 73.454     |   0.6 |  98.8 |  0.18
Modify  | 428.39     | 852.27     | 2252.8     |1561.4 |  99.7 |  2.05
Other   |            | 1861       |            |       |       |  4.49

Nlocal:        31200.0 ave       32757 max       30343 min
Histogram: 3 3 22 79 11 5 1 2 1 1
Nghost:        17250.2 ave       18795 max       13473 min
Histogram: 17 12 3 0 0 0 0 0 29 67
Neighs:    1.07696e+06 ave 1.15742e+06 max      904579 min
Histogram: 13 3 0 4 1 15 13 24 30 25

Total # of neighbors = 1.3785086e+08
Ave neighs/atom = 34.517943
Ave special neighs/atom = 0.0000000
Neighbor list builds = 67152
Dangerous builds = 2347
Total wall time: 11:31:22
