LAMMPS (24 Dec 2020)
OMP_NUM_THREADS environment is not set. Defaulting to 1 thread. (src/comm.cpp:94)
  using 1 OpenMP thread(s) per MPI task
#Read the equilibrated lj fluid and add nanocubes

units           lj
atom_style      full
atom_modify     map array first cubes
dimension       3
boundary        p p f
pair_style      lj/cut/opt 2.5

variable        sigma           equal 1.0
variable        epsilon         equal 1.0
read_restart	restart.dat.3000000
Reading restart file ...
  restart file = 29 Oct 2020, LAMMPS = 24 Dec 2020
  restoring atom style full from restart
  orthogonal box = (0.0000000 0.0000000 0.0000000) to (100.00000 100.00000 200.00000)
  4 by 5 by 12 MPI processor grid
  restoring pair style lj/cut/opt from restart
  1010000 atoms
Finding 1-2 1-3 1-4 neighbors ...
  special bond factors lj:    0        0        0       
  special bond factors coul:  0        0        0       
     0 = max # of 1-2 neighbors
     0 = max # of 1-3 neighbors
     0 = max # of 1-4 neighbors
     1 = max # of special neighbors
  special bonds CPU = 1.957 seconds
  read_restart CPU = 2.551 seconds

group		solvent type 1
1010000 atoms in group solvent

read_data	data490_seed1.cubes group cubes add append
Reading data file ...
  orthogonal box = (0.0000000 0.0000000 0.0000000) to (100.00000 100.00000 200.00000)
  4 by 5 by 12 MPI processor grid
  reading atoms ...
  560070 atoms
  reading velocities ...
  560070 velocities
Finding 1-2 1-3 1-4 neighbors ...
  special bond factors lj:    0        0        0       
  special bond factors coul:  0        0        0       
     0 = max # of 1-2 neighbors
     0 = max # of 1-3 neighbors
     0 = max # of 1-4 neighbors
     1 = max # of special neighbors
  special bonds CPU = 0.007 seconds
  read_data CPU = 1.544 seconds

neighbor      0.4 bin
neigh_modify  exclude molecule/intra cubes


pair_modify   shift yes

pair_coeff    1 1 1.0 1.0 #solvent
pair_coeff    2 2 0.6 1.0 #np
pair_coeff    3 3 0.0 0.0 0.0 #dummy
pair_coeff    2 3 0.0 0.0 0.0 #np dummy
pair_coeff    1 2 0.8 1.0 #np solvent
pair_coeff    1 3 0.0 0.0 0.0 #dummy solvent


# delete solvent where the cubes are
delete_atoms  overlap 1.0 solvent cubes
System init for delete_atoms ...
Neighbor list info ...
  update every 1 steps, delay 10 steps, check yes
  max neighbors/atom: 2000, page size: 100000
  master list distance cutoff = 2.9
  ghost atom cutoff = 2.9
  binsize = 1.45, bins = 69 69 138
  2 neighbor lists, perpetual/occasional/extra = 1 1 0
  (1) command delete_atoms, occasional
      attributes: full, newton on
      pair build: full/bin
      stencil: full/bin/3d
      bin: standard
  (2) pair lj/cut/opt, perpetual
      attributes: half, newton on
      pair build: half/bin/newton
      stencil: half/bin/3d/newton
      bin: standard
WARNING: Delete_atoms cutoff > minimum neighbor cutoff (src/delete_atoms.cpp:307)
WARNING: Ignoring 'compress yes' for molecular system (src/delete_atoms.cpp:125)
Deleted 317179 atoms, new total = 1252891



comm_modify   mode multi cutoff/multi 1 2.5 cutoff/multi 2 2.5 cutoff/multi 3 6.95

reset_timestep 	0

balance 	1.05 shift z 10 1.05
Balancing ...
Neighbor list info ...
  update every 1 steps, delay 10 steps, check yes
  max neighbors/atom: 2000, page size: 100000
  master list distance cutoff = 2.9
  ghost atom cutoff = 6.95
  binsize = 1.45, bins = 69 69 138
  1 neighbor lists, perpetual/occasional/extra = 1 0 0
  (1) pair lj/cut/opt, perpetual
      attributes: half, newton on
      pair build: half/bin/newton
      stencil: half/bin/3d/newton
      bin: standard
 rebalancing time: 0.013 seconds
  iteration count = 4
  initial/final maximal load/proc = 8226.0000 7750.0000
  initial/final imbalance factor  = 1.5757476 1.4845665
  x cuts: 0.0000000 0.25000000 0.50000000 0.75000000 1.0000000
  y cuts: 0.0000000 0.20000000 0.40000000 0.60000000 0.80000000 1.0000000
  z cuts: 0.0000000 0.057291667 0.11979167 0.17187500 0.23958333 0.28125000 0.34375000 0.41145833 0.46354167 0.51562500 0.56250000 0.64583333 1.0000000

####################### WALLS ###########################

variable       epsilonWall equal 2*${epsilon}
variable       epsilonWall equal 2*1

variable       cutoffTop   equal   0.7147*${sigma}
variable       cutoffTop   equal   0.7147*1

variable       cutoffLow   equal   3*${sigma}
variable       cutoffLow   equal   3*1

region         lowWall block EDGE EDGE EDGE EDGE EDGE 2


fix            topWall all wall/lj93 zhi EDGE 	       ${epsilonWall} ${sigma} ${cutoffTop} units box
fix            topWall all wall/lj93 zhi EDGE 	       2 ${sigma} ${cutoffTop} units box
fix            topWall all wall/lj93 zhi EDGE 	       2 1 ${cutoffTop} units box
fix            topWall all wall/lj93 zhi EDGE 	       2 1 0.7147 units box

fix            lowWall all wall/lj93 zlo EDGE                ${epsilonWall} ${sigma} ${cutoffLow} units box
fix            lowWall all wall/lj93 zlo EDGE                2 ${sigma} ${cutoffLow} units box
fix            lowWall all wall/lj93 zlo EDGE                2 1 ${cutoffLow} units box
fix            lowWall all wall/lj93 zlo EDGE                2 1 3 units box




###################### COMPUTES ##########################

compute        bin1 solvent chunk/atom bin/1d z upper 1.0


######################  FIXES ############################


fix             peclet solvent ave/chunk 1000 1 1000 bin1 density/number norm                  none ave one file density.profile

fix              temp solvent ave/chunk 1000 1 1000 bin1 temp norm                  none ave one file temp.profile

fix             1 cubes rigid/nve/small molecule #temp 1.0 1.0 0.25
  create bodies CPU = 0.043 seconds
  490 rigid bodies with 560070 atoms
  6.9283446 = max distance from body owner to body atom

fix             2 solvent nve


## Thermostat

region          regthermo block EDGE EDGE EDGE EDGE 0 20

group           thermo dynamic solvent region regthermo every 1000
dynamic group thermo defined

fix             3 thermo langevin ${startTemp} ${temp} 0.1 156453
fix             3 thermo langevin 0.8 ${temp} 0.1 156453
fix             3 thermo langevin 0.8 0.8 0.1 156453




#### Load balancing

fix             bal all balance 1000 1.05 shift z 10 1.05

############### Diagnostics and computes ###################

compute        com cubes          rigid/local   1 mol x y z
compute        quat cubes         rigid/local   1 mol quatw quati quatj quatk
compute 	cc2 cubes chunk/atom molecule

compute 	msd cubes msd/chunk cc2

thermo          1000
thermo_style    custom step temp epair evdwl etotal press pe ke atoms

dump            1 all custom 100000 dump.lammpstrj id mol type x y z
dump            2 all image 10000 image.*.png type type

dump_modify     2 pad 8


dump		image cubes image 10000 image_cubes.*.png type type

dump_modify	image pad 8

dump            3 all movie 5000 movie.avi type type
dump           com cubes local 1000 dump.*.xyz c_com[*]
dump           quat cubes      local 1000 dump.*.quat c_quat[*]


restart         500000 restart.dat
timestep        0.005
timer           full
New timer settings: style=full  mode=nosync  timeout=off

run            3000000
Per MPI rank memory allocation (min/avg/max) = 17.45 | 28.11 | 30.16 Mbytes
Step Temp E_pair E_vdwl TotEng Press PotEng KinEng Atoms 
       0   0.88237228   -2.3069393   -2.3069393   -1.5740066  -0.17032453   -2.3069393   0.73293274  1252891 
    1000   0.86907013   -2.3125365   -2.3125365   -1.5906531 -0.065647663   -2.3125365   0.72188345  1252891 
    2000   0.86733856   -2.3155534   -2.3155534   -1.5951083  -0.08050208   -2.3155534   0.72044515  1252891 
    3000   0.86919114   -2.3197863   -2.3197863   -1.5978024 -0.069512299   -2.3197863   0.72198397  1252891 
    4000   0.86917931    -2.322759    -2.322759   -1.6007848 -0.066000081    -2.322759   0.72197414  1252891 
    5000   0.87056992   -2.3264749   -2.3264749   -1.6033456 -0.058309155   -2.3264749   0.72312924  1252891 
    6000   0.87432226   -2.3308114   -2.3308114   -1.6045654 -0.060179134   -2.3308114   0.72624608  1252891 
    7000   0.87591014   -2.3346218   -2.3346218   -1.6070568 -0.034163794   -2.3346218   0.72756504  1252891 
    8000   0.87938351    -2.340157    -2.340157   -1.6097069 -0.025242013    -2.340157   0.73045015  1252891 
    9000   0.88145305   -2.3442496   -2.3442496   -1.6120804 -0.0011876743   -2.3442496   0.73216919  1252891 
   10000   0.88595599   -2.3499153   -2.3499153   -1.6140058 0.0068045339   -2.3499153   0.73590951  1252891 
   11000   0.88971684   -2.3563999   -2.3563999   -1.6173665  0.025729584   -2.3563999   0.73903342  1252891 
   12000    0.8944706   -2.3624262   -2.3624262   -1.6194441  0.045384559   -2.3624262   0.74298208  1252891 
   13000   0.89658621   -2.3667663   -2.3667663   -1.6220269  0.060545802   -2.3667663   0.74473938  1252891 
   14000   0.89960352   -2.3714124   -2.3714124   -1.6241667  0.067886396   -2.3714124   0.74724567  1252891 
   15000   0.89928462   -2.3744211   -2.3744211   -1.6274403  0.076844377   -2.3744211   0.74698079  1252891 
   16000   0.89873258   -2.3756792   -2.3756792   -1.6291569  0.076901804   -2.3756792   0.74652224  1252891 
   17000   0.89945329   -2.3784156   -2.3784156   -1.6312947  0.082606481   -2.3784156   0.74712089  1252891 
   18000   0.89803393   -2.3800555   -2.3800555   -1.6341136  0.063613033   -2.3800555   0.74594192  1252891 
   19000    0.8939707   -2.3788476   -2.3788476   -1.6362807  0.064897775   -2.3788476   0.74256684  1252891 
   20000   0.89078924   -2.3771149   -2.3771149   -1.6371908  0.045340565   -2.3771149    0.7399242  1252891 
   21000   0.88761636   -2.3754612   -2.3754612   -1.6381725  0.029746514   -2.3754612   0.73728868  1252891 
   22000   0.88415514    -2.372848    -2.372848   -1.6384343  0.017732725    -2.372848   0.73441365  1252891 
   23000   0.88267912   -2.3722795   -2.3722795   -1.6390919  0.010677822   -2.3722795   0.73318761  1252891 
   24000   0.87957815   -2.3711289   -2.3711289   -1.6405171 -0.014748583   -2.3711289   0.73061183  1252891 
   25000   0.87633789   -2.3681785   -2.3681785   -1.6402581 -0.020010171   -2.3681785   0.72792034  1252891 
   26000   0.87394116   -2.3670553   -2.3670553   -1.6411258 -0.024087146   -2.3670553   0.72592952  1252891 
   27000   0.87288877   -2.3666363   -2.3666363   -1.6415809 -0.021781504   -2.3666363   0.72505537  1252891 
   28000   0.87300616   -2.3666659   -2.3666659    -1.641513 -0.029422334   -2.3666659   0.72515287  1252891 
   29000   0.87248829    -2.366935    -2.366935   -1.6422123 -0.014631844    -2.366935   0.72472272  1252891 
   30000   0.87332559   -2.3681472   -2.3681472    -1.642729 -0.036121253   -2.3681472   0.72541821  1252891 
   31000   0.87261506   -2.3687887   -2.3687887   -1.6439607 -0.027039474   -2.3687887   0.72482801  1252891 
   32000   0.87271359   -2.3685589   -2.3685589    -1.643649 -0.010311907   -2.3685589   0.72490985  1252891 
   33000   0.87662464   -2.3727953   -2.3727953   -1.6446368 -0.010871522   -2.3727953   0.72815852  1252891 
   34000   0.87705329   -2.3730901   -2.3730901   -1.6445755 0.0054817521   -2.3730901   0.72851458  1252891 
   35000   0.87887297   -2.3764479   -2.3764479   -1.6464218 -0.0008874772   -2.3764479   0.73002608  1252891 
   36000   0.88017118   -2.3781787   -2.3781787   -1.6470742 0.0094325526   -2.3781787   0.73110442  1252891 
   37000   0.88193957   -2.3811567   -2.3811567   -1.6485834  0.022501179   -2.3811567   0.73257332  1252891 
   38000   0.88536643   -2.3839392   -2.3839392   -1.6485194  0.020771564   -2.3839392    0.7354198  1252891 
   39000   0.88644404   -2.3865182   -2.3865182   -1.6502033  0.037920314   -2.3865182    0.7363149  1252891 
   40000   0.88703294   -2.3889667   -2.3889667   -1.6521626   0.04039115   -2.3889667   0.73680406  1252891 
   41000   0.88757795   -2.3900479   -2.3900479   -1.6527911  0.047145756   -2.3900479   0.73725677  1252891 
   42000   0.88760831   -2.3917091   -2.3917091   -1.6544272   0.05435775   -2.3917091   0.73728199  1252891 
   43000   0.88682012   -2.3921034   -2.3921034   -1.6554761  0.053738419   -2.3921034   0.73662728  1252891 
   44000   0.88729235    -2.392648    -2.392648   -1.6556285  0.049999724    -2.392648   0.73701954  1252891 
   45000   0.88559566   -2.3926034   -2.3926034   -1.6569932  0.054802404   -2.3926034    0.7356102  1252891 
   46000   0.88396263   -2.3921633   -2.3921633   -1.6579096   0.04067996   -2.3921633   0.73425374  1252891 
   47000   0.88376625   -2.3917894   -2.3917894   -1.6576988   0.03401535   -2.3917894   0.73409062  1252891 
   48000   0.88082062   -2.3902725   -2.3902725   -1.6586286  0.027194536   -2.3902725   0.73164387  1252891 
   49000   0.87941839   -2.3901141   -2.3901141    -1.659635  0.012425391   -2.3901141   0.73047913  1252891 
   50000   0.87870811   -2.3889998   -2.3889998   -1.6591107  0.011833848   -2.3889998   0.72988913  1252891 
   51000   0.87704596   -2.3886062   -2.3886062   -1.6600977  0.013460187   -2.3886062   0.72850849  1252891 
   52000    0.8759242   -2.3880041   -2.3880041   -1.6604274 0.0037336641   -2.3880041   0.72757672  1252891 
   53000    0.8749137   -2.3875325   -2.3875325   -1.6607951  0.003398157   -2.3875325   0.72673735  1252891 
   54000   0.87541745   -2.3873641   -2.3873641   -1.6602083  0.016171891   -2.3873641   0.72715579  1252891 
   55000    0.8748471    -2.387652    -2.387652   -1.6609699 0.0080026593    -2.387652   0.72668203  1252891 
   56000   0.87587392    -2.389198    -2.389198   -1.6616631 -0.0039390085    -2.389198   0.72753495  1252891 
   57000   0.87508645   -2.3896287   -2.3896287   -1.6627479 0.0080206563   -2.3896287   0.72688084  1252891 
   58000   0.87678547   -2.3905329   -2.3905329   -1.6622408 0.0059159577   -2.3905329   0.72829212  1252891 
   59000   0.87802057    -2.391902    -2.391902   -1.6625839  0.021340201    -2.391902   0.72931804  1252891 
   60000   0.87748009   -2.3925238   -2.3925238   -1.6636547  0.019697399   -2.3925238   0.72886909  1252891 
   61000   0.87829538   -2.3936416   -2.3936416   -1.6640953  0.024012074   -2.3936416   0.72954631  1252891 
   62000   0.87908973   -2.3945966   -2.3945966   -1.6643905  0.027029072   -2.3945966   0.73020612  1252891 
   63000   0.87986645   -2.3961173   -2.3961173    -1.665266  0.030616242   -2.3961173   0.73085129  1252891 
   64000   0.88034631   -2.3976242   -2.3976242   -1.6663743  0.036642389   -2.3976242   0.73124989  1252891 
   65000    0.8807921   -2.3980048   -2.3980048   -1.6663847  0.032400734   -2.3980048   0.73162018  1252891 
   66000    0.8811371   -2.3987113   -2.3987113   -1.6668045  0.040884716   -2.3987113   0.73190675  1252891 
   67000   0.88182311   -2.4005136   -2.4005136    -1.668037  0.043145456   -2.4005136   0.73247657  1252891 
   68000   0.88082205   -2.4006223   -2.4006223   -1.6689772  0.036911637   -2.4006223   0.73164506  1252891 
   69000    0.8800415   -2.4008241   -2.4008241   -1.6698274  0.041000316   -2.4008241   0.73099671  1252891 
   70000   0.87957588   -2.4003045   -2.4003045   -1.6696945  0.049230331   -2.4003045   0.73060994  1252891 
   71000   0.88063408   -2.4014863   -2.4014863   -1.6699974  0.043471884   -2.4014863   0.73148892  1252891 
   72000   0.88069223   -2.4016027   -2.4016027   -1.6700655  0.032585428   -2.4016027   0.73153722  1252891 
   73000   0.87957108   -2.4016183   -2.4016183   -1.6710123   0.03589721   -2.4016183   0.73060595  1252891 
   74000   0.87801027   -2.4002029   -2.4002029   -1.6708934  0.032947167   -2.4002029   0.72930949  1252891 
   75000   0.87688468   -2.4000196   -2.4000196   -1.6716451  0.024178461   -2.4000196   0.72837453  1252891 
   76000   0.87683046   -2.3999203   -2.3999203   -1.6715908  0.021332763   -2.3999203   0.72832949  1252891 
   77000   0.87608412    -2.400491    -2.400491   -1.6727815  0.026130041    -2.400491   0.72770954  1252891 
   78000   0.87588859   -2.4004724   -2.4004724   -1.6729252  0.020454037   -2.4004724   0.72754713  1252891 
   79000    0.8763365   -2.4009138   -2.4009138   -1.6729946     0.023656   -2.4009138   0.72791919  1252891 
   80000   0.87582048   -2.4007692   -2.4007692   -1.6732786  0.020864405   -2.4007692   0.72749056  1252891 
   81000    0.8757538   -2.4010622   -2.4010622    -1.673627  0.024179138   -2.4010622   0.72743517  1252891 
   82000   0.87639424   -2.4017483   -2.4017483   -1.6737812  0.025852236   -2.4017483   0.72796714  1252891 
   83000   0.87649305   -2.4019887   -2.4019887   -1.6739395  0.020899487   -2.4019887   0.72804922  1252891 
   84000   0.87757658   -2.4032893   -2.4032893   -1.6743401  0.025755702   -2.4032893   0.72894924  1252891 
   85000   0.87690818   -2.4031512   -2.4031512   -1.6747572  0.029865752   -2.4031512   0.72839404  1252891 
   86000   0.87747605   -2.4041593   -2.4041593   -1.6752936  0.035034643   -2.4041593   0.72886574  1252891 
   87000    0.8773685    -2.405213    -2.405213   -1.6764366   0.03102753    -2.405213    0.7287764  1252891 
   88000   0.87777175   -2.4045899   -2.4045899   -1.6754785  0.034543056   -2.4045899   0.72911136  1252891 
   89000   0.87843138   -2.4065035   -2.4065035   -1.6768442  0.028418341   -2.4065035   0.72965927  1252891 
   90000   0.87978171   -2.4064828   -2.4064828   -1.6757019  0.041749648   -2.4064828   0.73078091  1252891 
   91000   0.87759896   -2.4062574   -2.4062574   -1.6772896  0.043576731   -2.4062574   0.72896783  1252891 
   92000     0.877919   -2.4062694   -2.4062694   -1.6770358  0.030710817   -2.4062694   0.72923367  1252891 
   93000   0.87922074   -2.4076113   -2.4076113   -1.6772964  0.037209391   -2.4076113   0.73031495  1252891 
   94000   0.87736819   -2.4063285   -2.4063285   -1.6775523  0.038909339   -2.4063285   0.72877615  1252891 
   95000   0.87867883   -2.4080116   -2.4080116   -1.6781468   0.03180213   -2.4080116   0.72986481  1252891 
   96000   0.87731199   -2.4075791   -2.4075791   -1.6788497  0.028709988   -2.4075791   0.72872946  1252891 
   97000   0.87833876   -2.4078438   -2.4078438   -1.6782614   0.02726967   -2.4078438   0.72958234  1252891 
   98000   0.87710979   -2.4079731   -2.4079731   -1.6794116  0.033071613   -2.4079731   0.72856151  1252891 
   99000   0.87611885   -2.4083493   -2.4083493   -1.6806109  0.021892323   -2.4083493    0.7277384  1252891 
  100000   0.87646061   -2.4083319   -2.4083319   -1.6803096  0.024195514   -2.4083319   0.72802228  1252891 
  101000   0.87460118   -2.4067751   -2.4067751   -1.6802973  0.028605925   -2.4067751   0.72647776  1252891 
  102000   0.87580185   -2.4076452   -2.4076452   -1.6801701   0.03344296   -2.4076452   0.72747508  1252891 
  103000   0.87551774   -2.4067488   -2.4067488   -1.6795097  0.036391699   -2.4067488   0.72723909  1252891 
  104000    0.8756946   -2.4081015   -2.4081015   -1.6807155  0.024002787   -2.4081015     0.727386  1252891 
  105000   0.87472633   -2.4070679   -2.4070679   -1.6804862  0.027829502   -2.4070679   0.72658171  1252891 
  106000   0.87599392   -2.4077675   -2.4077675   -1.6801329   0.03268532   -2.4077675   0.72763462  1252891 
  107000   0.87543814    -2.408332    -2.408332    -1.681159  0.020949376    -2.408332   0.72717297  1252891 
  108000   0.87527759   -2.4087821   -2.4087821   -1.6817425  0.033862429   -2.4087821   0.72703961  1252891 
  109000   0.87581615   -2.4084804   -2.4084804   -1.6809934  0.031867572   -2.4084804   0.72748696  1252891 
  110000   0.87605367    -2.409229    -2.409229   -1.6815447  0.041425317    -2.409229   0.72768426  1252891 
  111000   0.87639597    -2.409516    -2.409516   -1.6815474  0.037560962    -2.409516   0.72796858  1252891 
  112000   0.87473841   -2.4090231   -2.4090231   -1.6824314   0.03394647   -2.4090231   0.72659175  1252891 
  113000   0.87511703   -2.4099854   -2.4099854   -1.6830792  0.041962277   -2.4099854   0.72690624  1252891 
  114000   0.87568581   -2.4109328   -2.4109328   -1.6835541  0.036206312   -2.4109328   0.72737869  1252891 
  115000   0.87538282   -2.4102712   -2.4102712   -1.6831442  0.031750073   -2.4102712   0.72712702  1252891 
  116000   0.87510183    -2.410119    -2.410119   -1.6832254  0.036862368    -2.410119   0.72689362  1252891 
  117000   0.87488436   -2.4106227   -2.4106227   -1.6839097    0.0364072   -2.4106227   0.72671298  1252891 
  118000   0.87484179   -2.4118534   -2.4118534   -1.6851757  0.034810438   -2.4118534   0.72667762  1252891 
  119000   0.87620539    -2.412487    -2.412487   -1.6846767  0.027720866    -2.412487   0.72781028  1252891 
  120000   0.87598013   -2.4121299   -2.4121299   -1.6845067  0.039969781   -2.4121299   0.72762317  1252891 
  121000   0.87427636   -2.4118776   -2.4118776   -1.6856697  0.042261145   -2.4118776   0.72620795  1252891 
  122000   0.87513368   -2.4125104   -2.4125104   -1.6855903  0.031048769   -2.4125104   0.72692007  1252891 
  123000   0.87414378   -2.4114676   -2.4114676   -1.6853698  0.041696919   -2.4114676   0.72609783  1252891 
  124000   0.87452871   -2.4128327   -2.4128327   -1.6864152   0.03407074   -2.4128327   0.72641756  1252891 
  125000   0.87564659   -2.4139006   -2.4139006   -1.6865545  0.028936535   -2.4139006   0.72734612  1252891 
  126000   0.87408219   -2.4133534   -2.4133534   -1.6873067  0.034924107   -2.4133534   0.72604667  1252891 
  127000   0.87362886   -2.4125355   -2.4125355   -1.6868653  0.031372335   -2.4125355   0.72567011  1252891 
  128000   0.87422569   -2.4135044   -2.4135044   -1.6873385  0.045512385   -2.4135044   0.72616587  1252891 
  129000    0.8740557   -2.4140551   -2.4140551   -1.6880304  0.028984215   -2.4140551   0.72602467  1252891 
  130000   0.87317078   -2.4137685   -2.4137685   -1.6884789  0.041657457   -2.4137685   0.72528961  1252891 
  131000   0.87428674   -2.4146701   -2.4146701   -1.6884536  0.041246597   -2.4146701   0.72621658  1252891 
  132000   0.87281387   -2.4144475   -2.4144475   -1.6894544  0.025324871   -2.4144475   0.72499315  1252891 
  133000   0.87430603   -2.4154041   -2.4154041   -1.6891715  0.034475798   -2.4154041    0.7262326  1252891 
  134000   0.87477401    -2.416063    -2.416063   -1.6894417  0.033340357    -2.416063   0.72662132  1252891 
  135000   0.87546742    -2.416481    -2.416481   -1.6892837  0.035300371    -2.416481   0.72719729  1252891 
  136000   0.87276544    -2.415284    -2.415284    -1.690331  0.041619946    -2.415284   0.72495292  1252891 
  137000   0.87344435   -2.4158414   -2.4158414   -1.6903246  0.033137524   -2.4158414   0.72551685  1252891 
  138000   0.87497147   -2.4168919   -2.4168919   -1.6901065  0.036115391   -2.4168919   0.72678534  1252891 
  139000   0.87416984   -2.4166092   -2.4166092   -1.6904897  0.045677578   -2.4166092   0.72611947  1252891 
  140000   0.87497944   -2.4174075   -2.4174075   -1.6906155  0.039919447   -2.4174075   0.72679196  1252891 
  141000   0.87370167   -2.4173922   -2.4173922   -1.6916616  0.038521046   -2.4173922   0.72573059  1252891 
  142000   0.87325995   -2.4173485   -2.4173485   -1.6919848  0.031878786   -2.4173485   0.72536368  1252891 
  143000   0.87373788   -2.4176016   -2.4176016   -1.6918409  0.040125865   -2.4176016   0.72576067  1252891 
  144000   0.87347424   -2.4172119   -2.4172119   -1.6916702  0.042853819   -2.4172119   0.72554168  1252891 
  145000     0.873221   -2.4172543   -2.4172543    -1.691923   0.04166254   -2.4172543   0.72533133  1252891 
  146000   0.87324335   -2.4180817   -2.4180817   -1.6927318  0.038586042   -2.4180817    0.7253499  1252891 
  147000   0.87341962   -2.4175558   -2.4175558   -1.6920595  0.034011595   -2.4175558   0.72549631  1252891 
  148000   0.87278378   -2.4173075   -2.4173075   -1.6923393  0.029831111   -2.4173075   0.72496816  1252891 
  149000   0.87258777   -2.4174744   -2.4174744   -1.6926691  0.037134108   -2.4174744   0.72480534  1252891 
  150000   0.87386203   -2.4180248   -2.4180248    -1.692161  0.041394763   -2.4180248   0.72586379  1252891 
  151000    0.8725496   -2.4180472   -2.4180472   -1.6932735  0.033383346   -2.4180472   0.72477364  1252891 
  152000   0.87312924    -2.418011    -2.418011   -1.6927559  0.034847242    -2.418011   0.72525511  1252891 
  153000   0.87265623   -2.4180752   -2.4180752    -1.693213  0.041972031   -2.4180752   0.72486221  1252891 
  154000   0.87208293   -2.4171862   -2.4171862   -1.6928001  0.045284387   -2.4171862   0.72438601  1252891 
  155000   0.87291371   -2.4177943   -2.4177943   -1.6927182  0.036435847   -2.4177943   0.72507608  1252891 
  156000    0.8721761   -2.4181683   -2.4181683   -1.6937049  0.041298311   -2.4181683   0.72446339  1252891 
  157000   0.87282566    -2.418957    -2.418957    -1.693954  0.039365339    -2.418957   0.72500295  1252891 
  158000    0.8724966   -2.4186243   -2.4186243   -1.6938947  0.038151988   -2.4186243   0.72472961  1252891 
  159000   0.87274531   -2.4196436   -2.4196436   -1.6947074  0.043680459   -2.4196436    0.7249362  1252891 
  160000   0.87263106   -2.4200034   -2.4200034   -1.6951621   0.03930841   -2.4200034    0.7248413  1252891 
  161000   0.87200117   -2.4198016   -2.4198016   -1.6954835  0.047322407   -2.4198016   0.72431809  1252891 
  162000   0.87225287   -2.4200787   -2.4200787   -1.6955516  0.039384274   -2.4200787   0.72452716  1252891 
  163000   0.87286552   -2.4204434   -2.4204434   -1.6954074  0.038812036   -2.4204434   0.72503605  1252891 
  164000   0.87173783    -2.420148    -2.420148   -1.6960487  0.046910868    -2.420148   0.72409935  1252891 
  165000    0.8725382   -2.4207263   -2.4207263   -1.6959621  0.032772526   -2.4207263   0.72476417  1252891 
  166000   0.87214728   -2.4201965   -2.4201965    -1.695757  0.042595397   -2.4201965   0.72443946  1252891 
  167000   0.87134386   -2.4196875   -2.4196875   -1.6959154   0.04055524   -2.4196875    0.7237721  1252891 
  168000   0.87208723   -2.4205572   -2.4205572   -1.6961676  0.040931045   -2.4205572   0.72438958  1252891 
  169000   0.87110325   -2.4193785   -2.4193785   -1.6958063  0.033413278   -2.4193785   0.72357224  1252891 
  170000   0.87123131     -2.42039     -2.42039   -1.6967114  0.032361838     -2.42039   0.72367862  1252891 
  171000   0.87117767   -2.4200642   -2.4200642   -1.6964301  0.033139431   -2.4200642   0.72363406  1252891 
  172000   0.87024614    -2.420567    -2.420567   -1.6977067  0.030862219    -2.420567   0.72286029  1252891 
  173000   0.86962328   -2.4197254   -2.4197254   -1.6973825  0.038974254   -2.4197254   0.72234292  1252891 
  174000   0.87033696   -2.4209113   -2.4209113   -1.6979755  0.044724849   -2.4209113   0.72293574  1252891 
  175000   0.87140198   -2.4222523   -2.4222523   -1.6984319   0.03526802   -2.4222523   0.72382038  1252891 
  176000   0.87110442   -2.4219503   -2.4219503    -1.698377  0.031657543   -2.4219503   0.72357322  1252891 
  177000   0.87289355   -2.4228999   -2.4228999   -1.6978406  0.038221886   -2.4228999   0.72505934  1252891 
  178000   0.87160353   -2.4221837   -2.4221837   -1.6981959  0.044820031   -2.4221837    0.7239878  1252891 
  179000   0.87158524   -2.4227835   -2.4227835   -1.6988109  0.040397127   -2.4227835    0.7239726  1252891 
  180000   0.87062555   -2.4229153   -2.4229153   -1.6997398  0.037755468   -2.4229153   0.72317545  1252891 
  181000   0.87227429   -2.4237235   -2.4237235   -1.6991785  0.036376488   -2.4237235   0.72454495  1252891 
  182000   0.87104586   -2.4231463   -2.4231463   -1.6996217   0.04634537   -2.4231463   0.72352458  1252891 
  183000   0.87221279   -2.4241235   -2.4241235   -1.6996296  0.044870262   -2.4241235   0.72449387  1252891 
  184000    0.8716106   -2.4244256   -2.4244256    -1.700432  0.042799835   -2.4244256   0.72399367  1252891 
  185000   0.87107489   -2.4245471   -2.4245471   -1.7009984  0.035809849   -2.4245471   0.72354869  1252891 
  186000   0.87004986   -2.4237811   -2.4237811   -1.7010838  0.045416561   -2.4237811   0.72269726  1252891 
  187000   0.87151832   -2.4251125   -2.4251125   -1.7011955  0.039523872   -2.4251125   0.72391702  1252891 
  188000   0.87032613   -2.4246011   -2.4246011   -1.7016744  0.043858525   -2.4246011   0.72292674  1252891 
  189000    0.8691248   -2.4236894   -2.4236894   -1.7017606  0.043717134   -2.4236894   0.72192887  1252891 
  190000   0.87093348   -2.4258659   -2.4258659   -1.7024346  0.041834169   -2.4258659   0.72343123  1252891 
  191000   0.86910718   -2.4241716   -2.4241716   -1.7022573  0.038522782   -2.4241716   0.72191423  1252891 
  192000   0.87081618   -2.4261108   -2.4261108    -1.702777  0.037235854   -2.4261108    0.7233338  1252891 
  193000   0.86789364   -2.4243588   -2.4243588   -1.7034526  0.032858501   -2.4243588   0.72090621  1252891 
  194000   0.86982179   -2.4250538   -2.4250538    -1.702546  0.033161558   -2.4250538   0.72250781  1252891 
  195000   0.86902674   -2.4248184   -2.4248184    -1.702971  0.034375298   -2.4248184   0.72184741  1252891 
  196000   0.86901195   -2.4255814   -2.4255814   -1.7037463  0.029360812   -2.4255814   0.72183513  1252891 
  197000   0.87045133   -2.4257248   -2.4257248    -1.702694  0.030270524   -2.4257248   0.72303074  1252891 
  198000   0.86959712   -2.4257118   -2.4257118   -1.7033906  0.041956158   -2.4257118    0.7223212  1252891 
  199000   0.87005003   -2.4257213   -2.4257213    -1.703024  0.040659154   -2.4257213    0.7226974  1252891 
  200000   0.87009799    -2.426575    -2.426575   -1.7038378  0.047069097    -2.426575   0.72273724  1252891 
  201000   0.86993034   -2.4275241   -2.4275241   -1.7049261   0.03967867   -2.4275241   0.72259798  1252891 
  202000   0.87083341   -2.4272432   -2.4272432   -1.7038951  0.041947216   -2.4272432   0.72334811  1252891 
  203000   0.86869314   -2.4267286   -2.4267286   -1.7051583  0.042621288   -2.4267286   0.72157031  1252891 
  204000   0.87048459   -2.4279114   -2.4279114    -1.704853  0.035715103   -2.4279114   0.72305836  1252891 
  205000   0.86977088   -2.4274913   -2.4274913   -1.7050258  0.035967907   -2.4274913   0.72246552  1252891 
  206000   0.87024018    -2.427803    -2.427803   -1.7049477  0.037729639    -2.427803   0.72285534  1252891 
  207000   0.87144935   -2.4297053   -2.4297053   -1.7058456  0.043802729   -2.4297053   0.72385973  1252891 
  208000   0.87014102   -2.4283858   -2.4283858   -1.7056128  0.042292508   -2.4283858   0.72277297  1252891 
  209000   0.87059042   -2.4281786   -2.4281786   -1.7050324  0.046509616   -2.4281786   0.72314627  1252891 
  210000   0.86961917   -2.4277986   -2.4277986   -1.7054591  0.046490868   -2.4277986   0.72233951  1252891 
  211000   0.86895841    -2.427035    -2.427035   -1.7052443  0.031828462    -2.427035   0.72179066  1252891 
  212000   0.86967805   -2.4280634   -2.4280634    -1.705675  0.029040356   -2.4280634   0.72238842  1252891 
  213000   0.86889117   -2.4275806   -2.4275806   -1.7058458  0.037864838   -2.4275806   0.72173481  1252891 
  214000   0.86901958    -2.428359    -2.428359   -1.7065175  0.038537427    -2.428359   0.72184146  1252891 
  215000   0.86905688   -2.4277443   -2.4277443   -1.7058719  0.035555271   -2.4277443   0.72187245  1252891 
  216000   0.86893641   -2.4280281   -2.4280281   -1.7062557  0.045426773   -2.4280281   0.72177238  1252891 
  217000   0.86862802   -2.4276148   -2.4276148   -1.7060986  0.037432147   -2.4276148   0.72151622  1252891 
  218000   0.86872425   -2.4281772   -2.4281772    -1.706581  0.030405623   -2.4281772   0.72159615  1252891 
  219000    0.8685022    -2.428411    -2.428411   -1.7069993  0.033669173    -2.428411   0.72141171  1252891 
  220000    0.8676691   -2.4283011   -2.4283011   -1.7075814  0.021708614   -2.4283011   0.72071971  1252891 
  221000   0.86816697   -2.4281065   -2.4281065   -1.7069732   0.03370498   -2.4281065   0.72113326  1252891 
  222000   0.86884529   -2.4289814   -2.4289814   -1.7072847  0.032422131   -2.4289814   0.72169669  1252891 
  223000   0.86828048   -2.4288719   -2.4288719   -1.7076444  0.035194364   -2.4288719   0.72122754  1252891 
  224000   0.86813897   -2.4290326   -2.4290326   -1.7079226  0.034103381   -2.4290326      0.72111  1252891 
  225000    0.8681035    -2.428904    -2.428904   -1.7078235  0.039862812    -2.428904   0.72108054  1252891 
  226000   0.86849299   -2.4297343   -2.4297343   -1.7083302  0.040220184   -2.4297343   0.72140406  1252891 
  227000   0.86853583   -2.4298537   -2.4298537   -1.7084141  0.044687537   -2.4298537   0.72143965  1252891 
  228000   0.86878338   -2.4301201   -2.4301201   -1.7084748  0.042520701   -2.4301201   0.72164527  1252891 
  229000   0.86947819    -2.431605    -2.431605   -1.7093826  0.036000715    -2.431605   0.72222241  1252891 
  230000   0.86710389   -2.4298727   -2.4298727   -1.7096225   0.04292881   -2.4298727   0.72025022  1252891 
  231000   0.86814234   -2.4301802   -2.4301802   -1.7090674  0.041160315   -2.4301802    0.7211128  1252891 
  232000   0.86896369   -2.4316781   -2.4316781   -1.7098831  0.033095524   -2.4316781   0.72179504  1252891 
  233000   0.86759062   -2.4309615   -2.4309615   -1.7103069  0.040706117   -2.4309615   0.72065452  1252891 
  234000   0.86784447   -2.4307585   -2.4307585   -1.7098931  0.044637793   -2.4307585   0.72086537  1252891 
  235000   0.86698289   -2.4301385   -2.4301385   -1.7099888  0.044775352   -2.4301385   0.72014971  1252891 
  236000   0.86713451   -2.4309062   -2.4309062   -1.7106305  0.045433353   -2.4309062   0.72027565  1252891 
  237000    0.8681223   -2.4313814   -2.4313814   -1.7102852  0.034737145   -2.4313814   0.72109615  1252891 
  238000   0.86788207   -2.4318622   -2.4318622   -1.7109656  0.039138872   -2.4318622   0.72089661  1252891 
  239000   0.86651228   -2.4308141   -2.4308141   -1.7110553  0.039469825   -2.4308141   0.71975881  1252891 
  240000   0.86685961   -2.4309297   -2.4309297   -1.7108824  0.041393748   -2.4309297   0.72004731  1252891 
  241000   0.86720605   -2.4311785   -2.4311785   -1.7108434  0.033354623   -2.4311785   0.72033508  1252891 
  242000   0.86778046   -2.4321684   -2.4321684   -1.7113562  0.044024988   -2.4321684    0.7208122  1252891 
  243000   0.86770425   -2.4318798   -2.4318798   -1.7111309  0.045230708   -2.4318798    0.7207489  1252891 
  244000   0.86678403   -2.4321929   -2.4321929   -1.7122084  0.033856702   -2.4321929   0.71998453  1252891 
  245000   0.86806181   -2.4328346   -2.4328346   -1.7117887  0.047958649   -2.4328346   0.72104591  1252891 
  246000   0.86631358   -2.4318814   -2.4318814   -1.7122876   0.03839141   -2.4318814   0.71959376  1252891 
  247000   0.86618251   -2.4320907   -2.4320907   -1.7126058  0.046527961   -2.4320907   0.71948488  1252891 
  248000   0.86750297   -2.4332226   -2.4332226   -1.7126409  0.033717219   -2.4332226   0.72058171  1252891 
  249000    0.8671375   -2.4333965   -2.4333965   -1.7131184  0.031861391   -2.4333965   0.72027814  1252891 
  250000   0.86653812   -2.4335521   -2.4335521   -1.7137718  0.038509824   -2.4335521   0.71978027  1252891 
  251000   0.86616392   -2.4329831   -2.4329831   -1.7135137  0.038935293   -2.4329831   0.71946945  1252891 
  252000   0.86606511    -2.433293    -2.433293   -1.7139056  0.046579901    -2.433293   0.71938737  1252891 
  253000   0.86689044    -2.433801    -2.433801   -1.7137281  0.040921395    -2.433801   0.72007292  1252891 
  254000   0.86686384   -2.4335153   -2.4335153   -1.7134645  0.048196115   -2.4335153   0.72005083  1252891 
  255000   0.86657089   -2.4335076   -2.4335076   -1.7137001  0.038425803   -2.4335076   0.71980749  1252891 
  256000    0.8666123   -2.4340769   -2.4340769   -1.7142351  0.039132358   -2.4340769   0.71984188  1252891 
  257000   0.86606025   -2.4333493   -2.4333493    -1.713966  0.034528246   -2.4333493   0.71938333  1252891 
  258000   0.86728911   -2.4340096   -2.4340096   -1.7136055  0.038515154   -2.4340096   0.72040407  1252891 
  259000   0.86664848   -2.4340203   -2.4340203   -1.7141484  0.033466237   -2.4340203   0.71987194  1252891 
  260000   0.86494694   -2.4335258   -2.4335258   -1.7150672  0.038090505   -2.4335258   0.71845857  1252891 
  261000   0.86562639   -2.4341265   -2.4341265   -1.7151036  0.037823471   -2.4341265   0.71902295  1252891 
  262000   0.86681048   -2.4342097   -2.4342097   -1.7142032  0.039156286   -2.4342097    0.7200065  1252891 
  263000   0.86651142   -2.4348379   -2.4348379   -1.7150798   0.03705686   -2.4348379    0.7197581  1252891 
  264000   0.86599486   -2.4348949   -2.4348949   -1.7155659  0.038405539   -2.4348949   0.71932902  1252891 
  265000   0.86610453   -2.4354309   -2.4354309   -1.7160108  0.033162118   -2.4354309   0.71942012  1252891 
  266000   0.86613528   -2.4349977   -2.4349977    -1.715552   0.04754203   -2.4349977   0.71944566  1252891 
  267000   0.86654237   -2.4354538   -2.4354538     -1.71567  0.043061227   -2.4354538    0.7197838  1252891 
  268000   0.86739505   -2.4355273   -2.4355273   -1.7150352  0.037222957   -2.4355273   0.72049207  1252891 
  269000    0.8659446   -2.4354895   -2.4354895   -1.7162023  0.040114092   -2.4354895   0.71928726  1252891 
  270000   0.86559354   -2.4354944   -2.4354944   -1.7164987  0.046085745   -2.4354944   0.71899567  1252891 
  271000   0.86617096   -2.4364124   -2.4364124   -1.7169371  0.042963666   -2.4364124   0.71947529  1252891 
  272000   0.86698043   -2.4361037   -2.4361037    -1.715956  0.044658929   -2.4361037   0.72014767  1252891 
  273000   0.86553764   -2.4358074   -2.4358074   -1.7168582  0.040206422   -2.4358074   0.71894923  1252891 
  274000   0.86514967   -2.4350943   -2.4350943   -1.7164674  0.049463034   -2.4350943   0.71862697  1252891 
  275000   0.86542886   -2.4366164   -2.4366164   -1.7177575  0.026629112   -2.4366164   0.71885887  1252891 
  276000   0.86554188   -2.4366527   -2.4366527   -1.7176999  0.039137728   -2.4366527   0.71895275  1252891 
  277000    0.8647934   -2.4367283   -2.4367283   -1.7183972  0.037228204   -2.4367283   0.71833104  1252891 
  278000   0.86425806   -2.4362137   -2.4362137   -1.7183273  0.034617967   -2.4362137   0.71788636  1252891 
  279000   0.86396979   -2.4357647   -2.4357647   -1.7181178  0.042645624   -2.4357647   0.71764691  1252891 
  280000   0.86513002   -2.4370759   -2.4370759   -1.7184652  0.037119521   -2.4370759   0.71861065  1252891 
  281000   0.86551648   -2.4369627   -2.4369627    -1.718031  0.048058129   -2.4369627   0.71893166  1252891 
  282000   0.86452152   -2.4364287   -2.4364287   -1.7183235  0.040366898   -2.4364287    0.7181052  1252891 
  283000   0.86423013   -2.4364324   -2.4364324   -1.7185692  0.053308767   -2.4364324   0.71786317  1252891 
  284000   0.86540277   -2.4376385   -2.4376385   -1.7188013   0.04487988   -2.4376385    0.7188372  1252891 
  285000   0.86475587   -2.4377568   -2.4377568   -1.7194569  0.025339548   -2.4377568   0.71829986  1252891 
  286000   0.86532124   -2.4371414   -2.4371414   -1.7183719  0.041534569   -2.4371414   0.71876948  1252891 
  287000   0.86590591   -2.4380577   -2.4380577   -1.7188026  0.039655862   -2.4380577   0.71925513  1252891 
  288000   0.86440469   -2.4375982   -2.4375982     -1.71959  0.038760043   -2.4375982   0.71800816  1252891 
  289000   0.86512694   -2.4375263   -2.4375263   -1.7189182  0.050152075   -2.4375263   0.71860809  1252891 
  290000   0.86592071   -2.4376602   -2.4376602   -1.7183928  0.040188616   -2.4376602   0.71926742  1252891 
  291000   0.86442826   -2.4375813   -2.4375813   -1.7195536   0.03886556   -2.4375813   0.71802774  1252891 
  292000   0.86558233   -2.4384853   -2.4384853   -1.7194989  0.042184108   -2.4384853   0.71898636  1252891 
  293000   0.86481872   -2.4385611   -2.4385611    -1.720209  0.045314287   -2.4385611   0.71835207  1252891 
  294000   0.86407664   -2.4379825   -2.4379825   -1.7202468  0.047213492   -2.4379825   0.71773566  1252891 
  295000   0.86448782   -2.4386375   -2.4386375   -1.7205603  0.033136041   -2.4386375   0.71807721  1252891 
  296000    0.8645211   -2.4384781   -2.4384781   -1.7203732  0.052027298   -2.4384781   0.71810486  1252891 
  297000   0.86453955   -2.4386832   -2.4386832    -1.720563  0.038421367   -2.4386832   0.71812018  1252891 
  298000   0.86420402   -2.4390794   -2.4390794    -1.721238   0.04223559   -2.4390794   0.71784147  1252891 
  299000   0.86389432   -2.4381838   -2.4381838   -1.7205996  0.043395385   -2.4381838   0.71758423  1252891 
  300000   0.86312153   -2.4378317   -2.4378317   -1.7208894  0.045445315   -2.4378317   0.71694232  1252891 
  301000   0.86462063   -2.4389541   -2.4389541   -1.7207665  0.046090094   -2.4389541   0.71818753  1252891 
  302000   0.86474795   -2.4389466   -2.4389466   -1.7206533  0.046808707   -2.4389466   0.71829328  1252891 
  303000   0.86337859   -2.4387022   -2.4387022   -1.7215464  0.046915096   -2.4387022   0.71715584  1252891 
  304000   0.86369356   -2.4390775   -2.4390775     -1.72166  0.042730514   -2.4390775   0.71741747  1252891 
  305000   0.86382346    -2.439491    -2.439491   -1.7219657  0.040532032    -2.439491   0.71752536  1252891 
  306000   0.86278453   -2.4388812   -2.4388812   -1.7222188   0.05156064   -2.4388812   0.71666239  1252891 
  307000   0.86395537   -2.4401592   -2.4401592   -1.7225243  0.047552605   -2.4401592   0.71763493  1252891 
  308000    0.8648746   -2.4405297   -2.4405297   -1.7221312  0.035098193   -2.4405297   0.71839848  1252891 
  309000   0.86369453   -2.4393273   -2.4393273    -1.721909  0.045980193   -2.4393273   0.71741828  1252891 
  310000   0.86309946   -2.4393872   -2.4393872   -1.7224632   0.04405961   -2.4393872   0.71692398  1252891 
  311000   0.86547991    -2.440127    -2.440127   -1.7212258  0.047088041    -2.440127   0.71890128  1252891 
  312000   0.86352605   -2.4395654   -2.4395654    -1.722287  0.045793997   -2.4395654   0.71727833  1252891 
  313000   0.86433538   -2.4396559   -2.4396559   -1.7217054  0.055891389   -2.4396559   0.71795059  1252891 
  314000   0.86495962   -2.4408017   -2.4408017   -1.7223326  0.037088812   -2.4408017   0.71846911  1252891 
  315000   0.86446785   -2.4409469   -2.4409469   -1.7228863  0.030480072   -2.4409469   0.71806062  1252891 
  316000   0.86425625   -2.4403666   -2.4403666   -1.7224817  0.043801128   -2.4403666   0.71788486  1252891 
  317000   0.86344297    -2.439803    -2.439803   -1.7225936  0.048291697    -2.439803   0.71720932  1252891 
  318000   0.86312515   -2.4398243   -2.4398243    -1.722879  0.046791082   -2.4398243   0.71694533  1252891 
  319000   0.86344637   -2.4409676   -2.4409676   -1.7237555  0.042925007   -2.4409676   0.71721214  1252891 
  320000   0.86377817   -2.4405179   -2.4405179   -1.7230302  0.034075603   -2.4405179   0.71748775  1252891 
  321000   0.86303513   -2.4406832   -2.4406832   -1.7238127  0.050637995   -2.4406832   0.71687055  1252891 
  322000   0.86397007   -2.4414381   -2.4414381    -1.723791  0.035088214   -2.4414381   0.71764715  1252891 
  323000   0.86364781   -2.4411201   -2.4411201   -1.7237406  0.047347862   -2.4411201   0.71737947  1252891 
  324000   0.86249872   -2.4408507   -2.4408507   -1.7244257  0.041768638   -2.4408507   0.71642499  1252891 
  325000   0.86284064   -2.4418876   -2.4418876   -1.7251786   0.04100123   -2.4418876     0.716709  1252891 
  326000   0.86358315   -2.4417753   -2.4417753   -1.7244496  0.035081229   -2.4417753   0.71732576  1252891 
  327000   0.86292482   -2.4412568   -2.4412568   -1.7244779  0.049354658   -2.4412568   0.71677892  1252891 
  328000   0.86351079   -2.4426238   -2.4426238   -1.7253582   0.04041081   -2.4426238   0.71726565  1252891 
  329000   0.86224769   -2.4416566   -2.4416566   -1.7254402  0.043854089   -2.4416566   0.71621647  1252891 
  330000   0.86169403   -2.4413536   -2.4413536    -1.725597  0.046352145   -2.4413536   0.71575658  1252891 
  331000   0.86365658   -2.4420062   -2.4420062   -1.7246194  0.044119774   -2.4420062   0.71738675  1252891 
  332000   0.86307145   -2.4426304   -2.4426304   -1.7257297  0.046389056   -2.4426304   0.71690072  1252891 
  333000   0.86278944   -2.4424326   -2.4424326   -1.7257661  0.053644899   -2.4424326   0.71666647  1252891 
  334000   0.86393122   -2.4432431   -2.4432431   -1.7256282  0.045342469   -2.4432431   0.71761488  1252891 
  335000   0.86207015   -2.4420612   -2.4420612   -1.7259922  0.050231273   -2.4420612     0.716069  1252891 
  336000   0.86273055   -2.4421875   -2.4421875     -1.72557  0.051722038   -2.4421875   0.71661755  1252891 
  337000   0.86251508   -2.4424814   -2.4424814   -1.7260428  0.047963602   -2.4424814   0.71643857  1252891 
  338000   0.86340233   -2.4430671   -2.4430671   -1.7258915  0.046307836   -2.4430671   0.71717556  1252891 
  339000   0.86136704   -2.4422913   -2.4422913   -1.7268063  0.048236539   -2.4422913   0.71548497  1252891 
  340000   0.86233424   -2.4428825   -2.4428825   -1.7265941  0.042916045   -2.4428825   0.71628836  1252891 
  341000   0.86218338   -2.4432799   -2.4432799   -1.7271168    0.0416521   -2.4432799   0.71616306  1252891 
  342000   0.86200491   -2.4423085   -2.4423085   -1.7262937  0.033955143   -2.4423085   0.71601481  1252891 
  343000   0.86125467   -2.4425099   -2.4425099   -1.7271182  0.038414024   -2.4425099   0.71539163  1252891 
  344000   0.86103915   -2.4422171   -2.4422171   -1.7270045  0.034949501   -2.4422171   0.71521261  1252891 
  345000   0.86181578    -2.443355    -2.443355   -1.7274973  0.037887736    -2.443355   0.71585771  1252891 
  346000   0.86125881   -2.4423629   -2.4423629   -1.7269679  0.039442322   -2.4423629   0.71539507  1252891 
  347000   0.86241162   -2.4435995   -2.4435995   -1.7272469  0.044264415   -2.4435995   0.71635264  1252891 
  348000    0.8615967   -2.4436452   -2.4436452   -1.7279695  0.036855553   -2.4436452   0.71567574  1252891 
  349000   0.86056079    -2.442385    -2.442385   -1.7275697  0.042388009    -2.442385   0.71481527  1252891 
  350000   0.86208951   -2.4434067   -2.4434067   -1.7273217  0.043891049   -2.4434067   0.71608508  1252891 
  351000   0.86205314    -2.443972    -2.443972   -1.7279171  0.045206799    -2.443972   0.71605487  1252891 
  352000   0.86309168   -2.4444101   -2.4444101   -1.7274925  0.045321873   -2.4444101   0.71691752  1252891 
  353000   0.86213181   -2.4452114   -2.4452114   -1.7290912  0.041865639   -2.4452114   0.71612022  1252891 
  354000   0.86158792   -2.4438259   -2.4438259   -1.7281574  0.056428993   -2.4438259   0.71566844  1252891 
  355000   0.86027949   -2.4434247   -2.4434247   -1.7288431  0.035788681   -2.4434247   0.71458161  1252891 
  356000   0.86165423   -2.4437679   -2.4437679   -1.7280444   0.05210265   -2.4437679   0.71572352  1252891 
  357000   0.86037385   -2.4445883   -2.4445883   -1.7299283  0.046008331   -2.4445883   0.71465999  1252891 
  358000   0.86162229   -2.4445893   -2.4445893   -1.7288923  0.048264073   -2.4445893   0.71569699  1252891 
  359000   0.86123015   -2.4449631   -2.4449631   -1.7295918  0.045531913   -2.4449631   0.71537127  1252891 
  360000   0.86018771   -2.4446982   -2.4446982   -1.7301929  0.032055733   -2.4446982   0.71450537  1252891 
  361000   0.86044398   -2.4450451   -2.4450451   -1.7303269  0.046107967   -2.4450451   0.71471824  1252891 
  362000    0.8598995   -2.4443328   -2.4443328   -1.7300668  0.052231187   -2.4443328   0.71426597  1252891 
  363000   0.86127794   -2.4457712   -2.4457712   -1.7303603   0.04377543   -2.4457712   0.71541096  1252891 
  364000   0.86049416   -2.4448488   -2.4448488   -1.7300889  0.032306356   -2.4448488   0.71475992  1252891 
  365000   0.86050721   -2.4448235   -2.4448235   -1.7300527   0.04127406   -2.4448235   0.71477076  1252891 
  366000   0.86008609    -2.444797    -2.444797   -1.7303761  0.036545261    -2.444797   0.71442096  1252891 
  367000    0.8609872   -2.4455747   -2.4455747   -1.7304052  0.035669872   -2.4455747   0.71516946  1252891 
  368000    0.8611327   -2.4449861   -2.4449861   -1.7296958  0.038887382   -2.4449861   0.71529032  1252891 
  369000   0.85985574   -2.4450976   -2.4450976    -1.730868   0.04187152   -2.4450976   0.71422963  1252891 
  370000   0.86045023   -2.4451553   -2.4451553   -1.7304319  0.049557117   -2.4451553   0.71472343  1252891 
  371000   0.86018749   -2.4455228   -2.4455228   -1.7310176  0.039039583   -2.4455228   0.71450519  1252891 
  372000    0.8608964   -2.4461731   -2.4461731   -1.7310791  0.040672195   -2.4461731   0.71509403  1252891 
  373000   0.85958896   -2.4446949   -2.4446949   -1.7306868  0.042444997   -2.4446949   0.71400802  1252891 
  374000   0.85933911   -2.4455876   -2.4455876   -1.7317871  0.049442334   -2.4455876   0.71380049  1252891 
  375000   0.86087075   -2.4468469   -2.4468469   -1.7317742  0.045898027   -2.4468469   0.71507273  1252891 
  376000   0.86045278    -2.447542    -2.447542   -1.7328165  0.041020177    -2.447542   0.71472555  1252891 
  377000   0.85965557   -2.4461652   -2.4461652   -1.7321019  0.030652372   -2.4461652   0.71406336  1252891 
  378000   0.85951539     -2.44625     -2.44625   -1.7323031  0.044361503     -2.44625   0.71394692  1252891 
  379000    0.8589267   -2.4462866   -2.4462866   -1.7328286  0.038252766   -2.4462866   0.71345793  1252891 
  380000   0.85917389   -2.4464105   -2.4464105   -1.7327472  0.050920743   -2.4464105   0.71366326  1252891 
  381000   0.86014352   -2.4475134   -2.4475134   -1.7330447  0.036988263   -2.4475134   0.71446867  1252891 
  382000   0.85934054    -2.447151    -2.447151   -1.7333493  0.048123788    -2.447151   0.71380168  1252891 
  383000    0.8601632   -2.4484506   -2.4484506   -1.7339656  0.043059332   -2.4484506   0.71448502  1252891 
  384000   0.85959045    -2.447294    -2.447294   -1.7332847  0.051235897    -2.447294   0.71400927  1252891 
  385000   0.85864943   -2.4474892   -2.4474892   -1.7342616  0.039709702   -2.4474892   0.71322762  1252891 
  386000   0.85947501   -2.4474304   -2.4474304    -1.733517   0.04684488   -2.4474304   0.71391338  1252891 
  387000    0.8583456   -2.4466754   -2.4466754   -1.7337001  0.038830091   -2.4466754   0.71297524  1252891 
  388000     0.858806   -2.4469703   -2.4469703   -1.7336127  0.046619194   -2.4469703   0.71335767  1252891 
  389000   0.85934732   -2.4473137   -2.4473137   -1.7335064  0.036693569   -2.4473137   0.71380731  1252891 
  390000   0.85946158   -2.4476943   -2.4476943   -1.7337921  0.036021337   -2.4476943   0.71390222  1252891 
  391000   0.86076265   -2.4482196   -2.4482196   -1.7332366  0.043019946   -2.4482196   0.71498294  1252891 
  392000   0.86018244   -2.4482762   -2.4482762   -1.7337752  0.043557051   -2.4482762   0.71450099  1252891 
  393000    0.8589182   -2.4475818   -2.4475818   -1.7341309  0.043596007   -2.4475818   0.71345087  1252891 
  394000   0.85982885    -2.448018    -2.448018   -1.7338107  0.049262136    -2.448018   0.71420729  1252891 
  395000   0.86036999   -2.4483488   -2.4483488    -1.733692  0.040577135   -2.4483488   0.71465678  1252891 
  396000   0.85995753   -2.4485187   -2.4485187   -1.7342045  0.040468994   -2.4485187   0.71431417  1252891 
  397000   0.85912065   -2.4481934   -2.4481934   -1.7345744  0.044743863   -2.4481934   0.71361903  1252891 
  398000   0.85905585   -2.4482419   -2.4482419   -1.7346767  0.048907589   -2.4482419   0.71356521  1252891 
  399000   0.85854707   -2.4478246   -2.4478246    -1.734682  0.044121516   -2.4478246   0.71314259  1252891 
  400000   0.86009549   -2.4486096   -2.4486096   -1.7341809  0.041386458   -2.4486096   0.71442877  1252891 
  401000   0.85798936   -2.4472696   -2.4472696   -1.7345902  0.045673496   -2.4472696   0.71267934  1252891 
  402000   0.85930954    -2.448276    -2.448276   -1.7345001  0.044481904    -2.448276   0.71377593  1252891 
  403000   0.85975289   -2.4488817   -2.4488817   -1.7347375  0.034653135   -2.4488817   0.71414419  1252891 
  404000   0.85881414   -2.4479611   -2.4479611   -1.7345966  0.052916014   -2.4479611   0.71336444  1252891 
  405000   0.85874299   -2.4485285   -2.4485285   -1.7352231  0.035810296   -2.4485285   0.71330533  1252891 
  406000   0.85866118   -2.4483035   -2.4483035   -1.7350662  0.040148941   -2.4483035   0.71323738  1252891 
  407000   0.85842389   -2.4478069   -2.4478069   -1.7347667  0.049157301   -2.4478069   0.71304027  1252891 
  408000   0.85759215   -2.4482049   -2.4482049   -1.7358555     0.034721   -2.4482049    0.7123494  1252891 
  409000   0.85776473   -2.4476959   -2.4476959   -1.7352032  0.042296674   -2.4476959   0.71249275  1252891 
  410000   0.85834747     -2.44904     -2.44904   -1.7360632  0.039041788     -2.44904    0.7129768  1252891 
  411000   0.85876372   -2.4490887   -2.4490887   -1.7357661  0.039429248   -2.4490887   0.71332255  1252891 
  412000   0.85938537   -2.4500052   -2.4500052   -1.7361663  0.038013198   -2.4500052   0.71383891  1252891 
  413000    0.8585282   -2.4493763   -2.4493763   -1.7362494  0.038773199   -2.4493763   0.71312692  1252891 
  414000   0.85838436   -2.4493686   -2.4493686   -1.7363611  0.042255902   -2.4493686   0.71300744  1252891 
  415000   0.85827338   -2.4494245   -2.4494245   -1.7365092  0.044814883   -2.4494245   0.71291526  1252891 
  416000   0.85890453   -2.4499973   -2.4499973   -1.7365578  0.044772076   -2.4499973   0.71343951  1252891 
  417000   0.85821347   -2.4497773   -2.4497773   -1.7369118   0.05263918   -2.4497773   0.71286549  1252891 
  418000   0.85743796   -2.4486633   -2.4486633    -1.736442   0.04955402   -2.4486633   0.71222132  1252891 
  419000   0.85811486   -2.4498364   -2.4498364   -1.7370528  0.049334638   -2.4498364   0.71278358  1252891 
  420000   0.85874071   -2.4501528   -2.4501528   -1.7368494  0.039524689   -2.4501528   0.71330344  1252891 
  421000   0.85834909   -2.4503546   -2.4503546   -1.7373765  0.044718381   -2.4503546   0.71297814  1252891 
  422000   0.85686372   -2.4488025   -2.4488025   -1.7370581  0.046957016   -2.4488025   0.71174434  1252891 
  423000   0.85756911   -2.4496891   -2.4496891   -1.7373588  0.037596474   -2.4496891   0.71233026  1252891 
  424000   0.85812121    -2.450426    -2.450426   -1.7376371  0.045183937    -2.450426   0.71278886  1252891 
  425000   0.85853245   -2.4510793   -2.4510793   -1.7379488  0.050320271   -2.4510793   0.71313045  1252891 
  426000    0.8579433   -2.4508456   -2.4508456   -1.7382045  0.050215747   -2.4508456   0.71264107  1252891 
  427000   0.85782963   -2.4510802   -2.4510802   -1.7385336  0.038923778   -2.4510802   0.71254666  1252891 
  428000   0.85713408   -2.4498014   -2.4498014   -1.7378325  0.040937367   -2.4498014   0.71196891  1252891 
  429000   0.85728517   -2.4511393   -2.4511393   -1.7390449  0.048055774   -2.4511393   0.71209441  1252891 
  430000   0.85778924   -2.4509233   -2.4509233   -1.7384102  0.029806818   -2.4509233   0.71251311  1252891 
  431000   0.85739883   -2.4507604   -2.4507604   -1.7385716  0.041561871   -2.4507604   0.71218882  1252891 
  432000    0.8578734   -2.4507746   -2.4507746   -1.7381916  0.048572125   -2.4507746   0.71258302  1252891 
  433000      0.85754    -2.450946    -2.450946     -1.73864  0.052695216    -2.450946   0.71230608  1252891 
  434000    0.8575506   -2.4513622   -2.4513622   -1.7390473  0.032135413   -2.4513622   0.71231489  1252891 
  435000   0.85779797   -2.4513074   -2.4513074    -1.738787  0.038254343   -2.4513074   0.71252036  1252891 
  436000   0.85685598    -2.450786    -2.450786   -1.7390481  0.041869937    -2.450786    0.7117379  1252891 
  437000   0.85694405   -2.4504593   -2.4504593   -1.7386482  0.033886804   -2.4504593   0.71181107  1252891 
  438000   0.85759084   -2.4513505   -2.4513505   -1.7390022  0.049478916   -2.4513505   0.71234831  1252891 
  439000    0.8561572   -2.4503051   -2.4503051   -1.7391476  0.036109608   -2.4503051   0.71115748  1252891 
  440000    0.8574822   -2.4508778   -2.4508778   -1.7386198  0.039404657   -2.4508778   0.71225807  1252891 
  441000   0.85737488    -2.451852    -2.451852   -1.7396831  0.041202977    -2.451852   0.71216893  1252891 
  442000   0.85631788   -2.4511534   -2.4511534   -1.7398625  0.035963653   -2.4511534   0.71129094  1252891 
  443000   0.85570059   -2.4504826   -2.4504826   -1.7397044  0.048174341   -2.4504826   0.71077819  1252891 
  444000   0.85827915     -2.45218     -2.45218   -1.7392599  0.038807212     -2.45218   0.71292005  1252891 
  445000   0.85685773   -2.4514962   -2.4514962   -1.7397568  0.035948448   -2.4514962   0.71173936  1252891 
  446000   0.85644929    -2.451555    -2.451555   -1.7401549  0.047419466    -2.451555    0.7114001  1252891 
  447000   0.85627996   -2.4516879   -2.4516879   -1.7404285  0.042347231   -2.4516879   0.71125944  1252891 
  448000   0.85768119   -2.4523474   -2.4523474    -1.739924  0.036609818   -2.4523474   0.71242336  1252891 
  449000    0.8564079   -2.4521543   -2.4521543   -1.7407886  0.041464777   -2.4521543   0.71136572  1252891 
  450000   0.85645827    -2.452201    -2.452201   -1.7407934  0.046882944    -2.452201   0.71140756  1252891 
  451000   0.85578828   -2.4520851   -2.4520851   -1.7412341  0.040658965   -2.4520851   0.71085103  1252891 
  452000   0.85678755   -2.4528925   -2.4528925   -1.7412115   0.03663797   -2.4528925   0.71168106  1252891 
  453000   0.85681456   -2.4534626   -2.4534626   -1.7417591  0.041667811   -2.4534626    0.7117035  1252891 
  454000   0.85606622   -2.4527031   -2.4527031   -1.7416212  0.044898846   -2.4527031    0.7110819  1252891 
  455000   0.85677887    -2.452543    -2.452543   -1.7408691  0.044037281    -2.452543   0.71167386  1252891 
  456000   0.85728795   -2.4535311   -2.4535311   -1.7414343  0.042356459   -2.4535311   0.71209672  1252891 
  457000   0.85684178   -2.4530527   -2.4530527   -1.7413266  0.044899268   -2.4530527   0.71172611  1252891 
  458000   0.85537907   -2.4518374   -2.4518374   -1.7413262  0.040986115   -2.4518374   0.71051113  1252891 
  459000   0.85639306   -2.4527029   -2.4527029   -1.7413495  0.052549472   -2.4527029   0.71135339  1252891 
  460000    0.8554299   -2.4524296   -2.4524296   -1.7418763  0.041281948   -2.4524296   0.71055335  1252891 
  461000   0.85662554   -2.4531329   -2.4531329   -1.7415865  0.037559006   -2.4531329   0.71154649  1252891 
  462000   0.85677963   -2.4527089   -2.4527089   -1.7410344  0.050287287   -2.4527089   0.71167449  1252891 
  463000    0.8571608   -2.4538542   -2.4538542   -1.7418631    0.0293432   -2.4538542    0.7119911  1252891 
  464000   0.85714058   -2.4539148   -2.4539148   -1.7419404  0.046411392   -2.4539148    0.7119743  1252891 
  465000   0.85668062   -2.4532044   -2.4532044   -1.7416122   0.04326236   -2.4532044   0.71159225  1252891 
  466000   0.85668401   -2.4534669   -2.4534669   -1.7418719  0.041474142   -2.4534669   0.71159506  1252891 
  467000   0.85679227   -2.4541726   -2.4541726   -1.7424876   0.03445741   -2.4541726   0.71168499  1252891 
  468000    0.8569574   -2.4546159   -2.4546159   -1.7427937  0.041744425   -2.4546159   0.71182215  1252891 
  469000   0.85635953   -2.4536831   -2.4536831   -1.7423576  0.047920519   -2.4536831   0.71132553  1252891 
  470000   0.85685184   -2.4542249   -2.4542249   -1.7424905  0.042511111   -2.4542249   0.71173447  1252891 
  471000   0.85570476   -2.4540506   -2.4540506   -1.7432689  0.029318992   -2.4540506   0.71078166  1252891 
  472000    0.8565593   -2.4540434   -2.4540434    -1.742552  0.047277058   -2.4540434   0.71149148  1252891 
  473000    0.8555206   -2.4535148   -2.4535148   -1.7428861  0.037963066   -2.4535148   0.71062869  1252891 
  474000   0.85522717   -2.4535621   -2.4535621   -1.7431772   0.03405719   -2.4535621   0.71038496  1252891 
  475000   0.85597272   -2.4550403   -2.4550403    -1.744036  0.038308378   -2.4550403   0.71100424  1252891 
  476000   0.85574778   -2.4549078   -2.4549078   -1.7440905  0.044925013   -2.4549078   0.71081739  1252891 
  477000   0.85550096   -2.4545618   -2.4545618   -1.7439494  0.032017439   -2.4545618   0.71061237  1252891 
  478000   0.85602701   -2.4549662   -2.4549662   -1.7439168  0.053653566   -2.4549662   0.71104933  1252891 
  479000   0.85551243   -2.4543633   -2.4543633   -1.7437414  0.050361662   -2.4543633    0.7106219  1252891 
  480000   0.85598034   -2.4545614   -2.4545614   -1.7435509  0.043182904   -2.4545614   0.71101057  1252891 
  481000   0.85546136   -2.4549596   -2.4549596   -1.7443802  0.048409414   -2.4549596   0.71057948  1252891 
  482000   0.85542114    -2.455296    -2.455296     -1.74475  0.042670415    -2.455296   0.71054607  1252891 
  483000    0.8560132   -2.4554678   -2.4554678   -1.7444299  0.043290076   -2.4554678   0.71103786  1252891 
  484000   0.85595995   -2.4556713   -2.4556713   -1.7446777  0.056053491   -2.4556713   0.71099363  1252891 
  485000   0.85640824   -2.4563939   -2.4563939   -1.7450279  0.047537947   -2.4563939     0.711366  1252891 
  486000   0.85664011   -2.4558017   -2.4558017   -1.7442431  0.042546348   -2.4558017    0.7115586  1252891 
  487000   0.85539247   -2.4551857   -2.4551857   -1.7446635  0.051202838   -2.4551857   0.71052226  1252891 
  488000   0.85437066   -2.4548559   -2.4548559   -1.7451824  0.046199004   -2.4548559    0.7096735  1252891 
  489000   0.85489845   -2.4555034   -2.4555034   -1.7453915  0.039222724   -2.4555034   0.71011191  1252891 
  490000   0.85525522   -2.4550687   -2.4550687   -1.7446604  0.047634185   -2.4550687   0.71040826  1252891 
  491000   0.85500076   -2.4561893   -2.4561893   -1.7459924  0.038873669   -2.4561893   0.71019689  1252891 
  492000   0.85571033   -2.4559954   -2.4559954   -1.7452091  0.045175565   -2.4559954   0.71078629  1252891 
  493000   0.85573158   -2.4563055   -2.4563055   -1.7455016  0.046776189   -2.4563055   0.71080394  1252891 
  494000   0.85557587   -2.4550398   -2.4550398   -1.7443652  0.042143084   -2.4550398    0.7106746  1252891 
  495000   0.85374298   -2.4547389   -2.4547389   -1.7455868  0.041427544   -2.4547389   0.70915212  1252891 
  496000   0.85500378   -2.4554559   -2.4554559   -1.7452566  0.047069725   -2.4554559    0.7101994  1252891 
  497000   0.85528394   -2.4556932   -2.4556932   -1.7452611  0.043745037   -2.4556932   0.71043211  1252891 
  498000   0.85505951   -2.4554178   -2.4554178   -1.7451721   0.05205827   -2.4554178   0.71024569  1252891 
  499000   0.85479629   -2.4558728   -2.4558728   -1.7458457   0.03998196   -2.4558728   0.71002705  1252891 
  500000   0.85537938   -2.4556458   -2.4556458   -1.7451344  0.047191493   -2.4556458   0.71051139  1252891 
  501000   0.85509311    -2.455493    -2.455493   -1.7452194  0.044647865    -2.455493    0.7102736  1252891 
  502000   0.85411299    -2.454979    -2.454979   -1.7455195  0.043912198    -2.454979   0.70945948  1252891 
  503000   0.85476482   -2.4560002   -2.4560002   -1.7459993  0.045754232   -2.4560002    0.7100009  1252891 
  504000   0.85432209   -2.4551961   -2.4551961    -1.745563  0.039643078   -2.4551961   0.70963316  1252891 
  505000    0.8541957   -2.4564313   -2.4564313   -1.7469032   0.04318956   -2.4564313   0.70952818  1252891 
  506000   0.85480869   -2.4559224   -2.4559224   -1.7458851  0.037234838   -2.4559224   0.71003735  1252891 
  507000   0.85392519   -2.4554665   -2.4554665    -1.746163  0.047250824   -2.4554665   0.70930348  1252891 
  508000   0.85448791   -2.4558717   -2.4558717   -1.7461008  0.041231074   -2.4558717   0.70977089  1252891 
  509000   0.85513533   -2.4570503   -2.4570503   -1.7467416  0.036709422   -2.4570503   0.71030867  1252891 
  510000   0.85498577   -2.4569314   -2.4569314   -1.7467469  0.039795469   -2.4569314   0.71018444  1252891 
  511000   0.85384406   -2.4563589   -2.4563589   -1.7471228   0.03645397   -2.4563589   0.70923609  1252891 
  512000   0.85430256   -2.4559074   -2.4559074   -1.7462904  0.041191968   -2.4559074   0.70961694  1252891 
  513000   0.85409884   -2.4564901   -2.4564901   -1.7470424  0.048893646   -2.4564901   0.70944772  1252891 
  514000    0.8555418   -2.4581739   -2.4581739   -1.7475276   0.04991298   -2.4581739    0.7106463  1252891 
  515000   0.85423156   -2.4575009   -2.4575009   -1.7479429  0.049288135   -2.4575009   0.70955796  1252891 
  516000   0.85400428   -2.4570563   -2.4570563   -1.7476871   0.04968716   -2.4570563   0.70936917  1252891 
  517000   0.85381063   -2.4568799   -2.4568799   -1.7476716  0.036617763   -2.4568799   0.70920832  1252891 
  518000   0.85437172   -2.4569809   -2.4569809   -1.7473066  0.040388116   -2.4569809   0.70967438  1252891 
  519000   0.85371151   -2.4564989   -2.4564989    -1.747373  0.041886535   -2.4564989   0.70912599  1252891 
  520000   0.85443869   -2.4571083   -2.4571083   -1.7473783  0.039109039   -2.4571083   0.70973001  1252891 
  521000   0.85307592   -2.4567582   -2.4567582   -1.7481602  0.035024733   -2.4567582   0.70859804  1252891 
  522000    0.8532746   -2.4566384   -2.4566384   -1.7478754  0.042301179   -2.4566384   0.70876307  1252891 
  523000   0.85407413   -2.4576271   -2.4576271   -1.7481999  0.049097131   -2.4576271   0.70942719  1252891 
  524000   0.85408674   -2.4581596   -2.4581596   -1.7487219  0.046946823   -2.4581596   0.70943767  1252891 
  525000   0.85371438   -2.4575998   -2.4575998   -1.7484714  0.045906118   -2.4575998   0.70912837  1252891 
  526000   0.85417336   -2.4578146   -2.4578146    -1.748305  0.050560089   -2.4578146   0.70950962  1252891 
  527000   0.85378622    -2.457996    -2.457996   -1.7488079   0.04956759    -2.457996   0.70918805  1252891 
  528000   0.85288748   -2.4579927   -2.4579927   -1.7495512  0.046945703   -2.4579927   0.70844151  1252891 
  529000   0.85332606   -2.4573184   -2.4573184   -1.7485125  0.043668462   -2.4573184   0.70880581  1252891 
  530000   0.85275349   -2.4571163   -2.4571163   -1.7487861  0.055699806   -2.4571163   0.70833022  1252891 
  531000   0.85329951    -2.457296    -2.457296   -1.7485122  0.048708361    -2.457296   0.70878377  1252891 
  532000   0.85408396   -2.4580173   -2.4580173    -1.748582  0.048724192   -2.4580173   0.70943536  1252891 
  533000   0.85387335   -2.4578938   -2.4578938   -1.7486334  0.048791055   -2.4578938   0.70926042  1252891 
  534000   0.85339974   -2.4579213   -2.4579213   -1.7490543  0.044413106   -2.4579213   0.70886702  1252891 
  535000   0.85351994   -2.4578414   -2.4578414   -1.7488745  0.041862371   -2.4578414   0.70896686  1252891 
  536000   0.85277636    -2.457739    -2.457739   -1.7493898  0.042609005    -2.457739   0.70834922  1252891 
  537000   0.85302558   -2.4579128   -2.4579128   -1.7493566  0.043490124   -2.4579128   0.70855623  1252891 
  538000   0.85315917   -2.4579475   -2.4579475   -1.7492803  0.036191018   -2.4579475   0.70866719  1252891 
  539000   0.85375276   -2.4583757   -2.4583757   -1.7492154  0.041050258   -2.4583757   0.70916025  1252891 
  540000   0.85380662   -2.4586651   -2.4586651   -1.7494601  0.037799717   -2.4586651   0.70920499  1252891 
  541000   0.85377895   -2.4585017   -2.4585017   -1.7493197   0.03993921   -2.4585017   0.70918201  1252891 
  542000   0.85301689   -2.4580961   -2.4580961   -1.7495471  0.043624709   -2.4580961   0.70854901  1252891 
  543000   0.85400672   -2.4594697   -2.4594697   -1.7500985  0.035892797   -2.4594697    0.7093712  1252891 
  544000   0.85274378   -2.4586955   -2.4586955   -1.7503733  0.039081214   -2.4586955   0.70832215  1252891 
  545000    0.8528145   -2.4585965   -2.4585965   -1.7502156  0.043076672   -2.4585965    0.7083809  1252891 
  546000   0.85299118   -2.4591129   -2.4591129   -1.7505852  0.046680057   -2.4591129   0.70852766  1252891 
  547000   0.85275082   -2.4594447   -2.4594447   -1.7511167   0.04109672   -2.4594447     0.708328  1252891 
  548000   0.85324624   -2.4600499   -2.4600499   -1.7513104  0.035783811   -2.4600499   0.70873952  1252891 
  549000    0.8528525   -2.4592043   -2.4592043   -1.7507918  0.040955114   -2.4592043   0.70841246  1252891 
  550000   0.85274863   -2.4599361   -2.4599361   -1.7516099  0.046660926   -2.4599361   0.70832618  1252891 
  551000   0.85317334   -2.4603237   -2.4603237   -1.7516447  0.041496508   -2.4603237   0.70867896  1252891 
  552000   0.85249581   -2.4602528   -2.4602528   -1.7521366  0.043354175   -2.4602528   0.70811618  1252891 
  553000   0.85312616   -2.4605106   -2.4605106   -1.7518708  0.042213244   -2.4605106   0.70863977  1252891 
  554000   0.85196324   -2.4599873   -2.4599873   -1.7523135  0.044748577   -2.4599873   0.70767381  1252891 
  555000   0.85205942   -2.4596644   -2.4596644   -1.7519107  0.048863649   -2.4596644   0.70775369  1252891 
  556000   0.85252126   -2.4605657   -2.4605657   -1.7524283  0.041855735   -2.4605657   0.70813732  1252891 
  557000   0.85357135   -2.4611241   -2.4611241   -1.7521145  0.048773788   -2.4611241   0.70900957  1252891 
  558000   0.85309036    -2.461212    -2.461212    -1.752602   0.05034208    -2.461212   0.70861004  1252891 
  559000   0.85197491   -2.4603924   -2.4603924   -1.7527089  0.046788527   -2.4603924    0.7076835  1252891 
  560000   0.85250034   -2.4601939   -2.4601939   -1.7520739  0.050886733   -2.4601939   0.70811995  1252891 
  561000   0.85183998   -2.4608444   -2.4608444    -1.753273   0.04018845   -2.4608444   0.70757142  1252891 
  562000   0.85257515   -2.4609102   -2.4609102   -1.7527281  0.052253833   -2.4609102   0.70818209  1252891 
  563000   0.85331162   -2.4612804   -2.4612804   -1.7524866  0.044595365   -2.4612804   0.70879382  1252891 
  564000   0.85285631   -2.4609287   -2.4609287    -1.752513  0.039481968   -2.4609287   0.70841563  1252891 
  565000   0.85201032   -2.4604566   -2.4604566   -1.7527437  0.035353828   -2.4604566   0.70771291  1252891 
  566000   0.85055254   -2.4601731   -2.4601731    -1.753671  0.041807985   -2.4601731   0.70650202  1252891 
  567000   0.85243838   -2.4607844   -2.4607844   -1.7527159  0.043312241   -2.4607844   0.70806848  1252891 
  568000   0.85128814   -2.4604682   -2.4604682   -1.7533551  0.047897885   -2.4604682   0.70711304  1252891 
  569000   0.85220777   -2.4605519   -2.4605519    -1.752675  0.047080011   -2.4605519   0.70787692  1252891 
  570000   0.85166904    -2.460586    -2.460586   -1.7531566  0.045295315    -2.460586   0.70742944  1252891 
  571000   0.85083625   -2.4603712   -2.4603712   -1.7536335   0.05301107   -2.4603712   0.70673769  1252891 
  572000   0.85259198   -2.4617479   -2.4617479   -1.7535518  0.034639057   -2.4617479   0.70819606  1252891 
  573000   0.85135894   -2.4607415   -2.4607415   -1.7535697  0.039959134   -2.4607415   0.70717185  1252891 
  574000   0.85198585    -2.461245    -2.461245   -1.7535524  0.042304274    -2.461245   0.70769259  1252891 
  575000    0.8511207   -2.4609833   -2.4609833   -1.7540094  0.052011681   -2.4609833   0.70697396  1252891 
  576000   0.85232384   -2.4622101   -2.4622101   -1.7542367  0.049023124   -2.4622101   0.70797334  1252891 
  577000   0.85191213   -2.4617073   -2.4617073   -1.7540759  0.044897815   -2.4617073   0.70763136  1252891 
  578000   0.85168917   -2.4619911   -2.4619911    -1.754545  0.043759941   -2.4619911   0.70744616  1252891 
  579000   0.85244882   -2.4629413   -2.4629413   -1.7548641  0.040617151   -2.4629413   0.70807715  1252891 
  580000   0.85074822   -2.4622608   -2.4622608   -1.7555963  0.044020187   -2.4622608   0.70666456  1252891 
  581000   0.85183756   -2.4623942   -2.4623942   -1.7548248  0.041416339   -2.4623942   0.70756942  1252891 
  582000   0.85119477   -2.4621296   -2.4621296   -1.7550941  0.049380693   -2.4621296   0.70703549  1252891 
  583000    0.8524287   -2.4630045   -2.4630045   -1.7549441  0.050028925   -2.4630045   0.70806044  1252891 
  584000   0.85223722   -2.4634537   -2.4634537   -1.7555523  0.036761992   -2.4634537   0.70790139  1252891 
  585000   0.85262823   -2.4631363   -2.4631363   -1.7549101  0.051166192   -2.4631363   0.70822618  1252891 
  586000   0.85187762    -2.463059    -2.463059   -1.7554563   0.04762173    -2.463059   0.70760269  1252891 
  587000   0.85115357    -2.462728    -2.462728   -1.7557267  0.041254612    -2.462728   0.70700127  1252891 
  588000   0.85083693   -2.4625564   -2.4625564   -1.7558182  0.044628574   -2.4625564   0.70673825  1252891 
  589000   0.85151854   -2.4629868   -2.4629868   -1.7556823  0.043743968   -2.4629868   0.70730442  1252891 
  590000   0.85121855   -2.4626603   -2.4626603   -1.7556051  0.044020065   -2.4626603   0.70705524  1252891 
  591000   0.85253885   -2.4636161   -2.4636161   -1.7554642  0.049242251   -2.4636161   0.70815193  1252891 
  592000   0.85186167   -2.4632933   -2.4632933   -1.7557038  0.044571284   -2.4632933   0.70758944  1252891 
  593000   0.84995088   -2.4613199   -2.4613199   -1.7553177  0.046375649   -2.4613199   0.70600226  1252891 
  594000   0.85063659   -2.4624764   -2.4624764   -1.7559046  0.045635187   -2.4624764   0.70657184  1252891 
  595000   0.85168081    -2.463005    -2.463005   -1.7555658  0.044321748    -2.463005   0.70743921  1252891 
  596000    0.8503104   -2.4619022   -2.4619022   -1.7556013  0.042410965   -2.4619022   0.70630089  1252891 
  597000   0.85171719   -2.4636037   -2.4636037   -1.7561343  0.038437381   -2.4636037   0.70746943  1252891 
  598000   0.85157291   -2.4621948   -2.4621948   -1.7548452  0.051762054   -2.4621948   0.70734958  1252891 
  599000   0.85213375   -2.4634304   -2.4634304   -1.7556149  0.046448314   -2.4634304   0.70781544  1252891 
  600000   0.85187654   -2.4636097   -2.4636097    -1.756008  0.052298285   -2.4636097   0.70760179  1252891 
  601000   0.85200337   -2.4635227   -2.4635227   -1.7558156  0.046687258   -2.4635227   0.70770714  1252891 
  602000   0.85066681   -2.4630657   -2.4630657   -1.7564688  0.041996018   -2.4630657   0.70659694  1252891 
  603000   0.85083474   -2.4630925   -2.4630925   -1.7563561  0.046997357   -2.4630925   0.70673643  1252891 
  604000   0.85207271   -2.4645211   -2.4645211   -1.7567563  0.037652759   -2.4645211   0.70776474  1252891 
  605000   0.85173618    -2.464295    -2.464295   -1.7568098  0.041267673    -2.464295    0.7074852  1252891 
  606000   0.85159606   -2.4633749   -2.4633749   -1.7560061  0.059582632   -2.4633749   0.70736881  1252891 
  607000   0.85248405   -2.4641781   -2.4641781   -1.7560717   0.05139584   -2.4641781   0.70810641  1252891 
  608000   0.85083555   -2.4632577   -2.4632577   -1.7565206  0.039463304   -2.4632577    0.7067371  1252891 
  609000   0.85160176   -2.4646002   -2.4646002   -1.7572266  0.030775018   -2.4646002   0.70737355  1252891 
  610000   0.85064284    -2.463631    -2.463631   -1.7570539  0.040262724    -2.463631   0.70657703  1252891 
  611000   0.85075538   -2.4634451   -2.4634451   -1.7567746  0.042918863   -2.4634451   0.70667051  1252891 
  612000   0.85047978   -2.4634819   -2.4634819   -1.7570403  0.044164371   -2.4634819   0.70644159  1252891 
  613000   0.85127759   -2.4642637   -2.4642637   -1.7571594  0.047695185   -2.4642637   0.70710428  1252891 
  614000   0.85135565   -2.4647029   -2.4647029   -1.7575338  0.042059063   -2.4647029   0.70716912  1252891 
  615000    0.8506819    -2.463246    -2.463246   -1.7566365  0.047592832    -2.463246   0.70660948  1252891 
  616000   0.85231576   -2.4646566   -2.4646566     -1.75669  0.046175629   -2.4646566   0.70796662  1252891 
  617000   0.85134182   -2.4641803   -2.4641803   -1.7570227  0.049098333   -2.4641803   0.70715763  1252891 
  618000   0.85181674   -2.4643591   -2.4643591    -1.756807  0.047614412   -2.4643591   0.70755212  1252891 
  619000    0.8513618   -2.4644507   -2.4644507   -1.7572765  0.049765798   -2.4644507   0.70717422  1252891 
  620000   0.85114105   -2.4643852   -2.4643852   -1.7573944  0.048847494   -2.4643852   0.70699086  1252891 
  621000   0.85011104   -2.4639911   -2.4639911   -1.7578558  0.046154096   -2.4639911    0.7061353  1252891 
  622000   0.85156241   -2.4653426   -2.4653426   -1.7580018  0.043249646   -2.4653426   0.70734086  1252891 
  623000   0.84993629   -2.4636719   -2.4636719   -1.7576817  0.035511346   -2.4636719   0.70599014  1252891 
  624000   0.85042874    -2.464105    -2.464105   -1.7577059   0.04018002    -2.464105   0.70639919  1252891 
  625000   0.85005522   -2.4635887   -2.4635887   -1.7574998  0.039918073   -2.4635887   0.70608893  1252891 
  626000   0.84934368   -2.4630222   -2.4630222   -1.7575244  0.047505568   -2.4630222    0.7054979  1252891 
  627000   0.85060014   -2.4641295   -2.4641295   -1.7575879  0.035717136   -2.4641295   0.70654156  1252891 
  628000   0.85008236     -2.46382     -2.46382   -1.7577085  0.037195145     -2.46382   0.70611148  1252891 
  629000   0.84985741    -2.463208    -2.463208   -1.7572834  0.040418216    -2.463208   0.70592462  1252891 
  630000   0.85023943   -2.4637449   -2.4637449   -1.7575029  0.037517299   -2.4637449   0.70624195  1252891 
  631000   0.85040751   -2.4640346   -2.4640346   -1.7576531  0.055183823   -2.4640346   0.70638156  1252891 
  632000   0.84986971   -2.4645623   -2.4645623   -1.7586274  0.043745215   -2.4645623   0.70593484  1252891 
  633000    0.8502228   -2.4643209   -2.4643209   -1.7580928  0.047394049   -2.4643209   0.70622813  1252891 
  634000   0.85088932   -2.4648419   -2.4648419   -1.7580601  0.046606493   -2.4648419   0.70678177  1252891 
  635000   0.85073782   -2.4652602   -2.4652602   -1.7586043  0.042206722   -2.4652602   0.70665593  1252891 
  636000   0.84980466   -2.4643629   -2.4643629   -1.7584821  0.047916145   -2.4643629    0.7058808  1252891 
  637000   0.85084281   -2.4649408   -2.4649408   -1.7581977  0.043156565   -2.4649408   0.70674314  1252891 
  638000   0.85079018   -2.4649625   -2.4649625   -1.7582631  0.033057219   -2.4649625   0.70669942  1252891 
  639000   0.84880618   -2.4642465   -2.4642465    -1.759195  0.044753293   -2.4642465   0.70505143  1252891 
  640000   0.84933689   -2.4647028   -2.4647028   -1.7592105    0.0453453   -2.4647028   0.70549226  1252891 
  641000    0.8495665   -2.4650299   -2.4650299   -1.7593469  0.048580207   -2.4650299   0.70568298  1252891 
  642000   0.84984102   -2.4652403   -2.4652403   -1.7593292  0.050517012   -2.4652403   0.70591101  1252891 
  643000   0.85034852   -2.4661094   -2.4661094   -1.7597769  0.038441979   -2.4661094   0.70633256  1252891 
  644000   0.85175574    -2.466751    -2.466751   -1.7592495  0.043439838    -2.466751   0.70750145  1252891 
  645000   0.85104244   -2.4663286   -2.4663286   -1.7594196  0.037234593   -2.4663286   0.70690896  1252891 
  646000    0.8506274   -2.4657557   -2.4657557   -1.7591915  0.044983563   -2.4657557    0.7065642  1252891 
  647000   0.85069779   -2.4660471   -2.4660471   -1.7594244  0.052430831   -2.4660471   0.70662267  1252891 
  648000   0.85086359   -2.4666794   -2.4666794    -1.759919  0.050515401   -2.4666794    0.7067604  1252891 
  649000     0.849795   -2.4652627   -2.4652627   -1.7593899  0.046033087   -2.4652627   0.70587278  1252891 
  650000   0.85048306   -2.4659387   -2.4659387   -1.7594944  0.053228013   -2.4659387   0.70644431  1252891 
  651000   0.84982058   -2.4653052   -2.4653052   -1.7594111  0.048390797   -2.4653052   0.70589403  1252891 
  652000   0.85011817    -2.466146    -2.466146   -1.7600048  0.042684592    -2.466146   0.70614122  1252891 
  653000   0.84980517   -2.4653735   -2.4653735   -1.7594922  0.043419333   -2.4653735   0.70588123  1252891 
  654000    0.8503875   -2.4655455   -2.4655455   -1.7591805   0.04207608   -2.4655455   0.70636494  1252891 
  655000   0.84942337   -2.4646813   -2.4646813   -1.7591172  0.037438265   -2.4646813   0.70556409  1252891 
  656000   0.84940193   -2.4657655   -2.4657655   -1.7602192  0.032760334   -2.4657655   0.70554629  1252891 
  657000   0.85009267   -2.4660863   -2.4660863   -1.7599663  0.033192479   -2.4660863   0.70612004  1252891 
  658000   0.84809228   -2.4649493   -2.4649493   -1.7604908  0.036278029   -2.4649493   0.70445844  1252891 
  659000   0.84858675    -2.465446    -2.465446   -1.7605768  0.046148221    -2.465446   0.70486916  1252891 
  660000    0.8498708    -2.465208    -2.465208   -1.7592722  0.043537422    -2.465208   0.70593575  1252891 
  661000   0.85016832   -2.4657168   -2.4657168   -1.7595339  0.041671562   -2.4657168   0.70618288  1252891 
  662000   0.84963444   -2.4662158   -2.4662158   -1.7604764  0.037897238   -2.4662158   0.70573942  1252891 
  663000   0.84887296   -2.4650891   -2.4650891   -1.7599822  0.049787374   -2.4650891    0.7051069  1252891 
  664000   0.84931166   -2.4652893   -2.4652893    -1.759818  0.039941256   -2.4652893    0.7054713  1252891 
  665000   0.84899966   -2.4660224   -2.4660224   -1.7608103  0.039142877   -2.4660224   0.70521214  1252891 
  666000   0.84938829   -2.4662842   -2.4662842   -1.7607492  0.044265131   -2.4662842   0.70553496  1252891 
  667000   0.84978564   -2.4668406   -2.4668406   -1.7609755  0.051881286   -2.4668406   0.70586501  1252891 
  668000   0.84906231   -2.4659464   -2.4659464   -1.7606822  0.041531395   -2.4659464   0.70526418  1252891 
  669000   0.84863111    -2.466505    -2.466505    -1.761599  0.034634726    -2.466505   0.70490601  1252891 
  670000     0.848841   -2.4669162   -2.4669162   -1.7618359  0.041825329   -2.4669162   0.70508036  1252891 
  671000   0.84889266   -2.4668671   -2.4668671   -1.7617438  0.047807103   -2.4668671   0.70512326  1252891 
  672000   0.84888053   -2.4670996   -2.4670996   -1.7619864  0.040154793   -2.4670996   0.70511319  1252891 
  673000    0.8495331    -2.467121    -2.467121   -1.7614657  0.041309209    -2.467121   0.70565524  1252891 
  674000   0.84951946   -2.4669427   -2.4669427   -1.7612988  0.043993398   -2.4669427   0.70564391  1252891 
  675000   0.84868881   -2.4667408   -2.4667408   -1.7617868  0.043561403   -2.4667408   0.70495394  1252891 
  676000   0.84944951   -2.4666591   -2.4666591   -1.7610733  0.044377694   -2.4666591   0.70558581  1252891 
  677000   0.84983681   -2.4669721   -2.4669721   -1.7610646  0.043773828   -2.4669721   0.70590751  1252891 
  678000   0.84949268   -2.4670478   -2.4670478   -1.7614261  0.041342247   -2.4670478   0.70562166  1252891 
  679000   0.84869406   -2.4660045   -2.4660045   -1.7610462  0.048458459   -2.4660045    0.7049583  1252891 
  680000   0.84882731   -2.4663338   -2.4663338   -1.7612648  0.044618216   -2.4663338   0.70506898  1252891 
  681000   0.84911539   -2.4662724   -2.4662724   -1.7609641  0.040076633   -2.4662724   0.70530828  1252891 
  682000   0.85009911    -2.466788    -2.466788   -1.7606626  0.053946955    -2.466788   0.70612539  1252891 
  683000   0.84955484   -2.4661661   -2.4661661   -1.7604928  0.047329881   -2.4661661    0.7056733  1252891 
  684000   0.84879551   -2.4665348   -2.4665348   -1.7614922  0.046076516   -2.4665348   0.70504257  1252891 
  685000   0.84984866    -2.466195    -2.466195   -1.7602776  0.050047507    -2.466195   0.70591735  1252891 
  686000   0.84868095   -2.4666111   -2.4666111   -1.7616637  0.037421945   -2.4666111   0.70494741  1252891 
  687000   0.84910679   -2.4671282   -2.4671282   -1.7618271  0.042987791   -2.4671282   0.70530113  1252891 
  688000   0.84886845   -2.4670296   -2.4670296   -1.7619265  0.039409403   -2.4670296   0.70510315  1252891 
  689000   0.84810825   -2.4661545   -2.4661545   -1.7616828  0.037904502   -2.4661545    0.7044717  1252891 
  690000   0.84919904    -2.466581    -2.466581   -1.7612033  0.051025523    -2.466581   0.70537775  1252891 
  691000   0.84840947   -2.4669459   -2.4669459    -1.762224  0.037723125   -2.4669459   0.70472191  1252891 
  692000   0.84894819   -2.4666946   -2.4666946   -1.7615253  0.033712275   -2.4666946   0.70516939  1252891 
  693000   0.84894095   -2.4667227   -2.4667227   -1.7615594  0.034493307   -2.4667227   0.70516338  1252891 
  694000   0.84910825   -2.4670954   -2.4670954   -1.7617931     0.041104   -2.4670954   0.70530235  1252891 
  695000   0.84796742   -2.4666343   -2.4666343   -1.7622796  0.045212577   -2.4666343   0.70435472  1252891 
  696000   0.84878594   -2.4680481   -2.4680481   -1.7630135  0.035136265   -2.4680481   0.70503462  1252891 
  697000   0.84894734   -2.4679593   -2.4679593   -1.7627906  0.042408249   -2.4679593   0.70516868  1252891 
  698000    0.8487939   -2.4682459   -2.4682459   -1.7632046  0.046223679   -2.4682459   0.70504123  1252891 
  699000    0.8504357   -2.4695355   -2.4695355   -1.7631305  0.047974458   -2.4695355   0.70640497  1252891 
  700000   0.84920067    -2.469115    -2.469115   -1.7637359  0.045550714    -2.469115   0.70537911  1252891 
  701000   0.84992373   -2.4693195   -2.4693195   -1.7633398  0.049084361   -2.4693195   0.70597971  1252891 
  702000   0.84951661     -2.46991     -2.46991   -1.7642685   0.04562689     -2.46991   0.70564154  1252891 
  703000   0.85024037   -2.4701234   -2.4701234   -1.7638807  0.047535694   -2.4701234   0.70624272  1252891 
  704000   0.85051511   -2.4698407   -2.4698407   -1.7633697  0.048017916   -2.4698407   0.70647094  1252891 
  705000   0.85004812   -2.4694684   -2.4694684   -1.7633854   0.04579219   -2.4694684   0.70608303  1252891 
  706000    0.8496698   -2.4684312   -2.4684312   -1.7626624  0.052000498   -2.4684312   0.70576879  1252891 
  707000   0.84877615    -2.468829    -2.468829   -1.7638025  0.044677581    -2.468829   0.70502648  1252891 
  708000   0.84856267   -2.4682191   -2.4682191   -1.7633699  0.050377821   -2.4682191   0.70484916  1252891 
  709000   0.84807118   -2.4685678   -2.4685678   -1.7641269  0.043504488   -2.4685678   0.70444091  1252891 
  710000   0.84868428   -2.4684582   -2.4684582    -1.763508  0.040258303   -2.4684582   0.70495018  1252891 
  711000   0.84934353   -2.4691048   -2.4691048   -1.7636071  0.041536075   -2.4691048   0.70549777  1252891 
  712000   0.84981701   -2.4681773   -2.4681773   -1.7622863  0.045168821   -2.4681773   0.70589107  1252891 
  713000   0.84851723   -2.4681794   -2.4681794    -1.763368  0.035179653   -2.4681794   0.70481142  1252891 
  714000   0.84878773   -2.4686646   -2.4686646   -1.7636285  0.031247729   -2.4686646   0.70503611  1252891 
  715000   0.84856778   -2.4681818   -2.4681818   -1.7633284  0.042762076   -2.4681818   0.70485341  1252891 
  716000   0.84832774   -2.4683356   -2.4683356   -1.7636816  0.039676398   -2.4683356   0.70465402  1252891 
  717000   0.84864691   -2.4689303   -2.4689303   -1.7640112  0.038188977   -2.4689303   0.70491913  1252891 
  718000   0.84893015   -2.4692816   -2.4692816   -1.7641272  0.036646331   -2.4692816    0.7051544  1252891 
  719000    0.8493488   -2.4700782   -2.4700782    -1.764576  0.046140354   -2.4700782   0.70550215  1252891 
  720000    0.8487499   -2.4694794   -2.4694794   -1.7644747   0.03823844   -2.4694794   0.70500468  1252891 
  721000   0.85026141    -2.469758    -2.469758   -1.7634978  0.049604446    -2.469758    0.7062602  1252891 
  722000   0.84921938   -2.4694577   -2.4694577   -1.7640631  0.040495529   -2.4694577   0.70539465  1252891 
  723000    0.8491019   -2.4696549   -2.4696549   -1.7643578  0.042789712   -2.4696549   0.70529707  1252891 
  724000   0.84865821   -2.4694659   -2.4694659   -1.7645373   0.04516216   -2.4694659   0.70492852  1252891 
  725000   0.84826818   -2.4689119   -2.4689119   -1.7643073  0.048360294   -2.4689119   0.70460454  1252891 
  726000   0.84969234   -2.4698903   -2.4698903   -1.7641028  0.045915288   -2.4698903   0.70578751  1252891 
  727000    0.8482778   -2.4695266   -2.4695266   -1.7649141  0.047475283   -2.4695266   0.70461254  1252891 
  728000      0.84837   -2.4694282   -2.4694282   -1.7647391  0.040552222   -2.4694282   0.70468912  1252891 
  729000   0.84805577   -2.4692084   -2.4692084   -1.7647803  0.044216536   -2.4692084   0.70442811  1252891 
  730000   0.84752614   -2.4694209   -2.4694209   -1.7654328    0.0481297   -2.4694209   0.70398818  1252891 
  731000   0.84846334   -2.4696839   -2.4696839   -1.7649173  0.038177812   -2.4696839   0.70476665  1252891 
  732000   0.84838679   -2.4705821   -2.4705821    -1.765879  0.034701918   -2.4705821   0.70470307  1252891 
  733000   0.84739152    -2.469269    -2.469269   -1.7653927  0.041441943    -2.469269   0.70387635  1252891 
  734000   0.84870732   -2.4700405   -2.4700405   -1.7650712  0.048380376   -2.4700405   0.70496932  1252891 
  735000   0.84854308   -2.4703777   -2.4703777   -1.7655449  0.032462129   -2.4703777   0.70483289  1252891 
  736000    0.8482211   -2.4695636   -2.4695636   -1.7649981  0.039959926   -2.4695636   0.70456544  1252891 
  737000   0.84834441   -2.4703659   -2.4703659   -1.7656981  0.044375402   -2.4703659   0.70466787  1252891 
  738000   0.84831551   -2.4695132   -2.4695132   -1.7648693  0.045318473   -2.4695132   0.70464386  1252891 
  739000   0.84869313   -2.4706762   -2.4706762   -1.7657187    0.0414057   -2.4706762   0.70495753  1252891 
  740000   0.84957822   -2.4710159   -2.4710159   -1.7653231  0.039183587   -2.4710159   0.70569271  1252891 
  741000   0.84842228   -2.4704043   -2.4704043   -1.7656717  0.042358908   -2.4704043   0.70473255  1252891 
  742000   0.84877083   -2.4705897   -2.4705897   -1.7655677  0.039282978   -2.4705897   0.70502207  1252891 
  743000   0.84799978   -2.4700139   -2.4700139   -1.7656323  0.049700717   -2.4700139    0.7043816  1252891 
  744000   0.84785966   -2.4693847   -2.4693847   -1.7651195  0.054720833   -2.4693847   0.70426522  1252891 
  745000   0.84797405    -2.469859    -2.469859   -1.7654988  0.049822471    -2.469859   0.70436023  1252891 
  746000   0.84687823   -2.4694065   -2.4694065   -1.7659565  0.047612139   -2.4694065      0.70345  1252891 
  747000   0.84780872   -2.4696196   -2.4696196   -1.7653967  0.040620868   -2.4696196    0.7042229  1252891 
  748000   0.84817048    -2.470342    -2.470342   -1.7658186  0.042933624    -2.470342   0.70452339  1252891 
  749000   0.84739057   -2.4698232   -2.4698232   -1.7659477  0.043021493   -2.4698232   0.70387557  1252891 
  750000   0.84648569   -2.4690038   -2.4690038   -1.7658798  0.049138888   -2.4690038   0.70312394  1252891 
  751000   0.84641102   -2.4694378   -2.4694378   -1.7663758   0.04033763   -2.4694378   0.70306191  1252891 
  752000   0.84710382   -2.4692778   -2.4692778   -1.7656404  0.035508185   -2.4692778   0.70363739  1252891 
  753000     0.847428   -2.4693861   -2.4693861   -1.7654795  0.042986647   -2.4693861   0.70390666  1252891 
  754000   0.84766107   -2.4692366   -2.4692366   -1.7651363  0.035044418   -2.4692366   0.70410026  1252891 
  755000    0.8472392   -2.4692949   -2.4692949    -1.765545  0.034313658   -2.4692949   0.70374984  1252891 
  756000   0.84763183   -2.4706093   -2.4706093   -1.7665334  0.038623503   -2.4706093   0.70407597  1252891 
  757000   0.84853594   -2.4704525   -2.4704525   -1.7656255  0.046553521   -2.4704525   0.70482696  1252891 
  758000   0.84838569   -2.4698385   -2.4698385   -1.7651363  0.039995327   -2.4698385   0.70470216  1252891 
  759000   0.84808454   -2.4699112   -2.4699112   -1.7654592  0.048011936   -2.4699112   0.70445201  1252891 
  760000   0.84938743   -2.4714025   -2.4714025   -1.7658682  0.048470588   -2.4714025   0.70553424  1252891 
  761000   0.85017339   -2.4716484   -2.4716484   -1.7654613  0.049094921   -2.4716484   0.70618709  1252891 
  762000   0.84904256   -2.4713397   -2.4713397   -1.7660919  0.042123693   -2.4713397   0.70524777  1252891 
  763000   0.84962238   -2.4720128   -2.4720128   -1.7662834  0.042908595   -2.4720128    0.7057294  1252891 
  764000    0.8468216   -2.4703993   -2.4703993   -1.7669963  0.055662488   -2.4703993   0.70340296  1252891 
  765000      0.84843   -2.4712186   -2.4712186   -1.7664797  0.039242909   -2.4712186   0.70473896  1252891 
  766000   0.84642902   -2.4701234   -2.4701234   -1.7670465  0.050480655   -2.4701234   0.70307687  1252891 
  767000   0.84756598   -2.4707871   -2.4707871   -1.7667658  0.038355738   -2.4707871   0.70402128  1252891 
  768000   0.84791274   -2.4707558   -2.4707558   -1.7664465  0.042706259   -2.4707558   0.70430931  1252891 
  769000   0.84721627    -2.470285    -2.470285   -1.7665542  0.040332446    -2.470285   0.70373079  1252891 
  770000   0.84632415   -2.4700212   -2.4700212   -1.7670315  0.041851846   -2.4700212   0.70298976  1252891 
  771000   0.84640514   -2.4703978   -2.4703978   -1.7673408  0.033468166   -2.4703978   0.70305703  1252891 
  772000    0.8462615   -2.4701178   -2.4701178     -1.76718  0.039941666   -2.4701178   0.70293772  1252891 
  773000   0.84638701   -2.4710179   -2.4710179    -1.767976  0.048323667   -2.4710179   0.70304198  1252891 
  774000   0.84683292   -2.4710066   -2.4710066   -1.7675942  0.045669434   -2.4710066   0.70341236  1252891 
  775000    0.8471054   -2.4709841   -2.4709841   -1.7673454  0.041642471   -2.4709841   0.70363869  1252891 
  776000     0.848147   -2.4718953   -2.4718953   -1.7673914  0.036789952   -2.4718953   0.70450389  1252891 
  777000   0.84760174   -2.4719422   -2.4719422   -1.7678913  0.039497014   -2.4719422   0.70405098  1252891 
  778000   0.84856678   -2.4730134   -2.4730134   -1.7681608  0.044597677   -2.4730134   0.70485257  1252891 
  779000   0.84799323   -2.4716028   -2.4716028   -1.7672267  0.051730686   -2.4716028   0.70437616  1252891 
  780000   0.84788265   -2.4724815   -2.4724815   -1.7681972  0.051290053   -2.4724815   0.70428431  1252891 
  781000   0.84709897   -2.4718137   -2.4718137   -1.7681803  0.036264324   -2.4718137   0.70363336  1252891 
  782000   0.84697276    -2.472448    -2.472448   -1.7689195  0.042652228    -2.472448   0.70352852  1252891 
  783000    0.8461834   -2.4712903   -2.4712903   -1.7684175  0.042864203   -2.4712903   0.70287285  1252891 
  784000   0.84649557    -2.471669    -2.471669   -1.7685369  0.039671573    -2.471669   0.70313214  1252891 
  785000   0.84605657   -2.4711939   -2.4711939   -1.7684264     0.037572   -2.4711939    0.7027675  1252891 
  786000   0.84580659   -2.4712022   -2.4712022   -1.7686424  0.040280313   -2.4712022   0.70255986  1252891 
  787000    0.8470636   -2.4720171   -2.4720171   -1.7684132  0.039202431   -2.4720171   0.70360398  1252891 
  788000   0.84698835   -2.4715168   -2.4715168   -1.7679753  0.039042683   -2.4715168   0.70354147  1252891 
  789000   0.84675967   -2.4722141   -2.4722141   -1.7688626  0.045937271   -2.4722141   0.70335152  1252891 
  790000   0.84649126   -2.4724829   -2.4724829   -1.7693544  0.038376841   -2.4724829   0.70312857  1252891 
  791000     0.847283    -2.472209    -2.472209   -1.7684228  0.045286601    -2.472209   0.70378622  1252891 
  792000   0.84731624   -2.4731112   -2.4731112   -1.7692974   0.03346006   -2.4731112   0.70381383  1252891 
  793000   0.84726458   -2.4730382   -2.4730382   -1.7692673  0.049099963   -2.4730382   0.70377092  1252891 
  794000   0.84647812    -2.472488    -2.472488   -1.7693703  0.042529406    -2.472488   0.70311765  1252891 
  795000   0.84835806    -2.473681    -2.473681   -1.7690018  0.048841195    -2.473681    0.7046792  1252891 
  796000   0.84512473   -2.4720331   -2.4720331   -1.7700396  0.048391336   -2.4720331   0.70199347  1252891 
  797000   0.84686028   -2.4731642   -2.4731642   -1.7697291  0.039761392   -2.4731642   0.70343509  1252891 
  798000   0.84784084   -2.4737681   -2.4737681   -1.7695185  0.037876474   -2.4737681   0.70424958  1252891 
  799000   0.84732771   -2.4731912   -2.4731912   -1.7693678  0.040057135   -2.4731912   0.70382335  1252891 
  800000   0.84838828   -2.4739006   -2.4739006   -1.7691963  0.047857422   -2.4739006   0.70470431  1252891 
  801000   0.84751695   -2.4735762   -2.4735762   -1.7695956  0.039645156   -2.4735762   0.70398055  1252891 
  802000   0.84657942   -2.4732359   -2.4732359   -1.7700341  0.048110727   -2.4732359    0.7032018  1252891 
  803000   0.84631513   -2.4727573   -2.4727573    -1.769775  0.048999361   -2.4727573   0.70298227  1252891 
  804000   0.84496773   -2.4721189   -2.4721189   -1.7702558  0.046472751   -2.4721189   0.70186306  1252891 
  805000   0.84549271   -2.4730755   -2.4730755   -1.7707764  0.044741285   -2.4730755   0.70229913  1252891 
  806000    0.8475096   -2.4734802   -2.4734802   -1.7695057  0.039482184   -2.4734802   0.70397444  1252891 
  807000   0.84663068   -2.4729978   -2.4729978   -1.7697534  0.042418009   -2.4729978   0.70324437  1252891 
  808000    0.8460093   -2.4730848   -2.4730848   -1.7703566  0.048948461   -2.4730848   0.70272824  1252891 
  809000   0.84670446   -2.4736796   -2.4736796   -1.7703739  0.040341564   -2.4736796   0.70330566  1252891 
  810000   0.84670118   -2.4735105   -2.4735105   -1.7702075  0.047358204   -2.4735105   0.70330294  1252891 
  811000   0.84678509   -2.4736333   -2.4736333   -1.7702606  0.045895237   -2.4736333   0.70337264  1252891 
  812000   0.84657802    -2.473798    -2.473798   -1.7705973  0.038882582    -2.473798   0.70320063  1252891 
  813000   0.84608993   -2.4738172   -2.4738172    -1.771022  0.046274248   -2.4738172   0.70279521  1252891 
  814000   0.84718442    -2.474332    -2.474332   -1.7706277  0.045837769    -2.474332   0.70370433  1252891 
  815000    0.8459278   -2.4733331   -2.4733331   -1.7706726  0.056984268   -2.4733331   0.70266054  1252891 
  816000   0.84616527   -2.4736953   -2.4736953   -1.7708375  0.052795352   -2.4736953   0.70285779  1252891 
  817000   0.84606517   -2.4732028   -2.4732028   -1.7704282  0.041803369   -2.4732028   0.70277464  1252891 
  818000   0.84638794   -2.4734829   -2.4734829   -1.7704401  0.052299886   -2.4734829   0.70304275  1252891 
  819000   0.84647632   -2.4737099   -2.4737099   -1.7705937   0.04241676   -2.4737099   0.70311615  1252891 
  820000   0.84688144    -2.474445    -2.474445   -1.7709923  0.045763376    -2.474445   0.70345266  1252891 
  821000   0.84628968   -2.4740952   -2.4740952   -1.7711341  0.045874783   -2.4740952   0.70296113  1252891 
  822000   0.84627501   -2.4744039   -2.4744039   -1.7714549  0.044817354   -2.4744039   0.70294894  1252891 
  823000   0.84526515   -2.4730099   -2.4730099   -1.7708998  0.049931238   -2.4730099   0.70211012  1252891 
  824000   0.84518932   -2.4734119   -2.4734119   -1.7713648  0.035636446   -2.4734119   0.70204713  1252891 
  825000   0.84562282    -2.473368    -2.473368   -1.7709608  0.035474023    -2.473368   0.70240721  1252891 
  826000   0.84512799   -2.4736346   -2.4736346   -1.7716384  0.041913422   -2.4736346   0.70199618  1252891 
  827000   0.84633931     -2.47384     -2.47384   -1.7708376  0.044965797     -2.47384   0.70300235  1252891 
  828000   0.84462587   -2.4733963   -2.4733963   -1.7718172  0.035648413   -2.4733963    0.7015791  1252891 
  829000   0.84575466   -2.4731912   -2.4731912   -1.7706744  0.040024008   -2.4731912   0.70251672  1252891 
  830000   0.84477685   -2.4727469   -2.4727469   -1.7710424  0.042648411   -2.4727469   0.70170451  1252891 
  831000   0.84662437   -2.4739669   -2.4739669   -1.7707278  0.042239228   -2.4739669   0.70323913  1252891 
  832000   0.84603293   -2.4739755   -2.4739755   -1.7712276  0.042123722   -2.4739755   0.70274786  1252891 
  833000   0.84580446   -2.4743434   -2.4743434   -1.7717853    0.0371562   -2.4743434   0.70255808  1252891 
  834000   0.84502308   -2.4739695   -2.4739695   -1.7720604  0.045634229   -2.4739695   0.70190904  1252891 
  835000   0.84592326    -2.474312    -2.474312   -1.7716553  0.047051447    -2.474312   0.70265677  1252891 
  836000   0.84501832   -2.4755067   -2.4755067   -1.7736017  0.032787324   -2.4755067   0.70190508  1252891 
  837000   0.84467743   -2.4754663   -2.4754663   -1.7738444  0.046560163   -2.4754663   0.70162193  1252891 
  838000   0.84530102   -2.4750178   -2.4750178   -1.7728779  0.047698643   -2.4750178   0.70213991  1252891 
  839000   0.84512414    -2.474933    -2.474933     -1.77294  0.039898652    -2.474933   0.70199298  1252891 
  840000   0.84509488   -2.4745988   -2.4745988   -1.7726302  0.056055778   -2.4745988   0.70196868  1252891 
  841000    0.8464705   -2.4757216   -2.4757216   -1.7726103  0.033389008   -2.4757216   0.70311132  1252891 
  842000   0.84604401   -2.4753776   -2.4753776   -1.7726205  0.058970342   -2.4753776   0.70275707  1252891 
  843000   0.84537283   -2.4750514   -2.4750514   -1.7728519  0.036875394   -2.4750514   0.70219956  1252891 
  844000   0.84686916   -2.4763788   -2.4763788   -1.7729363  0.045542586   -2.4763788   0.70344247  1252891 
  845000   0.84433093   -2.4745523   -2.4745523   -1.7732182  0.046909946   -2.4745523   0.70133412  1252891 
  846000    0.8462254   -2.4753227   -2.4753227   -1.7724149  0.046483721   -2.4753227   0.70290773  1252891 
  847000   0.84482491   -2.4748509   -2.4748509   -1.7731065  0.041885857   -2.4748509   0.70174443  1252891 
  848000   0.84495998   -2.4743363   -2.4743363   -1.7724797  0.055527236   -2.4743363   0.70185663  1252891 
  849000   0.84608279      -2.4757      -2.4757   -1.7729108  0.053097847      -2.4757   0.70278928  1252891 
  850000   0.84435814   -2.4749555   -2.4749555   -1.7735988  0.036720032   -2.4749555   0.70135672  1252891 
  851000   0.84450225   -2.4750636   -2.4750636   -1.7735872  0.049738687   -2.4750636   0.70147642  1252891 
  852000   0.84451576   -2.4747108   -2.4747108   -1.7732231  0.045454521   -2.4747108   0.70148764  1252891 
  853000    0.8445141   -2.4750191   -2.4750191   -1.7735328  0.047095822   -2.4750191   0.70148627  1252891 
  854000   0.84437506   -2.4750833   -2.4750833   -1.7737125  0.032494262   -2.4750833   0.70137077  1252891 
  855000   0.84566499   -2.4753501   -2.4753501   -1.7729079   0.03578697   -2.4753501   0.70244223  1252891 
  856000   0.84558687   -2.4753754   -2.4753754    -1.772998  0.045237619   -2.4753754   0.70237735  1252891 
  857000   0.84451709   -2.4747918   -2.4747918   -1.7733031  0.037155145   -2.4747918   0.70148874  1252891 
  858000   0.84454073   -2.4748599   -2.4748599   -1.7733516  0.043490806   -2.4748599   0.70150838  1252891 
  859000   0.84560557   -2.4757517   -2.4757517   -1.7733589  0.040676108   -2.4757517   0.70239288  1252891 
  860000   0.84597524   -2.4765189   -2.4765189   -1.7738189  0.047809877   -2.4765189   0.70269994  1252891 
  861000   0.84509362   -2.4763307   -2.4763307   -1.7743631  0.040848934   -2.4763307   0.70196764  1252891 
  862000   0.84598248   -2.4772238   -2.4772238   -1.7745178  0.043732786   -2.4772238   0.70270595  1252891 
  863000   0.84489982   -2.4762496   -2.4762496    -1.774443  0.048263918   -2.4762496   0.70180666  1252891 
  864000   0.84599169   -2.4764721   -2.4764721   -1.7737585  0.044615053   -2.4764721   0.70271361  1252891 
  865000   0.84590353   -2.4761926   -2.4761926   -1.7735523  0.045764403   -2.4761926   0.70264038  1252891 
  866000   0.84537526   -2.4768748   -2.4768748   -1.7746732  0.045447525   -2.4768748   0.70220157  1252891 
  867000   0.84497654   -2.4761558   -2.4761558   -1.7742854  0.039765259   -2.4761558   0.70187038  1252891 
  868000   0.84443618   -2.4756283   -2.4756283   -1.7742067  0.051835612   -2.4756283   0.70142154  1252891 
  869000   0.84530296   -2.4761145   -2.4761145    -1.773973  0.046819097   -2.4761145   0.70214152  1252891 
  870000   0.84450259   -2.4759041   -2.4759041   -1.7744274  0.041286272   -2.4759041    0.7014767  1252891 
  871000   0.84395253   -2.4757758   -2.4757758    -1.774756  0.049795124   -2.4757758    0.7010198  1252891 
  872000   0.84559502   -2.4768171   -2.4768171    -1.774433  0.043684175   -2.4768171   0.70238412  1252891 
  873000   0.84371879   -2.4752372   -2.4752372   -1.7744116  0.034556705   -2.4752372   0.70082565  1252891 
  874000   0.84399188   -2.4756219   -2.4756219   -1.7745695    0.0445748   -2.4756219   0.70105248  1252891 
  875000   0.84546338   -2.4760255   -2.4760255   -1.7737507  0.042030999   -2.4760255   0.70227477  1252891 
  876000   0.84531408   -2.4760143   -2.4760143   -1.7738635  0.042496195   -2.4760143   0.70215075  1252891 
  877000   0.84512286   -2.4767845   -2.4767845   -1.7747926  0.048250598   -2.4767845   0.70199192  1252891 
  878000   0.84551826   -2.4769791   -2.4769791   -1.7746587  0.043367909   -2.4769791   0.70232036  1252891 
  879000   0.84392895   -2.4761779   -2.4761779   -1.7751777  0.044525991   -2.4761779   0.70100021  1252891 
  880000   0.84485212   -2.4764302   -2.4764302   -1.7746632  0.036734153   -2.4764302   0.70176703  1252891 
  881000   0.84373799   -2.4767235   -2.4767235   -1.7758819  0.046395415   -2.4767235   0.70084159  1252891 
  882000   0.84528967    -2.477656    -2.477656   -1.7755255  0.049039525    -2.477656   0.70213048  1252891 
  883000   0.84399479   -2.4775208   -2.4775208   -1.7764659  0.049043713   -2.4775208    0.7010549  1252891 
  884000   0.84415242   -2.4763577   -2.4763577   -1.7751719  0.045034961   -2.4763577   0.70118583  1252891 
  885000    0.8449091   -2.4768207   -2.4768207   -1.7750063  0.045729832   -2.4768207   0.70181437  1252891 
  886000   0.84516712   -2.4777237   -2.4777237   -1.7756951  0.051560504   -2.4777237   0.70202868  1252891 
  887000    0.8451038   -2.4775195   -2.4775195   -1.7755434  0.045983082   -2.4775195   0.70197609  1252891 
  888000   0.84392774   -2.4770439   -2.4770439   -1.7760447  0.047439258   -2.4770439   0.70099921  1252891 
  889000   0.84433069    -2.477695    -2.477695   -1.7763611   0.04772107    -2.477695   0.70133391  1252891 
  890000   0.84430997   -2.4770601   -2.4770601   -1.7757434  0.038647283   -2.4770601    0.7013167  1252891 
  891000   0.84419586   -2.4776873   -2.4776873   -1.7764654  0.045135354   -2.4776873   0.70122192  1252891 
  892000   0.84358868   -2.4769928   -2.4769928   -1.7762753  0.053068224   -2.4769928   0.70071757  1252891 
  893000   0.84281752   -2.4763989   -2.4763989   -1.7763219  0.045088686   -2.4763989   0.70007702  1252891 
  894000    0.8444413   -2.4773236   -2.4773236   -1.7758978  0.041377579   -2.4773236   0.70142579  1252891 
  895000   0.84364573   -2.4770485   -2.4770485   -1.7762835  0.048715781   -2.4770485   0.70076496  1252891 
  896000   0.84421113   -2.4779351   -2.4779351   -1.7767005  0.043682149   -2.4779351    0.7012346  1252891 
  897000   0.84446314    -2.478858    -2.478858   -1.7774141  0.040574572    -2.478858   0.70144393  1252891 
  898000    0.8445264   -2.4782254   -2.4782254   -1.7767289  0.047474739   -2.4782254   0.70149648  1252891 
  899000   0.84475726   -2.4781224   -2.4781224   -1.7764341    0.0451924   -2.4781224   0.70168824  1252891 
  900000   0.84535699   -2.4781679   -2.4781679   -1.7759815  0.041994323   -2.4781679    0.7021864  1252891 
  901000   0.84366966   -2.4780808   -2.4780808   -1.7772959  0.028815424   -2.4780808   0.70078484  1252891 
  902000   0.84468042    -2.478344    -2.478344   -1.7767196  0.042606166    -2.478344   0.70162441  1252891 
  903000   0.84479381    -2.478367    -2.478367   -1.7766484  0.051236911    -2.478367    0.7017186  1252891 
  904000   0.84373953   -2.4772851   -2.4772851   -1.7764422  0.050843213   -2.4772851   0.70084287  1252891 
  905000   0.84357344   -2.4778534   -2.4778534   -1.7771485  0.050921536   -2.4778534   0.70070492  1252891 
  906000   0.84509113   -2.4784192   -2.4784192   -1.7764536  0.041005617   -2.4784192   0.70196557  1252891 
  907000   0.84541383   -2.4786982   -2.4786982   -1.7764646  0.044165347   -2.4786982   0.70223361  1252891 
  908000   0.84448708   -2.4781117   -2.4781117   -1.7766478  0.042936051   -2.4781117   0.70146382  1252891 
  909000   0.84377473   -2.4789803   -2.4789803   -1.7781082  0.039883661   -2.4789803   0.70087212  1252891 
  910000   0.84331852   -2.4785399   -2.4785399   -1.7780467  0.045675032   -2.4785399   0.70049317  1252891 
  911000   0.84279785   -2.4780703   -2.4780703   -1.7780096  0.037787854   -2.4780703   0.70006067  1252891 
  912000   0.84435063   -2.4786568   -2.4786568   -1.7773063  0.038020006   -2.4786568   0.70135048  1252891 
  913000   0.84364593   -2.4787087   -2.4787087   -1.7779436  0.046238543   -2.4787087   0.70076512  1252891 
  914000   0.84390468   -2.4784524   -2.4784524   -1.7774723  0.035611476   -2.4784524   0.70098005  1252891 
  915000   0.84369649   -2.4780188   -2.4780188   -1.7772117  0.043556124   -2.4780188   0.70080712  1252891 
  916000   0.84446043   -2.4793798   -2.4793798   -1.7779381  0.035608875   -2.4793798   0.70144168  1252891 
  917000   0.84518632    -2.479299    -2.479299   -1.7772543   0.04441379    -2.479299   0.70204463  1252891 
  918000   0.84324536   -2.4779033   -2.4779033   -1.7774709  0.041377828   -2.4779033    0.7004324  1252891 
  919000    0.8442299   -2.4792072   -2.4792072    -1.777957  0.047862051   -2.4792072   0.70125019  1252891 
  920000    0.8447111   -2.4794784   -2.4794784   -1.7778285  0.039668115   -2.4794784    0.7016499  1252891 
  921000   0.84307923   -2.4788132   -2.4788132   -1.7785188  0.038264306   -2.4788132    0.7002944  1252891 
  922000   0.84351145   -2.4786686   -2.4786686   -1.7780151  0.037730839   -2.4786686   0.70065342  1252891 
  923000   0.84363493   -2.4792846   -2.4792846   -1.7785286  0.041536439   -2.4792846   0.70075599  1252891 
  924000   0.84365314   -2.4786753   -2.4786753   -1.7779042  0.040426501   -2.4786753   0.70077111  1252891 
  925000   0.84296693   -2.4780306   -2.4780306   -1.7778295  0.043216552   -2.4780306   0.70020112  1252891 
  926000   0.84450127   -2.4790495   -2.4790495   -1.7775739  0.040619118   -2.4790495    0.7014756  1252891 
  927000   0.84235858   -2.4785393   -2.4785393   -1.7788435  0.030179838   -2.4785393    0.6996958  1252891 
  928000   0.84274961   -2.4786553   -2.4786553   -1.7786347  0.035347489   -2.4786553    0.7000206  1252891 
  929000   0.84200957   -2.4785672   -2.4785672   -1.7791613  0.041144378   -2.4785672    0.6994059  1252891 
  930000   0.84335774   -2.4798474   -2.4798474   -1.7793216   0.03375463   -2.4798474   0.70052574  1252891 
  931000   0.84261617    -2.478821    -2.478821   -1.7789112  0.049078156    -2.478821   0.69990976  1252891 
  932000   0.84189895   -2.4781089   -2.4781089   -1.7787949  0.043128894   -2.4781089   0.69931402  1252891 
  933000   0.84310863   -2.4793115   -2.4793115   -1.7789927  0.048445208   -2.4793115   0.70031882  1252891 
  934000   0.84238262   -2.4789928   -2.4789928   -1.7792771  0.046531777   -2.4789928   0.69971577  1252891 
  935000    0.8442042   -2.4799084   -2.4799084   -1.7786796  0.039323151   -2.4799084   0.70122885  1252891 
  936000   0.84261117   -2.4789476   -2.4789476    -1.779042  0.047202128   -2.4789476   0.69990561  1252891 
  937000   0.84326723   -2.4802942   -2.4802942   -1.7798436  0.041838821   -2.4802942   0.70045056  1252891 
  938000    0.8429657   -2.4803163   -2.4803163   -1.7801162  0.030170144   -2.4803163    0.7002001  1252891 
  939000   0.84258891    -2.479988    -2.479988   -1.7801009  0.047392195    -2.479988   0.69988713  1252891 
  940000   0.84348605   -2.4812508   -2.4812508   -1.7806185  0.041667568   -2.4812508   0.70063232  1252891 
  941000   0.84347727   -2.4808833   -2.4808833   -1.7802582   0.04525734   -2.4808833   0.70062503  1252891 
  942000    0.8443838   -2.4815359   -2.4815359   -1.7801578  0.038265803   -2.4815359   0.70137803  1252891 
  943000   0.84276588   -2.4808238   -2.4808238   -1.7807896  0.050633938   -2.4808238   0.70003412  1252891 
  944000   0.84208099   -2.4805486   -2.4805486   -1.7810834  0.045637376   -2.4805486   0.69946523  1252891 
  945000   0.84284569    -2.480697    -2.480697   -1.7805966  0.050912219    -2.480697   0.70010042  1252891 
  946000   0.84239655   -2.4799502   -2.4799502   -1.7802228  0.044279346   -2.4799502   0.69972735  1252891 
  947000   0.84218024   -2.4797035   -2.4797035   -1.7801558  0.036738635   -2.4797035   0.69954767  1252891 
  948000   0.84200817   -2.4803296   -2.4803296   -1.7809249  0.046072444   -2.4803296   0.69940474  1252891 
  949000   0.84268127   -2.4801225   -2.4801225   -1.7801587   0.03567267   -2.4801225   0.69996384  1252891 
  950000   0.84231818   -2.4798212   -2.4798212    -1.780159  0.049764678   -2.4798212   0.69966225  1252891 
  951000   0.84098383   -2.4797039   -2.4797039     -1.78115   0.04559107   -2.4797039   0.69855388  1252891 
  952000   0.84165999   -2.4804022   -2.4804022   -1.7812867  0.042416632   -2.4804022   0.69911553  1252891 
  953000   0.84122157    -2.479788    -2.479788   -1.7810366  0.044226206    -2.479788   0.69875136  1252891 
  954000    0.8416693   -2.4801713   -2.4801713   -1.7810481   0.03902056   -2.4801713   0.69912326  1252891 
  955000   0.84218549   -2.4807573   -2.4807573   -1.7812052  0.048298755   -2.4807573   0.69955202  1252891 
  956000   0.84270198    -2.481017    -2.481017    -1.781036  0.049017769    -2.481017   0.69998104  1252891 
  957000   0.84172181   -2.4803083   -2.4803083   -1.7811414  0.048175593   -2.4803083   0.69916688  1252891 
  958000   0.84220771   -2.4812226   -2.4812226   -1.7816521  0.053313501   -2.4812226   0.69957048  1252891 
  959000   0.84351456   -2.4820276   -2.4820276   -1.7813716   0.04600103   -2.4820276   0.70065601  1252891 
  960000   0.84239089   -2.4809904   -2.4809904   -1.7812678  0.038205668   -2.4809904   0.69972264  1252891 
  961000   0.84273486   -2.4817408   -2.4817408   -1.7817325  0.043199173   -2.4817408   0.70000835  1252891 
  962000   0.84294572   -2.4814728   -2.4814728   -1.7812893   0.04358644   -2.4814728    0.7001835  1252891 
  963000   0.84439424   -2.4822314   -2.4822314   -1.7808447  0.046617743   -2.4822314    0.7013867  1252891 
  964000   0.84393295   -2.4822206   -2.4822206   -1.7812171  0.044998546   -2.4822206   0.70100354  1252891 
  965000    0.8432762   -2.4823851   -2.4823851   -1.7819271  0.048307331   -2.4823851   0.70045802  1252891 
  966000   0.84339278   -2.4820697   -2.4820697   -1.7815148  0.052288335   -2.4820697   0.70055485  1252891 
  967000   0.84379838   -2.4817615   -2.4817615   -1.7808698  0.051739058   -2.4817615   0.70089176  1252891 
  968000   0.84193202   -2.4812821   -2.4812821   -1.7819406  0.041393679   -2.4812821   0.69934148  1252891 
  969000   0.84209801    -2.481063    -2.481063   -1.7815836  0.046341923    -2.481063   0.69947936  1252891 
  970000   0.84296576   -2.4818339   -2.4818339   -1.7816338  0.044573147   -2.4818339   0.70020015  1252891 
  971000   0.84338395   -2.4814914   -2.4814914   -1.7809438  0.034164705   -2.4814914   0.70054751  1252891 
  972000   0.84219698   -2.4812207   -2.4812207   -1.7816591  0.044292102   -2.4812207   0.69956157  1252891 
  973000   0.84181538   -2.4810685   -2.4810685   -1.7818239  0.036190007   -2.4810685    0.6992446  1252891 
  974000   0.84182479   -2.4803146   -2.4803146   -1.7810622  0.039170069   -2.4803146   0.69925242  1252891 
  975000   0.84240155   -2.4813792   -2.4813792   -1.7816477  0.034294258   -2.4813792   0.69973149  1252891 
  976000   0.84249544    -2.481847    -2.481847   -1.7820376  0.044395063    -2.481847   0.69980949  1252891 
  977000   0.84310509    -2.481894    -2.481894   -1.7815781  0.039118656    -2.481894   0.70031589  1252891 
  978000   0.84244879   -2.4808882   -2.4808882   -1.7811175  0.043823434   -2.4808882   0.69977073  1252891 
  979000   0.84362119   -2.4821632   -2.4821632   -1.7814186  0.051394921   -2.4821632   0.70074457  1252891 
  980000      0.84313   -2.4817365   -2.4817365   -1.7813999  0.046797108   -2.4817365   0.70033657  1252891 
  981000   0.84366372   -2.4822352   -2.4822352   -1.7814553  0.044394438   -2.4822352    0.7007799  1252891 
  982000   0.84384295   -2.4830747   -2.4830747   -1.7821459  0.043189212   -2.4830747   0.70092877  1252891 
  983000   0.84331864   -2.4831655   -2.4831655   -1.7826722  0.058715882   -2.4831655   0.70049326  1252891 
  984000   0.84277327   -2.4820491   -2.4820491   -1.7820088  0.042230046   -2.4820491   0.70004026  1252891 
  985000   0.84334961   -2.4832077   -2.4832077   -1.7826887  0.033462598   -2.4832077   0.70051899  1252891 
  986000   0.84239937   -2.4822091   -2.4822091   -1.7824794  0.051311136   -2.4822091   0.69972969  1252891 
  987000   0.84282224   -2.4832294   -2.4832294   -1.7831484  0.029685711   -2.4832294   0.70008094  1252891 
  988000   0.84158962   -2.4819142   -2.4819142   -1.7828572  0.040480279   -2.4819142   0.69905707  1252891 
  989000   0.84363641   -2.4832232   -2.4832232    -1.782466  0.045503824   -2.4832232   0.70075722  1252891 
  990000   0.84418894   -2.4840248   -2.4840248   -1.7828086  0.033404017   -2.4840248   0.70121617  1252891 
  991000   0.84356783   -2.4833244   -2.4833244   -1.7826242  0.040763625   -2.4833244   0.70070025  1252891 
  992000   0.84239822   -2.4832098   -2.4832098   -1.7834811  0.039593709   -2.4832098   0.69972873  1252891 
  993000   0.84333584   -2.4832749   -2.4832749   -1.7827673  0.047251102   -2.4832749   0.70050755  1252891 
  994000   0.84304005   -2.4829114   -2.4829114   -1.7826496  0.042882902   -2.4829114   0.70026186  1252891 
  995000    0.8423599   -2.4826599   -2.4826599    -1.782963  0.041460762   -2.4826599    0.6996969  1252891 
  996000   0.84250804   -2.4826287   -2.4826287   -1.7828087  0.046417386   -2.4826287   0.69981995  1252891 
  997000   0.84072763   -2.4809464   -2.4809464   -1.7826054  0.039566512   -2.4809464   0.69834107  1252891 
  998000   0.84233666   -2.4821257   -2.4821257   -1.7824481  0.054788294   -2.4821257   0.69967759  1252891 
  999000   0.84281757    -2.482202    -2.482202   -1.7821249  0.037382941    -2.482202   0.70007705  1252891 
 1000000   0.84178698   -2.4822437   -2.4822437   -1.7830227  0.037283068   -2.4822437   0.69922101  1252891 
 1001000   0.84042135   -2.4814493   -2.4814493   -1.7833626  0.041373509   -2.4814493   0.69808666  1252891 
 1002000   0.84252243   -2.4824913   -2.4824913   -1.7826594  0.031769342   -2.4824913    0.6998319  1252891 
 1003000   0.84167359   -2.4814893   -2.4814893   -1.7823625  0.051205324   -2.4814893   0.69912682  1252891 
 1004000   0.84199206   -2.4820352   -2.4820352   -1.7826439  0.036392695   -2.4820352   0.69939136  1252891 
 1005000   0.84216578   -2.4822491   -2.4822491   -1.7827135  0.043156507   -2.4822491   0.69953566  1252891 
 1006000   0.84256127   -2.4823131   -2.4823131   -1.7824489  0.049787352   -2.4823131   0.69986417  1252891 
 1007000   0.84198652   -2.4827686   -2.4827686   -1.7833819  0.046113639   -2.4827686   0.69938675  1252891 
 1008000   0.84361432   -2.4829684   -2.4829684   -1.7822296  0.043699084   -2.4829684   0.70073887  1252891 
 1009000   0.84227882    -2.482868    -2.482868   -1.7832384  0.043047331    -2.482868   0.69962955  1252891 
 1010000   0.84202419   -2.4825632   -2.4825632   -1.7831452  0.047398831   -2.4825632   0.69941804  1252891 
 1011000   0.84198628   -2.4824418   -2.4824418   -1.7830552  0.055615247   -2.4824418   0.69938655  1252891 
 1012000   0.84340012   -2.4831986   -2.4831986   -1.7826377  0.044754534   -2.4831986   0.70056095  1252891 
 1013000   0.84342206   -2.4836796   -2.4836796   -1.7831005  0.042999617   -2.4836796   0.70057917  1252891 
 1014000   0.84206661   -2.4832069   -2.4832069   -1.7837536   0.04826187   -2.4832069   0.69945328  1252891 
 1015000   0.84197239   -2.4824819   -2.4824819   -1.7831069  0.044475381   -2.4824819   0.69937502  1252891 
 1016000   0.84205988   -2.4834875   -2.4834875   -1.7840398  0.034953817   -2.4834875   0.69944769  1252891 
 1017000   0.84169129   -2.4828993   -2.4828993   -1.7837578  0.043260016   -2.4828993   0.69914152  1252891 
 1018000   0.84173532   -2.4829698   -2.4829698   -1.7837917  0.044900126   -2.4829698    0.6991781  1252891 
 1019000   0.83972678   -2.4822508   -2.4822508   -1.7847411  0.041313216   -2.4822508   0.69750973  1252891 
 1020000   0.84179638   -2.4834671   -2.4834671   -1.7842383  0.036237311   -2.4834671   0.69922882  1252891 
 1021000   0.84295436   -2.4844721   -2.4844721   -1.7842814  0.037827583   -2.4844721   0.70019068  1252891 
 1022000   0.84169535    -2.483031    -2.483031   -1.7838861  0.039090824    -2.483031    0.6991449  1252891 
 1023000   0.84178194   -2.4836237   -2.4836237   -1.7844069  0.046570027   -2.4836237   0.69921682  1252891 
 1024000   0.84333488   -2.4848646   -2.4848646   -1.7843578  0.038201812   -2.4848646   0.70050676  1252891 
 1025000   0.84237108   -2.4839015   -2.4839015   -1.7841953   0.03859138   -2.4839015   0.69970619  1252891 
 1026000   0.84261484   -2.4843922   -2.4843922   -1.7844835  0.049649617   -2.4843922   0.69990866  1252891 
 1027000    0.8423494   -2.4840611   -2.4840611   -1.7843729  0.039761607   -2.4840611   0.69968818  1252891 
 1028000   0.84151504   -2.4839544   -2.4839544   -1.7849592  0.044748961   -2.4839544   0.69899513  1252891 
 1029000   0.84230114    -2.483603    -2.483603   -1.7839549  0.052106496    -2.483603    0.6996481  1252891 
 1030000   0.84231429   -2.4851095   -2.4851095   -1.7854504  0.029718195   -2.4851095   0.69965901  1252891 
 1031000   0.84138985   -2.4838627   -2.4838627   -1.7849715  0.038147531   -2.4838627   0.69889114  1252891 
 1032000   0.84118283   -2.4835127   -2.4835127   -1.7847936  0.039490382   -2.4835127   0.69871918  1252891 
 1033000   0.84158451   -2.4840718   -2.4840718    -1.785019  0.045775321   -2.4840718   0.69905283  1252891 
 1034000   0.84220312   -2.4848458   -2.4848458   -1.7852791  0.040136263   -2.4848458   0.69956668  1252891 
 1035000   0.84216221   -2.4845267   -2.4845267    -1.784994  0.056675609   -2.4845267   0.69953269  1252891 
 1036000   0.84276014   -2.4849061   -2.4849061   -1.7848767  0.043852559   -2.4849061   0.70002936  1252891 
 1037000   0.84262913   -2.4850189   -2.4850189   -1.7850984  0.050891812   -2.4850189   0.69992053  1252891 
 1038000   0.84335625   -2.4844294   -2.4844294   -1.7839049  0.049327669   -2.4844294   0.70052451  1252891 
 1039000   0.84291123   -2.4849269   -2.4849269    -1.784772  0.044610234   -2.4849269   0.70015485  1252891 
 1040000   0.84198446   -2.4841318   -2.4841318   -1.7847468  0.040221821   -2.4841318   0.69938504  1252891 
 1041000   0.84231946   -2.4846315   -2.4846315   -1.7849681  0.049721058   -2.4846315   0.69966331  1252891 
 1042000   0.84162089   -2.4841411   -2.4841411   -1.7850581  0.043343113   -2.4841411   0.69908305  1252891 
 1043000    0.8415256   -2.4839014   -2.4839014   -1.7848975  0.036925223   -2.4839014    0.6990039  1252891 
 1044000   0.84174926   -2.4841102   -2.4841102   -1.7849205  0.037380957   -2.4841102   0.69918968  1252891 
 1045000   0.84181298   -2.4834992   -2.4834992   -1.7842566  0.049775452   -2.4834992    0.6992426  1252891 
 1046000   0.84200874   -2.4842855   -2.4842855   -1.7848802  0.044547729   -2.4842855   0.69940521  1252891 
 1047000   0.84043314   -2.4839267   -2.4839267   -1.7858303  0.045714468   -2.4839267   0.69809646  1252891 
 1048000   0.84129841    -2.484306    -2.484306   -1.7854909  0.040653321    -2.484306   0.69881518  1252891 
 1049000   0.84151363   -2.4845974   -2.4845974   -1.7856035  0.048283459   -2.4845974   0.69899395  1252891 
 1050000   0.84258826   -2.4847998   -2.4847998   -1.7849132  0.043525024   -2.4847998   0.69988658  1252891 
 1051000   0.84155572   -2.4847805   -2.4847805   -1.7857515  0.038312649   -2.4847805   0.69902892  1252891 
 1052000   0.84103947   -2.4846735   -2.4846735   -1.7860734  0.047939789   -2.4846735    0.6986001  1252891 
 1053000   0.84180434   -2.4854279   -2.4854279   -1.7861925  0.038351826   -2.4854279   0.69923543  1252891 
 1054000   0.84133448   -2.4853502   -2.4853502    -1.786505  0.040093789   -2.4853502   0.69884514  1252891 
 1055000   0.84207919   -2.4857695   -2.4857695   -1.7863058  0.044195073   -2.4857695   0.69946373  1252891 
 1056000   0.84190865   -2.4854173   -2.4854173   -1.7860952  0.050400356   -2.4854173   0.69932207  1252891 
 1057000   0.84195453    -2.485999    -2.485999   -1.7866389  0.043445096    -2.485999   0.69936018  1252891 
 1058000   0.84310993   -2.4863696   -2.4863696   -1.7860497  0.043010929   -2.4863696   0.70031991  1252891 
 1059000   0.84337252   -2.4866235   -2.4866235   -1.7860854  0.050317204   -2.4866235   0.70053802  1252891 
 1060000   0.84246315   -2.4859337   -2.4859337   -1.7861511  0.039054184   -2.4859337   0.69978267  1252891 
 1061000   0.84119809   -2.4853143   -2.4853143   -1.7865825  0.051702495   -2.4853143   0.69873185  1252891 
 1062000   0.84191566   -2.4849259   -2.4849259    -1.785598  0.048269044   -2.4849259    0.6993279  1252891 
 1063000   0.84200878   -2.4860315   -2.4860315   -1.7866262  0.042003238   -2.4860315   0.69940525  1252891 
 1064000   0.84208504   -2.4856526   -2.4856526    -1.786184  0.052675491   -2.4856526   0.69946859  1252891 
 1065000   0.84161832   -2.4847752   -2.4847752   -1.7856943  0.044468427   -2.4847752   0.69908091  1252891 
 1066000     0.841526   -2.4849479   -2.4849479   -1.7859437  0.044108751   -2.4849479   0.69900423  1252891 
 1067000   0.84225399    -2.485805    -2.485805    -1.786196  0.048175468    -2.485805   0.69960893  1252891 
 1068000    0.8413098   -2.4854523   -2.4854523   -1.7866276   0.04174009   -2.4854523   0.69882464  1252891 
 1069000   0.84195861   -2.4856664   -2.4856664   -1.7863028  0.037838453   -2.4856664   0.69936357  1252891 
 1070000   0.84302891   -2.4857644   -2.4857644   -1.7855118  0.055255107   -2.4857644   0.70025261  1252891 
 1071000   0.84238494   -2.4865196   -2.4865196   -1.7868019  0.034446251   -2.4865196   0.69971769  1252891 
 1072000   0.84170945   -2.4851755   -2.4851755   -1.7860189  0.041418212   -2.4851755   0.69915661  1252891 
 1073000   0.84147536   -2.4858185   -2.4858185   -1.7868563  0.034500172   -2.4858185   0.69896217  1252891 
 1074000   0.84109814    -2.484888    -2.484888   -1.7862391  0.040716925    -2.484888   0.69864883  1252891 
 1075000   0.84313055   -2.4867837   -2.4867837   -1.7864466  0.038763681   -2.4867837   0.70033703  1252891 
 1076000   0.84219297   -2.4861942   -2.4861942   -1.7866359  0.039941835   -2.4861942   0.69955824  1252891 
 1077000   0.84320255   -2.4863976   -2.4863976   -1.7860007   0.03241198   -2.4863976   0.70039683  1252891 
 1078000   0.84254703   -2.4864969   -2.4864969   -1.7866446  0.054091725   -2.4864969   0.69985234  1252891 
 1079000   0.84135842    -2.485869    -2.485869    -1.787004  0.050999147    -2.485869   0.69886503  1252891 
 1080000   0.84311447   -2.4861006   -2.4861006   -1.7857769  0.040932533   -2.4861006   0.70032368  1252891 
 1081000    0.8417959   -2.4857298   -2.4857298   -1.7865014  0.039586035   -2.4857298   0.69922842  1252891 
 1082000   0.84065581   -2.4858564   -2.4858564   -1.7875749  0.028497202   -2.4858564   0.69828141  1252891 
 1083000   0.84120975    -2.486042    -2.486042   -1.7873004  0.045073512    -2.486042   0.69874154  1252891 
 1084000   0.84163472   -2.4863848   -2.4863848   -1.7872903  0.042447154   -2.4863848   0.69909454  1252891 
 1085000   0.84202329   -2.4872567   -2.4872567   -1.7878394  0.038401974   -2.4872567    0.6994173  1252891 
 1086000   0.84181567    -2.486726    -2.486726   -1.7874812  0.037441522    -2.486726   0.69924484  1252891 
 1087000    0.8411912   -2.4864483   -2.4864483   -1.7877221  0.038515075   -2.4864483   0.69872613  1252891 
 1088000   0.84137103   -2.4857209   -2.4857209   -1.7868454  0.049765284   -2.4857209    0.6988755  1252891 
 1089000   0.84175581   -2.4860093   -2.4860093   -1.7868142  0.045631291   -2.4860093   0.69919512  1252891 
 1090000    0.8409402    -2.486259    -2.486259   -1.7877413  0.049636532    -2.486259   0.69851764  1252891 
 1091000   0.84136987   -2.4861127   -2.4861127   -1.7872381  0.039331547   -2.4861127   0.69887454  1252891 
 1092000   0.84165586    -2.486454    -2.486454   -1.7873419  0.040634177    -2.486454    0.6991121  1252891 
 1093000   0.84112209   -2.4858332   -2.4858332   -1.7871645  0.044826337   -2.4858332   0.69866873  1252891 
 1094000   0.84178007   -2.4867303   -2.4867303    -1.787515  0.046433563   -2.4867303   0.69921527  1252891 
 1095000   0.84115739   -2.4864009   -2.4864009   -1.7877029  0.033428227   -2.4864009   0.69869805  1252891 
 1096000    0.8404831   -2.4862115   -2.4862115   -1.7880735  0.046178186   -2.4862115   0.69813796  1252891 
 1097000   0.84112209   -2.4867064   -2.4867064   -1.7880377  0.037021513   -2.4867064   0.69866873  1252891 
 1098000   0.84081457   -2.4867607   -2.4867607   -1.7883474  0.038272114   -2.4867607   0.69841329  1252891 
 1099000   0.84053887   -2.4862616   -2.4862616   -1.7880773  0.044418172   -2.4862616   0.69818428  1252891 
 1100000   0.84123013   -2.4860482   -2.4860482   -1.7872897  0.045611132   -2.4860482   0.69875847  1252891 
 1101000   0.84028005   -2.4863501   -2.4863501   -1.7883808  0.046414908   -2.4863501   0.69796929  1252891 
 1102000   0.84164566   -2.4871883   -2.4871883   -1.7880847  0.052196234   -2.4871883   0.69910362  1252891 
 1103000   0.84154594   -2.4882691   -2.4882691   -1.7892483  0.046824795   -2.4882691   0.69902079  1252891 
 1104000   0.84173085   -2.4881469   -2.4881469   -1.7889725  0.045512184   -2.4881469   0.69917439  1252891 
 1105000   0.84087702   -2.4869164   -2.4869164   -1.7884512  0.047044149   -2.4869164   0.69846516  1252891 
 1106000   0.84163214   -2.4871777   -2.4871777   -1.7880853   0.04766456   -2.4871777   0.69909239  1252891 
 1107000   0.84141067   -2.4878075   -2.4878075    -1.788899  0.040888962   -2.4878075   0.69890844  1252891 
 1108000   0.84260648   -2.4878281   -2.4878281   -1.7879264  0.050024753   -2.4878281   0.69990172  1252891 
 1109000   0.84097926   -2.4877119   -2.4877119   -1.7891618  0.047414535   -2.4877119   0.69855009  1252891 
 1110000   0.84083223   -2.4864129   -2.4864129   -1.7879849  0.033703459   -2.4864129   0.69842795  1252891 
 1111000   0.84003682   -2.4853503   -2.4853503   -1.7875831  0.038363602   -2.4853503   0.69776726  1252891 
 1112000   0.83914083   -2.4849391   -2.4849391   -1.7879161   0.04530342   -2.4849391   0.69702301  1252891 
 1113000   0.84038167   -2.4859123   -2.4859123   -1.7878585  0.052251745   -2.4859123   0.69805371  1252891 
 1114000   0.84040057   -2.4864964   -2.4864964    -1.788427  0.045784298   -2.4864964    0.6980694  1252891 
 1115000   0.84029609   -2.4857848   -2.4857848   -1.7878022  0.046079666   -2.4857848   0.69798262  1252891 
 1116000   0.84041074   -2.4872999   -2.4872999   -1.7892221  0.043551358   -2.4872999   0.69807785  1252891 
 1117000   0.84145935   -2.4877112   -2.4877112   -1.7887624  0.039498395   -2.4877112   0.69894887  1252891 
 1118000   0.84171289   -2.4872554   -2.4872554   -1.7880959  0.046977599   -2.4872554   0.69915947  1252891 
 1119000    0.8405789   -2.4871511   -2.4871511   -1.7889335  0.042531997   -2.4871511   0.69821753  1252891 
 1120000   0.84137453   -2.4876151   -2.4876151   -1.7887367  0.042574296   -2.4876151   0.69887841  1252891 
 1121000   0.84093638   -2.4876287   -2.4876287   -1.7891142  0.053410856   -2.4876287   0.69851447  1252891 
 1122000   0.84207652   -2.4880085   -2.4880085    -1.788547  0.052693663   -2.4880085   0.69946151  1252891 
 1123000   0.84079608   -2.4873666   -2.4873666   -1.7889687   0.05210479   -2.4873666   0.69839793  1252891 
 1124000    0.8403354   -2.4875427   -2.4875427   -1.7895274  0.051155367   -2.4875427   0.69801527  1252891 
 1125000   0.84084493   -2.4880975   -2.4880975    -1.789659  0.038936509   -2.4880975   0.69843851  1252891 
 1126000   0.84057196   -2.4884499   -2.4884499   -1.7902381  0.036686209   -2.4884499   0.69821177  1252891 
 1127000   0.83925187   -2.4868371   -2.4868371   -1.7897218  0.042942525   -2.4868371   0.69711525  1252891 
 1128000   0.84183023   -2.4882538   -2.4882538   -1.7889969  0.040643543   -2.4882538   0.69925693  1252891 
 1129000   0.84042408   -2.4878055   -2.4878055   -1.7897166  0.047555996   -2.4878055   0.69808893  1252891 
 1130000   0.83935901   -2.4868955   -2.4868955   -1.7896912  0.037080412   -2.4868955   0.69720425  1252891 
 1131000   0.84065947   -2.4881653   -2.4881653   -1.7898809  0.043239205   -2.4881653   0.69828445  1252891 
 1132000   0.84073067   -2.4875882   -2.4875882   -1.7892446  0.042604304   -2.4875882    0.6983436  1252891 
 1133000   0.84124998     -2.48826     -2.48826    -1.789485  0.041130468     -2.48826   0.69877495  1252891 
 1134000    0.8409298   -2.4872454   -2.4872454   -1.7887364  0.048595812   -2.4872454     0.698509  1252891 
 1135000   0.83998869   -2.4875466   -2.4875466   -1.7898193  0.042939974   -2.4875466   0.69772728  1252891 
 1136000   0.84103269   -2.4877558   -2.4877558   -1.7891613  0.047669389   -2.4877558   0.69859447  1252891 
 1137000   0.84073425   -2.4886034   -2.4886034   -1.7902568  0.039822097   -2.4886034   0.69834657  1252891 
 1138000   0.84049868   -2.4882923   -2.4882923   -1.7901414  0.034300102   -2.4882923    0.6981509  1252891 
 1139000   0.84058093   -2.4881594   -2.4881594   -1.7899402  0.043156996   -2.4881594   0.69821922  1252891 
 1140000    0.8402422   -2.4881722   -2.4881722   -1.7902344  0.047193602   -2.4881722   0.69793786  1252891 
 1141000   0.84059052   -2.4885137   -2.4885137   -1.7902865  0.045883502   -2.4885137   0.69822719  1252891 
 1142000   0.84018924   -2.4880247   -2.4880247   -1.7901308  0.044027304   -2.4880247   0.69789386  1252891 
 1143000   0.84148066   -2.4885694   -2.4885694   -1.7896028  0.042117607   -2.4885694   0.69896657  1252891 
 1144000   0.84163111   -2.4890882   -2.4890882   -1.7899967  0.048709039   -2.4890882   0.69909154  1252891 
 1145000   0.84043536   -2.4879362   -2.4879362   -1.7898379   0.04898079   -2.4879362    0.6980983  1252891 
 1146000   0.84020388   -2.4889978   -2.4889978   -1.7910918  0.046111963   -2.4889978   0.69790602  1252891 
 1147000    0.8404257   -2.4886795   -2.4886795   -1.7905892  0.039512128   -2.4886795   0.69809028  1252891 
 1148000   0.84095026   -2.4892366   -2.4892366   -1.7907106  0.043369736   -2.4892366   0.69852599  1252891 
 1149000   0.83923328    -2.488262    -2.488262   -1.7911622   0.04005601    -2.488262   0.69709981  1252891 
 1150000   0.83915004    -2.488208    -2.488208   -1.7911773  0.056878381    -2.488208   0.69703066  1252891 
 1151000   0.84145564   -2.4896473   -2.4896473   -1.7907015  0.048399778   -2.4896473   0.69894579  1252891 
 1152000   0.84094791    -2.489687    -2.489687   -1.7911629  0.043971273    -2.489687   0.69852405  1252891 
 1153000   0.84004524   -2.4884705   -2.4884705   -1.7906963  0.044477225   -2.4884705   0.69777425  1252891 
 1154000   0.83953846   -2.4884439   -2.4884439   -1.7910906  0.044880882   -2.4884439   0.69735331  1252891 
 1155000   0.84085287   -2.4899594   -2.4899594   -1.7915143  0.040840312   -2.4899594    0.6984451  1252891 
 1156000   0.83941185   -2.4885018   -2.4885018   -1.7912536  0.041894453   -2.4885018   0.69724813  1252891 
 1157000   0.83925429   -2.4886061   -2.4886061   -1.7914888  0.049233059   -2.4886061   0.69711726  1252891 
 1158000   0.84049222   -2.4897181   -2.4897181   -1.7915726  0.044757452   -2.4897181   0.69814553  1252891 
 1159000   0.84089945   -2.4901454   -2.4901454   -1.7916617  0.038384652   -2.4901454   0.69848379  1252891 
 1160000   0.83986096   -2.4887867   -2.4887867   -1.7911655  0.040662895   -2.4887867   0.69762118  1252891 
 1161000   0.84073506   -2.4903694   -2.4903694   -1.7920222  0.045871322   -2.4903694   0.69834724  1252891 
 1162000   0.84022475   -2.4898492   -2.4898492   -1.7919259  0.040254439   -2.4898492   0.69792336  1252891 
 1163000   0.84037531   -2.4900777   -2.4900777   -1.7920293  0.049631357   -2.4900777   0.69804842  1252891 
 1164000   0.84045852   -2.4897545   -2.4897545   -1.7916369  0.045907433   -2.4897545   0.69811754  1252891 
 1165000   0.83923315   -2.4887505   -2.4887505   -1.7916508  0.043250326   -2.4887505    0.6970997  1252891 
 1166000   0.84034782   -2.4896575   -2.4896575   -1.7916319  0.047757352   -2.4896575   0.69802559  1252891 
 1167000   0.83992161   -2.4895461   -2.4895461   -1.7918746  0.051792887   -2.4895461   0.69767156  1252891 
 1168000   0.84102239   -2.4905589   -2.4905589    -1.791973  0.043077519   -2.4905589   0.69858591  1252891 
 1169000   0.84056683   -2.4909998   -2.4909998   -1.7927923  0.037654744   -2.4909998    0.6982075  1252891 
 1170000   0.84034503   -2.4904083   -2.4904083    -1.792385  0.043753211   -2.4904083   0.69802327  1252891 
 1171000   0.83967271   -2.4895542   -2.4895542   -1.7920894  0.044038557   -2.4895542   0.69746482  1252891 
 1172000   0.84078397   -2.4903561   -2.4903561   -1.7919682   0.04269974   -2.4903561   0.69838787  1252891 
 1173000   0.84001363   -2.4893949   -2.4893949   -1.7916469  0.042603374   -2.4893949   0.69774799  1252891 
 1174000   0.83903033   -2.4896444   -2.4896444   -1.7927131  0.041890009   -2.4896444   0.69693123  1252891 
 1175000     0.839627   -2.4900302   -2.4900302   -1.7926033  0.033008772   -2.4900302   0.69742685  1252891 
 1176000   0.84044528   -2.4904035   -2.4904035   -1.7922969  0.034177851   -2.4904035   0.69810654  1252891 
 1177000   0.83895068   -2.4901255   -2.4901255   -1.7932604  0.051832414   -2.4901255   0.69686507  1252891 
 1178000   0.83972866   -2.4904803   -2.4904803    -1.792969  0.052075793   -2.4904803   0.69751129  1252891 
 1179000    0.8400737   -2.4895739   -2.4895739   -1.7917761  0.045886534   -2.4895739   0.69779789  1252891 
 1180000   0.83902277   -2.4900436   -2.4900436   -1.7931186  0.033252243   -2.4900436   0.69692495  1252891 
 1181000   0.83957585   -2.4902686   -2.4902686   -1.7928843  0.039992854   -2.4902686   0.69738436  1252891 
 1182000   0.84054128   -2.4905547   -2.4905547   -1.7923685  0.047157267   -2.4905547   0.69818629  1252891 
 1183000   0.84055771   -2.4903549   -2.4903549    -1.792155  0.042397228   -2.4903549   0.69819993  1252891 
 1184000   0.84067447   -2.4901875   -2.4901875   -1.7918906  0.046798091   -2.4901875   0.69829692  1252891 
 1185000   0.83946692   -2.4898178   -2.4898178   -1.7925239  0.040911838   -2.4898178   0.69729388  1252891 
 1186000   0.84046648   -2.4902627   -2.4902627   -1.7921386  0.040273901   -2.4902627   0.69812415  1252891 
 1187000   0.83997838   -2.4907251   -2.4907251   -1.7930064  0.038930314   -2.4907251   0.69771871  1252891 
 1188000   0.83950949   -2.4903019   -2.4903019   -1.7929726   0.03374376   -2.4903019   0.69732924  1252891 
 1189000   0.84002853   -2.4896649   -2.4896649   -1.7919045  0.038914905   -2.4896649   0.69776037  1252891 
 1190000   0.84000854   -2.4897897   -2.4897897    -1.792046  0.043492417   -2.4897897   0.69774377  1252891 
 1191000   0.83866428   -2.4895801   -2.4895801    -1.792953  0.041623664   -2.4895801   0.69662717  1252891 
 1192000   0.83925523   -2.4897731   -2.4897731   -1.7926551  0.047276647   -2.4897731   0.69711804  1252891 
 1193000   0.84086366   -2.4913162   -2.4913162   -1.7928622  0.043543418   -2.4913162   0.69845406  1252891 
 1194000   0.83812851   -2.4903464   -2.4903464   -1.7941643  0.035551448   -2.4903464   0.69618214  1252891 
 1195000   0.83976803   -2.4902958   -2.4902958   -1.7927518  0.047659594   -2.4902958   0.69754399  1252891 
 1196000    0.8395406   -2.4906235   -2.4906235   -1.7932684  0.044749028   -2.4906235   0.69735508  1252891 
 1197000   0.83987808   -2.4910245   -2.4910245   -1.7933891  0.047152547   -2.4910245    0.6976354  1252891 
 1198000   0.84099862   -2.4912038   -2.4912038   -1.7926376  0.038481644   -2.4912038   0.69856617  1252891 
 1199000   0.84030121   -2.4911304   -2.4911304   -1.7931436  0.033832028   -2.4911304   0.69798687  1252891 
 1200000   0.83975784   -2.4910484   -2.4910484   -1.7935129  0.041766446   -2.4910484   0.69753552  1252891 
 1201000   0.84001277    -2.490875    -2.490875   -1.7931278  0.044403503    -2.490875   0.69774728  1252891 
 1202000   0.83955643   -2.4911357   -2.4911357   -1.7937675  0.048449489   -2.4911357   0.69736823  1252891 
 1203000   0.84003847   -2.4907638   -2.4907638   -1.7929951  0.044713083   -2.4907638   0.69776863  1252891 
 1204000   0.84030475   -2.4919336   -2.4919336   -1.7939438  0.039950321   -2.4919336   0.69798981  1252891 
 1205000    0.8391116   -2.4913154   -2.4913154   -1.7943167  0.034732221   -2.4913154   0.69699874  1252891 
 1206000   0.84065765    -2.492283    -2.492283       -1.794  0.040518956    -2.492283   0.69828294  1252891 
 1207000   0.84115905   -2.4925778   -2.4925778   -1.7938784  0.036367894   -2.4925778   0.69869943  1252891 
 1208000   0.84002381   -2.4911071   -2.4911071   -1.7933506   0.04645029   -2.4911071   0.69775645  1252891 
 1209000    0.8393487   -2.4913969   -2.4913969   -1.7942012  0.039344012   -2.4913969   0.69719568  1252891 
 1210000   0.83898454   -2.4914308   -2.4914308   -1.7945376  0.044381704   -2.4914308   0.69689319  1252891 
 1211000   0.83989616   -2.4913697   -2.4913697   -1.7937193  0.044046041   -2.4913697   0.69765042  1252891 
 1212000   0.83899831   -2.4907855   -2.4907855   -1.7938809   0.04214564   -2.4907855   0.69690463  1252891 
 1213000   0.83945933   -2.4909184   -2.4909184   -1.7936308  0.047151531   -2.4909184   0.69728757  1252891 
 1214000   0.83868747   -2.4910529   -2.4910529   -1.7944064  0.035185773   -2.4910529   0.69664644  1252891 
 1215000   0.83840574   -2.4909474   -2.4909474    -1.794535  0.034622917   -2.4909474   0.69641242  1252891 
 1216000   0.83928056   -2.4913728   -2.4913728   -1.7942337  0.032423052   -2.4913728   0.69713908  1252891 
 1217000    0.8381837   -2.4900992   -2.4900992   -1.7938712  0.041973148   -2.4900992   0.69622799  1252891 
 1218000    0.8387508   -2.4906658   -2.4906658   -1.7939667  0.046461706   -2.4906658   0.69669904  1252891 
 1219000    0.8395667   -2.4915982   -2.4915982   -1.7942214  0.041449262   -2.4915982   0.69737676  1252891 
 1220000   0.83953758   -2.4915882   -2.4915882   -1.7942357  0.050981647   -2.4915882   0.69735257  1252891 
 1221000   0.83913113    -2.491641    -2.491641    -1.794626  0.042757085    -2.491641   0.69701495  1252891 
 1222000   0.83871919   -2.4910211   -2.4910211   -1.7943483  0.044249965   -2.4910211   0.69667279  1252891 
 1223000   0.83990466   -2.4921332   -2.4921332   -1.7944757  0.039602847   -2.4921332   0.69765748  1252891 
 1224000   0.83968134   -2.4917069   -2.4917069    -1.794235  0.052606737   -2.4917069   0.69747198  1252891 
 1225000   0.83913994   -2.4911689   -2.4911689   -1.7941466  0.049059065   -2.4911689   0.69702228  1252891 
 1226000   0.83932046   -2.4913106   -2.4913106   -1.7941384   0.03894756   -2.4913106   0.69717222  1252891 
 1227000   0.83968686   -2.4916687   -2.4916687   -1.7941921  0.040972458   -2.4916687   0.69747657  1252891 
 1228000   0.83873282   -2.4910988   -2.4910988   -1.7944147  0.045471319   -2.4910988    0.6966841  1252891 
 1229000   0.84089207   -2.4931553   -2.4931553   -1.7946776  0.042049162   -2.4931553   0.69847766  1252891 
 1230000   0.83871884   -2.4918657   -2.4918657   -1.7951932  0.045004986   -2.4918657   0.69667249  1252891 
 1231000    0.8392957   -2.4925616   -2.4925616     -1.79541  0.045001481   -2.4925616   0.69715165  1252891 
 1232000   0.83846711   -2.4917907   -2.4917907   -1.7953273    0.0407691   -2.4917907   0.69646339  1252891 
 1233000   0.83868772   -2.4920335   -2.4920335   -1.7953868  0.048591728   -2.4920335   0.69664664  1252891 
 1234000   0.83909896   -2.4918124   -2.4918124   -1.7948241  0.040965138   -2.4918124   0.69698823  1252891 
 1235000    0.8392637   -2.4920489   -2.4920489   -1.7949238  0.047464262   -2.4920489   0.69712508  1252891 
 1236000   0.84007282   -2.4927843   -2.4927843   -1.7949871  0.050400219   -2.4927843   0.69779716  1252891 
 1237000   0.84056112   -2.4925628   -2.4925628   -1.7943601  0.045504005   -2.4925628   0.69820276  1252891 
 1238000   0.83984144    -2.492477    -2.492477   -1.7948721  0.046004018    -2.492477   0.69760497  1252891 
 1239000   0.83844615   -2.4915354   -2.4915354   -1.7950894  0.043713799   -2.4915354   0.69644599  1252891 
 1240000   0.83932903   -2.4921801   -2.4921801   -1.7950007  0.050380594   -2.4921801   0.69717934  1252891 
 1241000   0.83921106   -2.4924205   -2.4924205   -1.7953391  0.040191619   -2.4924205   0.69708135  1252891 
 1242000    0.8381903   -2.4918172   -2.4918172   -1.7955837  0.046627112   -2.4918172   0.69623347  1252891 
 1243000    0.8376719   -2.4912223   -2.4912223   -1.7954195  0.046791053   -2.4912223   0.69580286  1252891 
 1244000   0.83969983   -2.4925082   -2.4925082   -1.7950208  0.042089225   -2.4925082   0.69748734  1252891 
 1245000   0.83778022   -2.4916477   -2.4916477   -1.7957549  0.042129821   -2.4916477   0.69589284  1252891 
 1246000   0.83945068   -2.4926383   -2.4926383   -1.7953579  0.042870015   -2.4926383   0.69728039  1252891 
 1247000   0.83892063   -2.4926144   -2.4926144   -1.7957743  0.039504937   -2.4926144    0.6968401  1252891 
 1248000   0.83797285   -2.4919065   -2.4919065   -1.7958536  0.037653347   -2.4919065   0.69605284  1252891 
 1249000   0.83797058     -2.49326     -2.49326   -1.7972091  0.043814645     -2.49326   0.69605096  1252891 
 1250000   0.83887783   -2.4925602   -2.4925602   -1.7957556  0.052002192   -2.4925602   0.69680456  1252891 
 1251000   0.84007486   -2.4932101   -2.4932101   -1.7954112  0.045868344   -2.4932101   0.69779886  1252891 
 1252000   0.83983925   -2.4936737   -2.4936737   -1.7960706   0.04202496   -2.4936737   0.69760315  1252891 
 1253000   0.83935762   -2.4929697   -2.4929697   -1.7957667  0.038023152   -2.4929697   0.69720309  1252891 
 1254000   0.83981167   -2.4933427   -2.4933427   -1.7957624  0.038773147   -2.4933427   0.69758024  1252891 
 1255000   0.83924315   -2.4934308   -2.4934308   -1.7963228  0.048425385   -2.4934308     0.697108  1252891 
 1256000   0.83849117   -2.4925356   -2.4925356   -1.7960523  0.040295534   -2.4925356   0.69648338  1252891 
 1257000   0.83867832   -2.4931267   -2.4931267   -1.7964879  0.038666326   -2.4931267   0.69663884  1252891 
 1258000   0.83907929   -2.4933918   -2.4933918   -1.7964199  0.036822761   -2.4933918    0.6969719  1252891 
 1259000   0.83964974   -2.4934681   -2.4934681   -1.7960224  0.039167378   -2.4934681   0.69744573  1252891 
 1260000   0.83861546     -2.49353     -2.49353   -1.7969434  0.042214013     -2.49353   0.69658662  1252891 
 1261000   0.83931987   -2.4942047   -2.4942047   -1.7970329  0.040139857   -2.4942047   0.69717173  1252891 
 1262000   0.83830731   -2.4930572   -2.4930572   -1.7967265  0.044136258   -2.4930572   0.69633066  1252891 
 1263000   0.83889337   -2.4931877   -2.4931877   -1.7963703  0.038600737   -2.4931877   0.69681746  1252891 
 1264000    0.8381726    -2.494113    -2.494113   -1.7978942  0.044958132    -2.494113   0.69621877  1252891 
 1265000   0.83773105   -2.4939409   -2.4939409   -1.7980889  0.040262943   -2.4939409     0.695852  1252891 
 1266000    0.8388079   -2.4944886   -2.4944886   -1.7977421  0.040158009   -2.4944886   0.69674647  1252891 
 1267000   0.83857836   -2.4932855   -2.4932855   -1.7967296  0.061761168   -2.4932855   0.69655581  1252891 
 1268000    0.8385312   -2.4931988   -2.4931988   -1.7966822  0.049831812   -2.4931988   0.69651664  1252891 
 1269000   0.83943287   -2.4938799   -2.4938799   -1.7966143  0.053129242   -2.4938799   0.69726559  1252891 
 1270000   0.83880098   -2.4933656   -2.4933656   -1.7966249  0.042440885   -2.4933656   0.69674072  1252891 
 1271000   0.83944481   -2.4942146   -2.4942146   -1.7969391  0.039053443   -2.4942146   0.69727552  1252891 
 1272000   0.83902844   -2.4936318   -2.4936318   -1.7967021  0.043980148   -2.4936318   0.69692966  1252891 
 1273000   0.83927303   -2.4941601   -2.4941601   -1.7970273  0.050853751   -2.4941601   0.69713282  1252891 
 1274000   0.83816437   -2.4933821   -2.4933821   -1.7971701  0.048380585   -2.4933821   0.69621193  1252891 
 1275000   0.83883144   -2.4938538   -2.4938538   -1.7970878  0.043691331   -2.4938538   0.69676602  1252891 
 1276000   0.83795353   -2.4932784   -2.4932784   -1.7972416  0.044305503   -2.4932784    0.6960368  1252891 
 1277000   0.83925755   -2.4941124   -2.4941124   -1.7969924   0.03962546   -2.4941124   0.69711997  1252891 
 1278000    0.8378274   -2.4930626   -2.4930626   -1.7971306  0.041043357   -2.4930626   0.69593203  1252891 
 1279000   0.83783847   -2.4925139   -2.4925139   -1.7965727  0.040486097   -2.4925139   0.69594122  1252891 
 1280000   0.83898752   -2.4933427   -2.4933427   -1.7964471  0.048991844   -2.4933427   0.69689567  1252891 
 1281000   0.83835174   -2.4930162   -2.4930162   -1.7966486  0.046916853   -2.4930162   0.69636757  1252891 
 1282000   0.83785762   -2.4927917   -2.4927917   -1.7968345  0.036456877   -2.4927917   0.69595713  1252891 
 1283000   0.84009161   -2.4941726   -2.4941726   -1.7963598  0.050184781   -2.4941726   0.69781277  1252891 
 1284000   0.83908022     -2.49347     -2.49347   -1.7964974  0.047157565     -2.49347   0.69697267  1252891 
 1285000    0.8391802   -2.4944389   -2.4944389   -1.7973831   0.03534726   -2.4944389   0.69705572  1252891 
 1286000   0.83829535   -2.4929682   -2.4929682   -1.7966475  0.037590823   -2.4929682   0.69632072  1252891 
 1287000   0.83812843   -2.4935265   -2.4935265   -1.7973444  0.029310664   -2.4935265   0.69618207  1252891 
 1288000   0.83887483    -2.494026    -2.494026   -1.7972239  0.034019927    -2.494026   0.69680206  1252891 
 1289000    0.8386116   -2.4942217   -2.4942217   -1.7976382  0.032733614   -2.4942217   0.69658342  1252891 
 1290000   0.83995173   -2.4947557   -2.4947557   -1.7970591  0.037564308   -2.4947557   0.69769658  1252891 
 1291000   0.83837692   -2.4941097   -2.4941097   -1.7977213  0.048746026   -2.4941097   0.69638848  1252891 
 1292000   0.83999045   -2.4952516   -2.4952516   -1.7975229   0.04116422   -2.4952516   0.69772874  1252891 
 1293000   0.83843581    -2.494848    -2.494848   -1.7984106  0.041676383    -2.494848    0.6964374  1252891 
 1294000   0.83888938   -2.4955427   -2.4955427   -1.7987286  0.034569246   -2.4955427   0.69681415  1252891 
 1295000   0.83964433   -2.4948444   -2.4948444   -1.7974032  0.043641392   -2.4948444   0.69744124  1252891 
 1296000   0.83900492   -2.4946162   -2.4946162    -1.797706   0.04742652   -2.4946162   0.69691012  1252891 
 1297000    0.8389935   -2.4952728   -2.4952728   -1.7983722  0.038167484   -2.4952728   0.69690064  1252891 
 1298000   0.83838108   -2.4951221   -2.4951221   -1.7987302  0.043270489   -2.4951221   0.69639194  1252891 
 1299000   0.83882573   -2.4950685   -2.4950685   -1.7983072  0.046397432   -2.4950685   0.69676128  1252891 
 1300000   0.83892343   -2.4956802   -2.4956802   -1.7988377  0.040314172   -2.4956802   0.69684243  1252891 
 1301000   0.83832434   -2.4950569   -2.4950569   -1.7987121  0.037338811   -2.4950569   0.69634481  1252891 
 1302000   0.83834389   -2.4942755   -2.4942755   -1.7979145   0.04412302   -2.4942755   0.69636104  1252891 
 1303000   0.83841981   -2.4954642   -2.4954642   -1.7990401  0.038673337   -2.4954642    0.6964241  1252891 
 1304000   0.83838414   -2.4947921   -2.4947921   -1.7983976  0.040577283   -2.4947921   0.69639448  1252891 
 1305000   0.83882654   -2.4946977   -2.4946977   -1.7979357  0.038610424   -2.4946977   0.69676195  1252891 
 1306000   0.83828758    -2.494873    -2.494873   -1.7985587  0.044301061    -2.494873   0.69631428  1252891 
 1307000   0.83786821   -2.4951176   -2.4951176   -1.7991516  0.040026071   -2.4951176   0.69596593  1252891 
 1308000   0.83817401    -2.495271    -2.495271   -1.7990511  0.042509349    -2.495271   0.69621993  1252891 
 1309000   0.83841018    -2.494509    -2.494509   -1.7980929  0.033936729    -2.494509   0.69641611  1252891 
 1310000   0.83833275   -2.4947362   -2.4947362   -1.7983844   0.04338979   -2.4947362    0.6963518  1252891 
 1311000   0.83824642   -2.4949773   -2.4949773   -1.7986972  0.040734281   -2.4949773   0.69628008  1252891 
 1312000   0.83863945   -2.4944765   -2.4944765     -1.79787  0.050817349   -2.4944765   0.69660655  1252891 
 1313000   0.83913538   -2.4961271   -2.4961271   -1.7991086  0.045135433   -2.4961271   0.69701849  1252891 
 1314000   0.83964706   -2.4959532   -2.4959532   -1.7985097  0.037016119   -2.4959532   0.69744351  1252891 
 1315000   0.83830198   -2.4958083   -2.4958083   -1.7994821  0.038057525   -2.4958083   0.69632623  1252891 
 1316000   0.83743684   -2.4950777   -2.4950777   -1.7994701  0.043457753   -2.4950777   0.69560761  1252891 
 1317000   0.83804513   -2.4958373   -2.4958373   -1.7997244   0.04744955   -2.4958373   0.69611289  1252891 
 1318000   0.83902393   -2.4961241   -2.4961241   -1.7991982   0.04596837   -2.4961241   0.69692591  1252891 
 1319000   0.83931022   -2.4966113   -2.4966113   -1.7994476  0.051972985   -2.4966113   0.69716372  1252891 
 1320000   0.83944098   -2.4963268   -2.4963268   -1.7990545  0.033713899   -2.4963268   0.69727233  1252891 
 1321000   0.83874793   -2.4959962   -2.4959962   -1.7992996  0.041896753   -2.4959962   0.69669666  1252891 
 1322000   0.83847623   -2.4961669   -2.4961669   -1.7996959  0.043553688   -2.4961669   0.69647097  1252891 
 1323000    0.8379507   -2.4962369   -2.4962369   -1.8002024  0.049687878   -2.4962369   0.69603444  1252891 
 1324000   0.83926097   -2.4968302   -2.4968302   -1.7997073  0.041946473   -2.4968302   0.69712281  1252891 
 1325000   0.83915004   -2.4966612   -2.4966612   -1.7996305  0.046987251   -2.4966612   0.69703067  1252891 
 1326000   0.83865403    -2.496738    -2.496738   -1.8001193  0.048459095    -2.496738   0.69661866  1252891 
 1327000    0.8386601   -2.4968628   -2.4968628   -1.8002391  0.044646959   -2.4968628    0.6966237  1252891 
 1328000   0.83841789   -2.4962357   -2.4962357   -1.7998132  0.046512948   -2.4962357   0.69642251  1252891 
 1329000   0.83891042   -2.4960384   -2.4960384   -1.7992067  0.046985988   -2.4960384   0.69683162  1252891 
 1330000   0.83849358    -2.496372    -2.496372   -1.7998866  0.043809768    -2.496372   0.69648538  1252891 
 1331000   0.83750456   -2.4959627   -2.4959627   -1.8002988  0.038353591   -2.4959627   0.69566387  1252891 
 1332000   0.83829485   -2.4962814   -2.4962814   -1.7999611  0.040518485   -2.4962814   0.69632031  1252891 
 1333000   0.83912812   -2.4959064   -2.4959064    -1.798894  0.047468609   -2.4959064   0.69701246  1252891 
 1334000   0.83783431   -2.4955157   -2.4955157   -1.7995779  0.045037196   -2.4955157   0.69593776  1252891 
 1335000   0.83630008   -2.4947001   -2.4947001   -1.8000367  0.045485247   -2.4947001   0.69466338  1252891 
 1336000   0.83675605   -2.4951034   -2.4951034   -1.8000612  0.044178225   -2.4951034   0.69504212  1252891 
 1337000   0.83726899   -2.4957461   -2.4957461   -1.8002779  0.048756759   -2.4957461   0.69546819  1252891 
 1338000   0.83752652   -2.4967995   -2.4967995   -1.8011174  0.037695229   -2.4967995    0.6956821  1252891 
 1339000   0.83818935   -2.4972339   -2.4972339   -1.8010012  0.029987275   -2.4972339   0.69623268  1252891 
 1340000   0.83806188    -2.496561    -2.496561   -1.8004342  0.043195811    -2.496561    0.6961268  1252891 
 1341000   0.83780724   -2.4965427   -2.4965427   -1.8006274  0.040544866   -2.4965427   0.69591528  1252891 
 1342000   0.83852599   -2.4973485   -2.4973485   -1.8008362  0.041997493   -2.4973485    0.6965123  1252891 
 1343000   0.83849256   -2.4971936   -2.4971936   -1.8007091  0.051667018   -2.4971936   0.69648454  1252891 
 1344000    0.8380469   -2.4966866   -2.4966866   -1.8005723  0.043764008   -2.4966866   0.69611436  1252891 
 1345000   0.83946985   -2.4977992   -2.4977992   -1.8005029  0.057098476   -2.4977992   0.69729631  1252891 
 1346000    0.8385018   -2.4971983   -2.4971983    -1.800706  0.046262298   -2.4971983   0.69649221  1252891 
 1347000   0.83809067   -2.4978225   -2.4978225   -1.8016718  0.051978148   -2.4978225   0.69615071  1252891 
 1348000    0.8385463   -2.4975053   -2.4975053   -1.8009761  0.058131047   -2.4975053   0.69652918  1252891 
 1349000   0.83730054   -2.4967731   -2.4967731   -1.8012787   0.05039219   -2.4967731    0.6954944  1252891 
 1350000   0.83923817   -2.4981186   -2.4981186   -1.8010147  0.043581657   -2.4981186   0.69710386  1252891 
 1351000   0.83732335   -2.4969212   -2.4969212   -1.8014078  0.045877627   -2.4969212   0.69551335  1252891 
 1352000   0.83869461   -2.4976095   -2.4976095   -1.8009571  0.039275784   -2.4976095   0.69665237  1252891 
 1353000   0.83830036   -2.4981044   -2.4981044   -1.8017795  0.038678476   -2.4981044   0.69632489  1252891 
 1354000   0.83653913   -2.4963539   -2.4963539    -1.801492  0.037979163   -2.4963539   0.69486194  1252891 
 1355000   0.83823422   -2.4974643   -2.4974643   -1.8011943  0.042669691   -2.4974643   0.69626995  1252891 
 1356000   0.83734275   -2.4965207   -2.4965207   -1.8009913  0.042603968   -2.4965207   0.69552946  1252891 
 1357000   0.83710844   -2.4963009   -2.4963009   -1.8009661  0.040894545   -2.4963009   0.69533483  1252891 
 1358000   0.83769088   -2.4966993   -2.4966993   -1.8008807  0.042015865   -2.4966993   0.69581863  1252891 
 1359000   0.83793728   -2.4961208   -2.4961208   -1.8000975  0.046280242   -2.4961208    0.6960233  1252891 
 1360000   0.83619474   -2.4954382   -2.4954382   -1.8008623  0.042210409   -2.4954382   0.69457587  1252891 
 1361000   0.83805939   -2.4965983   -2.4965983   -1.8004736   0.03655684   -2.4965983   0.69612473  1252891 
 1362000   0.83892747   -2.4968346   -2.4968346   -1.7999888  0.035813054   -2.4968346   0.69684579  1252891 
 1363000   0.83737998      -2.4962      -2.4962   -1.8006396  0.038561711      -2.4962   0.69556038  1252891 
 1364000   0.83644039    -2.494899    -2.494899   -1.8001191  0.036806525    -2.494899   0.69477993  1252891 
 1365000   0.83909269   -2.4974589   -2.4974589   -1.8004758  0.029339049   -2.4974589   0.69698303  1252891 
 1366000   0.83745707   -2.4968074   -2.4968074    -1.801183  0.044350885   -2.4968074   0.69562442  1252891 
 1367000   0.83860561   -2.4977112   -2.4977112   -1.8011327  0.034000196   -2.4977112   0.69657844  1252891 
 1368000   0.83816514   -2.4969908   -2.4969908   -1.8007783  0.045945064   -2.4969908   0.69621257  1252891 
 1369000   0.83793223    -2.496926    -2.496926   -1.8009069  0.041717163    -2.496926    0.6960191  1252891 
 1370000   0.83870061   -2.4973053   -2.4973053    -1.800648  0.046309282   -2.4973053   0.69665735  1252891 
 1371000   0.83828694   -2.4976602   -2.4976602   -1.8013465  0.050954268   -2.4976602   0.69631374  1252891 
 1372000   0.83906602    -2.498482    -2.498482   -1.8015211  0.044871941    -2.498482   0.69696088  1252891 
 1373000   0.83718481   -2.4972606   -2.4972606   -1.8018623  0.049333379   -2.4972606   0.69539827  1252891 
 1374000    0.8388653   -2.4987055   -2.4987055   -1.8019113  0.041005742   -2.4987055   0.69679415  1252891 
 1375000   0.83760603   -2.4977004   -2.4977004   -1.8019523  0.052687557   -2.4977004   0.69574815  1252891 
 1376000   0.83743429   -2.4977457   -2.4977457   -1.8021402  0.045725723   -2.4977457    0.6956055  1252891 
 1377000   0.83713501   -2.4972283   -2.4972283   -1.8018714   0.04498088   -2.4972283    0.6953569  1252891 
 1378000   0.83656178   -2.4976419   -2.4976419   -1.8027611  0.038938309   -2.4976419   0.69488076  1252891 
 1379000   0.83834324   -2.4981227   -2.4981227   -1.8017622  0.048705786   -2.4981227    0.6963605  1252891 
 1380000   0.83663679   -2.4973778   -2.4973778   -1.8024347  0.041414687   -2.4973778   0.69494306  1252891 
 1381000   0.83732345   -2.4972351   -2.4972351   -1.8017217   0.03706523   -2.4972351   0.69551343  1252891 
 1382000    0.8378396   -2.4976706   -2.4976706   -1.8017285  0.042160684   -2.4976706   0.69594216  1252891 
 1383000   0.83598188   -2.4974715   -2.4974715   -1.8030724  0.049316104   -2.4974715   0.69439907  1252891 
 1384000   0.83697434   -2.4979923   -2.4979923   -1.8027688  0.047060607   -2.4979923   0.69522344  1252891 
 1385000   0.83690897   -2.4983662   -2.4983662   -1.8031971  0.048155359   -2.4983662   0.69516915  1252891 
 1386000    0.8380489   -2.4981882   -2.4981882   -1.8020722  0.045489086   -2.4981882   0.69611602  1252891 
 1387000   0.83762321   -2.4994078   -2.4994078   -1.8036454  0.040011492   -2.4994078   0.69576242  1252891 
 1388000   0.83676763   -2.4982298   -2.4982298   -1.8031781  0.042503623   -2.4982298   0.69505174  1252891 
 1389000   0.83725024   -2.4984931   -2.4984931   -1.8030404  0.047080476   -2.4984931   0.69545261  1252891 
 1390000   0.83698315   -2.4993147   -2.4993147   -1.8040839  0.041598128   -2.4993147   0.69523076  1252891 
 1391000   0.83742008   -2.4994045   -2.4994045   -1.8038108  0.040722324   -2.4994045    0.6955937  1252891 
 1392000   0.83622609    -2.498866    -2.498866   -1.8042641  0.041769208    -2.498866   0.69460192  1252891 
 1393000   0.83658248   -2.4990791   -2.4990791   -1.8041812  0.037795692   -2.4990791   0.69489795  1252891 
 1394000   0.83763243   -2.4992047   -2.4992047   -1.8034346  0.028104161   -2.4992047   0.69577008  1252891 
 1395000   0.83684954   -2.4981432   -2.4981432   -1.8030234  0.044191693   -2.4981432   0.69511978  1252891 
 1396000     0.836859   -2.4983305   -2.4983305   -1.8032029  0.044686962   -2.4983305   0.69512764  1252891 
 1397000   0.83641284   -2.4978525   -2.4978525   -1.8030955  0.044504954   -2.4978525   0.69475704  1252891 
 1398000   0.83788237   -2.4992494   -2.4992494   -1.8032717  0.043292604   -2.4992494   0.69597768  1252891 
 1399000    0.8370342   -2.4990959   -2.4990959   -1.8038227  0.037111017   -2.4990959   0.69527316  1252891 
 1400000   0.83737105   -2.4990976   -2.4990976   -1.8035446  0.040056546   -2.4990976   0.69555297  1252891 
 1401000   0.83659071   -2.4988683   -2.4988683   -1.8039635  0.034702877   -2.4988683   0.69490479  1252891 
 1402000   0.83631367   -2.4986726   -2.4986726   -1.8039979  0.043275573   -2.4986726   0.69467467  1252891 
 1403000   0.83588449   -2.4980293   -2.4980293   -1.8037112  0.045198383   -2.4980293   0.69431817  1252891 
 1404000   0.83503698   -2.4976538   -2.4976538   -1.8040396  0.040420723   -2.4976538    0.6936142  1252891 
 1405000   0.83603845   -2.4987851   -2.4987851    -1.804339  0.043913396   -2.4987851   0.69444606  1252891 
 1406000   0.83627009   -2.4987075   -2.4987075   -1.8040691  0.044538824   -2.4987075   0.69463846  1252891 
 1407000   0.83640965    -2.499039    -2.499039   -1.8042847  0.049387418    -2.499039   0.69475439  1252891 
 1408000   0.83674185   -2.4998383   -2.4998383    -1.804808  0.040668075   -2.4998383   0.69503033  1252891 
 1409000   0.83694866   -2.4998238   -2.4998238   -1.8046217  0.045204172   -2.4998238   0.69520211  1252891 
 1410000   0.83696498   -2.4991413   -2.4991413   -1.8039256  0.043665904   -2.4991413   0.69521567  1252891 
 1411000   0.83731807   -2.5006462   -2.5006462   -1.8051372  0.035205141   -2.5006462   0.69550896  1252891 
 1412000   0.83640963   -2.4992678   -2.4992678   -1.8045134  0.046044271   -2.4992678   0.69475437  1252891 
 1413000   0.83697132   -2.4999302   -2.4999302   -1.8047093  0.032517814   -2.4999302   0.69522093  1252891 
 1414000   0.83786317   -2.5001323   -2.5001323   -1.8041705  0.039218136   -2.5001323   0.69596174  1252891 
 1415000   0.83600909   -2.4990163   -2.4990163   -1.8045947  0.029025468   -2.4990163   0.69442167  1252891 
 1416000   0.83651176   -2.4993032   -2.4993032    -1.804464  0.046869261   -2.4993032   0.69483921  1252891 
 1417000   0.83639881   -2.4988724   -2.4988724    -1.804127  0.037338251   -2.4988724   0.69474538  1252891 
 1418000   0.83648726     -2.49924     -2.49924   -1.8044212  0.039705011     -2.49924   0.69481886  1252891 
 1419000   0.83568956   -2.4986561   -2.4986561   -1.8044998  0.035271543   -2.4986561   0.69415626  1252891 
 1420000   0.83571601    -2.498536    -2.498536   -1.8043578  0.044731655    -2.498536   0.69417822  1252891 
 1421000   0.83549931   -2.4981713   -2.4981713   -1.8041731  0.046099676   -2.4981713   0.69399823  1252891 
 1422000   0.83666121   -2.4992729   -2.4992729   -1.8043096   0.04105687   -2.4992729   0.69496334  1252891 
 1423000   0.83645065   -2.4993973   -2.4993973   -1.8046089  0.046259223   -2.4993973   0.69478845  1252891 
 1424000   0.83639026   -2.4989655   -2.4989655   -1.8042273  0.047857859   -2.4989655   0.69473829  1252891 
 1425000   0.83676042   -2.4994495   -2.4994495   -1.8044037   0.04042639   -2.4994495   0.69504576  1252891 
 1426000    0.8375939   -2.5005272   -2.5005272   -1.8047891  0.042071023   -2.5005272   0.69573808  1252891 
 1427000   0.83647502    -2.499534    -2.499534   -1.8047253  0.051776838    -2.499534   0.69480869  1252891 
 1428000    0.8357782   -2.4991898   -2.4991898     -1.80496  0.052934532   -2.4991898   0.69422989  1252891 
 1429000   0.83744844   -2.5009912   -2.5009912   -1.8053739  0.042005107   -2.5009912   0.69561725  1252891 
 1430000   0.83658518   -2.5001191   -2.5001191   -1.8052189  0.041351086   -2.5001191   0.69490019  1252891 
 1431000   0.83692093   -2.5002509   -2.5002509   -1.8050718   0.03894069   -2.5002509   0.69517908  1252891 
 1432000   0.83597659   -2.4999756   -2.4999756   -1.8055809  0.044190029   -2.4999756   0.69439467  1252891 
 1433000    0.8357524   -2.5000306   -2.5000306   -1.8058221  0.034265718   -2.5000306   0.69420845  1252891 
 1434000   0.83573454   -2.5001632   -2.5001632   -1.8059696  0.045049591   -2.5001632   0.69419361  1252891 
 1435000   0.83657356   -2.5013925   -2.5013925    -1.806502  0.043000928   -2.5013925   0.69489054  1252891 
 1436000   0.83622671   -2.4998233   -2.4998233   -1.8052208  0.042445607   -2.4998233   0.69460244  1252891 
 1437000   0.83636969   -2.5000637   -2.5000637   -1.8053425  0.040937389   -2.5000637    0.6947212  1252891 
 1438000   0.83679455   -2.5004934   -2.5004934   -1.8054193  0.042224334   -2.5004934    0.6950741  1252891 
 1439000   0.83600513   -2.5003901   -2.5003901   -1.8059717   0.04135359   -2.5003901   0.69441838  1252891 
 1440000   0.83625066   -2.5008133   -2.5008133    -1.806191  0.047182765   -2.5008133   0.69462233  1252891 
 1441000   0.83496391   -2.5005498   -2.5005498   -1.8069963  0.038371507   -2.5005498    0.6935535  1252891 
 1442000   0.83602998   -2.5005504   -2.5005504   -1.8061114  0.045526294   -2.5005504   0.69443902  1252891 
 1443000    0.8359659   -2.5008778   -2.5008778    -1.806492  0.041426565   -2.5008778   0.69438579  1252891 
 1444000   0.83541672   -2.5002812   -2.5002812   -1.8063516  0.037730687   -2.5002812   0.69392962  1252891 
 1445000   0.83570137   -2.5006093   -2.5006093   -1.8064433  0.050075682   -2.5006093   0.69416607  1252891 
 1446000   0.83696807   -2.5016354   -2.5016354   -1.8064172  0.034609334   -2.5016354   0.69521823  1252891 
 1447000    0.8353929   -2.5006487   -2.5006487   -1.8067389  0.053526119   -2.5006487   0.69390984  1252891 
 1448000   0.83544188    -2.501041    -2.501041   -1.8070905  0.039500917    -2.501041   0.69395052  1252891 
 1449000   0.83639158    -2.500913    -2.500913   -1.8061736  0.043662415    -2.500913   0.69473938  1252891 
 1450000    0.8355325    -2.500568    -2.500568   -1.8065422  0.048497338    -2.500568    0.6940258  1252891 
 1451000   0.83589297   -2.5011881   -2.5011881   -1.8068629  0.044828547   -2.5011881   0.69432522  1252891 
 1452000   0.83638652   -2.5011788   -2.5011788   -1.8064436   0.05409054   -2.5011788   0.69473518  1252891 
 1453000   0.83625974   -2.5010918   -2.5010918   -1.8064619  0.050446306   -2.5010918   0.69462987  1252891 
 1454000   0.83541301   -2.5012621   -2.5012621   -1.8073356   0.03623039   -2.5012621   0.69392654  1252891 
 1455000   0.83499685   -2.5011724   -2.5011724   -1.8075915  0.028793037   -2.5011724   0.69358086  1252891 
 1456000   0.83553127    -2.500806    -2.500806   -1.8067813  0.037860954    -2.500806   0.69402478  1252891 
 1457000   0.83551988   -2.5005707   -2.5005707   -1.8065554  0.031055999   -2.5005707   0.69401531  1252891 
 1458000   0.83661685   -2.5020205   -2.5020205    -1.807094   0.03658802   -2.5020205    0.6949265  1252891 
 1459000    0.8365578   -2.5019252   -2.5019252   -1.8070478  0.047506919   -2.5019252   0.69487745  1252891 
 1460000   0.83620303   -2.5011243   -2.5011243   -1.8065415  0.051976847   -2.5011243   0.69458276  1252891 
 1461000   0.83594703   -2.5017014   -2.5017014   -1.8073313  0.042360499   -2.5017014   0.69437012  1252891 
 1462000   0.83584137   -2.5015886   -2.5015886   -1.8073062  0.048973465   -2.5015886   0.69428235  1252891 
 1463000   0.83519277   -2.5014413   -2.5014413   -1.8076977  0.052730608   -2.5014413    0.6937436  1252891 
 1464000   0.83518128    -2.501536    -2.501536    -1.807802  0.035839144    -2.501536   0.69373406  1252891 
 1465000   0.83463713   -2.5012983   -2.5012983   -1.8080162  0.044845444   -2.5012983   0.69328207  1252891 
 1466000   0.83636655   -2.5024222   -2.5024222   -1.8077037  0.046710115   -2.5024222   0.69471859  1252891 
 1467000   0.83482008   -2.5014981   -2.5014981   -1.8080641  0.041923922   -2.5014981   0.69343403  1252891 
 1468000   0.83563741   -2.5022081   -2.5022081   -1.8080952  0.047406218   -2.5022081   0.69411294  1252891 
 1469000   0.83488383   -2.5016059   -2.5016059    -1.808119   0.03724153   -2.5016059   0.69348699  1252891 
 1470000   0.83622301   -2.5021733   -2.5021733   -1.8075739  0.040221649   -2.5021733   0.69459936  1252891 
 1471000    0.8350849   -2.5017893   -2.5017893   -1.8081353  0.048046061   -2.5017893   0.69365401  1252891 
 1472000   0.83494216   -2.5015562   -2.5015562   -1.8080207  0.045468656   -2.5015562   0.69353543  1252891 
 1473000   0.83579451   -2.5019702   -2.5019702   -1.8077268  0.041593967   -2.5019702   0.69424343  1252891 
 1474000   0.83569155    -2.501402    -2.501402   -1.8072441  0.052405368    -2.501402   0.69415791  1252891 
 1475000     0.836128   -2.5016922   -2.5016922   -1.8071717  0.043694219   -2.5016922   0.69452044  1252891 
 1476000   0.83709487   -2.5019417   -2.5019417   -1.8066181  0.040324237   -2.5019417   0.69532356  1252891 
 1477000   0.83597278   -2.5015265   -2.5015265    -1.807135  0.046323004   -2.5015265    0.6943915  1252891 
 1478000   0.83640527   -2.5021064   -2.5021064   -1.8073556  0.047135158   -2.5021064   0.69475075  1252891 
 1479000   0.83722762   -2.5021339   -2.5021339   -1.8067001  0.038102348   -2.5021339   0.69543383  1252891 
 1480000   0.83653088   -2.5010901   -2.5010901    -1.806235  0.044812213   -2.5010901   0.69485509  1252891 
 1481000   0.83559958   -2.5017388   -2.5017388   -1.8076573  0.027418337   -2.5017388   0.69408151  1252891 
 1482000   0.83525299   -2.5007615   -2.5007615   -1.8069679  0.044029097   -2.5007615   0.69379363  1252891 
 1483000   0.83582893   -2.5023173   -2.5023173   -1.8080453  0.033752581   -2.5023173   0.69427202  1252891 
 1484000   0.83629615   -2.5026102   -2.5026102   -1.8079501  0.044067753   -2.5026102   0.69466011  1252891 
 1485000   0.83508055   -2.5022511   -2.5022511   -1.8086007  0.044881795   -2.5022511   0.69365039  1252891 
 1486000   0.83536854   -2.5022106   -2.5022106    -1.808321  0.043827249   -2.5022106   0.69388961  1252891 
 1487000   0.83652266   -2.5022833   -2.5022833    -1.807435  0.032085914   -2.5022833   0.69484826  1252891 
 1488000   0.83540269   -2.5017071   -2.5017071   -1.8077891  0.041628007   -2.5017071   0.69391797  1252891 
 1489000   0.83486868   -2.5021101   -2.5021101   -1.8086357  0.034868996   -2.5021101    0.6934744  1252891 
 1490000   0.83417224   -2.5011936   -2.5011936   -1.8082977  0.047384051   -2.5011936   0.69289591  1252891 
 1491000   0.83393974   -2.5008903   -2.5008903   -1.8081875  0.042699092   -2.5008903   0.69270279  1252891 
 1492000   0.83497391   -2.5019844   -2.5019844   -1.8084226  0.039813178   -2.5019844   0.69356181  1252891 
 1493000   0.83590476    -2.501894    -2.501894    -1.807559  0.044548709    -2.501894   0.69433501  1252891 
 1494000   0.83562269   -2.5014695   -2.5014695   -1.8073688  0.053598554   -2.5014695   0.69410071  1252891 
 1495000   0.83694282   -2.5029411   -2.5029411   -1.8077439  0.037625272   -2.5029411   0.69519726  1252891 
 1496000   0.83531692   -2.5024278   -2.5024278   -1.8085811   0.03646076   -2.5024278   0.69384673  1252891 
 1497000   0.83519325   -2.5014963   -2.5014963   -1.8077523  0.043420342   -2.5014963     0.693744  1252891 
 1498000   0.83467148   -2.5019482   -2.5019482   -1.8086376  0.039006644   -2.5019482    0.6933106  1252891 
 1499000   0.83515932   -2.5028674   -2.5028674   -1.8091515   0.03013783   -2.5028674   0.69371582  1252891 
 1500000   0.83455199   -2.5019945   -2.5019945   -1.8087832  0.034575288   -2.5019945   0.69321134  1252891 
 1501000    0.8345466   -2.5015571   -2.5015571   -1.8083502   0.04683396   -2.5015571   0.69320687  1252891 
 1502000   0.83449734   -2.5016268   -2.5016268   -1.8084609  0.047494161   -2.5016268   0.69316595  1252891 
 1503000   0.83426137   -2.5021265   -2.5021265   -1.8091565  0.042795854   -2.5021265   0.69296994  1252891 
 1504000   0.83470243   -2.5017896   -2.5017896   -1.8084533  0.046581114   -2.5017896   0.69333631  1252891 
 1505000   0.83559318   -2.5031458   -2.5031458   -1.8090696   0.04763225   -2.5031458    0.6940762  1252891 
 1506000   0.83627745    -2.503366    -2.503366   -1.8087215   0.04920772    -2.503366   0.69464458  1252891 
 1507000   0.83623384   -2.5033694   -2.5033694   -1.8087611  0.041198292   -2.5033694   0.69460835  1252891 
 1508000   0.83545245   -2.5030058   -2.5030058   -1.8090465   0.05182371   -2.5030058    0.6939593  1252891 
 1509000   0.83578524   -2.5029391   -2.5029391   -1.8087034  0.041380687   -2.5029391   0.69423573  1252891 
 1510000    0.8344506   -2.5025287   -2.5025287   -1.8094015  0.038459675   -2.5025287   0.69312713  1252891 
 1511000   0.83431607   -2.5029478   -2.5029478   -1.8099325  0.033250096   -2.5029478   0.69301538  1252891 
 1512000   0.83593757   -2.5034023   -2.5034023     -1.80904  0.033100333   -2.5034023   0.69436226  1252891 
 1513000   0.83456418   -2.5025587   -2.5025587   -1.8093372  0.039410451   -2.5025587   0.69322147  1252891 
 1514000   0.83489344   -2.5034407   -2.5034407   -1.8099457  0.046367107   -2.5034407   0.69349497  1252891 
 1515000   0.83663903   -2.5040043   -2.5040043   -1.8090594  0.038915406   -2.5040043   0.69494492  1252891 
 1516000   0.83646682   -2.5045517   -2.5045517   -1.8097498  0.039227191   -2.5045517   0.69480188  1252891 
 1517000   0.83461076   -2.5029246   -2.5029246   -1.8096645   0.04059958   -2.5029246   0.69326017  1252891 
 1518000   0.83598558   -2.5041681   -2.5041681   -1.8097659  0.042296906   -2.5041681   0.69440214  1252891 
 1519000   0.83514306   -2.5035532   -2.5035532   -1.8098509  0.039304515   -2.5035532   0.69370231  1252891 
 1520000   0.83543658   -2.5041436   -2.5041436   -1.8101975  0.045809439   -2.5041436   0.69394612  1252891 
 1521000   0.83653212   -2.5045129   -2.5045129   -1.8096568  0.041712204   -2.5045129   0.69485612  1252891 
 1522000   0.83584173   -2.5045217   -2.5045217   -1.8102391  0.044122892   -2.5045217   0.69428266  1252891 
 1523000   0.83572506   -2.5044589   -2.5044589   -1.8102732  0.045380487   -2.5044589   0.69418575  1252891 
 1524000   0.83452798   -2.5029739   -2.5029739   -1.8097825  0.046634262   -2.5029739    0.6931914  1252891 
 1525000   0.83488409   -2.5026634   -2.5026634   -1.8091762  0.037706536   -2.5026634    0.6934872  1252891 
 1526000   0.83462435   -2.5027506   -2.5027506   -1.8094792  0.046190005   -2.5027506   0.69327145  1252891 
 1527000   0.83391034   -2.5023614   -2.5023614    -1.809683  0.038567712   -2.5023614   0.69267837  1252891 
 1528000   0.83539468   -2.5029711   -2.5029711   -1.8090598  0.036749449   -2.5029711   0.69391132  1252891 
 1529000    0.8346805   -2.5033387   -2.5033387   -1.8100206  0.039820558   -2.5033387   0.69331809  1252891 
 1530000   0.83429474    -2.503412    -2.503412   -1.8104143  0.039229662    -2.503412   0.69299766  1252891 
 1531000   0.83484219   -2.5031743   -2.5031743   -1.8097219   0.04672628   -2.5031743    0.6934524  1252891 
 1532000   0.83312402   -2.5025858   -2.5025858   -1.8105606  0.049309421   -2.5025858   0.69202521  1252891 
 1533000    0.8345409   -2.5031131   -2.5031131   -1.8099109  0.045268413   -2.5031131   0.69320213  1252891 
 1534000   0.83546332   -2.5038648   -2.5038648   -1.8098965  0.045956953   -2.5038648   0.69396833  1252891 
 1535000   0.83500788   -2.5032715   -2.5032715   -1.8096815  0.042331681   -2.5032715   0.69359003  1252891 
 1536000   0.83577176   -2.5042339   -2.5042339   -1.8100094  0.037197777   -2.5042339   0.69422453  1252891 
 1537000   0.83461723   -2.5036046   -2.5036046   -1.8103391  0.042347163   -2.5036046   0.69326554  1252891 
 1538000   0.83478318   -2.5033582   -2.5033582   -1.8099548  0.054418145   -2.5033582   0.69340338  1252891 
 1539000   0.83651451   -2.5052219   -2.5052219   -1.8103804  0.040827998   -2.5052219   0.69484149  1252891 
 1540000   0.83526076   -2.5043045   -2.5043045   -1.8105044  0.047516171   -2.5043045   0.69380008  1252891 
 1541000   0.83601128   -2.5045466   -2.5045466   -1.8101231  0.040812337   -2.5045466   0.69442349  1252891 
 1542000   0.83599784    -2.504555    -2.504555   -1.8101427  0.044141564    -2.504555   0.69441233  1252891 
 1543000   0.83460382    -2.503065    -2.503065   -1.8098106  0.044722887    -2.503065    0.6932544  1252891 
 1544000   0.83467442   -2.5035315   -2.5035315   -1.8102185  0.047432713   -2.5035315   0.69331304  1252891 
 1545000   0.83484072   -2.5036402   -2.5036402   -1.8101891  0.042359869   -2.5036402   0.69345118  1252891 
 1546000   0.83434194   -2.5038902   -2.5038902   -1.8108534   0.03997846   -2.5038902   0.69303687  1252891 
 1547000   0.83532736   -2.5047009   -2.5047009   -1.8108455  0.041892721   -2.5047009   0.69385539  1252891 
 1548000   0.83452269   -2.5040818   -2.5040818   -1.8108948  0.031299763   -2.5040818   0.69318701  1252891 
 1549000   0.83514696   -2.5045424   -2.5045424   -1.8108368  0.030836502   -2.5045424   0.69370555  1252891 
 1550000   0.83484864    -2.503948    -2.503948   -1.8104902  0.037278681    -2.503948   0.69345776  1252891 
 1551000    0.8361561   -2.5057068   -2.5057068    -1.811163  0.033829472   -2.5057068   0.69454378  1252891 
 1552000   0.83604023   -2.5051668   -2.5051668   -1.8107193  0.043862711   -2.5051668   0.69444753  1252891 
 1553000   0.83604692   -2.5047193   -2.5047193   -1.8102662  0.037578114   -2.5047193   0.69445309  1252891 
 1554000   0.83511703   -2.5051357   -2.5051357    -1.811455  0.048320974   -2.5051357   0.69368069  1252891 
 1555000   0.83491973   -2.5050844   -2.5050844   -1.8115676   0.04051681   -2.5050844   0.69351681  1252891 
 1556000   0.83565392   -2.5056736   -2.5056736    -1.811547  0.043869029   -2.5056736   0.69412665  1252891 
 1557000   0.83471383   -2.5051708   -2.5051708    -1.811825  0.042100036   -2.5051708   0.69334577  1252891 
 1558000   0.83582526   -2.5053897   -2.5053897   -1.8111208   0.04370398   -2.5053897   0.69426897  1252891 
 1559000   0.83504606   -2.5046954   -2.5046954   -1.8110737  0.041821008   -2.5046954   0.69362174  1252891 
 1560000    0.8340701   -2.5048046   -2.5048046   -1.8119936  0.042237428   -2.5048046   0.69281107  1252891 
 1561000   0.83488474   -2.5052931   -2.5052931   -1.8118053  0.040422474   -2.5052931   0.69348774  1252891 
 1562000   0.83458674   -2.5045741   -2.5045741   -1.8113339  0.040371038   -2.5045741   0.69324021  1252891 
 1563000   0.83385396   -2.5044645   -2.5044645    -1.811833  0.041558157   -2.5044645   0.69263154  1252891 
 1564000    0.8358565   -2.5051751   -2.5051751   -1.8108801  0.040541902   -2.5051751   0.69429492  1252891 
 1565000   0.83591121   -2.5060758   -2.5060758   -1.8117354  0.046957071   -2.5060758   0.69434037  1252891 
 1566000   0.83541038   -2.5055681   -2.5055681   -1.8116437   0.02850129   -2.5055681   0.69392436  1252891 
 1567000   0.83507428   -2.5044565   -2.5044565   -1.8108113  0.045450919   -2.5044565   0.69364518  1252891 
 1568000   0.83451079   -2.5043344   -2.5043344   -1.8111572  0.044253614   -2.5043344   0.69317712  1252891 
 1569000   0.83551038    -2.504852    -2.504852   -1.8108446  0.048418981    -2.504852   0.69400742  1252891 
 1570000   0.83467938   -2.5045443   -2.5045443   -1.8112271  0.035835894   -2.5045443   0.69331716  1252891 
 1571000   0.83448517   -2.5040564   -2.5040564   -1.8109006  0.039661672   -2.5040564   0.69315584  1252891 
 1572000   0.83522666    -2.505025    -2.505025   -1.8112533  0.035308743    -2.505025   0.69377175  1252891 
 1573000   0.83499446   -2.5051497   -2.5051497   -1.8115708  0.030857952   -2.5051497   0.69357888  1252891 
 1574000   0.83528887   -2.5057892   -2.5057892   -1.8119657  0.038680877   -2.5057892   0.69382343  1252891 
 1575000   0.83412111   -2.5043195   -2.5043195   -1.8114661   0.03604942   -2.5043195   0.69285344  1252891 
 1576000   0.83399761   -2.5050398   -2.5050398   -1.8122889  0.045524996   -2.5050398   0.69275086  1252891 
 1577000   0.83589518   -2.5052774   -2.5052774   -1.8109503  0.036542085   -2.5052774   0.69432705  1252891 
 1578000   0.83558118   -2.5057787   -2.5057787   -1.8117125  0.041565851   -2.5057787   0.69406623  1252891 
 1579000   0.83460538   -2.5057361   -2.5057361   -1.8124804  0.040198166   -2.5057361    0.6932557  1252891 
 1580000    0.8351226   -2.5060056   -2.5060056   -1.8123203  0.053996411   -2.5060056   0.69368532  1252891 
 1581000   0.83570705   -2.5055157   -2.5055157   -1.8113449  0.044204419   -2.5055157   0.69417078  1252891 
 1582000   0.83530401   -2.5062424   -2.5062424   -1.8124064  0.043544047   -2.5062424     0.693836  1252891 
 1583000   0.83525888   -2.5059956   -2.5059956   -1.8121971  0.046094209   -2.5059956   0.69379851  1252891 
 1584000   0.83565364   -2.5071889   -2.5071889   -1.8130624  0.045007796   -2.5071889   0.69412642  1252891 
 1585000   0.83466181   -2.5062478   -2.5062478   -1.8129452  0.042339809   -2.5062478   0.69330257  1252891 
 1586000   0.83475976   -2.5050866   -2.5050866   -1.8117026  0.045672173   -2.5050866   0.69338393  1252891 
 1587000   0.83521273   -2.5057943   -2.5057943   -1.8120342  0.041676472   -2.5057943   0.69376019  1252891 
 1588000   0.83549117   -2.5059132   -2.5059132   -1.8119217  0.042298066   -2.5059132   0.69399147  1252891 
 1589000   0.83467161    -2.505085    -2.505085   -1.8117743   0.04398524    -2.505085   0.69331071  1252891 
 1590000   0.83472609   -2.5055355   -2.5055355   -1.8121795  0.040838998   -2.5055355   0.69335596  1252891 
 1591000   0.83473317   -2.5052431   -2.5052431   -1.8118813   0.02663319   -2.5052431   0.69336184  1252891 
 1592000   0.83528378   -2.5052957   -2.5052957   -1.8114765  0.041610157   -2.5052957    0.6938192  1252891 
 1593000   0.83582649   -2.5063183   -2.5063183   -1.8120483  0.030897688   -2.5063183   0.69426999  1252891 
 1594000   0.83492166   -2.5057919   -2.5057919   -1.8122735  0.039318337   -2.5057919   0.69351841  1252891 
 1595000   0.83455156   -2.5058538   -2.5058538   -1.8126428  0.034440566   -2.5058538   0.69321099  1252891 
 1596000   0.83578452   -2.5055435   -2.5055435   -1.8113084  0.042186505   -2.5055435   0.69423513  1252891 
 1597000   0.83610615    -2.506746    -2.506746   -1.8122437  0.043964987    -2.506746   0.69450229  1252891 
 1598000   0.83555747   -2.5072523   -2.5072523   -1.8132058  0.050037864   -2.5072523   0.69404654  1252891 
 1599000     0.834234   -2.5055561   -2.5055561   -1.8126089  0.044974463   -2.5055561   0.69294721  1252891 
 1600000   0.83457168   -2.5063231   -2.5063231   -1.8130954  0.043292015   -2.5063231    0.6932277  1252891 
 1601000   0.83547749   -2.5072969   -2.5072969   -1.8133168   0.04394821   -2.5072969    0.6939801  1252891 
 1602000   0.83631586   -2.5078013   -2.5078013   -1.8131248  0.047207863   -2.5078013   0.69467648  1252891 
 1603000   0.83495143   -2.5067262   -2.5067262   -1.8131831  0.032547181   -2.5067262   0.69354313  1252891 
 1604000   0.83399885   -2.5058684   -2.5058684   -1.8131165  0.050057437   -2.5058684   0.69275188  1252891 
 1605000   0.83619024   -2.5076706   -2.5076706   -1.8130984  0.041287258   -2.5076706   0.69457214  1252891 
 1606000   0.83336019   -2.5057384   -2.5057384    -1.813517  0.036443363   -2.5057384   0.69222139  1252891 
 1607000   0.83401852   -2.5064478   -2.5064478   -1.8136796  0.045640498   -2.5064478   0.69276822  1252891 
 1608000   0.83459344   -2.5070296   -2.5070296   -1.8137839  0.045886579   -2.5070296   0.69324578  1252891 
 1609000   0.83382292   -2.5060126   -2.5060126   -1.8134068  0.046981488   -2.5060126   0.69260575  1252891 
 1610000   0.83347939    -2.507101    -2.507101   -1.8147806  0.043509722    -2.507101    0.6923204  1252891 
 1611000   0.83513773   -2.5073154   -2.5073154   -1.8136175  0.040598391   -2.5073154   0.69369789  1252891 
 1612000   0.83447524   -2.5073104   -2.5073104   -1.8141628  0.047485902   -2.5073104   0.69314759  1252891 
 1613000   0.83380613   -2.5073123   -2.5073123   -1.8147205  0.034720558   -2.5073123    0.6925918  1252891 
 1614000   0.83341152   -2.5065854   -2.5065854   -1.8143214   0.03743984   -2.5065854   0.69226402  1252891 
 1615000   0.83482463   -2.5071382   -2.5071382   -1.8137004  0.045055097   -2.5071382   0.69343781  1252891 
 1616000   0.83519722    -2.507973    -2.507973   -1.8142257  0.043601201    -2.507973    0.6937473  1252891 
 1617000   0.83440382    -2.507326    -2.507326   -1.8142378  0.046444957    -2.507326   0.69308827  1252891 
 1618000   0.83511228   -2.5075664   -2.5075664   -1.8138896  0.036522821   -2.5075664   0.69367675  1252891 
 1619000   0.83583623   -2.5087355   -2.5087355   -1.8144575  0.037809309   -2.5087355   0.69427808  1252891 
 1620000    0.8344738   -2.5072356   -2.5072356   -1.8140892  0.042805081   -2.5072356    0.6931464  1252891 
 1621000   0.83506103   -2.5071823   -2.5071823   -1.8135481   0.04918074   -2.5071823   0.69363418  1252891 
 1622000   0.83482163    -2.507431    -2.507431   -1.8139957  0.039185913    -2.507431   0.69343532  1252891 
 1623000   0.83379872   -2.5069517   -2.5069517    -1.814366  0.035575981   -2.5069517   0.69258565  1252891 
 1624000   0.83414218   -2.5067749   -2.5067749    -1.813904  0.034907612   -2.5067749   0.69287094  1252891 
 1625000   0.83357379    -2.506535    -2.506535   -1.8141362  0.039516361    -2.506535   0.69239881  1252891 
 1626000   0.83274082    -2.505984    -2.505984   -1.8142771  0.039029153    -2.505984   0.69170692  1252891 
 1627000     0.833701   -2.5067679   -2.5067679   -1.8142634   0.03142041   -2.5067679   0.69250448  1252891 
 1628000   0.83400141   -2.5064581   -2.5064581    -1.813704  0.041513945   -2.5064581   0.69275402  1252891 
 1629000   0.83492697   -2.5072657   -2.5072657   -1.8137429   0.03761883   -2.5072657   0.69352282  1252891 
 1630000   0.83468473   -2.5068271   -2.5068271   -1.8135055  0.046082181   -2.5068271    0.6933216  1252891 
 1631000   0.83384249   -2.5072036   -2.5072036   -1.8145816  0.039243414   -2.5072036   0.69262201  1252891 
 1632000   0.83401613   -2.5074439   -2.5074439   -1.8146777  0.039585736   -2.5074439   0.69276624  1252891 
 1633000   0.83480106   -2.5071101   -2.5071101   -1.8136918  0.047999786   -2.5071101   0.69341823  1252891 
 1634000   0.83477774   -2.5083417   -2.5083417   -1.8149428  0.035805483   -2.5083417   0.69339886  1252891 
 1635000   0.83421533   -2.5069913   -2.5069913   -1.8140596  0.042619602   -2.5069913    0.6929317  1252891 
 1636000    0.8343839   -2.5074825   -2.5074825   -1.8144108  0.037320829   -2.5074825   0.69307173  1252891 
 1637000   0.83529679   -2.5080416   -2.5080416   -1.8142116  0.034153459   -2.5080416   0.69383001  1252891 
 1638000   0.83490271   -2.5075477   -2.5075477   -1.8140451  0.041683004   -2.5075477   0.69350267  1252891 
 1639000   0.83365726   -2.5074717   -2.5074717   -1.8150035   0.03155539   -2.5074717   0.69246815  1252891 
 1640000   0.83381932   -2.5078279   -2.5078279   -1.8152251  0.049464553   -2.5078279   0.69260276  1252891 
 1641000   0.83405781   -2.5080879   -2.5080879   -1.8152871  0.047410569   -2.5080879   0.69280086  1252891 
 1642000   0.83392029   -2.5075208   -2.5075208   -1.8148342  0.050904295   -2.5075208   0.69268663  1252891 
 1643000   0.83366588   -2.5079154   -2.5079154   -1.8154401  0.045076672   -2.5079154   0.69247531  1252891 
 1644000   0.83425289   -2.5079102   -2.5079102   -1.8149473   0.05111968   -2.5079102    0.6929629  1252891 
 1645000   0.83338366   -2.5074001   -2.5074001   -1.8151592   0.03481321   -2.5074001   0.69224089  1252891 
 1646000   0.83255625   -2.5077965   -2.5077965   -1.8162429  0.037469649   -2.5077965   0.69155361  1252891 
 1647000   0.83381363   -2.5080377   -2.5080377   -1.8154397  0.043574303   -2.5080377   0.69259804  1252891 
 1648000   0.83360531   -2.5075029   -2.5075029   -1.8150779   0.04326124   -2.5075029   0.69242499  1252891 
 1649000   0.83487978   -2.5090138   -2.5090138   -1.8155301  0.040722132   -2.5090138   0.69348362  1252891 
 1650000   0.83338515   -2.5085029   -2.5085029   -1.8162608  0.033330252   -2.5085029   0.69224212  1252891 
 1651000   0.83477538   -2.5093636   -2.5093636   -1.8159667  0.055291774   -2.5093636    0.6933969  1252891 
 1652000   0.83451793   -2.5095179   -2.5095179   -1.8163348  0.041256405   -2.5095179   0.69318305  1252891 
 1653000   0.83534026     -2.51012     -2.51012   -1.8162538  0.047661556     -2.51012   0.69386611  1252891 
 1654000    0.8337246   -2.5086588   -2.5086588   -1.8161347  0.042185623   -2.5086588   0.69252408  1252891 
 1655000   0.83453146   -2.5088446   -2.5088446   -1.8156504  0.047563585   -2.5088446   0.69319429  1252891 
 1656000   0.83479499   -2.5099341   -2.5099341   -1.8165209  0.045439546   -2.5099341   0.69341319  1252891 
 1657000    0.8346169   -2.5094822   -2.5094822   -1.8162169  0.046344462   -2.5094822   0.69326526  1252891 
 1658000   0.83492707   -2.5099989   -2.5099989    -1.816476  0.037644042   -2.5099989    0.6935229  1252891 
 1659000   0.83461507   -2.5093123   -2.5093123   -1.8160485  0.043005257   -2.5093123   0.69326374  1252891 
 1660000   0.83334127   -2.5087613   -2.5087613   -1.8165556  0.049008061   -2.5087613   0.69220568  1252891 
 1661000   0.83356689   -2.5090633   -2.5090633   -1.8166703  0.042501814   -2.5090633   0.69239308  1252891 
 1662000   0.83401983   -2.5085235   -2.5085235   -1.8157542  0.041312424   -2.5085235   0.69276931  1252891 
 1663000   0.83449495   -2.5099585   -2.5099585   -1.8167945  0.043446143   -2.5099585   0.69316397  1252891 
 1664000   0.83369311   -2.5086193   -2.5086193   -1.8161214  0.042588253   -2.5086193   0.69249793  1252891 
 1665000    0.8336852   -2.5090703   -2.5090703   -1.8165789  0.047522036   -2.5090703   0.69249135  1252891 
 1666000   0.83305329   -2.5087136   -2.5087136   -1.8167472  0.048888061   -2.5087136   0.69196647  1252891 
 1667000   0.83286791   -2.5095813   -2.5095813   -1.8177688  0.032144492   -2.5095813   0.69181249  1252891 
 1668000    0.8342222   -2.5096822   -2.5096822   -1.8167448  0.048178849   -2.5096822   0.69293741  1252891 
 1669000    0.8348554   -2.5108785   -2.5108785   -1.8174152  0.037690154   -2.5108785   0.69346337  1252891 
 1670000   0.83346663    -2.509862    -2.509862   -1.8175522  0.038985744    -2.509862   0.69230981  1252891 
 1671000   0.83446447   -2.5098664   -2.5098664   -1.8167278  0.041494931   -2.5098664   0.69313865  1252891 
 1672000   0.83476788   -2.5096956   -2.5096956   -1.8163049   0.04539484   -2.5096956   0.69339067  1252891 
 1673000   0.83303444   -2.5092135   -2.5092135   -1.8172627  0.047886349   -2.5092135   0.69195081  1252891 
 1674000   0.83296045   -2.5101026   -2.5101026   -1.8182133   0.04912031   -2.5101026   0.69188935  1252891 
 1675000   0.83330832   -2.5108725   -2.5108725   -1.8186942  0.036507616   -2.5108725   0.69217831  1252891 
 1676000   0.83274397   -2.5101105   -2.5101105    -1.818401   0.03535091   -2.5101105   0.69170953  1252891 
 1677000   0.83304784   -2.5093717   -2.5093717   -1.8174098  0.043665229   -2.5093717   0.69196194  1252891 
 1678000   0.83329008   -2.5098369   -2.5098369   -1.8176737  0.046323721   -2.5098369   0.69216315  1252891 
 1679000   0.83165454   -2.5091235   -2.5091235   -1.8183189  0.040829382   -2.5091235   0.69080461  1252891 
 1680000   0.83383662    -2.509927    -2.509927   -1.8173099  0.042447352    -2.509927   0.69261713  1252891 
 1681000   0.83496158   -2.5101866   -2.5101866    -1.816635  0.035358855   -2.5101866   0.69355157  1252891 
 1682000   0.83424181   -2.5094141   -2.5094141   -1.8164605  0.046837448   -2.5094141   0.69295369  1252891 
 1683000   0.83360508   -2.5086946   -2.5086946   -1.8162698  0.049386811   -2.5086946    0.6924248  1252891 
 1684000    0.8329111   -2.5085393   -2.5085393   -1.8166909  0.048139471   -2.5085393   0.69184836  1252891 
 1685000   0.83343771   -2.5092731   -2.5092731   -1.8169873  0.043926825   -2.5092731   0.69228578  1252891 
 1686000   0.83301259   -2.5087726   -2.5087726   -1.8168399  0.035608728   -2.5087726   0.69193266  1252891 
 1687000   0.83295342   -2.5089652   -2.5089652   -1.8170817   0.04379016   -2.5089652   0.69188351  1252891 
 1688000   0.83379376    -2.509209    -2.509209   -1.8166274  0.037082858    -2.509209   0.69258153  1252891 
 1689000   0.83323722   -2.5085588   -2.5085588   -1.8164396  0.041251589   -2.5085588   0.69211925  1252891 
 1690000   0.83377957   -2.5092297   -2.5092297     -1.81666  0.046895137   -2.5092297   0.69256974  1252891 
 1691000   0.83208321   -2.5086408   -2.5086408   -1.8174802  0.038871924   -2.5086408   0.69116068  1252891 
 1692000   0.83330995   -2.5091909   -2.5091909   -1.8170112  0.041201779   -2.5091909   0.69217966  1252891 
 1693000     0.831961   -2.5089475   -2.5089475   -1.8178883  0.035401413   -2.5089475   0.69105917  1252891 
 1694000   0.83257148   -2.5099612   -2.5099612    -1.818395  0.031165613   -2.5099612   0.69156626  1252891 
 1695000   0.83339273   -2.5103354   -2.5103354    -1.818087  0.048241897   -2.5103354   0.69224842  1252891 
 1696000   0.83239823   -2.5096919   -2.5096919   -1.8182696  0.036035409   -2.5096919   0.69142235  1252891 
 1697000   0.83342373   -2.5097442   -2.5097442   -1.8174701   0.04282567   -2.5097442   0.69227417  1252891 
 1698000   0.83428701   -2.5100035   -2.5100035   -1.8170123  0.041115807   -2.5100035   0.69299125  1252891 
 1699000   0.83509375   -2.5101926   -2.5101926   -1.8165312  0.039782056   -2.5101926   0.69366136  1252891 
 1700000   0.83373931   -2.5100231   -2.5100231   -1.8174868  0.043801237   -2.5100231    0.6925363  1252891 
 1701000   0.83411368    -2.509811    -2.509811   -1.8169637  0.041306725    -2.509811   0.69284727  1252891 
 1702000   0.83389358   -2.5108317   -2.5108317   -1.8181672  0.042482536   -2.5108317   0.69266444  1252891 
 1703000   0.83309143   -2.5100983   -2.5100983   -1.8181002  0.039505551   -2.5100983   0.69199815  1252891 
 1704000   0.83419315   -2.5106652   -2.5106652   -1.8177519  0.043462877   -2.5106652   0.69291328  1252891 
 1705000   0.83314052   -2.5091067   -2.5091067   -1.8170678  0.037808171   -2.5091067   0.69203892  1252891 
 1706000   0.83338574   -2.5099115   -2.5099115   -1.8176689  0.041278441   -2.5099115   0.69224261  1252891 
 1707000   0.83289513   -2.5093676   -2.5093676   -1.8175325  0.041392191   -2.5093676   0.69183509  1252891 
 1708000   0.83432355   -2.5105198   -2.5105198   -1.8174982  0.030040635   -2.5105198   0.69302159  1252891 
 1709000   0.83359287   -2.5101912   -2.5101912   -1.8177765  0.047074963   -2.5101912   0.69241466  1252891 
 1710000   0.83195026   -2.5090801   -2.5090801   -1.8180298  0.048002201   -2.5090801   0.69105025  1252891 
 1711000   0.83378614   -2.5099102   -2.5099102    -1.817335  0.038069498   -2.5099102    0.6925752  1252891 
 1712000   0.83211501   -2.5094055   -2.5094055   -1.8182184  0.047559033   -2.5094055   0.69118709  1252891 
 1713000   0.83310504   -2.5102162   -2.5102162   -1.8182067  0.038748166   -2.5102162   0.69200946  1252891 
 1714000   0.83345125   -2.5106576   -2.5106576   -1.8183606  0.035665404   -2.5106576   0.69229703  1252891 
 1715000   0.83388325   -2.5114908   -2.5114908   -1.8188349  0.041950618   -2.5114908   0.69265587  1252891 
 1716000   0.83233027   -2.5099854   -2.5099854   -1.8186195  0.045319529   -2.5099854    0.6913659  1252891 
 1717000    0.8339447   -2.5111854   -2.5111854   -1.8184785  0.039401706   -2.5111854   0.69270691  1252891 
 1718000   0.83369339   -2.5109364   -2.5109364   -1.8184382  0.043051351   -2.5109364   0.69249816  1252891 
 1719000   0.83376949   -2.5116345   -2.5116345   -1.8190731  0.040145647   -2.5116345   0.69256137  1252891 
 1720000   0.83355695   -2.5115394   -2.5115394   -1.8191545  0.040672654   -2.5115394   0.69238483  1252891 
 1721000   0.83252576   -2.5109419   -2.5109419   -1.8194136  0.041491453   -2.5109419   0.69152828  1252891 
 1722000   0.83307846   -2.5110208   -2.5110208   -1.8190334  0.042973585   -2.5110208   0.69198737  1252891 
 1723000   0.83339836   -2.5108114   -2.5108114   -1.8185583  0.043728529   -2.5108114    0.6922531  1252891 
 1724000    0.8327644   -2.5109099   -2.5109099   -1.8191834  0.046319915   -2.5109099    0.6917265  1252891 
 1725000   0.83243588    -2.511178    -2.511178   -1.8197244  0.046718386    -2.511178   0.69145363  1252891 
 1726000   0.83258958   -2.5100686   -2.5100686   -1.8184874  0.044484921   -2.5100686   0.69158129  1252891 
 1727000   0.83202708   -2.5099477   -2.5099477   -1.8188336  0.037791716   -2.5099477   0.69111405  1252891 
 1728000   0.83223842   -2.5106152   -2.5106152   -1.8193256  0.037267362   -2.5106152    0.6912896  1252891 
 1729000   0.83335894   -2.5107266   -2.5107266   -1.8185062  0.047200226   -2.5107266   0.69222035  1252891 
 1730000     0.834088   -2.5115226   -2.5115226   -1.8186966  0.043976749   -2.5115226   0.69282593  1252891 
 1731000   0.83354658   -2.5111508   -2.5111508   -1.8187746  0.058329589   -2.5111508   0.69237622  1252891 
 1732000   0.83348661   -2.5120609   -2.5120609   -1.8197345  0.036831611   -2.5120609    0.6923264  1252891 
 1733000   0.83349669   -2.5122693   -2.5122693   -1.8199345  0.041051331   -2.5122693   0.69233477  1252891 
 1734000   0.83332296    -2.511999    -2.511999   -1.8198085  0.045773595    -2.511999   0.69219047  1252891 
 1735000   0.83311259   -2.5111985   -2.5111985   -1.8191828  0.046710058   -2.5111985   0.69201572  1252891 
 1736000   0.83217259   -2.5108786   -2.5108786   -1.8196437  0.052275798   -2.5108786   0.69123492  1252891 
 1737000    0.8329441    -2.511761    -2.511761   -1.8198852   0.04699385    -2.511761   0.69187577  1252891 
 1738000   0.83358556   -2.5123237   -2.5123237   -1.8199151  0.053944438   -2.5123237   0.69240859  1252891 
 1739000   0.83290323    -2.511386    -2.511386   -1.8195442  0.037154921    -2.511386   0.69184182  1252891 
 1740000   0.83243116   -2.5117927   -2.5117927    -1.820343  0.039029276   -2.5117927    0.6914497  1252891 
 1741000   0.83319932   -2.5119293   -2.5119293   -1.8198415   0.04607993   -2.5119293   0.69208777  1252891 
 1742000   0.83347722    -2.512901    -2.512901   -1.8205824  0.044834379    -2.512901    0.6923186  1252891 
 1743000   0.83251896   -2.5116273   -2.5116273   -1.8201046  0.045169701   -2.5116273   0.69152263  1252891 
 1744000   0.83394781   -2.5124312   -2.5124312   -1.8197217  0.037198844   -2.5124312   0.69270949  1252891 
 1745000   0.83297812   -2.5124261   -2.5124261   -1.8205221  0.042241273   -2.5124261   0.69190403  1252891 
 1746000    0.8335964   -2.5131136   -2.5131136    -1.820696  0.041378023   -2.5131136    0.6924176  1252891 
 1747000   0.83200468   -2.5117739   -2.5117739   -1.8206785  0.050098211   -2.5117739   0.69109545  1252891 
 1748000   0.83211881   -2.5114611   -2.5114611   -1.8202709  0.046844346   -2.5114611   0.69119025  1252891 
 1749000   0.83153656   -2.5113764   -2.5113764   -1.8206698  0.042066825   -2.5113764   0.69070661  1252891 
 1750000   0.83276089   -2.5118127   -2.5118127   -1.8200891  0.042396754   -2.5118127   0.69172359  1252891 
 1751000   0.83208618   -2.5113067   -2.5113067   -1.8201436  0.051644791   -2.5113067   0.69116315  1252891 
 1752000    0.8329978   -2.5119871   -2.5119871   -1.8200668  0.038712892   -2.5119871   0.69192037  1252891 
 1753000   0.83460114    -2.512629    -2.512629   -1.8193768  0.038360218    -2.512629   0.69325217  1252891 
 1754000    0.8331262   -2.5121712   -2.5121712   -1.8201442  0.046251115   -2.5121712   0.69202703  1252891 
 1755000   0.83227025    -2.511546    -2.511546     -1.82023  0.038516706    -2.511546   0.69131604  1252891 
 1756000   0.83392541   -2.5125198   -2.5125198   -1.8198289  0.043353581   -2.5125198   0.69269088  1252891 
 1757000   0.83336931   -2.5120108   -2.5120108   -1.8197819   0.04021844   -2.5120108   0.69222896  1252891 
 1758000   0.83263031   -2.5114992   -2.5114992   -1.8198841  0.040090533   -2.5114992   0.69161512  1252891 
 1759000   0.83281687   -2.5114244   -2.5114244   -1.8196543  0.034883548   -2.5114244   0.69177008  1252891 
 1760000   0.83346189   -2.5119023   -2.5119023   -1.8195964  0.040413835   -2.5119023   0.69230586  1252891 
 1761000    0.8333785   -2.5118758   -2.5118758   -1.8196392  0.043160379   -2.5118758    0.6922366  1252891 
 1762000    0.8334793   -2.5118191   -2.5118191   -1.8194987  0.043497072   -2.5118191   0.69232033  1252891 
 1763000   0.83357225   -2.5116805   -2.5116805   -1.8192829  0.035614804   -2.5116805   0.69239754  1252891 
 1764000   0.83202877   -2.5103181   -2.5103181   -1.8192026  0.045500589   -2.5103181   0.69111546  1252891 
 1765000   0.83155036    -2.510338    -2.510338   -1.8196199  0.041739784    -2.510338   0.69071808  1252891 
 1766000   0.83214952   -2.5102685   -2.5102685   -1.8190528  0.052057664   -2.5102685   0.69121576  1252891 
 1767000   0.83244225   -2.5108667   -2.5108667   -1.8194078  0.044690466   -2.5108667   0.69145891  1252891 
 1768000   0.83237988    -2.511049    -2.511049   -1.8196419  0.048550154    -2.511049   0.69140711  1252891 
 1769000   0.83418681   -2.5123393   -2.5123393   -1.8194312  0.036057467   -2.5123393   0.69290801  1252891 
 1770000   0.83265491   -2.5119132   -2.5119132   -1.8202776  0.034869498   -2.5119132   0.69163556  1252891 
 1771000    0.8332118   -2.5126805   -2.5126805   -1.8205824  0.037578383   -2.5126805   0.69209813  1252891 
 1772000   0.83218198   -2.5116992   -2.5116992   -1.8204565  0.040447961   -2.5116992   0.69124273  1252891 
 1773000   0.83233641   -2.5121665   -2.5121665   -1.8207955  0.041549061   -2.5121665     0.691371  1252891 
 1774000   0.83297652   -2.5116354   -2.5116354   -1.8197327  0.040031505   -2.5116354    0.6919027  1252891 
 1775000   0.83226406   -2.5115366   -2.5115366   -1.8202257  0.040164111   -2.5115366    0.6913109  1252891 
 1776000   0.83263025   -2.5118259   -2.5118259   -1.8202108  0.053702916   -2.5118259   0.69161507  1252891 
 1777000   0.83318531   -2.5122899   -2.5122899   -1.8202138  0.044278116   -2.5122899   0.69207613  1252891 
 1778000   0.83336258   -2.5125057   -2.5125057   -1.8202823  0.036574135   -2.5125057   0.69222337  1252891 
 1779000   0.83276589   -2.5121296   -2.5121296   -1.8204019  0.046105093   -2.5121296   0.69172775  1252891 
 1780000   0.83325734   -2.5123891   -2.5123891   -1.8202532  0.035124723   -2.5123891   0.69213596  1252891 
 1781000   0.83264431   -2.5120787   -2.5120787    -1.820452  0.039802347   -2.5120787   0.69162675  1252891 
 1782000    0.8333029   -2.5125139   -2.5125139   -1.8203401  0.042887333   -2.5125139    0.6921738  1252891 
 1783000   0.83266771   -2.5121544   -2.5121544   -1.8205082  0.040260641   -2.5121544   0.69164619  1252891 
 1784000   0.83282765   -2.5121887   -2.5121887   -1.8204097  0.035849027   -2.5121887   0.69177904  1252891 
 1785000   0.83276382   -2.5122075   -2.5122075   -1.8204815  0.042369891   -2.5122075   0.69172602  1252891 
 1786000   0.83230385   -2.5117644   -2.5117644   -1.8204205  0.035438834   -2.5117644   0.69134395  1252891 
 1787000   0.83286449   -2.5115107   -2.5115107   -1.8197011  0.040653122   -2.5115107   0.69180964  1252891 
 1788000   0.83253634   -2.5120733   -2.5120733   -1.8205363  0.040854956   -2.5120733   0.69153707  1252891 
 1789000   0.83291233   -2.5128923   -2.5128923   -1.8210429  0.041083626   -2.5128923   0.69184938  1252891 
 1790000   0.83286255   -2.5118448   -2.5118448   -1.8200368   0.03998479   -2.5118448   0.69180803  1252891 
 1791000   0.83331392   -2.5129839   -2.5129839    -1.820801  0.025745414   -2.5129839   0.69218295  1252891 
 1792000   0.83102645   -2.5114966   -2.5114966   -1.8212138  0.036667808   -2.5114966    0.6902829  1252891 
 1793000   0.83172364   -2.5117727   -2.5117727   -1.8209107  0.034816225   -2.5117727   0.69086201  1252891 
 1794000   0.83241666   -2.5118285   -2.5118285   -1.8203908  0.040370997   -2.5118285   0.69143766  1252891 
 1795000   0.83184118   -2.5118003   -2.5118003   -1.8208407  0.044215893   -2.5118003   0.69095964  1252891 
 1796000   0.83374884   -2.5128207   -2.5128207   -1.8202764  0.038634525   -2.5128207   0.69254422  1252891 
 1797000   0.83258083   -2.5122467   -2.5122467   -1.8206726  0.047584432   -2.5122467   0.69157402  1252891 
 1798000   0.83197536    -2.511836    -2.511836    -1.820765   0.04208376    -2.511836    0.6910711  1252891 
 1799000   0.83221889   -2.5124233   -2.5124233   -1.8211499  0.037878936   -2.5124233   0.69127338  1252891 
 1800000   0.83261425   -2.5119277   -2.5119277   -1.8203259  0.041868523   -2.5119277   0.69160178  1252891 
 1801000   0.83247291   -2.5131602   -2.5131602   -1.8216758  0.045351723   -2.5131602   0.69148438  1252891 
 1802000   0.83068623   -2.5120355   -2.5120355   -1.8220352  0.038873319   -2.5120355    0.6900003  1252891 
 1803000   0.83192187   -2.5129448   -2.5129448   -1.8219182  0.038962417   -2.5129448   0.69102667  1252891 
 1804000   0.83365119   -2.5134706   -2.5134706   -1.8210075  0.042270866   -2.5134706    0.6924631  1252891 
 1805000   0.83186691   -2.5131616   -2.5131616   -1.8221806  0.034512115   -2.5131616   0.69098101  1252891 
 1806000   0.83224817   -2.5136966   -2.5136966   -1.8223989  0.035677939   -2.5136966   0.69129771  1252891 
 1807000   0.83252415   -2.5132789   -2.5132789    -1.821752  0.048038132   -2.5132789   0.69152694  1252891 
 1808000   0.83255067    -2.513785    -2.513785   -1.8222361  0.043919252    -2.513785   0.69154897  1252891 
 1809000   0.83275792   -2.5137889   -2.5137889   -1.8220677  0.051197591   -2.5137889   0.69172112  1252891 
 1810000    0.8330191   -2.5135983   -2.5135983   -1.8216603  0.043552761   -2.5135983   0.69193807  1252891 
 1811000   0.83198665   -2.5129499   -2.5129499   -1.8218695  0.032414034   -2.5129499   0.69108048  1252891 
 1812000   0.83385645   -2.5144536   -2.5144536     -1.82182   0.04298898   -2.5144536    0.6926336  1252891 
 1813000   0.83285152   -2.5140573   -2.5140573   -1.8222584  0.048648685   -2.5140573   0.69179887  1252891 
 1814000   0.83356963   -2.5142304   -2.5142304    -1.821835  0.039125209   -2.5142304   0.69239536  1252891 
 1815000   0.83165677   -2.5127781   -2.5127781   -1.8219717  0.047312898   -2.5127781   0.69080646  1252891 
 1816000   0.83283523   -2.5140034   -2.5140034    -1.822218  0.040730319   -2.5140034   0.69178534  1252891 
 1817000   0.83230209   -2.5132885   -2.5132885    -1.821946  0.037792171   -2.5132885   0.69134249  1252891 
 1818000   0.83277545   -2.5134555   -2.5134555   -1.8217199  0.041276933   -2.5134555   0.69173568  1252891 
 1819000   0.83120963   -2.5126532   -2.5126532   -1.8222181  0.046416349   -2.5126532   0.69043505  1252891 
 1820000   0.83110377   -2.5129518   -2.5129518   -1.8226046  0.039156335   -2.5129518   0.69034712  1252891 
 1821000   0.83264205   -2.5139041   -2.5139041   -1.8222792  0.040653906   -2.5139041   0.69162487  1252891 
 1822000   0.83276916   -2.5141151   -2.5141151   -1.8223846  0.047654589   -2.5141151   0.69173046  1252891 
 1823000   0.83345796   -2.5137053   -2.5137053   -1.8214027  0.038948763   -2.5137053    0.6923026  1252891 
 1824000   0.83363695   -2.5140264   -2.5140264   -1.8215752  0.036387977   -2.5140264   0.69245127  1252891 
 1825000      0.83212   -2.5136533   -2.5136533   -1.8224621  0.044066465   -2.5136533   0.69119124  1252891 
 1826000   0.83285683   -2.5143549   -2.5143549   -1.8225517  0.041359115   -2.5143549   0.69180328  1252891 
 1827000   0.83132127   -2.5129724   -2.5129724   -1.8224446  0.049385529   -2.5129724   0.69052779  1252891 
 1828000   0.83170454   -2.5134272   -2.5134272   -1.8225811  0.039667199   -2.5134272   0.69084614  1252891 
 1829000   0.83262407   -2.5134476   -2.5134476   -1.8218377  0.041079621   -2.5134476   0.69160994  1252891 
 1830000    0.8327265   -2.5137066   -2.5137066   -1.8220116  0.047330648   -2.5137066   0.69169502  1252891 
 1831000   0.83304671   -2.5138789   -2.5138789   -1.8219179  0.038356211   -2.5138789     0.691961  1252891 
 1832000   0.83251853   -2.5129823   -2.5129823     -1.82146  0.048523311   -2.5129823   0.69152228  1252891 
 1833000   0.83120393   -2.5129549   -2.5129549   -1.8225246  0.043756521   -2.5129549   0.69043031  1252891 
 1834000   0.83160796     -2.51353     -2.51353   -1.8227641  0.040103382     -2.51353   0.69076592  1252891 
 1835000   0.83195159   -2.5134523   -2.5134523    -1.822401  0.043409413   -2.5134523   0.69105135  1252891 
 1836000   0.83119353   -2.5132162   -2.5132162   -1.8227945  0.035622522   -2.5132162   0.69042168  1252891 
 1837000   0.83266088   -2.5135657   -2.5135657   -1.8219252  0.039060267   -2.5135657   0.69164051  1252891 
 1838000   0.83259128   -2.5136103   -2.5136103   -1.8220276   0.03336473   -2.5136103   0.69158271  1252891 
 1839000   0.83232557    -2.513498    -2.513498    -1.822136  0.037465752    -2.513498     0.691362  1252891 
 1840000    0.8325797   -2.5136755   -2.5136755   -1.8221024  0.043127678   -2.5136755   0.69157308  1252891 
 1841000   0.83231935   -2.5140483   -2.5140483   -1.8226915  0.036368369   -2.5140483   0.69135683  1252891 
 1842000   0.83256529   -2.5142275   -2.5142275   -1.8226664  0.051747694   -2.5142275   0.69156111  1252891 
 1843000   0.83305007   -2.5138025   -2.5138025   -1.8218388  0.050517263   -2.5138025   0.69196379  1252891 
 1844000   0.83272519   -2.5142521   -2.5142521   -1.8225582  0.047728453   -2.5142521   0.69169393  1252891 
 1845000   0.83155612   -2.5139119   -2.5139119    -1.823189  0.048431131   -2.5139119   0.69072286  1252891 
 1846000   0.83137637   -2.5136416   -2.5136416    -1.823068   0.04040612   -2.5136416   0.69057355  1252891 
 1847000    0.8312633   -2.5134739   -2.5134739   -1.8229942  0.041952265   -2.5134739   0.69047963  1252891 
 1848000   0.83178952    -2.513167    -2.513167   -1.8222503  0.042120221    -2.513167   0.69091673  1252891 
 1849000   0.83185428    -2.513041    -2.513041   -1.8220704  0.042982051    -2.513041   0.69097052  1252891 
 1850000   0.83252197    -2.513647    -2.513647   -1.8221219  0.047492483    -2.513647   0.69152513  1252891 
 1851000   0.83094359   -2.5124597   -2.5124597   -1.8222457  0.041265825   -2.5124597   0.69021407  1252891 
 1852000   0.83039094   -2.5120956   -2.5120956   -1.8223406   0.03772268   -2.5120956   0.68975501  1252891 
 1853000   0.83122257   -2.5129313   -2.5129313   -1.8224854  0.031101686   -2.5129313    0.6904458  1252891 
 1854000   0.83173495   -2.5130361   -2.5130361   -1.8221647  0.039811903   -2.5130361    0.6908714  1252891 
 1855000   0.83078082   -2.5125606   -2.5125606   -1.8224817  0.040546355   -2.5125606   0.69007886  1252891 
 1856000   0.83206564   -2.5132718   -2.5132718   -1.8221257  0.039934083   -2.5132718   0.69114609  1252891 
 1857000   0.83182538    -2.513153    -2.513153   -1.8222065  0.042515588    -2.513153   0.69094652  1252891 
 1858000   0.83199323    -2.513589    -2.513589   -1.8225031  0.034845965    -2.513589   0.69108594  1252891 
 1859000   0.83266677   -2.5136579   -2.5136579   -1.8220125  0.040283712   -2.5136579   0.69164541  1252891 
 1860000   0.83296728   -2.5141089   -2.5141089   -1.8222138  0.034358898   -2.5141089   0.69189502  1252891 
 1861000   0.83334052   -2.5148352   -2.5148352   -1.8226302  0.036985361   -2.5148352   0.69220505  1252891 
 1862000   0.83056227   -2.5125968   -2.5125968   -1.8226995  0.049266614   -2.5125968   0.68989733  1252891 
 1863000   0.83272841   -2.5142512   -2.5142512   -1.8225546  0.050273903   -2.5142512   0.69169661  1252891 
 1864000   0.83138039   -2.5142319   -2.5142319    -1.823655  0.034549826   -2.5142319   0.69057689  1252891 
 1865000   0.83140868   -2.5145385   -2.5145385   -1.8239381  0.032810042   -2.5145385   0.69060039  1252891 
 1866000    0.8328735   -2.5148204   -2.5148204   -1.8230032  0.039036215   -2.5148204   0.69181712  1252891 
 1867000   0.83121575   -2.5140934   -2.5140934   -1.8236533   0.02771555   -2.5140934   0.69044014  1252891 
 1868000   0.83187903    -2.514548    -2.514548   -1.8235569  0.043611626    -2.514548   0.69099108  1252891 
 1869000   0.83271447   -2.5157363   -2.5157363   -1.8240512  0.041605205   -2.5157363   0.69168503  1252891 
 1870000   0.83239958   -2.5149268   -2.5149268   -1.8235033  0.054634921   -2.5149268   0.69142347  1252891 
 1871000   0.83232484   -2.5149618   -2.5149618   -1.8236004  0.038347195   -2.5149618   0.69136139  1252891 
 1872000   0.83298509   -2.5151415   -2.5151415   -1.8232317  0.045027815   -2.5151415   0.69190981  1252891 
 1873000   0.83240427   -2.5147761   -2.5147761   -1.8233487  0.048067945   -2.5147761   0.69142737  1252891 
 1874000   0.83208925   -2.5147432   -2.5147432   -1.8235775  0.039388945   -2.5147432    0.6911657  1252891 
 1875000   0.83206844   -2.5150018   -2.5150018   -1.8238534  0.037304102   -2.5150018   0.69114841  1252891 
 1876000   0.83077065   -2.5146683   -2.5146683   -1.8245979    0.0353037   -2.5146683   0.69007042  1252891 
 1877000   0.83090296   -2.5148795   -2.5148795   -1.8246991  0.041327057   -2.5148795   0.69018032  1252891 
 1878000   0.83157314   -2.5153041   -2.5153041   -1.8245671  0.038584446   -2.5153041     0.690737  1252891 
 1879000   0.83151368     -2.51536     -2.51536   -1.8246724  0.033432257     -2.51536    0.6906876  1252891 
 1880000   0.83130191   -2.5153372   -2.5153372   -1.8248255  0.043883815   -2.5153372    0.6905117  1252891 
 1881000   0.83266231   -2.5148948   -2.5148948    -1.823253  0.046607969   -2.5148948   0.69164171  1252891 
 1882000   0.83170476   -2.5153514   -2.5153514   -1.8245051  0.042165127   -2.5153514   0.69084633  1252891 
 1883000   0.83203631   -2.5163645   -2.5163645   -1.8252428  0.044970888   -2.5163645   0.69112173  1252891 
 1884000   0.83298096   -2.5164959   -2.5164959   -1.8245895  0.045914213   -2.5164959   0.69190639  1252891 
 1885000    0.8333023   -2.5171998   -2.5171998   -1.8250265  0.043064728   -2.5171998    0.6921733  1252891 
 1886000   0.83140497    -2.516272    -2.516272   -1.8256747  0.040245272    -2.516272   0.69059731  1252891 
 1887000   0.83197846   -2.5164805   -2.5164805   -1.8254068  0.046024053   -2.5164805   0.69107367  1252891 
 1888000   0.83149828   -2.5156164   -2.5156164   -1.8249416  0.045278021   -2.5156164   0.69067481  1252891 
 1889000   0.83112299   -2.5165195   -2.5165195   -1.8261564  0.038926297   -2.5165195   0.69036308  1252891 
 1890000   0.83121591   -2.5159163   -2.5159163    -1.825476  0.044245756   -2.5159163   0.69044027  1252891 
 1891000   0.83050376   -2.5152019   -2.5152019   -1.8253532  0.049886861   -2.5152019   0.68984872  1252891 
 1892000   0.83115184   -2.5155782   -2.5155782   -1.8251912  0.040723366   -2.5155782   0.69038705  1252891 
 1893000   0.83066981   -2.5160174   -2.5160174   -1.8260308  0.039166359   -2.5160174   0.68998666  1252891 
 1894000   0.83050275   -2.5156487   -2.5156487   -1.8258008  0.040579809   -2.5156487   0.68984789  1252891 
 1895000   0.83076947   -2.5154487   -2.5154487   -1.8253793  0.033667862   -2.5154487   0.69006944  1252891 
 1896000   0.82957018   -2.5146135   -2.5146135   -1.8255403  0.041525753   -2.5146135   0.68907326  1252891 
 1897000   0.83065364   -2.5154228   -2.5154228   -1.8254495  0.041177715   -2.5154228   0.68997323  1252891 
 1898000   0.83277993   -2.5167971   -2.5167971   -1.8250577  0.039333919   -2.5167971    0.6917394  1252891 
 1899000   0.83178064    -2.515891    -2.515891   -1.8249817  0.040697607    -2.515891   0.69090935  1252891 
 1900000   0.83050542   -2.5159013   -2.5159013   -1.8260512  0.036337594   -2.5159013   0.68985011  1252891 
 1901000   0.83176474    -2.516724    -2.516724   -1.8258279  0.035379842    -2.516724   0.69089615  1252891 
 1902000   0.83128946   -2.5163517   -2.5163517   -1.8258504  0.039096284   -2.5163517   0.69050136  1252891 
 1903000   0.83214547   -2.5164682   -2.5164682   -1.8252558   0.04607532   -2.5164682    0.6912124  1252891 
 1904000   0.83078275   -2.5159835   -2.5159835    -1.825903  0.035568073   -2.5159835   0.69008047  1252891 
 1905000   0.83121308   -2.5159528   -2.5159528   -1.8255149  0.043130468   -2.5159528   0.69043791  1252891 
 1906000   0.83203865   -2.5163309   -2.5163309   -1.8252073   0.04105093   -2.5163309   0.69112367  1252891 
 1907000   0.83242095   -2.5174389   -2.5174389   -1.8259977   0.03447809   -2.5174389   0.69144122  1252891 
 1908000   0.83083868   -2.5153276   -2.5153276   -1.8252006  0.046099073   -2.5153276   0.69012692  1252891 
 1909000   0.83251802   -2.5172784   -2.5172784   -1.8257565  0.036938843   -2.5172784   0.69152185  1252891 
 1910000   0.83243108   -2.5167179   -2.5167179   -1.8252683  0.035430904   -2.5167179   0.69144964  1252891 
 1911000   0.83133952   -2.5162411   -2.5162411   -1.8256982   0.04396231   -2.5162411   0.69054294  1252891 
 1912000   0.83111587    -2.516457    -2.516457   -1.8260998  0.046253734    -2.516457   0.69035717  1252891 
 1913000   0.83178109   -2.5162812   -2.5162812   -1.8253715  0.040363786   -2.5162812   0.69090973  1252891 
 1914000   0.83243978   -2.5173301   -2.5173301   -1.8258733  0.035487671   -2.5173301   0.69145686  1252891 
 1915000   0.83089643   -2.5156442   -2.5156442   -1.8254693  0.035515031   -2.5156442   0.69017489  1252891 
 1916000   0.83157508   -2.5162166   -2.5162166    -1.825478  0.036284792   -2.5162166   0.69073861  1252891 
 1917000   0.83223763   -2.5167344   -2.5167344   -1.8254455  0.048206613   -2.5167344   0.69128895  1252891 
 1918000   0.83105294   -2.5150039   -2.5150039    -1.824699  0.042952697   -2.5150039    0.6903049  1252891 
 1919000   0.83196602   -2.5158797   -2.5158797   -1.8248164  0.038704288   -2.5158797   0.69106334  1252891 
 1920000   0.83067155   -2.5156148   -2.5156148   -1.8256267  0.041182944   -2.5156148    0.6899881  1252891 
 1921000    0.8313988   -2.5155576   -2.5155576   -1.8249654  0.044780288   -2.5155576   0.69059218  1252891 
 1922000   0.83155204   -2.5157039   -2.5157039   -1.8249844  0.039953847   -2.5157039   0.69071947  1252891 
 1923000   0.83114104   -2.5153785   -2.5153785   -1.8250005  0.032587505   -2.5153785   0.69037807  1252891 
 1924000   0.83022164   -2.5152142   -2.5152142   -1.8255998  0.038054829   -2.5152142   0.68961439  1252891 
 1925000   0.83086234   -2.5153588   -2.5153588   -1.8252123  0.027572726   -2.5153588   0.69014658  1252891 
 1926000   0.83012523   -2.5149587   -2.5149587   -1.8254244  0.040031363   -2.5149587   0.68953431  1252891 
 1927000   0.83086466   -2.5154664   -2.5154664   -1.8253178  0.037958898   -2.5154664   0.69014851  1252891 
 1928000   0.83123651   -2.5159529   -2.5159529   -1.8254956   0.04033392   -2.5159529   0.69045738  1252891 
 1929000   0.83143531   -2.5158345   -2.5158345    -1.825212  0.050132124   -2.5158345   0.69062251  1252891 
 1930000   0.83160799   -2.5158738   -2.5158738   -1.8251079  0.044799381   -2.5158738   0.69076594  1252891 
 1931000    0.8317516   -2.5168136   -2.5168136   -1.8259283  0.034794844   -2.5168136   0.69088523  1252891 
 1932000   0.83167546   -2.5165923   -2.5165923   -1.8257703  0.036984501   -2.5165923   0.69082198  1252891 
 1933000   0.83101508   -2.5163971   -2.5163971   -1.8261236  0.042225556   -2.5163971   0.69027345  1252891 
 1934000   0.83116877   -2.5162729   -2.5162729   -1.8258718  0.037093107   -2.5162729   0.69040111  1252891 
 1935000   0.83206545   -2.5170268   -2.5170268   -1.8258809   0.03846237   -2.5170268   0.69114593  1252891 
 1936000   0.83172593   -2.5165508   -2.5165508   -1.8256869  0.037638711   -2.5165508   0.69086391  1252891 
 1937000   0.83180738   -2.5166101   -2.5166101   -1.8256785  0.038980537   -2.5166101   0.69093157  1252891 
 1938000   0.83168311   -2.5167122   -2.5167122   -1.8258838  0.042525941   -2.5167122   0.69082834  1252891 
 1939000     0.831526   -2.5162854   -2.5162854   -1.8255876  0.046742517   -2.5162854   0.69069784  1252891 
 1940000   0.83184694   -2.5158011   -2.5158011   -1.8248367    0.0412774   -2.5158011   0.69096442  1252891 
 1941000   0.83087589   -2.5158744   -2.5158744   -1.8257166  0.035778671   -2.5158744   0.69015783  1252891 
 1942000    0.8298698   -2.5164749   -2.5164749   -1.8271528  0.042797509   -2.5164749   0.68932214  1252891 
 1943000    0.8306816   -2.5164854   -2.5164854   -1.8264889  0.043597338   -2.5164854   0.68999645  1252891 
 1944000   0.83036489   -2.5154122   -2.5154122   -1.8256788  0.043517763   -2.5154122   0.68973337  1252891 
 1945000   0.83095604   -2.5171112   -2.5171112   -1.8268868  0.040775221   -2.5171112   0.69022441  1252891 
 1946000   0.83045017   -2.5167742   -2.5167742     -1.82697  0.040079513   -2.5167742   0.68980421  1252891 
 1947000   0.83082701   -2.5165549   -2.5165549   -1.8264376  0.048567295   -2.5165549   0.69011723  1252891 
 1948000   0.82983018   -2.5159367   -2.5159367   -1.8266474  0.039109686   -2.5159367   0.68928923  1252891 
 1949000   0.83052844   -2.5168486   -2.5168486   -1.8269794  0.040171903   -2.5168486   0.68986922  1252891 
 1950000   0.83069576   -2.5161255   -2.5161255   -1.8261173  0.037175023   -2.5161255   0.69000821  1252891 
 1951000   0.83060783   -2.5159976   -2.5159976   -1.8260624  0.036122057   -2.5159976   0.68993517  1252891 
 1952000   0.83054879   -2.5160429   -2.5160429   -1.8261568  0.043244526   -2.5160429   0.68988613  1252891 
 1953000   0.83047039    -2.515821    -2.515821       -1.826  0.040138505    -2.515821   0.68982101  1252891 
 1954000    0.8318256   -2.5175576   -2.5175576   -1.8266109  0.038757027   -2.5175576    0.6909467  1252891 
 1955000   0.83081845   -2.5161452   -2.5161452   -1.8260351  0.043596038   -2.5161452   0.69011012  1252891 
 1956000   0.83217921   -2.5185848   -2.5185848   -1.8273443  0.034151907   -2.5185848   0.69124042  1252891 
 1957000   0.83122673   -2.5179232   -2.5179232    -1.827474   0.03282453   -2.5179232   0.69044925  1252891 
 1958000    0.8301434   -2.5170448   -2.5170448   -1.8274954  0.032475512   -2.5170448    0.6895494  1252891 
 1959000   0.83281599   -2.5178439   -2.5178439   -1.8260746  0.040473105   -2.5178439   0.69176935  1252891 
 1960000   0.83155595   -2.5179095   -2.5179095   -1.8271868  0.042922775   -2.5179095   0.69072271  1252891 
 1961000   0.83102388    -2.516893    -2.516893   -1.8266123  0.041154093    -2.516893   0.69028076  1252891 
 1962000   0.83090198   -2.5176233   -2.5176233   -1.8274438  0.045143598   -2.5176233    0.6901795  1252891 
 1963000   0.83048636   -2.5177217   -2.5177217   -1.8278874  0.042712826   -2.5177217   0.68983428  1252891 
 1964000   0.83106581   -2.5178483   -2.5178483   -1.8275327  0.032491741   -2.5178483   0.69031559  1252891 
 1965000   0.83135368     -2.51794     -2.51794   -1.8273853   0.03859344     -2.51794    0.6905547  1252891 
 1966000   0.83158153   -2.5179514   -2.5179514   -1.8272075  0.044017532   -2.5179514   0.69074396  1252891 
 1967000   0.83133378    -2.518366    -2.518366   -1.8278278  0.037851156    -2.518366   0.69053817  1252891 
 1968000   0.83082072   -2.5183888   -2.5183888   -1.8282768  0.029096295   -2.5183888   0.69011201  1252891 
 1969000   0.83033433   -2.5181193   -2.5181193   -1.8284113  0.039458005   -2.5181193     0.689708  1252891 
 1970000   0.83043679   -2.5178291   -2.5178291    -1.828036  0.046386302   -2.5178291    0.6897931  1252891 
 1971000   0.83121821   -2.5178638   -2.5178638   -1.8274217  0.042267272   -2.5178638   0.69044218  1252891 
 1972000   0.83079877   -2.5179283   -2.5179283   -1.8278346  0.041378512   -2.5179283   0.69009378  1252891 
 1973000   0.83189692   -2.5178435   -2.5178435   -1.8268375  0.047117672   -2.5178435   0.69100594  1252891 
 1974000   0.83100713    -2.518125    -2.518125   -1.8278581  0.041500963    -2.518125   0.69026684  1252891 
 1975000   0.83051062   -2.5174401   -2.5174401   -1.8275856  0.043503262   -2.5174401   0.68985442  1252891 
 1976000   0.83114038   -2.5180283   -2.5180283   -1.8276508   0.03737055   -2.5180283   0.69037753  1252891 
 1977000   0.83066478   -2.5175137   -2.5175137   -1.8275312  0.035212599   -2.5175137   0.68998247  1252891 
 1978000   0.82888493   -2.5158834   -2.5158834   -1.8273793  0.033260389   -2.5158834   0.68850406  1252891 
 1979000   0.83091839   -2.5175772   -2.5175772   -1.8273841  0.036504255   -2.5175772   0.69019313  1252891 
 1980000    0.8296637   -2.5163599   -2.5163599    -1.827209  0.036675195   -2.5163599   0.68915094  1252891 
 1981000   0.82974488   -2.5171494   -2.5171494    -1.827931  0.040770237   -2.5171494   0.68921837  1252891 
 1982000   0.82986686   -2.5171912   -2.5171912   -1.8278716  0.036591066   -2.5171912   0.68931969  1252891 
 1983000   0.83084161   -2.5172718   -2.5172718   -1.8271424  0.038595449   -2.5172718   0.69012936  1252891 
 1984000   0.83018273   -2.5178378   -2.5178378   -1.8282557  0.038504868   -2.5178378   0.68958207  1252891 
 1985000   0.83053573   -2.5178213   -2.5178213    -1.827946  0.044045701   -2.5178213   0.68987528  1252891 
 1986000    0.8315229   -2.5188467   -2.5188467   -1.8281514   0.04633604   -2.5188467   0.69069526  1252891 
 1987000    0.8310561   -2.5186342   -2.5186342   -1.8283267  0.041098285   -2.5186342   0.69030752  1252891 
 1988000   0.83125256   -2.5185917   -2.5185917    -1.828121  0.037207471   -2.5185917   0.69047071  1252891 
 1989000   0.82997379    -2.517709    -2.517709   -1.8283005  0.034957481    -2.517709   0.68940851  1252891 
 1990000   0.83196987   -2.5184084   -2.5184084   -1.8273419  0.050494375   -2.5184084   0.69106654  1252891 
 1991000    0.8300723   -2.5171568   -2.5171568   -1.8276664  0.041902104   -2.5171568   0.68949034  1252891 
 1992000    0.8310124   -2.5185216   -2.5185216   -1.8282503  0.052198212   -2.5185216   0.69027122  1252891 
 1993000   0.83038927   -2.5181655   -2.5181655   -1.8284119  0.037050873   -2.5181655   0.68975363  1252891 
 1994000   0.83057872   -2.5181284   -2.5181284   -1.8282174  0.042137636   -2.5181284   0.68991099  1252891 
 1995000    0.8299921   -2.5172807   -2.5172807    -1.827857  0.039555359   -2.5172807   0.68942373  1252891 
 1996000   0.83133097   -2.5187623   -2.5187623   -1.8282265  0.039099391   -2.5187623   0.69053584  1252891 
 1997000   0.82974287   -2.5182701   -2.5182701   -1.8290534  0.039238038   -2.5182701    0.6892167  1252891 
 1998000   0.83040636   -2.5182123   -2.5182123   -1.8284445  0.039466387   -2.5182123   0.68976783  1252891 
 1999000   0.83050638    -2.517889    -2.517889   -1.8280381  0.040593793    -2.517889   0.68985091  1252891 
 2000000   0.82972253   -2.5177514   -2.5177514   -1.8285516  0.038404042   -2.5177514   0.68919981  1252891 
 2001000   0.82994748   -2.5183768   -2.5183768   -1.8289901  0.034117723   -2.5183768   0.68938666  1252891 
 2002000   0.83025006   -2.5182083   -2.5182083   -1.8285703  0.032009951   -2.5182083     0.689638  1252891 
 2003000   0.83048429   -2.5182959   -2.5182959   -1.8284634   0.03982501   -2.5182959   0.68983255  1252891 
 2004000   0.83054141    -2.518819    -2.518819    -1.828939  0.041995985    -2.518819      0.68988  1252891 
 2005000   0.83127565   -2.5197806   -2.5197806   -1.8292907  0.032051907   -2.5197806   0.69048989  1252891 
 2006000   0.83033708   -2.5186862   -2.5186862   -1.8289759   0.03826759   -2.5186862   0.68971028  1252891 
 2007000   0.83081501   -2.5190667   -2.5190667   -1.8289595  0.048326157   -2.5190667   0.69010727  1252891 
 2008000   0.83152044    -2.519949    -2.519949   -1.8292557  0.039886214    -2.519949   0.69069322  1252891 
 2009000   0.83161963   -2.5199971   -2.5199971   -1.8292215    0.0413316   -2.5199971   0.69077561  1252891 
 2010000   0.83256819   -2.5205714   -2.5205714   -1.8290079  0.038529285   -2.5205714   0.69156353  1252891 
 2011000   0.83048025   -2.5186189   -2.5186189   -1.8287897  0.051041151   -2.5186189    0.6898292  1252891 
 2012000   0.83124626   -2.5186981   -2.5186981   -1.8282326  0.041927221   -2.5186981   0.69046548  1252891 
 2013000   0.83148862   -2.5189822   -2.5189822   -1.8283154  0.044418777   -2.5189822   0.69066679  1252891 
 2014000   0.82974367   -2.5177129   -2.5177129   -1.8284955  0.044629788   -2.5177129   0.68921737  1252891 
 2015000   0.83046369    -2.518582    -2.518582   -1.8287665  0.030005176    -2.518582   0.68981544  1252891 
 2016000   0.82901126   -2.5177503   -2.5177503   -1.8291413  0.030679185   -2.5177503     0.688609  1252891 
 2017000   0.82974182    -2.517836    -2.517836   -1.8286202  0.038612043    -2.517836   0.68921583  1252891 
 2018000   0.82959817   -2.5175269   -2.5175269   -1.8284304  0.037780347   -2.5175269   0.68909651  1252891 
 2019000   0.82892331   -2.5173379   -2.5173379    -1.828802  0.043842905   -2.5173379   0.68853594  1252891 
 2020000   0.83010908   -2.5177352   -2.5177352   -1.8282143  0.050130934   -2.5177352   0.68952089  1252891 
 2021000    0.8303868   -2.5179404   -2.5179404   -1.8281888   0.04243585   -2.5179404   0.68975158  1252891 
 2022000   0.82948125   -2.5178998   -2.5178998   -1.8289004  0.046505162   -2.5178998   0.68899939  1252891 
 2023000   0.83021663   -2.5185377   -2.5185377   -1.8289275  0.037317432   -2.5185377   0.68961023  1252891 
 2024000   0.83041129   -2.5175784   -2.5175784   -1.8278064  0.041587523   -2.5175784   0.68977192  1252891 
 2025000   0.83112657   -2.5185742   -2.5185742   -1.8282081  0.035195509   -2.5185742   0.69036606  1252891 
 2026000   0.83142336   -2.5193672   -2.5193672   -1.8287546  0.042119436   -2.5193672   0.69061258  1252891 
 2027000   0.83046702   -2.5192252   -2.5192252    -1.829407  0.048257098   -2.5192252   0.68981821  1252891 
 2028000   0.82963472   -2.5188462   -2.5188462   -1.8297193   0.03176664   -2.5188462   0.68912687  1252891 
 2029000   0.82987146    -2.518364    -2.518364   -1.8290405  0.046424978    -2.518364   0.68932352  1252891 
 2030000   0.82948727   -2.5183538   -2.5183538   -1.8293494   0.03828913   -2.5183538   0.68900439  1252891 
 2031000   0.82972643   -2.5184091   -2.5184091   -1.8292061  0.030409074   -2.5184091   0.68920305  1252891 
 2032000   0.83032307   -2.5186242   -2.5186242   -1.8289256  0.038615633   -2.5186242   0.68969864  1252891 
 2033000   0.82970835   -2.5188306   -2.5188306   -1.8296426  0.043187639   -2.5188306   0.68918803  1252891 
 2034000   0.83122647   -2.5189816   -2.5189816   -1.8285326  0.039957988   -2.5189816   0.69044904  1252891 
 2035000   0.82934238   -2.5190358   -2.5190358   -1.8301518  0.042327237   -2.5190358   0.68888404  1252891 
 2036000   0.83194398   -2.5199415   -2.5199415   -1.8288965  0.037323199   -2.5199415   0.69104503  1252891 
 2037000   0.82990604   -2.5195802   -2.5195802    -1.830228  0.045563957   -2.5195802   0.68935224  1252891 
 2038000   0.83024897   -2.5190247   -2.5190247   -1.8293876  0.038107623   -2.5190247   0.68963709  1252891 
 2039000   0.83071848   -2.5202771   -2.5202771     -1.83025  0.050855895   -2.5202771   0.69002708  1252891 
 2040000   0.83185201   -2.5206489   -2.5206489   -1.8296803  0.048963097   -2.5206489   0.69096864  1252891 
 2041000   0.83083118   -2.5199428   -2.5199428   -1.8298221  0.044716023   -2.5199428    0.6901207  1252891 
 2042000   0.83115299    -2.520151    -2.520151    -1.829763  0.042368794    -2.520151     0.690388  1252891 
 2043000   0.82962938   -2.5188818   -2.5188818   -1.8297594  0.048817562   -2.5188818   0.68912244  1252891 
 2044000   0.83003376   -2.5189647   -2.5189647   -1.8295063  0.035422658   -2.5189647   0.68945833  1252891 
 2045000   0.83134942   -2.5200892   -2.5200892   -1.8295381  0.041227501   -2.5200892   0.69055117  1252891 
 2046000   0.82995499   -2.5183685   -2.5183685   -1.8289756  0.042554612   -2.5183685   0.68939289  1252891 
 2047000   0.82977513   -2.5191239   -2.5191239   -1.8298804  0.034494321   -2.5191239    0.6892435  1252891 
 2048000   0.83038678   -2.5185506   -2.5185506    -1.828799  0.039133772   -2.5185506   0.68975156  1252891 
 2049000   0.83025621   -2.5192001   -2.5192001    -1.829557  0.039345491   -2.5192001    0.6896431  1252891 
 2050000   0.82980977   -2.5186943   -2.5186943    -1.829422  0.031405401   -2.5186943   0.68927227  1252891 
 2051000    0.8307672     -2.51902     -2.51902   -1.8289525  0.039078314     -2.51902   0.69006755  1252891 
 2052000    0.8297015   -2.5185577   -2.5185577   -1.8293754   0.04195081   -2.5185577   0.68918234  1252891 
 2053000   0.83098083    -2.519272    -2.519272    -1.829027  0.035616057    -2.519272     0.690245  1252891 
 2054000   0.83047623   -2.5196694   -2.5196694   -1.8298436  0.044689713   -2.5196694   0.68982586  1252891 
 2055000   0.83041925   -2.5200065   -2.5200065    -1.830228  0.036488119   -2.5200065   0.68977853  1252891 
 2056000   0.83006921   -2.5198796   -2.5198796   -1.8303918  0.043278973   -2.5198796   0.68948777  1252891 
 2057000   0.82916975   -2.5195738   -2.5195738   -1.8308331  0.039654965   -2.5195738   0.68874065  1252891 
 2058000   0.83087818   -2.5206349   -2.5206349   -1.8304752  0.035933001   -2.5206349   0.69015973  1252891 
 2059000   0.82955269    -2.518863    -2.518863   -1.8298043  0.044217909    -2.518863   0.68905873  1252891 
 2060000   0.82995249   -2.5198174   -2.5198174   -1.8304265    0.0433465   -2.5198174   0.68939082  1252891 
 2061000   0.82974488   -2.5195048   -2.5195048   -1.8302864  0.041302487   -2.5195048   0.68921837  1252891 
 2062000   0.82868814   -2.5187381   -2.5187381   -1.8303974  0.047796516   -2.5187381   0.68834061  1252891 
 2063000   0.83122914   -2.5201014   -2.5201014   -1.8296502  0.039005107   -2.5201014   0.69045126  1252891 
 2064000   0.82991955   -2.5188714   -2.5188714    -1.829508  0.048408501   -2.5188714   0.68936346  1252891 
 2065000   0.82997862   -2.5193409   -2.5193409   -1.8299283  0.050377767   -2.5193409   0.68941252  1252891 
 2066000   0.83061631   -2.5198338   -2.5198338   -1.8298915  0.046969884   -2.5198338   0.68994222  1252891 
 2067000   0.82993796   -2.5196718   -2.5196718   -1.8302931  0.036248386   -2.5196718   0.68937875  1252891 
 2068000    0.8300121   -2.5191471   -2.5191471   -1.8297068  0.031224413   -2.5191471   0.68944034  1252891 
 2069000   0.82964873   -2.5191116   -2.5191116   -1.8299731  0.044492817   -2.5191116   0.68913851  1252891 
 2070000   0.82905796   -2.5188977   -2.5188977   -1.8302499  0.030766753   -2.5188977   0.68864779  1252891 
 2071000   0.82985534   -2.5186352   -2.5186352   -1.8293251  0.035661713   -2.5186352   0.68931013  1252891 
 2072000   0.82921243   -2.5185004   -2.5185004   -1.8297243  0.037734657   -2.5185004    0.6887761  1252891 
 2073000   0.82918001   -2.5193321   -2.5193321    -1.830583  0.042782812   -2.5193321   0.68874917  1252891 
 2074000   0.82929744   -2.5191593   -2.5191593   -1.8303125  0.037675912   -2.5191593   0.68884671  1252891 
 2075000   0.83033469   -2.5194549   -2.5194549   -1.8297466  0.045627296   -2.5194549   0.68970829  1252891 
 2076000   0.82918351   -2.5188745   -2.5188745   -1.8301224  0.040477865   -2.5188745   0.68875208  1252891 
 2077000   0.83022647   -2.5203795   -2.5203795   -1.8307611  0.044713224   -2.5203795    0.6896184  1252891 
 2078000   0.82949055   -2.5197663   -2.5197663   -1.8307592  0.037909275   -2.5197663   0.68900712  1252891 
 2079000   0.82931083   -2.5201038   -2.5201038    -1.831246  0.037665592   -2.5201038   0.68885783  1252891 
 2080000   0.82955585   -2.5206345   -2.5206345   -1.8315731  0.049259405   -2.5206345   0.68906135  1252891 
 2081000    0.8300161   -2.5210797   -2.5210797    -1.831636  0.044633442   -2.5210797   0.68944366  1252891 
 2082000   0.83048088   -2.5213452   -2.5213452   -1.8315155  0.035704294   -2.5213452   0.68982972  1252891 
 2083000   0.82988517   -2.5210162   -2.5210162   -1.8316813   0.04096285   -2.5210162    0.6893349  1252891 
 2084000   0.82974431   -2.5205308   -2.5205308   -1.8313129   0.04170603   -2.5205308    0.6892179  1252891 
 2085000   0.82971359   -2.5206264   -2.5206264    -1.831434  0.041757521   -2.5206264   0.68919238  1252891 
 2086000   0.82943658   -2.5208242   -2.5208242   -1.8318619  0.038711899   -2.5208242   0.68896229  1252891 
 2087000   0.82868268   -2.5207585   -2.5207585   -1.8324224  0.041269009   -2.5207585   0.68833607  1252891 
 2088000   0.82921912   -2.5202249   -2.5202249   -1.8314432  0.042846737   -2.5202249   0.68878165  1252891 
 2089000   0.82819074   -2.5204164   -2.5204164    -1.832489  0.042789968   -2.5204164   0.68792744  1252891 
 2090000   0.82934009   -2.5205874   -2.5205874   -1.8317053  0.030915338   -2.5205874   0.68888214  1252891 
 2091000   0.82937817   -2.5209866   -2.5209866   -1.8320728  0.040015426   -2.5209866   0.68891377  1252891 
 2092000   0.82888128   -2.5207948   -2.5207948   -1.8322937   0.03717628   -2.5207948   0.68850103  1252891 
 2093000   0.83016672   -2.5222235   -2.5222235   -1.8326547  0.028840602   -2.5222235   0.68956877  1252891 
 2094000   0.82947497   -2.5214685   -2.5214685   -1.8324743  0.041917161   -2.5214685   0.68899417  1252891 
 2095000   0.82934208    -2.521375    -2.521375   -1.8324913   0.04224572    -2.521375   0.68888379  1252891 
 2096000   0.82987125   -2.5217814   -2.5217814   -1.8324581  0.048230497   -2.5217814   0.68932334  1252891 
 2097000   0.82900721   -2.5217928   -2.5217928   -1.8331871  0.040035014   -2.5217928   0.68860564  1252891 
 2098000   0.83014536   -2.5216503   -2.5216503   -1.8320993  0.040862153   -2.5216503   0.68955103  1252891 
 2099000   0.83002901   -2.5217027   -2.5217027   -1.8322483  0.044993986   -2.5217027   0.68945438  1252891 
 2100000   0.83018345   -2.5218999   -2.5218999   -1.8323172   0.03684614   -2.5218999   0.68958267  1252891 
 2101000   0.82919794   -2.5207902   -2.5207902   -1.8320261   0.03717088   -2.5207902   0.68876406  1252891 
 2102000   0.82940068   -2.5214567   -2.5214567   -1.8325242  0.033307068   -2.5214567   0.68893246  1252891 
 2103000   0.83018721   -2.5211723   -2.5211723   -1.8315865   0.04270686   -2.5211723   0.68958579  1252891 
 2104000   0.82912224   -2.5213498   -2.5213498   -1.8326486  0.034969272   -2.5213498   0.68870119  1252891 
 2105000   0.82941814   -2.5207666   -2.5207666   -1.8318196   0.04244629   -2.5207666   0.68894697  1252891 
 2106000     0.830517   -2.5209531   -2.5209531   -1.8310934  0.040865616   -2.5209531   0.68985973  1252891 
 2107000   0.83034234   -2.5211543   -2.5211543   -1.8314396  0.037764721   -2.5211543   0.68971465  1252891 
 2108000   0.82896285   -2.5204328   -2.5204328    -1.831864  0.028793595   -2.5204328   0.68856879  1252891 
 2109000   0.82941198   -2.5202339   -2.5202339   -1.8312921   0.04691893   -2.5202339   0.68894186  1252891 
 2110000   0.82834678   -2.5198576   -2.5198576   -1.8318006  0.030363837   -2.5198576   0.68805705  1252891 
 2111000   0.82837626   -2.5199118   -2.5199118   -1.8318302  0.039380354   -2.5199118   0.68808154  1252891 
 2112000   0.82856942   -2.5203278   -2.5203278   -1.8320858  0.032776123   -2.5203278   0.68824199  1252891 
 2113000   0.82852362   -2.5212047   -2.5212047   -1.8330008  0.041492208   -2.5212047   0.68820395  1252891 
 2114000   0.83003719    -2.521886    -2.521886   -1.8324249  0.033373731    -2.521886   0.68946118  1252891 
 2115000   0.83056553    -2.521844    -2.521844    -1.831944  0.035871177    -2.521844   0.68990004  1252891 
 2116000   0.82977457   -2.5210892   -2.5210892   -1.8318461  0.049073735   -2.5210892   0.68924304  1252891 
 2117000   0.83120531   -2.5223247   -2.5223247   -1.8318933  0.043285024   -2.5223247   0.69043146  1252891 
 2118000    0.8298406   -2.5219235   -2.5219235   -1.8326257  0.037826191   -2.5219235   0.68929788  1252891 
 2119000   0.83081566   -2.5215866   -2.5215866   -1.8314788  0.044127767   -2.5215866    0.6901078  1252891 
 2120000   0.83080317   -2.5220769   -2.5220769   -1.8319794  0.035982886   -2.5220769   0.69009743  1252891 
 2121000   0.83070412   -2.5208998   -2.5208998   -1.8308846  0.044046991   -2.5208998   0.69001516  1252891 
 2122000   0.83081545   -2.5211782   -2.5211782   -1.8310706  0.041581696   -2.5211782   0.69010763  1252891 
 2123000   0.83083359     -2.52117     -2.52117   -1.8310473  0.036651316     -2.52117    0.6901227  1252891 
 2124000    0.8301483   -2.5208211   -2.5208211   -1.8312676   0.02960687   -2.5208211   0.68955347  1252891 
 2125000   0.83008234   -2.5206313   -2.5206313   -1.8311326  0.038228444   -2.5206313   0.68949868  1252891 
 2126000    0.8297058   -2.5210741   -2.5210741   -1.8318882  0.035511368   -2.5210741   0.68918591  1252891 
 2127000   0.82904781   -2.5205163   -2.5205163    -1.831877  0.037453138   -2.5205163   0.68863936  1252891 
 2128000   0.82912913   -2.5208108   -2.5208108   -1.8321039  0.037207428   -2.5208108    0.6887069  1252891 
 2129000   0.82868263   -2.5205984   -2.5205984   -1.8322624  0.035126938   -2.5205984   0.68833603  1252891 
 2130000   0.82994388    -2.521185    -2.521185   -1.8318013  0.037165502    -2.521185   0.68938367  1252891 
 2131000   0.82869292    -2.519917    -2.519917   -1.8315724  0.036718113    -2.519917   0.68834457  1252891 
 2132000   0.83064992   -2.5210327   -2.5210327   -1.8310626  0.030190583   -2.5210327   0.68997013  1252891 
 2133000   0.83017217   -2.5210057   -2.5210057   -1.8314324  0.041717655   -2.5210057    0.6895733  1252891 
 2134000    0.8288648   -2.5202524   -2.5202524    -1.831765  0.051252631   -2.5202524   0.68848735  1252891 
 2135000   0.83031968    -2.521234    -2.521234   -1.8315382  0.051404728    -2.521234   0.68969583  1252891 
 2136000   0.83047138   -2.5216396   -2.5216396   -1.8318177   0.04489952   -2.5216396   0.68982183  1252891 
 2137000   0.82930946   -2.5208962   -2.5208962   -1.8320395  0.038700497   -2.5208962   0.68885669  1252891 
 2138000   0.82856155   -2.5210812   -2.5210812   -1.8328458  0.042886999   -2.5210812   0.68823545  1252891 
 2139000    0.8301534   -2.5220167   -2.5220167    -1.832459  0.043223898   -2.5220167    0.6895577  1252891 
 2140000   0.82851177   -2.5211109   -2.5211109   -1.8329168  0.042563507   -2.5211109   0.68819411  1252891 
 2141000   0.83002885   -2.5213894   -2.5213894   -1.8319352  0.037221391   -2.5213894   0.68945425  1252891 
 2142000   0.83020993   -2.5221153   -2.5221153   -1.8325106  0.027567444   -2.5221153   0.68960467  1252891 
 2143000   0.82824311   -2.5210177   -2.5210177   -1.8330467  0.037244784   -2.5210177   0.68797094  1252891 
 2144000   0.82937048   -2.5214909   -2.5214909   -1.8325835  0.042660052   -2.5214909   0.68890738  1252891 
 2145000   0.82962893   -2.5220739   -2.5220739   -1.8329518  0.032680622   -2.5220739   0.68912206  1252891 
 2146000   0.82844702    -2.521108    -2.521108   -1.8329677  0.031056832    -2.521108   0.68814032  1252891 
 2147000   0.82902644   -2.5218398   -2.5218398   -1.8332182  0.033892887   -2.5218398   0.68862161  1252891 
 2148000   0.82880404   -2.5211498   -2.5211498    -1.832713  0.041434569   -2.5211498   0.68843687  1252891 
 2149000    0.8291064   -2.5223267   -2.5223267   -1.8336386  0.037327047   -2.5223267   0.68868802  1252891 
 2150000   0.83006332   -2.5225785   -2.5225785   -1.8330956  0.042877953   -2.5225785   0.68948289  1252891 
 2151000   0.82936959   -2.5216012   -2.5216012   -1.8326945  0.046881353   -2.5216012   0.68890664  1252891 
 2152000   0.82956507   -2.5218439   -2.5218439   -1.8327749  0.050940015   -2.5218439   0.68906902  1252891 
 2153000    0.8296982   -2.5225103   -2.5225103   -1.8333307  0.048560885   -2.5225103    0.6891796  1252891 
 2154000   0.82957821   -2.5222825   -2.5222825   -1.8332026  0.034529826   -2.5222825   0.68907993  1252891 
 2155000   0.83001975   -2.5222149   -2.5222149   -1.8327682   0.04981159   -2.5222149   0.68944669  1252891 
 2156000   0.82913821   -2.5213068   -2.5213068   -1.8325924  0.040128705   -2.5213068   0.68871445  1252891 
 2157000   0.82896114   -2.5215339   -2.5215339   -1.8329666  0.036138824   -2.5215339   0.68856737  1252891 
 2158000   0.82814787   -2.5209988   -2.5209988    -1.833107  0.038811041   -2.5209988   0.68789183  1252891 
 2159000   0.82745005   -2.5208783   -2.5208783   -1.8335661  0.040867029   -2.5208783    0.6873122  1252891 
 2160000   0.82854482   -2.5213452   -2.5213452   -1.8331237  0.038556436   -2.5213452   0.68822155  1252891 
 2161000   0.82819221   -2.5214111   -2.5214111   -1.8334824  0.050729936   -2.5214111   0.68792867  1252891 
 2162000   0.82859831   -2.5216245   -2.5216245   -1.8333586  0.049059163   -2.5216245   0.68826598  1252891 
 2163000   0.82957697   -2.5224795   -2.5224795   -1.8334006  0.043547886   -2.5224795    0.6890789  1252891 
 2164000   0.82973538   -2.5228093   -2.5228093   -1.8335988  0.039633938   -2.5228093   0.68921048  1252891 
 2165000   0.82885281   -2.5220833   -2.5220833   -1.8336059  0.052601746   -2.5220833   0.68847738  1252891 
 2166000   0.83006357    -2.522088    -2.522088   -1.8326049  0.042037687    -2.522088   0.68948309  1252891 
 2167000   0.82915438    -2.522235    -2.522235   -1.8335072   0.04104607    -2.522235   0.68872788  1252891 
 2168000   0.82901604   -2.5215993   -2.5215993   -1.8329863  0.036939745   -2.5215993   0.68861297  1252891 
 2169000   0.82940872    -2.522144    -2.522144   -1.8332049  0.052205315    -2.522144   0.68893915  1252891 
 2170000   0.82845114   -2.5219947   -2.5219947   -1.8338509  0.036270686   -2.5219947   0.68814374  1252891 
 2171000    0.8288722   -2.5227539   -2.5227539   -1.8342604  0.028344265   -2.5227539   0.68849349  1252891 
 2172000   0.82830754   -2.5214524   -2.5214524    -1.833428  0.034641992   -2.5214524   0.68802446  1252891 
 2173000   0.82833989   -2.5216548   -2.5216548   -1.8336035  0.037344852   -2.5216548   0.68805133  1252891 
 2174000   0.82907002   -2.5220249   -2.5220249   -1.8333671    0.0271142   -2.5220249   0.68865781  1252891 
 2175000   0.82790385   -2.5211617   -2.5211617   -1.8334726  0.040239553   -2.5211617   0.68768915  1252891 
 2176000   0.82850653   -2.5216909   -2.5216909   -1.8335011  0.046710388   -2.5216909   0.68818975  1252891 
 2177000   0.82885707   -2.5223488   -2.5223488   -1.8338679  0.029999454   -2.5223488   0.68848092  1252891 
 2178000   0.82990959   -2.5230045   -2.5230045   -1.8336493  0.037541844   -2.5230045   0.68935519  1252891 
 2179000   0.82891131   -2.5223185   -2.5223185   -1.8337926  0.037493127   -2.5223185   0.68852597  1252891 
 2180000   0.82895265   -2.5225906   -2.5225906   -1.8340303  0.042505542   -2.5225906   0.68856032  1252891 
 2181000   0.82997337   -2.5228147   -2.5228147   -1.8334065  0.041887694   -2.5228147   0.68940817  1252891 
 2182000   0.83006105   -2.5234788   -2.5234788   -1.8339979  0.045675635   -2.5234788   0.68948099  1252891 
 2183000   0.82869388   -2.5227959   -2.5227959   -1.8344506  0.035648796   -2.5227959   0.68834537  1252891 
 2184000   0.82982417    -2.524019    -2.524019   -1.8347347  0.044346352    -2.524019   0.68928424  1252891 
 2185000    0.8288874   -2.5235005   -2.5235005   -1.8349944   0.05040501   -2.5235005   0.68850612  1252891 
 2186000   0.82906265   -2.5230258   -2.5230258   -1.8343741  0.044181038   -2.5230258   0.68865168  1252891 
 2187000   0.82877685    -2.523294    -2.523294   -1.8348797  0.041592255    -2.523294   0.68841429  1252891 
 2188000   0.82742445   -2.5225908   -2.5225908   -1.8352999  0.034918468   -2.5225908   0.68729093  1252891 
 2189000   0.82846939   -2.5232258   -2.5232258   -1.8350669  0.049383636   -2.5232258    0.6881589  1252891 
 2190000   0.82930014   -2.5233266   -2.5233266   -1.8344777  0.039860595   -2.5233266   0.68884895  1252891 
 2191000    0.8285974   -2.5227908   -2.5227908   -1.8345255  0.046135682   -2.5227908   0.68826523  1252891 
 2192000   0.82788582   -2.5220827   -2.5220827   -1.8344086  0.027767773   -2.5220827   0.68767417  1252891 
 2193000   0.82757263   -2.5218203   -2.5218203   -1.8344063  0.045350863   -2.5218203   0.68741402  1252891 
 2194000   0.82871034   -2.5222463   -2.5222463   -1.8338872  0.030974447   -2.5222463   0.68835905  1252891 
 2195000   0.82837666   -2.5225335   -2.5225335   -1.8344516   0.04785851   -2.5225335   0.68808188  1252891 
 2196000    0.8296892    -2.522871    -2.522871   -1.8336988  0.042615793    -2.522871   0.68917212  1252891 
 2197000   0.82851876   -2.5228346   -2.5228346   -1.8346347  0.043615212   -2.5228346   0.68819991  1252891 
 2198000   0.82880588   -2.5234596   -2.5234596   -1.8350212  0.039406523   -2.5234596   0.68843841  1252891 
 2199000   0.82993212    -2.523961    -2.523961   -1.8345871   0.05033614    -2.523961    0.6893739  1252891 
 2200000   0.82902348   -2.5230395   -2.5230395   -1.8344203  0.040796541   -2.5230395   0.68861915  1252891 
 2201000   0.82980464   -2.5235177   -2.5235177   -1.8342497  0.044847478   -2.5235177   0.68926801  1252891 
 2202000   0.82952193   -2.5240466   -2.5240466   -1.8350134  0.047681422   -2.5240466   0.68903318  1252891 
 2203000   0.82889031   -2.5238066   -2.5238066   -1.8352981   0.03897929   -2.5238066   0.68850854  1252891 
 2204000   0.82899809    -2.523955    -2.523955   -1.8353569  0.041630443    -2.523955   0.68859806  1252891 
 2205000   0.82806522   -2.5224183   -2.5224183   -1.8345951  0.050743233   -2.5224183   0.68782318  1252891 
 2206000   0.82928425   -2.5234692   -2.5234692   -1.8346335  0.047188906   -2.5234692   0.68883575  1252891 
 2207000   0.82892346   -2.5232633   -2.5232633   -1.8347273  0.037513865   -2.5232633   0.68853607  1252891 
 2208000   0.82827681   -2.5229318   -2.5229318   -1.8349329  0.038635613   -2.5229318   0.68799893  1252891 
 2209000   0.82799152   -2.5232362   -2.5232362   -1.8354742  0.033655812   -2.5232362   0.68776196  1252891 
 2210000   0.82868437   -2.5235783   -2.5235783   -1.8352408  0.040642115   -2.5235783   0.68833748  1252891 
 2211000   0.82938794   -2.5240065   -2.5240065   -1.8350846  0.039413735   -2.5240065   0.68892188  1252891 
 2212000   0.82939723    -2.524444    -2.524444   -1.8355144  0.040970235    -2.524444    0.6889296  1252891 
 2213000    0.8287353   -2.5232033   -2.5232033   -1.8348235  0.046557055   -2.5232033   0.68837978  1252891 
 2214000   0.82752202   -2.5231621   -2.5231621   -1.8357901  0.043393662   -2.5231621   0.68737198  1252891 
 2215000   0.82835789   -2.5231122   -2.5231122   -1.8350459  0.041520779   -2.5231122   0.68806628  1252891 
 2216000    0.8301413   -2.5240832   -2.5240832   -1.8345356  0.034196608   -2.5240832   0.68954765  1252891 
 2217000   0.82969561   -2.5245141   -2.5245141   -1.8353367  0.033961629   -2.5245141   0.68917745  1252891 
 2218000   0.82932332   -2.5244307   -2.5244307   -1.8355625  0.040689212   -2.5244307   0.68886821  1252891 
 2219000   0.82967178   -2.5243488   -2.5243488   -1.8351912  0.033262085   -2.5243488   0.68915766  1252891 
 2220000   0.82976511   -2.5240945   -2.5240945   -1.8348593  0.053142549   -2.5240945   0.68923517  1252891 
 2221000    0.8291687   -2.5236458   -2.5236458    -1.834906  0.045922422   -2.5236458   0.68873977  1252891 
 2222000   0.82969847    -2.523167    -2.523167   -1.8339872  0.043478315    -2.523167   0.68917982  1252891 
 2223000   0.82904132   -2.5239932   -2.5239932   -1.8353592   0.04751743   -2.5239932   0.68863397  1252891 
 2224000   0.82861773   -2.5232815   -2.5232815   -1.8349994  0.054277249   -2.5232815   0.68828212  1252891 
 2225000   0.82921833   -2.5242064   -2.5242064   -1.8354254  0.039079154   -2.5242064     0.688781  1252891 
 2226000   0.82761558   -2.5236706   -2.5236706   -1.8362209  0.039842129   -2.5236706   0.68744969  1252891 
 2227000   0.82803367   -2.5233018   -2.5233018   -1.8355048  0.045196909   -2.5233018   0.68779698  1252891 
 2228000   0.82824757   -2.5236461   -2.5236461   -1.8356714  0.041555527   -2.5236461   0.68797465  1252891 
 2229000    0.8285375   -2.5242388   -2.5242388   -1.8360233  0.044896493   -2.5242388   0.68821548  1252891 
 2230000   0.82810393   -2.5242934   -2.5242934   -1.8364381  0.032300852   -2.5242934   0.68785534  1252891 
 2231000   0.82796819     -2.52433     -2.52433   -1.8365874  0.032853575     -2.52433   0.68774258  1252891 
 2232000   0.82754631   -2.5238045   -2.5238045   -1.8364123  0.043143256   -2.5238045   0.68739215  1252891 
 2233000   0.82818316   -2.5241312   -2.5241312   -1.8362101  0.036041997   -2.5241312   0.68792115  1252891 
 2234000   0.82872505   -2.5236608   -2.5236608   -1.8352895  0.035105395   -2.5236608   0.68837126  1252891 
 2235000   0.82830801   -2.5245148   -2.5245148     -1.83649  0.038189165   -2.5245148   0.68802486  1252891 
 2236000    0.8277534   -2.5239678   -2.5239678   -1.8364037  0.043352684   -2.5239678   0.68756417  1252891 
 2237000   0.82842515   -2.5250401   -2.5250401   -1.8369179  0.049334118   -2.5250401   0.68812215  1252891 
 2238000   0.82878531   -2.5248509   -2.5248509   -1.8364296  0.049118753   -2.5248509   0.68842132  1252891 
 2239000   0.82946028   -2.5256409   -2.5256409   -1.8366589  0.045535309   -2.5256409   0.68898197  1252891 
 2240000   0.82888204   -2.5251143   -2.5251143   -1.8366126  0.051754844   -2.5251143   0.68850167  1252891 
 2241000   0.82892447   -2.5251898   -2.5251898   -1.8366529  0.043705119   -2.5251898   0.68853691  1252891 
 2242000   0.82729743   -2.5250868   -2.5250868   -1.8379014  0.034309839   -2.5250868   0.68718542  1252891 
 2243000   0.82919692   -2.5262128   -2.5262128   -1.8374495  0.045080822   -2.5262128   0.68876322  1252891 
 2244000   0.82805419   -2.5252615   -2.5252615   -1.8374475  0.044154096   -2.5252615   0.68781402  1252891 
 2245000   0.82978692   -2.5262373   -2.5262373    -1.836984  0.034847261   -2.5262373    0.6892533  1252891 
 2246000   0.82766404   -2.5244009   -2.5244009    -1.836911  0.036222175   -2.5244009   0.68748995  1252891 
 2247000   0.82877606   -2.5245749   -2.5245749   -1.8361612  0.033830693   -2.5245749   0.68841363  1252891 
 2248000   0.82789005   -2.5244738   -2.5244738   -1.8367961  0.035319542   -2.5244738   0.68767768  1252891 
 2249000   0.82949304   -2.5251885   -2.5251885   -1.8361793  0.034918841   -2.5251885   0.68900919  1252891 
 2250000    0.8273372   -2.5244496   -2.5244496   -1.8372311  0.036548498   -2.5244496   0.68721846  1252891 
 2251000    0.8287124   -2.5249797   -2.5249797   -1.8366189  0.037763027   -2.5249797   0.68836076  1252891 
 2252000   0.82771428   -2.5237713   -2.5237713   -1.8362397  0.037696419   -2.5237713   0.68753168  1252891 
 2253000   0.82786886   -2.5245067   -2.5245067   -1.8368466  0.032350076   -2.5245067   0.68766008  1252891 
 2254000   0.82723119   -2.5241441   -2.5241441   -1.8370137   0.03203377   -2.5241441    0.6871304  1252891 
 2255000   0.82738795   -2.5245152   -2.5245152   -1.8372546  0.033767114   -2.5245152   0.68726061  1252891 
 2256000   0.82733273   -2.5237737   -2.5237737    -1.836559   0.04215404   -2.5237737   0.68721475  1252891 
 2257000   0.82736913   -2.5236054   -2.5236054   -1.8363604  0.038475361   -2.5236054   0.68724498  1252891 
 2258000   0.82887001   -2.5251497   -2.5251497    -1.836658  0.039587138   -2.5251497   0.68849167  1252891 
 2259000   0.82862314   -2.5246028   -2.5246028   -1.8363162  0.045856634   -2.5246028   0.68828661  1252891 
 2260000   0.82866535   -2.5246019   -2.5246019   -1.8362802  0.036602341   -2.5246019   0.68832168  1252891 
 2261000   0.82700097   -2.5233192   -2.5233192     -1.83638  0.045924678   -2.5233192   0.68693918  1252891 
 2262000   0.82829845   -2.5247695   -2.5247695   -1.8367526  0.045179787   -2.5247695   0.68801691  1252891 
 2263000   0.82750985    -2.524421    -2.524421   -1.8370592    0.0372577    -2.524421   0.68736187  1252891 
 2264000   0.82777585   -2.5240152   -2.5240152   -1.8364324  0.038320936   -2.5240152   0.68758282  1252891 
 2265000     0.827008   -2.5235475   -2.5235475   -1.8366025  0.041776487   -2.5235475   0.68694502  1252891 
 2266000   0.82884534   -2.5248593   -2.5248593   -1.8363881  0.038093686   -2.5248593   0.68847118  1252891 
 2267000   0.82841744   -2.5247505   -2.5247505   -1.8366347  0.037106943   -2.5247505   0.68811575  1252891 
 2268000   0.82713363   -2.5237914   -2.5237914    -1.836742  0.039769269   -2.5237914   0.68704937  1252891 
 2269000   0.82800848   -2.5247879   -2.5247879   -1.8370119  0.038684543   -2.5247879   0.68777605  1252891 
 2270000    0.8269419   -2.5244138   -2.5244138   -1.8375237  0.040836753   -2.5244138   0.68689011  1252891 
 2271000   0.82733824   -2.5242624   -2.5242624   -1.8370431  0.032511953   -2.5242624   0.68721933  1252891 
 2272000   0.82720162   -2.5237813   -2.5237813   -1.8366754   0.04931289   -2.5237813   0.68710585  1252891 
 2273000   0.82939406    -2.525968    -2.525968    -1.837041  0.035549622    -2.525968   0.68892697  1252891 
 2274000   0.82749844   -2.5245187   -2.5245187   -1.8371664  0.048020267   -2.5245187   0.68735239  1252891 
 2275000   0.82932889   -2.5244507   -2.5244507   -1.8355779   0.04760322   -2.5244507   0.68887283  1252891 
 2276000   0.82746819   -2.5242599   -2.5242599   -1.8369327  0.034519833   -2.5242599   0.68732727  1252891 
 2277000   0.82834773   -2.5245129   -2.5245129   -1.8364551  0.040321204   -2.5245129   0.68805785  1252891 
 2278000   0.82843636   -2.5243407   -2.5243407   -1.8362093  0.036854853   -2.5243407   0.68813146  1252891 
 2279000   0.82833541   -2.5245574   -2.5245574   -1.8365098  0.026831525   -2.5245574   0.68804761  1252891 
 2280000   0.82758279   -2.5243272   -2.5243272   -1.8369047  0.035198029   -2.5243272   0.68742246  1252891 
 2281000    0.8268309   -2.5233827   -2.5233827   -1.8365848  0.042451772   -2.5233827   0.68679791  1252891 
 2282000   0.82758117   -2.5243351   -2.5243351   -1.8369139  0.039600438   -2.5243351   0.68742111  1252891 
 2283000   0.82759089   -2.5232972   -2.5232972    -1.835868  0.032048426   -2.5232972   0.68742918  1252891 
 2284000     0.829268   -2.5252487   -2.5252487   -1.8364265  0.023329121   -2.5252487   0.68882226  1252891 
 2285000   0.82847522   -2.5244855   -2.5244855   -1.8363217  0.037242128   -2.5244855   0.68816374  1252891 
 2286000   0.82718129   -2.5242372   -2.5242372   -1.8371483  0.041567706   -2.5242372   0.68708895  1252891 
 2287000   0.82854855   -2.5253254   -2.5253254   -1.8371007  0.037386217   -2.5253254   0.68822466  1252891 
 2288000   0.82826889   -2.5244266   -2.5244266   -1.8364343  0.047308374   -2.5244266   0.68799236  1252891 
 2289000   0.82717033   -2.5244928   -2.5244928    -1.837413  0.038024335   -2.5244928   0.68707985  1252891 
 2290000   0.82941055   -2.5260005   -2.5260005   -1.8370599  0.040812858   -2.5260005   0.68894067  1252891 
 2291000   0.82777377   -2.5253611   -2.5253611     -1.83778  0.051870036   -2.5253611   0.68758109  1252891 
 2292000    0.8275608   -2.5248273   -2.5248273   -1.8374231  0.045300831   -2.5248273   0.68740419  1252891 
 2293000   0.82808271   -2.5242175   -2.5242175   -1.8363798  0.036841078   -2.5242175   0.68783771  1252891 
 2294000   0.82855436   -2.5251744   -2.5251744   -1.8369449  0.041658114   -2.5251744   0.68822948  1252891 
 2295000   0.82762774   -2.5253097   -2.5253097   -1.8378499   0.04150435   -2.5253097   0.68745979  1252891 
 2296000   0.82864728    -2.525664    -2.525664   -1.8373573  0.036448274    -2.525664   0.68830666  1252891 
 2297000   0.82678429   -2.5245766   -2.5245766   -1.8378174  0.040497068   -2.5245766   0.68675919  1252891 
 2298000   0.82765364   -2.5247671   -2.5247671   -1.8372857  0.040647931   -2.5247671   0.68748131  1252891 
 2299000   0.82717426   -2.5239732   -2.5239732   -1.8368901  0.039690203   -2.5239732   0.68708311  1252891 
 2300000   0.82769023   -2.5244977   -2.5244977    -1.836986  0.043869164   -2.5244977    0.6875117  1252891 
 2301000   0.82798036   -2.5252367   -2.5252367    -1.837484  0.037139382   -2.5252367   0.68775269  1252891 
 2302000   0.82785971   -2.5255511   -2.5255511   -1.8378986  0.037467095   -2.5255511   0.68765248  1252891 
 2303000   0.82752811   -2.5256537   -2.5256537   -1.8382767  0.028498659   -2.5256537   0.68737704  1252891 
 2304000   0.82768153   -2.5252808   -2.5252808   -1.8377763  0.036755354   -2.5252808   0.68750447  1252891 
 2305000    0.8267128   -2.5249483   -2.5249483   -1.8382485  0.033892745   -2.5249483   0.68669981  1252891 
 2306000   0.82714109   -2.5246148   -2.5246148   -1.8375592  0.041822838   -2.5246148   0.68705557  1252891 
 2307000   0.82737309    -2.525901    -2.525901   -1.8386527  0.031665396    -2.525901   0.68724827  1252891 
 2308000    0.8274635   -2.5257344   -2.5257344    -1.838411    0.0374151   -2.5257344   0.68732337  1252891 
 2309000   0.82717728   -2.5262351   -2.5262351   -1.8391495  0.040865424   -2.5262351   0.68708562  1252891 
 2310000   0.82790468   -2.5262143   -2.5262143   -1.8385245  0.048336044   -2.5262143   0.68768983  1252891 
 2311000    0.8277575   -2.5259131   -2.5259131   -1.8383455  0.039352377   -2.5259131   0.68756757  1252891 
 2312000   0.82758451   -2.5260985   -2.5260985   -1.8386746  0.039242358   -2.5260985   0.68742389  1252891 
 2313000   0.82815191   -2.5259629   -2.5259629   -1.8380677    0.0448188   -2.5259629   0.68789519  1252891 
 2314000   0.82796421    -2.525689    -2.525689   -1.8379497  0.039645711    -2.525689   0.68773928  1252891 
 2315000   0.82748142   -2.5262158   -2.5262158   -1.8388776  0.031222579   -2.5262158   0.68733826  1252891 
 2316000   0.82677204   -2.5254962   -2.5254962   -1.8387472   0.03156932   -2.5254962   0.68674902  1252891 
 2317000   0.82866984    -2.526413    -2.526413   -1.8380876  0.028602088    -2.526413    0.6883254  1252891 
 2318000   0.82747233     -2.52596     -2.52596   -1.8386293  0.041922632     -2.52596   0.68733071  1252891 
 2319000   0.82727098   -2.5264343   -2.5264343   -1.8392708  0.036681931   -2.5264343   0.68716346  1252891 
 2320000   0.82630258   -2.5247419   -2.5247419   -1.8383828  0.037321281   -2.5247419   0.68635907  1252891 
 2321000   0.82839555   -2.5270818   -2.5270818   -1.8389843  0.023118964   -2.5270818   0.68809757  1252891 
 2322000   0.82746164   -2.5253889   -2.5253889   -1.8380671   0.04146153   -2.5253889   0.68732183  1252891 
 2323000   0.82716448   -2.5256079   -2.5256079   -1.8385329  0.045813431   -2.5256079   0.68707499  1252891 
 2324000   0.82685293   -2.5256065   -2.5256065   -1.8387903  0.038494933   -2.5256065   0.68681621  1252891 
 2325000   0.82963464   -2.5278348   -2.5278348    -1.838708  0.035070883   -2.5278348    0.6891268  1252891 
 2326000   0.82866297   -2.5260999   -2.5260999   -1.8377802  0.039980864   -2.5260999    0.6883197  1252891 
 2327000   0.82820696   -2.5269306   -2.5269306   -1.8389897  0.042039037   -2.5269306   0.68794092  1252891 
 2328000   0.82779954   -2.5266115   -2.5266115   -1.8390091  0.038610293   -2.5266115    0.6876025  1252891 
 2329000   0.82876239    -2.526886    -2.526886   -1.8384837  0.043263098    -2.526886   0.68840228  1252891 
 2330000   0.82808521   -2.5257123   -2.5257123   -1.8378725  0.039876156   -2.5257123   0.68783979  1252891 
 2331000   0.82836535   -2.5261146   -2.5261146   -1.8380421  0.046092732   -2.5261146   0.68807249  1252891 
 2332000   0.82825025   -2.5260185   -2.5260185   -1.8380416  0.036775894   -2.5260185   0.68797687  1252891 
 2333000   0.82808428   -2.5266972   -2.5266972   -1.8388582  0.036607362   -2.5266972   0.68783901  1252891 
 2334000   0.82761246    -2.526181    -2.526181   -1.8387339  0.036334871    -2.526181    0.6874471  1252891 
 2335000   0.82686235   -2.5264435   -2.5264435   -1.8396195  0.033274978   -2.5264435   0.68682404  1252891 
 2336000   0.82833032   -2.5272531   -2.5272531   -1.8392097  0.036249326   -2.5272531   0.68804339  1252891 
 2337000   0.82697237    -2.526418    -2.526418   -1.8395025  0.030346659    -2.526418   0.68691542  1252891 
 2338000     0.825859   -2.5262048   -2.5262048   -1.8402142  0.031737132   -2.5262048   0.68599061  1252891 
 2339000   0.82658155   -2.5263124   -2.5263124   -1.8397216   0.03005769   -2.5263124   0.68659079  1252891 
 2340000   0.82755864   -2.5262467   -2.5262467   -1.8388443  0.039655397   -2.5262467    0.6874024  1252891 
 2341000   0.82668491   -2.5265284   -2.5265284   -1.8398517  0.043559163   -2.5265284   0.68667664  1252891 
 2342000   0.82703675   -2.5263136   -2.5263136   -1.8393447  0.041328702   -2.5263136   0.68696889  1252891 
 2343000   0.82872535   -2.5275436   -2.5275436   -1.8391721  0.037608287   -2.5275436   0.68837151  1252891 
 2344000    0.8276627   -2.5260401   -2.5260401   -1.8385512  0.040158217   -2.5260401   0.68748883  1252891 
 2345000   0.82732915   -2.5259633   -2.5259633   -1.8387515  0.041373917   -2.5259633   0.68721177  1252891 
 2346000   0.82671818   -2.5259829   -2.5259829   -1.8392786  0.047769295   -2.5259829   0.68670428  1252891 
 2347000    0.8273468   -2.5261104   -2.5261104   -1.8388839  0.046639752   -2.5261104   0.68722644  1252891 
 2348000   0.82842705   -2.5273991   -2.5273991   -1.8392754  0.035554777   -2.5273991   0.68812374  1252891 
 2349000   0.82811788   -2.5268194   -2.5268194   -1.8389525    0.0460935   -2.5268194   0.68786693  1252891 
 2350000   0.82758966   -2.5265181   -2.5265181     -1.83909  0.033374395   -2.5265181   0.68742816  1252891 
 2351000   0.82845585   -2.5272828   -2.5272828   -1.8391352  0.038311417   -2.5272828   0.68814765  1252891 
 2352000   0.82772176   -2.5266962   -2.5266962   -1.8391583  0.036035515   -2.5266962   0.68753789  1252891 
 2353000    0.8267307   -2.5260769   -2.5260769   -1.8393622  0.037188179   -2.5260769   0.68671468  1252891 
 2354000    0.8287392    -2.526943    -2.526943     -1.83856  0.038893281    -2.526943   0.68838302  1252891 
 2355000    0.8275182   -2.5262454   -2.5262454   -1.8388766   0.03866088   -2.5262454    0.6873688  1252891 
 2356000   0.82719216   -2.5263463   -2.5263463   -1.8392483  0.030310591   -2.5263463   0.68709798  1252891 
 2357000    0.8277665   -2.5272277   -2.5272277   -1.8396526  0.040851633   -2.5272277   0.68757505  1252891 
 2358000   0.82739594   -2.5261268   -2.5261268   -1.8388595  0.048741604   -2.5261268   0.68726725  1252891 
 2359000   0.82706488   -2.5258529   -2.5258529   -1.8388607  0.040645004   -2.5258529   0.68699226  1252891 
 2360000    0.8275619   -2.5262478   -2.5262478   -1.8388427  0.038110347   -2.5262478   0.68740511  1252891 
 2361000   0.82881484   -2.5271706   -2.5271706   -1.8387247  0.042054759   -2.5271706   0.68844584  1252891 
 2362000   0.82659089   -2.5261898   -2.5261898   -1.8395913  0.046023017   -2.5261898   0.68659854  1252891 
 2363000   0.82765428   -2.5272206   -2.5272206   -1.8397387   0.03658875   -2.5272206   0.68748184  1252891 
 2364000   0.82799055   -2.5267696   -2.5267696   -1.8390085  0.033360879   -2.5267696   0.68776116  1252891 
 2365000   0.82699593   -2.5260643   -2.5260643   -1.8391293  0.047840433   -2.5260643   0.68693499  1252891 
 2366000   0.82700367   -2.5266396   -2.5266396   -1.8396982  0.039306346   -2.5266396   0.68694142  1252891 
 2367000   0.82736093   -2.5265025   -2.5265025   -1.8392644  0.042627106   -2.5265025   0.68723817  1252891 
 2368000   0.82771722   -2.5268041   -2.5268041   -1.8392699  0.043818384   -2.5268041   0.68753412  1252891 
 2369000   0.82739462   -2.5277034   -2.5277034   -1.8404372  0.041820732   -2.5277034   0.68726616  1252891 
 2370000   0.82713045    -2.526292    -2.526292   -1.8392453  0.041008378    -2.526292   0.68704673  1252891 
 2371000   0.82701918   -2.5260096   -2.5260096   -1.8390553  0.055184176   -2.5260096    0.6869543  1252891 
 2372000   0.82755196   -2.5265381   -2.5265381   -1.8391413  0.042043479   -2.5265381   0.68739685  1252891 
 2373000   0.82702428    -2.526446    -2.526446   -1.8394874  0.034145251    -2.526446   0.68695854  1252891 
 2374000   0.82687854   -2.5267355   -2.5267355    -1.839898  0.033886469   -2.5267355   0.68683748  1252891 
 2375000   0.82580019   -2.5257503   -2.5257503   -1.8398086   0.03760907   -2.5257503   0.68594176  1252891 
 2376000   0.82623459   -2.5262463   -2.5262463   -1.8399437  0.032261093   -2.5262463   0.68630259  1252891 
 2377000   0.82641107   -2.5268787   -2.5268787   -1.8404295   0.03164388   -2.5268787   0.68644918  1252891 
 2378000   0.82626009   -2.5266153   -2.5266153   -1.8402916  0.032238779   -2.5266153   0.68632377  1252891 
 2379000   0.82715781   -2.5277144   -2.5277144    -1.840645  0.035072541   -2.5277144   0.68706945  1252891 
 2380000   0.82796706   -2.5278557   -2.5278557   -1.8401141   0.03049501   -2.5278557   0.68774165  1252891 
 2381000   0.82778482   -2.5274887   -2.5274887   -1.8398984  0.044840235   -2.5274887   0.68759027  1252891 
 2382000   0.82779784   -2.5275414   -2.5275414   -1.8399403  0.045501088   -2.5275414   0.68760108  1252891 
 2383000   0.82719632     -2.52734     -2.52734   -1.8402385   0.05117116     -2.52734   0.68710144  1252891 
 2384000   0.82971939   -2.5297795   -2.5297795   -1.8405823  0.038340019   -2.5297795    0.6891972  1252891 
 2385000   0.82837847   -2.5281707   -2.5281707   -1.8400873  0.038033128   -2.5281707   0.68808338  1252891 
 2386000   0.82944389   -2.5289521   -2.5289521   -1.8399837  0.030645809   -2.5289521   0.68896836  1252891 
 2387000   0.82834247   -2.5283596   -2.5283596   -1.8403062  0.045004603   -2.5283596   0.68805347  1252891 
 2388000   0.82704219   -2.5273417   -2.5273417   -1.8403683  0.041746538   -2.5273417   0.68697341  1252891 
 2389000    0.8281196   -2.5284929   -2.5284929   -1.8406245  0.035092837   -2.5284929   0.68786835  1252891 
 2390000   0.82784924   -2.5282811   -2.5282811   -1.8406373  0.032555906   -2.5282811   0.68764378  1252891 
 2391000   0.82541076   -2.5265354   -2.5265354   -1.8409171  0.038820561   -2.5265354   0.68561828  1252891 
 2392000   0.82719519   -2.5274766   -2.5274766   -1.8403761  0.039555686   -2.5274766    0.6871005  1252891 
 2393000   0.82626256   -2.5273891   -2.5273891   -1.8410633  0.037820901   -2.5273891   0.68632582  1252891 
 2394000   0.82742112   -2.5280494   -2.5280494   -1.8407612  0.032135802   -2.5280494   0.68728817  1252891 
 2395000   0.82713745   -2.5269971   -2.5269971   -1.8399446  0.032572673   -2.5269971   0.68705254  1252891 
 2396000   0.82723177   -2.5265829   -2.5265829    -1.839452  0.039540984   -2.5265829   0.68713089  1252891 
 2397000      0.82788   -2.5278971   -2.5278971   -1.8402278  0.031599135   -2.5278971   0.68766933  1252891 
 2398000    0.8267595   -2.5267997   -2.5267997   -1.8400611  0.047606212   -2.5267997    0.6867386  1252891 
 2399000   0.82720627   -2.5272559   -2.5272559   -1.8401462  0.045807956   -2.5272559   0.68710971  1252891 
 2400000    0.8269885   -2.5282797   -2.5282797   -1.8413509  0.042524306   -2.5282797   0.68692882  1252891 
 2401000    0.8270697    -2.528107    -2.528107   -1.8411107   0.04852824    -2.528107   0.68699627  1252891 
 2402000   0.82854877   -2.5280308   -2.5280308   -1.8398059   0.04544184   -2.5280308   0.68822483  1252891 
 2403000   0.82875128   -2.5287597   -2.5287597   -1.8403667  0.033672919   -2.5287597   0.68839305  1252891 
 2404000   0.82716889   -2.5273088   -2.5273088   -1.8402302  0.042240024   -2.5273088   0.68707865  1252891 
 2405000   0.82805987   -2.5280723   -2.5280723   -1.8402536  0.039330382   -2.5280723   0.68781873  1252891 
 2406000   0.82677887    -2.526891    -2.526891   -1.8401364  0.039555668    -2.526891   0.68675469  1252891 
 2407000   0.82707319   -2.5268601   -2.5268601   -1.8398609  0.037427943   -2.5268601   0.68699916  1252891 
 2408000   0.82618697   -2.5265886   -2.5265886   -1.8403255  0.034787574   -2.5265886   0.68626304  1252891 
 2409000   0.82709941   -2.5268544   -2.5268544   -1.8398334  0.041632984   -2.5268544   0.68702095  1252891 
 2410000   0.82650245   -2.5270607   -2.5270607   -1.8405356  0.036662992   -2.5270607   0.68652509  1252891 
 2411000   0.82743921   -2.5275879   -2.5275879   -1.8402847  0.035067973   -2.5275879    0.6873032  1252891 
 2412000   0.82706048   -2.5274738   -2.5274738   -1.8404852  0.036313104   -2.5274738    0.6869886  1252891 
 2413000   0.82748884    -2.527465    -2.527465   -1.8401206  0.044727939    -2.527465   0.68734442  1252891 
 2414000   0.82769418    -2.527259    -2.527259    -1.839744  0.037282308    -2.527259   0.68751498  1252891 
 2415000   0.82801725   -2.5278036   -2.5278036   -1.8400203  0.032691845   -2.5278036   0.68778333  1252891 
 2416000   0.82835374   -2.5277724   -2.5277724   -1.8397096  0.042633647   -2.5277724   0.68806284  1252891 
 2417000    0.8281349   -2.5285201   -2.5285201    -1.840639   0.04751635   -2.5285201   0.68788106  1252891 
 2418000    0.8271099   -2.5269474   -2.5269474   -1.8399177  0.049360738   -2.5269474   0.68702965  1252891 
 2419000   0.82670501   -2.5274554   -2.5274554   -1.8407621   0.03863364   -2.5274554   0.68669334  1252891 
 2420000   0.82696186    -2.527634    -2.527634   -1.8407273  0.047697012    -2.527634   0.68690669  1252891 
 2421000   0.82603877   -2.5274994   -2.5274994   -1.8413594  0.035826658   -2.5274994   0.68613993  1252891 
 2422000    0.8267413    -2.527506    -2.527506   -1.8407825  0.045860871    -2.527506   0.68672348  1252891 
 2423000   0.82706625   -2.5280752   -2.5280752   -1.8410818  0.039063975   -2.5280752    0.6869934  1252891 
 2424000   0.82661706   -2.5278428   -2.5278428   -1.8412225  0.037896665   -2.5278428   0.68662028  1252891 
 2425000   0.82637444   -2.5277319   -2.5277319   -1.8413131  0.038490996   -2.5277319   0.68641875  1252891 
 2426000   0.82601867   -2.5279798   -2.5279798   -1.8418566  0.040792729   -2.5279798   0.68612324  1252891 
 2427000   0.82680893    -2.528175    -2.528175   -1.8413954  0.042353483    -2.528175   0.68677966  1252891 
 2428000   0.82720851   -2.5293282   -2.5293282   -1.8422167  0.035287577   -2.5293282   0.68711156  1252891 
 2429000   0.82716877   -2.5287349   -2.5287349   -1.8416563  0.045618783   -2.5287349   0.68707856  1252891 
 2430000   0.82701459   -2.5280063   -2.5280063   -1.8410558  0.035418978   -2.5280063   0.68695049  1252891 
 2431000   0.82625604   -2.5274537   -2.5274537   -1.8411333  0.047615449   -2.5274537    0.6863204  1252891 
 2432000   0.82804654   -2.5285338   -2.5285338   -1.8407261  0.045803576   -2.5285338   0.68780766  1252891 
 2433000   0.82842584   -2.5293894   -2.5293894   -1.8412666  0.041094833   -2.5293894   0.68812272  1252891 
 2434000   0.82706025   -2.5287377   -2.5287377   -1.8417493  0.049423378   -2.5287377   0.68698841  1252891 
 2435000   0.82701035    -2.528642    -2.528642    -1.841695   0.03398499    -2.528642   0.68694696  1252891 
 2436000   0.82801112   -2.5289478   -2.5289478   -1.8411696  0.039408211   -2.5289478   0.68777825  1252891 
 2437000   0.82600254   -2.5277151   -2.5277151   -1.8416052  0.041340649   -2.5277151   0.68610984  1252891 
 2438000   0.82738694   -2.5285607   -2.5285607    -1.841301  0.040012515   -2.5285607   0.68725977  1252891 
 2439000   0.82641965   -2.5276443   -2.5276443    -1.841188  0.031726098   -2.5276443   0.68645631  1252891 
 2440000   0.82738392   -2.5280206   -2.5280206   -1.8407633  0.032294601   -2.5280206   0.68725727  1252891 
 2441000   0.82663395   -2.5279838   -2.5279838   -1.8413495  0.039329884   -2.5279838   0.68663432  1252891 
 2442000   0.82732878   -2.5288904   -2.5288904   -1.8416789  0.031484004   -2.5288904   0.68721146  1252891 
 2443000   0.82714436   -2.5284245   -2.5284245   -1.8413662  0.029308749   -2.5284245   0.68705828  1252891 
 2444000   0.82699017   -2.5286923   -2.5286923   -1.8417621     0.036021   -2.5286923   0.68693021  1252891 
 2445000   0.82660728   -2.5282168   -2.5282168   -1.8416046  0.034296772   -2.5282168   0.68661216  1252891 
 2446000   0.82766673   -2.5290696   -2.5290696   -1.8415774  0.042944046   -2.5290696   0.68749218  1252891 
 2447000   0.82728274   -2.5288632   -2.5288632     -1.84169  0.042445812   -2.5288632   0.68717322  1252891 
 2448000   0.82852599   -2.5299868   -2.5299868   -1.8417809  0.036563392   -2.5299868   0.68820592  1252891 
 2449000   0.82695504   -2.5283919   -2.5283919   -1.8414908   0.03939048   -2.5283919   0.68690103  1252891 
 2450000   0.82685659   -2.5282316   -2.5282316   -1.8414123  0.042419905   -2.5282316   0.68681925  1252891 
 2451000   0.82774243   -2.5301387   -2.5301387   -1.8425836  0.033641656   -2.5301387   0.68755506  1252891 
 2452000   0.82778945    -2.529199    -2.529199   -1.8416048  0.037577104    -2.529199   0.68759412  1252891 
 2453000    0.8278249   -2.5294163   -2.5294163   -1.8417927  0.033844863   -2.5294163   0.68762356  1252891 
 2454000   0.82771821   -2.5293826   -2.5293826   -1.8418477  0.036547993   -2.5293826   0.68753494  1252891 
 2455000   0.82547983   -2.5281891   -2.5281891   -1.8425135  0.033136584   -2.5281891   0.68567566  1252891 
 2456000   0.82764462   -2.5297402   -2.5297402   -1.8422663  0.036554632   -2.5297402   0.68747382  1252891 
 2457000   0.82783302   -2.5308216   -2.5308216   -1.8431913  0.028103375   -2.5308216   0.68763031  1252891 
 2458000   0.82709345    -2.529294    -2.529294    -1.842278  0.042391509    -2.529294     0.687016  1252891 
 2459000   0.82782732   -2.5297062   -2.5297062   -1.8420806  0.039166498   -2.5297062   0.68762557  1252891 
 2460000   0.82666233   -2.5283845   -2.5283845   -1.8417266  0.040440178   -2.5283845   0.68665789  1252891 
 2461000   0.82783835   -2.5290492   -2.5290492   -1.8414144  0.038150041   -2.5290492   0.68763474  1252891 
 2462000    0.8277568   -2.5296954   -2.5296954   -1.8421284   0.03766228   -2.5296954     0.687567  1252891 
 2463000   0.82691507   -2.5290393   -2.5290393   -1.8421715  0.038216873   -2.5290393   0.68686782  1252891 
 2464000   0.82711662   -2.5289869   -2.5289869   -1.8419516      0.03047   -2.5289869   0.68703524  1252891 
 2465000   0.82674306   -2.5292315   -2.5292315   -1.8425066   0.04420564   -2.5292315   0.68672495  1252891 
 2466000   0.82753392   -2.5295021   -2.5295021   -1.8421202  0.032356339   -2.5295021   0.68738186  1252891 
 2467000   0.82663173   -2.5292754   -2.5292754    -1.842643  0.039978303   -2.5292754   0.68663247  1252891 
 2468000   0.82766133   -2.5292883   -2.5292883   -1.8418006   0.04047654   -2.5292883    0.6874877  1252891 
 2469000   0.82656449    -2.529513    -2.529513   -1.8429364  0.046324648    -2.529513   0.68657662  1252891 
 2470000   0.82625885   -2.5291593   -2.5291593   -1.8428366  0.048856862   -2.5291593   0.68632274  1252891 
 2471000    0.8272505   -2.5293609   -2.5293609   -1.8422145  0.036904126   -2.5293609   0.68714645  1252891 
 2472000   0.82645278   -2.5287358   -2.5287358   -1.8422519  0.031863176   -2.5287358   0.68648382  1252891 
 2473000   0.82722019   -2.5291974   -2.5291974   -1.8420762  0.034806575   -2.5291974   0.68712127  1252891 
 2474000   0.82784459   -2.5298332   -2.5298332   -1.8421932  0.032047021   -2.5298332   0.68763992  1252891 
 2475000   0.82587645   -2.5293022   -2.5293022   -1.8432971  0.028580284   -2.5293022    0.6860051  1252891 
 2476000   0.82647475   -2.5290162   -2.5290162   -1.8425141  0.039252688   -2.5290162   0.68650207  1252891 
 2477000    0.8264645   -2.5290184   -2.5290184   -1.8425249  0.031707047   -2.5290184   0.68649356  1252891 
 2478000   0.82654953   -2.5286036   -2.5286036   -1.8420395  0.041152805   -2.5286036   0.68656419  1252891 
 2479000   0.82562369   -2.5294889   -2.5294889   -1.8436937  0.037018383   -2.5294889   0.68579515  1252891 
 2480000   0.82696453   -2.5300097   -2.5300097   -1.8431008  0.031998712   -2.5300097   0.68690891  1252891 
 2481000   0.82644865   -2.5298729   -2.5298729   -1.8433925   0.04306098   -2.5298729    0.6864804  1252891 
 2482000    0.8262905   -2.5293505   -2.5293505   -1.8430015  0.045673771   -2.5293505   0.68634903  1252891 
 2483000   0.82556018   -2.5290042   -2.5290042   -1.8432618  0.044479899   -2.5290042    0.6857424  1252891 
 2484000   0.82679762   -2.5306226   -2.5306226   -1.8438523  0.045806039   -2.5306226   0.68677026  1252891 
 2485000   0.82705058   -2.5305112   -2.5305112   -1.8435308  0.047801068   -2.5305112   0.68698039  1252891 
 2486000   0.82659204   -2.5305368   -2.5305368   -1.8439373   0.03562808   -2.5305368    0.6865995  1252891 
 2487000   0.82530336    -2.529631    -2.529631   -1.8441019  0.040363068    -2.529631   0.68552907  1252891 
 2488000   0.82671165   -2.5300641   -2.5300641   -1.8433652  0.036055955   -2.5300641   0.68669885  1252891 
 2489000   0.82699833   -2.5296591   -2.5296591   -1.8427222  0.025256477   -2.5296591   0.68693698  1252891 
 2490000   0.82810732   -2.5306172   -2.5306172   -1.8427591  0.046690564   -2.5306172   0.68785815  1252891 
 2491000   0.82772295   -2.5304906   -2.5304906   -1.8429517  0.038373385   -2.5304906   0.68753888  1252891 
 2492000   0.82672392   -2.5297363   -2.5297363   -1.8430272  0.045720933   -2.5297363   0.68670905  1252891 
 2493000   0.82626306   -2.5285355   -2.5285355   -1.8422093  0.030879344   -2.5285355   0.68632624  1252891 
 2494000   0.82588262   -2.5288898   -2.5288898   -1.8428796  0.025491862   -2.5288898   0.68601023  1252891 
 2495000   0.82586435   -2.5284057   -2.5284057   -1.8424107   0.04510644   -2.5284057   0.68599505  1252891 
 2496000   0.82646708   -2.5292479   -2.5292479   -1.8427522  0.039378143   -2.5292479   0.68649571  1252891 
 2497000    0.8267735     -2.52928     -2.52928   -1.8425298  0.032145372     -2.52928   0.68675023  1252891 
 2498000   0.82642317   -2.5294529   -2.5294529   -1.8429937  0.043076933   -2.5294529   0.68645923  1252891 
 2499000   0.82578006   -2.5294975   -2.5294975   -1.8435725  0.039512073   -2.5294975   0.68592504  1252891 
 2500000   0.82640412   -2.5299315   -2.5299315   -1.8434881  0.031731461   -2.5299315   0.68644341  1252891 
 2501000   0.82691238    -2.529504    -2.529504   -1.8426384   0.04489444    -2.529504   0.68686559  1252891 
 2502000   0.82718457   -2.5303509   -2.5303509   -1.8432592   0.04328162   -2.5303509   0.68709168  1252891 
 2503000   0.82673123   -2.5303581   -2.5303581    -1.843643  0.040325285   -2.5303581   0.68671512  1252891 
 2504000   0.82637026   -2.5298037   -2.5298037   -1.8433884  0.045049796   -2.5298037   0.68641529  1252891 
 2505000   0.82690942   -2.5306624   -2.5306624   -1.8437993  0.035265293   -2.5306624   0.68686313  1252891 
 2506000   0.82766264   -2.5311716   -2.5311716   -1.8436828  0.034807315   -2.5311716   0.68748878  1252891 
 2507000   0.82769792   -2.5300596   -2.5300596   -1.8425415  0.044208252   -2.5300596   0.68751809  1252891 
 2508000   0.82654199   -2.5297357   -2.5297357   -1.8431778  0.039250779   -2.5297357   0.68655793  1252891 
 2509000   0.82768372   -2.5303789   -2.5303789   -1.8428726  0.040374095   -2.5303789    0.6875063  1252891 
 2510000   0.82754702   -2.5296938   -2.5296938   -1.8423011  0.031213324   -2.5296938   0.68739275  1252891 
 2511000   0.82609064   -2.5290223   -2.5290223   -1.8428393  0.043844228   -2.5290223   0.68618302  1252891 
 2512000   0.82584153   -2.5291414   -2.5291414   -1.8431653  0.039662785   -2.5291414    0.6859761  1252891 
 2513000   0.82603487   -2.5297989   -2.5297989   -1.8436622  0.034865961   -2.5297989    0.6861367  1252891 
 2514000   0.82499253    -2.528709    -2.528709   -1.8434381  0.036628697    -2.528709   0.68527089  1252891 
 2515000   0.82629889   -2.5294578   -2.5294578   -1.8431018  0.026055449   -2.5294578     0.686356  1252891 
 2516000   0.82670617   -2.5298909   -2.5298909   -1.8431966  0.033890704   -2.5298909    0.6866943  1252891 
 2517000   0.82576777   -2.5295915   -2.5295915   -1.8436766     0.037965   -2.5295915   0.68591483  1252891 
 2518000   0.82678406   -2.5307116   -2.5307116   -1.8439526  0.035888242   -2.5307116     0.686759  1252891 
 2519000   0.82653188   -2.5307587   -2.5307587   -1.8442092  0.039125122   -2.5307587   0.68654953  1252891 
 2520000   0.82606749   -2.5302682   -2.5302682   -1.8441044  0.038296126   -2.5302682   0.68616379  1252891 
 2521000   0.82703016   -2.5307232   -2.5307232   -1.8437598  0.049171061   -2.5307232   0.68696342  1252891 
 2522000   0.82757443   -2.5317417   -2.5317417   -1.8443262  0.041407102   -2.5317417   0.68741552  1252891 
 2523000   0.82836121   -2.5323953   -2.5323953   -1.8443262  0.036560179   -2.5323953   0.68806904  1252891 
 2524000   0.82744808   -2.5315272   -2.5315272   -1.8442167  0.036346865   -2.5315272   0.68731056  1252891 
 2525000    0.8272058   -2.5311997   -2.5311997   -1.8440904  0.036852049   -2.5311997   0.68710931  1252891 
 2526000   0.82698476   -2.5307688   -2.5307688    -1.843843  0.044831734   -2.5307688   0.68692571  1252891 
 2527000   0.82568809   -2.5296287   -2.5296287   -1.8437801  0.036681502   -2.5296287   0.68584864  1252891 
 2528000   0.82699738    -2.530683    -2.530683   -1.8437468  0.033917128    -2.530683   0.68693619  1252891 
 2529000   0.82632775   -2.5298618   -2.5298618   -1.8434818  0.025954017   -2.5298618   0.68637998  1252891 
 2530000   0.82615171   -2.5290074   -2.5290074   -1.8427736  0.035165386   -2.5290074   0.68623375  1252891 
 2531000   0.82743348   -2.5301297   -2.5301297   -1.8428312  0.041615092   -2.5301297   0.68729844  1252891 
 2532000   0.82631978    -2.529301    -2.529301   -1.8429276  0.039564907    -2.529301   0.68637335  1252891 
 2533000   0.82683076   -2.5294623   -2.5294623   -1.8426645  0.029676171   -2.5294623   0.68679779  1252891 
 2534000   0.82692721   -2.5296621   -2.5296621   -1.8427842  0.041766797   -2.5296621   0.68687791  1252891 
 2535000   0.82598216   -2.5287934   -2.5287934   -1.8427005  0.037280857   -2.5287934   0.68609291  1252891 
 2536000    0.8260479    -2.528891    -2.528891   -1.8427435  0.046624078    -2.528891   0.68614751  1252891 
 2537000   0.82702532   -2.5307715   -2.5307715   -1.8438121  0.039830347   -2.5307715    0.6869594  1252891 
 2538000   0.82647629   -2.5298142   -2.5298142   -1.8433109  0.039792282   -2.5298142   0.68650335  1252891 
 2539000   0.82721677   -2.5306655   -2.5306655   -1.8435471  0.043876318   -2.5306655   0.68711842  1252891 
 2540000    0.8262277   -2.5307137   -2.5307137   -1.8444168   0.04066386   -2.5307137   0.68629686  1252891 
 2541000   0.82743764   -2.5302539   -2.5302539    -1.842952  0.036011714   -2.5302539   0.68730189  1252891 
 2542000   0.82668666   -2.5303017   -2.5303017   -1.8436236  0.048073559   -2.5303017    0.6866781  1252891 
 2543000   0.82751124   -2.5317611   -2.5317611   -1.8443981  0.034141627   -2.5317611   0.68736302  1252891 
 2544000    0.8268284   -2.5305876   -2.5305876   -1.8437918  0.051728315   -2.5305876   0.68679583  1252891 
 2545000   0.82759273   -2.5313045   -2.5313045   -1.8438738  0.042156243   -2.5313045   0.68743072  1252891 
 2546000   0.82704686   -2.5313207   -2.5313207   -1.8443434  0.038431372   -2.5313207    0.6869773  1252891 
 2547000   0.82687461   -2.5306633   -2.5306633    -1.843829  0.039787471   -2.5306633   0.68683421  1252891 
 2548000   0.82702291   -2.5306293   -2.5306293   -1.8436719  0.048824846   -2.5306293    0.6869574  1252891 
 2549000   0.82632029   -2.5303852   -2.5303852   -1.8440114  0.041819419   -2.5303852   0.68637377  1252891 
 2550000   0.82645944   -2.5310076   -2.5310076   -1.8445182  0.034443674   -2.5310076   0.68648936  1252891 
 2551000   0.82665316     -2.53127     -2.53127   -1.8446197  0.035749924     -2.53127   0.68665027  1252891 
 2552000   0.82714743   -2.5312172   -2.5312172   -1.8441564  0.037826602   -2.5312172   0.68706083  1252891 
 2553000   0.82674104   -2.5309385   -2.5309385   -1.8442153  0.036037744   -2.5309385   0.68672327  1252891 
 2554000   0.82781109   -2.5319282   -2.5319282   -1.8443161  0.040595127   -2.5319282   0.68761209  1252891 
 2555000   0.82655312   -2.5308389   -2.5308389   -1.8442717  0.043609834   -2.5308389   0.68656717  1252891 
 2556000   0.82712914   -2.5313535   -2.5313535   -1.8443079  0.037473642   -2.5313535   0.68704564  1252891 
 2557000   0.82685917    -2.531169    -2.531169   -1.8443476  0.038402832    -2.531169   0.68682139  1252891 
 2558000    0.8260909   -2.5306455   -2.5306455   -1.8444622  0.050254171   -2.5306455   0.68618323  1252891 
 2559000   0.82651902   -2.5322494   -2.5322494   -1.8457106  0.032883087   -2.5322494   0.68653885  1252891 
 2560000   0.82738248   -2.5321133   -2.5321133   -1.8448572  0.038959382   -2.5321133   0.68725607  1252891 
 2561000   0.82813242   -2.5324738   -2.5324738   -1.8445948  0.037181392   -2.5324738     0.687879  1252891 
 2562000   0.82776927   -2.5327511   -2.5327511   -1.8451737  0.037308725   -2.5327511   0.68757735  1252891 
 2563000   0.82752955   -2.5322221   -2.5322221   -1.8448439  0.037237208   -2.5322221   0.68737824  1252891 
 2564000   0.82656521   -2.5320969   -2.5320969   -1.8455197  0.033377092   -2.5320969   0.68657721  1252891 
 2565000   0.82818692   -2.5324183   -2.5324183    -1.844494  0.039339916   -2.5324183   0.68792427  1252891 
 2566000   0.82782484   -2.5328033   -2.5328033   -1.8451798  0.043376629   -2.5328033   0.68762352  1252891 
 2567000    0.8289535   -2.5329819   -2.5329819   -1.8444209  0.046880543   -2.5329819   0.68856103  1252891 
 2568000    0.8281165      -2.5329      -2.5329   -1.8450342   0.03466661      -2.5329   0.68786577  1252891 
 2569000   0.82711061   -2.5311492   -2.5311492    -1.844119  0.042634135   -2.5311492   0.68703024  1252891 
 2570000   0.82666497   -2.5316052   -2.5316052   -1.8449451  0.033346522   -2.5316052   0.68666008  1252891 
 2571000   0.82660535   -2.5313397   -2.5313397   -1.8447291  0.040846557   -2.5313397   0.68661055  1252891 
 2572000    0.8271722   -2.5314971   -2.5314971   -1.8444157   0.04006544   -2.5314971    0.6870814  1252891 
 2573000   0.82717131   -2.5316201   -2.5316201   -1.8445394  0.036254816   -2.5316201   0.68708067  1252891 
 2574000   0.82728341    -2.532183    -2.532183   -1.8450092  0.025593778    -2.532183   0.68717378  1252891 
 2575000   0.82676224   -2.5319807   -2.5319807   -1.8452398  0.036231719   -2.5319807   0.68674087  1252891 
 2576000    0.8270904   -2.5316981   -2.5316981   -1.8446846  0.035368327   -2.5316981   0.68701346  1252891 
 2577000   0.82724085   -2.5323232   -2.5323232   -1.8451847  0.028749665   -2.5323232   0.68713843  1252891 
 2578000   0.82630311   -2.5313743   -2.5313743   -1.8450148   0.04593567   -2.5313743    0.6863595  1252891 
 2579000   0.82756375   -2.5327246   -2.5327246    -1.845318  0.041909053   -2.5327246   0.68740664  1252891 
 2580000   0.82613535   -2.5322351   -2.5322351   -1.8460149  0.048539921   -2.5322351   0.68622016  1252891 
 2581000    0.8270053   -2.5319528   -2.5319528     -1.84501  0.042392427   -2.5319528   0.68694277  1252891 
 2582000   0.82762579   -2.5323427   -2.5323427   -1.8448845  0.039369033   -2.5323427   0.68745817  1252891 
 2583000   0.82776326   -2.5322513   -2.5322513   -1.8446789  0.037498943   -2.5322513   0.68757236  1252891 
 2584000   0.82605015   -2.5322616   -2.5322616   -1.8461122  0.034667488   -2.5322616   0.68614939  1252891 
 2585000   0.82612755   -2.5314791   -2.5314791   -1.8452654  0.048105132   -2.5314791   0.68621368  1252891 
 2586000   0.82661512   -2.5326343   -2.5326343   -1.8460156  0.030884245   -2.5326343   0.68661867  1252891 
 2587000   0.82503568   -2.5310682   -2.5310682   -1.8457615  0.036076885   -2.5310682   0.68530673  1252891 
 2588000   0.82632376   -2.5321271   -2.5321271   -1.8457505  0.036246332   -2.5321271   0.68637666  1252891 
 2589000   0.82547139   -2.5317557   -2.5317557   -1.8460871   0.03884462   -2.5317557   0.68566864  1252891 
 2590000   0.82703281   -2.5324554   -2.5324554   -1.8454898  0.033945625   -2.5324554   0.68696562  1252891 
 2591000   0.82640277    -2.532414    -2.532414   -1.8459717  0.037864083    -2.532414   0.68644229  1252891 
 2592000   0.82665082   -2.5316264   -2.5316264   -1.8449781  0.038422326   -2.5316264   0.68664832  1252891 
 2593000   0.82539107    -2.531718    -2.531718   -1.8461161  0.035769267    -2.531718   0.68560193  1252891 
 2594000   0.82534402   -2.5312261   -2.5312261   -1.8456632   0.04125539   -2.5312261   0.68556284  1252891 
 2595000   0.82527151   -2.5312746   -2.5312746    -1.845772  0.038183086   -2.5312746   0.68550261  1252891 
 2596000   0.82706569   -2.5326978   -2.5326978   -1.8457049  0.036292161   -2.5326978   0.68699294  1252891 
 2597000   0.82646078    -2.532262    -2.532262   -1.8457716  0.040334497    -2.532262   0.68649047  1252891 
 2598000   0.82625112   -2.5322368   -2.5322368   -1.8459205  0.036585468   -2.5322368   0.68631632  1252891 
 2599000   0.82683332   -2.5329423   -2.5329423   -1.8461424   0.04018466   -2.5329423   0.68679992  1252891 
 2600000   0.82628036   -2.5319155   -2.5319155   -1.8455749  0.043236369   -2.5319155   0.68634061  1252891 
 2601000    0.8263287   -2.5331297   -2.5331297   -1.8467489  0.045633724   -2.5331297   0.68638076  1252891 
 2602000   0.82754846   -2.5329997   -2.5329997   -1.8456058  0.043447061   -2.5329997   0.68739394  1252891 
 2603000   0.82494002   -2.5316087   -2.5316087   -1.8463815  0.042801286   -2.5316087   0.68522727  1252891 
 2604000   0.82636924   -2.5322102   -2.5322102   -1.8457957  0.037126162   -2.5322102   0.68641443  1252891 
 2605000   0.82741353   -2.5330677   -2.5330677   -1.8457859  0.037493388   -2.5330677   0.68728186  1252891 
 2606000   0.82543206   -2.5320195   -2.5320195   -1.8463836  0.030873388   -2.5320195   0.68563598  1252891 
 2607000   0.82604645   -2.5320664   -2.5320664   -1.8459201  0.042008265   -2.5320664   0.68614631  1252891 
 2608000   0.82713374   -2.5321399   -2.5321399   -1.8450904  0.039368069   -2.5321399   0.68704946  1252891 
 2609000   0.82703311   -2.5318989   -2.5318989    -1.844933  0.035345458   -2.5318989   0.68696587  1252891 
 2610000   0.82634198   -2.5315746   -2.5315746   -1.8451829  0.035444853   -2.5315746   0.68639179  1252891 
 2611000   0.82594149   -2.5319885   -2.5319885   -1.8459294  0.047698411   -2.5319885   0.68605913  1252891 
 2612000    0.8261685   -2.5326501   -2.5326501   -1.8464024  0.035529974   -2.5326501   0.68624769  1252891 
 2613000   0.82607146   -2.5326774   -2.5326774   -1.8465103  0.041961846   -2.5326774   0.68616709  1252891 
 2614000   0.82638028   -2.5322027   -2.5322027   -1.8457791  0.043113693   -2.5322027   0.68642361  1252891 
 2615000   0.82726311   -2.5328706   -2.5328706   -1.8457137  0.039003812   -2.5328706   0.68715692  1252891 
 2616000   0.82682004   -2.5319102   -2.5319102   -1.8451213  0.029167433   -2.5319102   0.68678888  1252891 
 2617000   0.82557784   -2.5310949   -2.5310949   -1.8453378  0.050546689   -2.5310949   0.68575707  1252891 
 2618000   0.82532899   -2.5317859   -2.5317859   -1.8462355  0.034992368   -2.5317859   0.68555036  1252891 
 2619000   0.82600176   -2.5323295   -2.5323295   -1.8462203  0.042031908   -2.5323295   0.68610919  1252891 
 2620000   0.82597943    -2.532738    -2.532738   -1.8466473  0.040825538    -2.532738   0.68609064  1252891 
 2621000   0.82589727   -2.5324013   -2.5324013   -1.8463789  0.041335112   -2.5324013   0.68602239  1252891 
 2622000    0.8276321    -2.533971    -2.533971   -1.8465076  0.022022307    -2.533971   0.68746341  1252891 
 2623000   0.82659392   -2.5326455   -2.5326455   -1.8460445  0.042798595   -2.5326455   0.68660107  1252891 
 2624000   0.82621605   -2.5323873   -2.5323873   -1.8461001  0.044318003   -2.5323873   0.68628719  1252891 
 2625000   0.82580596   -2.5319818   -2.5319818   -1.8460353  0.042314311   -2.5319818   0.68594655  1252891 
 2626000   0.82627849   -2.5335995   -2.5335995   -1.8472605  0.034432612   -2.5335995   0.68633905  1252891 
 2627000   0.82670491    -2.533237    -2.533237   -1.8465438  0.042924769    -2.533237   0.68669326  1252891 
 2628000   0.82702811    -2.533156    -2.533156   -1.8461943  0.037950397    -2.533156   0.68696172  1252891 
 2629000   0.82587105   -2.5323539   -2.5323539   -1.8463533  0.046003756   -2.5323539   0.68600062  1252891 
 2630000   0.82575646   -2.5327686   -2.5327686   -1.8468632   0.04238004   -2.5327686   0.68590544  1252891 
 2631000   0.82604044   -2.5331088   -2.5331088   -1.8469675  0.032740983   -2.5331088   0.68614132  1252891 
 2632000   0.82572516   -2.5330182   -2.5330182   -1.8471387  0.030068113   -2.5330182   0.68587944  1252891 
 2633000   0.82516853   -2.5320392   -2.5320392   -1.8466221  0.035257474   -2.5320392   0.68541708  1252891 
 2634000   0.82596148   -2.5323042   -2.5323042   -1.8462285  0.034089756   -2.5323042   0.68607573  1252891 
 2635000   0.82585616   -2.5324439   -2.5324439   -1.8464557  0.045258591   -2.5324439   0.68598825  1252891 
 2636000   0.82606023   -2.5331853   -2.5331853   -1.8470275  0.033264536   -2.5331853   0.68615776  1252891 
 2637000   0.82696821   -2.5334602   -2.5334602   -1.8465482  0.042868241   -2.5334602   0.68691197  1252891 
 2638000   0.82653294   -2.5332826   -2.5332826   -1.8467322  0.032755491   -2.5332826   0.68655041  1252891 
 2639000   0.82546666   -2.5326831   -2.5326831   -1.8470184  0.033219592   -2.5326831   0.68566472  1252891 
 2640000   0.82624089   -2.5331736   -2.5331736   -1.8468658  0.036265309   -2.5331736   0.68630782  1252891 
 2641000   0.82556594   -2.5325144   -2.5325144   -1.8467672  0.032045989   -2.5325144   0.68574718  1252891 
 2642000   0.82570822   -2.5331734   -2.5331734   -1.8473081  0.033718758   -2.5331734   0.68586536  1252891 
 2643000   0.82579206   -2.5330082   -2.5330082   -1.8470732  0.038738784   -2.5330082   0.68593501  1252891 
 2644000   0.82664337   -2.5344713   -2.5344713   -1.8478292  0.037788767   -2.5344713   0.68664214  1252891 
 2645000   0.82616795   -2.5337751   -2.5337751   -1.8475278  0.041663712   -2.5337751   0.68624724  1252891 
 2646000   0.82572469   -2.5335214   -2.5335214   -1.8476424  0.045933339   -2.5335214   0.68587905  1252891 
 2647000   0.82768372   -2.5351558   -2.5351558   -1.8476495   0.04386106   -2.5351558    0.6875063  1252891 
 2648000   0.82588004   -2.5343196   -2.5343196   -1.8483115  0.046606341   -2.5343196   0.68600809  1252891 
 2649000   0.82751262   -2.5341125   -2.5341125   -1.8467484  0.044478687   -2.5341125   0.68736417  1252891 
 2650000   0.82628924   -2.5340204   -2.5340204   -1.8476725  0.049261864   -2.5340204   0.68634798  1252891 
 2651000    0.8253459   -2.5331936   -2.5331936   -1.8476292  0.041620278   -2.5331936   0.68556441  1252891 
 2652000   0.82671278   -2.5342617   -2.5342617   -1.8475619  0.042030887   -2.5342617   0.68669979  1252891 
 2653000   0.82551698   -2.5332137   -2.5332137   -1.8475072  0.052889124   -2.5332137   0.68570651  1252891 
 2654000   0.82589851   -2.5335575   -2.5335575    -1.847534  0.040920807   -2.5335575   0.68602343  1252891 
 2655000   0.82691117   -2.5342875   -2.5342875   -1.8474229  0.036861189   -2.5342875   0.68686458  1252891 
 2656000   0.82807337   -2.5343563   -2.5343563   -1.8465264  0.034546812   -2.5343563   0.68782995  1252891 
 2657000   0.82626238   -2.5330278   -2.5330278   -1.8467021  0.039306158   -2.5330278   0.68632568  1252891 
 2658000    0.8260197   -2.5335124   -2.5335124   -1.8473883  0.033131178   -2.5335124   0.68612409  1252891 
 2659000   0.82497137   -2.5325327   -2.5325327   -1.8472794  0.040484328   -2.5325327   0.68525331  1252891 
 2660000   0.82583104   -2.5327883   -2.5327883   -1.8468209  0.034004274   -2.5327883   0.68596739  1252891 
 2661000   0.82486735   -2.5326349   -2.5326349    -1.847468  0.032675144   -2.5326349   0.68516691  1252891 
 2662000   0.82627868   -2.5330329   -2.5330329   -1.8466937  0.032155385   -2.5330329   0.68633921  1252891 
 2663000   0.82515021   -2.5328235   -2.5328235   -1.8474217  0.035606708   -2.5328235   0.68540186  1252891 
 2664000   0.82516935   -2.5328532   -2.5328532   -1.8474354  0.035497539   -2.5328532   0.68541776  1252891 
 2665000   0.82534678   -2.5332944   -2.5332944   -1.8477293  0.031584981   -2.5332944   0.68556514  1252891 
 2666000   0.82611155    -2.533675    -2.533675   -1.8474746  0.037563484    -2.533675   0.68620039  1252891 
 2667000   0.82525234   -2.5333006   -2.5333006   -1.8478139  0.040283161   -2.5333006   0.68548669  1252891 
 2668000   0.82583679   -2.5340771   -2.5340771    -1.848105  0.049782147   -2.5340771   0.68597216  1252891 
 2669000   0.82615923   -2.5343304   -2.5343304   -1.8480904  0.039979597   -2.5343304   0.68623999  1252891 
 2670000   0.82539021   -2.5338268   -2.5338268   -1.8482255  0.029324464   -2.5338268   0.68560122  1252891 
 2671000   0.82535832   -2.5335863   -2.5335863   -1.8480116  0.040895753   -2.5335863   0.68557473  1252891 
 2672000    0.8254232   -2.5337183   -2.5337183   -1.8480897  0.043417765   -2.5337183   0.68562862  1252891 
 2673000   0.82596377   -2.5341987   -2.5341987    -1.848121  0.037918446   -2.5341987   0.68607764  1252891 
 2674000   0.82599445   -2.5348119   -2.5348119   -1.8487088  0.031871372   -2.5348119   0.68610312  1252891 
 2675000   0.82518251   -2.5343942   -2.5343942   -1.8489656  0.040028295   -2.5343942   0.68542869  1252891 
 2676000   0.82686367   -2.5345289   -2.5345289   -1.8477038  0.033880625   -2.5345289   0.68682513  1252891 
 2677000   0.82531782   -2.5341225   -2.5341225   -1.8485815  0.035484244   -2.5341225   0.68554108  1252891 
 2678000   0.82657671    -2.534576    -2.534576   -1.8479892  0.046786717    -2.534576   0.68658677  1252891 
 2679000   0.82518058   -2.5342392   -2.5342392   -1.8488121  0.041703079   -2.5342392   0.68542709  1252891 
 2680000   0.82506866    -2.533649    -2.533649   -1.8483149  0.039150675    -2.533649   0.68533413  1252891 
 2681000   0.82660539   -2.5338112   -2.5338112   -1.8472006  0.034369103   -2.5338112   0.68661059  1252891 
 2682000   0.82590762    -2.533454    -2.533454    -1.847423  0.031261767    -2.533454   0.68603099  1252891 
 2683000   0.82534592   -2.5345764   -2.5345764    -1.849012  0.033002047   -2.5345764   0.68556442  1252891 
 2684000   0.82512974   -2.5339889   -2.5339889    -1.848604  0.032308081   -2.5339889   0.68538486  1252891 
 2685000    0.8250386    -2.533965    -2.533965   -1.8486558  0.033466289    -2.533965   0.68530915  1252891 
 2686000   0.82604592   -2.5335516   -2.5335516   -1.8474057  0.044509987   -2.5335516   0.68614587  1252891 
 2687000   0.82558817   -2.5331826   -2.5331826    -1.847417  0.033043479   -2.5331826   0.68576565  1252891 
 2688000   0.82522488   -2.5330645   -2.5330645   -1.8476007  0.034177551   -2.5330645   0.68546388  1252891 
 2689000   0.82781603   -2.5344693   -2.5344693   -1.8468531   0.04221137   -2.5344693    0.6876162  1252891 
 2690000   0.82563208    -2.534107    -2.534107   -1.8483049  0.039832384    -2.534107   0.68580212  1252891 
 2691000   0.82475654   -2.5332405   -2.5332405   -1.8481656  0.032700148   -2.5332405   0.68507487  1252891 
 2692000   0.82614304   -2.5346296   -2.5346296    -1.848403  0.037274978   -2.5346296   0.68622655  1252891 
 2693000    0.8264267    -2.533812    -2.533812   -1.8473499  0.040130669    -2.533812   0.68646216  1252891 
 2694000    0.8269302    -2.535159    -2.535159   -1.8482787   0.03810801    -2.535159   0.68688039  1252891 
 2695000   0.82614467   -2.5343618   -2.5343618   -1.8481339  0.037512257   -2.5343618    0.6862279  1252891 
 2696000   0.82602986   -2.5349011   -2.5349011   -1.8487685  0.036635976   -2.5349011   0.68613253  1252891 
 2697000   0.82688042   -2.5351844   -2.5351844   -1.8483453   0.03769944   -2.5351844   0.68683904  1252891 
 2698000   0.82630268   -2.5341826   -2.5341826   -1.8478235  0.046836301   -2.5341826   0.68635915  1252891 
 2699000   0.82565207   -2.5337683   -2.5337683   -1.8479495  0.044270971   -2.5337683   0.68581873  1252891 
 2700000   0.82561741   -2.5339567   -2.5339567   -1.8481667  0.039371328   -2.5339567   0.68578994  1252891 
 2701000   0.82720275   -2.5352974   -2.5352974   -1.8481907  0.043611839   -2.5352974   0.68710678  1252891 
 2702000   0.82509543   -2.5346945   -2.5346945   -1.8493381  0.037929863   -2.5346945   0.68535636  1252891 
 2703000   0.82480153   -2.5343692   -2.5343692   -1.8492569  0.028737631   -2.5343692   0.68511223  1252891 
 2704000   0.82529975   -2.5342894   -2.5342894   -1.8487633  0.045437775   -2.5342894   0.68552608  1252891 
 2705000   0.82599755   -2.5343093   -2.5343093   -1.8482036  0.029326999   -2.5343093    0.6861057  1252891 
 2706000   0.82581776   -2.5341512   -2.5341512   -1.8481949  0.028484112   -2.5341512   0.68595636  1252891 
 2707000   0.82486424   -2.5335767   -2.5335767   -1.8484124  0.032833311   -2.5335767   0.68516432  1252891 
 2708000   0.82487411   -2.5339006   -2.5339006   -1.8487281  0.035114346   -2.5339006   0.68517252  1252891 
 2709000   0.82677121   -2.5348278   -2.5348278   -1.8480795  0.037364204   -2.5348278   0.68674833  1252891 
 2710000   0.82447981   -2.5341692   -2.5341692   -1.8493242  0.042039934   -2.5341692     0.684845  1252891 
 2711000    0.8256337   -2.5348947   -2.5348947   -1.8490912  0.039007745   -2.5348947   0.68580347  1252891 
 2712000   0.82525254   -2.5349911   -2.5349911   -1.8495042  0.036925095   -2.5349911   0.68548686  1252891 
 2713000   0.82607225   -2.5353201   -2.5353201   -1.8491524  0.038498534   -2.5353201   0.68616774  1252891 
 2714000   0.82563648   -2.5347347   -2.5347347   -1.8489289  0.036176269   -2.5347347   0.68580577  1252891 
 2715000   0.82600934   -2.5346261   -2.5346261   -1.8485106  0.046403183   -2.5346261   0.68611549  1252891 
 2716000   0.82597012   -2.5353147   -2.5353147   -1.8492318  0.041221124   -2.5353147   0.68608291  1252891 
 2717000   0.82574569   -2.5346203   -2.5346203   -1.8487238  0.036548186   -2.5346203   0.68589649  1252891 
 2718000   0.82574703   -2.5341926   -2.5341926    -1.848295  0.032860365   -2.5341926    0.6858976  1252891 
 2719000   0.82612823   -2.5348764   -2.5348764   -1.8486621  0.042860963   -2.5348764   0.68621424  1252891 
 2720000   0.82595868   -2.5343195   -2.5343195   -1.8482461   0.03335713   -2.5343195   0.68607341  1252891 
 2721000   0.82426162   -2.5333427   -2.5333427    -1.848679  0.032959361   -2.5333427   0.68466376  1252891 
 2722000   0.82512231   -2.5339238   -2.5339238   -1.8485451  0.037675037   -2.5339238   0.68537869  1252891 
 2723000   0.82523133   -2.5339063   -2.5339063   -1.8484371  0.034657874   -2.5339063   0.68546924  1252891 
 2724000   0.82533495   -2.5343604   -2.5343604   -1.8488051  0.034137314   -2.5343604   0.68555532  1252891 
 2725000    0.8245453   -2.5333056   -2.5333056   -1.8484062  0.028877671   -2.5333056    0.6848994  1252891 
 2726000   0.82567403   -2.5342232   -2.5342232   -1.8483863  0.034076744   -2.5342232   0.68583697  1252891 
 2727000   0.82480125   -2.5341738   -2.5341738   -1.8490618   0.03473737   -2.5341738     0.685112  1252891 
 2728000   0.82474011   -2.5341626   -2.5341626   -1.8491014  0.031264182   -2.5341626   0.68506121  1252891 
 2729000   0.82594025   -2.5346978   -2.5346978   -1.8486397  0.034921229   -2.5346978    0.6860581  1252891 
 2730000   0.82608802   -2.5346652   -2.5346652   -1.8484844  0.043367838   -2.5346652   0.68618084  1252891 
 2731000   0.82699382     -2.53616     -2.53616   -1.8492267  0.035091813     -2.53616   0.68693324  1252891 
 2732000   0.82669705   -2.5356917   -2.5356917    -1.849005  0.043926139   -2.5356917   0.68668673  1252891 
 2733000   0.82523982     -2.53422     -2.53422   -1.8487437  0.053199464     -2.53422    0.6854763  1252891 
 2734000   0.82576796   -2.5345428   -2.5345428   -1.8486278  0.044596948   -2.5345428   0.68591499  1252891 
 2735000   0.82553661   -2.5351499   -2.5351499    -1.849427  0.044161899   -2.5351499   0.68572282  1252891 
 2736000   0.82619382   -2.5360123   -2.5360123   -1.8497435  0.028718189   -2.5360123   0.68626873  1252891 
 2737000   0.82487446     -2.53405     -2.53405   -1.8488771   0.04004001     -2.53405   0.68517282  1252891 
 2738000   0.82454125   -2.5345651   -2.5345651   -1.8496691  0.044115162   -2.5345651   0.68489603  1252891 
 2739000   0.82534866   -2.5348832   -2.5348832   -1.8493165  0.038052495   -2.5348832    0.6855667  1252891 
 2740000   0.82606847   -2.5350585   -2.5350585   -1.8488939  0.038260431   -2.5350585    0.6861646  1252891 
 2741000   0.82536186    -2.535072    -2.535072   -1.8494944  0.039064891    -2.535072   0.68557767  1252891 
 2742000   0.82493398   -2.5347778   -2.5347778   -1.8495556  0.029727337   -2.5347778   0.68522225  1252891 
 2743000   0.82623162   -2.5350107   -2.5350107   -1.8487106  0.037929605   -2.5350107   0.68630012  1252891 
 2744000   0.82569582   -2.5346018   -2.5346018   -1.8487467  0.039689651   -2.5346018   0.68585506  1252891 
 2745000   0.82558224   -2.5345535   -2.5345535   -1.8487928  0.045128261   -2.5345535   0.68576072  1252891 
 2746000   0.82478191   -2.5348199   -2.5348199    -1.849724   0.05301906   -2.5348199   0.68509594  1252891 
 2747000   0.82731021   -2.5358211   -2.5358211   -1.8486251  0.039419566   -2.5358211   0.68719604  1252891 
 2748000   0.82567568   -2.5352555   -2.5352555   -1.8494171  0.041929148   -2.5352555   0.68583833  1252891 
 2749000   0.82570077    -2.535587    -2.535587   -1.8497278   0.04413972    -2.535587   0.68585918  1252891 
 2750000   0.82479366   -2.5340303   -2.5340303   -1.8489246  0.036589287   -2.5340303   0.68510569  1252891 
 2751000    0.8256267   -2.5344039   -2.5344039   -1.8486062  0.037751872   -2.5344039   0.68579765  1252891 
 2752000   0.82538511    -2.535122    -2.535122    -1.849525  0.035868231    -2.535122   0.68559698  1252891 
 2753000   0.82431558    -2.534514    -2.534514   -1.8498054  0.032157879    -2.534514   0.68470859  1252891 
 2754000    0.8240141   -2.5342242   -2.5342242    -1.849766  0.039222982   -2.5342242   0.68445817  1252891 
 2755000   0.82461157   -2.5346439   -2.5346439   -1.8496894  0.025140451   -2.5346439   0.68495444  1252891 
 2756000   0.82517782   -2.5357261   -2.5357261   -1.8503013  0.035149303   -2.5357261    0.6854248  1252891 
 2757000    0.8250504   -2.5349844   -2.5349844   -1.8496654  0.046995296   -2.5349844   0.68531895  1252891 
 2758000    0.8256278   -2.5358706   -2.5358706    -1.850072  0.039147077   -2.5358706   0.68579857  1252891 
 2759000   0.82467428   -2.5358358   -2.5358358   -1.8508293  0.043214854   -2.5358358   0.68500654  1252891 
 2760000   0.82558951   -2.5358687   -2.5358687    -1.850102  0.036072921   -2.5358687   0.68576676  1252891 
 2761000   0.82640496   -2.5369722   -2.5369722   -1.8505281  0.031911866   -2.5369722    0.6864441  1252891 
 2762000    0.8257418   -2.5361433   -2.5361433   -1.8502501  0.039067494   -2.5361433   0.68589326  1252891 
 2763000   0.82415544   -2.5356741   -2.5356741   -1.8510985   0.03950108   -2.5356741   0.68457556  1252891 
 2764000   0.82550306   -2.5361496   -2.5361496   -1.8504546  0.044800422   -2.5361496   0.68569495  1252891 
 2765000   0.82625012   -2.5368683   -2.5368683   -1.8505528  0.043783058   -2.5368683   0.68631549  1252891 
 2766000   0.82513228   -2.5360637   -2.5360637   -1.8506768  0.035392134   -2.5360637   0.68538697  1252891 
 2767000   0.82569314   -2.5357729   -2.5357729   -1.8499201  0.036273236   -2.5357729   0.68585284  1252891 
 2768000   0.82521952   -2.5359039   -2.5359039   -1.8504444  0.034394383   -2.5359039   0.68545943  1252891 
 2769000   0.82554419   -2.5365807   -2.5365807   -1.8508516  0.042639063   -2.5365807   0.68572912  1252891 
 2770000   0.82533644   -2.5358324   -2.5358324   -1.8502759  0.041136756   -2.5358324   0.68555655  1252891 
 2771000   0.82602006    -2.537098    -2.537098   -1.8509736  0.025003824    -2.537098   0.68612439  1252891 
 2772000   0.82450752    -2.535756    -2.535756    -1.850888  0.035477927    -2.535756   0.68486802  1252891 
 2773000   0.82361934   -2.5354888   -2.5354888   -1.8513586   0.03585168   -2.5354888   0.68413026  1252891 
 2774000   0.82520379   -2.5356685   -2.5356685   -1.8502221  0.039368902   -2.5356685   0.68544637  1252891 
 2775000   0.82449897   -2.5352262   -2.5352262   -1.8503652  0.030240832   -2.5352262   0.68486091  1252891 
 2776000   0.82569775   -2.5354702   -2.5354702   -1.8496136  0.037761469   -2.5354702   0.68585667  1252891 
 2777000   0.82658852   -2.5365394   -2.5365394   -1.8499428  0.027353477   -2.5365394   0.68659657  1252891 
 2778000   0.82466937   -2.5355723   -2.5355723   -1.8505699  0.038208432   -2.5355723   0.68500245  1252891 
 2779000   0.82574358   -2.5369035   -2.5369035   -1.8510087  0.031930008   -2.5369035   0.68589474  1252891 
 2780000   0.82580718   -2.5367185   -2.5367185   -1.8507709  0.036748835   -2.5367185   0.68594756  1252891 
 2781000   0.82636959   -2.5367081   -2.5367081   -1.8502933  0.040131585   -2.5367081   0.68641473  1252891 
 2782000   0.82570709    -2.536894    -2.536894   -1.8510296  0.047132801    -2.536894   0.68586443  1252891 
 2783000   0.82460399   -2.5363879   -2.5363879   -1.8514397  0.037678267   -2.5363879   0.68494815  1252891 
 2784000   0.82505435   -2.5366894   -2.5366894   -1.8513672  0.041961193   -2.5366894   0.68532224  1252891 
 2785000   0.82586203   -2.5368517   -2.5368517   -1.8508586  0.048109918   -2.5368517   0.68599313  1252891 
 2786000   0.82527894   -2.5366176   -2.5366176   -1.8511088  0.039127351   -2.5366176   0.68550879  1252891 
 2787000   0.82430783    -2.536658    -2.536658   -1.8519558  0.033531785    -2.536658   0.68470215  1252891 
 2788000    0.8259527   -2.5376436   -2.5376436   -1.8515751  0.045821484   -2.5376436   0.68606844  1252891 
 2789000   0.82565863   -2.5376045   -2.5376045   -1.8517804  0.036658881   -2.5376045   0.68582417  1252891 
 2790000   0.82628393   -2.5381345   -2.5381345   -1.8517909  0.031907836   -2.5381345   0.68634357  1252891 
 2791000   0.82414636   -2.5364499   -2.5364499   -1.8518819  0.040332129   -2.5364499   0.68456802  1252891 
 2792000   0.82584684    -2.538195    -2.538195   -1.8522145  0.039189868    -2.538195   0.68598051  1252891 
 2793000   0.82417308   -2.5365369   -2.5365369   -1.8519467  0.037846902   -2.5365369   0.68459022  1252891 
 2794000   0.82552686    -2.537006    -2.537006   -1.8512913  0.040268421    -2.537006   0.68571472  1252891 
 2795000   0.82403741   -2.5368135   -2.5368135    -1.852336  0.028757934   -2.5368135   0.68447753  1252891 
 2796000   0.82494194   -2.5366792   -2.5366792   -1.8514503  0.043253581   -2.5366792   0.68522886  1252891 
 2797000   0.82319324   -2.5359003   -2.5359003   -1.8521239  0.043108667   -2.5359003   0.68377633  1252891 
 2798000   0.82471073   -2.5371702   -2.5371702   -1.8521334  0.036953392   -2.5371702   0.68503682  1252891 
 2799000   0.82420775   -2.5366311   -2.5366311   -1.8520121  0.046892063   -2.5366311   0.68461902  1252891 
 2800000   0.82485551   -2.5366056   -2.5366056   -1.8514485  0.039840215   -2.5366056   0.68515708  1252891 
 2801000   0.82548219   -2.5374459   -2.5374459   -1.8517683  0.036342166   -2.5374459   0.68567762  1252891 
 2802000   0.82436891   -2.5362146   -2.5362146   -1.8514617  0.040045458   -2.5362146   0.68475288  1252891 
 2803000   0.82505758   -2.5376899   -2.5376899    -1.852365  0.035992847   -2.5376899   0.68532492  1252891 
 2804000   0.82465827    -2.537246    -2.537246   -1.8522528  0.039892232    -2.537246   0.68499324  1252891 
 2805000   0.82484965    -2.537479    -2.537479   -1.8523268  0.040864003    -2.537479    0.6851522  1252891 
 2806000   0.82496281   -2.5378211   -2.5378211   -1.8525749  0.031209427   -2.5378211    0.6852462  1252891 
 2807000   0.82443452   -2.5377747   -2.5377747   -1.8529674  0.035605695   -2.5377747   0.68480738  1252891 
 2808000   0.82498912   -2.5382282   -2.5382282   -1.8529602  0.035997714   -2.5382282   0.68526805  1252891 
 2809000   0.82388653   -2.5365897   -2.5365897   -1.8522375  0.039642506   -2.5365897    0.6843522  1252891 
 2810000   0.82432206   -2.5365765   -2.5365765   -1.8518625  0.037312869   -2.5365765   0.68471397  1252891 
 2811000   0.82428738   -2.5372709   -2.5372709   -1.8525857  0.038257606   -2.5372709   0.68468516  1252891 
 2812000   0.82557878   -2.5377831   -2.5377831   -1.8520252  0.030904607   -2.5377831   0.68575785  1252891 
 2813000   0.82430957    -2.536734    -2.536734   -1.8520304   0.03733176    -2.536734   0.68470359  1252891 
 2814000   0.82502063   -2.5374008   -2.5374008   -1.8521066  0.039441027   -2.5374008   0.68529422  1252891 
 2815000   0.82552236   -2.5373017   -2.5373017   -1.8515907   0.03126451   -2.5373017   0.68571098  1252891 
 2816000   0.82388322   -2.5366698   -2.5366698   -1.8523203  0.045575086   -2.5366698   0.68434945  1252891 
 2817000   0.82551865   -2.5372793   -2.5372793   -1.8515714   0.03357508   -2.5372793    0.6857079  1252891 
 2818000   0.82331789   -2.5364368   -2.5364368   -1.8525569  0.039037301   -2.5364368   0.68387987  1252891 
 2819000   0.82463942   -2.5369961   -2.5369961   -1.8520185  0.038643435   -2.5369961   0.68497758  1252891 
 2820000   0.82339307   -2.5361402   -2.5361402   -1.8521979  0.038880125   -2.5361402   0.68394231  1252891 
 2821000   0.82382651   -2.5371463   -2.5371463    -1.852844  0.035009185   -2.5371463   0.68430234  1252891 
 2822000   0.82531919   -2.5378455   -2.5378455   -1.8523032  0.040831957   -2.5378455   0.68554222  1252891 
 2823000    0.8245865   -2.5374706   -2.5374706   -1.8525369   0.03728078   -2.5374706   0.68493362  1252891 
 2824000   0.82380478   -2.5370394   -2.5370394   -1.8527551  0.036562518   -2.5370394    0.6842843  1252891 
 2825000   0.82526414   -2.5375399   -2.5375399   -1.8520434  0.043450895   -2.5375399   0.68549649  1252891 
 2826000   0.82464479   -2.5374568   -2.5374568   -1.8524748  0.048806894   -2.5374568   0.68498204  1252891 
 2827000   0.82446889   -2.5372442   -2.5372442   -1.8524083  0.032914921   -2.5372442   0.68483593  1252891 
 2828000   0.82362314   -2.5362423   -2.5362423   -1.8521089  0.043395264   -2.5362423   0.68413342  1252891 
 2829000   0.82518022    -2.536819    -2.536819   -1.8513923  0.043196726    -2.536819   0.68542679  1252891 
 2830000   0.82537146   -2.5364956   -2.5364956   -1.8509099  0.037642111   -2.5364956   0.68558564  1252891 
 2831000   0.82360704   -2.5362979   -2.5362979   -1.8521779   0.03747725   -2.5362979   0.68412005  1252891 
 2832000   0.82561184   -2.5364184   -2.5364184   -1.8506331  0.035028346   -2.5364184   0.68578531  1252891 
 2833000    0.8236751    -2.535898    -2.535898   -1.8517214  0.030911323    -2.535898   0.68417657  1252891 
 2834000   0.82494869    -2.536793    -2.536793   -1.8515585  0.034194539    -2.536793   0.68523447  1252891 
 2835000   0.82538744   -2.5382256   -2.5382256   -1.8526267  0.024100974   -2.5382256   0.68559891  1252891 
 2836000   0.82479396   -2.5367516   -2.5367516   -1.8516456  0.040208135   -2.5367516   0.68510595  1252891 
 2837000   0.82476465    -2.537157    -2.537157   -1.8520754  0.036360571    -2.537157    0.6850816  1252891 
 2838000   0.82467328   -2.5371377   -2.5371377    -1.852132  0.043174767   -2.5371377    0.6850057  1252891 
 2839000   0.82407795   -2.5369334   -2.5369334   -1.8524222  0.042270045   -2.5369334    0.6845112  1252891 
 2840000    0.8252493   -2.5380677   -2.5380677   -1.8525835  0.035402389   -2.5380677   0.68548417  1252891 
 2841000   0.82429765   -2.5374173   -2.5374173   -1.8527236   0.03373257   -2.5374173   0.68469369  1252891 
 2842000   0.82443053   -2.5371801   -2.5371801   -1.8523761  0.042714996   -2.5371801   0.68480407  1252891 
 2843000   0.82400658   -2.5372625   -2.5372625   -1.8528105  0.044637216   -2.5372625   0.68445191  1252891 
 2844000   0.82398486   -2.5371066   -2.5371066   -1.8526727  0.041861349   -2.5371066   0.68443387  1252891 
 2845000   0.82519416   -2.5383408   -2.5383408   -1.8529024  0.037693341   -2.5383408   0.68543837  1252891 
 2846000   0.82390446   -2.5371765   -2.5371765   -1.8528094  0.037720764   -2.5371765   0.68436709  1252891 
 2847000   0.82503772   -2.5382469   -2.5382469   -1.8529385  0.045107158   -2.5382469   0.68530842  1252891 
 2848000   0.82512648   -2.5382049   -2.5382049   -1.8528227  0.036247627   -2.5382049   0.68538215  1252891 
 2849000   0.82440746    -2.538012    -2.538012   -1.8532271  0.034034132    -2.538012    0.6847849  1252891 
 2850000   0.82471654   -2.5380448   -2.5380448   -1.8530032  0.032653706   -2.5380448   0.68504164  1252891 
 2851000     0.823494   -2.5372363   -2.5372363   -1.8532102  0.033861515   -2.5372363   0.68402615  1252891 
 2852000   0.82494688   -2.5384452   -2.5384452   -1.8532122  0.039972124   -2.5384452   0.68523297  1252891 
 2853000   0.82491784   -2.5383151   -2.5383151   -1.8531062   0.04180927   -2.5383151   0.68520884  1252891 
 2854000   0.82453305   -2.5383047   -2.5383047   -1.8534155  0.039091382   -2.5383047   0.68488922  1252891 
 2855000   0.82402263   -2.5375621   -2.5375621   -1.8530968  0.044938916   -2.5375621   0.68446525  1252891 
 2856000   0.82551572    -2.538224    -2.538224   -1.8525185  0.038282629    -2.538224   0.68570547  1252891 
 2857000   0.82484224   -2.5376957   -2.5376957   -1.8525496  0.045815891   -2.5376957   0.68514605  1252891 
 2858000   0.82599157    -2.538452    -2.538452   -1.8523512  0.047710207    -2.538452   0.68610073  1252891 
 2859000     0.826016   -2.5386602   -2.5386602   -1.8525392  0.046493024   -2.5386602   0.68612102  1252891 
 2860000   0.82437431   -2.5378199   -2.5378199   -1.8530625  0.037404146   -2.5378199   0.68475737  1252891 
 2861000   0.82383466    -2.537494    -2.537494   -1.8531849  0.039301772    -2.537494   0.68430911  1252891 
 2862000   0.82385995   -2.5366811   -2.5366811    -1.852351  0.041582463   -2.5366811   0.68433012  1252891 
 2863000   0.82432791   -2.5376085   -2.5376085   -1.8528897  0.031567888   -2.5376085   0.68471883  1252891 
 2864000   0.82459149   -2.5384299   -2.5384299   -1.8534921  0.037392723   -2.5384299   0.68493777  1252891 
 2865000   0.82326494    -2.536801    -2.536801   -1.8529651  0.039449467    -2.536801   0.68383588  1252891 
 2866000   0.82351951   -2.5373166   -2.5373166   -1.8532693  0.037694649   -2.5373166   0.68404734  1252891 
 2867000   0.82489216   -2.5375244   -2.5375244   -1.8523369  0.028602632   -2.5375244   0.68518752  1252891 
 2868000   0.82453902   -2.5381655   -2.5381655   -1.8532713  0.035375667   -2.5381655   0.68489419  1252891 
 2869000   0.82433594   -2.5376155   -2.5376155     -1.85289   0.04040214   -2.5376155    0.6847255  1252891 
 2870000   0.82405687   -2.5380825   -2.5380825   -1.8535888  0.050194772   -2.5380825   0.68449369  1252891 
 2871000   0.82496308   -2.5384074   -2.5384074    -1.853161  0.035145549   -2.5384074   0.68524643  1252891 
 2872000   0.82382898   -2.5377158   -2.5377158   -1.8534114  0.036644168   -2.5377158   0.68430439  1252891 
 2873000   0.82383024   -2.5382373   -2.5382373   -1.8539319  0.034296977   -2.5382373   0.68430545  1252891 
 2874000   0.82417461    -2.538517    -2.538517   -1.8539255  0.027139881    -2.538517   0.68459149  1252891 
 2875000   0.82418637   -2.5385807   -2.5385807   -1.8539794  0.040632249   -2.5385807   0.68460126  1252891 
 2876000   0.82284054   -2.5385124   -2.5385124    -1.855029  0.035683049   -2.5385124   0.68348336  1252891 
 2877000   0.82391521   -2.5383583   -2.5383583   -1.8539822  0.048242114   -2.5383583   0.68437602  1252891 
 2878000   0.82546661   -2.5390097   -2.5390097   -1.8533451  0.040036545   -2.5390097   0.68566467  1252891 
 2879000   0.82551014   -2.5385952   -2.5385952   -1.8528943  0.046406936   -2.5385952   0.68570084  1252891 
 2880000   0.82538332   -2.5393682   -2.5393682   -1.8537727  0.044015904   -2.5393682   0.68559549  1252891 
 2881000    0.8236661   -2.5378361   -2.5378361    -1.853667  0.037567571   -2.5378361    0.6841691  1252891 
 2882000   0.82466221   -2.5384446   -2.5384446   -1.8534481  0.044185889   -2.5384446   0.68499651  1252891 
 2883000   0.82517889   -2.5385065   -2.5385065   -1.8530809   0.02939482   -2.5385065   0.68542568  1252891 
 2884000   0.82386574   -2.5378131   -2.5378131   -1.8534781  0.034057166   -2.5378131   0.68433493  1252891 
 2885000   0.82389509   -2.5382058   -2.5382058   -1.8538465  0.035955813   -2.5382058   0.68435931  1252891 
 2886000   0.82383611   -2.5370349   -2.5370349   -1.8527246  0.035382106   -2.5370349   0.68431032  1252891 
 2887000   0.82433057   -2.5382105   -2.5382105   -1.8534895  0.038615556   -2.5382105   0.68472103  1252891 
 2888000   0.82483142   -2.5386373   -2.5386373   -1.8535002  0.034806642   -2.5386373   0.68513706  1252891 
 2889000   0.82384532   -2.5381992   -2.5381992   -1.8538812  0.031702271   -2.5381992   0.68431797  1252891 
 2890000    0.8247459   -2.5388468   -2.5388468   -1.8537808  0.033749127   -2.5388468   0.68506603  1252891 
 2891000   0.82402982   -2.5380219   -2.5380219   -1.8535507  0.039461858   -2.5380219   0.68447122  1252891 
 2892000   0.82461815   -2.5387454   -2.5387454   -1.8537854  0.037063269   -2.5387454   0.68495991  1252891 
 2893000   0.82349181   -2.5389192   -2.5389192   -1.8548948  0.033876194   -2.5389192   0.68402433  1252891 
 2894000   0.82406182   -2.5390984   -2.5390984   -1.8546006  0.034685429   -2.5390984   0.68449781  1252891 
 2895000   0.82441619   -2.5383648   -2.5383648   -1.8535726  0.034722559   -2.5383648   0.68479216  1252891 
 2896000   0.82328015   -2.5388976   -2.5388976   -1.8550491  0.034466009   -2.5388976   0.68384852  1252891 
 2897000   0.82426453    -2.539164    -2.539164   -1.8544978  0.040316618    -2.539164   0.68466618  1252891 
 2898000   0.82454482   -2.5390635   -2.5390635   -1.8541645  0.045587068   -2.5390635     0.684899  1252891 
 2899000   0.82454709   -2.5398021   -2.5398021   -1.8549012  0.036142722   -2.5398021   0.68490089  1252891 
 2900000   0.82490146   -2.5395147   -2.5395147   -1.8543194  0.038269292   -2.5395147   0.68519524  1252891 
 2901000   0.82432994   -2.5397046   -2.5397046   -1.8549841  0.040174176   -2.5397046   0.68472051  1252891 
 2902000   0.82352109   -2.5394497   -2.5394497   -1.8554011  0.041096773   -2.5394497   0.68404865  1252891 
 2903000   0.82512573   -2.5391059   -2.5391059   -1.8537243  0.048042177   -2.5391059   0.68538153  1252891 
 2904000    0.8240257   -2.5389276   -2.5389276   -1.8544598  0.041246284   -2.5389276    0.6844678  1252891 
 2905000   0.82331298    -2.538275    -2.538275   -1.8543992  0.048783424    -2.538275   0.68387579  1252891 
 2906000   0.82346916   -2.5386331   -2.5386331   -1.8546276   0.04115862   -2.5386331   0.68400551  1252891 
 2907000   0.82479754   -2.5387606   -2.5387606   -1.8536517  0.030600099   -2.5387606   0.68510892  1252891 
 2908000   0.82541591    -2.539448    -2.539448   -1.8538255  0.042042841    -2.539448   0.68562256  1252891 
 2909000   0.82413546   -2.5386849   -2.5386849   -1.8541259  0.035669406   -2.5386849   0.68455897  1252891 
 2910000   0.82310202   -2.5381426   -2.5381426   -1.8544421  0.039189538   -2.5381426   0.68370055  1252891 
 2911000   0.82460259   -2.5385428   -2.5385428   -1.8535958  0.025680268   -2.5385428   0.68494699  1252891 
 2912000   0.82520011   -2.5390914   -2.5390914   -1.8536481  0.033352532   -2.5390914   0.68544331  1252891 
 2913000   0.82454819   -2.5394166   -2.5394166   -1.8545148  0.033628242   -2.5394166    0.6849018  1252891 
 2914000   0.82554344   -2.5389718   -2.5389718   -1.8532433  0.035865421   -2.5389718   0.68572849  1252891 
 2915000   0.82586863   -2.5396923   -2.5396923   -1.8536937  0.034434068   -2.5396923   0.68599861  1252891 
 2916000    0.8242415   -2.5383937   -2.5383937   -1.8537467   0.03577541   -2.5383937   0.68464705  1252891 
 2917000   0.82267943    -2.537913    -2.537913   -1.8545635  0.046629795    -2.537913   0.68334954  1252891 
 2918000   0.82375618   -2.5390683   -2.5390683   -1.8548244  0.039873146   -2.5390683   0.68424392  1252891 
 2919000   0.82376311   -2.5381563   -2.5381563   -1.8539067  0.039047064   -2.5381563   0.68424968  1252891 
 2920000   0.82386979   -2.5385411   -2.5385411   -1.8542028   0.03556973   -2.5385411   0.68433829  1252891 
 2921000   0.82507199   -2.5394218   -2.5394218   -1.8540849  0.040346407   -2.5394218   0.68533689  1252891 
 2922000   0.82494134   -2.5393544   -2.5393544    -1.854126  0.038114791   -2.5393544   0.68522836  1252891 
 2923000   0.82544916   -2.5402289   -2.5402289   -1.8545787  0.037084726   -2.5402289   0.68565018  1252891 
 2924000   0.82478493   -2.5388152   -2.5388152   -1.8537168   0.03829788   -2.5388152   0.68509844  1252891 
 2925000   0.82450762   -2.5390244   -2.5390244   -1.8541563  0.042313808   -2.5390244    0.6848681  1252891 
 2926000   0.82630081   -2.5400501   -2.5400501   -1.8536925  0.043931666   -2.5400501   0.68635759  1252891 
 2927000   0.82392013   -2.5390667   -2.5390667   -1.8546866  0.044412188   -2.5390667   0.68438011  1252891 
 2928000    0.8250336   -2.5400555   -2.5400555   -1.8547505  0.033169343   -2.5400555     0.685305  1252891 
 2929000   0.82469841   -2.5390947   -2.5390947   -1.8540682  0.040832693   -2.5390947   0.68502658  1252891 
 2930000   0.82534716   -2.5400341   -2.5400341   -1.8544687   0.05241469   -2.5400341   0.68556545  1252891 
 2931000   0.82505683   -2.5396043   -2.5396043     -1.85428  0.037096098   -2.5396043   0.68532429  1252891 
 2932000   0.82504661   -2.5391385   -2.5391385   -1.8538227   0.03494313   -2.5391385   0.68531581  1252891 
 2933000   0.82450506    -2.539076    -2.539076   -1.8542101  0.034337051    -2.539076   0.68486597  1252891 
 2934000   0.82301069   -2.5379147   -2.5379147     -1.85429   0.03911479   -2.5379147   0.68362469  1252891 
 2935000   0.82343013   -2.5375701   -2.5375701    -1.853597  0.044381554   -2.5375701   0.68397309  1252891 
 2936000    0.8237799   -2.5384469   -2.5384469   -1.8541833    0.0329463   -2.5384469   0.68426363  1252891 
 2937000    0.8236255   -2.5384063   -2.5384063   -1.8542709  0.037733458   -2.5384063   0.68413537  1252891 
 2938000   0.82498759   -2.5384349   -2.5384349   -1.8531681  0.042137818   -2.5384349   0.68526678  1252891 
 2939000   0.82547685   -2.5387603   -2.5387603   -1.8530871  0.043822117   -2.5387603   0.68567318  1252891 
 2940000   0.82412125   -2.5386818   -2.5386818   -1.8541346  0.034266175   -2.5386818   0.68454717  1252891 
 2941000   0.82339113   -2.5389046   -2.5389046   -1.8549639  0.028212108   -2.5389046    0.6839407  1252891 
 2942000   0.82383144   -2.5381806   -2.5381806   -1.8538741  0.034992398   -2.5381806   0.68430644  1252891 
 2943000    0.8252078   -2.5401657   -2.5401657    -1.854716  0.036815298   -2.5401657    0.6854497  1252891 
 2944000   0.82408101   -2.5385559   -2.5385559   -1.8540421  0.037202027   -2.5385559   0.68451374  1252891 
 2945000   0.82514611   -2.5404063   -2.5404063   -1.8550079  0.040141256   -2.5404063   0.68539846  1252891 
 2946000   0.82559688   -2.5404448   -2.5404448   -1.8546719  0.032041385   -2.5404448   0.68577288  1252891 
 2947000   0.82534865   -2.5402375   -2.5402375   -1.8546708  0.027233899   -2.5402375    0.6855667  1252891 
 2948000   0.82455478   -2.5395744   -2.5395744   -1.8546671  0.031745134   -2.5395744   0.68490727  1252891 
 2949000   0.82357449   -2.5390076   -2.5390076   -1.8549146  0.038671077   -2.5390076     0.684093  1252891 
 2950000   0.82383071   -2.5387644   -2.5387644   -1.8544585  0.035013464   -2.5387644   0.68430583  1252891 
 2951000   0.82383868   -2.5399674   -2.5399674   -1.8556549  0.027018879   -2.5399674   0.68431245  1252891 
 2952000   0.82330475   -2.5393272   -2.5393272   -1.8554583  0.047306792   -2.5393272   0.68386895  1252891 
 2953000   0.82407412   -2.5392054   -2.5392054   -1.8546974  0.039015239   -2.5392054   0.68450802  1252891 
 2954000   0.82356373   -2.5384384   -2.5384384   -1.8543544  0.044466119   -2.5384384   0.68408407  1252891 
 2955000     0.823669   -2.5392409   -2.5392409   -1.8550693  0.035533948   -2.5392409   0.68417151  1252891 
 2956000   0.82428266   -2.5393193   -2.5393193   -1.8546381  0.041879324   -2.5393193   0.68468124  1252891 
 2957000   0.82451343   -2.5398924   -2.5398924   -1.8550195  0.036093923   -2.5398924   0.68487293  1252891 
 2958000   0.82424343   -2.5394861   -2.5394861   -1.8548374  0.030699655   -2.5394861   0.68464865  1252891 
 2959000   0.82444918   -2.5391962   -2.5391962   -1.8543766   0.02887421   -2.5391962   0.68481956  1252891 
 2960000   0.82467333   -2.5397318   -2.5397318   -1.8547261  0.036176432   -2.5397318   0.68500575  1252891 
 2961000   0.82378618   -2.5395203   -2.5395203   -1.8552514  0.036772179   -2.5395203   0.68426885  1252891 
 2962000   0.82372618   -2.5391073   -2.5391073   -1.8548883   0.02390019   -2.5391073     0.684219  1252891 
 2963000   0.82352735   -2.5392997   -2.5392997   -1.8552459  0.035275129   -2.5392997   0.68405385  1252891 
 2964000   0.82408302   -2.5399785   -2.5399785   -1.8554631  0.041810394   -2.5399785   0.68451542  1252891 
 2965000   0.82547251   -2.5407633   -2.5407633   -1.8550937  0.029194801   -2.5407633   0.68566957  1252891 
 2966000   0.82503003   -2.5404921   -2.5404921     -1.85519  0.040624108   -2.5404921   0.68530203  1252891 
 2967000   0.82456913   -2.5408393   -2.5408393   -1.8559201  0.036473423   -2.5408393    0.6849192  1252891 
 2968000   0.82534777   -2.5416681   -2.5416681   -1.8561021  0.035483429   -2.5416681   0.68556596  1252891 
 2969000   0.82453526   -2.5405374   -2.5405374   -1.8556463   0.04281709   -2.5405374   0.68489106  1252891 
 2970000   0.82488631   -2.5408681   -2.5408681   -1.8556855  0.042863201   -2.5408681   0.68518265  1252891 
 2971000   0.82514507   -2.5415478   -2.5415478   -1.8561502  0.038323258   -2.5415478   0.68539759  1252891 
 2972000   0.82470935   -2.5406769   -2.5406769   -1.8556412  0.039453401   -2.5406769   0.68503567  1252891 
 2973000   0.82587242    -2.540961    -2.540961   -1.8549592  0.031404457    -2.540961   0.68600175  1252891 
 2974000   0.82356811   -2.5398438   -2.5398438   -1.8557561  0.040635177   -2.5398438   0.68408771  1252891 
 2975000   0.82407575   -2.5399888   -2.5399888   -1.8554794  0.042361316   -2.5399888   0.68450937  1252891 
 2976000   0.82447973    -2.540073    -2.540073    -1.855228  0.026422651    -2.540073   0.68484494  1252891 
 2977000   0.82378902   -2.5399143   -2.5399143   -1.8556431  0.043862273   -2.5399143   0.68427121  1252891 
 2978000    0.8248847    -2.540467    -2.540467   -1.8552857  0.043678917    -2.540467   0.68518132  1252891 
 2979000    0.8244311   -2.5400174   -2.5400174   -1.8552129  0.044621076   -2.5400174   0.68480454  1252891 
 2980000   0.82454687   -2.5407745   -2.5407745   -1.8558738   0.04268956   -2.5407745    0.6849007  1252891 
 2981000    0.8245811   -2.5403338   -2.5403338   -1.8554047  0.038430305   -2.5403338   0.68492914  1252891 
 2982000   0.82511458   -2.5403423   -2.5403423     -1.85497  0.040632198   -2.5403423   0.68537227  1252891 
 2983000   0.82378287   -2.5400516   -2.5400516   -1.8557855  0.039294999   -2.5400516   0.68426609  1252891 
 2984000   0.82462496   -2.5399998   -2.5399998   -1.8550343  0.040077795   -2.5399998   0.68496557  1252891 
 2985000   0.82460375   -2.5405133   -2.5405133   -1.8555654  0.049409945   -2.5405133   0.68494795  1252891 
 2986000   0.82361642   -2.5400368   -2.5400368    -1.855909  0.038849988   -2.5400368   0.68412784  1252891 
 2987000   0.82363107   -2.5401991   -2.5401991   -1.8560591  0.033547864   -2.5401991      0.68414  1252891 
 2988000    0.8259094   -2.5417991   -2.5417991   -1.8557666  0.042188156   -2.5417991   0.68603247  1252891 
 2989000   0.82326374   -2.5404301   -2.5404301   -1.8565952  0.033675138   -2.5404301   0.68383488  1252891 
 2990000   0.82374878   -2.5400816   -2.5400816   -1.8558438  0.040291808   -2.5400816   0.68423778  1252891 
 2991000   0.82428349   -2.5402793   -2.5402793   -1.8555974  0.040573704   -2.5402793   0.68468193  1252891 
 2992000   0.82514634   -2.5396604   -2.5396604   -1.8542618  0.042071389   -2.5396604   0.68539865  1252891 
 2993000    0.8245148   -2.5402698   -2.5402698   -1.8553957  0.034236453   -2.5402698   0.68487406  1252891 
 2994000   0.82383601   -2.5401488   -2.5401488   -1.8558385  0.042897983   -2.5401488   0.68431023  1252891 
 2995000   0.82421126   -2.5404679   -2.5404679   -1.8558459   0.04180183   -2.5404679   0.68462193  1252891 
 2996000   0.82478659   -2.5408323   -2.5408323   -1.8557325  0.032444675   -2.5408323   0.68509982  1252891 
 2997000   0.82460068   -2.5408988   -2.5408988   -1.8559534  0.030605479   -2.5408988    0.6849454  1252891 
 2998000    0.8232659    -2.539626    -2.539626   -1.8557893  0.039746332    -2.539626   0.68383668  1252891 
 2999000    0.8238978   -2.5404918   -2.5404918   -1.8561303  0.033331239   -2.5404918   0.68436156  1252891 
 3000000   0.82454333   -2.5404497   -2.5404497    -1.855552  0.046457779   -2.5404497   0.68489776  1252891 
Loop time of 14697.2 on 240 procs for 3000000 steps with 1252891 atoms

Performance: 88179.831 tau/day, 204.120 timesteps/s
96.5% CPU use with 240 MPI tasks x 1 OpenMP threads

MPI task timing breakdown:
Section |  min time  |  avg time  |  max time  |%varavg|  %CPU | %total
-----------------------------------------------------------------------
Pair    | 3225.3     | 3860.4     | 4651.5     | 432.2 |  98.3 | 26.27
Bond    | 2.179      | 2.3648     | 2.7663     |   5.8 | 100.0 |  0.02
Neigh   | 2160.2     | 4492.5     | 5469.4     | 900.6 |  99.5 | 30.57
Comm    | 3044       | 4253.6     | 7014.1     |1079.1 |  94.0 | 28.94
Output  | 129.47     | 130.16     | 130.17     |   0.4 |  89.2 |  0.89
Modify  | 1358.1     | 1761       | 2398.5     | 510.3 |  94.2 | 11.98
Other   |            | 197.2      |            |       |       |  1.34

Nlocal:        5220.38 ave        6098 max        4385 min
Histogram: 3 8 18 37 54 64 40 10 5 1
Nghost:        12370.3 ave       15083 max        6303 min
Histogram: 10 20 10 0 0 8 25 58 75 34
Neighs:        121953.0 ave      161969 max       86765 min
Histogram: 1 2 8 56 125 27 1 0 6 14

Total # of neighbors = 29268768
Ave neighs/atom = 23.360985
Ave special neighs/atom = 0.0000000
Neighbor list builds = 300000
Dangerous builds = 297000
Total wall time: 4:05:03
