LAMMPS (29 Oct 2020)
  using 1 OpenMP thread(s) per MPI task
# Simple rigid body system
# needed variables:

#variable	startTemp equal 0.5
#variable 	temp 	  equal 0.8

units		lj
atom_style	full
dimension 	3
boundary	p p f
pair_style	lj/cut/opt 2.5


variable 	sigma		equal 1.0
variable 	epsilon 	equal 1.0

region		box block 0 100 0 100 0 200
create_box 	3 box
Created orthogonal box = (0.0000000 0.0000000 0.0000000) to (100.00000 100.00000 200.00000)
  4 by 5 by 12 MPI processor grid
lattice 	sc 1.0
Lattice spacing in x,y,z = 1.0000000 1.0000000 1.0000000

region		create block EDGE EDGE EDGE EDGE 2 102
create_atoms 	1 region create
Created 1010000 atoms
  create_atoms CPU = 0.245 seconds

mass		1 1.0
mass		2 1.0
mass		3 1.0

group		solvent type 1
1010000 atoms in group solvent

velocity 	solvent create ${startTemp} 563435 loop geom
velocity 	solvent create 0.8 563435 loop geom


neighbor 	0.4 bin

pair_coeff	1 1 1.0 1.0
pair_coeff	2 2 0.0 0.0
pair_coeff	3 3 0.0 0.0
pair_coeff	2 3 0.0 0.0
pair_coeff	1 2*3 0.0 0.0

pair_modify 	shift yes


balance 	1.05 shift z 10 1.05
Balancing ...
Neighbor list info ...
  update every 1 steps, delay 10 steps, check yes
  max neighbors/atom: 2000, page size: 100000
  master list distance cutoff = 2.9
  ghost atom cutoff = 2.9
  binsize = 1.45, bins = 69 69 138
  1 neighbor lists, perpetual/occasional/extra = 1 0 0
  (1) pair lj/cut/opt, perpetual
      attributes: half, newton on
      pair build: half/bin/newton
      stencil: half/bin/3d/newton
      bin: standard
 rebalancing time: 0.876 seconds
  iteration count = 5
  initial/final maximal load/proc = 8925.0000 5775.0000
  initial/final imbalance factor  = 2.1207921 1.3722772
  x cuts: 0.0000000 0.25 0.5 0.75 1.0000000
  y cuts: 0.0000000 0.2 0.4 0.6 0.8 1.0000000
  z cuts: 0.0000000 0.049479167 0.091145833 0.13020833 0.171875 0.22135417 0.2578125 0.30208333 0.34375 0.37239583 0.4296875 0.46354167 1.0000000


####################### WALLS ###########################


variable       epsilonWall equal 2*${epsilon}
variable       epsilonWall equal 2*1

variable       cutoffTop   equal   0.7147*${sigma}
variable       cutoffTop   equal   0.7147*1

variable       cutoffLow   equal   3*${sigma}
variable       cutoffLow   equal   3*1


fix            topWall all wall/lj93 zhi EDGE                ${epsilonWall} ${sigma} ${cutoffTop} units box
fix            topWall all wall/lj93 zhi EDGE                2 ${sigma} ${cutoffTop} units box
fix            topWall all wall/lj93 zhi EDGE                2 1 ${cutoffTop} units box
fix            topWall all wall/lj93 zhi EDGE                2 1 0.7147 units box

fix            lowWall all wall/lj93 zlo EDGE                ${epsilonWall} ${sigma} ${cutoffLow} units box
fix            lowWall all wall/lj93 zlo EDGE                2 ${sigma} ${cutoffLow} units box
fix            lowWall all wall/lj93 zlo EDGE                2 1 ${cutoffLow} units box
fix            lowWall all wall/lj93 zlo EDGE                2 1 3 units box


###################### COMPUTES ##########################

compute        bin1 solvent chunk/atom bin/1d z upper 1.0


######################	FIXES ############################


fix 		peclet solvent ave/chunk 1000 1 1000 bin1 density/number norm 		 none ave one file density.profile

fix 		 temp solvent ave/chunk 1000 1 1000 bin1 temp norm 		 none ave one file temp.profile

fix 		2 solvent nve


## Thermostat


region		regthermo block EDGE EDGE EDGE EDGE 0 20

group 		thermo dynamic solvent region regthermo every 1000
dynamic group thermo defined

fix 		3 thermo langevin ${startTemp} ${temp} 10 156453
fix 		3 thermo langevin 0.8 ${temp} 10 156453
fix 		3 thermo langevin 0.8 .9 10 156453



#### Load balancing


fix 		bal all balance 1000 1.05 shift z 10 1.05


############### Diagnostics and computes ###################
#compute 	com cube	  rigid/local	1 mol x y z
#compute 	quat cube	  rigid/local	1 mol quatw quati quatj quatk

thermo 		1000
thermo_style 	custom step temp epair evdwl etotal press pe ke atoms

dump		1 all custom 100000 dump.lammpstrj id mol type x y z
dump 		2 all image 10000 image.*.png type type
dump 		3 all movie 1000 movie.avi type type

#dump 		com cube local 1000 dump.*.xyz c_com[*]
#dump		quat cube      local 1000 dump.*.quat c_quat[*]


restart 	2000000 restart.dat
timestep 	0.0025
timer 		full
New timer settings: style=full  mode=nosync  timeout=off

run		6000000
Per MPI rank memory allocation (min/avg/max) = 9.581 | 9.852 | 10.35 Mbytes
Step Temp E_pair E_vdwl TotEng Press PotEng KinEng Atoms 
       0          0.8   -3.3050748   -3.3050748    -2.105076    8.8982699   -3.3050748    1.1999988  1010000 
    1000    1.5928041   -4.5797412   -4.5797412   -2.1905374    5.1717748   -4.5797412    2.3892038  1010000 
    2000     1.597006    -4.680809    -4.680809   -2.2853024    3.9533162    -4.680809    2.3955066  1010000 
    3000      1.55721   -4.7059024   -4.7059024   -2.3700898    3.0030176   -4.7059024    2.3358126  1010000 
    4000    1.5379054   -4.7451928   -4.7451928    -2.438337      2.04636   -4.7451928    2.3068558  1010000 
    5000    1.5207446   -4.7584291   -4.7584291   -2.4773144    1.1570468   -4.7584291    2.2811147  1010000 
    6000     1.474526   -4.6997999   -4.6997999   -2.4880131   0.51066651   -4.6997999    2.2117868  1010000 
    7000    1.4118014   -4.5975123   -4.5975123   -2.4798123   0.11924663   -4.5975123       2.1177  1010000 
    8000    1.3524821   -4.4928458   -4.4928458   -2.4641246 -0.083375437   -4.4928458    2.0287212  1010000 
    9000    1.3131095   -4.4151581   -4.4151581   -2.4454958  -0.12473758   -4.4151581    1.9696623  1010000 
   10000     1.305895   -4.3865654   -4.3865654   -2.4277248 -0.039157528   -4.3865654    1.9588406  1010000 
   11000    1.3122803   -4.3820488   -4.3820488   -2.4136303   0.05874891   -4.3820488    1.9684185  1010000 
   12000    1.3181159   -4.3799886   -4.3799886   -2.4028166   0.10398223   -4.3799886     1.977172  1010000 
   13000    1.3200932   -4.3754808   -4.3754808    -2.395343   0.12623438   -4.3754808    1.9801378  1010000 
   14000    1.3209217   -4.3712497   -4.3712497   -2.3898692   0.15495425   -4.3712497    1.9813806  1010000 
   15000    1.3218001   -4.3685483   -4.3685483   -2.3858501    0.1732225   -4.3685483    1.9826982  1010000 
   16000    1.3246723    -4.369889    -4.369889   -2.3828825   0.19565952    -4.369889    1.9870065  1010000 
   17000    1.3276595   -4.3717105   -4.3717105   -2.3802233   0.21495585   -4.3717105    1.9914872  1010000 
   18000    1.3316935      -4.3758      -4.3758   -2.3782618   0.24299712      -4.3758    1.9975382  1010000 
   19000    1.3342634   -4.3779872   -4.3779872   -2.3765941   0.26186749   -4.3779872    2.0013931  1010000 
   20000    1.3355027   -4.3785678   -4.3785678   -2.3753157   0.28188757   -4.3785678     2.003252  1010000 
   21000    1.3352009    -4.377435    -4.377435   -2.3746356   0.29833899    -4.377435    2.0027994  1010000 
   22000    1.3352717   -4.3767462   -4.3767462   -2.3738406   0.30242313   -4.3767462    2.0029056  1010000 
   23000    1.3350666   -4.3778116   -4.3778116   -2.3752137    0.4466364   -4.3778116    2.0025979  1010000 
   24000     1.326373    -4.364332    -4.364332   -2.3747744    1.0539289    -4.364332    1.9895576  1010000 
   25000    1.3198545   -4.3542548   -4.3542548    -2.374475     1.702888   -4.3542548    1.9797798  1010000 
   26000    1.3186882   -4.3524948   -4.3524948   -2.3744644     2.319341   -4.3524948    1.9780304  1010000 
   27000    1.3244744   -4.3614586   -4.3614586    -2.374749    2.6416841   -4.3614586    1.9867096  1010000 
   28000    1.3319438   -4.3725202   -4.3725202   -2.3746065    2.2806484   -4.3725202    1.9979137  1010000 
   29000    1.3312733   -4.3706546   -4.3706546   -2.3737466     1.836873   -4.3706546     1.996908  1010000 
   30000     1.323147   -4.3576133   -4.3576133   -2.3728947    1.4454508   -4.3576133    1.9847186  1010000 
   31000    1.2976152   -4.3185352   -4.3185352   -2.3721143    1.0870316   -4.3185352    1.9464208  1010000 
   32000    1.2563115   -4.2567252   -4.2567252   -2.3722597    0.7955652   -4.2567252    1.8844654  1010000 
   33000    1.2098832   -4.1879948   -4.1879948   -2.3731719   0.53738079   -4.1879948     1.814823  1010000 
   34000    1.1617145   -4.1166911   -4.1166911    -2.374121   0.32492524   -4.1166911    1.7425701  1010000 
   35000    1.1147935   -4.0463271   -4.0463271   -2.3741385   0.17582976   -4.0463271    1.6721887  1010000 
   36000    1.0741441   -3.9859568   -3.9859568   -2.3747422  0.085882368   -3.9859568    1.6112146  1010000 
   37000    1.0436928   -3.9409597   -3.9409597    -2.375422  0.041635708   -3.9409597    1.5655377  1010000 
   38000    1.0254279   -3.9146676   -3.9146676   -2.3765272  0.035926378   -3.9146676    1.5381404  1010000 
   39000    1.0178079   -3.9035979   -3.9035979   -2.3768875  0.039968365   -3.9035979    1.5267104  1010000 
   40000    1.0160104   -3.9014412   -3.9014412   -2.3774271  0.054460378   -3.9014412    1.5240141  1010000 
   41000     1.017013   -3.9032283   -3.9032283   -2.3777104  0.077651262   -3.9032283    1.5255179  1010000 
   42000    1.0203625   -3.9090801   -3.9090801   -2.3785379   0.10512421   -3.9090801    1.5305422  1010000 
   43000    1.0221423   -3.9124424   -3.9124424   -2.3792304    0.1290309   -3.9124424     1.533212  1010000 
   44000    1.0235182   -3.9151642   -3.9151642   -2.3798884   0.15651466   -3.9151642    1.5352758  1010000 
   45000      1.02243   -3.9147436   -3.9147436   -2.3811001   0.17105493   -3.9147436    1.5336435  1010000 
   46000    1.0196079   -3.9112133   -3.9112133   -2.3818029   0.17741863   -3.9112133    1.5294103  1010000 
   47000    1.0145733   -3.9045727   -3.9045727   -2.3827142   0.17514544   -3.9045727    1.5218584  1010000 
   48000    1.0109981   -3.9014233   -3.9014233   -2.3849277   0.17160608   -3.9014233    1.5164956  1010000 
   49000     1.007551    -3.898678    -3.898678    -2.387353   0.16095638    -3.898678     1.511325  1010000 
   50000     1.004335   -3.8968726   -3.8968726   -2.3903717   0.16669071   -3.8968726     1.506501  1010000 
   51000    1.0034615   -3.8987118   -3.8987118   -2.3935211   0.17315698   -3.8987118    1.5051908  1010000 
   52000    1.0014054   -3.8991609   -3.8991609   -2.3970543   0.17065573   -3.8991609    1.5021066  1010000 
   53000   0.99897452   -3.8999525   -3.8999525   -2.4014922   0.16093363   -3.8999525    1.4984603  1010000 
   54000   0.99642401   -3.9029374   -3.9029374   -2.4083029   0.14466674   -3.9029374    1.4946345  1010000 
   55000   0.99122656   -3.9037162   -3.9037162   -2.4168779   0.13996085   -3.9037162    1.4868384  1010000 
   56000    0.9881345   -3.9101898   -3.9101898   -2.4279895   0.12349387   -3.9101898    1.4822003  1010000 
   57000   0.98205718   -3.9154947   -3.9154947   -2.4424104   0.12038581   -3.9154947    1.4730843  1010000 
   58000   0.97628043   -3.9232617   -3.9232617   -2.4588425   0.11443707   -3.9232617    1.4644192  1010000 
   59000    0.9705572   -3.9306952   -3.9306952   -2.4748609   0.11426781   -3.9306952    1.4558344  1010000 
   60000   0.96322717   -3.9347566   -3.9347566   -2.4899173   0.10437567   -3.9347566    1.4448393  1010000 
   61000    0.9586882   -3.9400161   -3.9400161   -2.5019852  0.092486075   -3.9400161    1.4380309  1010000 
   62000   0.95474363   -3.9439734   -3.9439734   -2.5118594  0.089919099   -3.9439734     1.432114  1010000 
   63000    0.9538051   -3.9509465   -3.9509465   -2.5202403  0.089395799   -3.9509465    1.4307062  1010000 
   64000   0.95603971   -3.9604225   -3.9604225   -2.5263644  0.093026236   -3.9604225    1.4340581  1010000 
   65000   0.95824156   -3.9692692   -3.9692692   -2.5319082   0.10738348   -3.9692692    1.4373609  1010000 
   66000   0.96415789   -3.9826495   -3.9826495   -2.5364141   0.11838815   -3.9826495    1.4462354  1010000 
   67000   0.96951009   -3.9947789   -3.9947789   -2.5405152   0.14386409   -3.9947789    1.4542637  1010000 
   68000   0.97713563   -4.0100472   -4.0100472   -2.5443452   0.16858321   -4.0100472     1.465702  1010000 
   69000    0.9846893   -4.0253491   -4.0253491   -2.5483166    0.2008947   -4.0253491    1.4770325  1010000 
   70000   0.99077549   -4.0383514   -4.0383514   -2.5521896   0.23316973   -4.0383514    1.4861618  1010000 
   71000   0.99651286   -4.0507288   -4.0507288    -2.555961   0.25867484   -4.0507288    1.4947678  1010000 
   72000     1.002517   -4.0624099   -4.0624099   -2.5586358   0.28789723   -4.0624099     1.503774  1010000 
   73000    1.0074141   -4.0739051   -4.0739051   -2.5627853   0.32221608   -4.0739051    1.5111197  1010000 
   74000    1.0141717   -4.0885625   -4.0885625   -2.5673063   0.34837504   -4.0885625    1.5212561  1010000 
   75000    1.0198149   -4.1021333   -4.1021333   -2.5724124   0.37700552   -4.1021333    1.5297208  1010000 
   76000    1.0234218   -4.1136937   -4.1136937   -2.5785625   0.40684856   -4.1136937    1.5351312  1010000 
   77000    1.0251566   -4.1231351   -4.1231351   -2.5854016   0.42719546   -4.1231351    1.5377334  1010000 
   78000    1.0267286   -4.1334925   -4.1334925   -2.5934012   0.44508081   -4.1334925    1.5400913  1010000 
   79000    1.0258121   -4.1418325   -4.1418325   -2.6031159   0.46575351   -4.1418325    1.5387166  1010000 
   80000    1.0245898   -4.1502161   -4.1502161   -2.6133329   0.48280726   -4.1502161    1.5368832  1010000 
   81000    1.0228812   -4.1587197   -4.1587197   -2.6243995   0.49112514   -4.1587197    1.5343202  1010000 
   82000    1.0189015   -4.1638731   -4.1638731   -2.6355224   0.49455344   -4.1638731    1.5283507  1010000 
   83000    1.0159807   -4.1703186   -4.1703186   -2.6463491   0.49116249   -4.1703186    1.5239696  1010000 
   84000    1.0115503   -4.1731951   -4.1731951   -2.6558711    0.4859294   -4.1731951     1.517324  1010000 
   85000    1.0075965   -4.1760938   -4.1760938   -2.6647005   0.47434609   -4.1760938    1.5113933  1010000 
   86000    1.0044702   -4.1787509   -4.1787509    -2.672047   0.46183996   -4.1787509    1.5067039  1010000 
   87000    1.0017798    -4.180859    -4.180859   -2.6781907   0.44443719    -4.180859    1.5026683  1010000 
   88000   0.99716738   -4.1782716   -4.1782716    -2.682522   0.43012108   -4.1782716    1.4957496  1010000 
   89000   0.99259702   -4.1746989   -4.1746989   -2.6858048   0.41426859   -4.1746989    1.4888941  1010000 
   90000   0.98672681   -4.1684429   -4.1684429   -2.6883542    0.3941293   -4.1684429    1.4800887  1010000 
   91000   0.98120866   -4.1614885   -4.1614885    -2.689677   0.35983803   -4.1614885    1.4718115  1010000 
   92000    0.9734165   -4.1510768   -4.1510768   -2.6909535   0.32434322   -4.1510768    1.4601233  1010000 
   93000   0.96388686   -4.1370126   -4.1370126   -2.6911837   0.28502143   -4.1370126    1.4458289  1010000 
   94000   0.95315868   -4.1215156   -4.1215156    -2.691779   0.24154289   -4.1215156    1.4297366  1010000 
   95000   0.94190901   -4.1041175   -4.1041175   -2.6912554    0.2027845   -4.1041175    1.4128621  1010000 
   96000   0.93229191   -4.0896126   -4.0896126   -2.6911761   0.15412298   -4.0896126    1.3984365  1010000 
   97000   0.92137778   -4.0722371   -4.0722371   -2.6901718   0.11626182   -4.0722371    1.3820653  1010000 
   98000   0.91226769   -4.0573936   -4.0573936   -2.6889934   0.08385881   -4.0573936    1.3684002  1010000 
   99000   0.90346924   -4.0431011   -4.0431011   -2.6878986   0.05255575   -4.0431011    1.3552025  1010000 
  100000   0.89537294   -4.0298095   -4.0298095   -2.6867514  0.029299369   -4.0298095    1.3430581  1010000 
  101000   0.88979764   -4.0195115   -4.0195115   -2.6848164  0.010988239   -4.0195115    1.3346951  1010000 
  102000   0.88340986   -4.0082254   -4.0082254   -2.6831119 -0.0061523162   -4.0082254    1.3251135  1010000 
  103000   0.87944205   -3.9993793   -3.9993793   -2.6802175 -0.015448619   -3.9993793    1.3191618  1010000 
  104000   0.87495445   -3.9895541   -3.9895541   -2.6771237 -0.020792402   -3.9895541    1.3124304  1010000 
  105000   0.87281103   -3.9836546   -3.9836546   -2.6744394 -0.027906697   -3.9836546    1.3092152  1010000 
  106000   0.87025834   -3.9770916   -3.9770916   -2.6717054 -0.024646723   -3.9770916    1.3053862  1010000 
  107000   0.87031252   -3.9741045   -3.9741045    -2.668637 -0.034196641   -3.9741045    1.3054675  1010000 
  108000   0.86914928   -3.9698152   -3.9698152   -2.6660926 -0.027428091   -3.9698152    1.3037226  1010000 
  109000   0.87003381    -3.968736    -3.968736   -2.6636865 -0.028243821    -3.968736    1.3050494  1010000 
  110000   0.87037718   -3.9667712   -3.9667712   -2.6612067 -0.028411276   -3.9667712    1.3055645  1010000 
  111000   0.87070641   -3.9649367   -3.9649367   -2.6588784 -0.023289814   -3.9649367    1.3060583  1010000 
  112000   0.87306818   -3.9668143   -3.9668143   -2.6572133 -0.019806144   -3.9668143     1.309601  1010000 
  113000   0.87406141   -3.9664299   -3.9664299   -2.6553391 -0.015066813   -3.9664299    1.3110908  1010000 
  114000   0.87655016   -3.9685724   -3.9685724   -2.6537485 -0.0058471775   -3.9685724    1.3148239  1010000 
  115000   0.87893913   -3.9710723   -3.9710723    -2.652665 0.0014823522   -3.9710723    1.3184074  1010000 
  116000   0.87964775   -3.9716719   -3.9716719   -2.6522016   0.01083041   -3.9716719    1.3194703  1010000 
  117000   0.88162096    -3.975332    -3.975332   -2.6529019 0.0088087159    -3.975332    1.3224301  1010000 
  118000   0.88219931   -3.9772237   -3.9772237   -2.6539261  0.019622257   -3.9772237    1.3232977  1010000 
  119000   0.88356333    -3.980284    -3.980284   -2.6549403  0.017638965    -3.980284    1.3253437  1010000 
  120000   0.88446343   -3.9827655   -3.9827655   -2.6560717  0.019446625   -3.9827655    1.3266938  1010000 
  121000    0.8848911    -3.984634    -3.984634   -2.6572987  0.026404813    -3.984634    1.3273353  1010000 
  122000   0.88449752   -3.9855951   -3.9855951   -2.6588502  0.021866076   -3.9855951     1.326745  1010000 
  123000   0.88465492   -3.9871738   -3.9871738   -2.6601928  0.023489602   -3.9871738    1.3269811  1010000 
  124000   0.88441322   -3.9876305   -3.9876305    -2.661012  0.023715313   -3.9876305    1.3266185  1010000 
  125000    0.8844039   -3.9887421   -3.9887421   -2.6621376  0.027379038   -3.9887421    1.3266045  1010000 
  126000   0.88422565   -3.9893353   -3.9893353   -2.6629982  0.028221515   -3.9893353    1.3263372  1010000 
  127000   0.88313481    -3.989343    -3.989343    -2.664642  0.026688695    -3.989343    1.3247009  1010000 
  128000   0.88135129   -3.9880513   -3.9880513   -2.6660257  0.027618321   -3.9880513    1.3220256  1010000 
  129000   0.88166847   -3.9894834   -3.9894834   -2.6669821  0.024338637   -3.9894834    1.3225014  1010000 
  130000   0.88142637   -3.9888983   -3.9888983     -2.66676  0.022426173   -3.9888983    1.3221382  1010000 
  131000   0.88103371   -3.9888499   -3.9888499   -2.6673006  0.026103393   -3.9888499    1.3215493  1010000 
  132000   0.88003122   -3.9885664   -3.9885664   -2.6685209  0.026305322   -3.9885664    1.3200455  1010000 
  133000   0.88099962    -3.989966    -3.989966   -2.6684679  0.023353545    -3.989966    1.3214981  1010000 
  134000   0.88162311   -3.9912323   -3.9912323    -2.668799  0.024708706   -3.9912323    1.3224334  1010000 
  135000   0.88051523    -3.990173    -3.990173   -2.6694015  0.029242239    -3.990173    1.3207715  1010000 
  136000   0.88035248   -3.9908386   -3.9908386   -2.6703112  0.028968424   -3.9908386    1.3205274  1010000 
  137000   0.88173774    -3.993002    -3.993002   -2.6703967  0.028955408    -3.993002    1.3226053  1010000 
  138000   0.88138331   -3.9931184   -3.9931184   -2.6710447   0.02855083   -3.9931184    1.3220737  1010000 
  139000   0.88109846    -3.993844    -3.993844   -2.6721977  0.027835842    -3.993844    1.3216464  1010000 
  140000   0.88131243   -3.9946421   -3.9946421   -2.6726747  0.023060965   -3.9946421    1.3219673  1010000 
  141000   0.88176033   -3.9959405   -3.9959405   -2.6733013  0.025464388   -3.9959405    1.3226392  1010000 
  142000   0.88059854   -3.9950343   -3.9950343   -2.6741378  0.023606166   -3.9950343    1.3208965  1010000 
  143000   0.87974485   -3.9946425   -3.9946425   -2.6750266  0.029746218   -3.9946425     1.319616  1010000 
  144000   0.88003287   -3.9959288   -3.9959288   -2.6758808  0.023533368   -3.9959288     1.320048  1010000 
  145000    0.8804415   -3.9974131   -3.9974131   -2.6767521  0.023303679   -3.9974131    1.3206609  1010000 
  146000   0.87993299   -3.9972089   -3.9972089   -2.6773107  0.023890704   -3.9972089    1.3198982  1010000 
  147000   0.87915388   -3.9960053   -3.9960053   -2.6772758  0.026429305   -3.9960053    1.3187295  1010000 
  148000   0.87899958   -3.9960858   -3.9960858   -2.6775877  0.029179834   -3.9960858    1.3184981  1010000 
  149000    0.8789526   -3.9975929   -3.9975929   -2.6791653  0.024207965   -3.9975929    1.3184276  1010000 
  150000   0.87941791   -3.9988266   -3.9988266    -2.679701  0.023543218   -3.9988266    1.3191256  1010000 
  151000   0.87852378   -3.9981987   -3.9981987   -2.6804144  0.026979087   -3.9981987    1.3177844  1010000 
  152000   0.87855454   -3.9988598   -3.9988598   -2.6810293  0.024593254   -3.9988598    1.3178305  1010000 
  153000   0.87855471   -3.9991151   -3.9991151   -2.6812843  0.030907412   -3.9991151    1.3178308  1010000 
  154000   0.87902333   -4.0009091   -4.0009091   -2.6823754  0.029089514   -4.0009091    1.3185337  1010000 
  155000   0.87764181   -3.9993789   -3.9993789   -2.6829175  0.029622979   -3.9993789    1.3164614  1010000 
  156000   0.87814672   -4.0007386   -4.0007386   -2.6835199   0.02610801   -4.0007386    1.3172188  1010000 
  157000   0.87765672   -4.0009084   -4.0009084   -2.6844246  0.031536385   -4.0009084    1.3164838  1010000 
  158000    0.8779836   -4.0016633   -4.0016633   -2.6846892  0.030071157   -4.0016633    1.3169741  1010000 
  159000   0.87828821   -4.0030152   -4.0030152   -2.6855842  0.031544781   -4.0030152     1.317431  1010000 
  160000    0.8779939   -4.0035147   -4.0035147   -2.6865252  0.026260154   -4.0035147    1.3169895  1010000 
  161000   0.87750389   -4.0029195   -4.0029195    -2.686665  0.029588383   -4.0029195    1.3162545  1010000 
  162000   0.87790778   -4.0037653   -4.0037653   -2.6869049  0.033072489   -4.0037653    1.3168604  1010000 
  163000   0.87726614   -4.0033113   -4.0033113   -2.6874134  0.034108231   -4.0033113    1.3158979  1010000 
  164000   0.87844002    -4.006023    -4.006023   -2.6883642  0.029835549    -4.006023    1.3176587  1010000 
  165000   0.87745253   -4.0048955   -4.0048955    -2.688718  0.033948113   -4.0048955    1.3161775  1010000 
  166000   0.87611222   -4.0041906   -4.0041906   -2.6900236  0.038619796   -4.0041906     1.314167  1010000 
  167000   0.87819313   -4.0081007   -4.0081007   -2.6908123  0.034007759   -4.0081007    1.3172884  1010000 
  168000    0.8795726   -4.0100819   -4.0100819   -2.6907243  0.042947238   -4.0100819    1.3193576  1010000 
  169000   0.88180502   -4.0135523   -4.0135523   -2.6908461  0.051925644   -4.0135523    1.3227062  1010000 
  170000   0.88500547   -4.0185455   -4.0185455   -2.6910386  0.057725292   -4.0185455    1.3275069  1010000 
  171000   0.88825181   -4.0239196   -4.0239196   -2.6915432  0.075496913   -4.0239196    1.3323764  1010000 
  172000   0.89205611   -4.0302615   -4.0302615   -2.6921787   0.10086211   -4.0302615    1.3380828  1010000 
  173000   0.89648203   -4.0382082   -4.0382082   -2.6934865   0.12202274   -4.0382082    1.3447217  1010000 
  174000   0.89995292   -4.0438502   -4.0438502   -2.6939222   0.14359611   -4.0438502     1.349928  1010000 
  175000   0.90419667   -4.0503351   -4.0503351   -2.6940414   0.16207111   -4.0503351    1.3562937  1010000 
  176000   0.90717011   -4.0550293   -4.0550293   -2.6942755   0.17981621   -4.0550293    1.3607538  1010000 
  177000   0.91176694   -4.0624335   -4.0624335   -2.6947844   0.18592305   -4.0624335    1.3676491  1010000 
  178000    0.9116547   -4.0624884   -4.0624884   -2.6950077   0.19146545   -4.0624884    1.3674807  1010000 
  179000   0.91207174   -4.0631224   -4.0631224   -2.6950161   0.18499423   -4.0631224    1.3681063  1010000 
  180000   0.90807207   -4.0578776   -4.0578776   -2.6957708   0.17144472   -4.0578776    1.3621068  1010000 
  181000   0.90412378   -4.0524039   -4.0524039   -2.6962195   0.15184511   -4.0524039    1.3561843  1010000 
  182000   0.89965725   -4.0458531   -4.0458531   -2.6963685   0.13278483   -4.0458531    1.3494845  1010000 
  183000    0.8942599   -4.0381522   -4.0381522   -2.6967636   0.11231459   -4.0381522    1.3413885  1010000 
  184000   0.88967472   -4.0323374   -4.0323374   -2.6978266  0.089335877   -4.0323374    1.3345108  1010000 
  185000   0.88495546   -4.0253309   -4.0253309   -2.6978991  0.074273797   -4.0253309    1.3274319  1010000 
  186000    0.8818277   -4.0207977   -4.0207977   -2.6980574  0.054383538   -4.0207977    1.3227402  1010000 
  187000   0.87826626    -4.015811    -4.015811    -2.698413  0.044901698    -4.015811    1.3173981  1010000 
  188000   0.87498009   -4.0116418   -4.0116418    -2.699173  0.038367225   -4.0116418    1.3124688  1010000 
  189000   0.87237733   -4.0082297   -4.0082297    -2.699665   0.03002058   -4.0082297    1.3085647  1010000 
  190000   0.87037586   -4.0060271   -4.0060271   -2.7004646  0.022645729   -4.0060271    1.3055625  1010000 
  191000   0.86891213   -4.0038545   -4.0038545   -2.7004876  0.022924189   -4.0038545    1.3033669  1010000 
  192000   0.86840553    -4.003376    -4.003376    -2.700769  0.018447703    -4.003376     1.302607  1010000 
  193000   0.86861575   -4.0039923   -4.0039923     -2.70107  0.015728085   -4.0039923    1.3029223  1010000 
  194000    0.8684382   -4.0037669   -4.0037669   -2.7011109  0.020925181   -4.0037669     1.302656  1010000 
  195000   0.86901779   -4.0049531   -4.0049531   -2.7014278  0.020575862   -4.0049531    1.3035254  1010000 
  196000   0.87000321   -4.0069471   -4.0069471   -2.7019436  0.024752197   -4.0069471    1.3050035  1010000 
  197000   0.87159896   -4.0089672   -4.0089672   -2.7015701   0.02862852   -4.0089672    1.3073971  1010000 
  198000   0.87165526   -4.0098325   -4.0098325   -2.7023509  0.034421315   -4.0098325    1.3074816  1010000 
  199000   0.87221974   -4.0115751   -4.0115751   -2.7032468   0.03269755   -4.0115751    1.3083283  1010000 
  200000   0.87225797     -4.01209     -4.01209   -2.7037044  0.037618486     -4.01209    1.3083857  1010000 
  201000   0.87341083   -4.0141096   -4.0141096   -2.7039947   0.03971992   -4.0141096    1.3101149  1010000 
  202000   0.87326227   -4.0144194   -4.0144194   -2.7045273  0.039248495   -4.0144194    1.3098921  1010000 
  203000   0.87356442   -4.0150428   -4.0150428   -2.7046975  0.040006224   -4.0150428    1.3103453  1010000 
  204000   0.87331411    -4.015138    -4.015138   -2.7051681  0.036928498    -4.015138    1.3099699  1010000 
  205000   0.87233196   -4.0141988   -4.0141988   -2.7057021  0.037274041   -4.0141988    1.3084966  1010000 
  206000   0.87112986   -4.0136113   -4.0136113   -2.7069178  0.033699981   -4.0136113    1.3066935  1010000 
  207000   0.86958774   -4.0122027   -4.0122027   -2.7078224  0.028084859   -4.0122027    1.3043803  1010000 
  208000   0.86828767   -4.0111453   -4.0111453   -2.7087151  0.025173226   -4.0111453    1.3024302  1010000 
  209000   0.86809427   -4.0115061   -4.0115061    -2.709366  0.024175859   -4.0115061    1.3021401  1010000 
  210000   0.86752795   -4.0108419   -4.0108419   -2.7095513  0.021855326   -4.0108419    1.3012906  1010000 
  211000   0.86560673   -4.0091725   -4.0091725   -2.7107637  0.015086632   -4.0091725    1.2984088  1010000 
  212000   0.86580189    -4.010371    -4.010371   -2.7116694  0.013554046    -4.010371    1.2987016  1010000 
  213000   0.86730381   -4.0122142   -4.0122142   -2.7112597  0.019649788   -4.0122142    1.3009544  1010000 
  214000   0.86718929   -4.0123772   -4.0123772   -2.7115946  0.023659857   -4.0123772    1.3007827  1010000 
  215000   0.86674569   -4.0119722   -4.0119722   -2.7118549  0.022061632   -4.0119722    1.3001172  1010000 
  216000   0.86671674   -4.0122575   -4.0122575   -2.7121836  0.026089417   -4.0122575    1.3000738  1010000 
  217000    0.8664355   -4.0129511   -4.0129511   -2.7132992  0.026164348   -4.0129511     1.299652  1010000 
  218000   0.86910207   -4.0171078   -4.0171078    -2.713456  0.020291313   -4.0171078    1.3036518  1010000 
  219000   0.86895917   -4.0169211   -4.0169211   -2.7134836  0.032225063   -4.0169211    1.3034375  1010000 
  220000   0.86968026    -4.018196    -4.018196   -2.7136769  0.030661645    -4.018196    1.3045191  1010000 
  221000   0.87037916   -4.0190209   -4.0190209   -2.7134535  0.036919554   -4.0190209    1.3055675  1010000 
  222000   0.87156375   -4.0203463   -4.0203463   -2.7130019    0.0381355   -4.0203463    1.3073443  1010000 
  223000   0.87184013   -4.0210222   -4.0210222   -2.7132634  0.039745013   -4.0210222    1.3077589  1010000 
  224000   0.87068467    -4.020061    -4.020061   -2.7140352   0.03740626    -4.020061    1.3060257  1010000 
  225000   0.87069952   -4.0205806   -4.0205806   -2.7145326  0.033180252   -4.0205806     1.306048  1010000 
  226000   0.87040269    -4.020777    -4.020777   -2.7151743  0.033568362    -4.020777    1.3056027  1010000 
  227000   0.86920933   -4.0193395   -4.0193395   -2.7155268  0.029888319   -4.0193395    1.3038127  1010000 
  228000   0.86911165   -4.0191114   -4.0191114   -2.7154452   0.02616213   -4.0191114    1.3036662  1010000 
  229000   0.86795868   -4.0179057   -4.0179057   -2.7159689  0.029570878   -4.0179057    1.3019367  1010000 
  230000   0.86783506   -4.0182902   -4.0182902   -2.7165389  0.025484339   -4.0182902    1.3017513  1010000 
  231000    0.8661533   -4.0161164   -4.0161164   -2.7168877  0.027633269   -4.0161164    1.2992287  1010000 
  232000   0.86477427   -4.0140301   -4.0140301     -2.71687  0.025605228   -4.0140301    1.2971601  1010000 
  233000   0.86636091   -4.0168615   -4.0168615   -2.7173214   0.01902971   -4.0168615    1.2995401  1010000 
  234000    0.8657389   -4.0161947   -4.0161947   -2.7175876  0.020102381   -4.0161947    1.2986071  1010000 
  235000   0.86669052   -4.0171374   -4.0171374   -2.7171029  0.021151821   -4.0171374    1.3000345  1010000 
  236000   0.86668983   -4.0176064   -4.0176064   -2.7175729  0.024727235   -4.0176064    1.3000335  1010000 
  237000   0.86806826    -4.020237    -4.020237   -2.7181359    0.0245541    -4.020237    1.3021011  1010000 
  238000   0.86735434   -4.0196579   -4.0196579   -2.7186276  0.024694596   -4.0196579    1.3010302  1010000 
  239000   0.86828244   -4.0215064   -4.0215064    -2.719084  0.027276318   -4.0215064    1.3024224  1010000 
  240000   0.86765454   -4.0218822   -4.0218822   -2.7204016  0.029607152   -4.0218822    1.3014805  1010000 
  241000   0.86735012   -4.0220908   -4.0220908   -2.7210669  0.029891793   -4.0220908    1.3010239  1010000 
  242000   0.86899957   -4.0248708   -4.0248708   -2.7213728  0.032918472   -4.0248708    1.3034981  1010000 
  243000   0.86896534   -4.0252231   -4.0252231   -2.7217764  0.031088036   -4.0252231    1.3034467  1010000 
  244000   0.86949537   -4.0258285   -4.0258285   -2.7215867  0.035142995   -4.0258285    1.3042418  1010000 
  245000   0.87050232   -4.0274267   -4.0274267   -2.7216745  0.032802866   -4.0274267    1.3057522  1010000 
  246000   0.87059157   -4.0282252   -4.0282252   -2.7223392  0.037264247   -4.0282252    1.3058861  1010000 
  247000   0.87010576      -4.0278      -4.0278   -2.7226427  0.034580842      -4.0278    1.3051573  1010000 
  248000   0.86905924   -4.0272531   -4.0272531   -2.7236655  0.036990303   -4.0272531    1.3035876  1010000 
  249000   0.86874376   -4.0276063   -4.0276063   -2.7244919   0.03506382   -4.0276063    1.3031143  1010000 
  250000   0.86830346   -4.0274096   -4.0274096   -2.7249557  0.028659891   -4.0274096    1.3024539  1010000 
  251000   0.86721992   -4.0258136   -4.0258136    -2.724985  0.026279977   -4.0258136    1.3008286  1010000 
  252000   0.86712545     -4.02572     -4.02572   -2.7250331  0.025953302     -4.02572    1.3006869  1010000 
  253000   0.86683392    -4.025415    -4.025415   -2.7251654  0.024080722    -4.025415    1.3002496  1010000 
  254000   0.86612046   -4.0243942   -4.0243942   -2.7252148  0.022467026   -4.0243942    1.2991794  1010000 
  255000   0.86593406   -4.0248283   -4.0248283   -2.7259285  0.024550609   -4.0248283    1.2988998  1010000 
  256000   0.86675979   -4.0265629   -4.0265629   -2.7264245  0.019778021   -4.0265629    1.3001384  1010000 
  257000   0.86469988   -4.0239038   -4.0239038   -2.7268553  0.024522277   -4.0239038    1.2970485  1010000 
  258000   0.86559154   -4.0250192   -4.0250192   -2.7266331  0.022976681   -4.0250192     1.298386  1010000 
  259000   0.86573213   -4.0259404   -4.0259404   -2.7273435  0.021189339   -4.0259404    1.2985969  1010000 
  260000   0.86702936    -4.028073    -4.028073   -2.7275302   0.02299586    -4.028073    1.3005428  1010000 
  261000   0.86754454    -4.029145    -4.029145   -2.7278295  0.028003174    -4.029145    1.3013155  1010000 
  262000   0.86809586   -4.0301922   -4.0301922   -2.7280497   0.02780228   -4.0301922    1.3021425  1010000 
  263000   0.86832642   -4.0305735   -4.0305735   -2.7280851   0.03231208   -4.0305735    1.3024883  1010000 
  264000   0.86838918   -4.0314907   -4.0314907   -2.7289083  0.030647684   -4.0314907    1.3025825  1010000 
  265000   0.86822018   -4.0314685   -4.0314685   -2.7291395  0.030407977   -4.0314685     1.302329  1010000 
  266000   0.86832283    -4.032336    -4.032336   -2.7298531  0.033069886    -4.032336     1.302483  1010000 
  267000   0.86850873   -4.0333904   -4.0333904   -2.7306286  0.030925601   -4.0333904    1.3027618  1010000 
  268000   0.86798806   -4.0331684   -4.0331684   -2.7311876  0.032634325   -4.0331684    1.3019808  1010000 
  269000   0.86865376   -4.0342814   -4.0342814   -2.7313021  0.031926623   -4.0342814    1.3029794  1010000 
  270000   0.86773528   -4.0330905   -4.0330905   -2.7314888  0.027608745   -4.0330905    1.3016016  1010000 
  271000   0.86653938   -4.0315096   -4.0315096   -2.7317018  0.027976093   -4.0315096    1.2998078  1010000 
  272000    0.8663455   -4.0312733   -4.0312733   -2.7317564  0.027565813   -4.0312733     1.299517  1010000 
  273000   0.86624568   -4.0312615   -4.0312615   -2.7318943  0.028506659   -4.0312615    1.2993672  1010000 
  274000   0.86715436   -4.0329608   -4.0329608   -2.7322306  0.027728491   -4.0329608    1.3007303  1010000 
  275000   0.86619784   -4.0327583   -4.0327583   -2.7334628  0.025972352   -4.0327583    1.2992955  1010000 
  276000   0.86509091    -4.031311    -4.031311   -2.7336759   0.02643355    -4.031311    1.2976351  1010000 
  277000   0.86643097    -4.033769    -4.033769   -2.7341238  0.028205981    -4.033769    1.2996452  1010000 
  278000   0.86560545   -4.0331645   -4.0331645   -2.7347576  0.026111763   -4.0331645    1.2984069  1010000 
  279000   0.86627519   -4.0344371   -4.0344371   -2.7350257  0.024330093   -4.0344371    1.2994115  1010000 
  280000   0.86529549   -4.0336785   -4.0336785   -2.7357365  0.024572782   -4.0336785     1.297942  1010000 
  281000   0.86656972   -4.0365338   -4.0365338   -2.7366805  0.022758747   -4.0365338    1.2998533  1010000 
  282000   0.86595628   -4.0357328   -4.0357328   -2.7367997  0.028341428   -4.0357328    1.2989331  1010000 
  283000   0.86620706   -4.0362951   -4.0362951   -2.7369858  0.027518536   -4.0362951    1.2993093  1010000 
  284000   0.86667427   -4.0374807   -4.0374807   -2.7374706  0.027261477   -4.0374807    1.3000101  1010000 
  285000   0.86648237   -4.0376809   -4.0376809   -2.7379586  0.030681244   -4.0376809    1.2997223  1010000 
  286000   0.86761016   -4.0394034   -4.0394034   -2.7379895  0.029274578   -4.0394034    1.3014139  1010000 
  287000   0.86823638   -4.0404476   -4.0404476   -2.7380943  0.031368972   -4.0404476    1.3023533  1010000 
  288000   0.86708605   -4.0399107   -4.0399107   -2.7392829  0.031068337   -4.0399107    1.3006278  1010000 
  289000    0.8668406   -4.0398887   -4.0398887    -2.739629   0.03038814   -4.0398887    1.3002596  1010000 
  290000   0.86732119   -4.0404244   -4.0404244   -2.7394439  0.033718411   -4.0404244    1.3009805  1010000 
  291000   0.86691533   -4.0398715   -4.0398715   -2.7394998   0.02982739   -4.0398715    1.3003717  1010000 
  292000   0.86679615   -4.0402473   -4.0402473   -2.7400543  0.030360449   -4.0402473    1.3001929  1010000 
  293000   0.86675996   -4.0405579   -4.0405579   -2.7404193  0.029999287   -4.0405579    1.3001387  1010000 
  294000   0.86512463   -4.0387031   -4.0387031   -2.7410174  0.031818312   -4.0387031    1.2976857  1010000 
  295000   0.86649007   -4.0411946   -4.0411946   -2.7414608  0.028666329   -4.0411946    1.2997338  1010000 
  296000   0.86601846   -4.0407215   -4.0407215   -2.7416951  0.025508447   -4.0407215    1.2990264  1010000 
  297000   0.86537911    -4.039861    -4.039861   -2.7417936  0.023696273    -4.039861    1.2980674  1010000 
  298000   0.86563573   -4.0405616   -4.0405616   -2.7421093  0.024992579   -4.0405616    1.2984523  1010000 
  299000   0.86454069   -4.0393118   -4.0393118    -2.742502  0.026336145   -4.0393118    1.2968098  1010000 
  300000   0.86454592   -4.0397404   -4.0397404   -2.7429228  0.022819068   -4.0397404    1.2968176  1010000 
  301000   0.86469908   -4.0395714   -4.0395714   -2.7425241    0.0252093   -4.0395714    1.2970473  1010000 
  302000   0.86535986   -4.0411283   -4.0411283   -2.7430898  0.024846519   -4.0411283    1.2980385  1010000 
  303000   0.86506983   -4.0413487   -4.0413487   -2.7437452  0.024160168   -4.0413487    1.2976035  1010000 
  304000   0.86542371    -4.042288    -4.042288   -2.7441537    0.0282918    -4.042288    1.2981343  1010000 
  305000   0.86609421   -4.0437866   -4.0437866   -2.7446466   0.02491455   -4.0437866      1.29914  1010000 
  306000   0.86489814   -4.0423515   -4.0423515   -2.7450056  0.028160566   -4.0423515    1.2973459  1010000 
  307000   0.86584738   -4.0442528   -4.0442528    -2.745483  0.028649005   -4.0442528    1.2987698  1010000 
  308000   0.86641368   -4.0450814   -4.0450814   -2.7454621  0.030471564   -4.0450814    1.2996192  1010000 
  309000    0.8668519   -4.0459152   -4.0459152   -2.7456386  0.030827029   -4.0459152    1.3002766  1010000 
  310000   0.86686613   -4.0462087   -4.0462087   -2.7459108  0.028022967   -4.0462087    1.3002979  1010000 
  311000   0.86657266   -4.0461788   -4.0461788   -2.7463211  0.033396791   -4.0461788    1.2998577  1010000 
  312000   0.86598844   -4.0460436   -4.0460436   -2.7470623  0.031585669   -4.0460436    1.2989814  1010000 
  313000   0.86555233   -4.0458365   -4.0458365   -2.7475093  0.029794263   -4.0458365    1.2983272  1010000 
  314000   0.86608388   -4.0466614   -4.0466614   -2.7475369  0.030619301   -4.0466614    1.2991245  1010000 
  315000   0.86612181   -4.0465981   -4.0465981   -2.7474167  0.029706197   -4.0465981    1.2991814  1010000 
  316000   0.86473199   -4.0454977   -4.0454977    -2.748401  0.025955919   -4.0454977    1.2970967  1010000 
  317000   0.86468618   -4.0457138   -4.0457138   -2.7486858  0.027026822   -4.0457138     1.297028  1010000 
  318000    0.8644348   -4.0453926   -4.0453926   -2.7487417  0.028643483   -4.0453926    1.2966509  1010000 
  319000   0.86478053   -4.0462382   -4.0462382   -2.7490686   0.02499704   -4.0462382    1.2971695  1010000 
  320000   0.86369661   -4.0455629   -4.0455629   -2.7500193  0.023353848   -4.0455629    1.2955436  1010000 
  321000   0.86402975   -4.0462304   -4.0462304   -2.7501871  0.022145842   -4.0462304    1.2960433  1010000 
  322000   0.86421516   -4.0469079   -4.0469079   -2.7505865  0.023486306   -4.0469079    1.2963215  1010000 
  323000   0.86468625   -4.0475883   -4.0475883   -2.7505603  0.021170422   -4.0475883    1.2970281  1010000 
  324000   0.86385981   -4.0469864   -4.0469864    -2.751198  0.026651476   -4.0469864    1.2957884  1010000 
  325000    0.8640403   -4.0476324   -4.0476324   -2.7515732  0.025526736   -4.0476324    1.2960592  1010000 
  326000   0.86340437   -4.0469555   -4.0469555   -2.7518502  0.032834049   -4.0469555    1.2951053  1010000 
  327000   0.86532411   -4.0500394   -4.0500394   -2.7520545  0.025784343   -4.0500394    1.2979849  1010000 
  328000   0.86515018   -4.0502843   -4.0502843   -2.7525603  0.031953584   -4.0502843     1.297724  1010000 
  329000   0.86561102    -4.051739    -4.051739   -2.7533238  0.027128274    -4.051739    1.2984152  1010000 
  330000   0.86525569   -4.0521466   -4.0521466   -2.7542644   0.02775267   -4.0521466    1.2978823  1010000 
  331000   0.86427953   -4.0509147   -4.0509147   -2.7544967   0.02943951   -4.0509147     1.296418  1010000 
  332000   0.86573671   -4.0530615   -4.0530615   -2.7544577  0.026460211   -4.0530615    1.2986038  1010000 
  333000   0.86475773   -4.0519837   -4.0519837   -2.7548484  0.029577934   -4.0519837    1.2971353  1010000 
  334000   0.86590406   -4.0541251   -4.0541251   -2.7552703  0.025402807   -4.0541251    1.2988548  1010000 
  335000    0.8651938   -4.0530756   -4.0530756   -2.7552862  0.029718361   -4.0530756    1.2977894  1010000 
  336000   0.86565326   -4.0538238   -4.0538238   -2.7553452  0.026711812   -4.0538238    1.2984786  1010000 
  337000   0.86456453    -4.052925    -4.052925   -2.7560795  0.024885141    -4.052925    1.2968455  1010000 
  338000   0.86333502   -4.0510456   -4.0510456   -2.7560444   0.02979605   -4.0510456    1.2950012  1010000 
  339000   0.86399372   -4.0523903   -4.0523903    -2.756401  0.024531059   -4.0523903    1.2959893  1010000 
  340000   0.86300948   -4.0510875   -4.0510875   -2.7565746  0.023250034   -4.0510875    1.2945129  1010000 
  341000   0.86329538   -4.0518461   -4.0518461   -2.7569044  0.024213885   -4.0518461    1.2949418  1010000 
  342000   0.86331874   -4.0522606   -4.0522606   -2.7572838  0.022791971   -4.0522606    1.2949768  1010000 
  343000   0.86334156   -4.0527904   -4.0527904   -2.7577793  0.029314605   -4.0527904    1.2950111  1010000 
  344000   0.86344499   -4.0535355   -4.0535355   -2.7583693  0.021805747   -4.0535355    1.2951662  1010000 
  345000   0.86298583   -4.0526191   -4.0526191   -2.7581417  0.022080155   -4.0526191    1.2944775  1010000 
  346000    0.8623181    -4.052262    -4.052262   -2.7587861  0.022779893    -4.052262    1.2934759  1010000 
  347000   0.86256937   -4.0532165   -4.0532165   -2.7593637  0.024119643   -4.0532165    1.2938528  1010000 
  348000   0.86311592   -4.0545796   -4.0545796    -2.759907  0.020628301   -4.0545796    1.2946726  1010000 
  349000   0.86303369   -4.0547359   -4.0547359   -2.7601866  0.025131849   -4.0547359    1.2945493  1010000 
  350000   0.86234234   -4.0542873   -4.0542873    -2.760775  0.022959902   -4.0542873    1.2935122  1010000 
  351000   0.86342142   -4.0564106   -4.0564106   -2.7612797  0.020090908   -4.0564106    1.2951308  1010000 
  352000   0.86354684   -4.0567752   -4.0567752   -2.7614562  0.024651446   -4.0567752     1.295319  1010000 
  353000   0.86297766   -4.0558117   -4.0558117   -2.7613465  0.025882544   -4.0558117    1.2944652  1010000 
  354000   0.86346321   -4.0571672   -4.0571672   -2.7619737  0.027785213   -4.0571672    1.2951935  1010000 
  355000    0.8627138   -4.0566071   -4.0566071   -2.7625377  0.027026427   -4.0566071    1.2940694  1010000 
  356000   0.86376362   -4.0589312   -4.0589312   -2.7632871  0.025359579   -4.0589312    1.2956441  1010000 
  357000   0.86283321   -4.0583074   -4.0583074   -2.7640589  0.025136041   -4.0583074    1.2942485  1010000 
  358000   0.86315029   -4.0585219   -4.0585219   -2.7637977  0.029164361   -4.0585219    1.2947242  1010000 
  359000   0.86372612   -4.0590744   -4.0590744   -2.7634864  0.028902448   -4.0590744    1.2955879  1010000 
  360000   0.86329041   -4.0585928   -4.0585928   -2.7636584  0.030022706   -4.0585928    1.2949343  1010000 
  361000   0.86327565    -4.059089    -4.059089   -2.7641768  0.025518201    -4.059089    1.2949122  1010000 
  362000   0.86277001   -4.0585891   -4.0585891   -2.7644354  0.027904391   -4.0585891    1.2941537  1010000 
  363000   0.86286757   -4.0591064   -4.0591064   -2.7648064  0.021410633   -4.0591064    1.2943001  1010000 
  364000   0.86221606   -4.0590406   -4.0590406   -2.7657178  0.019820381   -4.0590406    1.2933228  1010000 
  365000    0.8618307    -4.058489    -4.058489   -2.7657442  0.020153965    -4.058489    1.2927448  1010000 
  366000   0.86144214   -4.0581644   -4.0581644   -2.7660025  0.020960953   -4.0581644    1.2921619  1010000 
  367000   0.86156927   -4.0588609   -4.0588609   -2.7665083  0.021917406   -4.0588609    1.2923526  1010000 
  368000   0.86172181   -4.0593632   -4.0593632   -2.7667818  0.022149735   -4.0593632    1.2925814  1010000 
  369000   0.86204602   -4.0598111   -4.0598111   -2.7667434  0.024165864   -4.0598111    1.2930677  1010000 
  370000    0.8620884   -4.0596614   -4.0596614   -2.7665301  0.023562757   -4.0596614    1.2931313  1010000 
  371000   0.86234244   -4.0601254   -4.0601254    -2.766613   0.02690589   -4.0601254    1.2935124  1010000 
  372000   0.86237492    -4.060753    -4.060753   -2.7671919  0.022645476    -4.060753    1.2935611  1010000 
  373000   0.86157574   -4.0595521   -4.0595521   -2.7671898  0.028273297   -4.0595521    1.2923623  1010000 
  374000   0.86282517   -4.0616381   -4.0616381   -2.7674016  0.024978232   -4.0616381    1.2942365  1010000 
  375000   0.86290693   -4.0627116   -4.0627116   -2.7683525  0.027257375   -4.0627116    1.2943591  1010000 
  376000     0.862674    -4.062609    -4.062609   -2.7685993  0.023486997    -4.062609    1.2940097  1010000 
  377000   0.86267724    -4.062948    -4.062948   -2.7689334  0.027284134    -4.062948    1.2940146  1010000 
  378000   0.86239061   -4.0628336   -4.0628336   -2.7692489  0.019770434   -4.0628336    1.2935846  1010000 
  379000   0.86254837   -4.0631171   -4.0631171   -2.7692958  0.027239178   -4.0631171    1.2938213  1010000 
  380000   0.86263559   -4.0631758   -4.0631758   -2.7692237  0.026548312   -4.0631758    1.2939521  1010000 
  381000   0.86251886   -4.0634932   -4.0634932   -2.7697162  0.023316865   -4.0634932     1.293777  1010000 
  382000   0.86204625   -4.0628003   -4.0628003   -2.7697322  0.020308569   -4.0628003    1.2930681  1010000 
  383000    0.8615283   -4.0626082   -4.0626082    -2.770317  0.023671153   -4.0626082    1.2922912  1010000 
  384000   0.86196251   -4.0639009   -4.0639009   -2.7709584  0.020334683   -4.0639009    1.2929425  1010000 
  385000   0.86176306   -4.0639896   -4.0639896   -2.7713463  0.018855307   -4.0639896    1.2926433  1010000 
  386000   0.86080017   -4.0628515   -4.0628515   -2.7716525  0.025998262   -4.0628515     1.291199  1010000 
  387000   0.86184643   -4.0644034   -4.0644034    -2.771635  0.023206555   -4.0644034    1.2927684  1010000 
  388000   0.86110755   -4.0641661   -4.0641661   -2.7725061  0.024093422   -4.0641661      1.29166  1010000 
  389000    0.8608433   -4.0644171   -4.0644171   -2.7731535  0.021692471   -4.0644171    1.2912637  1010000 
  390000   0.86047525   -4.0638414   -4.0638414   -2.7731298  0.024474454   -4.0638414    1.2907116  1010000 
  391000   0.86117395   -4.0656412   -4.0656412   -2.7738816  0.022839773   -4.0656412    1.2917596  1010000 
  392000    0.8602788   -4.0649214   -4.0649214   -2.7745045  0.026956961   -4.0649214    1.2904169  1010000 
  393000   0.86168193    -4.067534    -4.067534   -2.7750123  0.020712464    -4.067534    1.2925216  1010000 
  394000   0.86079076   -4.0664625   -4.0664625   -2.7752776   0.02435187   -4.0664625    1.2911849  1010000 
  395000   0.86148463   -4.0677704   -4.0677704   -2.7755447  0.018381492   -4.0677704    1.2922257  1010000 
  396000   0.86068345    -4.066428    -4.066428   -2.7754041  0.020158547    -4.066428    1.2910239  1010000 
  397000   0.86043816   -4.0660974   -4.0660974   -2.7754415  0.021270097   -4.0660974     1.290656  1010000 
  398000   0.86026013   -4.0661838   -4.0661838   -2.7757949  0.022780138   -4.0661838    1.2903889  1010000 
  399000   0.86107332   -4.0679565   -4.0679565   -2.7763478  0.023003471   -4.0679565    1.2916087  1010000 
  400000   0.86107263    -4.068428    -4.068428   -2.7768203  0.025997398    -4.068428    1.2916077  1010000 
  401000   0.86078829   -4.0687293   -4.0687293   -2.7775481  0.023974762   -4.0687293    1.2911812  1010000 
  402000   0.86167756   -4.0697452   -4.0697452   -2.7772302  0.021932037   -4.0697452    1.2925151  1010000 
  403000   0.86117651   -4.0694929   -4.0694929   -2.7777294  0.021267958   -4.0694929    1.2917635  1010000 
  404000     0.860483   -4.0681516   -4.0681516   -2.7774283  0.023489595   -4.0681516    1.2907232  1010000 
  405000   0.86021017   -4.0679771   -4.0679771   -2.7776631  0.024142839   -4.0679771     1.290314  1010000 
  406000   0.86067967   -4.0683605   -4.0683605   -2.7773423  0.024008883   -4.0683605    1.2910182  1010000 
  407000   0.86105308   -4.0695632   -4.0695632   -2.7779849  0.022785051   -4.0695632    1.2915783  1010000 
  408000   0.86061232   -4.0693703   -4.0693703   -2.7784531   0.02448837   -4.0693703    1.2909172  1010000 
  409000   0.86034703   -4.0694729   -4.0694729   -2.7789536  0.019009412   -4.0694729    1.2905193  1010000 
  410000   0.86037099   -4.0701176   -4.0701176   -2.7795624  0.021006197   -4.0701176    1.2905552  1010000 
  411000   0.85980399   -4.0698651   -4.0698651   -2.7801604  0.022965343   -4.0698651    1.2897047  1010000 
  412000   0.86024707   -4.0708754   -4.0708754    -2.780506   0.01955149   -4.0708754    1.2903693  1010000 
  413000   0.85902449   -4.0698312   -4.0698312   -2.7812958  0.019906844   -4.0698312    1.2885355  1010000 
  414000   0.85935534   -4.0702703   -4.0702703   -2.7812386  0.018043233   -4.0702703    1.2890317  1010000 
  415000   0.86005754   -4.0710184   -4.0710184   -2.7809334  0.018789379   -4.0710184     1.290085  1010000 
  416000   0.85989569   -4.0713682   -4.0713682   -2.7815259  0.021097505   -4.0713682    1.2898423  1010000 
  417000   0.85936593   -4.0712188   -4.0712188   -2.7821712  0.018113021   -4.0712188    1.2890476  1010000 
  418000   0.85871511   -4.0703437   -4.0703437   -2.7822724  0.021901686   -4.0703437    1.2880714  1010000 
  419000   0.86021845   -4.0732278   -4.0732278   -2.7829014  0.020590146   -4.0732278    1.2903264  1010000 
  420000   0.86037034   -4.0737656   -4.0737656   -2.7832113  0.017878512   -4.0737656    1.2905542  1010000 
  421000   0.86010664    -4.073132    -4.073132   -2.7829734  0.019334193    -4.073132    1.2901587  1010000 
  422000   0.86008036   -4.0729564   -4.0729564   -2.7828371  0.020730594   -4.0729564    1.2901193  1010000 
  423000   0.85904305   -4.0717153   -4.0717153    -2.783152  0.021050379   -4.0717153    1.2885633  1010000 
  424000   0.85994935   -4.0732068   -4.0732068    -2.783284   0.02368707   -4.0732068    1.2899227  1010000 
  425000   0.86010714   -4.0736912   -4.0736912   -2.7835317   0.02262215   -4.0736912    1.2901594  1010000 
  426000   0.85978223    -4.073994    -4.073994   -2.7843219  0.017502759    -4.073994    1.2896721  1010000 
  427000   0.85889168   -4.0729431   -4.0729431   -2.7846068  0.023016064   -4.0729431    1.2883362  1010000 
  428000   0.85989923    -4.074198    -4.074198   -2.7843505  0.021293196    -4.074198    1.2898476  1010000 
  429000   0.86006455   -4.0745545   -4.0745545    -2.784459  0.019447815   -4.0745545    1.2900956  1010000 
  430000   0.85932989   -4.0737128   -4.0737128   -2.7847192  0.023377737   -4.0737128    1.2889936  1010000 
  431000   0.85953736    -4.074376    -4.074376   -2.7850713   0.02053208    -4.074376    1.2893048  1010000 
  432000   0.85913297   -4.0741046   -4.0741046   -2.7854064   0.02388451   -4.0741046    1.2886982  1010000 
  433000   0.85928596   -4.0741904   -4.0741904   -2.7852627  0.022563939   -4.0741904    1.2889277  1010000 
  434000   0.85877147    -4.073804    -4.073804    -2.785648  0.021232423    -4.073804    1.2881559  1010000 
  435000   0.85885318   -4.0744868   -4.0744868   -2.7862083  0.019763177   -4.0744868    1.2882785  1010000 
  436000   0.85765513   -4.0732966   -4.0732966   -2.7868152  0.023792029   -4.0732966    1.2864814  1010000 
  437000   0.85749329   -4.0731772   -4.0731772   -2.7869386  0.021082011   -4.0731772    1.2862387  1010000 
  438000   0.85858967   -4.0750668   -4.0750668   -2.7871836  0.016155331   -4.0750668    1.2878832  1010000 
  439000   0.85880807   -4.0756324   -4.0756324   -2.7874216  0.018511752   -4.0756324    1.2882108  1010000 
  440000   0.85909584   -4.0757385   -4.0757385    -2.787096  0.016904916   -4.0757385    1.2886425  1010000 
  441000   0.85929548    -4.076901    -4.076901   -2.7879591  0.015401636    -4.076901    1.2889419  1010000 
  442000   0.85848546   -4.0759338   -4.0759338   -2.7882069  0.019282018   -4.0759338    1.2877269  1010000 
  443000   0.85770507   -4.0755369   -4.0755369   -2.7889806  0.020560507   -4.0755369    1.2865563  1010000 
  444000   0.85908562   -4.0778548   -4.0778548   -2.7892276  0.019236466   -4.0778548    1.2886272  1010000 
  445000   0.85917791   -4.0777911   -4.0777911   -2.7890255   0.02326435   -4.0777911    1.2887656  1010000 
  446000   0.85893441   -4.0772038   -4.0772038   -2.7888035  0.025174214   -4.0772038    1.2884003  1010000 
  447000   0.86004886   -4.0790878   -4.0790878   -2.7890158  0.019952695   -4.0790878     1.290072  1010000 
  448000   0.85919061   -4.0781371   -4.0781371   -2.7893524  0.021314887   -4.0781371    1.2887846  1010000 
  449000   0.85962871   -4.0788063   -4.0788063   -2.7893646  0.020652153   -4.0788063    1.2894418  1010000 
  450000   0.85818539   -4.0778596   -4.0778596   -2.7905828  0.022487618   -4.0778596    1.2872768  1010000 
  451000   0.85889435    -4.079404    -4.079404   -2.7910638   0.01842758    -4.079404    1.2883402  1010000 
  452000   0.85771327   -4.0776233   -4.0776233   -2.7910546  0.021140379   -4.0776233    1.2865686  1010000 
  453000    0.8580512   -4.0781984   -4.0781984   -2.7911229   0.01972074   -4.0781984    1.2870755  1010000 
  454000   0.85776971   -4.0780034   -4.0780034   -2.7913501  0.019855529   -4.0780034    1.2866533  1010000 
  455000   0.85731869   -4.0778209   -4.0778209   -2.7918441   0.01860938   -4.0778209    1.2859768  1010000 
  456000   0.85727238   -4.0782059   -4.0782059   -2.7922986  0.016844093   -4.0782059    1.2859073  1010000 
  457000   0.85737283   -4.0787613   -4.0787613   -2.7927034  0.016613476   -4.0787613     1.286058  1010000 
  458000   0.85784844   -4.0794495   -4.0794495   -2.7926781  0.019357263   -4.0794495    1.2867714  1010000 
  459000    0.8581345   -4.0799941   -4.0799941   -2.7927936  0.019325399   -4.0799941    1.2872005  1010000 
  460000   0.85783467   -4.0798146   -4.0798146   -2.7930639    0.0185246   -4.0798146    1.2867507  1010000 
  461000   0.85830113    -4.080636    -4.080636   -2.7931856  0.018120275    -4.080636    1.2874504  1010000 
  462000   0.85821952   -4.0808238   -4.0808238   -2.7934957  0.020609742   -4.0808238     1.287328  1010000 
  463000     0.858072   -4.0806042   -4.0806042   -2.7934975  0.018360911   -4.0806042    1.2871067  1010000 
  464000   0.85888403   -4.0817757   -4.0817757   -2.7934509  0.023489492   -4.0817757    1.2883248  1010000 
  465000   0.85864885   -4.0810786   -4.0810786   -2.7931066  0.023739713   -4.0810786     1.287972  1010000 
  466000   0.85819818   -4.0808995   -4.0808995   -2.7936035   0.02222832   -4.0808995     1.287296  1010000 
  467000   0.85904436   -4.0823629   -4.0823629   -2.7937977  0.021020278   -4.0823629    1.2885653  1010000 
  468000   0.85768595   -4.0812482   -4.0812482   -2.7947205  0.021970515   -4.0812482    1.2865276  1010000 
  469000   0.85822073   -4.0818025   -4.0818025   -2.7944727  0.020369972   -4.0818025    1.2873298  1010000 
  470000   0.85846117   -4.0820355   -4.0820355    -2.794345  0.020830509   -4.0820355    1.2876905  1010000 
  471000   0.85807168   -4.0816296   -4.0816296   -2.7945234  0.019634258   -4.0816296    1.2871062  1010000 
  472000   0.85752898   -4.0809849   -4.0809849   -2.7946927  0.019442978   -4.0809849    1.2862922  1010000 
  473000   0.85735795   -4.0810666   -4.0810666    -2.795031  0.019283945   -4.0810666    1.2860356  1010000 
  474000   0.85696612   -4.0814419   -4.0814419   -2.7959939  0.021529853   -4.0814419    1.2854479  1010000 
  475000   0.85766895   -4.0826195   -4.0826195   -2.7961174  0.015417188   -4.0826195    1.2865022  1010000 
  476000   0.85669562   -4.0809404   -4.0809404   -2.7958982   0.01712063   -4.0809404    1.2850422  1010000 
  477000    0.8573024   -4.0828084   -4.0828084   -2.7968561  0.017804071   -4.0828084    1.2859523  1010000 
  478000   0.85780792   -4.0835762   -4.0835762   -2.7968656  0.018289721   -4.0835762    1.2867106  1010000 
  479000    0.8569055   -4.0828952   -4.0828952   -2.7975382  0.017785367   -4.0828952     1.285357  1010000 
  480000   0.85722732   -4.0836438   -4.0836438   -2.7978041  0.019651362   -4.0836438    1.2858397  1010000 
  481000   0.85629369   -4.0823105   -4.0823105   -2.7978712  0.018865531   -4.0823105    1.2844393  1010000 
  482000   0.85706726   -4.0830237   -4.0830237   -2.7974241  0.021181488   -4.0830237    1.2855996  1010000 
  483000   0.85743386   -4.0839536   -4.0839536   -2.7978041  0.019124516   -4.0839536    1.2861495  1010000 
  484000   0.85792789   -4.0852344   -4.0852344   -2.7983439  0.021583062   -4.0852344    1.2868906  1010000 
  485000   0.85772966   -4.0852774   -4.0852774   -2.7986842  0.016942326   -4.0852774    1.2865932  1010000 
  486000   0.85664237   -4.0843712   -4.0843712   -2.7994089  0.024504399   -4.0843712    1.2849623  1010000 
  487000   0.85778409   -4.0863032   -4.0863032   -2.7996283  0.020055323   -4.0863032    1.2866749  1010000 
  488000   0.85643678   -4.0845046   -4.0845046   -2.7998507  0.022710285   -4.0845046    1.2846539  1010000 
  489000   0.85683109   -4.0853869   -4.0853869   -2.8001415  0.015731299   -4.0853869    1.2852454  1010000 
  490000   0.85640773    -4.085283    -4.085283   -2.8006726  0.020216412    -4.085283    1.2846103  1010000 
  491000   0.85673429   -4.0857679   -4.0857679   -2.8006678  0.019856775   -4.0857679    1.2851002  1010000 
  492000   0.85664058   -4.0857453   -4.0857453   -2.8007857    0.0163638   -4.0857453    1.2849596  1010000 
  493000   0.85706443   -4.0863395   -4.0863395   -2.8007441  0.019428463   -4.0863395    1.2855954  1010000 
  494000   0.85756517    -4.086885    -4.086885   -2.8005385  0.014778875    -4.086885    1.2863465  1010000 
  495000   0.85711973   -4.0864995   -4.0864995   -2.8008212  0.021508522   -4.0864995    1.2856783  1010000 
  496000   0.85733918   -4.0869991   -4.0869991   -2.8009916  0.019591492   -4.0869991    1.2860075  1010000 
  497000   0.85663445   -4.0865505   -4.0865505   -2.8016001  0.018288401   -4.0865505    1.2849504  1010000 
  498000   0.85683227   -4.0873284   -4.0873284   -2.8020813  0.023933604   -4.0873284    1.2852471  1010000 
  499000   0.85630378    -4.086955    -4.086955   -2.8025006  0.018277953    -4.086955    1.2844544  1010000 
  500000   0.85623163   -4.0865526   -4.0865526   -2.8022064  0.016955951   -4.0865526    1.2843462  1010000 
  501000    0.8566545   -4.0873225   -4.0873225    -2.802342  0.022550508   -4.0873225    1.2849805  1010000 
  502000   0.85656119   -4.0879406   -4.0879406   -2.8031001  0.018366439   -4.0879406    1.2848405  1010000 
  503000   0.85604602   -4.0872259   -4.0872259   -2.8031581  0.019095347   -4.0872259    1.2840678  1010000 
  504000   0.85634105   -4.0875931   -4.0875931   -2.8030828  0.014699841   -4.0875931    1.2845103  1010000 
  505000    0.8566647    -4.088647    -4.088647   -2.8036513  0.016160273    -4.088647    1.2849958  1010000 
  506000   0.85622894   -4.0877901   -4.0877901    -2.803448  0.016260648   -4.0877901    1.2843421  1010000 
  507000   0.85531446   -4.0867806   -4.0867806   -2.8038102  0.017142441   -4.0867806    1.2829704  1010000 
  508000   0.85534727    -4.086536    -4.086536   -2.8035164   0.02011833    -4.086536    1.2830196  1010000 
  509000   0.85632549   -4.0883903   -4.0883903   -2.8039033  0.018982721   -4.0883903     1.284487  1010000 
  510000   0.85628703   -4.0883498   -4.0883498   -2.8039206  0.019885153   -4.0883498    1.2844293  1010000 
  511000   0.85626917   -4.0887355   -4.0887355    -2.804333  0.020477117   -4.0887355    1.2844025  1010000 
  512000   0.85602768   -4.0891383   -4.0891383    -2.805098  0.018090641   -4.0891383    1.2840402  1010000 
  513000   0.85557172   -4.0883346   -4.0883346   -2.8049783  0.018727317   -4.0883346    1.2833563  1010000 
  514000   0.85488765   -4.0876609   -4.0876609   -2.8053307  0.016155171   -4.0876609    1.2823302  1010000 
  515000   0.85553019    -4.088792    -4.088792    -2.805498  0.015058252    -4.088792     1.283294  1010000 
  516000   0.85541229   -4.0890501   -4.0890501   -2.8059329  0.013784511   -4.0890501    1.2831172  1010000 
  517000   0.85542202   -4.0890987   -4.0890987    -2.805967  0.023561977   -4.0890987    1.2831318  1010000 
  518000   0.85491049   -4.0888606   -4.0888606   -2.8064962  0.022276643   -4.0888606    1.2823645  1010000 
  519000   0.85561434   -4.0899594   -4.0899594   -2.8065392  0.021022431   -4.0899594    1.2834202  1010000 
  520000   0.85582174   -4.0906372   -4.0906372   -2.8069058  0.023107957   -4.0906372    1.2837313  1010000 
  521000   0.85540569   -4.0904432   -4.0904432   -2.8073359  0.018591705   -4.0904432    1.2831073  1010000 
  522000   0.85565127   -4.0914985   -4.0914985   -2.8080229  0.016389792   -4.0914985    1.2834756  1010000 
  523000   0.85609443   -4.0922455   -4.0922455   -2.8081051   0.01940775   -4.0922455    1.2841404  1010000 
  524000   0.85581506   -4.0918732   -4.0918732   -2.8081519  0.021471283   -4.0918732    1.2837213  1010000 
  525000   0.85605855   -4.0924895   -4.0924895    -2.808403  0.016685498   -4.0924895    1.2840865  1010000 
  526000   0.85518516   -4.0913718   -4.0913718   -2.8085953  0.016256734   -4.0913718    1.2827765  1010000 
  527000   0.85508175   -4.0910023   -4.0910023   -2.8083809  0.022299344   -4.0910023    1.2826214  1010000 
  528000   0.85544499   -4.0920056   -4.0920056   -2.8088394   0.01778777   -4.0920056    1.2831662  1010000 
  529000   0.85475742   -4.0911206   -4.0911206   -2.8089857  0.021704906   -4.0911206    1.2821349  1010000 
  530000   0.85434233   -4.0907622   -4.0907622     -2.80925  0.024080709   -4.0907622    1.2815122  1010000 
  531000   0.85463209   -4.0912157   -4.0912157   -2.8092689  0.018313425   -4.0912157    1.2819469  1010000 
  532000   0.85541329   -4.0924322   -4.0924322   -2.8093136  0.018284627   -4.0924322    1.2831187  1010000 
  533000    0.8547352   -4.0919317   -4.0919317   -2.8098302  0.017125087   -4.0919317    1.2821015  1010000 
  534000   0.85420354   -4.0919056   -4.0919056   -2.8106016  0.015911379   -4.0919056     1.281304  1010000 
  535000   0.85525948   -4.0935602   -4.0935602   -2.8106723  0.014607117   -4.0935602    1.2828879  1010000 
  536000   0.85423833   -4.0922299   -4.0922299   -2.8108737  0.017852474   -4.0922299    1.2813562  1010000 
  537000   0.85422577   -4.0926093   -4.0926093   -2.8112719  0.019161537   -4.0926093    1.2813374  1010000 
  538000   0.85427489   -4.0925168   -4.0925168   -2.8111057  0.018886649   -4.0925168    1.2814111  1010000 
  539000   0.85431805   -4.0925126   -4.0925126   -2.8110368  0.018138058   -4.0925126    1.2814758  1010000 
  540000   0.85477979   -4.0936194   -4.0936194   -2.8114509  0.018503115   -4.0936194    1.2821684  1010000 
  541000   0.85482192   -4.0937478   -4.0937478   -2.8115162  0.018321456   -4.0937478    1.2822316  1010000 
  542000   0.85444295   -4.0934376   -4.0934376   -2.8117744    0.0214448   -4.0934376    1.2816632  1010000 
  543000   0.85496181   -4.0943073   -4.0943073   -2.8118658  0.018355598   -4.0943073    1.2824414  1010000 
  544000   0.85439216   -4.0936928   -4.0936928   -2.8121059  0.020027273   -4.0936928     1.281587  1010000 
  545000   0.85440776   -4.0945311   -4.0945311   -2.8129207  0.021219877   -4.0945311    1.2816104  1010000 
  546000   0.85489987   -4.0946702   -4.0946702   -2.8123216  0.021851096   -4.0946702    1.2823485  1010000 
  547000   0.85492133   -4.0947043   -4.0947043   -2.8123236  0.023125977   -4.0947043    1.2823807  1010000 
  548000   0.85440588   -4.0948375   -4.0948375     -2.81323  0.020622047   -4.0948375    1.2816075  1010000 
  549000   0.85503944   -4.0959988   -4.0959988   -2.8134409  0.018699061   -4.0959988    1.2825579  1010000 
  550000   0.85425398   -4.0951914   -4.0951914   -2.8138117  0.023958233   -4.0951914    1.2813797  1010000 
  551000   0.85477077    -4.095871    -4.095871   -2.8137161  0.021520179    -4.095871    1.2821549  1010000 
  552000   0.85545945   -4.0973076   -4.0973076   -2.8141197  0.016029191   -4.0973076    1.2831879  1010000 
  553000   0.85492162   -4.0964207   -4.0964207   -2.8140395  0.018744867   -4.0964207    1.2823812  1010000 
  554000   0.85451208   -4.0964091   -4.0964091   -2.8146423  0.022013575   -4.0964091    1.2817669  1010000 
  555000   0.85473663   -4.0964954   -4.0964954   -2.8143917  0.020126109   -4.0964954    1.2821037  1010000 
  556000   0.85452841   -4.0960037   -4.0960037   -2.8142123  0.016555154   -4.0960037    1.2817914  1010000 
  557000   0.85381141   -4.0949569   -4.0949569    -2.814241  0.017061658   -4.0949569    1.2807159  1010000 
  558000   0.85419589   -4.0960923   -4.0960923   -2.8147997  0.016421937   -4.0960923    1.2812926  1010000 
  559000   0.85428358   -4.0961367   -4.0961367   -2.8147126  0.019053979   -4.0961367    1.2814241  1010000 
  560000   0.85434293   -4.0958621   -4.0958621    -2.814349  0.014553502   -4.0958621    1.2815131  1010000 
  561000   0.85369852   -4.0949615   -4.0949615    -2.814415  0.015751629   -4.0949615    1.2805465  1010000 
  562000   0.85303672   -4.0940774   -4.0940774   -2.8145236  0.015786328   -4.0940774    1.2795538  1010000 
  563000   0.85335613   -4.0953271   -4.0953271   -2.8152942  0.019715427   -4.0953271    1.2800329  1010000 
  564000   0.85492377   -4.0973508   -4.0973508   -2.8149664  0.018288813   -4.0973508    1.2823844  1010000 
  565000   0.85427253   -4.0959433   -4.0959433   -2.8145358  0.016597189   -4.0959433    1.2814075  1010000 
  566000   0.85482518   -4.0967753   -4.0967753   -2.8145388  0.016319372   -4.0967753    1.2822365  1010000 
  567000   0.85472698   -4.0972043   -4.0972043   -2.8151151  0.017559503   -4.0972043    1.2820892  1010000 
  568000   0.85432405   -4.0970066   -4.0970066   -2.8155217  0.017602735   -4.0970066    1.2814848  1010000 
  569000   0.85391225   -4.0965358   -4.0965358   -2.8156687  0.022926257   -4.0965358    1.2808671  1010000 
  570000    0.8555804   -4.0986988   -4.0986988   -2.8153294  0.018120206   -4.0986988    1.2833693  1010000 
  571000    0.8548152   -4.0980351   -4.0980351   -2.8158136  0.021768588   -4.0980351    1.2822215  1010000 
  572000   0.85494283   -4.0982707   -4.0982707   -2.8158577  0.021283567   -4.0982707     1.282413  1010000 
  573000   0.85516594   -4.0988092   -4.0988092   -2.8160616  0.020573633   -4.0988092    1.2827476  1010000 
  574000    0.8546347     -4.09844     -4.09844   -2.8164892  0.020670641     -4.09844    1.2819508  1010000 
  575000   0.85357521   -4.0967505   -4.0967505    -2.816389   0.02241367   -4.0967505    1.2803615  1010000 
  576000   0.85422571   -4.0982014   -4.0982014   -2.8168641  0.019719578   -4.0982014    1.2813373  1010000 
  577000   0.85361541   -4.0974622   -4.0974622   -2.8170403  0.018014103   -4.0974622    1.2804218  1010000 
  578000   0.85310674   -4.0966999   -4.0966999   -2.8170411  0.018041139   -4.0966999    1.2796588  1010000 
  579000   0.85320417   -4.0964474   -4.0964474   -2.8166425    0.0169034   -4.0964474     1.279805  1010000 
  580000   0.85354323   -4.0969791   -4.0969791   -2.8166655   0.01596282   -4.0969791    1.2803136  1010000 
  581000   0.85345194     -4.09667     -4.09667   -2.8164933  0.018496864     -4.09667    1.2801766  1010000 
  582000   0.85397357   -4.0977175   -4.0977175   -2.8167584   0.01238206   -4.0977175    1.2809591  1010000 
  583000   0.85323504   -4.0961812   -4.0961812   -2.8163299  0.021064751   -4.0961812    1.2798513  1010000 
  584000   0.85431977    -4.098185    -4.098185   -2.8167066   0.01489395    -4.098185    1.2814784  1010000 
  585000   0.85354423   -4.0975488   -4.0975488   -2.8172337  0.017046284   -4.0975488    1.2803151  1010000 
  586000   0.85325538   -4.0976298   -4.0976298    -2.817748  0.016211685   -4.0976298    1.2798818  1010000 
  587000   0.85313433   -4.0976593   -4.0976593   -2.8179591  0.016152686   -4.0976593    1.2797002  1010000 
  588000   0.85353701   -4.0983248   -4.0983248   -2.8180206   0.01904645   -4.0983248    1.2803042  1010000 
  589000   0.85383532   -4.0986528   -4.0986528   -2.8179011  0.019265265   -4.0986528    1.2807517  1010000 
  590000   0.85380764   -4.0986778   -4.0986778   -2.8179676   0.02243305   -4.0986778    1.2807102  1010000 
  591000   0.85446741   -4.1006172   -4.1006172   -2.8189174   0.01822942   -4.1006172    1.2816998  1010000 
  592000   0.85429596   -4.1000778   -4.1000778   -2.8186352  0.021828005   -4.1000778    1.2814427  1010000 
  593000    0.8547935   -4.1010523   -4.1010523   -2.8188633  0.019979976   -4.1010523     1.282189  1010000 
  594000   0.85425078   -4.1002555   -4.1002555   -2.8188806  0.020074072   -4.1002555    1.2813749  1010000 
  595000    0.8543516   -4.1006668   -4.1006668   -2.8191407  0.017565213   -4.1006668    1.2815261  1010000 
  596000   0.85376657   -4.1008043   -4.1008043   -2.8201557  0.014618939   -4.1008043    1.2806486  1010000 
  597000    0.8535533   -4.1007963   -4.1007963   -2.8204677  0.022517903   -4.1007963    1.2803287  1010000 
  598000   0.85386625   -4.1013372   -4.1013372   -2.8205391  0.017727657   -4.1013372    1.2807981  1010000 
  599000   0.85323718   -4.1003578   -4.1003578   -2.8205032  0.021484307   -4.1003578    1.2798545  1010000 
  600000   0.85364431   -4.1016892   -4.1016892    -2.821224  0.016112656   -4.1016892    1.2804652  1010000 
  601000   0.85204888   -4.1004067   -4.1004067   -2.8223347  0.018000731   -4.1004067    1.2780721  1010000 
  602000   0.85314245   -4.1018501   -4.1018501   -2.8221377  0.017914321   -4.1018501    1.2797124  1010000 
  603000   0.85202032   -4.1000781   -4.1000781   -2.8220489  0.017431593   -4.1000781    1.2780292  1010000 
  604000   0.85220019   -4.1005003   -4.1005003   -2.8222012  0.019185264   -4.1005003     1.278299  1010000 
  605000   0.85239056   -4.1013616   -4.1013616    -2.822777  0.015659611   -4.1013616    1.2785846  1010000 
  606000   0.85279114   -4.1024319   -4.1024319   -2.8232465  0.016578881   -4.1024319    1.2791854  1010000 
  607000   0.85258323   -4.1025576   -4.1025576   -2.8236841  0.024685878   -4.1025576    1.2788736  1010000 
  608000   0.85388228   -4.1052629   -4.1052629   -2.8244407  0.020381645   -4.1052629    1.2808222  1010000 
  609000    0.8534121   -4.1045808   -4.1045808   -2.8244639  0.021700143   -4.1045808    1.2801169  1010000 
  610000   0.85273119   -4.1038546   -4.1038546   -2.8247591  0.021360285   -4.1038546    1.2790955  1010000 
  611000   0.85375128   -4.1056081   -4.1056081   -2.8249825  0.019388193   -4.1056081    1.2806256  1010000 
  612000   0.85337548   -4.1059187   -4.1059187   -2.8258568  0.019951356   -4.1059187     1.280062  1010000 
  613000    0.8533541   -4.1058442   -4.1058442   -2.8258143  0.017439027   -4.1058442    1.2800299  1010000 
  614000   0.85277872   -4.1048162   -4.1048162   -2.8256494   0.01956345   -4.1048162    1.2791668  1010000 
  615000   0.85288408   -4.1046223   -4.1046223   -2.8252975  0.023165006   -4.1046223    1.2793249  1010000 
  616000   0.85340085   -4.1053574   -4.1053574   -2.8252574  0.023706278   -4.1053574       1.2801  1010000 
  617000   0.85349021   -4.1059014   -4.1059014   -2.8256673   0.01758941   -4.1059014    1.2802341  1010000 
  618000   0.85365868   -4.1063531   -4.1063531   -2.8258663  0.015631415   -4.1063531    1.2804868  1010000 
  619000   0.85208583   -4.1035012   -4.1035012   -2.8253738  0.018630725   -4.1035012    1.2781275  1010000 
  620000   0.85205262   -4.1037796   -4.1037796   -2.8257019  0.016225193   -4.1037796    1.2780777  1010000 
  621000    0.8518812   -4.1033238   -4.1033238   -2.8255033  0.014759424   -4.1033238    1.2778205  1010000 
  622000   0.85299236   -4.1044662   -4.1044662   -2.8249789  0.012286901   -4.1044662    1.2794873  1010000 
  623000   0.85249501   -4.1040125   -4.1040125   -2.8252712  0.014673153   -4.1040125    1.2787413  1010000 
  624000   0.85257312   -4.1037014   -4.1037014    -2.824843  0.011379161   -4.1037014    1.2788584  1010000 
  625000   0.85223191   -4.1037554   -4.1037554   -2.8254088  0.013086249   -4.1037554    1.2783466  1010000 
  626000    0.8518495   -4.1033826   -4.1033826   -2.8256096  0.015686217   -4.1033826     1.277773  1010000 
  627000    0.8522555    -4.104055    -4.104055    -2.825673  0.016142748    -4.104055     1.278382  1010000 
  628000   0.85210827   -4.1041684   -4.1041684   -2.8260073  0.017366339   -4.1041684    1.2781611  1010000 
  629000   0.85316638   -4.1053608   -4.1053608   -2.8256125  0.020361365   -4.1053608    1.2797483  1010000 
  630000   0.85345777   -4.1063296   -4.1063296   -2.8261442  0.017793866   -4.1063296    1.2801854  1010000 
  631000   0.85333145   -4.1060704   -4.1060704   -2.8260745  0.019389232   -4.1060704    1.2799959  1010000 
  632000   0.85255653   -4.1051677   -4.1051677   -2.8263342  0.019472888   -4.1051677    1.2788335  1010000 
  633000   0.85283567   -4.1057859   -4.1057859   -2.8265337  0.025084864   -4.1057859    1.2792522  1010000 
  634000   0.85235076   -4.1057241   -4.1057241   -2.8271992  0.025177207   -4.1057241    1.2785249  1010000 
  635000   0.85404667   -4.1085525   -4.1085525   -2.8274838  0.017716682   -4.1085525    1.2810687  1010000 
  636000   0.85272183   -4.1071102   -4.1071102   -2.8280287  0.019854431   -4.1071102    1.2790815  1010000 
  637000   0.85212299   -4.1061636   -4.1061636   -2.8279803  0.019748858   -4.1061636    1.2781832  1010000 
  638000   0.85210477   -4.1059636   -4.1059636   -2.8278077  0.015938949   -4.1059636    1.2781559  1010000 
  639000   0.85146884   -4.1055189   -4.1055189   -2.8283169  0.018193705   -4.1055189     1.277202  1010000 
  640000   0.85195191   -4.1066212   -4.1066212   -2.8286946  0.014709584   -4.1066212    1.2779266  1010000 
  641000   0.85223145   -4.1071657   -4.1071657   -2.8288198  0.013342528   -4.1071657    1.2783459  1010000 
  642000   0.85137302   -4.1061302   -4.1061302   -2.8290719  0.016845628   -4.1061302    1.2770583  1010000 
  643000   0.85145498   -4.1058257   -4.1058257   -2.8286445  0.018985507   -4.1058257    1.2771812  1010000 
  644000   0.85189301   -4.1058638   -4.1058638   -2.8280256   0.01918822   -4.1058638    1.2778382  1010000 
  645000   0.85206961   -4.1065832   -4.1065832     -2.82848  0.018102102   -4.1065832    1.2781031  1010000 
  646000   0.85208036   -4.1069994   -4.1069994   -2.8288801  0.014963916   -4.1069994    1.2781193  1010000 
  647000   0.85177023   -4.1067643   -4.1067643   -2.8291102  0.014110175   -4.1067643    1.2776541  1010000 
  648000    0.8514917   -4.1061751   -4.1061751   -2.8289388   0.01598777   -4.1061751    1.2772363  1010000 
  649000    0.8512593   -4.1057474   -4.1057474   -2.8288597  0.019317451   -4.1057474    1.2768877  1010000 
  650000   0.85218623    -4.107443    -4.107443   -2.8291649  0.015128802    -4.107443    1.2782781  1010000 
  651000   0.85215947   -4.1081774   -4.1081774   -2.8299395  0.015851184   -4.1081774    1.2782379  1010000 
  652000   0.85183467   -4.1075591   -4.1075591   -2.8298084  0.018118569   -4.1075591    1.2777507  1010000 
  653000   0.85283113   -4.1087603   -4.1087603   -2.8295149  0.016199106   -4.1087603    1.2792454  1010000 
  654000   0.85335467   -4.1099333   -4.1099333   -2.8299026  0.019202054   -4.1099333    1.2800307  1010000 
  655000   0.85314367   -4.1097573   -4.1097573    -2.830043  0.022277176   -4.1097573    1.2797142  1010000 
  656000   0.85374433   -4.1110031   -4.1110031   -2.8303879  0.018901681   -4.1110031    1.2806152  1010000 
  657000   0.85235354   -4.1097574   -4.1097574   -2.8312283    0.0205288   -4.1097574     1.278529  1010000 
  658000   0.85266499   -4.1103539   -4.1103539   -2.8313577  0.018003587   -4.1103539    1.2789962  1010000 
  659000   0.85226068   -4.1098687   -4.1098687   -2.8314789  0.018303431   -4.1098687    1.2783898  1010000 
  660000   0.85199424   -4.1089126   -4.1089126   -2.8309225  0.016397809   -4.1089126    1.2779901  1010000 
  661000   0.85229595   -4.1097643   -4.1097643   -2.8313217  0.016995661   -4.1097643    1.2784427  1010000 
  662000   0.85181759   -4.1089818   -4.1089818   -2.8312567   0.01783005   -4.1089818    1.2777251  1010000 
  663000   0.85104575   -4.1079377   -4.1079377   -2.8313703  0.016736326   -4.1079377    1.2765674  1010000 
  664000   0.85143576   -4.1085285   -4.1085285   -2.8313761  0.017797995   -4.1085285    1.2771524  1010000 
  665000   0.85169012    -4.109263    -4.109263   -2.8317291  0.018344267    -4.109263    1.2775339  1010000 
  666000   0.85124528   -4.1089023   -4.1089023   -2.8320356  0.018809174   -4.1089023    1.2768667  1010000 
  667000    0.8521499   -4.1105888   -4.1105888   -2.8323652  0.014779689   -4.1105888    1.2782236  1010000 
  668000   0.85164596   -4.1100182   -4.1100182   -2.8325505  0.016839926   -4.1100182    1.2774677  1010000 
  669000   0.85183926    -4.110389    -4.110389   -2.8326313  0.014651819    -4.110389    1.2777576  1010000 
  670000   0.85191331   -4.1104478   -4.1104478   -2.8325792  0.013456719   -4.1104478    1.2778687  1010000 
  671000   0.85193792   -4.1103277   -4.1103277   -2.8324221  0.017757311   -4.1103277    1.2779056  1010000 
  672000   0.85251767   -4.1113027   -4.1113027   -2.8325275  0.022029982   -4.1113027    1.2787752  1010000 
  673000   0.85265828   -4.1120529   -4.1120529   -2.8330668   0.01655233   -4.1120529    1.2789862  1010000 
  674000   0.85229898    -4.111203    -4.111203   -2.8327558   0.01761589    -4.111203    1.2784472  1010000 
  675000   0.85187339   -4.1108534   -4.1108534   -2.8330446  0.021753559   -4.1108534    1.2778088  1010000 
  676000   0.85183765   -4.1106951   -4.1106951   -2.8329399   0.01972892   -4.1106951    1.2777552  1010000 
  677000    0.8520314   -4.1110072   -4.1110072   -2.8329614  0.016294073   -4.1110072    1.2780458  1010000 
  678000    0.8522547   -4.1123144   -4.1123144   -2.8339336  0.014512376   -4.1123144    1.2783808  1010000 
  679000   0.85185889   -4.1118431   -4.1118431    -2.834056  0.013435748   -4.1118431    1.2777871  1010000 
  680000   0.85214453    -4.112219    -4.112219   -2.8340035  0.017908853    -4.112219    1.2782155  1010000 
  681000   0.85076528   -4.1109522   -4.1109522   -2.8348056  0.018967597   -4.1109522    1.2761467  1010000 
  682000   0.85108083   -4.1110639   -4.1110639   -2.8344439  0.020656223   -4.1110639      1.27662  1010000 
  683000   0.85142612   -4.1120055   -4.1120055   -2.8348676  0.017505287   -4.1120055    1.2771379  1010000 
  684000   0.85118968   -4.1113907   -4.1113907   -2.8346074  0.020591957   -4.1113907    1.2767833  1010000 
  685000   0.85210454   -4.1132861   -4.1132861   -2.8351305  0.014792351   -4.1132861    1.2781555  1010000 
  686000   0.85074174   -4.1120043   -4.1120043   -2.8358929  0.020138445   -4.1120043    1.2761114  1010000 
  687000   0.85134359   -4.1126554   -4.1126554   -2.8356413  0.023221034   -4.1126554    1.2770141  1010000 
  688000   0.85163199   -4.1130767   -4.1130767   -2.8356299  0.020203116   -4.1130767    1.2774467  1010000 
  689000   0.85177426   -4.1135319   -4.1135319   -2.8358718  0.019571579   -4.1135319    1.2776601  1010000 
  690000   0.85197766   -4.1145734   -4.1145734   -2.8366082  0.016768632   -4.1145734    1.2779652  1010000 
  691000   0.85110376   -4.1136858   -4.1136858   -2.8370315  0.022785983   -4.1136858    1.2766544  1010000 
  692000    0.8520258   -4.1147806   -4.1147806   -2.8367432  0.020904993   -4.1147806    1.2780374  1010000 
  693000   0.85246543   -4.1151525   -4.1151525   -2.8364556   0.01689871   -4.1151525    1.2786969  1010000 
  694000   0.85220098   -4.1151382   -4.1151382    -2.836838  0.019201613   -4.1151382    1.2783002  1010000 
  695000   0.85225949   -4.1150792   -4.1150792   -2.8366912   0.01786455   -4.1150792     1.278388  1010000 
  696000   0.85213404   -4.1145378   -4.1145378    -2.836338  0.018688104   -4.1145378    1.2781998  1010000 
  697000   0.85231509   -4.1151596   -4.1151596   -2.8366882   0.01688205   -4.1151596    1.2784714  1010000 
  698000   0.85263326   -4.1156287   -4.1156287   -2.8366801  0.019537581   -4.1156287    1.2789486  1010000 
  699000   0.85227653    -4.115136    -4.115136   -2.8367225  0.020680663    -4.115136    1.2784135  1010000 
  700000   0.85254654   -4.1153216   -4.1153216   -2.8365031  0.018514341   -4.1153216    1.2788185  1010000 
  701000   0.85173692   -4.1142874   -4.1142874   -2.8366833  0.018039506   -4.1142874    1.2776041  1010000 
  702000   0.85108395   -4.1136381   -4.1136381   -2.8370134  0.017777523   -4.1136381    1.2766247  1010000 
  703000   0.85213808   -4.1158315   -4.1158315   -2.8376256  0.012291853   -4.1158315    1.2782059  1010000 
  704000   0.85106435   -4.1145219   -4.1145219   -2.8379267  0.014420321   -4.1145219    1.2765953  1010000 
  705000   0.85055397   -4.1139196   -4.1139196   -2.8380899  0.015907726   -4.1139196    1.2758297  1010000 
  706000   0.85134257    -4.114509    -4.114509   -2.8374964  0.016712764    -4.114509    1.2770126  1010000 
  707000   0.85204545   -4.1156613   -4.1156613   -2.8375944  0.017313439   -4.1156613    1.2780669  1010000 
  708000   0.85167403   -4.1147466   -4.1147466   -2.8372368  0.018486908   -4.1147466    1.2775098  1010000 
  709000   0.85173577     -4.11473     -4.11473   -2.8371276  0.018431463     -4.11473    1.2776024  1010000 
  710000   0.85240856    -4.116472    -4.116472   -2.8378604   0.01510263    -4.116472    1.2786116  1010000 
  711000   0.85209396   -4.1161468   -4.1161468   -2.8380071  0.020103248   -4.1161468    1.2781397  1010000 
  712000   0.85216387   -4.1169071   -4.1169071   -2.8386626  0.014638254   -4.1169071    1.2782445  1010000 
  713000   0.85136721   -4.1157619   -4.1157619   -2.8387123  0.016801329   -4.1157619    1.2770495  1010000 
  714000   0.85185327   -4.1168883   -4.1168883   -2.8391097  0.019387621   -4.1168883    1.2777786  1010000 
  715000   0.85238965   -4.1182262   -4.1182262    -2.839643  0.016662415   -4.1182262    1.2785832  1010000 
  716000   0.85212224   -4.1180445   -4.1180445   -2.8398624  0.015658005   -4.1180445    1.2781821  1010000 
  717000   0.85211763   -4.1177239   -4.1177239   -2.8395487  0.018244078   -4.1177239    1.2781752  1010000 
  718000    0.8520523    -4.117008    -4.117008   -2.8389308  0.020174448    -4.117008    1.2780772  1010000 
  719000   0.85169407   -4.1168274   -4.1168274   -2.8392875  0.022287264   -4.1168274    1.2775398  1010000 
  720000    0.8529918   -4.1188614   -4.1188614   -2.8393749  0.019195759   -4.1188614    1.2794864  1010000 
  721000   0.85241539   -4.1184653   -4.1184653   -2.8398434  0.018744569   -4.1184653    1.2786218  1010000 
  722000    0.8524309   -4.1183375   -4.1183375   -2.8396924  0.016824655   -4.1183375    1.2786451  1010000 
  723000     0.851133    -4.116214    -4.116214   -2.8395158  0.019037962    -4.116214    1.2766982  1010000 
  724000   0.85154023   -4.1168714   -4.1168714   -2.8395623  0.018432686   -4.1168714    1.2773091  1010000 
  725000   0.85098228   -4.1159282   -4.1159282    -2.839456   0.01632706   -4.1159282    1.2764722  1010000 
  726000   0.85147352   -4.1168439   -4.1168439   -2.8396349  0.017501424   -4.1168439     1.277209  1010000 
  727000   0.85149101   -4.1173732   -4.1173732    -2.840138  0.013240043   -4.1173732    1.2772352  1010000 
  728000   0.85082877   -4.1158258   -4.1158258   -2.8395839  0.016772956   -4.1158258    1.2762419  1010000 
  729000   0.85175301   -4.1170888   -4.1170888   -2.8394605  0.013864822   -4.1170888    1.2776283  1010000 
  730000   0.85157955   -4.1164672   -4.1164672   -2.8390992  0.015870902   -4.1164672    1.2773681  1010000 
  731000   0.85181121   -4.1166874   -4.1166874   -2.8389719  0.010846326   -4.1166874    1.2777155  1010000 
  732000   0.85166069   -4.1166727   -4.1166727    -2.839183  0.014484931   -4.1166727    1.2774898  1010000 
  733000   0.85121119   -4.1160619   -4.1160619   -2.8392463  0.013829025   -4.1160619    1.2768155  1010000 
  734000   0.85175907   -4.1175165   -4.1175165   -2.8398792   0.01619327   -4.1175165    1.2776373  1010000 
  735000   0.85163622   -4.1180299   -4.1180299   -2.8405769   0.01348439   -4.1180299    1.2774531  1010000 
  736000   0.85153653   -4.1179721   -4.1179721   -2.8406686  0.015811002   -4.1179721    1.2773035  1010000 
  737000   0.85096784   -4.1167437   -4.1167437   -2.8402933  0.020689789   -4.1167437    1.2764505  1010000 
  738000   0.85218582   -4.1190917   -4.1190917   -2.8408143   0.01388198   -4.1190917    1.2782775  1010000 
  739000   0.85182774   -4.1188938   -4.1188938   -2.8411535   0.01756359   -4.1188938    1.2777403  1010000 
  740000   0.85193113   -4.1194944   -4.1194944   -2.8415989  0.017002617   -4.1194944    1.2778954  1010000 
  741000   0.85227377   -4.1204686   -4.1204686   -2.8420592  0.017002006   -4.1204686    1.2784094  1010000 
  742000   0.85171472   -4.1200874   -4.1200874   -2.8425166  0.021224716   -4.1200874    1.2775708  1010000 
  743000   0.85206875   -4.1212142   -4.1212142   -2.8431124  0.016668359   -4.1212142    1.2781019  1010000 
  744000    0.8516455   -4.1204286   -4.1204286   -2.8429616  0.017122243   -4.1204286     1.277467  1010000 
  745000   0.85121408   -4.1201852   -4.1201852   -2.8433653  0.014717303   -4.1201852    1.2768199  1010000 
  746000   0.85191347   -4.1210222   -4.1210222   -2.8431533  0.013296914   -4.1210222    1.2778689  1010000 
  747000   0.85205897   -4.1214487   -4.1214487   -2.8433615  0.017982057   -4.1214487    1.2780872  1010000 
  748000   0.85125571   -4.1203006   -4.1203006   -2.8434183  0.019764749   -4.1203006    1.2768823  1010000 
  749000   0.85139653   -4.1206074   -4.1206074   -2.8435139  0.015523667   -4.1206074    1.2770935  1010000 
  750000   0.85052128   -4.1200801   -4.1200801   -2.8442994  0.018001841   -4.1200801    1.2757807  1010000 
  751000   0.85195858   -4.1215341   -4.1215341   -2.8435975  0.011783945   -4.1215341    1.2779366  1010000 
  752000   0.85186919   -4.1216972   -4.1216972   -2.8438947  0.018811162   -4.1216972    1.2778025  1010000 
  753000   0.85096083   -4.1199216   -4.1199216   -2.8434816  0.018793847   -4.1199216      1.27644  1010000 
  754000   0.85130495   -4.1207311   -4.1207311   -2.8437749   0.01633764   -4.1207311    1.2769562  1010000 
  755000   0.85195957   -4.1216535   -4.1216535   -2.8437154  0.015127584   -4.1216535    1.2779381  1010000 
  756000   0.85112849   -4.1206633   -4.1206633   -2.8439718  0.017697233   -4.1206633    1.2766915  1010000 
  757000    0.8510283   -4.1215921   -4.1215921   -2.8450509  0.014568306   -4.1215921    1.2765412  1010000 
  758000   0.85093131   -4.1212447   -4.1212447    -2.844849  0.015903129   -4.1212447    1.2763957  1010000 
  759000   0.85041804   -4.1204745   -4.1204745   -2.8448487  0.016427676   -4.1204745    1.2756258  1010000 
  760000   0.85125205   -4.1217527   -4.1217527   -2.8448758  0.017643723   -4.1217527    1.2768768  1010000 
  761000   0.85213439   -4.1231366   -4.1231366   -2.8449363  0.015319005   -4.1231366    1.2782003  1010000 
  762000   0.85207594   -4.1224579   -4.1224579   -2.8443453  0.017443923   -4.1224579    1.2781126  1010000 
  763000   0.85247436   -4.1234689   -4.1234689   -2.8447587  0.018479751   -4.1234689    1.2787103  1010000 
  764000   0.85184576   -4.1231514   -4.1231514   -2.8453841   0.01992754   -4.1231514    1.2777674  1010000 
  765000   0.85194249   -4.1235992   -4.1235992   -2.8456867  0.017699385   -4.1235992    1.2779125  1010000 
  766000   0.85083528   -4.1230045   -4.1230045   -2.8467528  0.017763653   -4.1230045    1.2762517  1010000 
  767000   0.85097776   -4.1230278   -4.1230278   -2.8465624  0.023483401   -4.1230278    1.2764654  1010000 
  768000   0.85169446    -4.124211    -4.124211   -2.8466706  0.019654471    -4.124211    1.2775404  1010000 
  769000   0.85284003   -4.1264476   -4.1264476   -2.8471889  0.018266399   -4.1264476    1.2792588  1010000 
  770000   0.85177063   -4.1246086   -4.1246086    -2.846954   0.01938265   -4.1246086    1.2776547  1010000 
  771000   0.85207775   -4.1252846   -4.1252846   -2.8471692  0.019765989   -4.1252846    1.2781154  1010000 
  772000   0.85225087   -4.1255499   -4.1255499   -2.8471749  0.017009204   -4.1255499     1.278375  1010000 
  773000   0.85208377   -4.1257726   -4.1257726   -2.8476482  0.019435609   -4.1257726    1.2781244  1010000 
  774000   0.85185422   -4.1252017   -4.1252017   -2.8474216    0.0184994   -4.1252017    1.2777801  1010000 
  775000     0.851648   -4.1249109   -4.1249109   -2.8474401  0.020283384   -4.1249109    1.2774707  1010000 
  776000   0.85277714   -4.1264729   -4.1264729   -2.8473084  0.015674467   -4.1264729    1.2791645  1010000 
  777000   0.85217785   -4.1264857   -4.1264857   -2.8482202   0.01603028   -4.1264857    1.2782655  1010000 
  778000    0.8515971   -4.1249405   -4.1249405   -2.8475461   0.01670282   -4.1249405    1.2773944  1010000 
  779000    0.8512158   -4.1243749   -4.1243749   -2.8475524  0.019686098   -4.1243749    1.2768224  1010000 
  780000   0.85150365   -4.1253512   -4.1253512    -2.848097  0.017889693   -4.1253512    1.2772542  1010000 
  781000   0.85126159    -4.125024    -4.125024   -2.8481328  0.022082058    -4.125024    1.2768911  1010000 
  782000    0.8530836   -4.1273361   -4.1273361   -2.8477119   0.01678385   -4.1273361    1.2796241  1010000 
  783000   0.85156214   -4.1253032   -4.1253032   -2.8479612   0.02168759   -4.1253032    1.2773419  1010000 
  784000   0.85201499   -4.1266128   -4.1266128   -2.8485916   0.01649799   -4.1266128    1.2780212  1010000 
  785000   0.85242632   -4.1273314   -4.1273314   -2.8486932  0.015521687   -4.1273314    1.2786382  1010000 
  786000   0.85259057   -4.1278306   -4.1278306    -2.848946  0.018838028   -4.1278306    1.2788846  1010000 
  787000   0.85146663   -4.1267648   -4.1267648   -2.8495661  0.020228623   -4.1267648    1.2771987  1010000 
  788000   0.85291669   -4.1290587   -4.1290587   -2.8496849  0.015162103   -4.1290587    1.2793738  1010000 
  789000   0.85231309   -4.1281811   -4.1281811   -2.8497128  0.015976053   -4.1281811    1.2784684  1010000 
  790000   0.85196736   -4.1279931   -4.1279931   -2.8500433  0.017463349   -4.1279931    1.2779498  1010000 
  791000   0.85189552   -4.1277051   -4.1277051   -2.8498631  0.020015338   -4.1277051     1.277842  1010000 
  792000   0.85228305   -4.1282297   -4.1282297   -2.8498063  0.016561787   -4.1282297    1.2784233  1010000 
  793000   0.85262158   -4.1292861   -4.1292861    -2.850355  0.017062199   -4.1292861    1.2789311  1010000 
  794000   0.85227883   -4.1289279   -4.1289279   -2.8505109  0.019393314   -4.1289279     1.278417  1010000 
  795000   0.85276627   -4.1300042   -4.1300042   -2.8508561  0.021769191   -4.1300042    1.2791481  1010000 
  796000   0.85264907   -4.1301694   -4.1301694   -2.8511971  0.022342931   -4.1301694    1.2789723  1010000 
  797000   0.85304603   -4.1314617   -4.1314617   -2.8518939  0.023315145   -4.1314617    1.2795678  1010000 
  798000   0.85365014   -4.1324269   -4.1324269    -2.851953  0.019911797   -4.1324269    1.2804739  1010000 
  799000   0.85388123   -4.1331873   -4.1331873   -2.8523667  0.020734734   -4.1331873    1.2808206  1010000 
  800000   0.85341999   -4.1323444   -4.1323444   -2.8522157  0.023624668   -4.1323444    1.2801287  1010000 
  801000    0.8537955   -4.1328618   -4.1328618   -2.8521698  0.022636811   -4.1328618     1.280692  1010000 
  802000   0.85286097   -4.1321072   -4.1321072    -2.852817  0.024300973   -4.1321072    1.2792902  1010000 
  803000   0.85436951   -4.1343209   -4.1343209   -2.8527679  0.021649672   -4.1343209     1.281553  1010000 
  804000   0.85440272   -4.1340008   -4.1340008    -2.852398  0.022027762   -4.1340008    1.2816028  1010000 
  805000   0.85423325   -4.1341458   -4.1341458   -2.8527972  0.026915214   -4.1341458    1.2813486  1010000 
  806000   0.85404268   -4.1346444   -4.1346444   -2.8535816   0.02732772   -4.1346444    1.2810627  1010000 
  807000    0.8535864   -4.1338779   -4.1338779   -2.8534995  0.027546302   -4.1338779    1.2803783  1010000 
  808000   0.85462281    -4.135494    -4.135494   -2.8535611  0.022730199    -4.135494    1.2819329  1010000 
  809000   0.85441156   -4.1354066   -4.1354066   -2.8537905  0.023957371   -4.1354066    1.2816161  1010000 
  810000   0.85476047   -4.1359529   -4.1359529   -2.8538134  0.022888308   -4.1359529    1.2821394  1010000 
  811000   0.85465625   -4.1361131   -4.1361131     -2.85413  0.020326901   -4.1361131    1.2819831  1010000 
  812000   0.85367569   -4.1345802   -4.1345802    -2.854068  0.025830513   -4.1345802    1.2805123  1010000 
  813000   0.85403305   -4.1349123   -4.1349123    -2.853864  0.026967554   -4.1349123    1.2810483  1010000 
  814000   0.85458049   -4.1357349   -4.1357349   -2.8538655   0.02266423   -4.1357349    1.2818695  1010000 
  815000   0.85431012   -4.1357286   -4.1357286   -2.8542647  0.021938306   -4.1357286    1.2814639  1010000 
  816000   0.85380183   -4.1357164   -4.1357164   -2.8550149  0.019231026   -4.1357164    1.2807015  1010000 
  817000   0.85439329   -4.1371908   -4.1371908   -2.8556021  0.019643114   -4.1371908    1.2815887  1010000 
  818000   0.85297465   -4.1355739   -4.1355739   -2.8561132  0.024344223   -4.1355739    1.2794607  1010000 
  819000   0.85390618   -4.1372239   -4.1372239   -2.8563659  0.021601252   -4.1372239     1.280858  1010000 
  820000   0.85369504   -4.1373425   -4.1373425   -2.8568013  0.021726139   -4.1373425    1.2805413  1010000 
  821000   0.85325951   -4.1364493   -4.1364493   -2.8565613  0.024688216   -4.1364493     1.279888  1010000 
  822000   0.85442176   -4.1378932   -4.1378932   -2.8562618  0.023886518   -4.1378932    1.2816314  1010000 
  823000   0.85381992   -4.1368144   -4.1368144   -2.8560858  0.023563009   -4.1368144    1.2807286  1010000 
  824000   0.85427603   -4.1373785   -4.1373785   -2.8559657  0.026547732   -4.1373785    1.2814128  1010000 
  825000   0.85436601   -4.1377728   -4.1377728    -2.856225  0.028556941   -4.1377728    1.2815477  1010000 
  826000   0.85444709   -4.1383341   -4.1383341   -2.8566647  0.025628623   -4.1383341    1.2816694  1010000 
  827000   0.85336639    -4.137288    -4.137288   -2.8572397  0.027838491    -4.137288    1.2800483  1010000 
  828000   0.85430876    -4.138237    -4.138237   -2.8567752  0.028058348    -4.138237    1.2814619  1010000 
  829000   0.85475549    -4.138877    -4.138877    -2.856745  0.026220613    -4.138877     1.282132  1010000 
  830000   0.85416982   -4.1384131   -4.1384131   -2.8571597  0.029258084   -4.1384131    1.2812535  1010000 
  831000   0.85434373   -4.1391501   -4.1391501   -2.8576358  0.024745486   -4.1391501    1.2815143  1010000 
  832000   0.85399542   -4.1387803   -4.1387803   -2.8577884  0.029702037   -4.1387803    1.2809919  1010000 
  833000    0.8553831   -4.1411331   -4.1411331   -2.8580597  0.025839113   -4.1411331    1.2830734  1010000 
  834000   0.85481446    -4.140594    -4.140594   -2.8583736  0.030950728    -4.140594    1.2822204  1010000 
  835000   0.85525603   -4.1415467   -4.1415467    -2.858664  0.028619793   -4.1415467    1.2828828  1010000 
  836000   0.85473592   -4.1413527   -4.1413527     -2.85925  0.030353071   -4.1413527    1.2821026  1010000 
  837000   0.85602227   -4.1434636   -4.1434636   -2.8594315   0.02302925   -4.1434636    1.2840321  1010000 
  838000   0.85599042    -4.143885    -4.143885   -2.8599007  0.024828468    -4.143885    1.2839844  1010000 
  839000   0.85639179   -4.1439366   -4.1439366   -2.8593502  0.030519258   -4.1439366    1.2845864  1010000 
  840000   0.85489602   -4.1420532   -4.1420532   -2.8597104  0.031873268   -4.1420532    1.2823428  1010000 
  841000   0.85585569   -4.1441887   -4.1441887   -2.8604065  0.030237912   -4.1441887    1.2837823  1010000 
  842000   0.85488065   -4.1431545   -4.1431545   -2.8608348  0.032164221   -4.1431545    1.2823197  1010000 
  843000   0.85549128   -4.1440418   -4.1440418   -2.8608062  0.030933532   -4.1440418    1.2832356  1010000 
  844000   0.85492779   -4.1442261   -4.1442261   -2.8618356  0.029369175   -4.1442261    1.2823904  1010000 
  845000   0.85510333    -4.144571    -4.144571   -2.8619172  0.027144796    -4.144571    1.2826537  1010000 
  846000   0.85624281   -4.1463308   -4.1463308   -2.8619678  0.028363371   -4.1463308    1.2843629  1010000 
  847000   0.85545618   -4.1455642   -4.1455642   -2.8623812  0.030961075   -4.1455642     1.283183  1010000 
  848000   0.85549877   -4.1457926   -4.1457926   -2.8625457   0.03289056   -4.1457926    1.2832469  1010000 
  849000   0.85589453   -4.1468416   -4.1468416   -2.8630011  0.034060576   -4.1468416    1.2838405  1010000 
  850000   0.85608689   -4.1479389   -4.1479389   -2.8638098  0.034729256   -4.1479389    1.2841291  1010000 
  851000    0.8564461   -4.1487887   -4.1487887   -2.8641209  0.031169849   -4.1487887    1.2846679  1010000 
  852000   0.85559759   -4.1477314   -4.1477314   -2.8643363  0.035397795   -4.1477314    1.2833951  1010000 
  853000   0.85623227   -4.1489249   -4.1489249   -2.8645778   0.03400141   -4.1489249    1.2843471  1010000 
  854000   0.85557914   -4.1486819   -4.1486819   -2.8653144  0.032593757   -4.1486819    1.2833674  1010000 
  855000   0.85666379   -4.1500623   -4.1500623   -2.8650679   0.03454766   -4.1500623    1.2849944  1010000 
  856000   0.85632633   -4.1498456   -4.1498456   -2.8653573  0.033736306   -4.1498456    1.2844882  1010000 
  857000   0.85655701   -4.1506298   -4.1506298   -2.8657956  0.036294912   -4.1506298    1.2848342  1010000 
  858000   0.85605875   -4.1501466   -4.1501466   -2.8660598  0.037785203   -4.1501466    1.2840869  1010000 
  859000   0.85600886   -4.1502853   -4.1502853   -2.8662733   0.03567514   -4.1502853     1.284012  1010000 
  860000   0.85579969   -4.1503025   -4.1503025   -2.8666042  0.034479982   -4.1503025    1.2836983  1010000 
  861000   0.85546565   -4.1504674   -4.1504674   -2.8672702   0.03621842   -4.1504674    1.2831972  1010000 
  862000   0.85593408   -4.1508667   -4.1508667   -2.8669668  0.034258163   -4.1508667    1.2838998  1010000 
  863000   0.85632939   -4.1517067   -4.1517067   -2.8672139  0.033437625   -4.1517067    1.2844928  1010000 
  864000     0.855543   -4.1509927   -4.1509927   -2.8676794  0.032253639   -4.1509927    1.2833132  1010000 
  865000   0.85556524    -4.151061    -4.151061   -2.8677144  0.034833999    -4.151061    1.2833466  1010000 
  866000   0.85658428   -4.1526684   -4.1526684   -2.8677933  0.032205531   -4.1526684    1.2848751  1010000 
  867000   0.85622487   -4.1523265   -4.1523265   -2.8679905  0.032777181   -4.1523265     1.284336  1010000 
  868000   0.85607328    -4.152082    -4.152082   -2.8679733    0.0295914    -4.152082    1.2841086  1010000 
  869000   0.85506634   -4.1510841   -4.1510841   -2.8684858  0.030652633   -4.1510841    1.2825982  1010000 
  870000   0.85474396   -4.1510449   -4.1510449   -2.8689302  0.030457888   -4.1510449    1.2821147  1010000 
  871000   0.85429294   -4.1507813   -4.1507813   -2.8693431   0.02858289   -4.1507813    1.2814381  1010000 
  872000   0.85477581   -4.1512454   -4.1512454   -2.8690829  0.027226479   -4.1512454    1.2821624  1010000 
  873000   0.85453117   -4.1513399   -4.1513399   -2.8695444  0.030145301   -4.1513399    1.2817955  1010000 
  874000   0.85341592   -4.1497448   -4.1497448   -2.8696222  0.026476677   -4.1497448    1.2801226  1010000 
  875000   0.85362729   -4.1504226   -4.1504226   -2.8699829  0.022469505   -4.1504226    1.2804397  1010000 
  876000   0.85292849   -4.1498141   -4.1498141   -2.8704226  0.024572838   -4.1498141    1.2793915  1010000 
  877000   0.85246865   -4.1487281   -4.1487281   -2.8700264  0.025783204   -4.1487281    1.2787017  1010000 
  878000   0.85247027   -4.1486696   -4.1486696   -2.8699654  0.021364115   -4.1486696    1.2787041  1010000 
  879000   0.85168021   -4.1477575   -4.1477575   -2.8702385  0.022253489   -4.1477575    1.2775191  1010000 
  880000   0.85156807   -4.1478426   -4.1478426   -2.8704917  0.021107682   -4.1478426    1.2773508  1010000 
  881000   0.85135018    -4.147447    -4.147447    -2.870423  0.019868076    -4.147447     1.277024  1010000 
  882000   0.85085766    -4.146626    -4.146626   -2.8703408  0.020795907    -4.146626    1.2762852  1010000 
  883000   0.85188171   -4.1480826   -4.1480826   -2.8702614  0.016685066   -4.1480826    1.2778213  1010000 
  884000    0.8508742   -4.1465072   -4.1465072   -2.8701972  0.018981058   -4.1465072      1.27631  1010000 
  885000   0.85129862   -4.1463636   -4.1463636   -2.8694169  0.018459169   -4.1463636    1.2769467  1010000 
  886000     0.850788   -4.1458067   -4.1458067    -2.869626  0.019059266   -4.1458067    1.2761807  1010000 
  887000   0.85163048   -4.1468811   -4.1468811   -2.8694366  0.013226712   -4.1468811    1.2774445  1010000 
  888000     0.851008   -4.1460003   -4.1460003   -2.8694895  0.014540988   -4.1460003    1.2765107  1010000 
  889000   0.85062758   -4.1452905   -4.1452905   -2.8693504  0.014421303   -4.1452905    1.2759401  1010000 
  890000   0.85032926   -4.1449783   -4.1449783   -2.8694856  0.015193816   -4.1449783    1.2754926  1010000 
  891000    0.8501734   -4.1449776   -4.1449776   -2.8697187  0.016380209   -4.1449776    1.2752588  1010000 
  892000     0.850544   -4.1445972   -4.1445972   -2.8687825  0.018032494   -4.1445972    1.2758147  1010000 
  893000   0.85046547   -4.1449138   -4.1449138   -2.8692169  0.012873901   -4.1449138    1.2756969  1010000 
  894000   0.85040719   -4.1447068   -4.1447068   -2.8690972   0.01404223   -4.1447068    1.2756095  1010000 
  895000    0.8513216   -4.1457826   -4.1457826   -2.8688015 0.0099229843   -4.1457826    1.2769811  1010000 
  896000   0.85055345   -4.1447899   -4.1447899    -2.868961 0.0091636844   -4.1447899    1.2758289  1010000 
  897000   0.85004549   -4.1439457   -4.1439457   -2.8688788  0.011696964   -4.1439457     1.275067  1010000 
  898000   0.84993489   -4.1442062   -4.1442062   -2.8693051  0.012910765   -4.1442062    1.2749011  1010000 
  899000    0.8508861   -4.1458718   -4.1458718   -2.8695439 0.0095713857   -4.1458718    1.2763279  1010000 
  900000   0.84998828   -4.1446398   -4.1446398   -2.8696587   0.01259965   -4.1446398    1.2749812  1010000 
  901000   0.84918384   -4.1440796   -4.1440796   -2.8703051  0.012288108   -4.1440796    1.2737745  1010000 
  902000   0.85018514   -4.1454769   -4.1454769   -2.8702005 0.0099513539   -4.1454769    1.2752765  1010000 
  903000   0.84996453   -4.1452949   -4.1452949   -2.8703494  0.014207354   -4.1452949    1.2749455  1010000 
  904000   0.84942089   -4.1443351   -4.1443351   -2.8702051  0.016601769   -4.1443351    1.2741301  1010000 
  905000   0.84987258   -4.1451103   -4.1451103   -2.8703027   0.01463471   -4.1451103    1.2748076  1010000 
  906000   0.85046822   -4.1461115   -4.1461115   -2.8704104  0.014100368   -4.1461115    1.2757011  1010000 
  907000   0.85056959   -4.1460699   -4.1460699   -2.8702168  0.014987692   -4.1460699    1.2758531  1010000 
  908000   0.85076801   -4.1460977   -4.1460977   -2.8699469  0.016494585   -4.1460977    1.2761508  1010000 
  909000   0.85104373    -4.146872    -4.146872   -2.8703076  0.018860473    -4.146872    1.2765643  1010000 
  910000   0.85120662   -4.1477702   -4.1477702   -2.8709615  0.015009483   -4.1477702    1.2768087  1010000 
  911000   0.85086549   -4.1477711   -4.1477711   -2.8714741   0.01727683   -4.1477711     1.276297  1010000 
  912000   0.85166347   -4.1485503   -4.1485503   -2.8710564  0.015173612   -4.1485503    1.2774939  1010000 
  913000   0.85117951   -4.1479923   -4.1479923   -2.8712243  0.023159426   -4.1479923     1.276768  1010000 
  914000   0.85161324   -4.1490135   -4.1490135   -2.8715949  0.019553946   -4.1490135    1.2774186  1010000 
  915000   0.85237797   -4.1499684   -4.1499684   -2.8714027  0.019647991   -4.1499684    1.2785657  1010000 
  916000   0.85204764   -4.1497156   -4.1497156   -2.8716454  0.022439968   -4.1497156    1.2780702  1010000 
  917000   0.85249983    -4.150427    -4.150427   -2.8716785  0.020575933    -4.150427    1.2787485  1010000 
  918000   0.85233272   -4.1508091   -4.1508091   -2.8723113  0.023619433   -4.1508091    1.2784978  1010000 
  919000   0.85182832    -4.149918    -4.149918   -2.8721768  0.026944664    -4.149918    1.2777412  1010000 
  920000   0.85251442     -4.15194     -4.15194   -2.8731697  0.024318592     -4.15194    1.2787704  1010000 
  921000   0.85204924    -4.151097    -4.151097   -2.8730244  0.024271609    -4.151097    1.2780726  1010000 
  922000   0.85178154   -4.1514357   -4.1514357   -2.8737647  0.025566043   -4.1514357     1.277671  1010000 
  923000   0.85233635   -4.1526046   -4.1526046   -2.8741013  0.025381951   -4.1526046    1.2785033  1010000 
  924000   0.85318259   -4.1540937   -4.1540937   -2.8743211  0.025763575   -4.1540937    1.2797726  1010000 
  925000   0.85272481   -4.1535223   -4.1535223   -2.8744364  0.023035153   -4.1535223     1.279086  1010000 
  926000   0.85290179   -4.1540912   -4.1540912   -2.8747398  0.026258973   -4.1540912    1.2793514  1010000 
  927000   0.85318492   -4.1547184   -4.1547184   -2.8749422  0.024949701   -4.1547184    1.2797761  1010000 
  928000   0.85304487   -4.1546955   -4.1546955   -2.8751294  0.027903791   -4.1546955     1.279566  1010000 
  929000   0.85283382   -4.1546501   -4.1546501   -2.8754006  0.025433034   -4.1546501    1.2792495  1010000 
  930000   0.85280452   -4.1548105   -4.1548105    -2.875605  0.029178775   -4.1548105    1.2792055  1010000 
  931000   0.85307897   -4.1561124   -4.1561124   -2.8764952  0.027593368   -4.1561124    1.2796172  1010000 
  932000   0.85253288   -4.1557367   -4.1557367   -2.8769386  0.024710367   -4.1557367     1.278798  1010000 
  933000   0.85208393   -4.1555005   -4.1555005   -2.8773759  0.025287039   -4.1555005    1.2781246  1010000 
  934000   0.85175539   -4.1546358   -4.1546358    -2.877004  0.025655723   -4.1546358    1.2776318  1010000 
  935000   0.85249235   -4.1561031   -4.1561031   -2.8773658  0.022180636   -4.1561031    1.2787373  1010000 
  936000    0.8518563   -4.1554792   -4.1554792    -2.877696  0.021590813   -4.1554792    1.2777832  1010000 
  937000   0.85120305    -4.155319    -4.155319   -2.8785157  0.023280266    -4.155319    1.2768033  1010000 
  938000   0.85089581   -4.1554498   -4.1554498   -2.8791074  0.025172665   -4.1554498    1.2763425  1010000 
  939000   0.85116527   -4.1559001   -4.1559001   -2.8791534  0.021788077   -4.1559001    1.2767466  1010000 
  940000   0.85073562   -4.1558413   -4.1558413   -2.8797391  0.020560343   -4.1558413    1.2761022  1010000 
  941000   0.85026459   -4.1558005   -4.1558005   -2.8804048  0.021191764   -4.1558005    1.2753956  1010000 
  942000   0.85024573   -4.1563523   -4.1563523   -2.8809849  0.019406744   -4.1563523    1.2753673  1010000 
  943000   0.84985864   -4.1557999   -4.1557999   -2.8810132  0.020839138   -4.1557999    1.2747867  1010000 
  944000   0.84918125   -4.1549124   -4.1549124   -2.8811418   0.02331277   -4.1549124    1.2737706  1010000 
  945000   0.84970592    -4.155552    -4.155552   -2.8809944  0.020643419    -4.155552    1.2745576  1010000 
  946000   0.85008934   -4.1560084   -4.1560084   -2.8808756  0.021256243   -4.1560084    1.2751327  1010000 
  947000   0.85004788   -4.1561599   -4.1561599   -2.8810894  0.019406644   -4.1561599    1.2750706  1010000 
  948000   0.84974102   -4.1550791   -4.1550791   -2.8804688  0.021668218   -4.1550791    1.2746103  1010000 
  949000   0.84987967    -4.155421    -4.155421   -2.8806027  0.019601143    -4.155421    1.2748182  1010000 
  950000   0.84986833   -4.1556564   -4.1556564   -2.8808551  0.019960552   -4.1556564    1.2748012  1010000 
  951000   0.84936316   -4.1546153   -4.1546153   -2.8805718  0.019992459   -4.1546153    1.2740435  1010000 
  952000   0.84975269   -4.1544461   -4.1544461   -2.8798183  0.022030733   -4.1544461    1.2746278  1010000 
  953000    0.8510695   -4.1568072   -4.1568072   -2.8802042  0.017069313   -4.1568072     1.276603  1010000 
  954000   0.84991681   -4.1554836   -4.1554836   -2.8806096  0.023175818   -4.1554836     1.274874  1010000 
  955000   0.84957792   -4.1551043   -4.1551043   -2.8807387  0.023912355   -4.1551043    1.2743656  1010000 
  956000   0.84987025   -4.1555916   -4.1555916   -2.8807875  0.023974154   -4.1555916    1.2748041  1010000 
  957000   0.85067413   -4.1570171   -4.1570171   -2.8810072  0.020315613   -4.1570171    1.2760099  1010000 
  958000   0.85162458   -4.1587733   -4.1587733   -2.8813377  0.016778731   -4.1587733    1.2774356  1010000 
  959000   0.85063195    -4.157092    -4.157092   -2.8811453   0.02298103    -4.157092    1.2759467  1010000 
  960000   0.85001391   -4.1562794   -4.1562794   -2.8812598  0.023881353   -4.1562794    1.2750196  1010000 
  961000   0.84970271   -4.1559235   -4.1559235   -2.8813707  0.022767401   -4.1559235    1.2745528  1010000 
  962000   0.84992117   -4.1565775   -4.1565775    -2.881697  0.016332063   -4.1565775    1.2748805  1010000 
  963000    0.8505871   -4.1571482   -4.1571482   -2.8812688  0.019060126   -4.1571482    1.2758794  1010000 
  964000     0.849788   -4.1564891   -4.1564891   -2.8818084  0.017163244   -4.1564891    1.2746807  1010000 
  965000   0.84970548   -4.1564526   -4.1564526   -2.8818956  0.018647792   -4.1564526     1.274557  1010000 
  966000   0.84902526   -4.1560304   -4.1560304   -2.8824938  0.019697127   -4.1560304    1.2735366  1010000 
  967000   0.84922734   -4.1562502   -4.1562502   -2.8824105  0.019145894   -4.1562502    1.2738397  1010000 
  968000   0.84968945   -4.1573246   -4.1573246   -2.8827917   0.01777302   -4.1573246    1.2745329  1010000 
  969000   0.84965006   -4.1574272   -4.1574272   -2.8829534  0.020627071   -4.1574272    1.2744738  1010000 
  970000   0.84892057   -4.1565277   -4.1565277   -2.8831481  0.022725304   -4.1565277    1.2733796  1010000 
  971000   0.84877843   -4.1560465   -4.1560465   -2.8828801  0.026043171   -4.1560465    1.2731664  1010000 
  972000   0.84926935   -4.1572109   -4.1572109   -2.8833081   0.02176353   -4.1572109    1.2739028  1010000 
  973000   0.85004219   -4.1585943   -4.1585943   -2.8835323  0.018258667   -4.1585943     1.275062  1010000 
  974000   0.84997213   -4.1589789   -4.1589789   -2.8840219    0.0228191   -4.1589789    1.2749569  1010000 
  975000    0.8497159     -4.15844     -4.15844   -2.8838674   0.02206133     -4.15844    1.2745726  1010000 
  976000    0.8499785   -4.1581968   -4.1581968   -2.8832303  0.022114256   -4.1581968    1.2749665  1010000 
  977000   0.85005178   -4.1589933   -4.1589933   -2.8839169  0.023352124   -4.1589933    1.2750764  1010000 
  978000   0.85089071   -4.1601787   -4.1601787   -2.8838439  0.019532524   -4.1601787    1.2763348  1010000 
  979000   0.84922023   -4.1581517   -4.1581517   -2.8843226  0.022706455   -4.1581517    1.2738291  1010000 
  980000   0.84953618   -4.1580737   -4.1580737   -2.8837707  0.021838421   -4.1580737     1.274303  1010000 
  981000   0.84998849   -4.1586734   -4.1586734   -2.8836919  0.019276593   -4.1586734    1.2749815  1010000 
  982000   0.84934121   -4.1580025   -4.1580025   -2.8839919  0.021031648   -4.1580025    1.2740106  1010000 
  983000    0.8508982   -4.1603727   -4.1603727   -2.8840266  0.018396239   -4.1603727     1.276346  1010000 
  984000    0.8504298   -4.1597001   -4.1597001   -2.8840567  0.019537942   -4.1597001    1.2756434  1010000 
  985000   0.84930528    -4.158163    -4.158163   -2.8842064   0.02082763    -4.158163    1.2739567  1010000 
  986000   0.84976916   -4.1585633   -4.1585633   -2.8839108  0.021921831   -4.1585633    1.2746525  1010000 
  987000     0.849674   -4.1591419   -4.1591419   -2.8846321  0.024957965   -4.1591419    1.2745097  1010000 
  988000    0.8499257   -4.1592927   -4.1592927   -2.8844054  0.025507264   -4.1592927    1.2748873  1010000 
  989000   0.85040196   -4.1601906   -4.1601906   -2.8845889  0.025648823   -4.1601906    1.2756017  1010000 
  990000   0.84992035   -4.1596631   -4.1596631   -2.8847839  0.026952564   -4.1596631    1.2748793  1010000 
  991000    0.8503357    -4.160395    -4.160395   -2.8848928   0.02290372    -4.160395    1.2755023  1010000 
  992000   0.85012034   -4.1602484   -4.1602484   -2.8850691  0.023912417   -4.1602484    1.2751792  1010000 
  993000   0.84982426   -4.1606166   -4.1606166   -2.8858815  0.024743668   -4.1606166    1.2747351  1010000 
  994000   0.84974144   -4.1603743   -4.1603743   -2.8857634  0.023248197   -4.1603743    1.2746109  1010000 
  995000    0.8494778     -4.16012     -4.16012   -2.8859045  0.022115771     -4.16012    1.2742154  1010000 
  996000   0.84984164   -4.1606023   -4.1606023   -2.8858411  0.025574486   -4.1606023    1.2747612  1010000 
  997000   0.85016771    -4.161313    -4.161313   -2.8860627  0.022172359    -4.161313    1.2752503  1010000 
  998000   0.85001459    -4.161481    -4.161481   -2.8864604  0.021403064    -4.161481    1.2750206  1010000 
  999000   0.84906033   -4.1602693   -4.1602693   -2.8866801  0.024439635   -4.1602693    1.2735892  1010000 
 1000000   0.84965977    -4.162014    -4.162014   -2.8875256  0.019038335    -4.162014    1.2744884  1010000 
 1001000    0.8486031   -4.1601983   -4.1601983   -2.8872949  0.021998364   -4.1601983    1.2729034  1010000 
 1002000   0.84850863   -4.1603631   -4.1603631   -2.8876015  0.020199407   -4.1603631    1.2727617  1010000 
 1003000   0.84865102    -4.160718    -4.160718   -2.8877427  0.022273827    -4.160718    1.2729753  1010000 
 1004000   0.84895366   -4.1609846   -4.1609846   -2.8875554  0.020779841   -4.1609846    1.2734292  1010000 
 1005000   0.84942464   -4.1617119   -4.1617119   -2.8875762  0.020418255   -4.1617119    1.2741357  1010000 
 1006000   0.84986584   -4.1624806   -4.1624806   -2.8876831   0.01834457   -4.1624806    1.2747975  1010000 
 1007000   0.84919952   -4.1616036   -4.1616036   -2.8878055  0.019239912   -4.1616036     1.273798  1010000 
 1008000   0.84923019   -4.1614967   -4.1614967   -2.8876527  0.020702003   -4.1614967     1.273844  1010000 
 1009000   0.84873354   -4.1615054   -4.1615054   -2.8884063  0.022330203   -4.1615054     1.273099  1010000 
 1010000   0.84907623   -4.1620764   -4.1620764   -2.8884633  0.021541969   -4.1620764    1.2736131  1010000 
 1011000   0.84875483   -4.1619487   -4.1619487   -2.8888177  0.023019039   -4.1619487     1.273131  1010000 
 1012000   0.84905904   -4.1627432   -4.1627432   -2.8891559  0.018596496   -4.1627432    1.2735873  1010000 
 1013000   0.84912901    -4.162456    -4.162456   -2.8887638  0.020463881    -4.162456    1.2736923  1010000 
 1014000   0.84933445    -4.162554    -4.162554   -2.8885536  0.019819076    -4.162554    1.2740004  1010000 
 1015000   0.85008457   -4.1639319   -4.1639319   -2.8888064  0.019877027   -4.1639319    1.2751256  1010000 
 1016000    0.8491318   -4.1620911   -4.1620911   -2.8883946  0.023332604   -4.1620911    1.2736964  1010000 
 1017000   0.84900335   -4.1619777   -4.1619777    -2.888474  0.023646718   -4.1619777    1.2735038  1010000 
 1018000    0.8494574   -4.1631421   -4.1631421   -2.8889572  0.020397116   -4.1631421    1.2741848  1010000 
 1019000   0.84858644   -4.1623559   -4.1623559   -2.8894775  0.024938634   -4.1623559    1.2728784  1010000 
 1020000    0.8483047   -4.1621513   -4.1621513   -2.8896955  0.020518262   -4.1621513    1.2724558  1010000 
 1021000    0.8487405    -4.163402    -4.163402   -2.8902925  0.017046425    -4.163402    1.2731095  1010000 
 1022000    0.8475877   -4.1623844   -4.1623844   -2.8910041  0.022082171   -4.1623844    1.2713803  1010000 
 1023000   0.84813268   -4.1627879   -4.1627879   -2.8905901  0.019423039   -4.1627879    1.2721978  1010000 
 1024000   0.84780072    -4.162114    -4.162114   -2.8904141  0.022386106    -4.162114    1.2716998  1010000 
 1025000   0.84863328   -4.1630424   -4.1630424   -2.8900937  0.022088724   -4.1630424    1.2729487  1010000 
 1026000   0.84803203   -4.1619525   -4.1619525   -2.8899057  0.020687938   -4.1619525    1.2720468  1010000 
 1027000   0.84897242   -4.1634086   -4.1634086   -2.8899512  0.021336539   -4.1634086    1.2734574  1010000 
 1028000   0.84870399   -4.1630403   -4.1630403   -2.8899855  0.020013011   -4.1630403    1.2730547  1010000 
 1029000   0.84877954   -4.1633904   -4.1633904   -2.8902224  0.023834377   -4.1633904    1.2731681  1010000 
 1030000   0.84807381   -4.1627131   -4.1627131   -2.8906037  0.026867977   -4.1627131    1.2721095  1010000 
 1031000   0.84909538   -4.1641312   -4.1641312   -2.8904893  0.021694803   -4.1641312    1.2736418  1010000 
 1032000   0.84876862   -4.1638407   -4.1638407    -2.890689  0.022586594   -4.1638407    1.2731517  1010000 
 1033000   0.84887693   -4.1636373   -4.1636373   -2.8903231  0.023127721   -4.1636373    1.2733141  1010000 
 1034000   0.84919143   -4.1639448   -4.1639448   -2.8901589  0.022997588   -4.1639448    1.2737859  1010000 
 1035000   0.84846778   -4.1630331   -4.1630331   -2.8903326  0.022612429   -4.1630331    1.2727004  1010000 
 1036000   0.84897117   -4.1643351   -4.1643351   -2.8908797  0.023589206   -4.1643351    1.2734555  1010000 
 1037000   0.84839261   -4.1636551   -4.1636551   -2.8910674  0.021455434   -4.1636551    1.2725877  1010000 
 1038000   0.84837659   -4.1639255   -4.1639255   -2.8913618  0.022857906   -4.1639255    1.2725636  1010000 
 1039000    0.8485003   -4.1645845   -4.1645845   -2.8918353  0.020734351   -4.1645845    1.2727492  1010000 
 1040000   0.84827274   -4.1642384   -4.1642384   -2.8918306  0.021939303   -4.1642384    1.2724079  1010000 
 1041000   0.84803881    -4.164364    -4.164364    -2.892307  0.020384217    -4.164364     1.272057  1010000 
 1042000   0.84865961   -4.1647895   -4.1647895   -2.8918013  0.019038007   -4.1647895    1.2729882  1010000 
 1043000   0.84759632   -4.1632031   -4.1632031   -2.8918098  0.021333153   -4.1632031    1.2713932  1010000 
 1044000   0.84863888   -4.1644562   -4.1644562   -2.8914991  0.019815837   -4.1644562    1.2729571  1010000 
 1045000   0.84755878    -4.163314    -4.163314   -2.8919771  0.020423524    -4.163314    1.2713369  1010000 
 1046000   0.84750372   -4.1629971   -4.1629971   -2.8917428  0.022167733   -4.1629971    1.2712543  1010000 
 1047000   0.84840522    -4.164811    -4.164811   -2.8922044  0.019214455    -4.164811    1.2726066  1010000 
 1048000   0.84783956   -4.1640549   -4.1640549   -2.8922968  0.022415804   -4.1640549    1.2717581  1010000 
 1049000   0.84825006   -4.1646094   -4.1646094   -2.8922356  0.021318775   -4.1646094    1.2723738  1010000 
 1050000   0.84845413    -4.165189    -4.165189   -2.8925091    0.0231115    -4.165189    1.2726799  1010000 
 1051000   0.84872335   -4.1656636   -4.1656636   -2.8925799   0.02310705   -4.1656636    1.2730838  1010000 
 1052000   0.84829574   -4.1656008   -4.1656008   -2.8931585  0.023939957   -4.1656008    1.2724424  1010000 
 1053000   0.84893472   -4.1662389   -4.1662389   -2.8928381  0.019311738   -4.1662389    1.2734008  1010000 
 1054000    0.8483665   -4.1659606   -4.1659606   -2.8934121  0.023575552   -4.1659606    1.2725485  1010000 
 1055000   0.84870145   -4.1664623   -4.1664623   -2.8934113  0.021480925   -4.1664623    1.2730509  1010000 
 1056000   0.84941874   -4.1673076   -4.1673076   -2.8931807  0.019991556   -4.1673076    1.2741268  1010000 
 1057000   0.84844309   -4.1658237   -4.1658237   -2.8931603  0.022272556   -4.1658237    1.2726634  1010000 
 1058000    0.8488179   -4.1664136   -4.1664136    -2.893188  0.020801837   -4.1664136    1.2732256  1010000 
 1059000   0.84816948   -4.1661036   -4.1661036   -2.8938507  0.019918585   -4.1661036     1.272253  1010000 
 1060000   0.84773367   -4.1656733   -4.1656733    -2.894074  0.024304686   -4.1656733    1.2715992  1010000 
 1061000    0.8480125    -4.166573    -4.166573   -2.8945555  0.020684515    -4.166573    1.2720175  1010000 
 1062000   0.84790123    -4.166502    -4.166502   -2.8946514  0.019210212    -4.166502    1.2718506  1010000 
 1063000   0.84762616   -4.1660363   -4.1660363   -2.8945983  0.020134519   -4.1660363     1.271438  1010000 
 1064000   0.84744222    -4.165929    -4.165929   -2.8947669  0.019404028    -4.165929    1.2711621  1010000 
 1065000   0.84752231   -4.1668386   -4.1668386   -2.8955564  0.018042304   -4.1668386    1.2712822  1010000 
 1066000   0.84743035   -4.1667259   -4.1667259   -2.8955816  0.018225064   -4.1667259    1.2711443  1010000 
 1067000   0.84747179   -4.1665416   -4.1665416   -2.8953352  0.020833882   -4.1665416    1.2712064  1010000 
 1068000   0.84759452   -4.1672565   -4.1672565   -2.8958659  0.020429781   -4.1672565    1.2713905  1010000 
 1069000   0.84680203   -4.1663221   -4.1663221   -2.8961203  0.020990589   -4.1663221    1.2702018  1010000 
 1070000   0.84732396    -4.166683    -4.166683   -2.8956983   0.02303689    -4.166683    1.2709847  1010000 
 1071000   0.84736102   -4.1670053   -4.1670053    -2.895965  0.021227125   -4.1670053    1.2710403  1010000 
 1072000   0.84807408   -4.1677744   -4.1677744   -2.8956645  0.020935667   -4.1677744    1.2721099  1010000 
 1073000   0.84712592   -4.1665315   -4.1665315   -2.8958439  0.021612923   -4.1665315    1.2706876  1010000 
 1074000   0.84748536   -4.1679437   -4.1679437   -2.8967169  0.019343201   -4.1679437    1.2712268  1010000 
 1075000   0.84818225   -4.1685582   -4.1685582   -2.8962861  0.025461346   -4.1685582    1.2722721  1010000 
 1076000   0.84747055    -4.167876    -4.167876   -2.8966715  0.025810717    -4.167876    1.2712046  1010000 
 1077000   0.84826587   -4.1690831   -4.1690831   -2.8966855  0.019280978   -4.1690831    1.2723975  1010000 
 1078000   0.84711542   -4.1671738   -4.1671738   -2.8965019   0.02236058   -4.1671738    1.2706719  1010000 
 1079000   0.84787726   -4.1681925   -4.1681925   -2.8963779  0.023829084   -4.1681925    1.2718146  1010000 
 1080000   0.84694102   -4.1669525   -4.1669525   -2.8965422  0.024250437   -4.1669525    1.2704103  1010000 
 1081000   0.84759199   -4.1683074   -4.1683074   -2.8969207  0.021948098   -4.1683074    1.2713867  1010000 
 1082000   0.84744898   -4.1681202   -4.1681202    -2.896948  0.020576399   -4.1681202    1.2711722  1010000 
 1083000   0.84772325    -4.169327    -4.169327   -2.8977434  0.018538537    -4.169327    1.2715836  1010000 
 1084000   0.84682854   -4.1683642   -4.1683642   -2.8981226  0.023589223   -4.1683642    1.2702416  1010000 
 1085000   0.84737067   -4.1690107   -4.1690107    -2.897956  0.020478235   -4.1690107    1.2710547  1010000 
 1086000   0.84689933   -4.1682762   -4.1682762   -2.8979285  0.024970588   -4.1682762    1.2703477  1010000 
 1087000   0.84660809    -4.168311    -4.168311   -2.8984002  0.022064261    -4.168311    1.2699109  1010000 
 1088000   0.84648199   -4.1682493   -4.1682493   -2.8985276  0.025776867   -4.1682493    1.2697217  1010000 
 1089000   0.84810401   -4.1704326   -4.1704326   -2.8982779  0.022308021   -4.1704326    1.2721547  1010000 
 1090000   0.84779073   -4.1705741   -4.1705741   -2.8988893  0.023069805   -4.1705741    1.2716848  1010000 
 1091000   0.84694986   -4.1690591   -4.1690591   -2.8986356  0.020592047   -4.1690591    1.2704235  1010000 
 1092000    0.8475667   -4.1701666   -4.1701666   -2.8988179  0.024187494   -4.1701666    1.2713488  1010000 
 1093000   0.84732624   -4.1702351   -4.1702351   -2.8992469  0.023935161   -4.1702351    1.2709881  1010000 
 1094000   0.84701107   -4.1695172   -4.1695172   -2.8990019  0.022060597   -4.1695172    1.2705153  1010000 
 1095000   0.84653544    -4.169244    -4.169244   -2.8994421  0.021688103    -4.169244    1.2698019  1010000 
 1096000   0.84690015   -4.1697899   -4.1697899   -2.8994409  0.020615394   -4.1697899     1.270349  1010000 
 1097000   0.84636247   -4.1690661   -4.1690661   -2.8995236   0.02122542   -4.1690661    1.2695424  1010000 
 1098000   0.84750614   -4.1708207   -4.1708207   -2.8995628  0.021030859   -4.1708207    1.2712579  1010000 
 1099000   0.84816102   -4.1716478   -4.1716478   -2.8994075  0.020745854   -4.1716478    1.2722403  1010000 
 1100000   0.84681223   -4.1695792   -4.1695792   -2.8993621  0.026743758   -4.1695792    1.2702171  1010000 
 1101000   0.84633643   -4.1682925   -4.1682925   -2.8987891  0.026337876   -4.1682925    1.2695034  1010000 
 1102000   0.84737703   -4.1703499   -4.1703499   -2.8992856  0.023150809   -4.1703499    1.2710643  1010000 
 1103000   0.84710088   -4.1703294   -4.1703294   -2.8996793  0.020774502   -4.1703294    1.2706501  1010000 
 1104000    0.8470609   -4.1710628   -4.1710628   -2.9004728  0.017245958   -4.1710628    1.2705901  1010000 
 1105000   0.84654829   -4.1702512   -4.1702512     -2.90043  0.020995736   -4.1702512    1.2698212  1010000 
 1106000   0.84631597   -4.1702714   -4.1702714   -2.9007986  0.025655949   -4.1702714    1.2694727  1010000 
 1107000   0.84627976    -4.170562    -4.170562   -2.9011436  0.021120647    -4.170562    1.2694184  1010000 
 1108000   0.84747673   -4.1719076   -4.1719076   -2.9006938  0.019039949   -4.1719076    1.2712138  1010000 
 1109000   0.84719838   -4.1713311   -4.1713311   -2.9005348  0.024639238   -4.1713311    1.2707963  1010000 
 1110000   0.84719869   -4.1714863   -4.1714863   -2.9006895  0.025320092   -4.1714863    1.2707968  1010000 
 1111000   0.84712606   -4.1710304   -4.1710304   -2.9003426  0.021917661   -4.1710304    1.2706878  1010000 
 1112000   0.84643694   -4.1704979   -4.1704979   -2.9008438  0.020434641   -4.1704979    1.2696542  1010000 
 1113000   0.84720594   -4.1710758   -4.1710758   -2.9002681  0.020990088   -4.1710758    1.2708077  1010000 
 1114000    0.8466136   -4.1709357   -4.1709357   -2.9010166  0.020146229   -4.1709357    1.2699191  1010000 
 1115000   0.84726782   -4.1716135   -4.1716135    -2.900713  0.018642187   -4.1716135    1.2709005  1010000 
 1116000   0.84671686   -4.1707228   -4.1707228   -2.9006488  0.020618828   -4.1707228     1.270074  1010000 
 1117000    0.8467081   -4.1709483   -4.1709483   -2.9008874  0.021335513   -4.1709483    1.2700609  1010000 
 1118000   0.84658132   -4.1705559   -4.1705559   -2.9006852  0.024133882   -4.1705559    1.2698707  1010000 
 1119000    0.8471358   -4.1712958   -4.1712958   -2.9005933  0.023550931   -4.1712958    1.2707024  1010000 
 1120000   0.84738625   -4.1722146   -4.1722146   -2.9011365  0.023423702   -4.1722146    1.2710781  1010000 
 1121000   0.84749131   -4.1722909   -4.1722909   -2.9010552  0.022368484   -4.1722909    1.2712357  1010000 
 1122000   0.84684235   -4.1714201   -4.1714201   -2.9011578  0.024423662   -4.1714201    1.2702623  1010000 
 1123000    0.8469531   -4.1717459   -4.1717459   -2.9013175   0.02296515   -4.1717459    1.2704284  1010000 
 1124000     0.846465   -4.1712433   -4.1712433   -2.9015471  0.021796815   -4.1712433    1.2696962  1010000 
 1125000    0.8473356   -4.1728071   -4.1728071   -2.9018049  0.022317608   -4.1728071    1.2710021  1010000 
 1126000   0.84725999   -4.1723399   -4.1723399   -2.9014512   0.02433808   -4.1723399    1.2708887  1010000 
 1127000   0.84748378   -4.1724425   -4.1724425    -2.901218  0.023225572   -4.1724425    1.2712244  1010000 
 1128000    0.8479142   -4.1726138   -4.1726138   -2.9007437  0.022457604   -4.1726138      1.27187  1010000 
 1129000   0.84732333   -4.1721489   -4.1721489   -2.9011652  0.027606102   -4.1721489    1.2709837  1010000 
 1130000   0.84774843    -4.172983    -4.172983   -2.9013617  0.021269655    -4.172983    1.2716214  1010000 
 1131000   0.84785017   -4.1731776   -4.1731776   -2.9014036  0.020159582   -4.1731776     1.271774  1010000 
 1132000   0.84687437   -4.1726014   -4.1726014   -2.9022911  0.022910222   -4.1726014    1.2703103  1010000 
 1133000   0.84721071   -4.1729819   -4.1729819   -2.9021671  0.023016591   -4.1729819    1.2708148  1010000 
 1134000   0.84659566   -4.1724227   -4.1724227   -2.9025305  0.022862348   -4.1724227    1.2698922  1010000 
 1135000   0.84607994   -4.1722565   -4.1722565   -2.9031378  0.024578592   -4.1722565    1.2691187  1010000 
 1136000   0.84760372   -4.1745454   -4.1745454   -2.9031411  0.020919913   -4.1745454    1.2714043  1010000 
 1137000   0.84660644   -4.1731343   -4.1731343   -2.9032259  0.018900827   -4.1731343    1.2699084  1010000 
 1138000   0.84646568   -4.1730015   -4.1730015   -2.9033042  0.021017082   -4.1730015    1.2696973  1010000 
 1139000   0.84629548   -4.1723321   -4.1723321   -2.9028901  0.023743917   -4.1723321     1.269442  1010000 
 1140000    0.8469403   -4.1736364   -4.1736364   -2.9032272  0.023874544   -4.1736364    1.2704092  1010000 
 1141000    0.8461649   -4.1726819   -4.1726819   -2.9034358  0.023126607   -4.1726819    1.2692461  1010000 
 1142000   0.84597866   -4.1728048   -4.1728048   -2.9038381  0.020869052   -4.1728048    1.2689667  1010000 
 1143000   0.84634595   -4.1729554   -4.1729554   -2.9034377  0.020447704   -4.1729554    1.2695177  1010000 
 1144000   0.84593558   -4.1728585   -4.1728585   -2.9039563  0.019065626   -4.1728585    1.2689021  1010000 
 1145000   0.84588534    -4.172438    -4.172438   -2.9036113  0.021227372    -4.172438    1.2688268  1010000 
 1146000   0.84613814   -4.1732269   -4.1732269    -2.904021  0.018836861   -4.1732269     1.269206  1010000 
 1147000   0.84612632   -4.1736191   -4.1736191   -2.9044309  0.021463363   -4.1736191    1.2691882  1010000 
 1148000   0.84535011   -4.1719607   -4.1719607   -2.9039368  0.021725568   -4.1719607    1.2680239  1010000 
 1149000    0.8456036   -4.1724943   -4.1724943   -2.9040902  0.022290971   -4.1724943    1.2684041  1010000 
 1150000   0.84637516   -4.1734728   -4.1734728   -2.9039114  0.021000295   -4.1734728    1.2695615  1010000 
 1151000   0.84591645   -4.1726075   -4.1726075   -2.9037341  0.024703818   -4.1726075    1.2688734  1010000 
 1152000   0.84589133   -4.1726749   -4.1726749   -2.9038392   0.02523714   -4.1726749    1.2688357  1010000 
 1153000   0.84689652   -4.1739596   -4.1739596    -2.903616   0.02186057   -4.1739596    1.2703435  1010000 
 1154000   0.84637706   -4.1726349   -4.1726349   -2.9030706  0.027357479   -4.1726349    1.2695643  1010000 
 1155000   0.84667443   -4.1736512   -4.1736512   -2.9036408  0.023620485   -4.1736512    1.2700104  1010000 
 1156000   0.84673902   -4.1737079   -4.1737079   -2.9036006  0.025700521   -4.1737079    1.2701073  1010000 
 1157000   0.84717703   -4.1745878   -4.1745878   -2.9038235  0.021784558   -4.1745878    1.2707643  1010000 
 1158000   0.84732091   -4.1748097   -4.1748097   -2.9038296  0.024939083   -4.1748097    1.2709801  1010000 
 1159000   0.84659474   -4.1737904   -4.1737904   -2.9038995  0.021356717   -4.1737904    1.2698908  1010000 
 1160000   0.84639613   -4.1742303   -4.1742303   -2.9046374  0.025979592   -4.1742303    1.2695929  1010000 
 1161000   0.84621743   -4.1732662   -4.1732662   -2.9039413  0.026161508   -4.1732662    1.2693249  1010000 
 1162000   0.84633714    -4.173816    -4.173816   -2.9043115  0.025792314    -4.173816    1.2695045  1010000 
 1163000   0.84728194   -4.1754161   -4.1754161   -2.9044944  0.020270008   -4.1754161    1.2709216  1010000 
 1164000   0.84608458   -4.1746001   -4.1746001   -2.9054745  0.023291794   -4.1746001    1.2691256  1010000 
 1165000   0.84687654    -4.175884    -4.175884   -2.9055704  0.018461872    -4.175884    1.2703136  1010000 
 1166000   0.84566866   -4.1740075   -4.1740075   -2.9055057  0.021327614   -4.1740075    1.2685017  1010000 
 1167000   0.84563072   -4.1740877   -4.1740877   -2.9056428  0.025641211   -4.1740877    1.2684448  1010000 
 1168000   0.84586481   -4.1741601   -4.1741601   -2.9053641  0.021979719   -4.1741601     1.268796  1010000 
 1169000   0.84531308   -4.1735437   -4.1735437   -2.9055754  0.020806431   -4.1735437    1.2679684  1010000 
 1170000   0.84563994   -4.1746319   -4.1746319   -2.9061733   0.01913328   -4.1746319    1.2684587  1010000 
 1171000   0.84565624   -4.1746653   -4.1746653   -2.9061822  0.018177774   -4.1746653    1.2684831  1010000 
 1172000   0.84580013   -4.1749242   -4.1749242   -2.9062252  0.019463977   -4.1749242    1.2686989  1010000 
 1173000   0.84524814   -4.1740854   -4.1740854   -2.9062145  0.022002543   -4.1740854     1.267871  1010000 
 1174000   0.84592069   -4.1752026   -4.1752026   -2.9063228  0.017851566   -4.1752026    1.2688798  1010000 
 1175000   0.84581966   -4.1751361   -4.1751361   -2.9064078  0.019773001   -4.1751361    1.2687282  1010000 
 1176000   0.84567595   -4.1749376   -4.1749376    -2.906425  0.023840774   -4.1749376    1.2685127  1010000 
 1177000   0.84611398   -4.1756598   -4.1756598     -2.90649  0.021178224   -4.1756598    1.2691697  1010000 
 1178000   0.84650556   -4.1761988   -4.1761988   -2.9064417  0.019249953   -4.1761988    1.2697571  1010000 
 1179000   0.84596554   -4.1753613   -4.1753613   -2.9064142  0.025624169   -4.1753613    1.2689471  1010000 
 1180000   0.84631694   -4.1761793   -4.1761793   -2.9067052  0.026857992   -4.1761793    1.2694742  1010000 
 1181000   0.84680603     -4.17685     -4.17685   -2.9066422  0.022465855     -4.17685    1.2702078  1010000 
 1182000   0.84678571   -4.1768688   -4.1768688   -2.9066915  0.022839342   -4.1768688    1.2701773  1010000 
 1183000   0.84620912   -4.1760426   -4.1760426   -2.9067301  0.022513739   -4.1760426    1.2693124  1010000 
 1184000   0.84683558   -4.1769226   -4.1769226   -2.9066705   0.02578396   -4.1769226    1.2702521  1010000 
 1185000   0.84656343   -4.1765019   -4.1765019   -2.9066581  0.022515136   -4.1765019    1.2698439  1010000 
 1186000   0.84582746   -4.1758866   -4.1758866   -2.9071467   0.02276232   -4.1758866    1.2687399  1010000 
 1187000   0.84662409   -4.1764549   -4.1764549   -2.9065201  0.020933567   -4.1764549    1.2699349  1010000 
 1188000   0.84607916   -4.1759536   -4.1759536   -2.9068361  0.025562596   -4.1759536    1.2691175  1010000 
 1189000   0.84598056   -4.1763034   -4.1763034   -2.9073338  0.023904372   -4.1763034    1.2689696  1010000 
 1190000   0.84623781   -4.1765049   -4.1765049   -2.9071494  0.025856605   -4.1765049    1.2693555  1010000 
 1191000   0.84561717   -4.1756145   -4.1756145     -2.90719  0.025522547   -4.1756145    1.2684245  1010000 
 1192000   0.84639845   -4.1770492   -4.1770492   -2.9074528  0.025228668   -4.1770492    1.2695964  1010000 
 1193000   0.84673736    -4.178064    -4.178064   -2.9079592  0.025275612    -4.178064    1.2701048  1010000 
 1194000   0.84611407   -4.1772384   -4.1772384   -2.9080686  0.022838408   -4.1772384    1.2691698  1010000 
 1195000   0.84524506   -4.1764855   -4.1764855   -2.9086192  0.026171849   -4.1764855    1.2678663  1010000 
 1196000   0.84444493   -4.1758446   -4.1758446   -2.9091785  0.025986037   -4.1758446    1.2666661  1010000 
 1197000   0.84549655   -4.1765126   -4.1765126   -2.9082691  0.024089239   -4.1765126    1.2682436  1010000 
 1198000   0.84583434   -4.1778829   -4.1778829   -2.9091326  0.024081446   -4.1778829    1.2687503  1010000 
 1199000   0.84670973   -4.1795076   -4.1795076   -2.9094443  0.016266314   -4.1795076    1.2700633  1010000 
 1200000   0.84619268    -4.178315    -4.178315   -2.9090273   0.02333076    -4.178315    1.2692878  1010000 
 1201000   0.84538049   -4.1768103   -4.1768103   -2.9087408   0.02426665   -4.1768103    1.2680695  1010000 
 1202000   0.84607821   -4.1776335   -4.1776335   -2.9085174  0.021965315   -4.1776335    1.2691161  1010000 
 1203000   0.84587039   -4.1779043   -4.1779043   -2.9090999  0.021748366   -4.1779043    1.2688043  1010000 
 1204000   0.84637897   -4.1785429   -4.1785429   -2.9089757  0.021232746   -4.1785429    1.2695672  1010000 
 1205000   0.84563629   -4.1771801   -4.1771801   -2.9087269  0.022795211   -4.1771801    1.2684532  1010000 
 1206000   0.84569387   -4.1769161   -4.1769161   -2.9083765  0.021743536   -4.1769161    1.2685396  1010000 
 1207000   0.84544205   -4.1771274   -4.1771274   -2.9089656  0.021430784   -4.1771274    1.2681618  1010000 
 1208000   0.84518551   -4.1768212   -4.1768212   -2.9090442  0.022795481   -4.1768212     1.267777  1010000 
 1209000   0.84519499   -4.1771872   -4.1771872    -2.909396  0.022823461   -4.1771872    1.2677912  1010000 
 1210000   0.84452852   -4.1757509   -4.1757509   -2.9089594  0.025226337   -4.1757509    1.2667915  1010000 
 1211000   0.84545272   -4.1777678   -4.1777678     -2.90959  0.021754899   -4.1777678    1.2681778  1010000 
 1212000   0.84537678   -4.1773157   -4.1773157   -2.9092518  0.020613737   -4.1773157    1.2680639  1010000 
 1213000   0.84619007    -4.178507    -4.178507   -2.9092231  0.022179948    -4.178507    1.2692838  1010000 
 1214000   0.84550419   -4.1776616   -4.1776616   -2.9094066  0.024967486   -4.1776616     1.268255  1010000 
 1215000   0.84526552   -4.1773584   -4.1773584   -2.9094614  0.023791946   -4.1773584     1.267897  1010000 
 1216000   0.84517659   -4.1771705   -4.1771705   -2.9094069  0.025442529   -4.1771705    1.2677636  1010000 
 1217000   0.84444754   -4.1754122   -4.1754122   -2.9087422  0.029440888   -4.1754122      1.26667  1010000 
 1218000   0.84572934   -4.1772502   -4.1772502   -2.9086575  0.020932547   -4.1772502    1.2685927  1010000 
 1219000    0.8464288   -4.1777581   -4.1777581   -2.9081162  0.018847754   -4.1777581    1.2696419  1010000 
 1220000   0.84546764   -4.1764897   -4.1764897   -2.9082895  0.021639267   -4.1764897    1.2682002  1010000 
 1221000   0.84571647   -4.1768104   -4.1768104    -2.908237  0.022915255   -4.1768104    1.2685734  1010000 
 1222000   0.84588266   -4.1771278   -4.1771278    -2.908305  0.022668623   -4.1771278    1.2688227  1010000 
 1223000    0.8453999   -4.1765079   -4.1765079   -2.9084093  0.023363136   -4.1765079    1.2680986  1010000 
 1224000   0.84587716   -4.1775124   -4.1775124   -2.9086979  0.022986943   -4.1775124    1.2688145  1010000 
 1225000   0.84578896   -4.1772777   -4.1772777   -2.9085955  0.023438919   -4.1772777    1.2686822  1010000 
 1226000   0.84533442   -4.1766173   -4.1766173   -2.9086169  0.025804327   -4.1766173    1.2680004  1010000 
 1227000   0.84576439   -4.1777778   -4.1777778   -2.9091325  0.021855559   -4.1777778    1.2686453  1010000 
 1228000   0.84513577   -4.1770419   -4.1770419   -2.9093395  0.022205851   -4.1770419    1.2677024  1010000 
 1229000   0.84459366   -4.1759657   -4.1759657   -2.9090765   0.02479293   -4.1759657    1.2668892  1010000 
 1230000   0.84583765   -4.1779439   -4.1779439   -2.9091887  0.019589055   -4.1779439    1.2687552  1010000 
 1231000   0.84472205   -4.1764231   -4.1764231   -2.9093412   0.02338813   -4.1764231    1.2670818  1010000 
 1232000   0.84499642    -4.176637    -4.176637   -2.9091436  0.021474621    -4.176637    1.2674934  1010000 
 1233000   0.84500551   -4.1768657   -4.1768657   -2.9093586  0.023711947   -4.1768657     1.267507  1010000 
 1234000   0.84475745   -4.1766569   -4.1766569    -2.909522  0.020776002   -4.1766569    1.2671349  1010000 
 1235000   0.84469822   -4.1756706   -4.1756706   -2.9086245  0.024680983   -4.1756706    1.2670461  1010000 
 1236000   0.84537667   -4.1765295   -4.1765295   -2.9084657  0.021425749   -4.1765295    1.2680637  1010000 
 1237000   0.84486577   -4.1761643   -4.1761643   -2.9088669  0.020358651   -4.1761643    1.2672974  1010000 
 1238000   0.84534186   -4.1764761   -4.1764761   -2.9084646  0.022855956   -4.1764761    1.2680115  1010000 
 1239000   0.84490381   -4.1763594   -4.1763594   -2.9090049  0.021364374   -4.1763594    1.2673545  1010000 
 1240000   0.84504781   -4.1768428   -4.1768428   -2.9092723  0.021144247   -4.1768428    1.2675705  1010000 
 1241000   0.84516839   -4.1775047   -4.1775047   -2.9097534   0.01880554   -4.1775047    1.2677513  1010000 
 1242000   0.84500719    -4.177317    -4.177317   -2.9098074  0.021214038    -4.177317    1.2675095  1010000 
 1243000   0.84494589   -4.1776067   -4.1776067   -2.9101891  0.020660411   -4.1776067    1.2674176  1010000 
 1244000   0.84473272   -4.1766665   -4.1766665   -2.9095687  0.021410434   -4.1766665    1.2670978  1010000 
 1245000   0.84579308   -4.1780415   -4.1780415   -2.9093531  0.020640468   -4.1780415    1.2686884  1010000 
 1246000   0.84473709   -4.1760419   -4.1760419   -2.9089375  0.023044194   -4.1760419    1.2671044  1010000 
 1247000   0.84573315   -4.1775671   -4.1775671   -2.9089686  0.020187725   -4.1775671    1.2685985  1010000 
 1248000   0.84506099   -4.1773033   -4.1773033    -2.909713  0.018093695   -4.1773033    1.2675902  1010000 
 1249000   0.84508499   -4.1769911   -4.1769911   -2.9093648   0.02106115   -4.1769911    1.2676262  1010000 
 1250000   0.84487165   -4.1777457   -4.1777457   -2.9104395   0.02000224   -4.1777457    1.2673062  1010000 
 1251000   0.84537509   -4.1781816   -4.1781816   -2.9101202   0.02172487   -4.1781816    1.2680614  1010000 
 1252000   0.84544642   -4.1787274   -4.1787274    -2.910559  0.024351887   -4.1787274    1.2681684  1010000 
 1253000   0.84487045   -4.1773705   -4.1773705    -2.910066   0.02224803   -4.1773705    1.2673044  1010000 
 1254000   0.84549014    -4.178706    -4.178706   -2.9104721  0.020667142    -4.178706     1.268234  1010000 
 1255000   0.84592869   -4.1794867   -4.1794867   -2.9105949  0.019582897   -4.1794867    1.2688918  1010000 
 1256000   0.84456689   -4.1774693   -4.1774693   -2.9106202  0.022171396   -4.1774693    1.2668491  1010000 
 1257000   0.84493219   -4.1778169   -4.1778169   -2.9104199  0.022536993   -4.1778169     1.267397  1010000 
 1258000   0.84488483   -4.1777309   -4.1777309   -2.9104049  0.024260426   -4.1777309     1.267326  1010000 
 1259000   0.84542159   -4.1783175   -4.1783175   -2.9101864  0.021989193   -4.1783175    1.2681311  1010000 
 1260000   0.84610525   -4.1787686   -4.1787686    -2.909612  0.022390691   -4.1787686    1.2691566  1010000 
 1261000   0.84562011   -4.1786171   -4.1786171   -2.9101882  0.022424354   -4.1786171    1.2684289  1010000 
 1262000   0.84501251   -4.1778382   -4.1778382   -2.9103207   0.02259071   -4.1778382    1.2675175  1010000 
 1263000   0.84576204   -4.1789219   -4.1789219   -2.9102801  0.023148607   -4.1789219    1.2686418  1010000 
 1264000    0.8459633   -4.1794374   -4.1794374   -2.9104937  0.022975604   -4.1794374    1.2689437  1010000 
 1265000   0.84562397   -4.1789894   -4.1789894   -2.9105547  0.024730106   -4.1789894    1.2684347  1010000 
 1266000    0.8450557   -4.1782679   -4.1782679   -2.9106856  0.024858096   -4.1782679    1.2675823  1010000 
 1267000   0.84495208   -4.1786068   -4.1786068   -2.9111799  0.022825336   -4.1786068    1.2674269  1010000 
 1268000   0.84461648   -4.1781073   -4.1781073   -2.9111839  0.024530521   -4.1781073    1.2669235  1010000 
 1269000   0.84551043   -4.1787852   -4.1787852   -2.9105208  0.025830066   -4.1787852    1.2682644  1010000 
 1270000   0.84581331   -4.1789369   -4.1789369   -2.9102182  0.022331696   -4.1789369    1.2687187  1010000 
 1271000   0.84464585   -4.1775967   -4.1775967   -2.9106292   0.02577655   -4.1775967    1.2669675  1010000 
 1272000   0.84485199   -4.1782436   -4.1782436   -2.9109669  0.024403275   -4.1782436    1.2672767  1010000 
 1273000   0.84467996   -4.1780749   -4.1780749   -2.9110563  0.021003153   -4.1780749    1.2670187  1010000 
 1274000   0.84474771   -4.1790032   -4.1790032   -2.9118829  0.022437888   -4.1790032    1.2671203  1010000 
 1275000    0.8453557   -4.1797379   -4.1797379   -2.9117056  0.021133769   -4.1797379    1.2680323  1010000 
 1276000   0.84599005   -4.1808935   -4.1808935   -2.9119097  0.020063247   -4.1808935    1.2689838  1010000 
 1277000    0.8447373   -4.1792434   -4.1792434   -2.9121387  0.023644098   -4.1792434    1.2671047  1010000 
 1278000   0.84485354   -4.1794686   -4.1794686   -2.9121896  0.022233012   -4.1794686    1.2672791  1010000 
 1279000   0.84489013   -4.1796598   -4.1796598   -2.9123259  0.020600724   -4.1796598    1.2673339  1010000 
 1280000   0.84404114   -4.1784629   -4.1784629   -2.9124024    0.0183009   -4.1784629    1.2660605  1010000 
 1281000   0.84409994   -4.1790146   -4.1790146   -2.9128659   0.02115434   -4.1790146    1.2661487  1010000 
 1282000   0.84470038   -4.1797563   -4.1797563    -2.912707  0.020341938   -4.1797563    1.2670493  1010000 
 1283000   0.84457355   -4.1797025   -4.1797025   -2.9128434  0.015551337   -4.1797025    1.2668591  1010000 
 1284000   0.84448741   -4.1792159   -4.1792159   -2.9124861  0.019087246   -4.1792159    1.2667299  1010000 
 1285000   0.84323134   -4.1776031   -4.1776031   -2.9127573  0.023491842   -4.1776031    1.2648458  1010000 
 1286000   0.84395276   -4.1780782   -4.1780782   -2.9121503  0.019967965   -4.1780782    1.2659279  1010000 
 1287000   0.84474616   -4.1792577   -4.1792577   -2.9121397  0.018527371   -4.1792577     1.267118  1010000 
 1288000   0.84471239     -4.17885     -4.17885   -2.9117827  0.026731992     -4.17885    1.2670673  1010000 
 1289000   0.84546238   -4.1801013   -4.1801013    -2.911909  0.021339315   -4.1801013    1.2681923  1010000 
 1290000   0.84481162   -4.1790536   -4.1790536   -2.9118375   0.02638438   -4.1790536    1.2672162  1010000 
 1291000   0.84489056   -4.1795141   -4.1795141   -2.9121795  0.024948832   -4.1795141    1.2673346  1010000 
 1292000   0.84504365    -4.179838    -4.179838   -2.9122738  0.021443814    -4.179838    1.2675642  1010000 
 1293000   0.84460823    -4.179884    -4.179884   -2.9129729  0.025409526    -4.179884    1.2669111  1010000 
 1294000   0.84456081   -4.1797138   -4.1797138   -2.9128738  0.023949542   -4.1797138      1.26684  1010000 
 1295000   0.84468377   -4.1801013   -4.1801013   -2.9130769  0.023067963   -4.1801013    1.2670244  1010000 
 1296000   0.84485495   -4.1801683   -4.1801683   -2.9128871   0.02628921   -4.1801683    1.2672812  1010000 
 1297000   0.84449517    -4.179387    -4.179387   -2.9126455  0.027122364    -4.179387    1.2667415  1010000 
 1298000   0.84471732   -4.1801662   -4.1801662   -2.9130914  0.024539907   -4.1801662    1.2670747  1010000 
 1299000   0.84513545   -4.1802486   -4.1802486   -2.9125466  0.022313453   -4.1802486    1.2677019  1010000 
 1300000   0.84437584   -4.1800072   -4.1800072   -2.9134447  0.022841618   -4.1800072    1.2665625  1010000 
 1301000   0.84503955   -4.1809031   -4.1809031    -2.913345  0.019106257   -4.1809031    1.2675581  1010000 
 1302000   0.84459639   -4.1804787   -4.1804787   -2.9135853   0.02000292   -4.1804787    1.2668933  1010000 
 1303000   0.84464142   -4.1810404   -4.1810404   -2.9140795  0.021521482   -4.1810404    1.2669609  1010000 
 1304000   0.84270401   -4.1783431   -4.1783431   -2.9142883  0.023805294   -4.1783431    1.2640548  1010000 
 1305000   0.84353411   -4.1803488   -4.1803488   -2.9150489  0.019709716   -4.1803488    1.2652999  1010000 
 1306000   0.84399584   -4.1808569   -4.1808569   -2.9148644  0.020041997   -4.1808569    1.2659925  1010000 
 1307000   0.84397524   -4.1816853   -4.1816853   -2.9157237  0.019486926   -4.1816853    1.2659616  1010000 
 1308000   0.84289627   -4.1799654   -4.1799654   -2.9156222  0.019692416   -4.1799654    1.2643432  1010000 
 1309000   0.84358306   -4.1809503   -4.1809503   -2.9155769  0.022016735   -4.1809503    1.2653733  1010000 
 1310000   0.84377434   -4.1808843   -4.1808843    -2.915224  0.023423071   -4.1808843    1.2656603  1010000 
 1311000   0.84433563   -4.1819382   -4.1819382    -2.915436  0.020604685   -4.1819382    1.2665022  1010000 
 1312000   0.84373573   -4.1801916   -4.1801916   -2.9145893  0.024369574   -4.1801916    1.2656023  1010000 
 1313000   0.84398352   -4.1806853   -4.1806853   -2.9147113  0.024253203   -4.1806853     1.265974  1010000 
 1314000    0.8443601   -4.1808784   -4.1808784   -2.9143395  0.027679757   -4.1808784    1.2665389  1010000 
 1315000   0.84483229   -4.1815752   -4.1815752    -2.914328  0.023853941   -4.1815752    1.2672472  1010000 
 1316000   0.84549491   -4.1817907   -4.1817907   -2.9135496  0.021809671   -4.1817907    1.2682411  1010000 
 1317000   0.84476094   -4.1810485   -4.1810485   -2.9139083  0.022890819   -4.1810485    1.2671402  1010000 
 1318000   0.84501077   -4.1814864   -4.1814864   -2.9139715  0.021619635   -4.1814864    1.2675149  1010000 
 1319000   0.84518205   -4.1820272   -4.1820272   -2.9142553  0.024270942   -4.1820272    1.2677718  1010000 
 1320000   0.84542632   -4.1817605   -4.1817605   -2.9136223  0.024826573   -4.1817605    1.2681382  1010000 
 1321000   0.84549367    -4.182016    -4.182016   -2.9137767  0.024849965    -4.182016    1.2682393  1010000 
 1322000   0.84492177    -4.180912    -4.180912   -2.9135306   0.02677183    -4.180912    1.2673814  1010000 
 1323000   0.84493514    -4.180635    -4.180635   -2.9132335  0.025581413    -4.180635    1.2674015  1010000 
 1324000   0.84561025   -4.1820164   -4.1820164   -2.9136023  0.023550946   -4.1820164    1.2684141  1010000 
 1325000   0.84438758   -4.1809269   -4.1809269   -2.9143468  0.024684663   -4.1809269    1.2665801  1010000 
 1326000   0.84522112   -4.1814726   -4.1814726   -2.9136422  0.022520218   -4.1814726    1.2678304  1010000 
 1327000    0.8449993   -4.1816591   -4.1816591   -2.9141614  0.023940878   -4.1816591    1.2674977  1010000 
 1328000   0.84427547   -4.1808725   -4.1808725   -2.9144605  0.026918381   -4.1808725    1.2664119  1010000 
 1329000   0.84451485   -4.1814273   -4.1814273   -2.9146563  0.026574632   -4.1814273     1.266771  1010000 
 1330000   0.84524049   -4.1827141   -4.1827141   -2.9148546  0.019656713   -4.1827141    1.2678595  1010000 
 1331000   0.84408414   -4.1813523   -4.1813523   -2.9152274  0.025294799   -4.1813523     1.266125  1010000 
 1332000   0.84447614   -4.1818279   -4.1818279    -2.915115  0.024572418   -4.1818279     1.266713  1010000 
 1333000   0.84431402   -4.1811727   -4.1811727   -2.9147029  0.023202028   -4.1811727    1.2664698  1010000 
 1334000   0.84332916   -4.1801312   -4.1801312   -2.9151387  0.024264863   -4.1801312    1.2649925  1010000 
 1335000   0.84324604   -4.1805589   -4.1805589   -2.9156911  0.024324401   -4.1805589    1.2648678  1010000 
 1336000   0.84421357   -4.1816559   -4.1816559   -2.9153368  0.020613938   -4.1816559    1.2663191  1010000 
 1337000   0.84419907   -4.1816466   -4.1816466   -2.9153492  0.020299815   -4.1816466    1.2662974  1010000 
 1338000   0.84357142   -4.1807585   -4.1807585   -2.9154026  0.023160916   -4.1807585    1.2653559  1010000 
 1339000    0.8439041   -4.1811255   -4.1811255   -2.9152706  0.024187234   -4.1811255    1.2658549  1010000 
 1340000   0.84350071   -4.1798032   -4.1798032   -2.9145534   0.02364643   -4.1798032    1.2652498  1010000 
 1341000   0.84442271   -4.1816407   -4.1816407   -2.9150078  0.021291318   -4.1816407    1.2666328  1010000 
 1342000   0.84450592   -4.1822464   -4.1822464   -2.9154888  0.020167744   -4.1822464    1.2667576  1010000 
 1343000    0.8433767   -4.1808952   -4.1808952   -2.9158314  0.021421608   -4.1808952    1.2650638  1010000 
 1344000   0.84396435   -4.1817536   -4.1817536   -2.9158084  0.020221435   -4.1817536    1.2659453  1010000 
 1345000   0.84347763    -4.181525    -4.181525   -2.9163098  0.020792815    -4.181525    1.2652152  1010000 
 1346000   0.84338449   -4.1803651   -4.1803651   -2.9152897  0.021319808   -4.1803651    1.2650755  1010000 
 1347000   0.84455988   -4.1813801   -4.1813801   -2.9145415  0.024291568   -4.1813801    1.2668386  1010000 
 1348000    0.8445086   -4.1819339   -4.1819339   -2.9151722  0.022500065   -4.1819339    1.2667616  1010000 
 1349000    0.8446589   -4.1817538   -4.1817538   -2.9147667  0.023860332   -4.1817538    1.2669871  1010000 
 1350000   0.84440934   -4.1815824   -4.1815824   -2.9149697  0.022360161   -4.1815824    1.2666127  1010000 
 1351000   0.84396961   -4.1806641   -4.1806641   -2.9147109  0.023587973   -4.1806641    1.2659532  1010000 
 1352000   0.84415738   -4.1803021   -4.1803021   -2.9140673  0.027410124   -4.1803021    1.2662348  1010000 
 1353000   0.84485473   -4.1813495   -4.1813495   -2.9140687  0.023076521   -4.1813495    1.2672808  1010000 
 1354000   0.84461102   -4.1814573   -4.1814573    -2.914542  0.021977787   -4.1814573    1.2669153  1010000 
 1355000    0.8441479    -4.180958    -4.180958   -2.9147374  0.021053736    -4.180958    1.2662206  1010000 
 1356000   0.84363681   -4.1808602   -4.1808602   -2.9154062  0.022940797   -4.1808602     1.265454  1010000 
 1357000   0.84358087   -4.1801089   -4.1801089   -2.9147389  0.025840107   -4.1801089      1.26537  1010000 
 1358000   0.84506095   -4.1824908   -4.1824908   -2.9149006  0.023321471   -4.1824908    1.2675902  1010000 
 1359000   0.84408897   -4.1816549   -4.1816549   -2.9155227  0.024269172   -4.1816549    1.2661322  1010000 
 1360000   0.84414495   -4.1816335   -4.1816335   -2.9154173  0.023768756   -4.1816335    1.2662162  1010000 
 1361000   0.84438128   -4.1823374   -4.1823374   -2.9157667  0.023897991   -4.1823374    1.2665707  1010000 
 1362000   0.84402872   -4.1817609   -4.1817609    -2.915719  0.023959975   -4.1817609    1.2660418  1010000 
 1363000   0.84390229   -4.1819068   -4.1819068   -2.9160547  0.025489018   -4.1819068    1.2658522  1010000 
 1364000   0.84479259   -4.1834426   -4.1834426    -2.916255  0.017134231   -4.1834426    1.2671876  1010000 
 1365000    0.8437495   -4.1820537   -4.1820537   -2.9164307   0.02383084   -4.1820537     1.265623  1010000 
 1366000   0.84342587   -4.1816152   -4.1816152   -2.9164777  0.022478155   -4.1816152    1.2651376  1010000 
 1367000   0.84412947   -4.1823226   -4.1823226   -2.9161297  0.022173371   -4.1823226     1.266193  1010000 
 1368000   0.84427522   -4.1824811   -4.1824811   -2.9160696  0.020818648   -4.1824811    1.2664116  1010000 
 1369000   0.84323752     -4.18115     -4.18115    -2.916295  0.024442126     -4.18115     1.264855  1010000 
 1370000    0.8431335     -4.18177     -4.18177    -2.917071  0.022610567     -4.18177     1.264699  1010000 
 1371000   0.84333187   -4.1816472   -4.1816472   -2.9166507  0.022318535   -4.1816472    1.2649966  1010000 
 1372000   0.84338247   -4.1815574   -4.1815574    -2.916485  0.022622664   -4.1815574    1.2650724  1010000 
 1373000   0.84423007   -4.1830843   -4.1830843   -2.9167404  0.018190393   -4.1830843    1.2663438  1010000 
 1374000   0.84387814   -4.1832187   -4.1832187   -2.9174028  0.020308551   -4.1832187     1.265816  1010000 
 1375000   0.84379655    -4.183161    -4.183161   -2.9174674  0.019632184    -4.183161    1.2656936  1010000 
 1376000   0.84360589   -4.1829983   -4.1829983   -2.9175907  0.019279292   -4.1829983    1.2654076  1010000 
 1377000   0.84409372   -4.1833968   -4.1833968   -2.9172575  0.023481065   -4.1833968    1.2661393  1010000 
 1378000   0.84439014   -4.1836118   -4.1836118   -2.9170278  0.021749807   -4.1836118     1.266584  1010000 
 1379000   0.84356449   -4.1830388   -4.1830388   -2.9176934   0.02223796   -4.1830388    1.2653455  1010000 
 1380000   0.84325738   -4.1827442   -4.1827442   -2.9178594  0.022231513   -4.1827442    1.2648848  1010000 
 1381000   0.84429218   -4.1835781   -4.1835781   -2.9171411  0.021544506   -4.1835781     1.266437  1010000 
 1382000   0.84446723    -4.183366    -4.183366   -2.9166665  0.023788113    -4.183366    1.2666996  1010000 
 1383000   0.84403436   -4.1834064   -4.1834064   -2.9173561    0.0233702   -4.1834064    1.2660503  1010000 
 1384000   0.84300446   -4.1814105   -4.1814105   -2.9169051  0.029227094   -4.1814105    1.2645054  1010000 
 1385000   0.84497006   -4.1843645   -4.1843645   -2.9169107  0.024284039   -4.1843645    1.2674538  1010000 
 1386000   0.84423603   -4.1842663   -4.1842663   -2.9179135  0.024118702   -4.1842663    1.2663528  1010000 
 1387000   0.84486645   -4.1848928   -4.1848928   -2.9175944  0.023523178   -4.1848928    1.2672984  1010000 
 1388000    0.8440383   -4.1839769   -4.1839769   -2.9179207  0.023031011   -4.1839769    1.2660562  1010000 
 1389000   0.84398362   -4.1841603   -4.1841603   -2.9181861  0.022386141   -4.1841603    1.2659742  1010000 
 1390000   0.84444705     -4.18502     -4.18502   -2.9183507   0.02603697     -4.18502    1.2666693  1010000 
 1391000   0.84423155   -4.1843088   -4.1843088   -2.9179627  0.026855614   -4.1843088    1.2663461  1010000 
 1392000   0.84434106   -4.1850895   -4.1850895   -2.9185792  0.024491857   -4.1850895    1.2665103  1010000 
 1393000   0.84363974   -4.1840211   -4.1840211   -2.9185628  0.026987265   -4.1840211    1.2654584  1010000 
 1394000   0.84387031   -4.1846892   -4.1846892    -2.918885  0.022110093   -4.1846892    1.2658042  1010000 
 1395000   0.84356553   -4.1837339   -4.1837339   -2.9183869  0.025402175   -4.1837339     1.265347  1010000 
 1396000   0.84368211   -4.1843803   -4.1843803   -2.9188584  0.024119473   -4.1843803    1.2655219  1010000 
 1397000   0.84292842   -4.1839804   -4.1839804    -2.919589  0.024597696   -4.1839804    1.2643914  1010000 
 1398000   0.84387795   -4.1853564   -4.1853564   -2.9195407  0.021792398   -4.1853564    1.2658157  1010000 
 1399000   0.84290285   -4.1836155   -4.1836155   -2.9192625  0.025217531   -4.1836155     1.264353  1010000 
 1400000   0.84262034   -4.1838776   -4.1838776   -2.9199483  0.023316968   -4.1838776    1.2639293  1010000 
 1401000   0.84280385   -4.1841501   -4.1841501   -2.9199456  0.024691165   -4.1841501    1.2642045  1010000 
 1402000   0.84320275   -4.1845471   -4.1845471   -2.9197442  0.022560416   -4.1845471    1.2648029  1010000 
 1403000     0.844113    -4.185603    -4.185603   -2.9194348  0.020888895    -4.185603    1.2661683  1010000 
 1404000   0.84339327   -4.1846715   -4.1846715   -2.9195829  0.024902081   -4.1846715    1.2650887  1010000 
 1405000   0.84345136   -4.1846066   -4.1846066   -2.9194309  0.025506033   -4.1846066    1.2651758  1010000 
 1406000     0.844048   -4.1856466   -4.1856466   -2.9195759  0.021185369   -4.1856466    1.2660707  1010000 
 1407000   0.84293467   -4.1842757   -4.1842757    -2.919875  0.024490104   -4.1842757    1.2644008  1010000 
 1408000   0.84352197   -4.1851324   -4.1851324   -2.9198507  0.022407919   -4.1851324    1.2652817  1010000 
 1409000    0.8432479   -4.1846583   -4.1846583   -2.9197877  0.024516455   -4.1846583    1.2648706  1010000 
 1410000   0.84328833   -4.1846796   -4.1846796   -2.9197484  0.023268642   -4.1846796    1.2649312  1010000 
 1411000   0.84367077   -4.1855887   -4.1855887   -2.9200838  0.025178318   -4.1855887    1.2655049  1010000 
 1412000   0.84428352   -4.1863939   -4.1863939   -2.9199699   0.02220351   -4.1863939     1.266424  1010000 
 1413000   0.84377805   -4.1855718   -4.1855718    -2.919906  0.021122198   -4.1855718    1.2656658  1010000 
 1414000   0.84306425   -4.1844131   -4.1844131    -2.919818  0.022858714   -4.1844131    1.2645951  1010000 
 1415000   0.84258292   -4.1839638   -4.1839638   -2.9200907  0.023208508   -4.1839638    1.2638731  1010000 
 1416000   0.84308821   -4.1850223   -4.1850223   -2.9203912  0.021756146   -4.1850223    1.2646311  1010000 
 1417000   0.84371526   -4.1860532   -4.1860532   -2.9204816  0.021607438   -4.1860532    1.2655716  1010000 
 1418000   0.84296748   -4.1852617   -4.1852617   -2.9208117  0.024117791   -4.1852617      1.26445  1010000 
 1419000   0.84277686   -4.1855786   -4.1855786   -2.9214146  0.020279504   -4.1855786     1.264164  1010000 
 1420000   0.84392658    -4.186472    -4.186472   -2.9205834  0.019381312    -4.186472    1.2658886  1010000 
 1421000   0.84323623   -4.1856053   -4.1856053   -2.9207522  0.021756118   -4.1856053    1.2648531  1010000 
 1422000   0.84318673   -4.1858633   -4.1858633   -2.9210845  0.021167754   -4.1858633    1.2647788  1010000 
 1423000   0.84300618   -4.1857324   -4.1857324   -2.9212244  0.024791148   -4.1857324     1.264508  1010000 
 1424000   0.84292185   -4.1855717   -4.1855717   -2.9211902  0.023619875   -4.1855717    1.2643815  1010000 
 1425000   0.84365717   -4.1861053   -4.1861053   -2.9206208   0.02366178   -4.1861053    1.2654845  1010000 
 1426000   0.84352807   -4.1864421   -4.1864421   -2.9211512  0.022333582   -4.1864421    1.2652909  1010000 
 1427000    0.8435626   -4.1864698   -4.1864698   -2.9211271  0.024256673   -4.1864698    1.2653426  1010000 
 1428000   0.84307317    -4.185768    -4.185768   -2.9211595  0.021956508    -4.185768    1.2646085  1010000 
 1429000   0.84259277   -4.1847883   -4.1847883   -2.9209004  0.023118778   -4.1847883    1.2638879  1010000 
 1430000   0.84286606   -4.1851696   -4.1851696   -2.9208717   0.02537896   -4.1851696    1.2642978  1010000 
 1431000   0.84414396   -4.1864552   -4.1864552   -2.9202405  0.022418953   -4.1864552    1.2662147  1010000 
 1432000   0.84329332   -4.1853178   -4.1853178   -2.9203791  0.026380889   -4.1853178    1.2649387  1010000 
 1433000   0.84401205   -4.1862949   -4.1862949   -2.9202781  0.025783989   -4.1862949    1.2660168  1010000 
 1434000   0.84408657   -4.1865916   -4.1865916    -2.920463  0.021451496   -4.1865916    1.2661286  1010000 
 1435000   0.84357357   -4.1852994   -4.1852994   -2.9199403  0.025324854   -4.1852994    1.2653591  1010000 
 1436000   0.84306767   -4.1849026   -4.1849026   -2.9203024  0.023377372   -4.1849026    1.2646003  1010000 
 1437000   0.84355784   -4.1857636   -4.1857636   -2.9204281  0.027386796   -4.1857636    1.2653355  1010000 
 1438000   0.84391099   -4.1865641   -4.1865641   -2.9206989  0.026095034   -4.1865641    1.2658652  1010000 
 1439000   0.84388727    -4.186551    -4.186551   -2.9207213  0.025223825    -4.186551    1.2658296  1010000 
 1440000   0.84454596   -4.1873644   -4.1873644   -2.9205468  0.023026762   -4.1873644    1.2668177  1010000 
 1441000   0.84353278   -4.1857538   -4.1857538   -2.9204559  0.026691284   -4.1857538    1.2652979  1010000 
 1442000    0.8436143   -4.1860165   -4.1860165   -2.9205963  0.026395375   -4.1860165    1.2654202  1010000 
 1443000   0.84374075   -4.1863964   -4.1863964   -2.9207866  0.028921132   -4.1863964    1.2656099  1010000 
 1444000   0.84316788   -4.1860549   -4.1860549   -2.9213043  0.026337877   -4.1860549    1.2647506  1010000 
 1445000   0.84334331   -4.1865698   -4.1865698   -2.9215561  0.021920061   -4.1865698    1.2650137  1010000 
 1446000   0.84236975     -4.18501     -4.18501   -2.9214566  0.024390476     -4.18501    1.2635534  1010000 
 1447000   0.84307169   -4.1859749   -4.1859749   -2.9213686  0.023874218   -4.1859749    1.2646063  1010000 
 1448000   0.84364034   -4.1856778   -4.1856778   -2.9202186  0.022426105   -4.1856778    1.2654593  1010000 
 1449000   0.84349311   -4.1853871   -4.1853871   -2.9201487  0.022988818   -4.1853871    1.2652384  1010000 
 1450000   0.84317926   -4.1849421   -4.1849421   -2.9201744   0.02452507   -4.1849421    1.2647676  1010000 
 1451000    0.8428031   -4.1842223   -4.1842223   -2.9200189  0.027276452   -4.1842223    1.2642034  1010000 
 1452000    0.8442942   -4.1861889   -4.1861889   -2.9197489  0.022310079   -4.1861889      1.26644  1010000 
 1453000   0.84286116   -4.1843675   -4.1843675    -2.920077  0.025074565   -4.1843675    1.2642905  1010000 
 1454000   0.84340574   -4.1853501   -4.1853501   -2.9202427  0.020915225   -4.1853501    1.2651074  1010000 
 1455000   0.84287306    -4.184708    -4.184708   -2.9203996   0.02209187    -4.184708    1.2643083  1010000 
 1456000    0.8430887   -4.1852331   -4.1852331   -2.9206013  0.022596499   -4.1852331    1.2646318  1010000 
 1457000   0.84363529    -4.186048    -4.186048   -2.9205963  0.021645804    -4.186048    1.2654517  1010000 
 1458000   0.84345545   -4.1850723   -4.1850723   -2.9198904  0.024321173   -4.1850723    1.2651819  1010000 
 1459000   0.84361903   -4.1854569   -4.1854569   -2.9200296   0.02574848   -4.1854569    1.2654273  1010000 
 1460000   0.84358834   -4.1853447   -4.1853447   -2.9199635  0.022381859   -4.1853447    1.2653813  1010000 
 1461000   0.84315476   -4.1848363   -4.1848363   -2.9201054  0.020485956   -4.1848363    1.2647309  1010000 
 1462000   0.84354009   -4.1854954   -4.1854954   -2.9201866  0.021797596   -4.1854954    1.2653089  1010000 
 1463000   0.84343249   -4.1851745   -4.1851745    -2.920027  0.024097909   -4.1851745    1.2651475  1010000 
 1464000   0.84415037   -4.1859251   -4.1859251   -2.9197008  0.023229707   -4.1859251    1.2662243  1010000 
 1465000   0.84278844   -4.1847522   -4.1847522   -2.9205708  0.020816693   -4.1847522    1.2641814  1010000 
 1466000   0.84318718   -4.1848819   -4.1848819   -2.9201024  0.019597659   -4.1848819    1.2647795  1010000 
 1467000   0.84232458   -4.1844528   -4.1844528   -2.9209672  0.023154836   -4.1844528    1.2634856  1010000 
 1468000   0.84269605   -4.1852607   -4.1852607   -2.9212179  0.019450592   -4.1852607    1.2640428  1010000 
 1469000   0.84357821   -4.1855563   -4.1855563   -2.9201902  0.013540971   -4.1855563    1.2653661  1010000 
 1470000   0.84216224   -4.1845044   -4.1845044   -2.9212623  0.019234082   -4.1845044    1.2632421  1010000 
 1471000    0.8425788   -4.1849861   -4.1849861   -2.9211192  0.018735374   -4.1849861    1.2638669  1010000 
 1472000   0.84317548   -4.1853327   -4.1853327   -2.9205707  0.018517588   -4.1853327     1.264762  1010000 
 1473000   0.84327257   -4.1859092   -4.1859092   -2.9210016  0.017786035   -4.1859092    1.2649076  1010000 
 1474000   0.84357092   -4.1861611   -4.1861611    -2.920806  0.017188304   -4.1861611    1.2653551  1010000 
 1475000   0.84259087   -4.1848034   -4.1848034   -2.9209184  0.021790622   -4.1848034     1.263885  1010000 
 1476000   0.84300533   -4.1856965   -4.1856965   -2.9211897  0.023418054   -4.1856965    1.2645067  1010000 
 1477000   0.84323498   -4.1862895   -4.1862895   -2.9214383  0.022005831   -4.1862895    1.2648512  1010000 
 1478000   0.84394089   -4.1870778   -4.1870778   -2.9211678  0.022395243   -4.1870778    1.2659101  1010000 
 1479000   0.84251407   -4.1853023   -4.1853023   -2.9215325  0.025569515   -4.1853023    1.2637698  1010000 
 1480000   0.84295889   -4.1862227   -4.1862227   -2.9217856  0.023039642   -4.1862227    1.2644371  1010000 
 1481000   0.84239562    -4.185606    -4.185606   -2.9220138  0.024791567    -4.185606    1.2635922  1010000 
 1482000   0.84278483   -4.1857882   -4.1857882   -2.9216122  0.022719649   -4.1857882     1.264176  1010000 
 1483000   0.84279526    -4.185576    -4.185576   -2.9213843  0.024806704    -4.185576    1.2641916  1010000 
 1484000   0.84378544   -4.1874801   -4.1874801   -2.9218032  0.021277723   -4.1874801    1.2656769  1010000 
 1485000   0.84363655   -4.1870496   -4.1870496    -2.921596  0.024401172   -4.1870496    1.2654536  1010000 
 1486000   0.84362269   -4.1867104   -4.1867104   -2.9212776  0.023861946   -4.1867104    1.2654328  1010000 
 1487000   0.84309047   -4.1863472   -4.1863472   -2.9217128  0.024124348   -4.1863472    1.2646344  1010000 
 1488000   0.84255914   -4.1859655   -4.1859655    -2.922128  0.022831816   -4.1859655    1.2638375  1010000 
 1489000   0.84338741   -4.1870233   -4.1870233   -2.9219434    0.0245491   -4.1870233    1.2650799  1010000 
 1490000   0.84261786   -4.1869058   -4.1869058   -2.9229803  0.022831684   -4.1869058    1.2639255  1010000 
 1491000   0.84359147   -4.1884431   -4.1884431   -2.9230572  0.023064151   -4.1884431     1.265386  1010000 
 1492000   0.84351283   -4.1879787   -4.1879787   -2.9227107   0.02733284   -4.1879787     1.265268  1010000 
 1493000   0.84334403    -4.187845    -4.187845   -2.9228302   0.02584961    -4.187845    1.2650148  1010000 
 1494000   0.84321086   -4.1873457   -4.1873457   -2.9225307  0.030528397   -4.1873457     1.264815  1010000 
 1495000   0.84399198   -4.1887183   -4.1887183   -2.9227315  0.027662849   -4.1887183    1.2659867  1010000 
 1496000   0.84379972   -4.1886001   -4.1886001   -2.9229018   0.02542995   -4.1886001    1.2656983  1010000 
 1497000     0.844144   -4.1891916   -4.1891916   -2.9229768  0.022029791   -4.1891916    1.2662148  1010000 
 1498000   0.84345326   -4.1887875   -4.1887875   -2.9236088   0.02867579   -4.1887875    1.2651786  1010000 
 1499000   0.84359599   -4.1892212   -4.1892212   -2.9238284  0.022887209   -4.1892212    1.2653927  1010000 
 1500000   0.84305866   -4.1887453   -4.1887453   -2.9241586  0.021629348   -4.1887453    1.2645867  1010000 
 1501000    0.8431005   -4.1885179   -4.1885179   -2.9238684  0.028955062   -4.1885179    1.2646495  1010000 
 1502000     0.843237   -4.1892009   -4.1892009   -2.9243467  0.027698293   -4.1892009    1.2648543  1010000 
 1503000   0.84281706   -4.1890194   -4.1890194    -2.924795   0.02607483   -4.1890194    1.2642243  1010000 
 1504000   0.84274763   -4.1893861   -4.1893861   -2.9252659  0.028671331   -4.1893861    1.2641202  1010000 
 1505000   0.84333545   -4.1899818   -4.1899818   -2.9249799  0.024444836   -4.1899818    1.2650019  1010000 
 1506000   0.84270349   -4.1893695   -4.1893695   -2.9253156   0.02319414   -4.1893695     1.264054  1010000 
 1507000    0.8426991    -4.189787    -4.189787   -2.9257396  0.022966108    -4.189787    1.2640474  1010000 
 1508000   0.84297624   -4.1906489   -4.1906489   -2.9261858  0.019397792   -4.1906489    1.2644631  1010000 
 1509000   0.84276736   -4.1899207   -4.1899207   -2.9257709   0.02082081   -4.1899207    1.2641498  1010000 
 1510000   0.84227522   -4.1891995   -4.1891995   -2.9257879  0.023062092   -4.1891995    1.2634116  1010000 
 1511000   0.84245224    -4.189441    -4.189441   -2.9257639  0.023289624    -4.189441    1.2636771  1010000 
 1512000   0.84327677   -4.1901318   -4.1901318   -2.9252179  0.026030879   -4.1901318    1.2649139  1010000 
 1513000    0.8429202   -4.1897652   -4.1897652   -2.9253861  0.026692581   -4.1897652    1.2643791  1010000 
 1514000    0.8429707   -4.1891015   -4.1891015   -2.9246467   0.02494041   -4.1891015    1.2644548  1010000 
 1515000   0.84348075   -4.1899243   -4.1899243   -2.9247044  0.025455972   -4.1899243    1.2652199  1010000 
 1516000    0.8432443   -4.1891369   -4.1891369   -2.9242717  0.026290267   -4.1891369    1.2648652  1010000 
 1517000   0.84334077   -4.1892581   -4.1892581   -2.9242482  0.026879282   -4.1892581    1.2650099  1010000 
 1518000   0.84343499   -4.1892203   -4.1892203    -2.924069  0.025108059   -4.1892203    1.2651512  1010000 
 1519000   0.84341065   -4.1886997   -4.1886997    -2.923585  0.027883257   -4.1886997    1.2651147  1010000 
 1520000   0.84390342   -4.1897344   -4.1897344   -2.9238805  0.024533708   -4.1897344    1.2658539  1010000 
 1521000   0.84412188   -4.1894193   -4.1894193   -2.9232377  0.025752217   -4.1894193    1.2661816  1010000 
 1522000   0.84371394   -4.1888232   -4.1888232   -2.9232536  0.026847398   -4.1888232    1.2655697  1010000 
 1523000   0.84389702   -4.1893953   -4.1893953   -2.9235511  0.026310742   -4.1893953    1.2658443  1010000 
 1524000   0.84397956   -4.1896616   -4.1896616   -2.9236935  0.025522574   -4.1896616    1.2659681  1010000 
 1525000   0.84239896   -4.1880744   -4.1880744   -2.9244772  0.025687917   -4.1880744    1.2635972  1010000 
 1526000    0.8427765   -4.1885211   -4.1885211   -2.9243576  0.021226391   -4.1885211    1.2641635  1010000 
 1527000   0.84342047   -4.1889254   -4.1889254   -2.9237959  0.019717208   -4.1889254    1.2651295  1010000 
 1528000    0.8427336   -4.1878708   -4.1878708   -2.9237716   0.02194294   -4.1878708    1.2640992  1010000 
 1529000   0.84240024   -4.1876814   -4.1876814   -2.9240823  0.020983309   -4.1876814    1.2635991  1010000 
 1530000   0.84253882   -4.1877681   -4.1877681   -2.9239611  0.019555394   -4.1877681     1.263807  1010000 
 1531000   0.84216146   -4.1871438   -4.1871438   -2.9239028  0.021979693   -4.1871438    1.2632409  1010000 
 1532000   0.84174378   -4.1865852   -4.1865852   -2.9239708  0.021811252   -4.1865852    1.2626144  1010000 
 1533000   0.84178002   -4.1867341   -4.1867341   -2.9240653  0.021199022   -4.1867341    1.2626688  1010000 
 1534000   0.84193037   -4.1868967   -4.1868967   -2.9240024  0.018665312   -4.1868967    1.2628943  1010000 
 1535000   0.84283974   -4.1880017   -4.1880017   -2.9237433   0.01559229   -4.1880017    1.2642584  1010000 
 1536000   0.84294941   -4.1877101   -4.1877101   -2.9232872  0.019613625   -4.1877101    1.2644229  1010000 
 1537000   0.84294651     -4.18773     -4.18773   -2.9233115  0.022728298     -4.18773    1.2644185  1010000 
 1538000    0.8422524   -4.1864124   -4.1864124    -2.923035  0.022664354   -4.1864124    1.2633774  1010000 
 1539000   0.84291152   -4.1867107   -4.1867107   -2.9223447  0.021999081   -4.1867107     1.264366  1010000 
 1540000   0.84307686   -4.1870501   -4.1870501   -2.9224361  0.024766885   -4.1870501     1.264614  1010000 
 1541000   0.84370754   -4.1876621   -4.1876621   -2.9221021  0.021308096   -4.1876621    1.2655601  1010000 
 1542000   0.84280114   -4.1863067   -4.1863067   -2.9221063  0.019720655   -4.1863067    1.2642005  1010000 
 1543000   0.84312552    -4.186792    -4.186792    -2.922105  0.019235775    -4.186792     1.264687  1010000 
 1544000   0.84286164   -4.1864735   -4.1864735   -2.9221823  0.019576817   -4.1864735    1.2642912  1010000 
 1545000   0.84219648     -4.18579     -4.18579   -2.9224966  0.024834603     -4.18579    1.2632935  1010000 
 1546000   0.84280624   -4.1871284   -4.1871284   -2.9229203  0.020058526   -4.1871284    1.2642081  1010000 
 1547000   0.84243339   -4.1864795   -4.1864795   -2.9228307  0.017954157   -4.1864795    1.2636488  1010000 
 1548000   0.84246882   -4.1864939   -4.1864939   -2.9227919  0.021145293   -4.1864939     1.263702  1010000 
 1549000   0.84273945   -4.1865879   -4.1865879   -2.9224799  0.019916617   -4.1865879    1.2641079  1010000 
 1550000   0.84219028   -4.1861242   -4.1861242     -2.92284  0.020054027   -4.1861242    1.2632842  1010000 
 1551000   0.84187364   -4.1858057   -4.1858057   -2.9229965  0.021474313   -4.1858057    1.2628092  1010000 
 1552000   0.84220952   -4.1863776   -4.1863776   -2.9230646  0.021542397   -4.1863776     1.263313  1010000 
 1553000   0.84256559   -4.1868294   -4.1868294   -2.9229823  0.020835298   -4.1868294    1.2638471  1010000 
 1554000   0.84215315   -4.1861317   -4.1861317   -2.9229032  0.023646236   -4.1861317    1.2632285  1010000 
 1555000   0.84319459   -4.1873839   -4.1873839   -2.9225933  0.019163677   -4.1873839    1.2647906  1010000 
 1556000   0.84258154   -4.1866245   -4.1866245   -2.9227534  0.022103884   -4.1866245    1.2638711  1010000 
 1557000   0.84219582   -4.1863301   -4.1863301   -2.9230376  0.022515956   -4.1863301    1.2632925  1010000 
 1558000   0.84232143   -4.1862035   -4.1862035   -2.9227226  0.026287198   -4.1862035    1.2634809  1010000 
 1559000   0.84365726   -4.1886323   -4.1886323   -2.9231477  0.022380478   -4.1886323    1.2654846  1010000 
 1560000   0.84311253   -4.1876067   -4.1876067   -2.9229392  0.025297042   -4.1876067    1.2646675  1010000 
 1561000   0.84299098   -4.1869607   -4.1869607   -2.9224755  0.027681444   -4.1869607    1.2644852  1010000 
 1562000   0.84349589   -4.1874423   -4.1874423   -2.9221997  0.023648589   -4.1874423    1.2652426  1010000 
 1563000   0.84388827   -4.1879711   -4.1879711   -2.9221399  0.023481374   -4.1879711    1.2658312  1010000 
 1564000   0.84396653   -4.1884206   -4.1884206    -2.922472  0.023433799   -4.1884206    1.2659485  1010000 
 1565000   0.84310872   -4.1879924   -4.1879924   -2.9233306  0.024359582   -4.1879924    1.2646618  1010000 
 1566000   0.84328655   -4.1888045   -4.1888045    -2.923876   0.02231829   -4.1888045    1.2649286  1010000 
 1567000   0.84273188   -4.1880214   -4.1880214   -2.9239249  0.025011542   -4.1880214    1.2640966  1010000 
 1568000   0.84255021   -4.1884341   -4.1884341     -2.92461  0.025293723   -4.1884341    1.2638241  1010000 
 1569000   0.84351512   -4.1894301   -4.1894301   -2.9241586  0.021381592   -4.1894301    1.2652714  1010000 
 1570000   0.84313074    -4.189206    -4.189206   -2.9245111  0.025040903    -4.189206    1.2646949  1010000 
 1571000   0.84270386   -4.1880367   -4.1880367   -2.9239822  0.025449461   -4.1880367    1.2640545  1010000 
 1572000   0.84225026   -4.1880505   -4.1880505   -2.9246764   0.02518234   -4.1880505    1.2633741  1010000 
 1573000   0.84323581   -4.1892296   -4.1892296   -2.9243771  0.022285602   -4.1892296    1.2648525  1010000 
 1574000   0.84288274   -4.1884342   -4.1884342   -2.9241114  0.025119163   -4.1884342    1.2643229  1010000 
 1575000      0.84249   -4.1880621   -4.1880621   -2.9243283  0.024909282   -4.1880621    1.2637337  1010000 
 1576000   0.84262215   -4.1883694   -4.1883694   -2.9244374  0.024346907   -4.1883694     1.263932  1010000 
 1577000   0.84266843    -4.189008    -4.189008   -2.9250066  0.023792044    -4.189008    1.2640014  1010000 
 1578000   0.84315217   -4.1899209   -4.1899209   -2.9251939  0.021195115   -4.1899209     1.264727  1010000 
 1579000   0.84218917   -4.1883102   -4.1883102   -2.9250277  0.025077685   -4.1883102    1.2632825  1010000 
 1580000   0.84283517   -4.1889679   -4.1889679   -2.9247164   0.02372028   -4.1889679    1.2642515  1010000 
 1581000   0.84401397   -4.1907596   -4.1907596   -2.9247399  0.024976627   -4.1907596    1.2660197  1010000 
 1582000   0.84311602   -4.1902747   -4.1902747   -2.9256019  0.023942502   -4.1902747    1.2646728  1010000 
 1583000   0.84250881   -4.1895759   -4.1895759   -2.9258139  0.025358776   -4.1895759     1.263762  1010000 
 1584000   0.84236219   -4.1891462   -4.1891462   -2.9256042  0.025102845   -4.1891462     1.263542  1010000 
 1585000   0.84300021   -4.1907416   -4.1907416   -2.9262425  0.022292951   -4.1907416    1.2644991  1010000 
 1586000   0.84293853   -4.1904837   -4.1904837   -2.9260772  0.024451176   -4.1904837    1.2644065  1010000 
 1587000   0.84220941   -4.1895269   -4.1895269    -2.926214  0.026823234   -4.1895269    1.2633129  1010000 
 1588000   0.84250864   -4.1901363   -4.1901363   -2.9263746  0.022172798   -4.1901363    1.2637617  1010000 
 1589000   0.84202881   -4.1892985   -4.1892985   -2.9262565  0.025151244   -4.1892985     1.263042  1010000 
 1590000   0.84266916   -4.1894002   -4.1894002   -2.9253977  0.023253077   -4.1894002    1.2640025  1010000 
 1591000   0.84255513   -4.1896317   -4.1896317   -2.9258003  0.024011539   -4.1896317    1.2638314  1010000 
 1592000   0.84232693   -4.1894316   -4.1894316   -2.9259425  0.022845909   -4.1894316    1.2634891  1010000 
 1593000   0.84138858    -4.188673    -4.188673   -2.9265914  0.026584095    -4.188673    1.2620816  1010000 
 1594000   0.84199252   -4.1894625   -4.1894625    -2.926475  0.021662824   -4.1894625    1.2629875  1010000 
 1595000   0.84234612    -4.189841    -4.189841   -2.9263231  0.021253051    -4.189841    1.2635179  1010000 
 1596000   0.84182044   -4.1891655   -4.1891655   -2.9264361  0.022802771   -4.1891655    1.2627294  1010000 
 1597000   0.84109509   -4.1884742   -4.1884742   -2.9268329  0.024937952   -4.1884742    1.2616414  1010000 
 1598000   0.84129844   -4.1896052   -4.1896052   -2.9276587  0.023538867   -4.1896052    1.2619464  1010000 
 1599000   0.84210197   -4.1905399   -4.1905399   -2.9273882  0.018771692   -4.1905399    1.2631517  1010000 
 1600000   0.84161291   -4.1901496   -4.1901496   -2.9277315  0.019377304   -4.1901496    1.2624181  1010000 
 1601000   0.84199051   -4.1908563   -4.1908563   -2.9278717  0.019229712   -4.1908563    1.2629845  1010000 
 1602000    0.8412226    -4.189676    -4.189676   -2.9278433  0.022749312    -4.189676    1.2618326  1010000 
 1603000   0.84261612   -4.1910503   -4.1910503   -2.9271274  0.022516065   -4.1910503    1.2639229  1010000 
 1604000   0.84282759   -4.1911047   -4.1911047   -2.9268646  0.023212222   -4.1911047    1.2642401  1010000 
 1605000   0.84212035   -4.1899268   -4.1899268   -2.9267475  0.025615659   -4.1899268    1.2631793  1010000 
 1606000   0.84217687   -4.1902839   -4.1902839   -2.9270198  0.027207567   -4.1902839    1.2632641  1010000 
 1607000      0.84215     -4.19035     -4.19035   -2.9271263  0.022346102     -4.19035    1.2632238  1010000 
 1608000   0.84230753   -4.1907629   -4.1907629   -2.9273029  0.024665758   -4.1907629      1.26346  1010000 
 1609000   0.84160298   -4.1901157   -4.1901157   -2.9277125  0.025442129   -4.1901157    1.2624032  1010000 
 1610000   0.84199946   -4.1909904   -4.1909904   -2.9279924  0.024068052   -4.1909904    1.2629979  1010000 
 1611000    0.8423686   -4.1913689   -4.1913689   -2.9278172  0.022461711   -4.1913689    1.2635517  1010000 
 1612000   0.84153923   -4.1904848   -4.1904848   -2.9281772  0.023195967   -4.1904848    1.2623076  1010000 
 1613000   0.84225485   -4.1914206   -4.1914206   -2.9280396   0.02366775   -4.1914206     1.263381  1010000 
 1614000    0.8423083   -4.1910219   -4.1910219   -2.9275606   0.02407752   -4.1910219    1.2634612  1010000 
 1615000   0.84251911    -4.191578    -4.191578   -2.9278006  0.024879425    -4.191578    1.2637774  1010000 
 1616000   0.84179333   -4.1907409   -4.1907409   -2.9280522  0.023891983   -4.1907409    1.2626887  1010000 
 1617000    0.8422767   -4.1915227   -4.1915227   -2.9281089  0.022673857   -4.1915227    1.2634138  1010000 
 1618000   0.84197181   -4.1913013   -4.1913013   -2.9283449  0.024934585   -4.1913013    1.2629565  1010000 
 1619000   0.84248783   -4.1923699   -4.1923699   -2.9286394   0.02360581   -4.1923699    1.2637305  1010000 
 1620000   0.84223501   -4.1914127   -4.1914127   -2.9280614  0.021280125   -4.1914127    1.2633513  1010000 
 1621000   0.84214508   -4.1914997   -4.1914997   -2.9282833  0.023657128   -4.1914997    1.2632164  1010000 
 1622000   0.84159503   -4.1914275   -4.1914275   -2.9290362  0.024808013   -4.1914275    1.2623913  1010000 
 1623000    0.8423351   -4.1924342   -4.1924342   -2.9289328  0.025323006   -4.1924342    1.2635014  1010000 
 1624000   0.84210472   -4.1920395   -4.1920395   -2.9288837  0.022382578   -4.1920395    1.2631558  1010000 
 1625000    0.8422729   -4.1926246   -4.1926246   -2.9292165  0.024843694   -4.1926246    1.2634081  1010000 
 1626000   0.84224172   -4.1920518   -4.1920518   -2.9286904  0.025495272   -4.1920518    1.2633613  1010000 
 1627000    0.8421659   -4.1921113   -4.1921113   -2.9288637  0.027488217   -4.1921113    1.2632476  1010000 
 1628000   0.84244754   -4.1929013   -4.1929013   -2.9292313  0.022185378   -4.1929013    1.2636701  1010000 
 1629000   0.84267612   -4.1934069   -4.1934069   -2.9293939  0.021436476   -4.1934069    1.2640129  1010000 
 1630000    0.8428797    -4.193236    -4.193236   -2.9289177   0.02367932    -4.193236    1.2643183  1010000 
 1631000   0.84275016   -4.1925065   -4.1925065   -2.9283825  0.025762324   -4.1925065     1.264124  1010000 
 1632000   0.84272428   -4.1930878   -4.1930878   -2.9290026   0.02440341   -4.1930878    1.2640852  1010000 
 1633000   0.84241355   -4.1924812   -4.1924812   -2.9288622  0.026410771   -4.1924812    1.2636191  1010000 
 1634000   0.84325571   -4.1929349   -4.1929349   -2.9280526  0.024798574   -4.1929349    1.2648823  1010000 
 1635000   0.84307082   -4.1927479   -4.1927479   -2.9281429  0.026202233   -4.1927479     1.264605  1010000 
 1636000   0.84310223   -4.1932543   -4.1932543   -2.9286023  0.025032961   -4.1932543    1.2646521  1010000 
 1637000   0.84300263   -4.1930981   -4.1930981   -2.9285954  0.028735594   -4.1930981    1.2645027  1010000 
 1638000   0.84310575   -4.1932591   -4.1932591   -2.9286017  0.023575665   -4.1932591    1.2646574  1010000 
 1639000    0.8424766   -4.1918836   -4.1918836     -2.92817  0.030284732   -4.1918836    1.2637136  1010000 
 1640000   0.84324673   -4.1930605   -4.1930605   -2.9281917  0.026209166   -4.1930605    1.2648688  1010000 
 1641000   0.84233247   -4.1918133   -4.1918133   -2.9283159  0.027560767   -4.1918133    1.2634975  1010000 
 1642000   0.84239385   -4.1924304   -4.1924304   -2.9288408  0.026831464   -4.1924304    1.2635895  1010000 
 1643000   0.84213897   -4.1924385   -4.1924385   -2.9292313  0.025490573   -4.1924385    1.2632072  1010000 
 1644000   0.84228068   -4.1921842   -4.1921842   -2.9287644  0.024077523   -4.1921842    1.2634198  1010000 
 1645000   0.84198473   -4.1915479   -4.1915479    -2.928572  0.025360013   -4.1915479    1.2629758  1010000 
 1646000   0.84216118   -4.1915048   -4.1915048   -2.9282643  0.027139148   -4.1915048    1.2632405  1010000 
 1647000   0.84220844   -4.1913951   -4.1913951   -2.9280837  0.027709141   -4.1913951    1.2633114  1010000 
 1648000   0.84212292   -4.1919806   -4.1919806   -2.9287975  0.022330152   -4.1919806    1.2631831  1010000 
 1649000   0.84292611   -4.1927098   -4.1927098   -2.9283219  0.022362847   -4.1927098    1.2643879  1010000 
 1650000   0.84247855   -4.1925771   -4.1925771   -2.9288605  0.022532096   -4.1925771    1.2637166  1010000 
 1651000   0.84199014   -4.1917734   -4.1917734   -2.9287894  0.025437001   -4.1917734     1.262984  1010000 
 1652000   0.84297574   -4.1927096   -4.1927096   -2.9282472  0.022054595   -4.1927096    1.2644624  1010000 
 1653000   0.84190335   -4.1911172   -4.1911172   -2.9282634  0.028669805   -4.1911172    1.2628538  1010000 
 1654000   0.84203655   -4.1911141   -4.1911141   -2.9280605  0.025745795   -4.1911141    1.2630536  1010000 
 1655000   0.84239763   -4.1912233   -4.1912233   -2.9276281  0.022491833   -4.1912233    1.2635952  1010000 
 1656000   0.84242969   -4.1916107   -4.1916107   -2.9279674  0.022900005   -4.1916107    1.2636433  1010000 
 1657000   0.84165238   -4.1907539   -4.1907539   -2.9282766  0.024652949   -4.1907539    1.2624773  1010000 
 1658000    0.8417152   -4.1904226   -4.1904226   -2.9278511  0.023129352   -4.1904226    1.2625715  1010000 
 1659000   0.84103863   -4.1890076   -4.1890076   -2.9274509  0.024286082   -4.1890076    1.2615567  1010000 
 1660000   0.84143277   -4.1893814   -4.1893814   -2.9272335  0.022213586   -4.1893814    1.2621479  1010000 
 1661000   0.84198911   -4.1902208   -4.1902208   -2.9272384  0.017567197   -4.1902208    1.2629824  1010000 
 1662000   0.84144621   -4.1895267   -4.1895267   -2.9273586  0.021289442   -4.1895267    1.2621681  1010000 
 1663000   0.84125785   -4.1891153   -4.1891153   -2.9272298  0.019807865   -4.1891153    1.2618855  1010000 
 1664000   0.84224216   -4.1906319   -4.1906319   -2.9272699  0.016437475   -4.1906319     1.263362  1010000 
 1665000   0.84153631   -4.1896851   -4.1896851   -2.9273819  0.016296828   -4.1896851    1.2623032  1010000 
 1666000   0.84131052   -4.1898428   -4.1898428   -2.9278782  0.017250494   -4.1898428    1.2619645  1010000 
 1667000   0.84055742   -4.1891051   -4.1891051   -2.9282702  0.019987446   -4.1891051    1.2608349  1010000 
 1668000   0.84060551   -4.1897077   -4.1897077   -2.9288007  0.022697761   -4.1897077     1.260907  1010000 
 1669000   0.84055332   -4.1895842   -4.1895842   -2.9287554  0.017882892   -4.1895842    1.2608287  1010000 
 1670000   0.84071864   -4.1896686   -4.1896686   -2.9285919   0.01770916   -4.1896686    1.2610767  1010000 
 1671000   0.84142894   -4.1908853   -4.1908853   -2.9287432  0.014843443   -4.1908853    1.2621422  1010000 
 1672000   0.84108645   -4.1897705   -4.1897705   -2.9281421  0.020455691   -4.1897705    1.2616284  1010000 
 1673000   0.84127968    -4.189757    -4.189757   -2.9278387  0.019290041    -4.189757    1.2619183  1010000 
 1674000   0.84171018   -4.1905132   -4.1905132   -2.9279492  0.022629904   -4.1905132     1.262564  1010000 
 1675000   0.84142575    -4.189758    -4.189758   -2.9276206  0.022413009    -4.189758    1.2621374  1010000 
 1676000   0.84138724    -4.189192    -4.189192   -2.9271124   0.02201905    -4.189192    1.2620796  1010000 
 1677000   0.84206134   -4.1898975   -4.1898975   -2.9268067  0.021351846   -4.1898975    1.2630908  1010000 
 1678000   0.84135228   -4.1891358   -4.1891358   -2.9271086  0.023817324   -4.1891358    1.2620272  1010000 
 1679000   0.84189576   -4.1899806   -4.1899806   -2.9271383  0.022049905   -4.1899806    1.2628424  1010000 
 1680000   0.84204298   -4.1904446   -4.1904446   -2.9273814  0.020956182   -4.1904446    1.2630632  1010000 
 1681000   0.84270145   -4.1914356   -4.1914356   -2.9273847   0.02285999   -4.1914356    1.2640509  1010000 
 1682000    0.8419217   -4.1905259   -4.1905259   -2.9276446  0.025465589   -4.1905259    1.2628813  1010000 
 1683000   0.84294425   -4.1916632   -4.1916632    -2.927248  0.024509857   -4.1916632    1.2644151  1010000 
 1684000   0.84352013    -4.192388    -4.192388    -2.927109  0.024190956    -4.192388    1.2652789  1010000 
 1685000   0.84269553   -4.1917738   -4.1917738   -2.9277317  0.028400321   -4.1917738     1.264042  1010000 
 1686000   0.84262883   -4.1915851   -4.1915851   -2.9276431  0.022674751   -4.1915851     1.263942  1010000 
 1687000   0.84154804   -4.1903118   -4.1903118    -2.927991  0.025288524   -4.1903118    1.2623208  1010000 
 1688000   0.84167097   -4.1910267   -4.1910267   -2.9285215  0.028000922   -4.1910267    1.2625052  1010000 
 1689000   0.84267829   -4.1925762   -4.1925762     -2.92856  0.025893145   -4.1925762    1.2640162  1010000 
 1690000   0.84230382   -4.1918153   -4.1918153   -2.9283608  0.025521834   -4.1918153    1.2634545  1010000 
 1691000    0.8419796   -4.1916315   -4.1916315   -2.9286634  0.026412199   -4.1916315    1.2629682  1010000 
 1692000   0.84284895     -4.19325     -4.19325   -2.9289779   0.02622761     -4.19325    1.2642722  1010000 
 1693000   0.84236887   -4.1925599   -4.1925599   -2.9290079  0.024346098   -4.1925599    1.2635521  1010000 
 1694000   0.84284557   -4.1936547   -4.1936547   -2.9293876  0.022335939   -4.1936547    1.2642671  1010000 
 1695000   0.84183301   -4.1920027   -4.1920027   -2.9292544   0.02731338   -4.1920027    1.2627483  1010000 
 1696000   0.84213166   -4.1923682   -4.1923682   -2.9291719  0.026827889   -4.1923682    1.2631962  1010000 
 1697000   0.84267521   -4.1930443   -4.1930443   -2.9290328  0.025530122   -4.1930443    1.2640116  1010000 
 1698000   0.84239991    -4.192655    -4.192655   -2.9290564  0.028021163    -4.192655    1.2635986  1010000 
 1699000    0.8426021   -4.1933211   -4.1933211   -2.9294192  0.025357326   -4.1933211    1.2639019  1010000 
 1700000   0.84215879   -4.1923942   -4.1923942   -2.9291572  0.027046037   -4.1923942    1.2632369  1010000 
 1701000   0.84169336   -4.1920685   -4.1920685   -2.9295297  0.027008783   -4.1920685    1.2625388  1010000 
 1702000   0.84234597   -4.1930994   -4.1930994   -2.9295817  0.024872589   -4.1930994    1.2635177  1010000 
 1703000   0.84256745   -4.1932192   -4.1932192   -2.9293692  0.027069486   -4.1932192    1.2638499  1010000 
 1704000   0.84198774   -4.1927834   -4.1927834    -2.929803   0.02695572   -4.1927834    1.2629804  1010000 
 1705000     0.841733   -4.1921451   -4.1921451   -2.9295468  0.023409989   -4.1921451    1.2625982  1010000 
 1706000   0.84243028   -4.1934676   -4.1934676   -2.9298234  0.024952262   -4.1934676    1.2636442  1010000 
 1707000   0.84265028   -4.1933511   -4.1933511    -2.929377  0.028316752   -4.1933511    1.2639742  1010000 
 1708000   0.84326042   -4.1943004   -4.1943004    -2.929411   0.02275961   -4.1943004    1.2648894  1010000 
 1709000   0.84236968   -4.1930997   -4.1930997   -2.9295464   0.02745349   -4.1930997    1.2635533  1010000 
 1710000   0.84221586   -4.1933405   -4.1933405   -2.9300179  0.026319801   -4.1933405    1.2633225  1010000 
 1711000     0.841668   -4.1928253   -4.1928253   -2.9303246  0.023283394   -4.1928253    1.2625008  1010000 
 1712000   0.84112657   -4.1918754   -4.1918754   -2.9301868  0.025309541   -4.1918754    1.2616886  1010000 
 1713000   0.84105332   -4.1920164   -4.1920164   -2.9304376  0.023537949   -4.1920164    1.2615787  1010000 
 1714000   0.84233623   -4.1940097   -4.1940097   -2.9305066  0.017819003   -4.1940097    1.2635031  1010000 
 1715000   0.84062146   -4.1915875   -4.1915875   -2.9306565  0.027256959   -4.1915875    1.2609309  1010000 
 1716000   0.84153989   -4.1925858   -4.1925858   -2.9302772  0.018576773   -4.1925858    1.2623086  1010000 
 1717000   0.84115367   -4.1925298   -4.1925298   -2.9308005  0.021521489   -4.1925298    1.2617293  1010000 
 1718000   0.84114241   -4.1924877   -4.1924877   -2.9307753  0.020535173   -4.1924877    1.2617124  1010000 
 1719000   0.84137093    -4.192679    -4.192679   -2.9306238  0.019452074    -4.192679    1.2620551  1010000 
 1720000   0.84120484   -4.1925472   -4.1925472   -2.9307412  0.023311209   -4.1925472     1.261806  1010000 
 1721000   0.84065261   -4.1917858   -4.1917858   -2.9308082  0.022637375   -4.1917858    1.2609777  1010000 
 1722000   0.84236457   -4.1938442   -4.1938442   -2.9302986  0.017539283   -4.1938442    1.2635456  1010000 
 1723000   0.84096981    -4.191488    -4.191488   -2.9300345   0.02431225    -4.191488    1.2614535  1010000 
 1724000   0.84094759   -4.1915751   -4.1915751    -2.930155  0.023937807   -4.1915751    1.2614201  1010000 
 1725000   0.84118894   -4.1918235   -4.1918235   -2.9300413  0.025564598   -4.1918235    1.2617822  1010000 
 1726000   0.84150296   -4.1921098   -4.1921098   -2.9298566  0.023198772   -4.1921098    1.2622532  1010000 
 1727000   0.84173384   -4.1925168   -4.1925168   -2.9299173  0.024005805   -4.1925168    1.2625995  1010000 
 1728000   0.84218496   -4.1928156   -4.1928156   -2.9295395  0.022897502   -4.1928156    1.2632762  1010000 
 1729000   0.84229744   -4.1920264   -4.1920264   -2.9285815  0.023972399   -4.1920264    1.2634449  1010000 
 1730000   0.84247998   -4.1926518   -4.1926518   -2.9289331  0.021725985   -4.1926518    1.2637187  1010000 
 1731000   0.84243767   -4.1925164   -4.1925164   -2.9288612  0.023017567   -4.1925164    1.2636552  1010000 
 1732000   0.84266728   -4.1932635   -4.1932635   -2.9292639  0.022345074   -4.1932635    1.2639997  1010000 
 1733000   0.84171546   -4.1915794   -4.1915794   -2.9290074  0.025158411   -4.1915794    1.2625719  1010000 
 1734000   0.84183249   -4.1916565   -4.1916565    -2.928909  0.023369949   -4.1916565    1.2627475  1010000 
 1735000   0.84167552   -4.1916707   -4.1916707   -2.9291586  0.024721584   -4.1916707     1.262512  1010000 
 1736000   0.84169593   -4.1921808   -4.1921808   -2.9296382   0.02164706   -4.1921808    1.2625426  1010000 
 1737000   0.84189731   -4.1926341   -4.1926341   -2.9297894  0.021451242   -4.1926341    1.2628447  1010000 
 1738000   0.84189672   -4.1924909   -4.1924909   -2.9296471  0.022757339   -4.1924909    1.2628438  1010000 
 1739000   0.84168383   -4.1925205   -4.1925205    -2.929996  0.027337798   -4.1925205    1.2625245  1010000 
 1740000   0.84209847   -4.1926121   -4.1926121   -2.9294656  0.025431442   -4.1926121    1.2631465  1010000 
 1741000   0.84223245   -4.1925325   -4.1925325   -2.9291851  0.022138639   -4.1925325    1.2633474  1010000 
 1742000    0.8415423   -4.1918746   -4.1918746   -2.9295624  0.025841099   -4.1918746    1.2623122  1010000 
 1743000   0.84182096   -4.1920322   -4.1920322    -2.929302  0.022805337   -4.1920322    1.2627302  1010000 
 1744000    0.8419321   -4.1920348   -4.1920348   -2.9291379  0.023359197   -4.1920348    1.2628969  1010000 
 1745000    0.8414973   -4.1911442   -4.1911442   -2.9288995  0.025532746   -4.1911442    1.2622447  1010000 
 1746000    0.8409882   -4.1909223   -4.1909223   -2.9294412  0.025600738   -4.1909223     1.261481  1010000 
 1747000   0.84152042   -4.1922241   -4.1922241   -2.9299447  0.023325805   -4.1922241    1.2622794  1010000 
 1748000   0.84144545   -4.1923209   -4.1923209    -2.930154  0.024724679   -4.1923209    1.2621669  1010000 
 1749000   0.84150316   -4.1919531   -4.1919531   -2.9296996  0.026473814   -4.1919531    1.2622535  1010000 
 1750000   0.84173148   -4.1921882   -4.1921882   -2.9295922  0.024389787   -4.1921882     1.262596  1010000 
 1751000   0.84273552   -4.1933141   -4.1933141   -2.9292121  0.018472317   -4.1933141     1.264102  1010000 
 1752000     0.842342   -4.1925478   -4.1925478   -2.9290361  0.020556884   -4.1925478    1.2635117  1010000 
 1753000    0.8422015   -4.1924963   -4.1924963   -2.9291953  0.022870873   -4.1924963     1.263301  1010000 
 1754000   0.84233903   -4.1926803   -4.1926803    -2.929173  0.021891181   -4.1926803    1.2635073  1010000 
 1755000   0.84208976   -4.1923318   -4.1923318   -2.9291984  0.020713191   -4.1923318    1.2631334  1010000 
 1756000   0.84231055   -4.1923857   -4.1923857   -2.9289212  0.019842305   -4.1923857    1.2634646  1010000 
 1757000   0.84211994   -4.1921852   -4.1921852   -2.9290065   0.02086204   -4.1921852    1.2631787  1010000 
 1758000   0.84211492   -4.1917537   -4.1917537   -2.9285825  0.022136811   -4.1917537    1.2631711  1010000 
 1759000   0.84244645   -4.1924441   -4.1924441   -2.9287757  0.022205537   -4.1924441    1.2636684  1010000 
 1760000   0.84260911   -4.1926421   -4.1926421   -2.9287297   0.02091384   -4.1926421    1.2639124  1010000 
 1761000   0.84205653   -4.1912982   -4.1912982   -2.9282146  0.024234349   -4.1912982    1.2630835  1010000 
 1762000     0.842179   -4.1915639   -4.1915639   -2.9282967  0.021259382   -4.1915639    1.2632673  1010000 
 1763000   0.84232468   -4.1918364   -4.1918364   -2.9283507  0.024917129   -4.1918364    1.2634858  1010000 
 1764000   0.84246354   -4.1923136   -4.1923136   -2.9286196  0.022489146   -4.1923136    1.2636941  1010000 
 1765000   0.84240013   -4.1917918   -4.1917918   -2.9281929  0.023156642   -4.1917918    1.2635989  1010000 
 1766000   0.84307421   -4.1927322   -4.1927322   -2.9281221  0.021672254   -4.1927322    1.2646101  1010000 
 1767000   0.84234499   -4.1916578   -4.1916578   -2.9281416   0.02387868   -4.1916578    1.2635162  1010000 
 1768000   0.84383764   -4.1932063   -4.1932063   -2.9274511  0.022803577   -4.1932063    1.2657552  1010000 
 1769000   0.84270933   -4.1921226   -4.1921226   -2.9280599   0.02589131   -4.1921226    1.2640627  1010000 
 1770000   0.84199349   -4.1919366   -4.1919366   -2.9289476   0.02301178   -4.1919366     1.262989  1010000 
 1771000   0.84152417   -4.1916115   -4.1916115   -2.9293265  0.026095832   -4.1916115     1.262285  1010000 
 1772000   0.84151038   -4.1913644   -4.1913644   -2.9291001  0.025119143   -4.1913644    1.2622643  1010000 
 1773000    0.8420179   -4.1920947   -4.1920947   -2.9290691  0.023429986   -4.1920947    1.2630256  1010000 
 1774000   0.84181727   -4.1919409   -4.1919409   -2.9292163  0.024852761   -4.1919409    1.2627247  1010000 
 1775000   0.84140731   -4.1913319   -4.1913319   -2.9292222  0.023931145   -4.1913319    1.2621097  1010000 
 1776000   0.84184439   -4.1920913   -4.1920913    -2.929326  0.020549272   -4.1920913    1.2627653  1010000 
 1777000   0.84172115   -4.1918887   -4.1918887   -2.9293082  0.024415729   -4.1918887    1.2625805  1010000 
 1778000     0.840784   -4.1906588   -4.1906588    -2.929484  0.020185704   -4.1906588    1.2611748  1010000 
 1779000   0.84109318   -4.1914389   -4.1914389   -2.9298003  0.020714215   -4.1914389    1.2616385  1010000 
 1780000   0.84080179   -4.1907165   -4.1907165   -2.9295151  0.019870528   -4.1907165    1.2612014  1010000 
 1781000     0.841335    -4.191559    -4.191559   -2.9295578  0.019278102    -4.191559    1.2620013  1010000 
 1782000   0.84142099   -4.1914688   -4.1914688   -2.9293385   0.01995879   -4.1914688    1.2621302  1010000 
 1783000   0.84067259   -4.1904393   -4.1904393   -2.9294317  0.022554514   -4.1904393    1.2610076  1010000 
 1784000   0.84179992    -4.192211    -4.192211   -2.9295124  0.020851842    -4.192211    1.2626986  1010000 
 1785000   0.84146232   -4.1920634   -4.1920634   -2.9298711  0.022896904   -4.1920634    1.2621922  1010000 
 1786000   0.84151897   -4.1921658   -4.1921658   -2.9298886  0.024906465   -4.1921658    1.2622772  1010000 
 1787000   0.84098759   -4.1911882   -4.1911882   -2.9297081  0.024112087   -4.1911882    1.2614801  1010000 
 1788000   0.84260618   -4.1939047   -4.1939047   -2.9299967  0.021879684   -4.1939047     1.263908  1010000 
 1789000   0.84219338   -4.1934996   -4.1934996   -2.9302107  0.021098426   -4.1934996    1.2632888  1010000 
 1790000   0.84167085   -4.1924128   -4.1924128   -2.9299078  0.025459864   -4.1924128     1.262505  1010000 
 1791000   0.84228041   -4.1930286   -4.1930286   -2.9296092  0.021306286   -4.1930286    1.2634194  1010000 
 1792000   0.84240651   -4.1938092   -4.1938092   -2.9302007  0.021554639   -4.1938092    1.2636085  1010000 
 1793000   0.84175904   -4.1924026   -4.1924026   -2.9297653  0.026385897   -4.1924026    1.2626373  1010000 
 1794000   0.84158895   -4.1918212   -4.1918212    -2.929439   0.02480177   -4.1918212    1.2623822  1010000 
 1795000   0.84189917   -4.1924512   -4.1924512   -2.9296037  0.023051051   -4.1924512    1.2628475  1010000 
 1796000   0.84163685   -4.1925095   -4.1925095   -2.9300555  0.024744494   -4.1925095     1.262454  1010000 
 1797000   0.84170549   -4.1924566   -4.1924566   -2.9298996  0.024250583   -4.1924566     1.262557  1010000 
 1798000   0.84187828   -4.1925742   -4.1925742    -2.929758  0.025794797   -4.1925742    1.2628162  1010000 
 1799000   0.84151601   -4.1921281   -4.1921281   -2.9298553  0.025159548   -4.1921281    1.2622728  1010000 
 1800000   0.84110789   -4.1919095   -4.1919095    -2.930249  0.022893845   -4.1919095    1.2616606  1010000 
 1801000     0.842669    -4.194635    -4.194635   -2.9306328  0.019486133    -4.194635    1.2640023  1010000 
 1802000   0.84178901   -4.1931684   -4.1931684   -2.9304862  0.024524028   -4.1931684    1.2626823  1010000 
 1803000   0.84224087    -4.193946    -4.193946   -2.9305859   0.02347678    -4.193946    1.2633601  1010000 
 1804000   0.84240808   -4.1945302   -4.1945302   -2.9309193  0.024533805   -4.1945302    1.2636109  1010000 
 1805000   0.84261359   -4.1947189   -4.1947189   -2.9307997  0.025147086   -4.1947189    1.2639191  1010000 
 1806000   0.84228035   -4.1940159   -4.1940159   -2.9305966  0.027429817   -4.1940159    1.2634193  1010000 
 1807000   0.84263199   -4.1940234   -4.1940234   -2.9300767   0.02589504   -4.1940234    1.2639467  1010000 
 1808000   0.84296629   -4.1945095   -4.1945095   -2.9300613  0.026894318   -4.1945095    1.2644482  1010000 
 1809000   0.84225512   -4.1934542   -4.1934542   -2.9300728  0.026372106   -4.1934542    1.2633814  1010000 
 1810000   0.84274803   -4.1937365   -4.1937365   -2.9296157  0.026652175   -4.1937365    1.2641208  1010000 
 1811000   0.84301476   -4.1944127   -4.1944127   -2.9298918  0.025825696   -4.1944127    1.2645209  1010000 
 1812000   0.84181388   -4.1930072   -4.1930072   -2.9302876  0.026756972   -4.1930072    1.2627196  1010000 
 1813000   0.84230005   -4.1937471   -4.1937471   -2.9302982  0.023632342   -4.1937471    1.2634488  1010000 
 1814000   0.84180047   -4.1930523   -4.1930523   -2.9303528  0.025486175   -4.1930523    1.2626995  1010000 
 1815000   0.84194542   -4.1934213   -4.1934213   -2.9305044  0.025296959   -4.1934213    1.2629169  1010000 
 1816000   0.84242316   -4.1936552   -4.1936552   -2.9300217  0.024753863   -4.1936552    1.2636335  1010000 
 1817000   0.84191325   -4.1930579   -4.1930579   -2.9301893  0.023562362   -4.1930579    1.2628686  1010000 
 1818000   0.84168386   -4.1927815   -4.1927815   -2.9302569  0.023892579   -4.1927815    1.2625245  1010000 
 1819000   0.84135422   -4.1927584   -4.1927584   -2.9307283  0.021559907   -4.1927584    1.2620301  1010000 
 1820000   0.84223473    -4.194495    -4.194495   -2.9311442  0.019486767    -4.194495    1.2633508  1010000 
 1821000   0.84167112   -4.1934577   -4.1934577   -2.9309523  0.024710966   -4.1934577    1.2625054  1010000 
 1822000   0.84195916   -4.1942774   -4.1942774   -2.9313399  0.020311639   -4.1942774    1.2629375  1010000 
 1823000   0.84118172   -4.1928592   -4.1928592   -2.9310878  0.021049616   -4.1928592    1.2617713  1010000 
 1824000   0.84192242   -4.1940866   -4.1940866   -2.9312042  0.021870056   -4.1940866    1.2628824  1010000 
 1825000   0.84175527   -4.1935557   -4.1935557   -2.9309241  0.024748328   -4.1935557    1.2626317  1010000 
 1826000   0.84191524   -4.1939249   -4.1939249   -2.9310533  0.020886806   -4.1939249    1.2628716  1010000 
 1827000   0.84231172   -4.1938815   -4.1938815   -2.9304152  0.023937762   -4.1938815    1.2634663  1010000 
 1828000    0.8414374    -4.192621    -4.192621   -2.9304661   0.02660014    -4.192621    1.2621548  1010000 
 1829000   0.84194953   -4.1929342   -4.1929342   -2.9300112  0.023993675   -4.1929342    1.2629231  1010000 
 1830000     0.841767   -4.1925215   -4.1925215   -2.9298722  0.024070574   -4.1925215    1.2626493  1010000 
 1831000   0.84203014     -4.19307     -4.19307    -2.930026  0.022225257     -4.19307     1.263044  1010000 
 1832000    0.8420246   -4.1928059   -4.1928059   -2.9297702  0.024424863   -4.1928059    1.2630356  1010000 
 1833000    0.8429047   -4.1937182   -4.1937182   -2.9293624  0.018621696   -4.1937182    1.2643558  1010000 
 1834000    0.8420125   -4.1928217   -4.1928217   -2.9298042  0.021741121   -4.1928217    1.2630175  1010000 
 1835000   0.84159155   -4.1922402   -4.1922402   -2.9298541   0.02540591   -4.1922402    1.2623861  1010000 
 1836000   0.84102931   -4.1914137   -4.1914137    -2.929871  0.027658781   -4.1914137    1.2615427  1010000 
 1837000   0.84203696   -4.1933243   -4.1933243   -2.9302701   0.02266019   -4.1933243    1.2630542  1010000 
 1838000   0.84215215   -4.1934046   -4.1934046   -2.9301776  0.020328446   -4.1934046     1.263227  1010000 
 1839000   0.84154844   -4.1929171   -4.1929171   -2.9305957  0.020449032   -4.1929171    1.2623214  1010000 
 1840000   0.84242926   -4.1939159   -4.1939159   -2.9302733  0.020887534   -4.1939159    1.2636426  1010000 
 1841000   0.84185103   -4.1928254   -4.1928254   -2.9300501  0.023195603   -4.1928254    1.2627753  1010000 
 1842000   0.84141773   -4.1925866   -4.1925866   -2.9304613  0.024089629   -4.1925866    1.2621253  1010000 
 1843000   0.84250189   -4.1939796   -4.1939796    -2.930228  0.021085042   -4.1939796    1.2637516  1010000 
 1844000   0.84178764   -4.1931752   -4.1931752    -2.930495  0.019534349   -4.1931752    1.2626802  1010000 
 1845000   0.84129077   -4.1924055   -4.1924055   -2.9304706  0.022279727   -4.1924055    1.2619349  1010000 
 1846000   0.84150184   -4.1928055   -4.1928055    -2.930554  0.023330229   -4.1928055    1.2622515  1010000 
 1847000   0.84126827   -4.1922222   -4.1922222    -2.930321  0.021558894   -4.1922222    1.2619012  1010000 
 1848000   0.84047052   -4.1914048   -4.1914048   -2.9307002  0.018536603   -4.1914048    1.2607045  1010000 
 1849000   0.84032615   -4.1914158   -4.1914158   -2.9309278  0.022579205   -4.1914158     1.260488  1010000 
 1850000   0.84144012    -4.192428    -4.192428   -2.9302691  0.019782318    -4.192428    1.2621589  1010000 
 1851000   0.84233294   -4.1939558   -4.1939558   -2.9304577  0.018842275   -4.1939558    1.2634982  1010000 
 1852000    0.8408448   -4.1922791   -4.1922791   -2.9310131  0.024437008   -4.1922791     1.261266  1010000 
 1853000   0.84126292   -4.1932336   -4.1932336   -2.9313405  0.024466754   -4.1932336    1.2618931  1010000 
 1854000   0.84132096   -4.1928193   -4.1928193   -2.9308391  0.023574842   -4.1928193    1.2619802  1010000 
 1855000    0.8420773   -4.1939577   -4.1939577    -2.930843  0.023818248   -4.1939577    1.2631147  1010000 
 1856000   0.84135412   -4.1922088   -4.1922088   -2.9301788  0.028034053   -4.1922088    1.2620299  1010000 
 1857000   0.84205526   -4.1936829   -4.1936829   -2.9306012  0.023534392   -4.1936829    1.2630816  1010000 
 1858000   0.84191363   -4.1933807   -4.1933807   -2.9305115   0.02427095   -4.1933807    1.2628692  1010000 
 1859000   0.84153397   -4.1923494   -4.1923494   -2.9300497    0.0288149   -4.1923494    1.2622997  1010000 
 1860000   0.84180993    -4.193033    -4.193033   -2.9303194  0.025704277    -4.193033    1.2627136  1010000 
 1861000   0.84248561   -4.1945055   -4.1945055   -2.9307783   0.02102606   -4.1945055    1.2637272  1010000 
 1862000   0.84191577   -4.1936493   -4.1936493   -2.9307769  0.026352698   -4.1936493    1.2628724  1010000 
 1863000   0.84232941   -4.1944427   -4.1944427   -2.9309499  0.024730761   -4.1944427    1.2634929  1010000 
 1864000   0.84198125   -4.1940353   -4.1940353   -2.9310646  0.024513808   -4.1940353    1.2629706  1010000 
 1865000   0.84214778   -4.1938418   -4.1938418   -2.9306214  0.025476911   -4.1938418    1.2632204  1010000 
 1866000   0.84215215   -4.1939148   -4.1939148   -2.9306878    0.0238958   -4.1939148     1.263227  1010000 
 1867000   0.84177984   -4.1936156   -4.1936156   -2.9309471  0.021974225   -4.1936156    1.2626685  1010000 
 1868000   0.84173117   -4.1940306   -4.1940306   -2.9314351  0.021074743   -4.1940306    1.2625955  1010000 
 1869000    0.8413943   -4.1934465   -4.1934465   -2.9313563  0.024622321   -4.1934465    1.2620902  1010000 
 1870000   0.84196004   -4.1936364   -4.1936364   -2.9306976  0.024239482   -4.1936364    1.2629388  1010000 
 1871000   0.84274035    -4.194269    -4.194269   -2.9301597  0.021583994    -4.194269    1.2641093  1010000 
 1872000   0.84180287   -4.1930598   -4.1930598   -2.9303568  0.024325146   -4.1930598    1.2627031  1010000 
 1873000   0.84160106   -4.1938037   -4.1938037   -2.9314034  0.023013766   -4.1938037    1.2624003  1010000 
 1874000   0.84202017   -4.1941504   -4.1941504   -2.9311214  0.021469624   -4.1941504     1.263029  1010000 
 1875000   0.84149165   -4.1934412   -4.1934412    -2.931205  0.024567906   -4.1934412    1.2622362  1010000 
 1876000   0.84199382   -4.1943908   -4.1943908   -2.9314013  0.022730643   -4.1943908    1.2629895  1010000 
 1877000   0.84129745   -4.1939264   -4.1939264   -2.9319815  0.026864216   -4.1939264    1.2619449  1010000 
 1878000   0.84196782   -4.1946694   -4.1946694   -2.9317189  0.024690731   -4.1946694    1.2629505  1010000 
 1879000   0.84233071   -4.1945943   -4.1945943   -2.9310995  0.022761381   -4.1945943    1.2634948  1010000 
 1880000   0.84231466   -4.1946126   -4.1946126   -2.9311419  0.025961192   -4.1946126    1.2634707  1010000 
 1881000   0.84228805   -4.1945172   -4.1945172   -2.9310864  0.026815692   -4.1945172    1.2634308  1010000 
 1882000   0.84257841   -4.1950438   -4.1950438   -2.9311774  0.021693883   -4.1950438    1.2638664  1010000 
 1883000   0.84172732   -4.1940064   -4.1940064   -2.9314166  0.024673752   -4.1940064    1.2625897  1010000 
 1884000   0.84234557   -4.1948037   -4.1948037   -2.9312866   0.02410172   -4.1948037    1.2635171  1010000 
 1885000   0.84138936   -4.1932877   -4.1932877   -2.9312049  0.024877771   -4.1932877    1.2620828  1010000 
 1886000   0.84165718   -4.1937018   -4.1937018   -2.9312172   0.02492263   -4.1937018    1.2624845  1010000 
 1887000   0.84217447   -4.1945432   -4.1945432   -2.9312828  0.023347483   -4.1945432    1.2632604  1010000 
 1888000   0.84194735   -4.1944517   -4.1944517   -2.9315319  0.021774281   -4.1944517    1.2629198  1010000 
 1889000   0.84183128   -4.1942156   -4.1942156     -2.93147  0.026675822   -4.1942156    1.2627457  1010000 
 1890000   0.84204706   -4.1947675   -4.1947675   -2.9316981  0.025124085   -4.1947675    1.2630693  1010000 
 1891000    0.8420657    -4.194865    -4.194865   -2.9317677  0.026570947    -4.194865    1.2630973  1010000 
 1892000    0.8419912   -4.1945864   -4.1945864   -2.9316009  0.024960102   -4.1945864    1.2629855  1010000 
 1893000   0.84149027   -4.1937594   -4.1937594   -2.9315253   0.02929851   -4.1937594    1.2622341  1010000 
 1894000   0.84135043   -4.1939473   -4.1939473   -2.9319229   0.02383031   -4.1939473    1.2620244  1010000 
 1895000   0.84145845   -4.1942516   -4.1942516   -2.9320652  0.019516438   -4.1942516    1.2621864  1010000 
 1896000   0.84179241   -4.1938399   -4.1938399   -2.9311525  0.021958942   -4.1938399    1.2626874  1010000 
 1897000   0.84101524   -4.1928885   -4.1928885   -2.9313669  0.026731892   -4.1928885    1.2615216  1010000 
 1898000   0.84147536    -4.193708    -4.193708   -2.9314963  0.023037224    -4.193708    1.2622118  1010000 
 1899000   0.84250472   -4.1951032   -4.1951032   -2.9313474  0.022182492   -4.1951032    1.2637558  1010000 
 1900000   0.84188375   -4.1944863   -4.1944863   -2.9316619  0.023705255   -4.1944863    1.2628244  1010000 
 1901000   0.84146346   -4.1938665   -4.1938665   -2.9316725  0.025057294   -4.1938665    1.2621939  1010000 
 1902000   0.84211445   -4.1941749   -4.1941749   -2.9310045   0.02375897   -4.1941749    1.2631704  1010000 
 1903000   0.84204702   -4.1941928   -4.1941928   -2.9311235  0.023065202   -4.1941928    1.2630693  1010000 
 1904000   0.84183539   -4.1934304   -4.1934304   -2.9306786  0.023843739   -4.1934304    1.2627518  1010000 
 1905000   0.84163729   -4.1934459   -4.1934459   -2.9309912  0.022746672   -4.1934459    1.2624547  1010000 
 1906000   0.84204182   -4.1941981   -4.1941981   -2.9311366  0.020839205   -4.1941981    1.2630615  1010000 
 1907000    0.8417302   -4.1942724   -4.1942724   -2.9316783  0.020584588   -4.1942724     1.262594  1010000 
 1908000   0.84193414   -4.1943999   -4.1943999      -2.9315  0.022205117   -4.1943999       1.2629  1010000 
 1909000   0.84190583   -4.1945525   -4.1945525    -2.931695  0.021467116   -4.1945525    1.2628575  1010000 
 1910000   0.84116302   -4.1928724   -4.1928724   -2.9311292  0.022868498   -4.1928724    1.2617433  1010000 
 1911000   0.84128144   -4.1931866   -4.1931866   -2.9312657  0.020929103   -4.1931866    1.2619209  1010000 
 1912000   0.84103576    -4.192631    -4.192631   -2.9310787  0.025206083    -4.192631    1.2615524  1010000 
 1913000   0.84141083   -4.1932364   -4.1932364   -2.9311214  0.021121019   -4.1932364     1.262115  1010000 
 1914000   0.84138119   -4.1930787   -4.1930787   -2.9310082  0.020094553   -4.1930787    1.2620705  1010000 
 1915000   0.84057732   -4.1922065   -4.1922065   -2.9313418  0.021691821   -4.1922065    1.2608647  1010000 
 1916000   0.84155057   -4.1940857   -4.1940857   -2.9317611   0.01772481   -4.1940857    1.2623246  1010000 
 1917000   0.84048277   -4.1928651   -4.1928651   -2.9321422  0.022698985   -4.1928651    1.2607229  1010000 
 1918000   0.84023055   -4.1927869   -4.1927869   -2.9324423  0.020310649   -4.1927869    1.2603446  1010000 
 1919000   0.84021298    -4.192669    -4.192669   -2.9323508  0.020302711    -4.192669    1.2603182  1010000 
 1920000    0.8403673   -4.1925033   -4.1925033   -2.9319536  0.018349059   -4.1925033    1.2605497  1010000 
 1921000   0.83991261   -4.1918938   -4.1918938   -2.9320261  0.018469714   -4.1918938    1.2598677  1010000 
 1922000   0.84091181   -4.1930798   -4.1930798   -2.9317133  0.021685103   -4.1930798    1.2613665  1010000 
 1923000   0.84087762   -4.1934034   -4.1934034   -2.9320882  0.022001681   -4.1934034    1.2613152  1010000 
 1924000   0.84165604   -4.1939447   -4.1939447   -2.9314619  0.018425862   -4.1939447    1.2624828  1010000 
 1925000   0.84153693      -4.1943      -4.1943   -2.9319958  0.018645758      -4.1943    1.2623041  1010000 
 1926000   0.84099465   -4.1939662   -4.1939662   -2.9324755  0.020290543   -4.1939662    1.2614907  1010000 
 1927000   0.84059121   -4.1935593   -4.1935593   -2.9326737   0.02004678   -4.1935593    1.2608856  1010000 
 1928000   0.84072492    -4.193232    -4.193232   -2.9321459  0.022133414    -4.193232    1.2610861  1010000 
 1929000   0.84171572   -4.1947316   -4.1947316   -2.9321593  0.023202406   -4.1947316    1.2625723  1010000 
 1930000   0.84173972    -4.194747    -4.194747   -2.9321387  0.023647612    -4.194747    1.2626083  1010000 
 1931000   0.84254931   -4.1956346   -4.1956346   -2.9318119  0.021209075   -4.1956346    1.2638227  1010000 
 1932000   0.84188837   -4.1948779   -4.1948779   -2.9320466  0.023703243   -4.1948779    1.2628313  1010000 
 1933000   0.84219355   -4.1952242   -4.1952242   -2.9319352   0.02672977   -4.1952242    1.2632891  1010000 
 1934000   0.84227942   -4.1955656   -4.1955656   -2.9321477   0.02405875   -4.1955656    1.2634179  1010000 
 1935000   0.84163887   -4.1951715   -4.1951715   -2.9327144  0.027010938   -4.1951715    1.2624571  1010000 
 1936000   0.84213398     -4.19583     -4.19583   -2.9326303  0.023736417     -4.19583    1.2631997  1010000 
 1937000   0.84144788   -4.1952027   -4.1952027   -2.9330321  0.022106607   -4.1952027    1.2621706  1010000 
 1938000   0.84127869   -4.1952439   -4.1952439   -2.9333271  0.022011997   -4.1952439    1.2619168  1010000 
 1939000   0.84097469   -4.1950552   -4.1950552   -2.9335944   0.02398798   -4.1950552    1.2614608  1010000 
 1940000   0.84209249   -4.1964299   -4.1964299   -2.9332924  0.022532998   -4.1964299    1.2631375  1010000 
 1941000   0.84195616   -4.1963631   -4.1963631   -2.9334301  0.020646347   -4.1963631     1.262933  1010000 
 1942000   0.84146967   -4.1946764   -4.1946764   -2.9324732  0.027541468   -4.1946764    1.2622033  1010000 
 1943000   0.84183567   -4.1958003   -4.1958003   -2.9330481  0.022094342   -4.1958003    1.2627522  1010000 
 1944000   0.84152286   -4.1949042   -4.1949042   -2.9326211  0.023881719   -4.1949042     1.262283  1010000 
 1945000   0.84132552   -4.1951701   -4.1951701   -2.9331831  0.023010856   -4.1951701     1.261987  1010000 
 1946000   0.84167234   -4.1955425   -4.1955425   -2.9330352   0.02189098   -4.1955425    1.2625073  1010000 
 1947000   0.84134197   -4.1952869   -4.1952869   -2.9332752  0.028875476   -4.1952869    1.2620117  1010000 
 1948000   0.84172567   -4.1958418   -4.1958418   -2.9332546   0.02379131   -4.1958418    1.2625873  1010000 
 1949000   0.84150383   -4.1957061   -4.1957061   -2.9334517  0.026525825   -4.1957061    1.2622545  1010000 
 1950000   0.84215539   -4.1960013   -4.1960013   -2.9327695  0.027814021   -4.1960013    1.2632318  1010000 
 1951000   0.84262627   -4.1966374   -4.1966374   -2.9326993  0.026743161   -4.1966374    1.2639381  1010000 
 1952000   0.84278736   -4.1969207   -4.1969207    -2.932741   0.02594157   -4.1969207    1.2641798  1010000 
 1953000   0.84185157   -4.1954363   -4.1954363   -2.9326602   0.02788448   -4.1954363    1.2627761  1010000 
 1954000   0.84177686   -4.1957171   -4.1957171    -2.933053  0.025555334   -4.1957171     1.262664  1010000 
 1955000   0.84199172   -4.1963576   -4.1963576   -2.9333713   0.02429803   -4.1963576    1.2629863  1010000 
 1956000   0.84147914   -4.1959991   -4.1959991   -2.9337817  0.026321323   -4.1959991    1.2622175  1010000 
 1957000   0.84218646   -4.1969857   -4.1969857   -2.9337073  0.022634125   -4.1969857    1.2632784  1010000 
 1958000   0.84240325   -4.1966394   -4.1966394   -2.9330358  0.022785056   -4.1966394    1.2636036  1010000 
 1959000   0.84190738   -4.1955752   -4.1955752   -2.9327154  0.023587402   -4.1955752    1.2628598  1010000 
 1960000   0.84090876   -4.1949031   -4.1949031   -2.9335412  0.026030383   -4.1949031    1.2613619  1010000 
 1961000   0.84110899    -4.195053    -4.195053   -2.9333907   0.02416156    -4.195053    1.2616622  1010000 
 1962000    0.8409804    -4.195118    -4.195118   -2.9336487     0.021528    -4.195118    1.2614693  1010000 
 1963000   0.84111073   -4.1952228   -4.1952228    -2.933558  0.020503247   -4.1952228    1.2616648  1010000 
 1964000   0.84071693   -4.1946743   -4.1946743   -2.9336002  0.026414529   -4.1946743    1.2610741  1010000 
 1965000    0.8402108   -4.1940191   -4.1940191   -2.9337041  0.026506302   -4.1940191     1.260315  1010000 
 1966000    0.8413556   -4.1956071   -4.1956071   -2.9335749  0.020641904   -4.1956071    1.2620322  1010000 
 1967000   0.84180957   -4.1959948   -4.1959948   -2.9332817  0.023077743   -4.1959948    1.2627131  1010000 
 1968000   0.84168031   -4.1955078   -4.1955078   -2.9329886  0.024795087   -4.1955078    1.2625192  1010000 
 1969000   0.84132714   -4.1952561   -4.1952561   -2.9332666  0.022903786   -4.1952561    1.2619895  1010000 
 1970000   0.84114883   -4.1955278   -4.1955278   -2.9338058  0.021941676   -4.1955278     1.261722  1010000 
 1971000   0.84182614   -4.1962852   -4.1962852   -2.9335472  0.019383097   -4.1962852     1.262738  1010000 
 1972000   0.84035607   -4.1938123   -4.1938123   -2.9332795   0.02683038   -4.1938123    1.2605329  1010000 
 1973000   0.84114031   -4.1950877   -4.1950877   -2.9333785  0.022530947   -4.1950877    1.2617092  1010000 
 1974000   0.84199956   -4.1964021   -4.1964021    -2.933404  0.018885493   -4.1964021    1.2629981  1010000 
 1975000    0.8410586    -4.195222    -4.195222   -2.9336354   0.02231588    -4.195222    1.2615867  1010000 
 1976000   0.84122115   -4.1955846   -4.1955846   -2.9337541  0.020683375   -4.1955846    1.2618305  1010000 
 1977000   0.84085543   -4.1947939   -4.1947939    -2.933512  0.024335008   -4.1947939    1.2612819  1010000 
 1978000   0.84150953   -4.1958086   -4.1958086   -2.9335455  0.021940253   -4.1958086     1.262263  1010000 
 1979000   0.84079426   -4.1951505   -4.1951505   -2.9339603  0.023956306   -4.1951505    1.2611901  1010000 
 1980000   0.84114466   -4.1955689   -4.1955689   -2.9338532   0.02161318   -4.1955689    1.2617157  1010000 
 1981000   0.84083435   -4.1949719   -4.1949719   -2.9337216  0.021792946   -4.1949719    1.2612503  1010000 
 1982000   0.84071908   -4.1951239   -4.1951239   -2.9340465  0.022596282   -4.1951239    1.2610774  1010000 
 1983000   0.84085909   -4.1950648   -4.1950648   -2.9337774  0.022681415   -4.1950648    1.2612874  1010000 
 1984000    0.8412245   -4.1952239   -4.1952239   -2.9333884  0.022275246   -4.1952239    1.2618355  1010000 
 1985000   0.84114756   -4.1955728   -4.1955728   -2.9338527  0.019697185   -4.1955728    1.2617201  1010000 
 1986000   0.84039334   -4.1945966   -4.1945966   -2.9340078  0.020927919   -4.1945966    1.2605888  1010000 
 1987000   0.84067328   -4.1946423   -4.1946423   -2.9336336  0.022899279   -4.1946423    1.2610087  1010000 
 1988000   0.84103156   -4.1951172   -4.1951172   -2.9335711  0.021771313   -4.1951172    1.2615461  1010000 
 1989000   0.84167252   -4.1957221   -4.1957221   -2.9332145  0.023936515   -4.1957221    1.2625075  1010000 
 1990000   0.84150712   -4.1955303   -4.1955303   -2.9332709  0.023465715   -4.1955303    1.2622594  1010000 
 1991000   0.84115926   -4.1952473   -4.1952473   -2.9335097  0.023385074   -4.1952473    1.2617376  1010000 
 1992000   0.84298538   -4.1974287   -4.1974287   -2.9329519  0.018294219   -4.1974287    1.2644768  1010000 
 1993000   0.84138622   -4.1951416   -4.1951416   -2.9330635  0.023298693   -4.1951416    1.2620781  1010000 
 1994000   0.84127412   -4.1950865   -4.1950865   -2.9331766  0.025097505   -4.1950865    1.2619099  1010000 
 1995000   0.84243504   -4.1964924   -4.1964924   -2.9328411   0.02128833   -4.1964924    1.2636513  1010000 
 1996000   0.84176476   -4.1957488   -4.1957488   -2.9331029  0.025125002   -4.1957488    1.2626459  1010000 
 1997000   0.84182498   -4.1960033   -4.1960033   -2.9332671  0.023569609   -4.1960033    1.2627362  1010000 
 1998000    0.8421015   -4.1965774   -4.1965774   -2.9334264  0.019553445   -4.1965774     1.263151  1010000 
 1999000   0.84196778   -4.1962835   -4.1962835    -2.933333  0.023687906   -4.1962835    1.2629504  1010000 
 2000000   0.84197947   -4.1958089   -4.1958089    -2.932841  0.028464232   -4.1958089    1.2629679  1010000 
 2001000   0.84301447   -4.1972738   -4.1972738   -2.9327534  0.026277532   -4.1972738    1.2645205  1010000 
 2002000   0.84198716   -4.1965603   -4.1965603   -2.9335808  0.022504621   -4.1965603    1.2629795  1010000 
 2003000   0.84117913   -4.1954433   -4.1954433   -2.9336759  0.024061883   -4.1954433    1.2617674  1010000 
 2004000   0.84182901   -4.1960007   -4.1960007   -2.9332585  0.022594678   -4.1960007    1.2627423  1010000 
 2005000   0.84201102   -4.1958479   -4.1958479   -2.9328327  0.023121214   -4.1958479    1.2630153  1010000 
 2006000   0.84250777   -4.1971432   -4.1971432   -2.9333828  0.018971568   -4.1971432    1.2637604  1010000 
 2007000   0.84160362   -4.1958995   -4.1958995   -2.9334953   0.02186007   -4.1958995    1.2624042  1010000 
 2008000   0.84105654   -4.1948797   -4.1948797   -2.9332961  0.025528007   -4.1948797    1.2615836  1010000 
 2009000   0.84180412   -4.1953467   -4.1953467   -2.9326418  0.022988599   -4.1953467    1.2627049  1010000 
 2010000   0.84239903   -4.1962511   -4.1962511   -2.9326538  0.024109366   -4.1962511    1.2635973  1010000 
 2011000   0.84247823   -4.1960573   -4.1960573   -2.9323412  0.023938139   -4.1960573    1.2637161  1010000 
 2012000   0.84309231   -4.1972655   -4.1972655   -2.9326283  0.017695538   -4.1972655    1.2646372  1010000 
 2013000   0.84205134   -4.1959796   -4.1959796   -2.9329038  0.024174702   -4.1959796    1.2630758  1010000 
 2014000   0.84137471   -4.1954241   -4.1954241   -2.9333633  0.022988744   -4.1954241    1.2620608  1010000 
 2015000   0.84122006      -4.1952      -4.1952   -2.9333711  0.023741062      -4.1952    1.2618288  1010000 
 2016000   0.84160225   -4.1960858   -4.1960858   -2.9336837   0.02277013   -4.1960858    1.2624021  1010000 
 2017000   0.84237423    -4.196681    -4.196681   -2.9331209  0.022036347    -4.196681    1.2635601  1010000 
 2018000   0.84215723   -4.1961704   -4.1961704   -2.9329358  0.023429311   -4.1961704    1.2632346  1010000 
 2019000   0.84181475   -4.1956186   -4.1956186   -2.9328977  0.024504799   -4.1956186    1.2627209  1010000 
 2020000   0.84219779    -4.196558    -4.196558   -2.9332626  0.021069615    -4.196558    1.2632954  1010000 
 2021000   0.84110635   -4.1954352   -4.1954352   -2.9337769  0.023987657   -4.1954352    1.2616583  1010000 
 2022000   0.84117118   -4.1952676   -4.1952676   -2.9335121  0.023759386   -4.1952676    1.2617555  1010000 
 2023000   0.84170754   -4.1959375   -4.1959375   -2.9333774  0.024176915   -4.1959375    1.2625601  1010000 
 2024000   0.84145951   -4.1954464   -4.1954464   -2.9332584  0.021905964   -4.1954464     1.262188  1010000 
 2025000   0.84125938   -4.1954694   -4.1954694   -2.9335816  0.023742081   -4.1954694    1.2618878  1010000 
 2026000   0.84137112   -4.1962281   -4.1962281   -2.9341727  0.021316864   -4.1962281    1.2620554  1010000 
 2027000   0.84141464   -4.1954961   -4.1954961   -2.9333753  0.021861463   -4.1954961    1.2621207  1010000 
 2028000   0.84094491   -4.1947532   -4.1947532   -2.9333371  0.022900365   -4.1947532    1.2614161  1010000 
 2029000    0.8414022   -4.1953989   -4.1953989   -2.9332969  0.023184975   -4.1953989    1.2621021  1010000 
 2030000   0.84160829   -4.1966339   -4.1966339   -2.9342228  0.019317196   -4.1966339    1.2624112  1010000 
 2031000   0.84161049   -4.1961721   -4.1961721   -2.9337576  0.021191827   -4.1961721    1.2624145  1010000 
 2032000   0.84116217    -4.195235    -4.195235    -2.933493  0.023528439    -4.195235     1.261742  1010000 
 2033000   0.84151169   -4.1957921   -4.1957921   -2.9335258  0.021449587   -4.1957921    1.2622663  1010000 
 2034000   0.84102822   -4.1949167   -4.1949167   -2.9333756  0.021091516   -4.1949167    1.2615411  1010000 
 2035000   0.84119285   -4.1944796   -4.1944796   -2.9326916  0.025009922   -4.1944796     1.261788  1010000 
 2036000   0.84162542   -4.1954565   -4.1954565   -2.9330196  0.019592911   -4.1954565    1.2624369  1010000 
 2037000   0.84176697   -4.1959391   -4.1959391   -2.9332899  0.022199034   -4.1959391    1.2626492  1010000 
 2038000   0.84147106    -4.195394    -4.195394   -2.9331887  0.023609005    -4.195394    1.2622053  1010000 
 2039000   0.84232077    -4.196466    -4.196466   -2.9329861  0.022679214    -4.196466    1.2634799  1010000 
 2040000   0.84178073   -4.1956788   -4.1956788    -2.933009  0.025758872   -4.1956788    1.2626698  1010000 
 2041000   0.84269491   -4.1973338   -4.1973338   -2.9332927  0.025411461   -4.1973338    1.2640411  1010000 
 2042000   0.84238479   -4.1964854   -4.1964854   -2.9329095   0.02398954   -4.1964854    1.2635759  1010000 
 2043000   0.84216519   -4.1960885   -4.1960885    -2.932842  0.023145613   -4.1960885    1.2632465  1010000 
 2044000    0.8420093   -4.1963246   -4.1963246   -2.9333119   0.02187067   -4.1963246    1.2630127  1010000 
 2045000   0.84228478   -4.1967745   -4.1967745   -2.9333486  0.021262926   -4.1967745    1.2634259  1010000 
 2046000   0.84066097   -4.1949235   -4.1949235   -2.9339333  0.023273264   -4.1949235    1.2609902  1010000 
 2047000   0.84116635   -4.1955288   -4.1955288   -2.9337805  0.020555468   -4.1955288    1.2617483  1010000 
 2048000   0.84058178   -4.1944064   -4.1944064    -2.933535  0.024646954   -4.1944064    1.2608714  1010000 
 2049000     0.842178   -4.1968508   -4.1968508    -2.933585  0.019563094   -4.1968508    1.2632658  1010000 
 2050000   0.84148721   -4.1962626   -4.1962626    -2.934033  0.024570146   -4.1962626    1.2622296  1010000 
 2051000   0.84038403   -4.1947125   -4.1947125   -2.9341377   0.02580658   -4.1947125    1.2605748  1010000 
 2052000   0.84165901   -4.1969023   -4.1969023    -2.934415  0.023354404   -4.1969023    1.2624873  1010000 
 2053000   0.84120245    -4.196179    -4.196179   -2.9343765  0.024635132    -4.196179    1.2618024  1010000 
 2054000   0.84116356   -4.1963471   -4.1963471    -2.934603  0.023266685   -4.1963471    1.2617441  1010000 
 2055000   0.84139228   -4.1962501   -4.1962501   -2.9341629   0.02059387   -4.1962501    1.2620872  1010000 
 2056000   0.84139769   -4.1962513   -4.1962513    -2.934156  0.023456629   -4.1962513    1.2620953  1010000 
 2057000   0.84139564   -4.1965626   -4.1965626   -2.9344704  0.022559999   -4.1965626    1.2620922  1010000 
 2058000   0.84060652   -4.1951255   -4.1951255    -2.934217  0.025161157   -4.1951255    1.2609085  1010000 
 2059000   0.84203722   -4.1971257   -4.1971257   -2.9340711  0.020846774   -4.1971257    1.2630546  1010000 
 2060000   0.84109241    -4.195605    -4.195605   -2.9339676  0.025103616    -4.195605    1.2616374  1010000 
 2061000   0.84219528    -4.197199    -4.197199   -2.9339073  0.019892646    -4.197199    1.2632917  1010000 
 2062000   0.84095722   -4.1955486   -4.1955486    -2.934114  0.024060991   -4.1955486    1.2614346  1010000 
 2063000   0.84210423   -4.1971384   -4.1971384   -2.9339833  0.019524745   -4.1971384    1.2631551  1010000 
 2064000   0.84185362   -4.1962763   -4.1962763   -2.9334971  0.022738887   -4.1962763    1.2627792  1010000 
 2065000   0.84213368   -4.1966871   -4.1966871   -2.9334879   0.02330568   -4.1966871    1.2631993  1010000 
 2066000   0.84167467   -4.1962884   -4.1962884   -2.9337776  0.025871501   -4.1962884    1.2625107  1010000 
 2067000   0.84202916   -4.1969654   -4.1969654   -2.9339229  0.024616135   -4.1969654    1.2630425  1010000 
 2068000   0.84175699   -4.1964485   -4.1964485   -2.9338143  0.025622905   -4.1964485    1.2626342  1010000 
 2069000   0.84174031   -4.1966302   -4.1966302    -2.934021  0.024569888   -4.1966302    1.2626092  1010000 
 2070000   0.84157743   -4.1963744   -4.1963744   -2.9340095  0.025605847   -4.1963744    1.2623649  1010000 
 2071000   0.84194799    -4.196458    -4.196458   -2.9335372  0.024748346    -4.196458    1.2629207  1010000 
 2072000   0.84254747   -4.1968681   -4.1968681   -2.9330481  0.022707659   -4.1968681      1.26382  1010000 
 2073000   0.84166478   -4.1957506   -4.1957506   -2.9332546  0.024791914   -4.1957506    1.2624959  1010000 
 2074000   0.84184723   -4.1957325   -4.1957325   -2.9329629   0.02574636   -4.1957325    1.2627696  1010000 
 2075000   0.84252709    -4.196545    -4.196545   -2.9327556  0.026623911    -4.196545    1.2637894  1010000 
 2076000   0.84231864   -4.1963978   -4.1963978   -2.9329211  0.023331242   -4.1963978    1.2634767  1010000 
 2077000   0.84198036   -4.1961984   -4.1961984   -2.9332291  0.025567164   -4.1961984    1.2629693  1010000 
 2078000   0.84210506   -4.1966419   -4.1966419   -2.9334855  0.022826803   -4.1966419    1.2631563  1010000 
 2079000   0.84225088   -4.1966826   -4.1966826   -2.9333076  0.022380752   -4.1966826    1.2633751  1010000 
 2080000   0.84172149   -4.1957421   -4.1957421   -2.9331612  0.025653639   -4.1957421     1.262581  1010000 
 2081000   0.84170435   -4.1955246   -4.1955246   -2.9329693  0.029283481   -4.1955246    1.2625553  1010000 
 2082000   0.84105137   -4.1946772   -4.1946772   -2.9331014  0.027544092   -4.1946772    1.2615758  1010000 
 2083000   0.84197594   -4.1956114   -4.1956114   -2.9326487  0.024825543   -4.1956114    1.2629627  1010000 
 2084000   0.84273126   -4.1964964   -4.1964964   -2.9324008  0.027041728   -4.1964964    1.2640956  1010000 
 2085000   0.84209722    -4.196173    -4.196173   -2.9330284  0.018880755    -4.196173    1.2631446  1010000 
 2086000   0.84148872   -4.1950882   -4.1950882   -2.9328563  0.025789766   -4.1950882    1.2622318  1010000 
 2087000   0.84162343     -4.19531     -4.19531   -2.9328761  0.023580496     -4.19531    1.2624339  1010000 
 2088000   0.84099811   -4.1941717   -4.1941717   -2.9326758  0.026038554   -4.1941717    1.2614959  1010000 
 2089000   0.84093638   -4.1937518   -4.1937518   -2.9323485  0.029663847   -4.1937518    1.2614033  1010000 
 2090000   0.84204057   -4.1952066   -4.1952066    -2.932147  0.023552303   -4.1952066    1.2630596  1010000 
 2091000   0.84198523   -4.1954579   -4.1954579   -2.9324813  0.020291379   -4.1954579    1.2629766  1010000 
 2092000    0.8415544   -4.1947365   -4.1947365   -2.9324062  0.023916874   -4.1947365    1.2623304  1010000 
 2093000   0.84154318   -4.1945436   -4.1945436   -2.9322301  0.024708319   -4.1945436    1.2623135  1010000 
 2094000   0.84140966   -4.1948781   -4.1948781   -2.9327649  0.020435314   -4.1948781    1.2621132  1010000 
 2095000   0.84128997   -4.1948232   -4.1948232   -2.9328894  0.021360127   -4.1948232    1.2619337  1010000 
 2096000   0.84062051   -4.1938592   -4.1938592   -2.9329297  0.022479509   -4.1938592    1.2609295  1010000 
 2097000   0.84152939   -4.1947561   -4.1947561   -2.9324633  0.020097071   -4.1947561    1.2622928  1010000 
 2098000   0.84090255   -4.1946356   -4.1946356    -2.933283  0.021253433   -4.1946356    1.2613526  1010000 
 2099000   0.84109507    -4.194544    -4.194544   -2.9329027   0.01942278    -4.194544    1.2616414  1010000 
 2100000   0.84028404   -4.1930603   -4.1930603   -2.9326355  0.017262486   -4.1930603    1.2604248  1010000 
 2101000   0.84112155   -4.1938784   -4.1938784   -2.9321973  0.020065231   -4.1938784    1.2616811  1010000 
 2102000   0.84123841   -4.1943967   -4.1943967   -2.9325404  0.015205515   -4.1943967    1.2618564  1010000 
 2103000   0.84025563   -4.1930631   -4.1930631   -2.9326809  0.017533099   -4.1930631    1.2603822  1010000 
 2104000   0.84054072   -4.1927801   -4.1927801   -2.9319703   0.01969038   -4.1927801    1.2608098  1010000 
 2105000   0.84150499   -4.1942727   -4.1942727   -2.9320165  0.016166968   -4.1942727    1.2622562  1010000 
 2106000    0.8419657   -4.1948742   -4.1948742   -2.9319269   0.01801185   -4.1948742    1.2629473  1010000 
 2107000   0.84137551   -4.1939055   -4.1939055   -2.9318435  0.022088493   -4.1939055     1.262062  1010000 
 2108000   0.84161673   -4.1936301   -4.1936301   -2.9312063  0.021221125   -4.1936301    1.2624238  1010000 
 2109000    0.8419688   -4.1939963   -4.1939963   -2.9310444   0.02005247   -4.1939963     1.262952  1010000 
 2110000   0.84171887   -4.1938863   -4.1938863   -2.9313093  0.021653375   -4.1938863    1.2625771  1010000 
 2111000   0.84145006   -4.1940973   -4.1940973   -2.9319235  0.022081814   -4.1940973    1.2621738  1010000 
 2112000   0.84121468   -4.1936517   -4.1936517   -2.9318309  0.021498171   -4.1936517    1.2618208  1010000 
 2113000   0.84197589   -4.1945931   -4.1945931   -2.9316305  0.018998794   -4.1945931    1.2629626  1010000 
 2114000   0.84128706   -4.1934863   -4.1934863   -2.9315569  0.023369017   -4.1934863    1.2619293  1010000 
 2115000   0.84172629   -4.1937977   -4.1937977   -2.9312095  0.021263595   -4.1937977    1.2625882  1010000 
 2116000   0.84140128   -4.1941928   -4.1941928   -2.9320922  0.020535579   -4.1941928    1.2621007  1010000 
 2117000   0.84183295   -4.1947656   -4.1947656   -2.9320174  0.022445083   -4.1947656    1.2627482  1010000 
 2118000   0.84206582    -4.195009    -4.195009   -2.9319115  0.023901659    -4.195009    1.2630975  1010000 
 2119000   0.84222921   -4.1954052   -4.1954052   -2.9320626  0.018002327   -4.1954052    1.2633426  1010000 
 2120000   0.84098379   -4.1931747   -4.1931747   -2.9317002  0.024190263   -4.1931747    1.2614744  1010000 
 2121000   0.84040347    -4.193616    -4.193616    -2.933012  0.024335829    -4.193616     1.260604  1010000 
 2122000   0.84036213   -4.1938338   -4.1938338   -2.9332919   0.02165251   -4.1938338    1.2605419  1010000 
 2123000   0.84116606   -4.1954486   -4.1954486   -2.9337008  0.021735801   -4.1954486    1.2617478  1010000 
 2124000   0.84082768   -4.1945279   -4.1945279   -2.9332877  0.021638878   -4.1945279    1.2612403  1010000 
 2125000   0.84191436   -4.1962708   -4.1962708   -2.9334005  0.019971189   -4.1962708    1.2628703  1010000 
 2126000   0.84151962   -4.1954594   -4.1954594   -2.9331812  0.025236873   -4.1954594    1.2622782  1010000 
 2127000   0.84049997   -4.1939859   -4.1939859   -2.9332372  0.026013007   -4.1939859    1.2607487  1010000 
 2128000   0.84193656   -4.1966949   -4.1966949   -2.9337913  0.020837948   -4.1966949    1.2629036  1010000 
 2129000    0.8418568   -4.1960103   -4.1960103   -2.9332263  0.024532554   -4.1960103    1.2627839  1010000 
 2130000   0.84184108   -4.1958189   -4.1958189   -2.9330585  0.025082102   -4.1958189    1.2627604  1010000 
 2131000   0.84247912   -4.1964696   -4.1964696   -2.9327521   0.02380192   -4.1964696    1.2637174  1010000 
 2132000   0.84129722   -4.1949583   -4.1949583   -2.9330137  0.028338395   -4.1949583    1.2619446  1010000 
 2133000   0.84200922    -4.195533    -4.195533   -2.9325205  0.025291591    -4.195533    1.2630126  1010000 
 2134000   0.84212203   -4.1955146   -4.1955146   -2.9323328  0.029242131   -4.1955146    1.2631818  1010000 
 2135000   0.84255842   -4.1964121   -4.1964121   -2.9325757   0.02678054   -4.1964121    1.2638364  1010000 
 2136000   0.84268626   -4.1964659   -4.1964659   -2.9324378  0.026147929   -4.1964659    1.2640281  1010000 
 2137000   0.84279905    -4.196539    -4.196539   -2.9323416  0.027044254    -4.196539    1.2641973  1010000 
 2138000   0.84374506    -4.198077    -4.198077   -2.9324607  0.023634703    -4.198077    1.2656163  1010000 
 2139000   0.84310303   -4.1966339   -4.1966339   -2.9319806  0.026331643   -4.1966339    1.2646533  1010000 
 2140000   0.84308374    -4.196407    -4.196407   -2.9317826  0.030576819    -4.196407    1.2646244  1010000 
 2141000   0.84305803   -4.1976096   -4.1976096   -2.9330239   0.02821278   -4.1976096    1.2645858  1010000 
 2142000   0.84343058   -4.1984287   -4.1984287   -2.9332841  0.028810217   -4.1984287    1.2651446  1010000 
 2143000   0.84269686   -4.1976267   -4.1976267   -2.9335827  0.024409407   -4.1976267     1.264044  1010000 
 2144000   0.84290179   -4.1976322   -4.1976322   -2.9332808  0.025348478   -4.1976322    1.2643514  1010000 
 2145000   0.84235219    -4.196744    -4.196744    -2.933217  0.023140295    -4.196744     1.263527  1010000 
 2146000   0.84224423   -4.1960842   -4.1960842   -2.9327191  0.024777587   -4.1960842    1.2633651  1010000 
 2147000   0.84163552   -4.1949136   -4.1949136   -2.9324616  0.024441191   -4.1949136     1.262452  1010000 
 2148000    0.8416102    -4.194863    -4.194863    -2.932449  0.020649938    -4.194863     1.262414  1010000 
 2149000   0.84170206   -4.1960098   -4.1960098    -2.933458  0.021524842   -4.1960098    1.2625518  1010000 
 2150000   0.84211875   -4.1965696   -4.1965696   -2.9333928  0.020263341   -4.1965696    1.2631769  1010000 
 2151000   0.84218401   -4.1966901   -4.1966901   -2.9334153  0.022778101   -4.1966901    1.2632748  1010000 
 2152000   0.84145301   -4.1951215   -4.1951215   -2.9329432  0.023267713   -4.1951215    1.2621783  1010000 
 2153000   0.84147397   -4.1954473   -4.1954473   -2.9332376  0.024820524   -4.1954473    1.2622097  1010000 
 2154000   0.84111369   -4.1952586   -4.1952586   -2.9335893  0.024859543   -4.1952586    1.2616693  1010000 
 2155000   0.84053482   -4.1943015   -4.1943015   -2.9335005  0.024350261   -4.1943015     1.260801  1010000 
 2156000   0.84120314   -4.1953396   -4.1953396   -2.9335362  0.024401389   -4.1953396    1.2618035  1010000 
 2157000   0.84063006   -4.1945902   -4.1945902   -2.9336464  0.021877295   -4.1945902    1.2609438  1010000 
 2158000   0.84082767   -4.1941079   -4.1941079   -2.9328676  0.027185461   -4.1941079    1.2612403  1010000 
 2159000   0.84129086   -4.1945246   -4.1945246   -2.9325896  0.020807461   -4.1945246     1.261935  1010000 
 2160000   0.84139795   -4.1939867   -4.1939867   -2.9318911  0.017886251   -4.1939867    1.2620957  1010000 
 2161000   0.84167649   -4.1945249   -4.1945249   -2.9320114  0.020606869   -4.1945249    1.2625135  1010000 
 2162000     0.841237   -4.1934015   -4.1934015   -2.9315472  0.021900131   -4.1934015    1.2618543  1010000 
 2163000   0.84195839   -4.1947543   -4.1947543    -2.931818  0.021388118   -4.1947543    1.2629363  1010000 
 2164000   0.84119276   -4.1932713   -4.1932713   -2.9314834  0.024168354   -4.1932713    1.2617879  1010000 
 2165000   0.84179085   -4.1941323   -4.1941323   -2.9314473  0.024013922   -4.1941323     1.262685  1010000 
 2166000   0.84204042   -4.1941304   -4.1941304   -2.9310711  0.024387003   -4.1941304    1.2630594  1010000 
 2167000    0.8414144   -4.1935003   -4.1935003     -2.93138  0.023641565   -4.1935003    1.2621203  1010000 
 2168000   0.84127909   -4.1933794   -4.1933794    -2.931462  0.022725922   -4.1933794    1.2619174  1010000 
 2169000   0.84131401   -4.1932066   -4.1932066   -2.9312368  0.022395467   -4.1932066    1.2619698  1010000 
 2170000   0.84145948   -4.1936845   -4.1936845   -2.9314966  0.019614895   -4.1936845     1.262188  1010000 
 2171000   0.84175063   -4.1935628   -4.1935628   -2.9309381  0.021442505   -4.1935628    1.2626247  1010000 
 2172000   0.84232536   -4.1941332   -4.1941332   -2.9306464  0.023525013   -4.1941332    1.2634868  1010000 
 2173000   0.84165706   -4.1933607   -4.1933607   -2.9308763  0.023696559   -4.1933607    1.2624843  1010000 
 2174000   0.84136938   -4.1925522   -4.1925522   -2.9304994  0.026687049   -4.1925522    1.2620528  1010000 
 2175000   0.84151124   -4.1928729   -4.1928729   -2.9306073  0.020631709   -4.1928729    1.2622656  1010000 
 2176000   0.84196766   -4.1934237   -4.1934237   -2.9304734  0.021384344   -4.1934237    1.2629502  1010000 
 2177000   0.84260487   -4.1941284   -4.1941284   -2.9302223  0.024539488   -4.1941284     1.263906  1010000 
 2178000   0.84247512   -4.1945527   -4.1945527   -2.9308413   0.02110424   -4.1945527    1.2637114  1010000 
 2179000   0.84165932     -4.19356     -4.19356   -2.9310723  0.023689065     -4.19356    1.2624877  1010000 
 2180000   0.84258764   -4.1950163   -4.1950163   -2.9311361  0.019190734   -4.1950163    1.2638802  1010000 
 2181000    0.8417154   -4.1939489   -4.1939489    -2.931377  0.023477401   -4.1939489    1.2625719  1010000 
 2182000    0.8420265   -4.1943307   -4.1943307   -2.9312922  0.020629152   -4.1943307    1.2630385  1010000 
 2183000   0.84155938   -4.1937445   -4.1937445   -2.9314067   0.01965455   -4.1937445    1.2623378  1010000 
 2184000   0.84097549   -4.1923447   -4.1923447   -2.9308827  0.023936135   -4.1923447     1.261462  1010000 
 2185000   0.84125028   -4.1928079   -4.1928079   -2.9309337  0.024322951   -4.1928079    1.2618742  1010000 
 2186000   0.84133187   -4.1925809   -4.1925809   -2.9305844  0.023872518   -4.1925809    1.2619966  1010000 
 2187000   0.84228775   -4.1944221   -4.1944221   -2.9309918  0.020626005   -4.1944221    1.2634304  1010000 
 2188000   0.84109942    -4.192997    -4.192997   -2.9313491   0.02400464    -4.192997    1.2616479  1010000 
 2189000   0.84205825    -4.194296    -4.194296   -2.9312098   0.02152254    -4.194296    1.2630861  1010000 
 2190000   0.84194879   -4.1943937   -4.1943937   -2.9314718  0.020802915   -4.1943937    1.2629219  1010000 
 2191000   0.84140266   -4.1938154   -4.1938154   -2.9317126  0.022619265   -4.1938154    1.2621027  1010000 
 2192000    0.8413074   -4.1935392   -4.1935392   -2.9315794  0.024957823   -4.1935392    1.2619598  1010000 
 2193000    0.8411941   -4.1930708   -4.1930708   -2.9312809  0.024746704   -4.1930708    1.2617899  1010000 
 2194000   0.84208571   -4.1937496   -4.1937496   -2.9306223  0.021703774   -4.1937496    1.2631273  1010000 
 2195000   0.84173958   -4.1935572   -4.1935572   -2.9309491   0.02385559   -4.1935572    1.2626081  1010000 
 2196000   0.84197984    -4.194757    -4.194757   -2.9317885   0.02210076    -4.194757    1.2629685  1010000 
 2197000   0.84181263   -4.1944304   -4.1944304   -2.9317127   0.02224914   -4.1944304    1.2627177  1010000 
 2198000    0.8423256   -4.1947239   -4.1947239   -2.9312368  0.021231731   -4.1947239    1.2634872  1010000 
 2199000   0.84186817   -4.1937672   -4.1937672   -2.9309662  0.021575197   -4.1937672     1.262801  1010000 
 2200000   0.84057952   -4.1920841   -4.1920841   -2.9312161  0.029349824   -4.1920841     1.260868  1010000 
 2201000   0.84191566   -4.1939235   -4.1939235   -2.9310513  0.021273963   -4.1939235    1.2628722  1010000 
 2202000   0.84183708   -4.1939026   -4.1939026   -2.9311482  0.021397657   -4.1939026    1.2627544  1010000 
 2203000   0.84192047   -4.1939456   -4.1939456   -2.9310662  0.023812312   -4.1939456    1.2628795  1010000 
 2204000   0.84255962   -4.1944908   -4.1944908   -2.9306527  0.026704798   -4.1944908    1.2638382  1010000 
 2205000    0.8423405   -4.1940343   -4.1940343   -2.9305248  0.025835694   -4.1940343    1.2635095  1010000 
 2206000   0.84211283   -4.1933605   -4.1933605   -2.9301925  0.023291982   -4.1933605     1.263168  1010000 
 2207000   0.84202791   -4.1933083   -4.1933083   -2.9302677   0.02622054   -4.1933083    1.2630406  1010000 
 2208000    0.8418626    -4.193202    -4.193202   -2.9304093  0.027381699    -4.193202    1.2627926  1010000 
 2209000   0.84268971   -4.1949296   -4.1949296   -2.9308963   0.02242509   -4.1949296    1.2640333  1010000 
 2210000   0.84231489   -4.1947309   -4.1947309   -2.9312599  0.022284024   -4.1947309    1.2634711  1010000 
 2211000   0.84181792   -4.1938215   -4.1938215   -2.9310959  0.024506724   -4.1938215    1.2627256  1010000 
 2212000    0.8423422   -4.1945669   -4.1945669   -2.9310549  0.024033753   -4.1945669     1.263512  1010000 
 2213000    0.8424931   -4.1949622   -4.1949622   -2.9312238  0.021702645   -4.1949622    1.2637384  1010000 
 2214000   0.84217371   -4.1945398   -4.1945398   -2.9312805  0.022935537   -4.1945398    1.2632593  1010000 
 2215000   0.84148718    -4.193873    -4.193873   -2.9316435  0.021748932    -4.193873    1.2622295  1010000 
 2216000   0.84199372   -4.1947001   -4.1947001   -2.9317108  0.022310256   -4.1947001    1.2629893  1010000 
 2217000   0.84225877   -4.1951033   -4.1951033   -2.9317164  0.024651684   -4.1951033    1.2633869  1010000 
 2218000   0.84210105   -4.1948935   -4.1948935   -2.9317431  0.022797159   -4.1948935    1.2631503  1010000 
 2219000   0.84221562   -4.1949651   -4.1949651   -2.9316429   0.02203947   -4.1949651    1.2633222  1010000 
 2220000   0.84119988   -4.1937288   -4.1937288   -2.9319303  0.022998466   -4.1937288    1.2617986  1010000 
 2221000   0.84135857   -4.1939789   -4.1939789   -2.9319423  0.021705971   -4.1939789    1.2620366  1010000 
 2222000   0.84096824   -4.1938103   -4.1938103   -2.9323592  0.020957106   -4.1938103    1.2614511  1010000 
 2223000   0.84152028    -4.194215    -4.194215   -2.9319358  0.020260166    -4.194215    1.2622792  1010000 
 2224000   0.84157978    -4.194008    -4.194008   -2.9316396  0.024494557    -4.194008    1.2623684  1010000 
 2225000   0.84108839   -4.1929071   -4.1929071   -2.9312757  0.025674303   -4.1929071    1.2616313  1010000 
 2226000   0.84224448   -4.1947725   -4.1947725    -2.931407  0.022112938   -4.1947725    1.2633655  1010000 
 2227000   0.84141658   -4.1937541   -4.1937541   -2.9316304  0.020552908   -4.1937541    1.2621236  1010000 
 2228000   0.84242192   -4.1952344   -4.1952344   -2.9316028  0.020610802   -4.1952344    1.2636316  1010000 
 2229000   0.84281933   -4.1956667   -4.1956667    -2.931439  0.019326851   -4.1956667    1.2642277  1010000 
 2230000   0.84182244   -4.1939317   -4.1939317   -2.9311993  0.023083198   -4.1939317    1.2627324  1010000 
 2231000    0.8428092   -4.1953822   -4.1953822   -2.9311696  0.021158938   -4.1953822    1.2642125  1010000 
 2232000   0.84208719   -4.1945454   -4.1945454   -2.9314159  0.023091838   -4.1945454    1.2631295  1010000 
 2233000   0.84207755   -4.1945171   -4.1945171   -2.9314021  0.023233633   -4.1945171    1.2631151  1010000 
 2234000   0.84161829     -4.19381     -4.19381   -2.9313838  0.023527859     -4.19381    1.2624262  1010000 
 2235000   0.84152408   -4.1940305   -4.1940305   -2.9317456  0.025218836   -4.1940305    1.2622849  1010000 
 2236000   0.84183474   -4.1943704   -4.1943704   -2.9316195  0.023982658   -4.1943704    1.2627509  1010000 
 2237000   0.84207576   -4.1947267   -4.1947267   -2.9316143  0.025148304   -4.1947267    1.2631124  1010000 
 2238000   0.84154281   -4.1937407   -4.1937407   -2.9314277  0.024560174   -4.1937407     1.262313  1010000 
 2239000   0.84118684   -4.1937511   -4.1937511   -2.9319721   0.02193736   -4.1937511     1.261779  1010000 
 2240000   0.84095086   -4.1934921   -4.1934921    -2.932067   0.02362277   -4.1934921     1.261425  1010000 
 2241000   0.84179821   -4.1948572   -4.1948572   -2.9321612  0.018811835   -4.1948572    1.2626961  1010000 
 2242000    0.8410884   -4.1941119   -4.1941119   -2.9324805  0.023107345   -4.1941119    1.2616314  1010000 
 2243000   0.84148643   -4.1949811   -4.1949811   -2.9327527  0.019193801   -4.1949811    1.2622284  1010000 
 2244000   0.84198059   -4.1948065   -4.1948065   -2.9318369  0.020602766   -4.1948065    1.2629696  1010000 
 2245000   0.84120806   -4.1941427   -4.1941427   -2.9323318  0.020142209   -4.1941427    1.2618108  1010000 
 2246000   0.84088009   -4.1935445   -4.1935445   -2.9322256  0.024058554   -4.1935445    1.2613189  1010000 
 2247000   0.84135043   -4.1943493   -4.1943493   -2.9323249  0.020237886   -4.1943493    1.2620244  1010000 
 2248000   0.84107509   -4.1934456   -4.1934456   -2.9318342  0.020012149   -4.1934456    1.2616114  1010000 
 2249000   0.84188211   -4.1946027   -4.1946027   -2.9317807  0.020401655   -4.1946027    1.2628219  1010000 
 2250000   0.84222248   -4.1949793   -4.1949793   -2.9316469  0.019501917   -4.1949793    1.2633325  1010000 
 2251000   0.84218634   -4.1942392   -4.1942392   -2.9309609  0.021615331   -4.1942392    1.2632783  1010000 
 2252000   0.84265182   -4.1944453   -4.1944453   -2.9304688  0.023186163   -4.1944453    1.2639765  1010000 
 2253000   0.84275627   -4.1941844   -4.1941844   -2.9300512  0.024625766   -4.1941844    1.2641331  1010000 
 2254000   0.84294185   -4.1953264   -4.1953264   -2.9309149  0.023967508   -4.1953264    1.2644115  1010000 
 2255000   0.84236721   -4.1943501   -4.1943501   -2.9308005  0.025198344   -4.1943501    1.2635496  1010000 
 2256000   0.84330276   -4.1956799   -4.1956799    -2.930727  0.022601624   -4.1956799    1.2649529  1010000 
 2257000   0.84264555   -4.1947206   -4.1947206   -2.9307535  0.024956065   -4.1947206    1.2639671  1010000 
 2258000   0.84213102   -4.1936609   -4.1936609   -2.9304656  0.026249105   -4.1936609    1.2631953  1010000 
 2259000   0.84266509   -4.1943374   -4.1943374    -2.930341  0.025405472   -4.1943374    1.2639964  1010000 
 2260000   0.84278657   -4.1940462   -4.1940462   -2.9298676  0.025370888   -4.1940462    1.2641786  1010000 
 2261000   0.84321349   -4.1945879   -4.1945879   -2.9297689  0.021658466   -4.1945879     1.264819  1010000 
 2262000    0.8432645   -4.1944687   -4.1944687   -2.9295732  0.020689143   -4.1944687    1.2648955  1010000 
 2263000   0.84278444   -4.1934173   -4.1934173   -2.9292419  0.023091813   -4.1934173    1.2641754  1010000 
 2264000   0.84240237    -4.192728    -4.192728   -2.9291257  0.024478123    -4.192728    1.2636023  1010000 
 2265000   0.84254671   -4.1927445   -4.1927445   -2.9289257  0.023434234   -4.1927445    1.2638188  1010000 
 2266000   0.84260945    -4.192888    -4.192888   -2.9289751  0.020729014    -4.192888    1.2639129  1010000 
 2267000   0.84235415   -4.1925488   -4.1925488   -2.9290188  0.024051065   -4.1925488      1.26353  1010000 
 2268000   0.84178563   -4.1917656   -4.1917656   -2.9290884  0.025978724   -4.1917656    1.2626772  1010000 
 2269000   0.84233206   -4.1924527   -4.1924527   -2.9289559  0.025627596   -4.1924527    1.2634968  1010000 
 2270000   0.84196708   -4.1921509   -4.1921509   -2.9292015  0.021443272   -4.1921509    1.2629494  1010000 
 2271000   0.84239559   -4.1922871   -4.1922871    -2.928695  0.022334032   -4.1922871    1.2635921  1010000 
 2272000   0.84238797    -4.192088    -4.192088   -2.9285073  0.022638277    -4.192088    1.2635807  1010000 
 2273000   0.84257351   -4.1922479   -4.1922479   -2.9283889  0.019656838   -4.1922479     1.263859  1010000 
 2274000   0.84248876   -4.1913872   -4.1913872   -2.9276553  0.027188747   -4.1913872    1.2637319  1010000 
 2275000   0.84334494    -4.192418    -4.192418   -2.9274019  0.022382863    -4.192418    1.2650162  1010000 
 2276000   0.84215293   -4.1910955   -4.1910955   -2.9278673  0.025465095   -4.1910955    1.2632281  1010000 
 2277000   0.84273898   -4.1919867   -4.1919867   -2.9278795  0.025553437   -4.1919867    1.2641072  1010000 
 2278000   0.84200552   -4.1909134   -4.1909134   -2.9279064  0.023034898   -4.1909134     1.263007  1010000 
 2279000   0.84250398   -4.1913586   -4.1913586   -2.9276038  0.021828682   -4.1913586    1.2637547  1010000 
 2280000   0.84223037   -4.1905183   -4.1905183    -2.927174   0.02417774   -4.1905183    1.2633443  1010000 
 2281000   0.84174048   -4.1897667   -4.1897667   -2.9271573   0.02113459   -4.1897667    1.2626095  1010000 
 2282000   0.84229755   -4.1902399   -4.1902399   -2.9267948  0.020911606   -4.1902399    1.2634451  1010000 
 2283000    0.8408926   -4.1887955   -4.1887955   -2.9274578  0.019718304   -4.1887955    1.2613377  1010000 
 2284000    0.8412027   -4.1893243   -4.1893243   -2.9275215  0.017825398   -4.1893243    1.2618028  1010000 
 2285000   0.84149757   -4.1898627   -4.1898627   -2.9276175  0.019203318   -4.1898627    1.2622451  1010000 
 2286000   0.84119755   -4.1889655   -4.1889655   -2.9271704  0.018071244   -4.1889655    1.2617951  1010000 
 2287000   0.84188643   -4.1902797   -4.1902797   -2.9274513  0.018966755   -4.1902797    1.2628284  1010000 
 2288000   0.84186155   -4.1901416   -4.1901416   -2.9273506   0.01449953   -4.1901416    1.2627911  1010000 
 2289000   0.84201121   -4.1906403   -4.1906403   -2.9276247  0.016609436   -4.1906403    1.2630156  1010000 
 2290000   0.84180609   -4.1901184   -4.1901184   -2.9274106  0.016719914   -4.1901184    1.2627079  1010000 
 2291000    0.8414755   -4.1894485   -4.1894485   -2.9272365  0.017607886   -4.1894485     1.262212  1010000 
 2292000    0.8418976   -4.1900798   -4.1900798   -2.9272347  0.019417043   -4.1900798    1.2628452  1010000 
 2293000   0.84104548   -4.1889442   -4.1889442   -2.9273773  0.020276143   -4.1889442     1.261567  1010000 
 2294000   0.84112146   -4.1892749   -4.1892749   -2.9275939  0.018436981   -4.1892749    1.2616809  1010000 
 2295000    0.8420119   -4.1909112   -4.1909112   -2.9278946  0.013489432   -4.1909112    1.2630166  1010000 
 2296000   0.84072932   -4.1891276   -4.1891276   -2.9280349  0.021344053   -4.1891276    1.2610927  1010000 
 2297000   0.84141531    -4.189515    -4.189515   -2.9273933  0.019593763    -4.189515    1.2621217  1010000 
 2298000   0.84136356   -4.1892556   -4.1892556   -2.9272115  0.019442636   -4.1892556    1.2620441  1010000 
 2299000   0.84189592   -4.1896193   -4.1896193   -2.9267767   0.01904935   -4.1896193    1.2628426  1010000 
 2300000   0.84105871   -4.1882232   -4.1882232   -2.9266364  0.023370214   -4.1882232    1.2615868  1010000 
 2301000   0.84149923   -4.1897965   -4.1897965   -2.9275489  0.018919361   -4.1897965    1.2622476  1010000 
 2302000    0.8414035   -4.1891336   -4.1891336   -2.9270296  0.024272145   -4.1891336     1.262104  1010000 
 2303000   0.84263909   -4.1907835   -4.1907835   -2.9268262  0.019913345   -4.1907835    1.2639574  1010000 
 2304000   0.84296389   -4.1915892   -4.1915892   -2.9271446  0.020744896   -4.1915892    1.2644446  1010000 
 2305000   0.84169503   -4.1903523   -4.1903523    -2.927811  0.022281568   -4.1903523    1.2625413  1010000 
 2306000   0.84194587   -4.1903105   -4.1903105    -2.927393  0.022446506   -4.1903105    1.2629176  1010000 
 2307000    0.8424496   -4.1912305   -4.1912305   -2.9275573    0.0216499   -4.1912305    1.2636732  1010000 
 2308000   0.84217153     -4.19053     -4.19053    -2.927274  0.022114962     -4.19053     1.263256  1010000 
 2309000   0.84264941   -4.1909401   -4.1909401   -2.9269672  0.023900086   -4.1909401    1.2639729  1010000 
 2310000   0.84346402    -4.192314    -4.192314   -2.9271192  0.024456335    -4.192314    1.2651948  1010000 
 2311000   0.84263951   -4.1909158   -4.1909158   -2.9269578  0.027017033   -4.1909158     1.263958  1010000 
 2312000   0.84393609   -4.1928735   -4.1928735   -2.9269706  0.019986346   -4.1928735    1.2659029  1010000 
 2313000   0.84203014   -4.1901777   -4.1901777   -2.9271337   0.02853859   -4.1901777     1.263044  1010000 
 2314000   0.84296662   -4.1921029   -4.1921029   -2.9276542  0.022697153   -4.1921029    1.2644487  1010000 
 2315000   0.84338321   -4.1926022   -4.1926022   -2.9275287  0.023304289   -4.1926022    1.2650736  1010000 
 2316000   0.84275623   -4.1917968   -4.1917968   -2.9276637  0.024776343   -4.1917968    1.2641331  1010000 
 2317000   0.84421696   -4.1934371   -4.1934371   -2.9271129  0.024279448   -4.1934371    1.2663242  1010000 
 2318000    0.8430699   -4.1916902   -4.1916902   -2.9270866  0.025639985   -4.1916902    1.2646036  1010000 
 2319000   0.84282962   -4.1913582   -4.1913582    -2.927115  0.026767834   -4.1913582    1.2642432  1010000 
 2320000    0.8423568   -4.1913717   -4.1913717   -2.9278378  0.027233118   -4.1913717    1.2635339  1010000 
 2321000   0.84275221   -4.1921478   -4.1921478   -2.9280208  0.025058707   -4.1921478    1.2641271  1010000 
 2322000   0.84325425   -4.1923995   -4.1923995   -2.9275193  0.022796823   -4.1923995    1.2648801  1010000 
 2323000   0.84280378   -4.1918682   -4.1918682   -2.9276638  0.025309367   -4.1918682    1.2642044  1010000 
 2324000   0.84316489   -4.1920343   -4.1920343   -2.9272882  0.024329047   -4.1920343    1.2647461  1010000 
 2325000   0.84308485   -4.1924726   -4.1924726   -2.9278466  0.024756643   -4.1924726     1.264626  1010000 
 2326000   0.84282099    -4.192014    -4.192014   -2.9277838  0.023014675    -4.192014    1.2642302  1010000 
 2327000    0.8427141   -4.1922444   -4.1922444   -2.9281745  0.026104495   -4.1922444    1.2640699  1010000 
 2328000   0.84305125   -4.1928842   -4.1928842   -2.9283086  0.023524965   -4.1928842    1.2645756  1010000 
 2329000   0.84177009   -4.1909298   -4.1909298   -2.9282759  0.029960482   -4.1909298    1.2626539  1010000 
 2330000   0.84271467   -4.1922576   -4.1922576   -2.9281869  0.023719956   -4.1922576    1.2640708  1010000 
 2331000   0.84295684   -4.1928204   -4.1928204   -2.9283864  0.023625479   -4.1928204     1.264434  1010000 
 2332000   0.84216402   -4.1916951   -4.1916951   -2.9284503    0.0248331   -4.1916951    1.2632448  1010000 
 2333000   0.84233008   -4.1920564   -4.1920564   -2.9285626  0.022217924   -4.1920564    1.2634939  1010000 
 2334000   0.84249697   -4.1922209   -4.1922209   -2.9284767  0.019388028   -4.1922209    1.2637442  1010000 
 2335000   0.84236379   -4.1916588   -4.1916588   -2.9281144  0.022493244   -4.1916588    1.2635444  1010000 
 2336000   0.84231361   -4.1917461   -4.1917461    -2.928277  0.022877178   -4.1917461    1.2634692  1010000 
 2337000   0.84246706     -4.19221     -4.19221   -2.9285107   0.02040966     -4.19221    1.2636993  1010000 
 2338000    0.8418316   -4.1914798   -4.1914798   -2.9287336  0.021507688   -4.1914798    1.2627462  1010000 
 2339000   0.84170062   -4.1912919   -4.1912919   -2.9287422  0.023245712   -4.1912919    1.2625497  1010000 
 2340000   0.84156371   -4.1908091   -4.1908091   -2.9284648  0.021475682   -4.1908091    1.2623443  1010000 
 2341000   0.84225021   -4.1920118   -4.1920118   -2.9286377  0.017690294   -4.1920118    1.2633741  1010000 
 2342000   0.84094057   -4.1900474   -4.1900474   -2.9286378  0.024824162   -4.1900474    1.2614096  1010000 
 2343000   0.84168335     -4.19115     -4.19115   -2.9286262  0.020282744     -4.19115    1.2625238  1010000 
 2344000   0.84247941    -4.191824    -4.191824   -2.9281062  0.021697441    -4.191824    1.2637179  1010000 
 2345000   0.84189207   -4.1911104   -4.1911104   -2.9282736  0.018486745   -4.1911104    1.2628369  1010000 
 2346000   0.84282997   -4.1929138   -4.1929138   -2.9286701  0.016870567   -4.1929138    1.2642437  1010000 
 2347000   0.84190766   -4.1911177   -4.1911177   -2.9282574  0.019257576   -4.1911177    1.2628602  1010000 
 2348000   0.84190464   -4.1912626   -4.1912626   -2.9284069  0.021762847   -4.1912626    1.2628557  1010000 
 2349000   0.84214181   -4.1918023   -4.1918023   -2.9285908  0.018105929   -4.1918023    1.2632115  1010000 
 2350000   0.84232848   -4.1914946   -4.1914946   -2.9280032  0.019760117   -4.1914946    1.2634915  1010000 
 2351000   0.84155871   -4.1906711   -4.1906711   -2.9283343  0.018894108   -4.1906711    1.2623368  1010000 
 2352000   0.84162866   -4.1902856   -4.1902856   -2.9278439  0.024060306   -4.1902856    1.2624417  1010000 
 2353000   0.84241354   -4.1909993   -4.1909993   -2.9273802  0.022763804   -4.1909993    1.2636191  1010000 
 2354000   0.84268927   -4.1906472   -4.1906472   -2.9266145  0.025288221   -4.1906472    1.2640326  1010000 
 2355000   0.84326939   -4.1911628   -4.1911628     -2.92626  0.022618535   -4.1911628    1.2649028  1010000 
 2356000   0.84283133   -4.1909413   -4.1909413   -2.9266955  0.021570763   -4.1909413    1.2642457  1010000 
 2357000   0.84266066   -4.1910133   -4.1910133   -2.9270235  0.023122289   -4.1910133    1.2639897  1010000 
 2358000   0.84272494   -4.1911396   -4.1911396   -2.9270534  0.022949578   -4.1911396    1.2640862  1010000 
 2359000   0.84188299   -4.1901264   -4.1901264   -2.9273031  0.025182991   -4.1901264    1.2628232  1010000 
 2360000    0.8431837   -4.1914373   -4.1914373    -2.926663  0.021204435   -4.1914373    1.2647743  1010000 
 2361000   0.84276181   -4.1903099   -4.1903099   -2.9261685  0.023217076   -4.1903099    1.2641415  1010000 
 2362000   0.84262686   -4.1895079   -4.1895079   -2.9255689  0.026727564   -4.1895079     1.263939  1010000 
 2363000   0.84251752   -4.1900636   -4.1900636   -2.9262885  0.023009298   -4.1900636     1.263775  1010000 
 2364000   0.84377361   -4.1918744   -4.1918744   -2.9262153  0.024077994   -4.1918744    1.2656592  1010000 
 2365000   0.84295535   -4.1906858   -4.1906858   -2.9262541  0.022553822   -4.1906858    1.2644318  1010000 
 2366000   0.84327228   -4.1916018   -4.1916018   -2.9266946  0.021072886   -4.1916018    1.2649072  1010000 
 2367000    0.8433402   -4.1914922   -4.1914922   -2.9264832  0.025490237   -4.1914922     1.265009  1010000 
 2368000   0.84323401   -4.1911981   -4.1911981   -2.9263484  0.022935752   -4.1911981    1.2648498  1010000 
 2369000   0.84235942   -4.1896622   -4.1896622   -2.9261243  0.021489125   -4.1896622    1.2635379  1010000 
 2370000   0.84256102    -4.190226    -4.190226   -2.9263857  0.022253337    -4.190226    1.2638403  1010000 
 2371000   0.84267084   -4.1905815   -4.1905815   -2.9265765  0.022688289   -4.1905815     1.264005  1010000 
 2372000   0.84385385   -4.1917159   -4.1917159   -2.9259364  0.020613472   -4.1917159    1.2657795  1010000 
 2373000   0.84297931    -4.190606    -4.190606   -2.9261383  0.022688635    -4.190606    1.2644677  1010000 
 2374000    0.8415866   -4.1889633   -4.1889633   -2.9265847   0.02592776   -4.1889633    1.2623786  1010000 
 2375000   0.84176003   -4.1894576   -4.1894576   -2.9268188  0.021635395   -4.1894576    1.2626388  1010000 
 2376000   0.84212006   -4.1896488   -4.1896488   -2.9264699  0.020328814   -4.1896488    1.2631788  1010000 
 2377000   0.84200624   -4.1891792   -4.1891792    -2.926171  0.024223612   -4.1891792    1.2630081  1010000 
 2378000   0.84198363   -4.1890684   -4.1890684   -2.9260942  0.022636268   -4.1890684    1.2629742  1010000 
 2379000    0.8424075    -4.189626    -4.189626    -2.926016  0.023460884    -4.189626      1.26361  1010000 
 2380000   0.84304734   -4.1904026   -4.1904026   -2.9258329  0.024302839   -4.1904026    1.2645698  1010000 
 2381000    0.8423579   -4.1895626   -4.1895626    -2.926027  0.024188902   -4.1895626    1.2635356  1010000 
 2382000   0.84287236   -4.1900367   -4.1900367   -2.9257294  0.023203756   -4.1900367    1.2643073  1010000 
 2383000   0.84259917   -4.1899617   -4.1899617   -2.9260642  0.022566131   -4.1899617    1.2638975  1010000 
 2384000   0.84261472   -4.1899309   -4.1899309   -2.9260101  0.021447782   -4.1899309    1.2639208  1010000 
 2385000   0.84243168   -4.1897998   -4.1897998   -2.9261535  0.022422772   -4.1897998    1.2636463  1010000 
 2386000   0.84267759   -4.1899559   -4.1899559   -2.9259408  0.021380922   -4.1899559    1.2640151  1010000 
 2387000   0.84265797   -4.1903905   -4.1903905   -2.9264048  0.021193486   -4.1903905    1.2639857  1010000 
 2388000   0.84154322    -4.188184    -4.188184   -2.9258704  0.024775338    -4.188184    1.2623136  1010000 
 2389000   0.84268365   -4.1898822   -4.1898822   -2.9258579   0.02296179   -4.1898822    1.2640242  1010000 
 2390000     0.842947   -4.1899002   -4.1899002    -2.925481  0.022325617   -4.1899002    1.2644192  1010000 
 2391000   0.84243885   -4.1894722   -4.1894722   -2.9258151  0.021540352   -4.1894722     1.263657  1010000 
 2392000   0.84319252   -4.1905389   -4.1905389   -2.9257514  0.023500532   -4.1905389    1.2647875  1010000 
 2393000   0.84323678   -4.1899907   -4.1899907   -2.9251368  0.023593185   -4.1899907    1.2648539  1010000 
 2394000   0.84277785   -4.1900217   -4.1900217   -2.9258562  0.024787787   -4.1900217    1.2641655  1010000 
 2395000   0.84334245   -4.1903862   -4.1903862   -2.9253737  0.021441668   -4.1903862    1.2650124  1010000 
 2396000   0.84201811   -4.1889898   -4.1889898   -2.9259639  0.024382279   -4.1889898    1.2630259  1010000 
 2397000    0.8416272   -4.1887238   -4.1887238   -2.9262842  0.022493734   -4.1887238    1.2624396  1010000 
 2398000   0.84244625   -4.1899406   -4.1899406   -2.9262725  0.018602683   -4.1899406    1.2636681  1010000 
 2399000    0.8420256   -4.1891071   -4.1891071   -2.9260699  0.023672228   -4.1891071    1.2630371  1010000 
 2400000   0.84231438   -4.1897392   -4.1897392   -2.9262688  0.021509108   -4.1897392    1.2634703  1010000 
 2401000    0.8424676   -4.1893232   -4.1893232   -2.9256231   0.02389044   -4.1893232    1.2637001  1010000 
 2402000   0.84282532   -4.1894289   -4.1894289   -2.9251922  0.021246864   -4.1894289    1.2642367  1010000 
 2403000   0.84290216   -4.1897198   -4.1897198   -2.9253678  0.020577283   -4.1897198     1.264352  1010000 
 2404000   0.84313043   -4.1894685   -4.1894685   -2.9247742  0.020801998   -4.1894685    1.2646944  1010000 
 2405000   0.84268802   -4.1890275   -4.1890275   -2.9249967  0.021646593   -4.1890275    1.2640308  1010000 
 2406000   0.84289431   -4.1892762   -4.1892762    -2.924936   0.02220105   -4.1892762    1.2643402  1010000 
 2407000   0.84197107   -4.1879754   -4.1879754     -2.92502  0.022490967   -4.1879754    1.2629554  1010000 
 2408000   0.84305313   -4.1896425   -4.1896425    -2.925064  0.022771112   -4.1896425    1.2645784  1010000 
 2409000   0.84353666   -4.1901635   -4.1901635   -2.9248597  0.023085475   -4.1901635    1.2653037  1010000 
 2410000    0.8426569   -4.1889582   -4.1889582   -2.9249741  0.024546467   -4.1889582    1.2639841  1010000 
 2411000   0.84302739   -4.1898776   -4.1898776   -2.9253378  0.024041576   -4.1898776    1.2645398  1010000 
 2412000   0.84294811   -4.1898342   -4.1898342   -2.9254133  0.022532451   -4.1898342    1.2644209  1010000 
 2413000    0.8429205   -4.1895551   -4.1895551   -2.9251756  0.020493569   -4.1895551    1.2643795  1010000 
 2414000   0.84286352   -4.1893603   -4.1893603   -2.9250663  0.025279438   -4.1893603     1.264294  1010000 
 2415000   0.84359546   -4.1902428   -4.1902428   -2.9248509  0.022097197   -4.1902428    1.2653919  1010000 
 2416000   0.84317961   -4.1893849   -4.1893849   -2.9246168   0.02128343   -4.1893849    1.2647682  1010000 
 2417000   0.84197063   -4.1879819   -4.1879819   -2.9250272  0.023760287   -4.1879819    1.2629547  1010000 
 2418000    0.8420371   -4.1883999   -4.1883999   -2.9253455  0.022859819   -4.1883999    1.2630544  1010000 
 2419000   0.84191588   -4.1884659   -4.1884659   -2.9255933  0.024319741   -4.1884659    1.2628726  1010000 
 2420000   0.84309265   -4.1903797   -4.1903797    -2.925742   0.01977996   -4.1903797    1.2646377  1010000 
 2421000    0.8428571   -4.1906145   -4.1906145   -2.9263301  0.015002087   -4.1906145    1.2642844  1010000 
 2422000   0.84240382   -4.1890767   -4.1890767   -2.9254722  0.023371577   -4.1890767    1.2636045  1010000 
 2423000    0.8419644   -4.1880467   -4.1880467   -2.9251014  0.023682251   -4.1880467    1.2629454  1010000 
 2424000   0.84231309   -4.1886381   -4.1886381   -2.9251698  0.022636886   -4.1886381    1.2634684  1010000 
 2425000   0.84221216   -4.1888443   -4.1888443   -2.9255273  0.020524478   -4.1888443     1.263317  1010000 
 2426000   0.84186912   -4.1883995   -4.1883995    -2.925597  0.021549813   -4.1883995    1.2628024  1010000 
 2427000    0.8426083   -4.1898496   -4.1898496   -2.9259384  0.020332718   -4.1898496    1.2639112  1010000 
 2428000   0.84161453   -4.1885506   -4.1885506   -2.9261301  0.021880285   -4.1885506    1.2624205  1010000 
 2429000   0.84285923   -4.1897598   -4.1897598   -2.9254722   0.02144906   -4.1897598    1.2642876  1010000 
 2430000   0.84253629   -4.1889637   -4.1889637   -2.9251605  0.022541007   -4.1889637    1.2638032  1010000 
 2431000   0.84329184   -4.1900884   -4.1900884   -2.9251519  0.019685622   -4.1900884    1.2649365  1010000 
 2432000   0.84366983   -4.1904785   -4.1904785    -2.924975    0.0213913   -4.1904785    1.2655035  1010000 
 2433000    0.8435628   -4.1901725   -4.1901725   -2.9248296  0.022682611   -4.1901725    1.2653429  1010000 
 2434000   0.84355088   -4.1902337   -4.1902337   -2.9249086  0.025494157   -4.1902337    1.2653251  1010000 
 2435000   0.84373734   -4.1900604   -4.1900604   -2.9244556    0.0250325   -4.1900604    1.2656048  1010000 
 2436000   0.84307203   -4.1887766   -4.1887766   -2.9241698  0.025737921   -4.1887766    1.2646068  1010000 
 2437000   0.84267977   -4.1885129   -4.1885129   -2.9244945  0.025310362   -4.1885129    1.2640184  1010000 
 2438000   0.84308881   -4.1879512   -4.1879512   -2.9233193   0.02412272   -4.1879512     1.264632  1010000 
 2439000   0.84369382   -4.1885263   -4.1885263   -2.9229868  0.024463846   -4.1885263    1.2655395  1010000 
 2440000   0.84399429   -4.1891393   -4.1891393   -2.9231492  0.023213211   -4.1891393    1.2659902  1010000 
 2441000   0.84344082   -4.1887508   -4.1887508   -2.9235908  0.024250894   -4.1887508      1.26516  1010000 
 2442000   0.84278258   -4.1881129   -4.1881129   -2.9239402  0.027430868   -4.1881129    1.2641726  1010000 
 2443000   0.84314421   -4.1887466   -4.1887466   -2.9240315  0.024297258   -4.1887466    1.2647151  1010000 
 2444000   0.84354341   -4.1891926   -4.1891926   -2.9238787  0.023755714   -4.1891926    1.2653139  1010000 
 2445000    0.8433121   -4.1885256   -4.1885256   -2.9235587  0.021097905   -4.1885256    1.2649669  1010000 
 2446000   0.84385451    -4.188995    -4.188995   -2.9232145  0.021496503    -4.188995    1.2657805  1010000 
 2447000   0.84410536   -4.1891304   -4.1891304   -2.9229736  0.023479382   -4.1891304    1.2661568  1010000 
 2448000   0.84363898   -4.1886832   -4.1886832    -2.923226  0.021942693   -4.1886832    1.2654572  1010000 
 2449000   0.84436346   -4.1895437   -4.1895437   -2.9229997  0.021361091   -4.1895437    1.2665439  1010000 
 2450000   0.84269686   -4.1874122   -4.1874122   -2.9233682  0.025019762   -4.1874122     1.264044  1010000 
 2451000   0.84339055   -4.1884203   -4.1884203   -2.9233358  0.022495362   -4.1884203    1.2650846  1010000 
 2452000   0.84282282   -4.1879396   -4.1879396   -2.9237067  0.024329025   -4.1879396     1.264233  1010000 
 2453000   0.84428556   -4.1898511   -4.1898511    -2.923424  0.020985323   -4.1898511    1.2664271  1010000 
 2454000   0.84330233   -4.1881037   -4.1881037   -2.9231515  0.022416814   -4.1881037    1.2649522  1010000 
 2455000   0.84321147   -4.1876443   -4.1876443   -2.9228283  0.025453787   -4.1876443     1.264816  1010000 
 2456000   0.84283232   -4.1875242   -4.1875242    -2.923277  0.024561093   -4.1875242    1.2642472  1010000 
 2457000   0.84354401   -4.1885694   -4.1885694   -2.9232546  0.024185239   -4.1885694    1.2653148  1010000 
 2458000   0.84259636   -4.1868981   -4.1868981   -2.9230048  0.027072178   -4.1868981    1.2638933  1010000 
 2459000    0.8434568   -4.1878281   -4.1878281   -2.9226442   0.02080426   -4.1878281    1.2651839  1010000 
 2460000    0.8420451   -4.1863889   -4.1863889   -2.9233225  0.023256064   -4.1863889    1.2630664  1010000 
 2461000   0.84250884   -4.1873472   -4.1873472   -2.9235852  0.018971846   -4.1873472     1.263762  1010000 
 2462000    0.8422428   -4.1872343   -4.1872343   -2.9238714  0.017980806   -4.1872343    1.2633629  1010000 
 2463000   0.84189312   -4.1864663   -4.1864663   -2.9236279  0.021994688   -4.1864663    1.2628384  1010000 
 2464000   0.84186552   -4.1864467   -4.1864467   -2.9236496  0.020380154   -4.1864467     1.262797  1010000 
 2465000   0.84261683   -4.1876525   -4.1876525   -2.9237285   0.01983111   -4.1876525     1.263924  1010000 
 2466000   0.84170414   -4.1865115   -4.1865115   -2.9239565  0.020343982   -4.1865115     1.262555  1010000 
 2467000   0.84231876    -4.187843    -4.187843   -2.9243662  0.020803706    -4.187843    1.2634769  1010000 
 2468000   0.84102584   -4.1858557   -4.1858557   -2.9243182  0.022991735   -4.1858557    1.2615375  1010000 
 2469000   0.84254516   -4.1886778   -4.1886778   -2.9248613  0.017740426   -4.1886778    1.2638165  1010000 
 2470000   0.84215505   -4.1880101   -4.1880101   -2.9247787  0.019038738   -4.1880101    1.2632313  1010000 
 2471000   0.84177817    -4.187474    -4.187474    -2.924808  0.016606652    -4.187474     1.262666  1010000 
 2472000   0.84170717   -4.1874172   -4.1874172   -2.9248577  0.016244426   -4.1874172    1.2625595  1010000 
 2473000   0.84051377   -4.1856887   -4.1856887   -2.9249193   0.02244323   -4.1856887    1.2607694  1010000 
 2474000    0.8415096    -4.186666    -4.186666   -2.9244029  0.016142511    -4.186666    1.2622631  1010000 
 2475000   0.84149493    -4.186174    -4.186174   -2.9239328  0.020131753    -4.186174    1.2622411  1010000 
 2476000   0.84226334   -4.1876254   -4.1876254   -2.9242316  0.019376237   -4.1876254    1.2633938  1010000 
 2477000   0.84166729   -4.1868365   -4.1868365   -2.9243368  0.019059082   -4.1868365    1.2624997  1010000 
 2478000   0.84302851   -4.1886071   -4.1886071   -2.9240656  0.019382357   -4.1886071    1.2645415  1010000 
 2479000   0.84253338   -4.1876358   -4.1876358   -2.9238369  0.023753377   -4.1876358    1.2637988  1010000 
 2480000   0.84283942   -4.1884772   -4.1884772   -2.9242194  0.020759352   -4.1884772    1.2642579  1010000 
 2481000   0.84200181   -4.1862286   -4.1862286   -2.9232271  0.025196652   -4.1862286    1.2630015  1010000 
 2482000    0.8433812   -4.1883984   -4.1883984   -2.9233278  0.021513243   -4.1883984    1.2650705  1010000 
 2483000   0.84361623   -4.1892733   -4.1892733   -2.9238502  0.020419364   -4.1892733    1.2654231  1010000 
 2484000   0.84283934   -4.1877641   -4.1877641   -2.9235064  0.026271674   -4.1877641    1.2642578  1010000 
 2485000   0.84336455   -4.1891522   -4.1891522   -2.9241066  0.023819443   -4.1891522    1.2650456  1010000 
 2486000   0.84349285    -4.188687    -4.188687    -2.923449  0.024476534    -4.188687     1.265238  1010000 
 2487000   0.84326691   -4.1886543   -4.1886543   -2.9237552  0.024905191   -4.1886543    1.2648991  1010000 
 2488000    0.8444254   -4.1897995   -4.1897995   -2.9231627  0.022910875   -4.1897995    1.2666368  1010000 
 2489000   0.84481919   -4.1907518   -4.1907518   -2.9235243  0.022570487   -4.1907518    1.2672275  1010000 
 2490000   0.84402675   -4.1896195   -4.1896195   -2.9235807  0.024630691   -4.1896195    1.2660389  1010000 
 2491000    0.8436149   -4.1897619   -4.1897619   -2.9243408  0.025804203   -4.1897619    1.2654211  1010000 
 2492000   0.84451781   -4.1910133   -4.1910133   -2.9242379    0.0253094   -4.1910133    1.2667755  1010000 
 2493000   0.84408082   -4.1905248   -4.1905248   -2.9244049  0.027106157   -4.1905248      1.26612  1010000 
 2494000   0.84392385   -4.1896542   -4.1896542   -2.9237697  0.027181477   -4.1896542    1.2658845  1010000 
 2495000   0.84384772   -4.1896298   -4.1896298   -2.9238595  0.024676921   -4.1896298    1.2657703  1010000 
 2496000   0.84294855   -4.1881872   -4.1881872   -2.9237657  0.025943209   -4.1881872    1.2644216  1010000 
 2497000   0.84250296    -4.188035    -4.188035   -2.9242818  0.023095823    -4.188035    1.2637532  1010000 
 2498000   0.84237645   -4.1882101   -4.1882101   -2.9246466  0.024271066   -4.1882101    1.2635634  1010000 
 2499000   0.84254256    -4.188136    -4.188136   -2.9243234  0.024296359    -4.188136    1.2638126  1010000 
 2500000   0.84310931   -4.1892329   -4.1892329   -2.9245702  0.021604513   -4.1892329    1.2646627  1010000 
 2501000   0.84335094   -4.1892757   -4.1892757   -2.9242505  0.024369914   -4.1892757    1.2650252  1010000 
 2502000   0.84341019   -4.1896401   -4.1896401   -2.9245261  0.023705378   -4.1896401     1.265114  1010000 
 2503000   0.84329525   -4.1893451   -4.1893451   -2.9244035  0.022349112   -4.1893451    1.2649416  1010000 
 2504000   0.84377738   -4.1894684   -4.1894684   -2.9238035  0.024927427   -4.1894684    1.2656648  1010000 
 2505000   0.84321944   -4.1890048   -4.1890048   -2.9241769  0.022378951   -4.1890048    1.2648279  1010000 
 2506000   0.84297242    -4.189388    -4.189388   -2.9249307  0.022037459    -4.189388    1.2644574  1010000 
 2507000   0.84231604   -4.1882951   -4.1882951   -2.9248223  0.025545072   -4.1882951    1.2634728  1010000 
 2508000   0.84347306   -4.1896093   -4.1896093   -2.9244009  0.018931374   -4.1896093    1.2652083  1010000 
 2509000   0.84316114   -4.1887521   -4.1887521   -2.9240116   0.02155501   -4.1887521    1.2647405  1010000 
 2510000   0.84315466   -4.1884904   -4.1884904   -2.9237597  0.021976408   -4.1884904    1.2647307  1010000 
 2511000   0.84310018   -4.1882402   -4.1882402   -2.9235912  0.026597518   -4.1882402     1.264649  1010000 
 2512000   0.84397892   -4.1893404   -4.1893404   -2.9233732  0.023149853   -4.1893404    1.2659671  1010000 
 2513000   0.84308496    -4.188281    -4.188281   -2.9236548  0.021769159    -4.188281    1.2646262  1010000 
 2514000   0.84233011   -4.1862705   -4.1862705   -2.9227766  0.024838613   -4.1862705    1.2634939  1010000 
 2515000    0.8431785   -4.1881479   -4.1881479   -2.9233814  0.021898289   -4.1881479    1.2647665  1010000 
 2516000   0.84286984   -4.1879234   -4.1879234   -2.9236199  0.020165894   -4.1879234    1.2643035  1010000 
 2517000   0.84328083   -4.1885003   -4.1885003   -2.9235803  0.021753038   -4.1885003      1.26492  1010000 
 2518000   0.84217192   -4.1869554   -4.1869554   -2.9236988  0.021554997   -4.1869554    1.2632566  1010000 
 2519000   0.84199689   -4.1867343   -4.1867343   -2.9237402  0.024086391   -4.1867343    1.2629941  1010000 
 2520000   0.84261349   -4.1878135   -4.1878135   -2.9238945   0.02254588   -4.1878135     1.263919  1010000 
 2521000   0.84279615   -4.1879842   -4.1879842   -2.9237912   0.01776399   -4.1879842     1.264193  1010000 
 2522000   0.84168555   -4.1862191   -4.1862191   -2.9236921  0.021394559   -4.1862191    1.2625271  1010000 
 2523000   0.84263618   -4.1877227   -4.1877227   -2.9237697  0.016513241   -4.1877227     1.263953  1010000 
 2524000   0.84223822   -4.1868606   -4.1868606   -2.9235045  0.021687533   -4.1868606    1.2633561  1010000 
 2525000   0.84225068   -4.1867881   -4.1867881   -2.9234134  0.023295542   -4.1867881    1.2633748  1010000 
 2526000   0.84247705   -4.1873313   -4.1873313    -2.923617  0.020768198   -4.1873313    1.2637143  1010000 
 2527000   0.84254017   -4.1873826   -4.1873826   -2.9235736  0.015729909   -4.1873826     1.263809  1010000 
 2528000   0.84263707   -4.1873458   -4.1873458   -2.9233914  0.019311712   -4.1873458    1.2639544  1010000 
 2529000   0.84271209   -4.1871274   -4.1871274   -2.9230605  0.021993534   -4.1871274    1.2640669  1010000 
 2530000   0.84230955   -4.1866981   -4.1866981    -2.923235  0.022695571   -4.1866981    1.2634631  1010000 
 2531000   0.84270394   -4.1873612   -4.1873612   -2.9233066  0.022530698   -4.1873612    1.2640547  1010000 
 2532000     0.842936   -4.1878566   -4.1878566   -2.9234538  0.024596351   -4.1878566    1.2644027  1010000 
 2533000   0.84293157   -4.1872861   -4.1872861     -2.92289  0.023895909   -4.1872861    1.2643961  1010000 
 2534000   0.84305234   -4.1867354   -4.1867354   -2.9221581   0.02412723   -4.1867354    1.2645773  1010000 
 2535000   0.84291547   -4.1866577   -4.1866577   -2.9222857  0.026690218   -4.1866577    1.2643719  1010000 
 2536000   0.84288998   -4.1865231   -4.1865231   -2.9221893  0.025323606   -4.1865231    1.2643337  1010000 
 2537000   0.84310742   -4.1868104   -4.1868104   -2.9221505  0.023515256   -4.1868104    1.2646599  1010000 
 2538000   0.84324118   -4.1865705   -4.1865705     -2.92171   0.02190941   -4.1865705    1.2648605  1010000 
 2539000   0.84313631   -4.1865789   -4.1865789   -2.9218757  0.022590918   -4.1865789    1.2647032  1010000 
 2540000   0.84259739   -4.1858571   -4.1858571   -2.9219622  0.023377961   -4.1858571    1.2638948  1010000 
 2541000   0.84284493   -4.1859491   -4.1859491    -2.921683  0.021888852   -4.1859491    1.2642661  1010000 
 2542000   0.84227107   -4.1853113   -4.1853113   -2.9219059  0.023534026   -4.1853113    1.2634054  1010000 
 2543000   0.84314306   -4.1869812   -4.1869812   -2.9222679  0.021359229   -4.1869812    1.2647133  1010000 
 2544000   0.84380827    -4.187082    -4.187082   -2.9213709  0.017517206    -4.187082    1.2657111  1010000 
 2545000    0.8435568   -4.1865275   -4.1865275   -2.9211936  0.020538065   -4.1865275     1.265334  1010000 
 2546000   0.84327539   -4.1862846   -4.1862846   -2.9213728    0.0235191   -4.1862846    1.2649118  1010000 
 2547000   0.84310596   -4.1862945   -4.1862945   -2.9216369  0.024384376   -4.1862945    1.2646577  1010000 
 2548000   0.84321389   -4.1865907   -4.1865907   -2.9217711  0.019434887   -4.1865907    1.2648196  1010000 
 2549000   0.84333996   -4.1869907   -4.1869907    -2.921982  0.021442431   -4.1869907    1.2650087  1010000 
 2550000   0.84351617   -4.1872252   -4.1872252   -2.9219522  0.020592172   -4.1872252     1.265273  1010000 
 2551000   0.84258475   -4.1863776   -4.1863776   -2.9225018  0.021143344   -4.1863776    1.2638759  1010000 
 2552000   0.84388724   -4.1876427   -4.1876427   -2.9218131  0.016853985   -4.1876427    1.2658296  1010000 
 2553000   0.84351391   -4.1864824   -4.1864824   -2.9212128  0.020376171   -4.1864824    1.2652696  1010000 
 2554000   0.84311465   -4.1858767   -4.1858767    -2.921206  0.022129118   -4.1858767    1.2646707  1010000 
 2555000   0.84336159   -4.1865382   -4.1865382   -2.9214971  0.026209467   -4.1865382    1.2650411  1010000 
 2556000   0.84308281    -4.186546    -4.186546    -2.921923  0.020908193    -4.186546     1.264623  1010000 
 2557000   0.84368159   -4.1869941   -4.1869941    -2.921473  0.019190413   -4.1869941    1.2655211  1010000 
 2558000   0.84233629   -4.1856622   -4.1856622    -2.922159  0.025002768   -4.1856622    1.2635032  1010000 
 2559000   0.84274806   -4.1865088   -4.1865088   -2.9223879   0.01813014   -4.1865088    1.2641208  1010000 
 2560000   0.84168673   -4.1849348   -4.1849348    -2.922406  0.019695633   -4.1849348    1.2625289  1010000 
 2561000   0.84342772   -4.1871825   -4.1871825   -2.9220422  0.015739074   -4.1871825    1.2651403  1010000 
 2562000   0.84240743   -4.1858042   -4.1858042   -2.9221943  0.022938696   -4.1858042    1.2636099  1010000 
 2563000   0.84268183   -4.1862119   -4.1862119   -2.9221905  0.023949438   -4.1862119    1.2640215  1010000 
 2564000   0.84311278    -4.187155    -4.187155   -2.9224871  0.022135158    -4.187155    1.2646679  1010000 
 2565000   0.84309486   -4.1871985   -4.1871985   -2.9225574  0.020370932   -4.1871985     1.264641  1010000 
 2566000   0.84272123   -4.1864558   -4.1864558   -2.9223752  0.024027453   -4.1864558    1.2640806  1010000 
 2567000   0.84273952   -4.1864157   -4.1864157   -2.9223076  0.022472297   -4.1864157     1.264108  1010000 
 2568000   0.84207438    -4.185903    -4.185903   -2.9227927  0.021535974    -4.185903    1.2631103  1010000 
 2569000   0.84205612   -4.1856109   -4.1856109    -2.922528  0.026332656   -4.1856109    1.2630829  1010000 
 2570000   0.84237752   -4.1863827   -4.1863827   -2.9228177  0.020639254   -4.1863827     1.263565  1010000 
 2571000   0.84200875   -4.1857532   -4.1857532   -2.9227414   0.02156469   -4.1857532    1.2630119  1010000 
 2572000   0.84296414   -4.1872521   -4.1872521   -2.9228071  0.022624781   -4.1872521     1.264445  1010000 
 2573000   0.84368272   -4.1881578   -4.1881578    -2.922635  0.020830441   -4.1881578    1.2655228  1010000 
 2574000   0.84392718   -4.1884062   -4.1884062   -2.9225166  0.017322082   -4.1884062    1.2658895  1010000 
 2575000   0.84332063   -4.1874678   -4.1874678   -2.9224881  0.024615056   -4.1874678    1.2649797  1010000 
 2576000   0.84361794    -4.187348    -4.187348   -2.9219224  0.024698761    -4.187348    1.2654257  1010000 
 2577000   0.84387054   -4.1874177   -4.1874177   -2.9216131  0.024178815   -4.1874177    1.2658046  1010000 
 2578000   0.84409371   -4.1875305   -4.1875305   -2.9213912  0.023531596   -4.1875305    1.2661393  1010000 
 2579000   0.84404702   -4.1876085   -4.1876085   -2.9215392  0.021945425   -4.1876085    1.2660693  1010000 
 2580000    0.8439428   -4.1869682   -4.1869682   -2.9210553  0.024611579   -4.1869682    1.2659129  1010000 
 2581000   0.84288893   -4.1854559   -4.1854559   -2.9211237  0.028586333   -4.1854559    1.2643321  1010000 
 2582000   0.84451416    -4.188078    -4.188078    -2.921308  0.022210072    -4.188078      1.26677  1010000 
 2583000    0.8443622   -4.1877995   -4.1877995   -2.9212574  0.023774431   -4.1877995     1.266542  1010000 
 2584000   0.84446386   -4.1878344   -4.1878344   -2.9211399  0.026712724   -4.1878344    1.2666945  1010000 
 2585000   0.84385821   -4.1871249   -4.1871249   -2.9213388  0.031695662   -4.1871249    1.2657861  1010000 
 2586000   0.84413259    -4.187513    -4.187513   -2.9213154  0.027259573    -4.187513    1.2661976  1010000 
 2587000   0.84445201   -4.1875851   -4.1875851   -2.9209084  0.025384755   -4.1875851    1.2666768  1010000 
 2588000   0.84424628   -4.1873314   -4.1873314   -2.9209632  0.028059971   -4.1873314    1.2663682  1010000 
 2589000   0.84502695   -4.1885306   -4.1885306   -2.9209915  0.025257706   -4.1885306    1.2675392  1010000 
 2590000   0.84372086   -4.1863926   -4.1863926   -2.9208125  0.028684991   -4.1863926      1.26558  1010000 
 2591000    0.8440526   -4.1872128   -4.1872128   -2.9211351  0.030676368   -4.1872128    1.2660776  1010000 
 2592000   0.84501599   -4.1883358   -4.1883358   -2.9208131  0.021749959   -4.1883358    1.2675227  1010000 
 2593000   0.84412024   -4.1874507   -4.1874507   -2.9212716  0.023832842   -4.1874507    1.2661791  1010000 
 2594000   0.84344871   -4.1866601   -4.1866601   -2.9214883  0.025468636   -4.1866601    1.2651718  1010000 
 2595000   0.84389715   -4.1874271   -4.1874271   -2.9215827  0.018357165   -4.1874271    1.2658445  1010000 
 2596000   0.84366405   -4.1871304   -4.1871304   -2.9216355  0.021611798   -4.1871304    1.2654948  1010000 
 2597000   0.84237597   -4.1854447   -4.1854447    -2.921882  0.023280546   -4.1854447    1.2635627  1010000 
 2598000    0.8430497   -4.1866437   -4.1866437   -2.9220704  0.022280177   -4.1866437    1.2645733  1010000 
 2599000   0.84357337    -4.187342    -4.187342   -2.9219832   0.01967878    -4.187342    1.2653588  1010000 
 2600000   0.84278979    -4.186167    -4.186167   -2.9219836  0.021970287    -4.186167    1.2641834  1010000 
 2601000   0.84289484   -4.1856156   -4.1856156   -2.9212746  0.021969315   -4.1856156     1.264341  1010000 
 2602000   0.84361358   -4.1862458   -4.1862458   -2.9208267  0.022383729   -4.1862458    1.2654191  1010000 
 2603000    0.8422774   -4.1847132   -4.1847132   -2.9212983  0.026914244   -4.1847132    1.2634148  1010000 
 2604000   0.84250865   -4.1853659   -4.1853659   -2.9216042  0.021298446   -4.1853659    1.2637617  1010000 
 2605000   0.84367472   -4.1873093   -4.1873093   -2.9217985  0.018521058   -4.1873093    1.2655108  1010000 
 2606000   0.84357871   -4.1869267   -4.1869267   -2.9215599   0.02386429   -4.1869267    1.2653668  1010000 
 2607000   0.84267393   -4.1856436   -4.1856436    -2.921634  0.021793631   -4.1856436    1.2640096  1010000 
 2608000   0.84338115   -4.1862542   -4.1862542   -2.9211838  0.019841984   -4.1862542    1.2650705  1010000 
 2609000   0.84347835   -4.1864711   -4.1864711   -2.9212548  0.022457385   -4.1864711    1.2652163  1010000 
 2610000   0.84417944    -4.186905    -4.186905   -2.9206371  0.020021944    -4.186905    1.2662679  1010000 
 2611000   0.84273696   -4.1855364   -4.1855364   -2.9214322  0.025439328   -4.1855364    1.2641042  1010000 
 2612000   0.84330872   -4.1862609   -4.1862609   -2.9212991  0.019320904   -4.1862609    1.2649618  1010000 
 2613000   0.84309706   -4.1859894   -4.1859894    -2.921345  0.021042098   -4.1859894    1.2646443  1010000 
 2614000   0.84349488   -4.1866957   -4.1866957   -2.9214546  0.016862653   -4.1866957    1.2652411  1010000 
 2615000   0.84308173   -4.1863729   -4.1863729   -2.9217516  0.018724107   -4.1863729    1.2646213  1010000 
 2616000   0.84173729    -4.184346    -4.184346   -2.9217413  0.019226142    -4.184346    1.2626047  1010000 
 2617000    0.8427968    -4.185483    -4.185483    -2.921289  0.019252214    -4.185483    1.2641939  1010000 
 2618000   0.84297071   -4.1856584   -4.1856584   -2.9212036  0.022287087   -4.1856584    1.2644548  1010000 
 2619000   0.84339613   -4.1861307   -4.1861307   -2.9210378   0.02463071   -4.1861307    1.2650929  1010000 
 2620000   0.84218911   -4.1842112   -4.1842112   -2.9209288  0.021257958   -4.1842112    1.2632824  1010000 
 2621000   0.84245858   -4.1850227   -4.1850227   -2.9213361  0.020407219   -4.1850227    1.2636866  1010000 
 2622000   0.84318155   -4.1860874   -4.1860874   -2.9213163  0.020190845   -4.1860874    1.2647711  1010000 
 2623000   0.84290009   -4.1858926   -4.1858926   -2.9215437  0.019269701   -4.1858926    1.2643489  1010000 
 2624000   0.84349566   -4.1869336   -4.1869336   -2.9216914  0.022012069   -4.1869336    1.2652422  1010000 
 2625000   0.84331095   -4.1861694   -4.1861694   -2.9212043  0.021436283   -4.1861694    1.2649652  1010000 
 2626000   0.84333367   -4.1865601   -4.1865601   -2.9215609  0.019212466   -4.1865601    1.2649992  1010000 
 2627000   0.84419992   -4.1875996   -4.1875996   -2.9213009  0.020601315   -4.1875996    1.2662986  1010000 
 2628000   0.84339398   -4.1862896   -4.1862896   -2.9211999  0.023731069   -4.1862896    1.2650897  1010000 
 2629000   0.84326325   -4.1859704   -4.1859704   -2.9210768  0.023907813   -4.1859704    1.2648936  1010000 
 2630000   0.84361433   -4.1867637   -4.1867637   -2.9213435  0.024691576   -4.1867637    1.2654202  1010000 
 2631000   0.84309593   -4.1855171   -4.1855171   -2.9208745  0.021982656   -4.1855171    1.2646426  1010000 
 2632000   0.84377238   -4.1861885   -4.1861885   -2.9205312  0.022096564   -4.1861885    1.2656573  1010000 
 2633000   0.84344252   -4.1859788   -4.1859788   -2.9208162  0.022907089   -4.1859788    1.2651625  1010000 
 2634000   0.84391704   -4.1867355   -4.1867355   -2.9208612  0.021237836   -4.1867355    1.2658743  1010000 
 2635000   0.84354146   -4.1863847   -4.1863847   -2.9210737  0.022658332   -4.1863847    1.2653109  1010000 
 2636000   0.84400932   -4.1874075   -4.1874075   -2.9213948   0.02017139   -4.1874075    1.2660127  1010000 
 2637000   0.84361343   -4.1869348   -4.1869348    -2.921516  0.018115591   -4.1869348    1.2654189  1010000 
 2638000   0.84268791   -4.1858627   -4.1858627    -2.921832  0.024461715   -4.1858627    1.2640306  1010000 
 2639000   0.84279823   -4.1857671   -4.1857671   -2.9215711  0.028005006   -4.1857671    1.2641961  1010000 
 2640000   0.84328059   -4.1867481   -4.1867481   -2.9218284  0.023683507   -4.1867481    1.2649196  1010000 
 2641000   0.84344103   -4.1870206   -4.1870206   -2.9218604  0.023140747   -4.1870206    1.2651603  1010000 
 2642000   0.84378232   -4.1875781   -4.1875781   -2.9219058  0.023306526   -4.1875781    1.2656722  1010000 
 2643000   0.84391491   -4.1871055   -4.1871055   -2.9212344  0.023741478   -4.1871055    1.2658711  1010000 
 2644000   0.84352384   -4.1859737   -4.1859737   -2.9206891  0.025832075   -4.1859737    1.2652845  1010000 
 2645000   0.84377382   -4.1865291   -4.1865291   -2.9208696  0.025135172   -4.1865291    1.2656595  1010000 
 2646000   0.84428971    -4.187538    -4.187538   -2.9211047  0.021815587    -4.187538    1.2664333  1010000 
 2647000   0.84383174   -4.1867576   -4.1867576   -2.9210112  0.025160751   -4.1867576    1.2657464  1010000 
 2648000   0.84450157    -4.187757    -4.187757   -2.9210059  0.023153709    -4.187757    1.2667511  1010000 
 2649000   0.84452687   -4.1874943   -4.1874943   -2.9207052   0.02228864   -4.1874943    1.2667891  1010000 
 2650000   0.84318963   -4.1855848   -4.1855848   -2.9208016  0.024351785   -4.1855848    1.2647832  1010000 
 2651000   0.84363634   -4.1863919   -4.1863919   -2.9209387  0.025098829   -4.1863919    1.2654533  1010000 
 2652000   0.84459433   -4.1875024   -4.1875024   -2.9206122  0.022487135   -4.1875024    1.2668902  1010000 
 2653000   0.84399478    -4.186888    -4.186888    -2.920897  0.024171253    -4.186888    1.2659909  1010000 
 2654000   0.84432326    -4.187184    -4.187184   -2.9207004  0.023175292    -4.187184    1.2664836  1010000 
 2655000   0.84419077   -4.1871426   -4.1871426   -2.9208577  0.022429886   -4.1871426    1.2662849  1010000 
 2656000   0.84391591   -4.1866643   -4.1866643   -2.9207917  0.022145872   -4.1866643    1.2658726  1010000 
 2657000   0.84348936   -4.1857631   -4.1857631   -2.9205303  0.027763285   -4.1857631    1.2652328  1010000 
 2658000   0.84447661   -4.1869056   -4.1869056    -2.920192  0.021776123   -4.1869056    1.2667137  1010000 
 2659000   0.84340812   -4.1853745   -4.1853745   -2.9202636   0.02233464   -4.1853745    1.2651109  1010000 
 2660000     0.842997   -4.1849998   -4.1849998   -2.9205056  0.024759526   -4.1849998    1.2644942  1010000 
 2661000   0.84315214   -4.1851881   -4.1851881   -2.9204612  0.024890683   -4.1851881     1.264727  1010000 
 2662000   0.84387553   -4.1861542   -4.1861542   -2.9203421  0.024387998   -4.1861542     1.265812  1010000 
 2663000   0.84361389     -4.18584     -4.18584   -2.9204204  0.023561987     -4.18584    1.2654196  1010000 
 2664000   0.84337326   -4.1859665   -4.1859665   -2.9209078  0.023185657   -4.1859665    1.2650586  1010000 
 2665000   0.84283453   -4.1854761   -4.1854761   -2.9212256  0.020381293   -4.1854761    1.2642505  1010000 
 2666000   0.84268621   -4.1859749   -4.1859749   -2.9219468  0.021679967   -4.1859749    1.2640281  1010000 
 2667000   0.84258929   -4.1853439   -4.1853439   -2.9214612   0.02470546   -4.1853439    1.2638827  1010000 
 2668000   0.84347944    -4.186086    -4.186086   -2.9208681  0.018232106    -4.186086    1.2652179  1010000 
 2669000   0.84301279   -4.1856213   -4.1856213   -2.9211034  0.019191931   -4.1856213    1.2645179  1010000 
 2670000   0.84291128   -4.1856193   -4.1856193   -2.9212536  0.016612114   -4.1856193    1.2643657  1010000 
 2671000    0.8418342   -4.1835838   -4.1835838   -2.9208337  0.023489265   -4.1835838      1.26275  1010000 
 2672000   0.84268781   -4.1846608   -4.1846608   -2.9206304  0.023027194   -4.1846608    1.2640305  1010000 
 2673000   0.84229488   -4.1846684   -4.1846684   -2.9212273  0.018091233   -4.1846684    1.2634411  1010000 
 2674000   0.84302394    -4.185922    -4.185922   -2.9213873  0.019056699    -4.185922    1.2645347  1010000 
 2675000   0.84235641   -4.1847322   -4.1847322   -2.9211989  0.018559266   -4.1847322    1.2635334  1010000 
 2676000   0.84258114   -4.1851481   -4.1851481   -2.9212776  0.019802213   -4.1851481    1.2638705  1010000 
 2677000   0.84223683   -4.1846997   -4.1846997   -2.9213457  0.021159977   -4.1846997     1.263354  1010000 
 2678000   0.84198813   -4.1842301   -4.1842301   -2.9212491  0.021054491   -4.1842301    1.2629809  1010000 
 2679000   0.84329916   -4.1859939   -4.1859939   -2.9210464  0.017223779   -4.1859939    1.2649475  1010000 
 2680000   0.84323607   -4.1863206   -4.1863206   -2.9214677  0.019456336   -4.1863206    1.2648528  1010000 
 2681000   0.84288296   -4.1854005   -4.1854005   -2.9210773  0.019976656   -4.1854005    1.2643232  1010000 
 2682000    0.8427699   -4.1853378   -4.1853378   -2.9211842  0.019225635   -4.1853378    1.2641536  1010000 
 2683000   0.84375331   -4.1865789   -4.1865789   -2.9209502  0.019530092   -4.1865789    1.2656287  1010000 
 2684000   0.84330854   -4.1859014   -4.1859014   -2.9209399  0.022623167   -4.1859014    1.2649616  1010000 
 2685000    0.8426061    -4.184737    -4.184737   -2.9208291  0.023130167    -4.184737    1.2639079  1010000 
 2686000   0.84366544   -4.1855187   -4.1855187   -2.9200218  0.022620658   -4.1855187    1.2654969  1010000 
 2687000   0.84338692   -4.1856404   -4.1856404   -2.9205613  0.022283523   -4.1856404    1.2650791  1010000 
 2688000   0.84352685   -4.1859167   -4.1859167   -2.9206277  0.023062016   -4.1859167     1.265289  1010000 
 2689000   0.84349127   -4.1859488   -4.1859488   -2.9207132   0.02118302   -4.1859488    1.2652356  1010000 
 2690000   0.84380808   -4.1862271   -4.1862271   -2.9205163  0.022485586   -4.1862271    1.2657109  1010000 
 2691000   0.84340969     -4.18546     -4.18546   -2.9203467   0.02500291     -4.18546    1.2651133  1010000 
 2692000   0.84387209   -4.1860048   -4.1860048    -2.920198  0.022824415   -4.1860048    1.2658069  1010000 
 2693000   0.84453256   -4.1867246   -4.1867246    -2.919927  0.021724751   -4.1867246    1.2667976  1010000 
 2694000   0.84368754   -4.1863568   -4.1863568   -2.9208267  0.023165997   -4.1863568    1.2655301  1010000 
 2695000   0.84369513   -4.1863675   -4.1863675    -2.920826  0.024233814   -4.1863675    1.2655414  1010000 
 2696000    0.8435147   -4.1865361   -4.1865361   -2.9212653  0.027545224   -4.1865361    1.2652708  1010000 
 2697000   0.84398217   -4.1870587   -4.1870587   -2.9210867  0.027788909   -4.1870587     1.265972  1010000 
 2698000   0.84359124   -4.1864254   -4.1864254   -2.9210398  0.025525523   -4.1864254    1.2653856  1010000 
 2699000   0.84375627   -4.1871372   -4.1871372    -2.921504  0.023368077   -4.1871372    1.2656332  1010000 
 2700000   0.84426792   -4.1875176   -4.1875176    -2.921117  0.023465647   -4.1875176    1.2664006  1010000 
 2701000   0.84384151   -4.1867234   -4.1867234   -2.9209624  0.024452576   -4.1867234     1.265761  1010000 
 2702000   0.84458094   -4.1871977   -4.1871977   -2.9203275  0.026766304   -4.1871977    1.2668701  1010000 
 2703000   0.84417185   -4.1865136   -4.1865136   -2.9202571  0.031200779   -4.1865136    1.2662565  1010000 
 2704000   0.84514496   -4.1881573   -4.1881573   -2.9204412  0.027083446   -4.1881573    1.2677162  1010000 
 2705000   0.84463494   -4.1871944   -4.1871944   -2.9202433  0.027581306   -4.1871944    1.2669512  1010000 
 2706000   0.84519914   -4.1879432   -4.1879432   -2.9201458  0.029509336   -4.1879432    1.2677975  1010000 
 2707000   0.84406904   -4.1862274   -4.1862274   -2.9201251  0.029074147   -4.1862274    1.2661023  1010000 
 2708000   0.84439167   -4.1869222   -4.1869222    -2.920336  0.027228367   -4.1869222    1.2665863  1010000 
 2709000   0.84442137   -4.1870018   -4.1870018   -2.9203709  0.026837021   -4.1870018    1.2666308  1010000 
 2710000   0.84472874   -4.1877726   -4.1877726   -2.9206808  0.022980666   -4.1877726    1.2670919  1010000 
 2711000   0.84362065    -4.186074    -4.186074   -2.9206443  0.024015846    -4.186074    1.2654297  1010000 
 2712000   0.84399046   -4.1869231   -4.1869231   -2.9209386  0.024093243   -4.1869231    1.2659844  1010000 
 2713000   0.84313804   -4.1858545   -4.1858545   -2.9211487  0.024877008   -4.1858545    1.2647058  1010000 
 2714000    0.8433378   -4.1862856   -4.1862856   -2.9212801  0.021044638   -4.1862856    1.2650054  1010000 
 2715000   0.84381054   -4.1871715   -4.1871715    -2.921457  0.020270871   -4.1871715    1.2657145  1010000 
 2716000   0.84327916   -4.1859574   -4.1859574   -2.9210399  0.024291439   -4.1859574    1.2649175  1010000 
 2717000   0.84368541   -4.1862017   -4.1862017   -2.9206749  0.021428874   -4.1862017    1.2655269  1010000 
 2718000   0.84388975   -4.1867808   -4.1867808   -2.9209474  0.016727817   -4.1867808    1.2658334  1010000 
 2719000   0.84356614   -4.1864597   -4.1864597   -2.9211117  0.020502522   -4.1864597     1.265348  1010000 
 2720000   0.84365491   -4.1865185   -4.1865185   -2.9210374  0.022060523   -4.1865185    1.2654811  1010000 
 2721000   0.84330343   -4.1861395   -4.1861395   -2.9211856  0.022239404   -4.1861395    1.2649539  1010000 
 2722000   0.84314945   -4.1855759   -4.1855759   -2.9208529  0.022642191   -4.1855759    1.2647229  1010000 
 2723000   0.84340643   -4.1855798   -4.1855798   -2.9204714  0.021250672   -4.1855798    1.2651084  1010000 
 2724000   0.84314872   -4.1846804   -4.1846804   -2.9199586  0.021735084   -4.1846804    1.2647218  1010000 
 2725000   0.84308312   -4.1842622   -4.1842622   -2.9196387  0.020929671   -4.1842622    1.2646234  1010000 
 2726000   0.84322839   -4.1840897   -4.1840897   -2.9192483  0.025730291   -4.1840897    1.2648413  1010000 
 2727000   0.84348168   -4.1843464   -4.1843464   -2.9191251  0.019772502   -4.1843464    1.2652213  1010000 
 2728000   0.84353419   -4.1845402   -4.1845402   -2.9192402  0.021414779   -4.1845402       1.2653  1010000 
 2729000   0.84338268   -4.1847054   -4.1847054   -2.9196327  0.019607111   -4.1847054    1.2650728  1010000 
 2730000   0.84285025   -4.1834086   -4.1834086   -2.9191345  0.021194318   -4.1834086    1.2642741  1010000 
 2731000   0.84361992   -4.1843464   -4.1843464   -2.9189178  0.023858376   -4.1843464    1.2654286  1010000 
 2732000   0.84338475   -4.1848927   -4.1848927   -2.9198168  0.019317903   -4.1848927    1.2650759  1010000 
 2733000   0.84289281   -4.1839647   -4.1839647   -2.9196267  0.019494115   -4.1839647     1.264338  1010000 
 2734000   0.84321347   -4.1835134   -4.1835134   -2.9186945  0.024548137   -4.1835134     1.264819  1010000 
 2735000   0.84392916   -4.1850565   -4.1850565    -2.919164   0.01631096   -4.1850565    1.2658925  1010000 
 2736000   0.84314404   -4.1836463   -4.1836463   -2.9189315   0.01902831   -4.1836463    1.2647148  1010000 
 2737000   0.84344235   -4.1842255   -4.1842255   -2.9190632  0.021302364   -4.1842255    1.2651623  1010000 
 2738000   0.84312819   -4.1837421   -4.1837421    -2.919051  0.020862206   -4.1837421     1.264691  1010000 
 2739000    0.8439555   -4.1842492   -4.1842492   -2.9183172  0.020571594   -4.1842492     1.265932  1010000 
 2740000   0.84386949   -4.1836952   -4.1836952   -2.9178922  0.021128163   -4.1836952     1.265803  1010000 
 2741000   0.84465653   -4.1849627   -4.1849627   -2.9179792  0.018853747   -4.1849627    1.2669835  1010000 
 2742000   0.84443911   -4.1845392   -4.1845392   -2.9178818  0.024308669   -4.1845392    1.2666574  1010000 
 2743000   0.84377224   -4.1838611   -4.1838611    -2.918204  0.025735972   -4.1838611    1.2656571  1010000 
 2744000   0.84480343   -4.1858094   -4.1858094   -2.9186055  0.019359805   -4.1858094    1.2672039  1010000 
 2745000   0.84391645   -4.1841403   -4.1841403   -2.9182669   0.02119149   -4.1841403    1.2658734  1010000 
 2746000   0.84385973   -4.1842071   -4.1842071   -2.9184187  0.024770428   -4.1842071    1.2657883  1010000 
 2747000   0.84417905    -4.183957    -4.183957   -2.9176896  0.023509816    -4.183957    1.2662673  1010000 
 2748000   0.84358136   -4.1834284   -4.1834284   -2.9180576  0.023837081   -4.1834284    1.2653708  1010000 
 2749000   0.84385809   -4.1842148   -4.1842148   -2.9184289  0.020824419   -4.1842148    1.2657859  1010000 
 2750000   0.84364725    -4.184296    -4.184296   -2.9188264  0.022066347    -4.184296    1.2654696  1010000 
 2751000   0.84382858   -4.1843179   -4.1843179   -2.9185763  0.019545797   -4.1843179    1.2657416  1010000 
 2752000   0.84358941   -4.1842531   -4.1842531   -2.9188702  0.020771257   -4.1842531    1.2653829  1010000 
 2753000   0.84358488   -4.1839031   -4.1839031    -2.918527  0.023744041   -4.1839031    1.2653761  1010000 
 2754000    0.8433777   -4.1838165   -4.1838165   -2.9187512   0.02111233   -4.1838165    1.2650653  1010000 
 2755000   0.84400217   -4.1847629   -4.1847629   -2.9187609   0.02095863   -4.1847629     1.266002  1010000 
 2756000    0.8437394   -4.1844471   -4.1844471   -2.9188392  0.020409736   -4.1844471    1.2656078  1010000 
 2757000   0.84406203   -4.1850433   -4.1850433   -2.9189515  0.020824801   -4.1850433    1.2660918  1010000 
 2758000    0.8439132   -4.1848233   -4.1848233   -2.9189548  0.020993795   -4.1848233    1.2658685  1010000 
 2759000   0.84307473   -4.1839811   -4.1839811   -2.9193703  0.024137362   -4.1839811    1.2646108  1010000 
 2760000   0.84340025   -4.1841229   -4.1841229   -2.9190237  0.023314413   -4.1841229    1.2650991  1010000 
 2761000   0.84412465   -4.1848482   -4.1848482   -2.9186625  0.021398204   -4.1848482    1.2661857  1010000 
 2762000   0.84377447   -4.1838391   -4.1838391   -2.9181787  0.027986849   -4.1838391    1.2656605  1010000 
 2763000   0.84384542   -4.1842778   -4.1842778    -2.918511  0.026992482   -4.1842778    1.2657669  1010000 
 2764000   0.84445765   -4.1851821   -4.1851821   -2.9184969  0.020038562   -4.1851821    1.2666852  1010000 
 2765000   0.84449753    -4.184558    -4.184558    -2.917813  0.025677495    -4.184558     1.266745  1010000 
 2766000   0.84457253   -4.1843463   -4.1843463   -2.9174888  0.025739698   -4.1843463    1.2668575  1010000 
 2767000    0.8441408   -4.1841131   -4.1841131   -2.9179031  0.027399035   -4.1841131    1.2662099  1010000 
 2768000   0.84399314   -4.1838601   -4.1838601   -2.9178716  0.027672435   -4.1838601    1.2659885  1010000 
 2769000   0.84440358   -4.1842654   -4.1842654   -2.9176613  0.027039937   -4.1842654    1.2666041  1010000 
 2770000   0.84477487   -4.1845626   -4.1845626   -2.9174015  0.026482631   -4.1845626    1.2671611  1010000 
 2771000   0.84507375   -4.1845923   -4.1845923   -2.9169829  0.026425176   -4.1845923    1.2676094  1010000 
 2772000   0.84545867   -4.1856375   -4.1856375   -2.9174508  0.025128934   -4.1856375    1.2681867  1010000 
 2773000   0.84554612   -4.1849902   -4.1849902   -2.9166723   0.02654955   -4.1849902    1.2683179  1010000 
 2774000   0.84552551   -4.1853516   -4.1853516   -2.9170646   0.02464574   -4.1853516     1.268287  1010000 
 2775000   0.84536325   -4.1857002   -4.1857002   -2.9176566  0.025495941   -4.1857002    1.2680436  1010000 
 2776000   0.84471665   -4.1843607   -4.1843607    -2.917287  0.022608482   -4.1843607    1.2670737  1010000 
 2777000   0.84461915   -4.1841473   -4.1841473   -2.9172199  0.026893191   -4.1841473    1.2669275  1010000 
 2778000   0.84496891   -4.1841442   -4.1841442   -2.9166921  0.023979378   -4.1841442    1.2674521  1010000 
 2779000   0.84463679   -4.1839785   -4.1839785   -2.9170246  0.024178804   -4.1839785    1.2669539  1010000 
 2780000   0.84435045    -4.183767    -4.183767   -2.9172426  0.024664557    -4.183767    1.2665244  1010000 
 2781000   0.84434978   -4.1839263   -4.1839263   -2.9174029  0.024699942   -4.1839263    1.2665234  1010000 
 2782000   0.84440624   -4.1835927   -4.1835927   -2.9169846  0.022310507   -4.1835927    1.2666081  1010000 
 2783000   0.84470658   -4.1834945   -4.1834945   -2.9164358  0.023867848   -4.1834945    1.2670586  1010000 
 2784000   0.84436564   -4.1826624   -4.1826624   -2.9161152  0.022103133   -4.1826624    1.2665472  1010000 
 2785000   0.84480125   -4.1832749   -4.1832749   -2.9160743  0.023368711   -4.1832749    1.2672006  1010000 
 2786000   0.84434786   -4.1826424   -4.1826424   -2.9161219  0.023560169   -4.1826424    1.2665205  1010000 
 2787000    0.8439003   -4.1820563   -4.1820563   -2.9162071  0.025921912   -4.1820563    1.2658492  1010000 
 2788000   0.84481505   -4.1834251   -4.1834251   -2.9162037  0.020996677   -4.1834251    1.2672213  1010000 
 2789000   0.84399352   -4.1818416   -4.1818416   -2.9158526  0.025347453   -4.1818416     1.265989  1010000 
 2790000   0.84496949   -4.1835099   -4.1835099   -2.9160569  0.023971361   -4.1835099     1.267453  1010000 
 2791000   0.84389199   -4.1825051   -4.1825051   -2.9166684  0.025040791   -4.1825051    1.2658367  1010000 
 2792000   0.84368838    -4.181824    -4.181824   -2.9162927  0.021622465    -4.181824    1.2655313  1010000 
 2793000   0.84421678   -4.1827364   -4.1827364   -2.9164124   0.02139973   -4.1827364    1.2663239  1010000 
 2794000   0.84427916    -4.182235    -4.182235   -2.9158175  0.021862602    -4.182235    1.2664175  1010000 
 2795000   0.84409735   -4.1820947   -4.1820947   -2.9159499  0.019609306   -4.1820947    1.2661448  1010000 
 2796000   0.84411898   -4.1824542   -4.1824542    -2.916277  0.021556446   -4.1824542    1.2661772  1010000 
 2797000   0.84363032   -4.1817471   -4.1817471   -2.9163029  0.025365943   -4.1817471    1.2654442  1010000 
 2798000   0.84505383   -4.1831969   -4.1831969   -2.9156174  0.018593546   -4.1831969    1.2675795  1010000 
 2799000   0.84374044   -4.1816937   -4.1816937   -2.9160843  0.021915239   -4.1816937    1.2656094  1010000 
 2800000   0.84459601   -4.1827047   -4.1827047    -2.915812  0.018420098   -4.1827047    1.2668928  1010000 
 2801000   0.84410714   -4.1818907   -4.1818907   -2.9157312  0.020919498   -4.1818907    1.2661595  1010000 
 2802000   0.84346923   -4.1809106   -4.1809106    -2.915708  0.023312634   -4.1809106    1.2652026  1010000 
 2803000    0.8434988   -4.1808492   -4.1808492   -2.9156022  0.020675402   -4.1808492    1.2652469  1010000 
 2804000    0.8439568   -4.1815524   -4.1815524   -2.9156184  0.019225197   -4.1815524    1.2659339  1010000 
 2805000   0.84518954   -4.1831651   -4.1831651   -2.9153821   0.01954746   -4.1831651    1.2677831  1010000 
 2806000   0.84369367   -4.1809074   -4.1809074   -2.9153681  0.021504762   -4.1809074    1.2655393  1010000 
 2807000   0.84395954   -4.1809417   -4.1809417   -2.9150036  0.025156206   -4.1809417    1.2659381  1010000 
 2808000   0.84427912   -4.1816816   -4.1816816   -2.9152642  0.021549695   -4.1816816    1.2664174  1010000 
 2809000   0.84370809   -4.1807479   -4.1807479    -2.915187  0.022356312   -4.1807479    1.2655609  1010000 
 2810000   0.84376975   -4.1811206   -4.1811206   -2.9154672  0.021017201   -4.1811206    1.2656534  1010000 
 2811000   0.84476968   -4.1818582   -4.1818582   -2.9147049  0.019755366   -4.1818582    1.2671533  1010000 
 2812000   0.84379427   -4.1805018   -4.1805018   -2.9148117  0.024383638   -4.1805018    1.2656902  1010000 
 2813000   0.84452513   -4.1817076   -4.1817076   -2.9149211  0.025030174   -4.1817076    1.2667864  1010000 
 2814000   0.84491543   -4.1821473   -4.1821473   -2.9147754  0.022105608   -4.1821473    1.2673719  1010000 
 2815000   0.84460885   -4.1813174   -4.1813174   -2.9144054  0.022883487   -4.1813174     1.266912  1010000 
 2816000   0.84435052    -4.180596    -4.180596   -2.9140715  0.024999816    -4.180596    1.2665245  1010000 
 2817000   0.84491009   -4.1817418   -4.1817418   -2.9143779  0.020455924   -4.1817418    1.2673639  1010000 
 2818000   0.84412444   -4.1808315   -4.1808315   -2.9146461  0.024175773   -4.1808315    1.2661854  1010000 
 2819000   0.84452474    -4.181256    -4.181256   -2.9144702  0.022268115    -4.181256    1.2667858  1010000 
 2820000   0.84457488   -4.1817276   -4.1817276   -2.9148665   0.01876472   -4.1817276    1.2668611  1010000 
 2821000   0.84509323   -4.1824743   -4.1824743   -2.9148357  0.023537634   -4.1824743    1.2676386  1010000 
 2822000    0.8448243   -4.1820357   -4.1820357   -2.9148005  0.023069063   -4.1820357    1.2672352  1010000 
 2823000   0.84460937   -4.1823638   -4.1823638    -2.915451  0.021038197   -4.1823638    1.2669128  1010000 
 2824000   0.84366797   -4.1809868   -4.1809868   -2.9154861  0.025386431   -4.1809868    1.2655007  1010000 
 2825000   0.84354903   -4.1807359   -4.1807359   -2.9154136  0.023010729   -4.1807359    1.2653223  1010000 
 2826000   0.84388764   -4.1807901   -4.1807901   -2.9149599  0.024500685   -4.1807901    1.2658302  1010000 
 2827000   0.84368277   -4.1807077   -4.1807077   -2.9151848  0.023441184   -4.1807077    1.2655229  1010000 
 2828000   0.84379882   -4.1816086   -4.1816086   -2.9159116  0.020776399   -4.1816086     1.265697  1010000 
 2829000   0.84386503   -4.1810268   -4.1810268   -2.9152305  0.022821356   -4.1810268    1.2657963  1010000 
 2830000   0.84390165   -4.1815958   -4.1815958   -2.9157446  0.022526272   -4.1815958    1.2658512  1010000 
 2831000   0.84392533   -4.1808871   -4.1808871   -2.9150004  0.022546556   -4.1808871    1.2658867  1010000 
 2832000   0.84458985   -4.1817185   -4.1817185    -2.914835  0.022460499   -4.1817185    1.2668835  1010000 
 2833000   0.84492604   -4.1819217   -4.1819217   -2.9145339  0.024371681   -4.1819217    1.2673878  1010000 
 2834000   0.84507775   -4.1830254   -4.1830254     -2.91541  0.020124059   -4.1830254    1.2676154  1010000 
 2835000   0.84454107   -4.1818528   -4.1818528   -2.9150425  0.022525617   -4.1818528    1.2668104  1010000 
 2836000   0.84483328   -4.1822422   -4.1822422   -2.9149936  0.024886536   -4.1822422    1.2672487  1010000 
 2837000   0.84419424   -4.1813451   -4.1813451    -2.915055  0.025058066   -4.1813451    1.2662901  1010000 
 2838000   0.84447668   -4.1819409   -4.1819409   -2.9152271  0.026056523   -4.1819409    1.2667138  1010000 
 2839000   0.84482246   -4.1823131   -4.1823131   -2.9150807  0.023545214   -4.1823131    1.2672324  1010000 
 2840000   0.84429873   -4.1820077   -4.1820077   -2.9155608  0.024196474   -4.1820077    1.2664468  1010000 
 2841000   0.84512613   -4.1829785   -4.1829785   -2.9152905  0.020487963   -4.1829785    1.2676879  1010000 
 2842000   0.84506225   -4.1832496   -4.1832496   -2.9156575  0.020339051   -4.1832496    1.2675921  1010000 
 2843000   0.84435883   -4.1820911   -4.1820911   -2.9155541  0.025939656   -4.1820911     1.266537  1010000 
 2844000   0.84484256   -4.1829534   -4.1829534   -2.9156908  0.023238405   -4.1829534    1.2672626  1010000 
 2845000   0.84523713   -4.1829784   -4.1829784   -2.9151239  0.024182631   -4.1829784    1.2678544  1010000 
 2846000   0.84513407   -4.1823666   -4.1823666   -2.9146667  0.023581656   -4.1823666    1.2676998  1010000 
 2847000   0.84454488   -4.1817898   -4.1817898   -2.9149737  0.024464935   -4.1817898    1.2668161  1010000 
 2848000   0.84442772   -4.1821259   -4.1821259   -2.9154856  0.024049097   -4.1821259    1.2666403  1010000 
 2849000   0.84446064   -4.1821499   -4.1821499   -2.9154601  0.026708658   -4.1821499    1.2666897  1010000 
 2850000   0.84578183   -4.1838168   -4.1838168   -2.9151453  0.021221055   -4.1838168    1.2686715  1010000 
 2851000    0.8454234   -4.1832205   -4.1832205   -2.9150867  0.026128332   -4.1832205    1.2681338  1010000 
 2852000   0.84585111   -4.1832898   -4.1832898   -2.9145144   0.02272085   -4.1832898    1.2687754  1010000 
 2853000   0.84454727   -4.1816673   -4.1816673   -2.9148476  0.025824972   -4.1816673    1.2668197  1010000 
 2854000   0.84495697   -4.1823641   -4.1823641   -2.9149299  0.023804204   -4.1823641    1.2674342  1010000 
 2855000   0.84469421   -4.1825566   -4.1825566   -2.9155166  0.023725904   -4.1825566    1.2670401  1010000 
 2856000   0.84489967   -4.1831307   -4.1831307   -2.9157825  0.020861047   -4.1831307    1.2673483  1010000 
 2857000    0.8451531    -4.183247    -4.183247   -2.9155186  0.023189679    -4.183247    1.2677284  1010000 
 2858000   0.84339872   -4.1807081   -4.1807081   -2.9156113  0.028791948   -4.1807081    1.2650968  1010000 
 2859000   0.84455026   -4.1827264   -4.1827264   -2.9159022  0.024849939   -4.1827264    1.2668241  1010000 
 2860000   0.84445179   -4.1824063   -4.1824063   -2.9157299  0.021034113   -4.1824063    1.2666764  1010000 
 2861000   0.84421829   -4.1820587   -4.1820587   -2.9157325  0.023040113   -4.1820587    1.2663262  1010000 
 2862000   0.84479496   -4.1830409   -4.1830409   -2.9158498  0.019133073   -4.1830409    1.2671912  1010000 
 2863000    0.8441088   -4.1822798   -4.1822798   -2.9161178  0.020237227   -4.1822798    1.2661619  1010000 
 2864000    0.8440877   -4.1819777   -4.1819777   -2.9158474  0.021998971   -4.1819777    1.2661303  1010000 
 2865000   0.84391983   -4.1820812   -4.1820812   -2.9162027  0.021858888   -4.1820812    1.2658785  1010000 
 2866000   0.84455931   -4.1825283   -4.1825283   -2.9156906  0.024185892   -4.1825283    1.2668377  1010000 
 2867000   0.84425538    -4.181984    -4.181984   -2.9156022  0.022285188    -4.181984    1.2663818  1010000 
 2868000   0.84395545   -4.1817138   -4.1817138   -2.9157819  0.023499297   -4.1817138    1.2659319  1010000 
 2869000   0.84412229    -4.182599    -4.182599   -2.9164168  0.016973196    -4.182599    1.2661822  1010000 
 2870000   0.84545015   -4.1842199   -4.1842199    -2.916046    0.0154491   -4.1842199     1.268174  1010000 
 2871000   0.84425196   -4.1823309   -4.1823309   -2.9159542  0.018174352   -4.1823309    1.2663767  1010000 
 2872000   0.84506673   -4.1833031   -4.1833031   -2.9157042  0.021612375   -4.1833031    1.2675988  1010000 
 2873000   0.84503338   -4.1831818   -4.1831818    -2.915633  0.024733848   -4.1831818    1.2675488  1010000 
 2874000   0.84530467    -4.183628    -4.183628   -2.9156722   0.02137882    -4.183628    1.2679558  1010000 
 2875000   0.84597148     -4.18416     -4.18416   -2.9152041  0.021648201     -4.18416     1.268956  1010000 
 2876000   0.84587879   -4.1842001   -4.1842001   -2.9153831  0.023720006   -4.1842001    1.2688169  1010000 
 2877000   0.84559249   -4.1832639   -4.1832639   -2.9148764  0.020641544   -4.1832639    1.2683875  1010000 
 2878000   0.84537849    -4.182615    -4.182615   -2.9145485  0.023744959    -4.182615    1.2680665  1010000 
 2879000   0.84531088   -4.1835669   -4.1835669   -2.9156018  0.021601929   -4.1835669    1.2679651  1010000 
 2880000   0.84441542   -4.1821299   -4.1821299    -2.915508  0.025812893   -4.1821299    1.2666219  1010000 
 2881000   0.84489706   -4.1827613   -4.1827613    -2.915417  0.024071105   -4.1827613    1.2673443  1010000 
 2882000   0.84472679   -4.1822971   -4.1822971   -2.9152082  0.023246549   -4.1822971    1.2670889  1010000 
 2883000   0.84554071   -4.1830423   -4.1830423   -2.9147325   0.02262493   -4.1830423    1.2683098  1010000 
 2884000   0.84525782    -4.182305    -4.182305   -2.9144195  0.024110982    -4.182305    1.2678855  1010000 
 2885000   0.84508209   -4.1825184   -4.1825184   -2.9148965  0.021310566   -4.1825184    1.2676219  1010000 
 2886000   0.84507278    -4.181783    -4.181783   -2.9141751   0.02390416    -4.181783    1.2676079  1010000 
 2887000   0.84503294   -4.1812644   -4.1812644   -2.9137163  0.024160714   -4.1812644    1.2675482  1010000 
 2888000   0.84483958   -4.1814859   -4.1814859   -2.9142278  0.026065735   -4.1814859    1.2672581  1010000 
 2889000   0.84471681   -4.1819313   -4.1819313   -2.9148573  0.025212516   -4.1819313     1.267074  1010000 
 2890000   0.84468535     -4.18103     -4.18103   -2.9140032  0.027544901     -4.18103    1.2670268  1010000 
 2891000   0.84521204   -4.1820314   -4.1820314   -2.9142146  0.023384557   -4.1820314    1.2678168  1010000 
 2892000   0.84507233   -4.1816868   -4.1816868   -2.9140795  0.024366309   -4.1816868    1.2676072  1010000 
 2893000   0.84502551   -4.1814089   -4.1814089   -2.9138719  0.024746009   -4.1814089     1.267537  1010000 
 2894000    0.8454409   -4.1815042   -4.1815042   -2.9133441   0.02405261   -4.1815042    1.2681601  1010000 
 2895000    0.8454386   -4.1817213   -4.1817213   -2.9135647  0.021893623   -4.1817213    1.2681566  1010000 
 2896000   0.84555759   -4.1813344   -4.1813344   -2.9129992  0.026935705   -4.1813344    1.2683351  1010000 
 2897000   0.84566204   -4.1814461   -4.1814461   -2.9129543  0.024661635   -4.1814461    1.2684918  1010000 
 2898000    0.8453996   -4.1807192   -4.1807192   -2.9126211  0.027490272   -4.1807192    1.2680981  1010000 
 2899000   0.84571031   -4.1814167   -4.1814167   -2.9128525  0.024736634   -4.1814167    1.2685642  1010000 
 2900000   0.84560775   -4.1811861   -4.1811861   -2.9127757  0.025836233   -4.1811861    1.2684104  1010000 
 2901000   0.84520308   -4.1802755   -4.1802755   -2.9124721  0.023502474   -4.1802755    1.2678034  1010000 
 2902000   0.84489942    -4.180786    -4.180786   -2.9134382  0.021042442    -4.180786    1.2673479  1010000 
 2903000   0.84525902   -4.1812076   -4.1812076   -2.9133203  0.018051538   -4.1812076    1.2678873  1010000 
 2904000   0.84494279   -4.1804321   -4.1804321   -2.9130191  0.021016488   -4.1804321    1.2674129  1010000 
 2905000   0.84425988   -4.1795193   -4.1795193   -2.9131308    0.0209761   -4.1795193    1.2663886  1010000 
 2906000    0.8450641   -4.1797662   -4.1797662   -2.9121713  0.019659733   -4.1797662    1.2675949  1010000 
 2907000   0.84470996   -4.1793917   -4.1793917    -2.912328  0.022783451   -4.1793917    1.2670637  1010000 
 2908000   0.84558116   -4.1802027   -4.1802027   -2.9118322   0.02144736   -4.1802027    1.2683705  1010000 
 2909000   0.84492214   -4.1788904   -4.1788904   -2.9115085  0.022666928   -4.1788904    1.2673819  1010000 
 2910000   0.84547669   -4.1798172   -4.1798172   -2.9116034  0.019277368   -4.1798172    1.2682138  1010000 
 2911000   0.84516074    -4.179483    -4.179483   -2.9117431  0.021709657    -4.179483    1.2677399  1010000 
 2912000     0.844447   -4.1785522   -4.1785522    -2.911883  0.024062596   -4.1785522    1.2666692  1010000 
 2913000   0.84478431   -4.1794268   -4.1794268   -2.9122516  0.022906215   -4.1794268    1.2671752  1010000 
 2914000   0.84394705    -4.178423    -4.178423   -2.9125037  0.022329202    -4.178423    1.2659193  1010000 
 2915000   0.84469529   -4.1795011   -4.1795011   -2.9124594  0.016199329   -4.1795011    1.2670417  1010000 
 2916000   0.84416859   -4.1780773   -4.1780773   -2.9118257  0.021468549   -4.1780773    1.2662516  1010000 
 2917000   0.84433021   -4.1778657   -4.1778657   -2.9113716  0.021071651   -4.1778657    1.2664941  1010000 
 2918000   0.84505843   -4.1788442   -4.1788442   -2.9112578  0.020400245   -4.1788442    1.2675864  1010000 
 2919000   0.84483855   -4.1787339   -4.1787339   -2.9114773  0.019031417   -4.1787339    1.2672566  1010000 
 2920000   0.84422063   -4.1771983   -4.1771983   -2.9108686  0.020830779   -4.1771983    1.2663297  1010000 
 2921000    0.8443602   -4.1776643   -4.1776643   -2.9111253  0.022137149   -4.1776643     1.266539  1010000 
 2922000   0.84455945    -4.177796    -4.177796   -2.9109581   0.01890854    -4.177796    1.2668379  1010000 
 2923000   0.84516482   -4.1788419   -4.1788419    -2.911096  0.018281323   -4.1788419     1.267746  1010000 
 2924000   0.84479153   -4.1781185   -4.1781185   -2.9109324  0.019804002   -4.1781185     1.267186  1010000 
 2925000   0.84469133   -4.1778918   -4.1778918   -2.9108561  0.018448215   -4.1778918    1.2670357  1010000 
 2926000   0.84573224   -4.1788559   -4.1788559   -2.9102588  0.020283436   -4.1788559    1.2685971  1010000 
 2927000   0.84585364   -4.1792237   -4.1792237   -2.9104445  0.020872805   -4.1792237    1.2687792  1010000 
 2928000   0.84492942    -4.177988    -4.177988   -2.9105952  0.023148291    -4.177988    1.2673929  1010000 
 2929000   0.84568888   -4.1790902   -4.1790902   -2.9105581  0.019018248   -4.1790902    1.2685321  1010000 
 2930000   0.84509464    -4.178049    -4.178049   -2.9104083  0.025530796    -4.178049    1.2676407  1010000 
 2931000   0.84516271   -4.1787722   -4.1787722   -2.9110294  0.024594242   -4.1787722    1.2677428  1010000 
 2932000    0.8454971   -4.1788231   -4.1788231   -2.9105787  0.024309634   -4.1788231    1.2682444  1010000 
 2933000   0.84543486    -4.178993    -4.178993    -2.910842  0.021704978    -4.178993     1.268151  1010000 
 2934000   0.84519707   -4.1787098   -4.1787098   -2.9109154  0.022894313   -4.1787098    1.2677944  1010000 
 2935000   0.84482926   -4.1783528   -4.1783528   -2.9111102  0.024185926   -4.1783528    1.2672426  1010000 
 2936000   0.84557709   -4.1795054   -4.1795054    -2.911141  0.019436613   -4.1795054    1.2683644  1010000 
 2937000   0.84586037   -4.1793329   -4.1793329   -2.9105436  0.023750915   -4.1793329    1.2687893  1010000 
 2938000   0.84481188   -4.1778574   -4.1778574   -2.9106409  0.025953176   -4.1778574    1.2672166  1010000 
 2939000   0.84536709   -4.1786251   -4.1786251   -2.9105757  0.021507909   -4.1786251    1.2680494  1010000 
 2940000   0.84525781   -4.1781478   -4.1781478   -2.9102624   0.02128337   -4.1781478    1.2678855  1010000 
 2941000   0.84529413    -4.178643    -4.178643   -2.9107031  0.021819144    -4.178643    1.2679399  1010000 
 2942000   0.84554928    -4.179044    -4.179044   -2.9107213  0.020384806    -4.179044    1.2683227  1010000 
 2943000   0.84477844   -4.1777432   -4.1777432   -2.9105768  0.022328229   -4.1777432    1.2671664  1010000 
 2944000   0.84543808   -4.1790249   -4.1790249   -2.9108691  0.020792494   -4.1790249    1.2681559  1010000 
 2945000    0.8453798   -4.1790304   -4.1790304   -2.9109619  0.022324099   -4.1790304    1.2680684  1010000 
 2946000   0.84541105   -4.1790495   -4.1790495   -2.9109341  0.021553148   -4.1790495    1.2681153  1010000 
 2947000   0.84533012   -4.1790561   -4.1790561   -2.9110622  0.026489251   -4.1790561    1.2679939  1010000 
 2948000   0.84564887   -4.1790026   -4.1790026   -2.9105306  0.026101777   -4.1790026    1.2684721  1010000 
 2949000   0.84604503   -4.1790024   -4.1790024   -2.9099361  0.028760976   -4.1790024    1.2690663  1010000 
 2950000   0.84635113    -4.179728    -4.179728   -2.9102025  0.025401879    -4.179728    1.2695254  1010000 
 2951000   0.84589345   -4.1784972   -4.1784972   -2.9096583  0.023666887   -4.1784972    1.2688389  1010000 
 2952000   0.84700712   -4.1799262   -4.1799262   -2.9094168  0.021421119   -4.1799262    1.2705094  1010000 
 2953000   0.84567118   -4.1780776   -4.1780776    -2.909572  0.029543298   -4.1780776    1.2685055  1010000 
 2954000   0.84675688   -4.1793576   -4.1793576   -2.9092235  0.030467895   -4.1793576    1.2701341  1010000 
 2955000   0.84735352   -4.1795765   -4.1795765   -2.9085475  0.025129347   -4.1795765     1.271029  1010000 
 2956000   0.84665366   -4.1792892   -4.1792892   -2.9093099  0.024742816   -4.1792892    1.2699792  1010000 
 2957000   0.84692548   -4.1795318   -4.1795318   -2.9091449  0.024874213   -4.1795318     1.270387  1010000 
 2958000    0.8461295   -4.1783704   -4.1783704   -2.9091774    0.0259068   -4.1783704     1.269193  1010000 
 2959000   0.84661406   -4.1790599   -4.1790599   -2.9091401   0.02504901   -4.1790599    1.2699198  1010000 
 2960000   0.84627469   -4.1783094   -4.1783094   -2.9088986  0.026651615   -4.1783094    1.2694108  1010000 
 2961000   0.84636449   -4.1781814   -4.1781814   -2.9086359  0.025595115   -4.1781814    1.2695455  1010000 
 2962000   0.84642518   -4.1787793   -4.1787793   -2.9091428  0.025239768   -4.1787793    1.2696365  1010000 
 2963000   0.84604863   -4.1777142   -4.1777142   -2.9086426  0.027199576   -4.1777142    1.2690717  1010000 
 2964000   0.84575091   -4.1775005   -4.1775005   -2.9088754  0.023925606   -4.1775005    1.2686251  1010000 
 2965000   0.84527442   -4.1770082   -4.1770082   -2.9090978  0.021641066   -4.1770082    1.2679104  1010000 
 2966000   0.84499912   -4.1766989   -4.1766989   -2.9092015  0.022744482   -4.1766989    1.2674974  1010000 
 2967000   0.84549696   -4.1771905   -4.1771905   -2.9089463  0.024358233   -4.1771905    1.2682442  1010000 
 2968000   0.84606215   -4.1779854   -4.1779854   -2.9088934  0.020601787   -4.1779854     1.269092  1010000 
 2969000   0.84565753   -4.1774544   -4.1774544   -2.9089694  0.018757861   -4.1774544     1.268485  1010000 
 2970000   0.84547715   -4.1769969   -4.1769969   -2.9087824  0.024035227   -4.1769969    1.2682145  1010000 
 2971000   0.84506505    -4.176513    -4.176513   -2.9089166  0.025337147    -4.176513    1.2675963  1010000 
 2972000   0.84481747   -4.1759106   -4.1759106   -2.9086857  0.023236273   -4.1759106     1.267225  1010000 
 2973000   0.84483224   -4.1768771   -4.1768771     -2.90963  0.019829215   -4.1768771    1.2672471  1010000 
 2974000   0.84536892   -4.1771844   -4.1771844   -2.9091323  0.020390749   -4.1771844    1.2680521  1010000 
 2975000   0.84526148   -4.1769666   -4.1769666   -2.9090757  0.018826463   -4.1769666     1.267891  1010000 
 2976000   0.84479978   -4.1762378   -4.1762378   -2.9090394  0.018137759   -4.1762378    1.2671984  1010000 
 2977000   0.84445831    -4.175552    -4.175552   -2.9088658  0.019122318    -4.175552    1.2666862  1010000 
 2978000   0.84502049   -4.1767849   -4.1767849   -2.9092555  0.017312034   -4.1767849    1.2675295  1010000 
 2979000    0.8455208   -4.1776433   -4.1776433   -2.9093633  0.018068904   -4.1776433    1.2682799  1010000 
 2980000   0.84506536   -4.1771163   -4.1771163   -2.9095195   0.01922953   -4.1771163    1.2675968  1010000 
 2981000   0.84469009   -4.1761117   -4.1761117   -2.9090778  0.021784421   -4.1761117    1.2670339  1010000 
 2982000    0.8451999   -4.1766766   -4.1766766    -2.908878  0.019075765   -4.1766766    1.2677986  1010000 
 2983000   0.84469069   -4.1760156   -4.1760156   -2.9089808  0.016885207   -4.1760156    1.2670348  1010000 
 2984000   0.84542577   -4.1767286   -4.1767286   -2.9085912  0.019162376   -4.1767286    1.2681374  1010000 
 2985000   0.84561346    -4.176876    -4.176876    -2.908457  0.018924649    -4.176876    1.2684189  1010000 
 2986000   0.84351811   -4.1745054   -4.1745054   -2.9092295  0.021188832   -4.1745054    1.2652759  1010000 
 2987000   0.84485032   -4.1759839   -4.1759839   -2.9087097  0.019548013   -4.1759839    1.2672742  1010000 
 2988000   0.84461208   -4.1760093   -4.1760093   -2.9090924  0.016569766   -4.1760093    1.2669169  1010000 
 2989000   0.84446875   -4.1758563   -4.1758563   -2.9091544  0.020327921   -4.1758563    1.2667019  1010000 
 2990000   0.84492879   -4.1759599   -4.1759599    -2.908568   0.02268042   -4.1759599    1.2673919  1010000 
 2991000   0.84581066   -4.1772994   -4.1772994   -2.9085847  0.020051437   -4.1772994    1.2687147  1010000 
 2992000   0.84533088   -4.1772224   -4.1772224   -2.9092273  0.017768925   -4.1772224    1.2679951  1010000 
 2993000   0.84483128   -4.1761756   -4.1761756     -2.90893  0.023467568   -4.1761756    1.2672457  1010000 
 2994000   0.84600722   -4.1777504   -4.1777504   -2.9087408  0.015357571   -4.1777504    1.2690096  1010000 
 2995000   0.84491751   -4.1762599   -4.1762599   -2.9088849  0.020118065   -4.1762599     1.267375  1010000 
 2996000   0.84438138   -4.1756162   -4.1756162   -2.9090454  0.019583421   -4.1756162    1.2665708  1010000 
 2997000   0.84505893   -4.1762627   -4.1762627   -2.9086756  0.022992398   -4.1762627    1.2675871  1010000 
 2998000   0.84540098   -4.1768291   -4.1768291   -2.9087288   0.02262603   -4.1768291    1.2681002  1010000 
 2999000   0.84531954   -4.1767982   -4.1767982   -2.9088201   0.02347913   -4.1767982     1.267978  1010000 
 3000000   0.84606665   -4.1781151   -4.1781151   -2.9090164  0.018954842   -4.1781151    1.2690987  1010000 
 3001000   0.84548068   -4.1767086   -4.1767086   -2.9084888  0.026141666   -4.1767086    1.2682198  1010000 
 3002000   0.84610903   -4.1778827   -4.1778827   -2.9087204   0.02456318   -4.1778827    1.2691623  1010000 
 3003000    0.8465922   -4.1781962   -4.1781962   -2.9083092  0.024108739   -4.1781962     1.269887  1010000 
 3004000   0.84587011   -4.1768002   -4.1768002   -2.9079963  0.027911974   -4.1768002    1.2688039  1010000 
 3005000   0.84576382    -4.176669    -4.176669   -2.9080245  0.026269305    -4.176669    1.2686445  1010000 
 3006000     0.846525   -4.1774502   -4.1774502   -2.9076639  0.025064616   -4.1774502    1.2697862  1010000 
 3007000   0.84643373    -4.177553    -4.177553   -2.9079036  0.027644182    -4.177553    1.2696493  1010000 
 3008000   0.84593221   -4.1774085   -4.1774085   -2.9085114  0.022525959   -4.1774085    1.2688971  1010000 
 3009000   0.84588921   -4.1775147   -4.1775147   -2.9086821  0.023904043   -4.1775147    1.2688326  1010000 
 3010000   0.84675882    -4.178886    -4.178886    -2.908749    0.0250043    -4.178886     1.270137  1010000 
 3011000   0.84654965   -4.1785729   -4.1785729   -2.9087497  0.021507392   -4.1785729    1.2698232  1010000 
 3012000   0.84611798   -4.1771918   -4.1771918   -2.9080161   0.02715229   -4.1771918    1.2691757  1010000 
 3013000   0.84666991   -4.1781309   -4.1781309   -2.9081273  0.029925462   -4.1781309    1.2700036  1010000 
 3014000   0.84684065   -4.1786657   -4.1786657    -2.908406  0.027248075   -4.1786657    1.2702597  1010000 
 3015000   0.84650424    -4.178747    -4.178747   -2.9089919  0.027866687    -4.178747    1.2697551  1010000 
 3016000   0.84630784   -4.1780869   -4.1780869   -2.9086264  0.023222622   -4.1780869    1.2694605  1010000 
 3017000   0.84613996   -4.1781653   -4.1781653   -2.9089566  0.023098054   -4.1781653    1.2692087  1010000 
 3018000   0.84511158   -4.1764961   -4.1764961     -2.90883  0.022375658   -4.1764961    1.2676661  1010000 
 3019000   0.84623287   -4.1777633   -4.1777633   -2.9084152  0.021770065   -4.1777633     1.269348  1010000 
 3020000   0.84561394   -4.1769965   -4.1769965   -2.9085768   0.02458241   -4.1769965    1.2684197  1010000 
 3021000   0.84665264   -4.1781834   -4.1781834   -2.9082056  0.023325116   -4.1781834    1.2699777  1010000 
 3022000   0.84551225    -4.176332    -4.176332   -2.9080649  0.026591459    -4.176332    1.2682671  1010000 
 3023000   0.84649689   -4.1778449   -4.1778449   -2.9081008  0.021053751   -4.1778449    1.2697441  1010000 
 3024000   0.84564911    -4.176611    -4.176611   -2.9081385  0.026934573    -4.176611    1.2684724  1010000 
 3025000   0.84654413   -4.1776459   -4.1776459    -2.907831  0.023825449   -4.1776459    1.2698149  1010000 
 3026000   0.84629564   -4.1778701   -4.1778701   -2.9084278   0.02087881   -4.1778701    1.2694422  1010000 
 3027000   0.84552707   -4.1766786   -4.1766786   -2.9083892  0.026329702   -4.1766786    1.2682893  1010000 
 3028000   0.84542991   -4.1766988   -4.1766988   -2.9085552  0.021834919   -4.1766988    1.2681436  1010000 
 3029000   0.84645373     -4.17797     -4.17797   -2.9082906  0.017601907     -4.17797    1.2696793  1010000 
 3030000    0.8457568   -4.1766747   -4.1766747   -2.9080408  0.020850859   -4.1766747    1.2686339  1010000 
 3031000   0.84625567   -4.1764593   -4.1764593   -2.9070771  0.024171231   -4.1764593    1.2693823  1010000 
 3032000   0.84532674   -4.1752616   -4.1752616   -2.9072727  0.021276653   -4.1752616    1.2679889  1010000 
 3033000   0.84568072   -4.1760004   -4.1760004   -2.9074806  0.021911662   -4.1760004    1.2685198  1010000 
 3034000   0.84610792   -4.1766375   -4.1766375   -2.9074769  0.020147132   -4.1766375    1.2691606  1010000 
 3035000   0.84584741   -4.1761978   -4.1761978    -2.907428  0.019641026   -4.1761978    1.2687699  1010000 
 3036000   0.84529695    -4.175177    -4.175177   -2.9072329  0.025797329    -4.175177    1.2679442  1010000 
 3037000   0.84610208   -4.1758464   -4.1758464   -2.9066945  0.020108201   -4.1758464    1.2691519  1010000 
 3038000   0.84599496    -4.175173    -4.175173   -2.9061818  0.025676666    -4.175173    1.2689912  1010000 
 3039000    0.8459339   -4.1753034   -4.1753034   -2.9064038  0.020524043   -4.1753034    1.2688996  1010000 
 3040000   0.84564961   -4.1746533   -4.1746533   -2.9061801  0.025007835   -4.1746533    1.2684732  1010000 
 3041000   0.84659853   -4.1755122   -4.1755122   -2.9056157   0.02398538   -4.1755122    1.2698965  1010000 
 3042000   0.84660396   -4.1754582   -4.1754582   -2.9055535  0.023197818   -4.1754582    1.2699047  1010000 
 3043000   0.84589498   -4.1747834   -4.1747834   -2.9059422  0.023740753   -4.1747834    1.2688412  1010000 
 3044000      0.84639   -4.1751228   -4.1751228   -2.9055391   0.02594663   -4.1751228    1.2695837  1010000 
 3045000   0.84599094   -4.1742229   -4.1742229   -2.9052378  0.025693341   -4.1742229    1.2689851  1010000 
 3046000   0.84592925   -4.1743395   -4.1743395   -2.9054469  0.023008455   -4.1743395    1.2688926  1010000 
 3047000    0.8458818    -4.174632    -4.174632   -2.9058106  0.020527572    -4.174632    1.2688214  1010000 
 3048000   0.84540548   -4.1743215   -4.1743215   -2.9062145  0.021929063   -4.1743215     1.268107  1010000 
 3049000    0.8456147   -4.1743413   -4.1743413   -2.9059205  0.017671962   -4.1743413    1.2684208  1010000 
 3050000   0.84581587   -4.1741552   -4.1741552   -2.9054327  0.019229868   -4.1741552    1.2687225  1010000 
 3051000   0.84594001   -4.1741671   -4.1741671   -2.9052583  0.021505913   -4.1741671    1.2689088  1010000 
 3052000   0.84638073   -4.1747176   -4.1747176   -2.9051477  0.016848696   -4.1747176    1.2695698  1010000 
 3053000   0.84558432   -4.1734749   -4.1734749   -2.9050997  0.022701846   -4.1734749    1.2683752  1010000 
 3054000   0.84555972   -4.1738154   -4.1738154   -2.9054771  0.020301336   -4.1738154    1.2683383  1010000 
 3055000   0.84600868   -4.1744648   -4.1744648    -2.905453  0.017101703   -4.1744648    1.2690118  1010000 
 3056000    0.8454099   -4.1738038   -4.1738038   -2.9056902  0.016787902   -4.1738038    1.2681136  1010000 
 3057000   0.84496615   -4.1728243   -4.1728243   -2.9053764  0.018393686   -4.1728243     1.267448  1010000 
 3058000   0.84580893   -4.1738851   -4.1738851    -2.905173  0.019355616   -4.1738851    1.2687121  1010000 
 3059000   0.84572747   -4.1734657   -4.1734657   -2.9048758  0.020211161   -4.1734657    1.2685899  1010000 
 3060000   0.84621193   -4.1742762   -4.1742762   -2.9049596  0.023251627   -4.1742762    1.2693166  1010000 
 3061000   0.84646274   -4.1743345   -4.1743345   -2.9046417  0.020344707   -4.1743345    1.2696929  1010000 
 3062000   0.84650004   -4.1738279   -4.1738279   -2.9040791  0.023086923   -4.1738279    1.2697488  1010000 
 3063000   0.84639356   -4.1739764   -4.1739764   -2.9043873  0.022781009   -4.1739764    1.2695891  1010000 
 3064000   0.84622156   -4.1732743   -4.1732743   -2.9039432  0.022704007   -4.1732743    1.2693311  1010000 
 3065000   0.84596925   -4.1734952   -4.1734952   -2.9045426  0.024683703   -4.1734952    1.2689526  1010000 
 3066000    0.8460151   -4.1734824   -4.1734824    -2.904461  0.023644185   -4.1734824    1.2690214  1010000 
 3067000   0.84678319   -4.1747622   -4.1747622   -2.9045887   0.01918357   -4.1747622    1.2701735  1010000 
 3068000    0.8460647   -4.1730743   -4.1730743   -2.9039786  0.023190429   -4.1730743    1.2690958  1010000 
 3069000     0.847142   -4.1742031   -4.1742031   -2.9034913  0.022581414   -4.1742031    1.2707117  1010000 
 3070000   0.84675827   -4.1745146   -4.1745146   -2.9043784  0.023773881   -4.1745146    1.2701361  1010000 
 3071000   0.84636453   -4.1739822   -4.1739822   -2.9044366  0.022113214   -4.1739822    1.2695455  1010000 
 3072000   0.84699497   -4.1747611   -4.1747611   -2.9042699  0.020486834   -4.1747611    1.2704912  1010000 
 3073000   0.84585056   -4.1733867   -4.1733867   -2.9046121  0.021400847   -4.1733867    1.2687746  1010000 
 3074000   0.84560012   -4.1732848   -4.1732848   -2.9048859  0.020242003   -4.1732848    1.2683989  1010000 
 3075000   0.84551996    -4.173547    -4.173547   -2.9052683  0.018650967    -4.173547    1.2682787  1010000 
 3076000    0.8451666   -4.1733235   -4.1733235   -2.9055748  0.020827512   -4.1733235    1.2677486  1010000 
 3077000   0.84598252   -4.1736823   -4.1736823   -2.9047098  0.022122242   -4.1736823    1.2689725  1010000 
 3078000   0.84657319   -4.1748475   -4.1748475   -2.9049889  0.017447728   -4.1748475    1.2698585  1010000 
 3079000   0.84620043   -4.1742279   -4.1742279   -2.9049285  0.022890092   -4.1742279    1.2692994  1010000 
 3080000   0.84617926   -4.1741735   -4.1741735   -2.9049059  0.021002442   -4.1741735    1.2692676  1010000 
 3081000   0.84598432   -4.1742912   -4.1742912    -2.905316  0.023849022   -4.1742912    1.2689752  1010000 
 3082000   0.84680094   -4.1751192   -4.1751192    -2.904919  0.022688969   -4.1751192    1.2702002  1010000 
 3083000   0.84655453   -4.1751035   -4.1751035   -2.9052729  0.022729288   -4.1751035    1.2698305  1010000 
 3084000   0.84693748    -4.175482    -4.175482    -2.905077  0.022968518    -4.175482     1.270405  1010000 
 3085000   0.84627713   -4.1744423   -4.1744423   -2.9050279  0.020549791   -4.1744423    1.2694144  1010000 
 3086000   0.84611575   -4.1745525   -4.1745525   -2.9053802  0.025059676   -4.1745525    1.2691724  1010000 
 3087000   0.84733693   -4.1759832   -4.1759832   -2.9049791  0.021788336   -4.1759832    1.2710041  1010000 
 3088000   0.84700981    -4.175412    -4.175412   -2.9048986  0.022075341    -4.175412    1.2705135  1010000 
 3089000   0.84619352   -4.1746629   -4.1746629   -2.9053739  0.024119205   -4.1746629     1.269289  1010000 
 3090000   0.84700139    -4.176267    -4.176267   -2.9057661  0.024129499    -4.176267    1.2705008  1010000 
 3091000   0.84686947   -4.1756766   -4.1756766   -2.9053736    0.0240933   -4.1756766     1.270303  1010000 
 3092000   0.84574479   -4.1742158   -4.1742158   -2.9055999  0.025285964   -4.1742158    1.2686159  1010000 
 3093000   0.84661815   -4.1752914   -4.1752914   -2.9053654  0.026721079   -4.1752914     1.269926  1010000 
 3094000   0.84703894   -4.1760063   -4.1760063   -2.9054491  0.022241126   -4.1760063    1.2705572  1010000 
 3095000   0.84633455   -4.1748927   -4.1748927   -2.9053922  0.026778741   -4.1748927    1.2695006  1010000 
 3096000   0.84602072   -4.1742578   -4.1742578    -2.905228   0.02355229   -4.1742578    1.2690298  1010000 
 3097000   0.84655949   -4.1754156   -4.1754156   -2.9055777  0.024345842   -4.1754156     1.269838  1010000 
 3098000   0.84710825   -4.1753827   -4.1753827   -2.9047216  0.025734806   -4.1753827    1.2706611  1010000 
 3099000   0.84714609   -4.1754368   -4.1754368   -2.9047189  0.025420165   -4.1754368    1.2707179  1010000 
 3100000    0.8468757   -4.1748263   -4.1748263    -2.904514  0.026114603   -4.1748263    1.2703123  1010000 
 3101000   0.84720231   -4.1747496   -4.1747496   -2.9039474  0.023659409   -4.1747496    1.2708022  1010000 
 3102000   0.84715966   -4.1746391   -4.1746391   -2.9039009  0.022626232   -4.1746391    1.2707382  1010000 
 3103000   0.84702643   -4.1744287   -4.1744287   -2.9038903  0.022819774   -4.1744287    1.2705384  1010000 
 3104000    0.8465357   -4.1732439   -4.1732439   -2.9034416    0.0289143   -4.1732439    1.2698023  1010000 
 3105000   0.84719897   -4.1744773   -4.1744773   -2.9036801  0.022989294   -4.1744773    1.2707972  1010000 
 3106000   0.84749034   -4.1749327   -4.1749327   -2.9036985  0.026281668   -4.1749327    1.2712343  1010000 
 3107000   0.84671385   -4.1740378   -4.1740378   -2.9039683  0.026635596   -4.1740378    1.2700695  1010000 
 3108000   0.84692239   -4.1741992   -4.1741992   -2.9038168  0.023850139   -4.1741992    1.2703823  1010000 
 3109000   0.84654236   -4.1739462   -4.1739462   -2.9041339  0.023118182   -4.1739462    1.2698123  1010000 
 3110000   0.84618617   -4.1734968   -4.1734968   -2.9042188  0.025789235   -4.1734968     1.269278  1010000 
 3111000   0.84653974   -4.1736262   -4.1736262   -2.9038179  0.022911693   -4.1736262    1.2698084  1010000 
 3112000   0.84639258    -4.173396    -4.173396   -2.9038084  0.023624935    -4.173396    1.2695876  1010000 
 3113000   0.84667809   -4.1738179   -4.1738179    -2.903802  0.021467328   -4.1738179    1.2700159  1010000 
 3114000   0.84614046   -4.1725843   -4.1725843   -2.9033749  0.027381978   -4.1725843    1.2692094  1010000 
 3115000   0.84649348   -4.1734713   -4.1734713   -2.9037323  0.021863043   -4.1734713     1.269739  1010000 
 3116000   0.84656689   -4.1733153   -4.1733153   -2.9034663  0.020467148   -4.1733153    1.2698491  1010000 
 3117000   0.84614687   -4.1728096   -4.1728096   -2.9035906  0.023293938   -4.1728096     1.269219  1010000 
 3118000   0.84563754   -4.1718904   -4.1718904   -2.9034354  0.021121868   -4.1718904    1.2684551  1010000 
 3119000   0.84664419   -4.1726521   -4.1726521   -2.9026871  0.023392547   -4.1726521     1.269965  1010000 
 3120000   0.84705033   -4.1734389   -4.1734389   -2.9028647  0.019678764   -4.1734389    1.2705742  1010000 
 3121000   0.84619707   -4.1725067   -4.1725067   -2.9032123  0.021034123   -4.1725067    1.2692943  1010000 
 3122000    0.8462767   -4.1720906   -4.1720906   -2.9026768  0.024869645   -4.1720906    1.2694138  1010000 
 3123000   0.84666104   -4.1723266   -4.1723266   -2.9023363  0.020815007   -4.1723266    1.2699903  1010000 
 3124000   0.84618656    -4.172428    -4.172428   -2.9031495  0.021032885    -4.172428    1.2692786  1010000 
 3125000   0.84603671   -4.1726051   -4.1726051   -2.9035513  0.020133411   -4.1726051    1.2690538  1010000 
 3126000   0.84600297   -4.1727854   -4.1727854   -2.9037822  0.021107555   -4.1727854    1.2690032  1010000 
 3127000    0.8462044    -4.172488    -4.172488   -2.9031827  0.022453332    -4.172488    1.2693053  1010000 
 3128000   0.84562987   -4.1715823   -4.1715823   -2.9031388  0.018247725   -4.1715823    1.2684436  1010000 
 3129000   0.84529385   -4.1707612   -4.1707612   -2.9028217   0.02387142   -4.1707612    1.2679395  1010000 
 3130000   0.84535163   -4.1712319   -4.1712319   -2.9032057  0.020478954   -4.1712319    1.2680262  1010000 
 3131000   0.84674603   -4.1724911   -4.1724911   -2.9023733    0.0167087   -4.1724911    1.2701178  1010000 
 3132000   0.84616946   -4.1714167   -4.1714167   -2.9021638  0.021023961   -4.1714167    1.2692529  1010000 
 3133000   0.84583666   -4.1712185   -4.1712185   -2.9024647  0.020237203   -4.1712185    1.2687537  1010000 
 3134000   0.84610365   -4.1718402   -4.1718402    -2.902686  0.019871715   -4.1718402    1.2691542  1010000 
 3135000   0.84617141   -4.1716724   -4.1716724   -2.9024165  0.018133063   -4.1716724    1.2692559  1010000 
 3136000   0.84567967   -4.1708505   -4.1708505   -2.9023322  0.018502663   -4.1708505    1.2685182  1010000 
 3137000   0.84494707   -4.1695556   -4.1695556   -2.9021362  0.020796131   -4.1695556    1.2674193  1010000 
 3138000   0.84498653   -4.1698286   -4.1698286   -2.9023501  0.020510522   -4.1698286    1.2674785  1010000 
 3139000   0.84624021   -4.1709777   -4.1709777   -2.9016186  0.019123701   -4.1709777    1.2693591  1010000 
 3140000   0.84580417   -4.1702921   -4.1702921   -2.9015871  0.023662071   -4.1702921     1.268705  1010000 
 3141000   0.84738241   -4.1722602   -4.1722602   -2.9011878  0.023444655   -4.1722602    1.2710724  1010000 
 3142000   0.84692773   -4.1712649   -4.1712649   -2.9008746  0.023764536   -4.1712649    1.2703903  1010000 
 3143000   0.84668756    -4.170847    -4.170847    -2.900817  0.026467513    -4.170847    1.2700301  1010000 
 3144000    0.8475315   -4.1711891   -4.1711891   -2.8998931   0.02499326   -4.1711891     1.271296  1010000 
 3145000   0.84731879   -4.1710392   -4.1710392   -2.9000622  0.024701867   -4.1710392    1.2709769  1010000 
 3146000   0.84752396   -4.1718597   -4.1718597    -2.900575  0.024379834   -4.1718597    1.2712847  1010000 
 3147000   0.84725177   -4.1717027   -4.1717027   -2.9008263   0.02277686   -4.1717027    1.2708764  1010000 
 3148000   0.84640936   -4.1703499   -4.1703499   -2.9007371  0.027461002   -4.1703499    1.2696128  1010000 
 3149000   0.84672621   -4.1712644   -4.1712644   -2.9011763  0.025398618   -4.1712644    1.2700881  1010000 
 3150000   0.84651078   -4.1713813   -4.1713813   -2.9016164  0.022311724   -4.1713813    1.2697649  1010000 
 3151000    0.8460559   -4.1703387   -4.1703387   -2.9012561   0.02538814   -4.1703387    1.2690826  1010000 
 3152000   0.84649188   -4.1712018   -4.1712018   -2.9014652  0.024005503   -4.1712018    1.2697366  1010000 
 3153000    0.8466221   -4.1713632   -4.1713632   -2.9014313  0.023023806   -4.1713632    1.2699319  1010000 
 3154000   0.84699142   -4.1716626   -4.1716626   -2.9011767  0.020988399   -4.1716626    1.2704859  1010000 
 3155000   0.84632314   -4.1708711   -4.1708711   -2.9013876  0.024451917   -4.1708711    1.2694835  1010000 
 3156000   0.84570464   -4.1694769   -4.1694769   -2.9009212  0.022840039   -4.1694769    1.2685557  1010000 
 3157000   0.84664176   -4.1708729   -4.1708729   -2.9009115  0.020490322   -4.1708729    1.2699614  1010000 
 3158000   0.84662491   -4.1710926   -4.1710926   -2.9011565  0.019583023   -4.1710926    1.2699361  1010000 
 3159000   0.84586793   -4.1705834   -4.1705834   -2.9017828  0.020143991   -4.1705834    1.2688006  1010000 
 3160000   0.84605131   -4.1701939   -4.1701939   -2.9011182  0.024159326   -4.1701939    1.2690757  1010000 
 3161000    0.8469959   -4.1716972   -4.1716972   -2.9012046  0.021583433   -4.1716972    1.2704926  1010000 
 3162000   0.84751267   -4.1728274   -4.1728274   -2.9015597  0.019214815   -4.1728274    1.2712678  1010000 
 3163000   0.84679818   -4.1716697   -4.1716697   -2.9014737  0.019263324   -4.1716697     1.270196  1010000 
 3164000   0.84643036   -4.1711422   -4.1711422   -2.9014979  0.023697455   -4.1711422    1.2696443  1010000 
 3165000   0.84670286   -4.1716401   -4.1716401    -2.901587   0.02215629   -4.1716401     1.270053  1010000 
 3166000   0.84768407   -4.1727115   -4.1727115   -2.9011866  0.020142571   -4.1727115    1.2715248  1010000 
 3167000   0.84746523   -4.1723701   -4.1723701   -2.9011735  0.022510428   -4.1723701    1.2711966  1010000 
 3168000   0.84682594   -4.1706938   -4.1706938   -2.9004561  0.024680995   -4.1706938    1.2702376  1010000 
 3169000   0.84670218   -4.1709045   -4.1709045   -2.9008525  0.023823179   -4.1709045     1.270052  1010000 
 3170000   0.84625912   -4.1703845   -4.1703845   -2.9009971  0.021887658   -4.1703845    1.2693874  1010000 
 3171000   0.84686524   -4.1708245   -4.1708245   -2.9005279  0.023998349   -4.1708245    1.2702966  1010000 
 3172000   0.84719266   -4.1718556   -4.1718556   -2.9010678  0.021821848   -4.1718556    1.2707877  1010000 
 3173000   0.84711294    -4.171201    -4.171201   -2.9005329  0.020451574    -4.171201    1.2706682  1010000 
 3174000   0.84836124   -4.1732792   -4.1732792   -2.9007386  0.019253441   -4.1732792    1.2725406  1010000 
 3175000   0.84618622    -4.170335    -4.170335   -2.9010569  0.024240282    -4.170335    1.2692781  1010000 
 3176000   0.84660168   -4.1713288   -4.1713288   -2.9014275  0.020804269   -4.1713288    1.2699013  1010000 
 3177000   0.84658613   -4.1715228   -4.1715228   -2.9016448  0.020797219   -4.1715228    1.2698779  1010000 
 3178000   0.84611409    -4.171108    -4.171108   -2.9019381  0.021893761    -4.171108    1.2691699  1010000 
 3179000   0.84649181   -4.1718492   -4.1718492   -2.9021128  0.019009561   -4.1718492    1.2697365  1010000 
 3180000   0.84671639   -4.1718744   -4.1718744    -2.901801   0.01951579   -4.1718744    1.2700733  1010000 
 3181000   0.84637929   -4.1716343   -4.1716343   -2.9020667  0.020047418   -4.1716343    1.2695677  1010000 
 3182000    0.8461818   -4.1713192   -4.1713192   -2.9020478   0.02128961   -4.1713192    1.2692714  1010000 
 3183000    0.8454485   -4.1704689   -4.1704689   -2.9022974  0.022470078   -4.1704689    1.2681715  1010000 
 3184000   0.84596876   -4.1714874   -4.1714874   -2.9025355  0.018373767   -4.1714874    1.2689519  1010000 
 3185000   0.84604182   -4.1710772   -4.1710772   -2.9020157  0.022339981   -4.1710772    1.2690615  1010000 
 3186000   0.84630656   -4.1714717   -4.1714717   -2.9020131  0.019938466   -4.1714717    1.2694586  1010000 
 3187000   0.84666865   -4.1721001   -4.1721001   -2.9020984  0.020873522   -4.1721001    1.2700017  1010000 
 3188000   0.84658165   -4.1722503   -4.1722503   -2.9023791  0.020083512   -4.1722503    1.2698712  1010000 
 3189000   0.84695257   -4.1726098   -4.1726098   -2.9021822  0.020956802   -4.1726098    1.2704276  1010000 
 3190000    0.8472151   -4.1733411   -4.1733411   -2.9025197  0.021655727   -4.1733411    1.2708214  1010000 
 3191000   0.84597627   -4.1715189   -4.1715189   -2.9025558  0.022587764   -4.1715189    1.2689631  1010000 
 3192000   0.84700033   -4.1730027   -4.1730027   -2.9025035  0.020419499   -4.1730027    1.2704992  1010000 
 3193000   0.84620432   -4.1718258   -4.1718258   -2.9025206  0.021696464   -4.1718258    1.2693052  1010000 
 3194000   0.84655568   -4.1719866   -4.1719866   -2.9021544   0.02270915   -4.1719866    1.2698323  1010000 
 3195000   0.84668495   -4.1725363   -4.1725363   -2.9025102  0.025164983   -4.1725363    1.2700262  1010000 
 3196000    0.8471267   -4.1728377   -4.1728377   -2.9021489   0.02057751   -4.1728377    1.2706888  1010000 
 3197000   0.84655231   -4.1713635   -4.1713635   -2.9015363   0.02655163   -4.1713635    1.2698272  1010000 
 3198000   0.84709556   -4.1711676   -4.1711676   -2.9005255  0.024745121   -4.1711676    1.2706421  1010000 
 3199000   0.84765285   -4.1720551   -4.1720551   -2.9005771  0.023027551   -4.1720551     1.271478  1010000 
 3200000   0.84730644   -4.1710066   -4.1710066   -2.9000482   0.02725177   -4.1710066    1.2709584  1010000 
 3201000   0.84705168   -4.1711931   -4.1711931   -2.9006169  0.027905716   -4.1711931    1.2705763  1010000 
 3202000   0.84777395   -4.1721135   -4.1721135   -2.9004538  0.028372779   -4.1721135    1.2716597  1010000 
 3203000   0.84712461   -4.1716139   -4.1716139   -2.9009282   0.02560082   -4.1716139    1.2706857  1010000 
 3204000   0.84876252   -4.1740848   -4.1740848   -2.9009423  0.022460423   -4.1740848    1.2731425  1010000 
 3205000   0.84834208   -4.1733158   -4.1733158   -2.9008039  0.022833271   -4.1733158    1.2725119  1010000 
 3206000    0.8474657   -4.1722592   -4.1722592   -2.9010619   0.02456843   -4.1722592    1.2711973  1010000 
 3207000   0.84682275   -4.1715363   -4.1715363   -2.9013035  0.029697261   -4.1715363    1.2702329  1010000 
 3208000   0.84767944   -4.1729171   -4.1729171   -2.9013992  0.024400682   -4.1729171    1.2715179  1010000 
 3209000   0.84754269   -4.1729049   -4.1729049   -2.9015922  0.025847415   -4.1729049    1.2713128  1010000 
 3210000   0.84738673   -4.1727822   -4.1727822   -2.9017033  0.023828025   -4.1727822    1.2710788  1010000 
 3211000    0.8466754   -4.1719493   -4.1719493   -2.9019375  0.024328567   -4.1719493    1.2700118  1010000 
 3212000   0.84684873   -4.1718733   -4.1718733   -2.9016015  0.022142214   -4.1718733    1.2702718  1010000 
 3213000   0.84673162   -4.1720309   -4.1720309   -2.9019347  0.021373126   -4.1720309    1.2700962  1010000 
 3214000   0.84617213   -4.1711052   -4.1711052   -2.9018482  0.019331745   -4.1711052    1.2692569  1010000 
 3215000   0.84628402   -4.1710635   -4.1710635   -2.9016387   0.02210726   -4.1710635    1.2694248  1010000 
 3216000   0.84635656   -4.1711482   -4.1711482   -2.9016146  0.020141374   -4.1711482    1.2695336  1010000 
 3217000   0.84507808   -4.1692687   -4.1692687   -2.9016528  0.023288556   -4.1692687    1.2676159  1010000 
 3218000   0.84535824   -4.1697415   -4.1697415   -2.9017054   0.02351525   -4.1697415    1.2680361  1010000 
 3219000   0.84575512   -4.1708898   -4.1708898   -2.9022584  0.015350104   -4.1708898    1.2686314  1010000 
 3220000   0.84566375   -4.1701795   -4.1701795   -2.9016851  0.021313539   -4.1701795    1.2684944  1010000 
 3221000   0.84622501   -4.1710105   -4.1710105   -2.9016742  0.018591313   -4.1710105    1.2693363  1010000 
 3222000   0.84607617   -4.1700333   -4.1700333   -2.9009203    0.0201493   -4.1700333     1.269113  1010000 
 3223000   0.84666945   -4.1706891   -4.1706891   -2.9006861  0.021764467   -4.1706891    1.2700029  1010000 
 3224000    0.8463486   -4.1695154   -4.1695154   -2.8999938  0.022333575   -4.1695154    1.2695216  1010000 
 3225000   0.84669374   -4.1698242   -4.1698242   -2.8997848  0.023627563   -4.1698242    1.2700394  1010000 
 3226000   0.84739439   -4.1704494   -4.1704494   -2.8993591  0.021199839   -4.1704494    1.2710903  1010000 
 3227000   0.84710204   -4.1709822   -4.1709822   -2.9003304  0.024452143   -4.1709822    1.2706518  1010000 
 3228000    0.8472162   -4.1715239   -4.1715239   -2.9007008  0.023833657   -4.1715239     1.270823  1010000 
 3229000   0.84692785   -4.1709524   -4.1709524   -2.9005619  0.023669736   -4.1709524    1.2703905  1010000 
 3230000   0.84648649    -4.170068    -4.170068   -2.9003395  0.023006751    -4.170068    1.2697285  1010000 
 3231000   0.84778887   -4.1711429   -4.1711429   -2.8994609   0.02216096   -4.1711429     1.271682  1010000 
 3232000   0.84671541   -4.1697277   -4.1697277   -2.8996559  0.023667523   -4.1697277    1.2700719  1010000 
 3233000   0.84803389   -4.1710379   -4.1710379   -2.8989883  0.019487837   -4.1710379    1.2720496  1010000 
 3234000   0.84788312   -4.1708115   -4.1708115   -2.8989881  0.023503609   -4.1708115    1.2718234  1010000 
 3235000   0.84699611    -4.170067    -4.170067   -2.8995741  0.021754799    -4.170067    1.2704929  1010000 
 3236000   0.84675323   -4.1690551   -4.1690551   -2.8989265  0.023739488   -4.1690551    1.2701286  1010000 
 3237000   0.84662935    -4.169034    -4.169034   -2.8990913  0.024412882    -4.169034    1.2699428  1010000 
 3238000    0.8465154   -4.1689685   -4.1689685   -2.8991967   0.02380547   -4.1689685    1.2697718  1010000 
 3239000   0.84700207   -4.1699477   -4.1699477   -2.8994458   0.01809602   -4.1699477    1.2705018  1010000 
 3240000   0.84749012    -4.170905    -4.170905   -2.8996711  0.019537039    -4.170905    1.2712339  1010000 
 3241000   0.84730448   -4.1706289   -4.1706289   -2.8996735  0.019032119   -4.1706289    1.2709555  1010000 
 3242000   0.84700946   -4.1699416   -4.1699416   -2.8994286  0.020209145   -4.1699416    1.2705129  1010000 
 3243000   0.84673446   -4.1699003   -4.1699003   -2.8997999  0.019637016   -4.1699003    1.2701004  1010000 
 3244000   0.84635501   -4.1696869   -4.1696869   -2.9001556  0.022314202   -4.1696869    1.2695313  1010000 
 3245000    0.8466266   -4.1704609   -4.1704609   -2.9005222  0.018386646   -4.1704609    1.2699386  1010000 
 3246000     0.846761   -4.1704354   -4.1704354   -2.9002952  0.020124964   -4.1704354    1.2701402  1010000 
 3247000    0.8473195   -4.1709659   -4.1709659    -2.899988  0.017081625   -4.1709659     1.270978  1010000 
 3248000   0.84744526   -4.1711896   -4.1711896    -2.900023  0.020436095   -4.1711896    1.2711666  1010000 
 3249000   0.84804728   -4.1720226   -4.1720226   -2.8999529  0.019464879   -4.1720226    1.2720697  1010000 
 3250000   0.84694135   -4.1705932   -4.1705932   -2.9001824  0.018499062   -4.1705932    1.2704108  1010000 
 3251000    0.8471655   -4.1704259   -4.1704259   -2.8996789  0.022940649   -4.1704259     1.270747  1010000 
 3252000   0.84670731    -4.169082    -4.169082   -2.8990223  0.024069926    -4.169082    1.2700597  1010000 
 3253000   0.84657295   -4.1690879   -4.1690879   -2.8992297  0.021825216   -4.1690879    1.2698582  1010000 
 3254000   0.84755613   -4.1708176   -4.1708176   -2.8994846  0.023396922   -4.1708176    1.2713329  1010000 
 3255000   0.84762712   -4.1710313   -4.1710313   -2.8995919  0.020742408   -4.1710313    1.2714394  1010000 
 3256000   0.84707043   -4.1699151   -4.1699151   -2.8993107  0.023333197   -4.1699151    1.2706044  1010000 
 3257000   0.84731472   -4.1700727   -4.1700727   -2.8991018  0.022626457   -4.1700727    1.2709708  1010000 
 3258000   0.84914823   -4.1723233   -4.1723233   -2.8986022  0.017642106   -4.1723233    1.2737211  1010000 
 3259000   0.84838333   -4.1712237   -4.1712237     -2.89865   0.02276263   -4.1712237    1.2725737  1010000 
 3260000   0.84754264   -4.1697118   -4.1697118   -2.8983991  0.024730241   -4.1697118    1.2713127  1010000 
 3261000   0.84731745   -4.1696452   -4.1696452   -2.8986703   0.02689946   -4.1696452    1.2709749  1010000 
 3262000   0.84816734   -4.1705397   -4.1705397     -2.89829  0.024638837   -4.1705397    1.2722497  1010000 
 3263000   0.84736044   -4.1693159   -4.1693159   -2.8982765  0.027167698   -4.1693159    1.2710394  1010000 
 3264000   0.84897913   -4.1712671   -4.1712671   -2.8977997  0.024262091   -4.1712671    1.2734674  1010000 
 3265000   0.84922518   -4.1718874   -4.1718874   -2.8980509  0.021116251   -4.1718874    1.2738365  1010000 
 3266000   0.84740745   -4.1695498   -4.1695498   -2.8984399  0.024985988   -4.1695498    1.2711099  1010000 
 3267000   0.84805065   -4.1699404   -4.1699404   -2.8978657  0.027076521   -4.1699404    1.2720747  1010000 
 3268000    0.8478868   -4.1695837   -4.1695837   -2.8977548  0.028639239   -4.1695837    1.2718289  1010000 
 3269000   0.84783169   -4.1698133   -4.1698133   -2.8980671  0.025886855   -4.1698133    1.2717463  1010000 
 3270000   0.84813138   -4.1703935   -4.1703935   -2.8981977  0.022182534   -4.1703935    1.2721958  1010000 
 3271000   0.84761172   -4.1692018   -4.1692018   -2.8977855  0.022570588   -4.1692018    1.2714163  1010000 
 3272000   0.84763773   -4.1691454   -4.1691454   -2.8976901   0.02244654   -4.1691454    1.2714553  1010000 
 3273000   0.84758505    -4.169497    -4.169497   -2.8981206  0.023855919    -4.169497    1.2713763  1010000 
 3274000   0.84779315   -4.1694341   -4.1694341   -2.8977457  0.025153554   -4.1694341    1.2716885  1010000 
 3275000   0.84739943   -4.1683607   -4.1683607   -2.8972628  0.024904113   -4.1683607    1.2710979  1010000 
 3276000   0.84762505   -4.1689015   -4.1689015   -2.8974652  0.022265454   -4.1689015    1.2714363  1010000 
 3277000   0.84747113   -4.1684348   -4.1684348   -2.8972294  0.023037675   -4.1684348    1.2712054  1010000 
 3278000   0.84737007   -4.1681542   -4.1681542   -2.8971004  0.022727299   -4.1681542    1.2710538  1010000 
 3279000   0.84699994   -4.1678214   -4.1678214   -2.8973227  0.024578362   -4.1678214    1.2704987  1010000 
 3280000   0.84780075   -4.1686395   -4.1686395   -2.8969397  0.021865498   -4.1686395    1.2716999  1010000 
 3281000   0.84721541   -4.1671358   -4.1671358    -2.896314  0.020368803   -4.1671358    1.2708219  1010000 
 3282000   0.84640356   -4.1664969   -4.1664969   -2.8968928  0.023086321   -4.1664969    1.2696041  1010000 
 3283000   0.84780416   -4.1686485   -4.1686485   -2.8969436  0.019182919   -4.1686485     1.271705  1010000 
 3284000   0.84778385   -4.1682187   -4.1682187   -2.8965442   0.02193394   -4.1682187    1.2716745  1010000 
 3285000   0.84776045   -4.1679747   -4.1679747   -2.8963353  0.019022832   -4.1679747    1.2716394  1010000 
 3286000   0.84717522   -4.1669438   -4.1669438   -2.8961822  0.021896601   -4.1669438    1.2707616  1010000 
 3287000   0.84729971    -4.166896    -4.166896   -2.8959477  0.023587348    -4.166896    1.2709483  1010000 
 3288000   0.84803926   -4.1675939   -4.1675939   -2.8955363  0.017649817   -4.1675939    1.2720576  1010000 
 3289000   0.84781451   -4.1672402   -4.1672402   -2.8955197  0.024123253   -4.1672402    1.2717205  1010000 
 3290000    0.8471151   -4.1664638   -4.1664638   -2.8957924  0.021852094   -4.1664638    1.2706714  1010000 
 3291000   0.84705789   -4.1659847   -4.1659847   -2.8953991  0.019998672   -4.1659847    1.2705856  1010000 
 3292000   0.84674838   -4.1653285   -4.1653285   -2.8952071  0.021279662   -4.1653285    1.2701213  1010000 
 3293000    0.8476102   -4.1661867   -4.1661867   -2.8947727  0.017543988   -4.1661867     1.271414  1010000 
 3294000   0.84695853   -4.1654134   -4.1654134   -2.8949769  0.018493189   -4.1654134    1.2704365  1010000 
 3295000   0.84642524   -4.1641782   -4.1641782   -2.8945416  0.020972043   -4.1641782    1.2696366  1010000 
 3296000   0.84644458   -4.1647771   -4.1647771   -2.8951114  0.019129784   -4.1647771    1.2696656  1010000 
 3297000   0.84720742   -4.1657693   -4.1657693   -2.8949594  0.018127491   -4.1657693    1.2708099  1010000 
 3298000   0.84735317   -4.1661054   -4.1661054   -2.8950769  0.020670795   -4.1661054    1.2710285  1010000 
 3299000   0.84700063   -4.1653156   -4.1653156   -2.8948159  0.017924256   -4.1653156    1.2704997  1010000 
 3300000   0.84677281   -4.1650447   -4.1650447   -2.8948868  0.018967199   -4.1650447     1.270158  1010000 
 3301000   0.84684512   -4.1657371   -4.1657371   -2.8954706   0.01955932   -4.1657371    1.2702664  1010000 
 3302000   0.84708701   -4.1656083   -4.1656083    -2.894979  0.020252785   -4.1656083    1.2706293  1010000 
 3303000   0.84711135   -4.1659214   -4.1659214   -2.8952556  0.018269515   -4.1659214    1.2706658  1010000 
 3304000   0.84694403   -4.1655912   -4.1655912   -2.8951764   0.01924662   -4.1655912    1.2704148  1010000 
 3305000   0.84605494    -4.164242    -4.164242   -2.8951609  0.024776644    -4.164242    1.2690811  1010000 
 3306000   0.84718647   -4.1659196   -4.1659196   -2.8951412  0.020539275   -4.1659196    1.2707784  1010000 
 3307000   0.84655798   -4.1649139   -4.1649139   -2.8950782  0.021894027   -4.1649139    1.2698357  1010000 
 3308000   0.84698839   -4.1656137   -4.1656137   -2.8951324  0.021767406   -4.1656137    1.2704813  1010000 
 3309000   0.84789298   -4.1666343   -4.1666343   -2.8947961  0.019500721   -4.1666343    1.2718382  1010000 
 3310000   0.84773988   -4.1661252   -4.1661252   -2.8945166  0.020447699   -4.1661252    1.2716086  1010000 
 3311000   0.84805702   -4.1665448   -4.1665448   -2.8944605   0.01998218   -4.1665448    1.2720843  1010000 
 3312000   0.84744474   -4.1652734   -4.1652734   -2.8941075  0.025396511   -4.1652734    1.2711658  1010000 
 3313000   0.84877216   -4.1670995   -4.1670995   -2.8939425  0.020295919   -4.1670995     1.273157  1010000 
 3314000   0.84815345   -4.1667541   -4.1667541   -2.8945252  0.020932503   -4.1667541    1.2722289  1010000 
 3315000   0.84753787   -4.1659457   -4.1659457   -2.8946401  0.023620627   -4.1659457    1.2713055  1010000 
 3316000   0.84796656   -4.1664634   -4.1664634   -2.8945148    0.0221823   -4.1664634    1.2719486  1010000 
 3317000    0.8476076   -4.1658833   -4.1658833   -2.8944732  0.022930623   -4.1658833    1.2714101  1010000 
 3318000    0.8483213   -4.1671197   -4.1671197    -2.894639  0.024343912   -4.1671197    1.2724807  1010000 
 3319000   0.84827782   -4.1671904   -4.1671904   -2.8947749  0.024935412   -4.1671904    1.2724155  1010000 
 3320000   0.84799658   -4.1674544   -4.1674544   -2.8954608  0.026013279   -4.1674544    1.2719936  1010000 
 3321000   0.84810742   -4.1674345   -4.1674345   -2.8952746  0.024430879   -4.1674345    1.2721599  1010000 
 3322000    0.8483244   -4.1683753   -4.1683753     -2.89589  0.024967953   -4.1683753    1.2724853  1010000 
 3323000   0.84845474   -4.1682938   -4.1682938    -2.895613  0.025275379   -4.1682938    1.2726809  1010000 
 3324000   0.84879572   -4.1687465   -4.1687465   -2.8955542  0.024508796   -4.1687465    1.2731923  1010000 
 3325000   0.84838132    -4.168165    -4.168165   -2.8955943  0.023827349    -4.168165    1.2725707  1010000 
 3326000   0.84842824   -4.1679348   -4.1679348   -2.8952937  0.022871213   -4.1679348    1.2726411  1010000 
 3327000   0.84838692   -4.1681637   -4.1681637   -2.8955846  0.025079495   -4.1681637    1.2725791  1010000 
 3328000   0.84801361   -4.1683426   -4.1683426   -2.8963234  0.025078375   -4.1683426    1.2720192  1010000 
 3329000   0.84800623   -4.1679944   -4.1679944   -2.8959863  0.024088285   -4.1679944    1.2720081  1010000 
 3330000   0.84802501   -4.1684156   -4.1684156   -2.8963794  0.024016592   -4.1684156    1.2720363  1010000 
 3331000   0.84827236   -4.1688051   -4.1688051   -2.8963979  0.020278233   -4.1688051    1.2724073  1010000 
 3332000   0.84837054   -4.1688252   -4.1688252   -2.8962707  0.024737241   -4.1688252    1.2725545  1010000 
 3333000   0.84876597   -4.1687999   -4.1687999   -2.8956522  0.024867175   -4.1687999    1.2731477  1010000 
 3334000   0.84812659   -4.1684164   -4.1684164   -2.8962278  0.026245808   -4.1684164    1.2721886  1010000 
 3335000    0.8489119   -4.1694448   -4.1694448   -2.8960782  0.023069472   -4.1694448    1.2733666  1010000 
 3336000   0.84817989   -4.1684809   -4.1684809   -2.8962123  0.022275433   -4.1684809    1.2722686  1010000 
 3337000   0.84852595   -4.1688145   -4.1688145   -2.8960268  0.026220624   -4.1688145    1.2727877  1010000 
 3338000   0.84947766   -4.1702824   -4.1702824   -2.8960672  0.022084745   -4.1702824    1.2742152  1010000 
 3339000   0.84807872   -4.1685764   -4.1685764   -2.8964596  0.023904866   -4.1685764    1.2721168  1010000 
 3340000   0.84831383   -4.1686779   -4.1686779   -2.8962084   0.02480007   -4.1686779    1.2724695  1010000 
 3341000   0.84842149   -4.1690549   -4.1690549   -2.8964239  0.023092454   -4.1690549     1.272631  1010000 
 3342000     0.847426   -4.1674831   -4.1674831   -2.8963453  0.025027426   -4.1674831    1.2711377  1010000 
 3343000   0.84862327   -4.1689448   -4.1689448   -2.8960111  0.024975872   -4.1689448    1.2729336  1010000 
 3344000   0.84801162   -4.1675117   -4.1675117   -2.8954955  0.025506986   -4.1675117    1.2720162  1010000 
 3345000   0.84929273   -4.1695718   -4.1695718   -2.8956339   0.01842474   -4.1695718    1.2739378  1010000 
 3346000   0.84840799   -4.1680037   -4.1680037    -2.895393  0.027242705   -4.1680037    1.2726107  1010000 
 3347000   0.84850491   -4.1678459   -4.1678459   -2.8950898  0.025074661   -4.1678459    1.2727561  1010000 
 3348000    0.8483038   -4.1672372   -4.1672372   -2.8947828  0.025500538   -4.1672372    1.2724544  1010000 
 3349000   0.84893324   -4.1686278   -4.1686278   -2.8952292  0.022641139   -4.1686278    1.2733986  1010000 
 3350000   0.84813469   -4.1669438   -4.1669438   -2.8947431  0.025599198   -4.1669438    1.2722008  1010000 
 3351000   0.84791863   -4.1666221   -4.1666221   -2.8947454  0.024160043   -4.1666221    1.2718767  1010000 
 3352000   0.84858309   -4.1672829   -4.1672829   -2.8944095  0.023649398   -4.1672829    1.2728734  1010000 
 3353000   0.84817944   -4.1669975   -4.1669975   -2.8947296  0.019774296   -4.1669975    1.2722679  1010000 
 3354000   0.84828776   -4.1674801   -4.1674801   -2.8950497  0.017420465   -4.1674801    1.2724304  1010000 
 3355000    0.8481063   -4.1667134   -4.1667134   -2.8945552  0.021737048   -4.1667134    1.2721582  1010000 
 3356000   0.84809056   -4.1663349   -4.1663349   -2.8942003  0.021721634   -4.1663349    1.2721346  1010000 
 3357000   0.84860986   -4.1672735   -4.1672735     -2.89436  0.019709623   -4.1672735    1.2729135  1010000 
 3358000    0.8488346   -4.1670916   -4.1670916    -2.893841  0.023832218   -4.1670916    1.2732506  1010000 
 3359000   0.84806408   -4.1659144   -4.1659144   -2.8938195  0.025483025   -4.1659144    1.2720949  1010000 
 3360000   0.84798764   -4.1654203   -4.1654203   -2.8934401  0.026278953   -4.1654203    1.2719802  1010000 
 3361000   0.84858408   -4.1663593   -4.1663593   -2.8934845  0.022501222   -4.1663593    1.2728749  1010000 
 3362000   0.84728316   -4.1646541   -4.1646541   -2.8937306  0.025326309   -4.1646541    1.2709235  1010000 
 3363000   0.84836023   -4.1659462   -4.1659462   -2.8934072   0.01852671   -4.1659462    1.2725391  1010000 
 3364000   0.84791565   -4.1646209   -4.1646209   -2.8927487  0.022406252   -4.1646209    1.2718722  1010000 
 3365000   0.84753501   -4.1645218   -4.1645218   -2.8932205  0.022916552   -4.1645218    1.2713013  1010000 
 3366000   0.84858138   -4.1652553   -4.1652553   -2.8923845  0.024332203   -4.1652553    1.2728708  1010000 
 3367000    0.8482895   -4.1650031   -4.1650031   -2.8925701  0.018374498   -4.1650031     1.272433  1010000 
 3368000   0.84767451   -4.1641787   -4.1641787   -2.8926682  0.019006817   -4.1641787    1.2715105  1010000 
 3369000   0.84813029    -4.164891    -4.164891   -2.8926968  0.019431653    -4.164891    1.2721942  1010000 
 3370000   0.84751247   -4.1634972   -4.1634972   -2.8922297  0.022578579   -4.1634972    1.2712674  1010000 
 3371000   0.84839682   -4.1645964   -4.1645964   -2.8920024  0.018930813   -4.1645964     1.272594  1010000 
 3372000   0.84832443   -4.1652868   -4.1652868   -2.8928014  0.016942012   -4.1652868    1.2724854  1010000 
 3373000   0.84813315   -4.1646283   -4.1646283   -2.8924299  0.017515604   -4.1646283    1.2721985  1010000 
 3374000   0.84766603   -4.1640612   -4.1640612   -2.8925634  0.021157899   -4.1640612    1.2714978  1010000 
 3375000   0.84707846   -4.1629549   -4.1629549   -2.8923385  0.021925306   -4.1629549    1.2706164  1010000 
 3376000   0.84795511    -4.164152    -4.164152   -2.8922206  0.017911929    -4.164152    1.2719314  1010000 
 3377000   0.84810986   -4.1640323   -4.1640323   -2.8918687  0.016557598   -4.1640323    1.2721635  1010000 
 3378000   0.84762057   -4.1634431   -4.1634431   -2.8920135  0.019179782   -4.1634431    1.2714296  1010000 
 3379000   0.84772611    -4.163181    -4.163181   -2.8915931  0.019706733    -4.163181    1.2715879  1010000 
 3380000   0.84747135   -4.1622787   -4.1622787   -2.8910729  0.016507082   -4.1622787    1.2712058  1010000 
 3381000   0.84687598   -4.1615466   -4.1615466   -2.8912339   0.02186172   -4.1615466    1.2703127  1010000 
 3382000    0.8471278    -4.162583    -4.162583   -2.8918926  0.021446248    -4.162583    1.2706904  1010000 
 3383000   0.84831216   -4.1636886   -4.1636886   -2.8912216  0.019282439   -4.1636886     1.272467  1010000 
 3384000    0.8480803   -4.1633453   -4.1633453   -2.8912261  0.021873934   -4.1633453    1.2721192  1010000 
 3385000   0.84751503   -4.1625752   -4.1625752   -2.8913039  0.017554802   -4.1625752    1.2712713  1010000 
 3386000   0.84822184   -4.1631288   -4.1631288   -2.8907973  0.021656085   -4.1631288    1.2723315  1010000 
 3387000   0.84824861   -4.1638787   -4.1638787    -2.891507  0.016994684   -4.1638787    1.2723717  1010000 
 3388000   0.84837901   -4.1637963   -4.1637963   -2.8912291  0.020035251   -4.1637963    1.2725673  1010000 
 3389000   0.84816745   -4.1634405   -4.1634405   -2.8911906  0.021450761   -4.1634405    1.2722499  1010000 
 3390000   0.84833642   -4.1641272   -4.1641272   -2.8916238  0.016128753   -4.1641272    1.2725034  1010000 
 3391000   0.84771281   -4.1637219   -4.1637219    -2.892154  0.019598904   -4.1637219     1.271568  1010000 
 3392000   0.84837258   -4.1644245   -4.1644245   -2.8918669  0.014372878   -4.1644245    1.2725576  1010000 
 3393000   0.84804647   -4.1633086   -4.1633086   -2.8912401  0.021902852   -4.1633086    1.2720684  1010000 
 3394000   0.84777263   -4.1632174   -4.1632174   -2.8915597  0.025964649   -4.1632174    1.2716577  1010000 
 3395000    0.8482453   -4.1636774   -4.1636774   -2.8913107  0.022095982   -4.1636774    1.2723667  1010000 
 3396000   0.84862928   -4.1642961   -4.1642961   -2.8913534  0.020373984   -4.1642961    1.2729427  1010000 
 3397000   0.84898776   -4.1647191   -4.1647191   -2.8912387   0.01889325   -4.1647191    1.2734804  1010000 
 3398000   0.84830837   -4.1634266   -4.1634266   -2.8909653  0.023890743   -4.1634266    1.2724613  1010000 
 3399000   0.84917521   -4.1645527   -4.1645527   -2.8907911  0.022450054   -4.1645527    1.2737616  1010000 
 3400000   0.84954224   -4.1650457   -4.1650457   -2.8907336   0.02548581   -4.1650457    1.2743121  1010000 
 3401000   0.84994414   -4.1652762   -4.1652762   -2.8903612  0.022431696   -4.1652762     1.274915  1010000 
 3402000   0.84931542   -4.1646537   -4.1646537   -2.8906818  0.023410924   -4.1646537    1.2739719  1010000 
 3403000   0.84861638   -4.1643453   -4.1643453    -2.891422   0.02650745   -4.1643453    1.2729233  1010000 
 3404000   0.84861029   -4.1639588   -4.1639588   -2.8910446  0.024735482   -4.1639588    1.2729142  1010000 
 3405000   0.84902176   -4.1646373   -4.1646373   -2.8911059   0.02495807   -4.1646373    1.2735314  1010000 
 3406000    0.8484834    -4.163476    -4.163476   -2.8907522  0.026855127    -4.163476    1.2727238  1010000 
 3407000   0.85044476   -4.1657447   -4.1657447   -2.8900788  0.024442665   -4.1657447    1.2756659  1010000 
 3408000   0.85066138   -4.1662036   -4.1662036   -2.8902128  0.024546371   -4.1662036    1.2759908  1010000 
 3409000   0.84885225   -4.1635686   -4.1635686   -2.8902915  0.027427256   -4.1635686    1.2732771  1010000 
 3410000   0.84982416   -4.1651991   -4.1651991   -2.8904641  0.023795852   -4.1651991     1.274735  1010000 
 3411000   0.85037573   -4.1662462   -4.1662462   -2.8906838  0.021794712   -4.1662462    1.2755623  1010000 
 3412000   0.84938967   -4.1646035   -4.1646035   -2.8905203  0.024074309   -4.1646035    1.2740832  1010000 
 3413000   0.84944217   -4.1648997   -4.1648997   -2.8907377  0.025605469   -4.1648997     1.274162  1010000 
 3414000   0.84981363   -4.1650197   -4.1650197   -2.8903005  0.023624221   -4.1650197    1.2747192  1010000 
 3415000   0.84878435   -4.1639638   -4.1639638   -2.8907886  0.023407772   -4.1639638    1.2731753  1010000 
 3416000   0.84804499   -4.1632385   -4.1632385   -2.8911723  0.024165024   -4.1632385    1.2720662  1010000 
 3417000   0.84816672   -4.1632861   -4.1632861   -2.8910372  0.024743941   -4.1632861    1.2722488  1010000 
 3418000   0.84822488   -4.1631725   -4.1631725   -2.8908365  0.023400179   -4.1631725    1.2723361  1010000 
 3419000   0.84839664   -4.1631792   -4.1631792   -2.8905855  0.025321514   -4.1631792    1.2725937  1010000 
 3420000   0.84904044   -4.1638386   -4.1638386   -2.8902792  0.024494375   -4.1638386    1.2735594  1010000 
 3421000   0.84896116   -4.1645378   -4.1645378   -2.8910974  0.020943081   -4.1645378    1.2734405  1010000 
 3422000   0.84784164    -4.162658    -4.162658   -2.8908968  0.025906922    -4.162658    1.2717612  1010000 
 3423000   0.84824901   -4.1627209   -4.1627209   -2.8903487  0.025146415   -4.1627209    1.2723723  1010000 
 3424000   0.84896516   -4.1634906   -4.1634906   -2.8900441  0.022580702   -4.1634906    1.2734465  1010000 
 3425000   0.84884548    -4.163562    -4.163562    -2.890295  0.024001704    -4.163562     1.273267  1010000 
 3426000   0.84955452   -4.1637996   -4.1637996   -2.8894691  0.023294897   -4.1637996    1.2743305  1010000 
 3427000   0.84948393   -4.1637511   -4.1637511   -2.8895265  0.021412724   -4.1637511    1.2742246  1010000 
 3428000   0.84897813   -4.1626454   -4.1626454   -2.8891795  0.021983949   -4.1626454    1.2734659  1010000 
 3429000   0.84978537   -4.1634336   -4.1634336   -2.8887568  0.020832482   -4.1634336    1.2746768  1010000 
 3430000   0.84907135   -4.1623073   -4.1623073   -2.8887015  0.022757431   -4.1623073    1.2736058  1010000 
 3431000   0.84856789   -4.1618668   -4.1618668   -2.8890162  0.023744483   -4.1618668    1.2728506  1010000 
 3432000   0.84919219   -4.1621609   -4.1621609   -2.8883739  0.022314115   -4.1621609     1.273787  1010000 
 3433000   0.84924955   -4.1626302   -4.1626302   -2.8887571  0.021838534   -4.1626302    1.2738731  1010000 
 3434000   0.84861059   -4.1622463   -4.1622463   -2.8893317  0.022600743   -4.1622463    1.2729146  1010000 
 3435000   0.84926283   -4.1632415   -4.1632415   -2.8893486  0.019096488   -4.1632415     1.273893  1010000 
 3436000     0.848709   -4.1619848   -4.1619848   -2.8889226  0.019767772   -4.1619848    1.2730622  1010000 
 3437000   0.84902317   -4.1622292   -4.1622292   -2.8886957  0.021057703   -4.1622292    1.2735335  1010000 
 3438000   0.84847108   -4.1612207   -4.1612207   -2.8885153  0.022929575   -4.1612207    1.2727054  1010000 
 3439000   0.84890445   -4.1617188   -4.1617188   -2.8883634  0.019256956   -4.1617188    1.2733554  1010000 
 3440000    0.8484818   -4.1612712   -4.1612712   -2.8885498  0.020981525   -4.1612712    1.2727214  1010000 
 3441000   0.84881624   -4.1619388   -4.1619388   -2.8887157  0.018331172   -4.1619388    1.2732231  1010000 
 3442000   0.84779291   -4.1604608   -4.1604608   -2.8887727  0.023607138   -4.1604608    1.2716881  1010000 
 3443000   0.84833814   -4.1612264   -4.1612264   -2.8887204  0.020339632   -4.1612264    1.2725059  1010000 
 3444000   0.84882354   -4.1617974   -4.1617974   -2.8885633  0.016143383   -4.1617974    1.2732341  1010000 
 3445000   0.84843387   -4.1613787   -4.1613787   -2.8887292  0.020503687   -4.1613787    1.2726496  1010000 
 3446000   0.84759102   -4.1599827   -4.1599827   -2.8885975  0.018675853   -4.1599827    1.2713853  1010000 
 3447000    0.8481601   -4.1616475   -4.1616475   -2.8894086  0.016428013   -4.1616475    1.2722389  1010000 
 3448000    0.8478285    -4.161148    -4.161148   -2.8894066  0.021225102    -4.161148    1.2717415  1010000 
 3449000    0.8478218   -4.1615217   -4.1615217   -2.8897902  0.017693232   -4.1615217    1.2717314  1010000 
 3450000   0.84721432   -4.1610747   -4.1610747   -2.8902545  0.018873353   -4.1610747    1.2708202  1010000 
 3451000   0.84779551   -4.1619842   -4.1619842   -2.8902922  0.016284734   -4.1619842     1.271692  1010000 
 3452000   0.84776868   -4.1615438   -4.1615438   -2.8898921  0.018252989   -4.1615438    1.2716518  1010000 
 3453000   0.84896537   -4.1625836   -4.1625836   -2.8891368  0.017204346   -4.1625836    1.2734468  1010000 
 3454000    0.8485693   -4.1617648   -4.1617648   -2.8889121  0.019281266   -4.1617648    1.2728527  1010000 
 3455000    0.8496353   -4.1629499   -4.1629499   -2.8884982  0.018628087   -4.1629499    1.2744517  1010000 
 3456000   0.84943239   -4.1624668   -4.1624668   -2.8883194  0.018695505   -4.1624668    1.2741473  1010000 
 3457000   0.84809082   -4.1601756   -4.1601756   -2.8880406  0.023906685   -4.1601756     1.272135  1010000 
 3458000   0.84958182    -4.161547    -4.161547   -2.8871756  0.020374494    -4.161547    1.2743715  1010000 
 3459000    0.8498694   -4.1619505   -4.1619505   -2.8871477  0.023208444   -4.1619505    1.2748028  1010000 
 3460000   0.84974015   -4.1619124   -4.1619124   -2.8873034  0.022383947   -4.1619124     1.274609  1010000 
 3461000   0.84869968   -4.1606255   -4.1606255   -2.8875773  0.029050284   -4.1606255    1.2730483  1010000 
 3462000   0.84959468   -4.1621667   -4.1621667   -2.8877759   0.02218014   -4.1621667    1.2743908  1010000 
 3463000   0.85001748   -4.1627587   -4.1627587   -2.8877338  0.019538287   -4.1627587     1.275025  1010000 
 3464000   0.84954327   -4.1620591   -4.1620591   -2.8877454  0.021742558   -4.1620591    1.2743136  1010000 
 3465000   0.84976228   -4.1626411   -4.1626411   -2.8879989  0.021306918   -4.1626411    1.2746422  1010000 
 3466000   0.84977811   -4.1624116   -4.1624116   -2.8877457  0.026037497   -4.1624116    1.2746659  1010000 
 3467000   0.85075141   -4.1635015   -4.1635015   -2.8873756  0.022313887   -4.1635015    1.2761258  1010000 
 3468000    0.8495928   -4.1625238   -4.1625238   -2.8881359  0.024022364   -4.1625238    1.2743879  1010000 
 3469000   0.85016411   -4.1630388   -4.1630388   -2.8877939  0.021015122   -4.1630388    1.2752449  1010000 
 3470000   0.85001695   -4.1627606   -4.1627606   -2.8877365  0.023929978   -4.1627606    1.2750242  1010000 
 3471000   0.84945335   -4.1620187   -4.1620187     -2.88784  0.025187745   -4.1620187    1.2741788  1010000 
 3472000   0.84916072   -4.1615579   -4.1615579   -2.8878181  0.027598414   -4.1615579    1.2737398  1010000 
 3473000   0.84976626   -4.1623959   -4.1623959   -2.8877477  0.024716466   -4.1623959    1.2746481  1010000 
 3474000   0.84988222    -4.162799    -4.162799   -2.8879769  0.024733154    -4.162799    1.2748221  1010000 
 3475000   0.84976474   -4.1628214   -4.1628214   -2.8881756  0.022844311   -4.1628214    1.2746458  1010000 
 3476000   0.84888649   -4.1612433   -4.1612433   -2.8879148  0.026112207   -4.1612433    1.2733285  1010000 
 3477000     0.849494   -4.1623468   -4.1623468    -2.888107  0.025653595   -4.1623468    1.2742397  1010000 
 3478000    0.8493683   -4.1616888   -4.1616888   -2.8876376  0.025383273   -4.1616888    1.2740512  1010000 
 3479000   0.84949265   -4.1617773   -4.1617773   -2.8875396  0.023605106   -4.1617773    1.2742377  1010000 
 3480000   0.84963193   -4.1620703   -4.1620703   -2.8876237  0.023630865   -4.1620703    1.2744466  1010000 
 3481000   0.84882614    -4.160974    -4.160974   -2.8877361  0.024570194    -4.160974    1.2732379  1010000 
 3482000    0.8488904   -4.1612867   -4.1612867   -2.8879524   0.02539541   -4.1612867    1.2733343  1010000 
 3483000   0.84920102   -4.1612394   -4.1612394   -2.8874391  0.024443773   -4.1612394    1.2738003  1010000 
 3484000   0.84995685    -4.162124    -4.162124   -2.8871899   0.02413741    -4.162124     1.274934  1010000 
 3485000   0.85082743   -4.1632335   -4.1632335   -2.8869936  0.019499378   -4.1632335    1.2762399  1010000 
 3486000   0.84909487   -4.1605684   -4.1605684   -2.8869274  0.025655665   -4.1605684     1.273641  1010000 
 3487000   0.84992827   -4.1618537   -4.1618537   -2.8869625  0.017409943   -4.1618537    1.2748911  1010000 
 3488000   0.84952725   -4.1611097   -4.1611097   -2.8868201  0.024183057   -4.1611097    1.2742896  1010000 
 3489000   0.84946768   -4.1612444   -4.1612444   -2.8870441  0.024446217   -4.1612444    1.2742003  1010000 
 3490000   0.84939999    -4.161296    -4.161296   -2.8871972  0.024238322    -4.161296    1.2740987  1010000 
 3491000   0.85033728   -4.1627773   -4.1627773   -2.8872727   0.01920948   -4.1627773    1.2755047  1010000 
 3492000   0.84879667   -4.1601426   -4.1601426   -2.8869488   0.02575879   -4.1601426    1.2731937  1010000 
 3493000    0.8496262   -4.1616201   -4.1616201   -2.8871821  0.022583524   -4.1616201     1.274438  1010000 
 3494000   0.84925523    -4.161153    -4.161153   -2.8872714  0.023025538    -4.161153    1.2738816  1010000 
 3495000   0.84930741    -4.161819    -4.161819   -2.8878591  0.018337503    -4.161819    1.2739599  1010000 
 3496000   0.84830324    -4.159825    -4.159825   -2.8873714    0.0236013    -4.159825    1.2724536  1010000 
 3497000   0.84899049   -4.1606344   -4.1606344   -2.8871499  0.021179566   -4.1606344    1.2734845  1010000 
 3498000    0.8483168   -4.1592656   -4.1592656   -2.8867916  0.017664425   -4.1592656    1.2724739  1010000 
 3499000   0.84831994   -4.1594337   -4.1594337   -2.8869551   0.01914864   -4.1594337    1.2724786  1010000 
 3500000    0.8488239   -4.1604511   -4.1604511   -2.8872165  0.017515648   -4.1604511    1.2732346  1010000 
 3501000   0.84849635   -4.1594946   -4.1594946   -2.8867514  0.021237449   -4.1594946    1.2727433  1010000 
 3502000   0.84827498   -4.1587649   -4.1587649   -2.8863537   0.01932259   -4.1587649    1.2724112  1010000 
 3503000   0.84797069   -4.1585969   -4.1585969   -2.8866422   0.02058892   -4.1585969    1.2719548  1010000 
 3504000   0.84820614   -4.1588198   -4.1588198   -2.8865119    0.0203705   -4.1588198    1.2723079  1010000 
 3505000   0.84880649   -4.1591606   -4.1591606   -2.8859521  0.021411289   -4.1591606    1.2732085  1010000 
 3506000   0.84913911   -4.1593007   -4.1593007   -2.8855933  0.023954564   -4.1593007    1.2737074  1010000 
 3507000    0.8498244   -4.1598374   -4.1598374    -2.885102  0.023979509   -4.1598374    1.2747353  1010000 
 3508000    0.8492394   -4.1593901   -4.1593901   -2.8855322  0.023753435   -4.1593901    1.2738578  1010000 
 3509000   0.84841624   -4.1581384   -4.1581384   -2.8855153  0.023930495   -4.1581384    1.2726231  1010000 
 3510000    0.8491168   -4.1593096   -4.1593096   -2.8856357  0.022506134   -4.1593096    1.2736739  1010000 
 3511000   0.84966933   -4.1601859   -4.1601859   -2.8856832  0.023433345   -4.1601859    1.2745027  1010000 
 3512000   0.84934916   -4.1595616   -4.1595616   -2.8855392  0.024313231   -4.1595616    1.2740225  1010000 
 3513000   0.84955583   -4.1597173   -4.1597173   -2.8853848  0.019632573   -4.1597173    1.2743325  1010000 
 3514000   0.84878414   -4.1584739   -4.1584739   -2.8852989  0.021548327   -4.1584739     1.273175  1010000 
 3515000   0.84855028   -4.1579715   -4.1579715   -2.8851474    0.0241921   -4.1579715    1.2728242  1010000 
 3516000    0.8490235   -4.1588786   -4.1588786   -2.8853446   0.02447786   -4.1588786     1.273534  1010000 
 3517000   0.84895764   -4.1587719   -4.1587719   -2.8853367  0.023032486   -4.1587719    1.2734352  1010000 
 3518000   0.84870268   -4.1585696   -4.1585696   -2.8855169  0.021669579   -4.1585696    1.2730528  1010000 
 3519000   0.84880515   -4.1586311   -4.1586311   -2.8854246   0.02171867   -4.1586311    1.2732065  1010000 
 3520000   0.84856376   -4.1585318   -4.1585318   -2.8856874  0.021994951   -4.1585318    1.2728444  1010000 
 3521000   0.84841778   -4.1578212   -4.1578212   -2.8851957  0.021193566   -4.1578212    1.2726254  1010000 
 3522000   0.84875937   -4.1581519   -4.1581519   -2.8850141  0.019778512   -4.1581519    1.2731378  1010000 
 3523000   0.84830941    -4.157536    -4.157536   -2.8850732  0.021551597    -4.157536    1.2724629  1010000 
 3524000   0.84874271   -4.1578837   -4.1578837   -2.8847709  0.015175587   -4.1578837    1.2731128  1010000 
 3525000   0.84907741   -4.1584493   -4.1584493   -2.8848345  0.019738832   -4.1584493    1.2736148  1010000 
 3526000    0.8488049    -4.158541    -4.158541    -2.885335   0.01917162    -4.158541    1.2732061  1010000 
 3527000    0.8499741   -4.1603826   -4.1603826   -2.8854227   0.01991612   -4.1603826    1.2749599  1010000 
 3528000   0.84899097   -4.1591609   -4.1591609   -2.8856757  0.022895369   -4.1591609    1.2734852  1010000 
 3529000   0.84826505   -4.1576575   -4.1576575   -2.8852612  0.026218063   -4.1576575    1.2723963  1010000 
 3530000   0.84972266   -4.1596265   -4.1596265   -2.8850438  0.019026364   -4.1596265    1.2745827  1010000 
 3531000   0.84956502    -4.159402    -4.159402   -2.8850557  0.023037444    -4.159402    1.2743463  1010000 
 3532000    0.8492672   -4.1590711   -4.1590711   -2.8851715  0.023993402   -4.1590711    1.2738995  1010000 
 3533000   0.84993656   -4.1595975   -4.1595975    -2.884694  0.024783687   -4.1595975    1.2749036  1010000 
 3534000   0.84979823   -4.1593039   -4.1593039   -2.8846078  0.025441486   -4.1593039    1.2746961  1010000 
 3535000   0.84992002    -4.160146    -4.160146   -2.8852673  0.023890172    -4.160146    1.2748788  1010000 
 3536000    0.8498736   -4.1600044   -4.1600044   -2.8851952  0.022323203   -4.1600044    1.2748091  1010000 
 3537000   0.84973492   -4.1595545   -4.1595545   -2.8849534  0.022184523   -4.1595545    1.2746011  1010000 
 3538000   0.84974164   -4.1594447   -4.1594447   -2.8848335   0.02285598   -4.1594447    1.2746112  1010000 
 3539000   0.84995437    -4.159665    -4.159665   -2.8847348  0.020223288    -4.159665    1.2749303  1010000 
 3540000   0.84986416   -4.1595361   -4.1595361   -2.8847411  0.024113499   -4.1595361     1.274795  1010000 
 3541000   0.85024923   -4.1601728   -4.1601728   -2.8848002  0.022026585   -4.1601728    1.2753726  1010000 
 3542000   0.85004495   -4.1597465   -4.1597465   -2.8846803  0.025009289   -4.1597465    1.2750662  1010000 
 3543000     0.849863   -4.1599944   -4.1599944   -2.8852012  0.023741477   -4.1599944    1.2747932  1010000 
 3544000   0.85037303   -4.1606662   -4.1606662   -2.8851079  0.021047882   -4.1606662    1.2755583  1010000 
 3545000   0.85058639   -4.1606687   -4.1606687   -2.8847904  0.025601784   -4.1606687    1.2758783  1010000 
 3546000   0.84928371   -4.1592882   -4.1592882   -2.8853639  0.024660248   -4.1592882    1.2739243  1010000 
 3547000   0.84961784   -4.1602089   -4.1602089   -2.8857834   0.02511825   -4.1602089    1.2744255  1010000 
 3548000   0.84990432   -4.1598508   -4.1598508   -2.8849956  0.024483366   -4.1598508    1.2748552  1010000 
 3549000   0.84984523   -4.1593411   -4.1593411   -2.8845745   0.02822674   -4.1593411    1.2747666  1010000 
 3550000   0.84939335   -4.1587136   -4.1587136   -2.8846249  0.027909213   -4.1587136    1.2740888  1010000 
 3551000   0.84969226   -4.1592362   -4.1592362    -2.884699  0.022605024   -4.1592362    1.2745371  1010000 
 3552000   0.85026618   -4.1599249   -4.1599249   -2.8845269  0.021858388   -4.1599249     1.275398  1010000 
 3553000   0.85002361   -4.1597229   -4.1597229   -2.8846887  0.022440605   -4.1597229    1.2750342  1010000 
 3554000   0.84948419   -4.1587877   -4.1587877   -2.8845627   0.02326976   -4.1587877     1.274225  1010000 
 3555000   0.84984024   -4.1587606   -4.1587606   -2.8840015  0.024982432   -4.1587606    1.2747591  1010000 
 3556000   0.85026178   -4.1597013   -4.1597013   -2.8843098  0.022402134   -4.1597013    1.2753914  1010000 
 3557000   0.85020753   -4.1596146   -4.1596146   -2.8843046  0.024403413   -4.1596146      1.27531  1010000 
 3558000   0.85025583   -4.1593515   -4.1593515    -2.883969  0.023770987   -4.1593515    1.2753825  1010000 
 3559000   0.85006692   -4.1587506   -4.1587506   -2.8836514  0.027316474   -4.1587506    1.2750991  1010000 
 3560000    0.8502085   -4.1588359   -4.1588359   -2.8835244  0.025503655   -4.1588359    1.2753115  1010000 
 3561000   0.85039931    -4.159441    -4.159441   -2.8838433  0.020624286    -4.159441    1.2755977  1010000 
 3562000   0.84968961    -4.158256    -4.158256   -2.8837229  0.024460814    -4.158256    1.2745332  1010000 
 3563000   0.84957738   -4.1581145   -4.1581145   -2.8837497  0.023118804   -4.1581145    1.2743648  1010000 
 3564000   0.84962944   -4.1577446   -4.1577446   -2.8833017  0.025143155   -4.1577446    1.2744429  1010000 
 3565000   0.85027086   -4.1586805   -4.1586805   -2.8832755  0.022007937   -4.1586805     1.275405  1010000 
 3566000   0.84985504   -4.1582705   -4.1582705   -2.8834892   0.02434277   -4.1582705    1.2747813  1010000 
 3567000   0.85009022   -4.1586487   -4.1586487   -2.8835147  0.021923164   -4.1586487    1.2751341  1010000 
 3568000   0.85119127    -4.160123    -4.160123   -2.8833374  0.021068099    -4.160123    1.2767856  1010000 
 3569000   0.84983003   -4.1586563   -4.1586563   -2.8839125  0.021769585   -4.1586563    1.2747438  1010000 
 3570000   0.84989971   -4.1580708   -4.1580708   -2.8832225  0.023169956   -4.1580708    1.2748483  1010000 
 3571000   0.84946909   -4.1571819   -4.1571819   -2.8829795  0.021475396   -4.1571819    1.2742024  1010000 
 3572000   0.84983884   -4.1577007   -4.1577007   -2.8829437  0.021989132   -4.1577007     1.274757  1010000 
 3573000   0.84980201   -4.1578857   -4.1578857    -2.883184  0.016291115   -4.1578857    1.2747017  1010000 
 3574000   0.84908904   -4.1565809   -4.1565809   -2.8829486  0.022213515   -4.1565809    1.2736323  1010000 
 3575000   0.84962822   -4.1576264   -4.1576264   -2.8831854  0.024232948   -4.1576264    1.2744411  1010000 
 3576000   0.85022853   -4.1578773   -4.1578773   -2.8825358  0.021625453   -4.1578773    1.2753415  1010000 
 3577000   0.85040642   -4.1580987   -4.1580987   -2.8824903  0.023123396   -4.1580987    1.2756084  1010000 
 3578000   0.84978137   -4.1569595   -4.1569595   -2.8822887  0.022240783   -4.1569595    1.2746708  1010000 
 3579000   0.84987806     -4.15699     -4.15699   -2.8821742  0.019849314     -4.15699    1.2748158  1010000 
 3580000   0.84975227   -4.1570129   -4.1570129   -2.8823858  0.018425547   -4.1570129    1.2746271  1010000 
 3581000   0.84918094   -4.1561308   -4.1561308   -2.8823606   0.02108956   -4.1561308    1.2737702  1010000 
 3582000    0.8483903   -4.1558174   -4.1558174   -2.8832332  0.022362219   -4.1558174    1.2725842  1010000 
 3583000   0.84993091   -4.1577239   -4.1577239   -2.8828288  0.016503631   -4.1577239    1.2748951  1010000 
 3584000   0.84928265   -4.1567054   -4.1567054   -2.8827826  0.022100285   -4.1567054    1.2739227  1010000 
 3585000   0.84972691   -4.1577718   -4.1577718   -2.8831827  0.019804321   -4.1577718    1.2745891  1010000 
 3586000   0.84948355   -4.1569528   -4.1569528   -2.8827288  0.023813163   -4.1569528    1.2742241  1010000 
 3587000   0.84977456   -4.1571222   -4.1571222   -2.8824616   0.01841331   -4.1571222    1.2746606  1010000 
 3588000   0.84926468   -4.1562719   -4.1562719   -2.8823761  0.019901615   -4.1562719    1.2738958  1010000 
 3589000    0.8495049   -4.1568918   -4.1568918   -2.8826358  0.019514562   -4.1568918    1.2742561  1010000 
 3590000   0.84922014   -4.1563892   -4.1563892   -2.8825603  0.021473338   -4.1563892    1.2738289  1010000 
 3591000   0.84980847   -4.1569766   -4.1569766   -2.8822652  0.021832166   -4.1569766    1.2747114  1010000 
 3592000   0.84968873   -4.1568012   -4.1568012   -2.8822693   0.02229297   -4.1568012    1.2745318  1010000 
 3593000   0.84962492   -4.1565685   -4.1565685   -2.8821324  0.022287547   -4.1565685    1.2744361  1010000 
 3594000   0.84964003   -4.1572366   -4.1572366   -2.8827778  0.020283823   -4.1572366    1.2744588  1010000 
 3595000   0.84918997    -4.156583    -4.156583   -2.8827993  0.023092677    -4.156583    1.2737837  1010000 
 3596000   0.84960959   -4.1569844   -4.1569844   -2.8825713  0.023190509   -4.1569844    1.2744131  1010000 
 3597000   0.84988666   -4.1571275   -4.1571275   -2.8822988  0.024831357   -4.1571275    1.2748287  1010000 
 3598000   0.84976873   -4.1572699   -4.1572699    -2.882618  0.023109336   -4.1572699    1.2746518  1010000 
 3599000   0.84938401   -4.1568407   -4.1568407    -2.882766  0.023750287   -4.1568407    1.2740748  1010000 
 3600000   0.84964806   -4.1564612   -4.1564612   -2.8819904  0.022166744   -4.1564612    1.2744708  1010000 
 3601000   0.84957789    -4.156643    -4.156643   -2.8822774  0.020718059    -4.156643    1.2743656  1010000 
 3602000   0.84844358   -4.1555289   -4.1555289   -2.8828648  0.023274239   -4.1555289    1.2726641  1010000 
 3603000   0.85000694   -4.1581061   -4.1581061    -2.883097  0.022196568   -4.1581061    1.2750091  1010000 
 3604000   0.84992596   -4.1579631   -4.1579631   -2.8830754  0.020158954   -4.1579631    1.2748877  1010000 
 3605000   0.84957302   -4.1570188   -4.1570188   -2.8826605  0.022311923   -4.1570188    1.2743583  1010000 
 3606000   0.84900764   -4.1559984   -4.1559984   -2.8824882  0.021912563   -4.1559984    1.2735102  1010000 
 3607000   0.85021237   -4.1569699   -4.1569699   -2.8816527  0.023298751   -4.1569699    1.2753173  1010000 
 3608000   0.85055751   -4.1575364   -4.1575364   -2.8817014  0.020965646   -4.1575364     1.275835  1010000 
 3609000   0.85074959   -4.1573502   -4.1573502   -2.8812271  0.024275303   -4.1573502    1.2761231  1010000 
 3610000   0.85006743   -4.1562161   -4.1562161   -2.8811162  0.026478996   -4.1562161    1.2750999  1010000 
 3611000   0.85038455   -4.1569479   -4.1569479   -2.8813723  0.024312796   -4.1569479    1.2755756  1010000 
 3612000   0.85026166   -4.1560891   -4.1560891   -2.8806979  0.026423808   -4.1560891    1.2753912  1010000 
 3613000   0.85076101   -4.1571698   -4.1571698   -2.8810296   0.02998774   -4.1571698    1.2761402  1010000 
 3614000   0.85179925   -4.1586417   -4.1586417   -2.8809441  0.025799764   -4.1586417    1.2776976  1010000 
 3615000   0.85100453    -4.158038    -4.158038   -2.8815325  0.024803227    -4.158038    1.2765055  1010000 
 3616000    0.8508264   -4.1577578   -4.1577578   -2.8815195  0.025358134   -4.1577578    1.2762383  1010000 
 3617000   0.85102986    -4.157994    -4.157994   -2.8814505  0.025287015    -4.157994    1.2765435  1010000 
 3618000   0.85145519   -4.1584429   -4.1584429   -2.8812614  0.026976817   -4.1584429    1.2771815  1010000 
 3619000   0.85170292   -4.1590413   -4.1590413   -2.8814882  0.022673999   -4.1590413    1.2775531  1010000 
 3620000   0.85076824   -4.1575316   -4.1575316   -2.8813805  0.028484589   -4.1575316    1.2761511  1010000 
 3621000   0.85068295   -4.1571302   -4.1571302    -2.881107  0.027567815   -4.1571302    1.2760232  1010000 
 3622000   0.85113168   -4.1577012   -4.1577012   -2.8810049  0.024869795   -4.1577012    1.2766963  1010000 
 3623000   0.85113072   -4.1579501   -4.1579501   -2.8812553  0.023029174   -4.1579501    1.2766948  1010000 
 3624000   0.85104205   -4.1574174   -4.1574174   -2.8808555  0.022461268   -4.1574174    1.2765618  1010000 
 3625000   0.85026118   -4.1563979   -4.1563979   -2.8810073  0.021627654   -4.1563979    1.2753905  1010000 
 3626000    0.8496498   -4.1554382   -4.1554382   -2.8809648  0.022795885   -4.1554382    1.2744734  1010000 
 3627000   0.84990285   -4.1559212   -4.1559212   -2.8810682  0.020601065   -4.1559212     1.274853  1010000 
 3628000   0.84947117     -4.15471     -4.15471   -2.8805045  0.018840338     -4.15471    1.2742055  1010000 
 3629000   0.84863314   -4.1532491   -4.1532491   -2.8803006  0.020849176   -4.1532491    1.2729485  1010000 
 3630000    0.8497875   -4.1543817   -4.1543817   -2.8797017  0.024477035   -4.1543817      1.27468  1010000 
 3631000   0.85068387   -4.1557754   -4.1557754   -2.8797508  0.020507454   -4.1557754    1.2760245  1010000 
 3632000   0.84939692   -4.1545179   -4.1545179   -2.8804237  0.022297417   -4.1545179    1.2740941  1010000 
 3633000   0.85032784   -4.1557081   -4.1557081   -2.8802176  0.020136428   -4.1557081    1.2754905  1010000 
 3634000   0.85034109   -4.1554978   -4.1554978   -2.8799875  0.022815229   -4.1554978    1.2755104  1010000 
 3635000   0.85083547    -4.155408    -4.155408   -2.8791561  0.021686038    -4.155408    1.2762519  1010000 
 3636000   0.85120695   -4.1553962   -4.1553962    -2.878587  0.025855221   -4.1553962    1.2768092  1010000 
 3637000   0.85084307   -4.1546968   -4.1546968   -2.8784335  0.021421072   -4.1546968    1.2762633  1010000 
 3638000   0.85039299   -4.1544398   -4.1544398   -2.8788516  0.022512379   -4.1544398    1.2755882  1010000 
 3639000   0.85086194   -4.1549163   -4.1549163   -2.8786246  0.021860332   -4.1549163    1.2762916  1010000 
 3640000    0.8507237   -4.1544781   -4.1544781   -2.8783938  0.021781737   -4.1544781    1.2760843  1010000 
 3641000    0.8503972   -4.1543816   -4.1543816    -2.878787  0.022567212   -4.1543816    1.2755945  1010000 
 3642000   0.84989814    -4.153346    -4.153346   -2.8785001   0.02241276    -4.153346     1.274846  1010000 
 3643000   0.84950255   -4.1528346   -4.1528346   -2.8785821  0.019922114   -4.1528346    1.2742526  1010000 
 3644000   0.85048832   -4.1544152   -4.1544152    -2.878684  0.017324347   -4.1544152    1.2757312  1010000 
 3645000   0.84983564   -4.1534592   -4.1534592    -2.878707  0.018402796   -4.1534592    1.2747522  1010000 
 3646000   0.84940173   -4.1528868   -4.1528868   -2.8787855  0.018471428   -4.1528868    1.2741013  1010000 
 3647000   0.84872426   -4.1524232   -4.1524232   -2.8793381  0.015069741   -4.1524232    1.2730851  1010000 
 3648000   0.84945722   -4.1530973   -4.1530973   -2.8789128  0.016824158   -4.1530973    1.2741846  1010000 
 3649000   0.84907993   -4.1522903   -4.1522903   -2.8786717  0.017862932   -4.1522903    1.2736186  1010000 
 3650000    0.8490699   -4.1518426   -4.1518426    -2.878239  0.019898723   -4.1518426    1.2736036  1010000 
 3651000   0.84985332   -4.1530243   -4.1530243   -2.8782456  0.017497815   -4.1530243    1.2747787  1010000 
 3652000   0.85003412   -4.1542189   -4.1542189    -2.879169  0.013502102   -4.1542189    1.2750499  1010000 
 3653000   0.84887103   -4.1523568   -4.1523568   -2.8790515  0.019666831   -4.1523568    1.2733053  1010000 
 3654000   0.85002094   -4.1532943   -4.1532943   -2.8782641  0.015627595   -4.1532943    1.2750301  1010000 
 3655000   0.84968619    -4.152453    -4.152453    -2.877925  0.021249517    -4.152453     1.274528  1010000 
 3656000   0.85039292   -4.1533333   -4.1533333   -2.8777452  0.018897606   -4.1533333    1.2755881  1010000 
 3657000   0.85067246   -4.1536256   -4.1536256   -2.8776182  0.021746296   -4.1536256    1.2760074  1010000 
 3658000   0.85114738   -4.1541464   -4.1541464   -2.8774266  0.020090742   -4.1541464    1.2767198  1010000 
 3659000   0.85025347   -4.1524333   -4.1524333   -2.8770543  0.025025287   -4.1524333    1.2753789  1010000 
 3660000   0.85131327   -4.1541217   -4.1541217   -2.8771531  0.024884576   -4.1541217    1.2769686  1010000 
 3661000   0.85132547    -4.154038    -4.154038    -2.877051  0.023402937    -4.154038    1.2769869  1010000 
 3662000   0.85042974   -4.1526764   -4.1526764    -2.877033  0.027495683   -4.1526764    1.2756434  1010000 
 3663000    0.8516358   -4.1540363   -4.1540363   -2.8765838  0.021925573   -4.1540363    1.2774524  1010000 
 3664000   0.85078776   -4.1533768   -4.1533768   -2.8771964  0.023092704   -4.1533768    1.2761804  1010000 
 3665000   0.85072913    -4.153512    -4.153512   -2.8774195  0.025290081    -4.153512    1.2760924  1010000 
 3666000   0.85077616   -4.1529247   -4.1529247   -2.8767617  0.024760651   -4.1529247     1.276163  1010000 
 3667000   0.85150391   -4.1539104   -4.1539104   -2.8766558  0.022850428   -4.1539104    1.2772546  1010000 
 3668000   0.85096609   -4.1532592   -4.1532592   -2.8768114  0.024673106   -4.1532592    1.2764479  1010000 
 3669000   0.85043368   -4.1528166   -4.1528166   -2.8771674  0.023665553   -4.1528166    1.2756493  1010000 
 3670000   0.85084031   -4.1534097   -4.1534097   -2.8771505  0.022400748   -4.1534097    1.2762592  1010000 
 3671000   0.85042495   -4.1532285   -4.1532285   -2.8775923  0.025489339   -4.1532285    1.2756362  1010000 
 3672000   0.85044355   -4.1530085   -4.1530085   -2.8773444  0.021743664   -4.1530085    1.2756641  1010000 
 3673000   0.85073247   -4.1540685   -4.1540685    -2.877971  0.021011489   -4.1540685    1.2760974  1010000 
 3674000   0.84995321   -4.1528113   -4.1528113   -2.8778827  0.023325254   -4.1528113    1.2749286  1010000 
 3675000   0.85026188   -4.1532061   -4.1532061   -2.8778145  0.022621647   -4.1532061    1.2753916  1010000 
 3676000   0.85064641    -4.153998    -4.153998   -2.8780297  0.020066922    -4.153998    1.2759684  1010000 
 3677000   0.85118966    -4.154651    -4.154651   -2.8778678  0.021221956    -4.154651    1.2767832  1010000 
 3678000   0.85128686   -4.1545295   -4.1545295   -2.8776005  0.021866474   -4.1545295     1.276929  1010000 
 3679000   0.85105339   -4.1540927   -4.1540927   -2.8775139  0.024141567   -4.1540927    1.2765788  1010000 
 3680000   0.85135818   -4.1545476   -4.1545476   -2.8775116  0.024672474   -4.1545476     1.277036  1010000 
 3681000    0.8514921   -4.1548993   -4.1548993   -2.8776624  0.024186164   -4.1548993    1.2772369  1010000 
 3682000   0.85197204   -4.1545746   -4.1545746   -2.8766178  0.022029052   -4.1545746    1.2779568  1010000 
 3683000   0.85225778   -4.1544779   -4.1544779   -2.8760925  0.025518589   -4.1544779    1.2783854  1010000 
 3684000    0.8520571   -4.1543659   -4.1543659   -2.8762816  0.024166851   -4.1543659    1.2780844  1010000 
 3685000   0.85181644   -4.1544036   -4.1544036   -2.8766802   0.02523458   -4.1544036    1.2777234  1010000 
 3686000   0.85147011   -4.1542025   -4.1542025   -2.8769986  0.023608069   -4.1542025    1.2772039  1010000 
 3687000   0.85212678   -4.1542577   -4.1542577   -2.8760688  0.026475821   -4.1542577    1.2781889  1010000 
 3688000   0.85193988   -4.1540683   -4.1540683   -2.8761598  0.024398829   -4.1540683    1.2779086  1010000 
 3689000   0.85230498   -4.1543993   -4.1543993   -2.8759431  0.024021902   -4.1543993    1.2784562  1010000 
 3690000     0.852518   -4.1544892   -4.1544892   -2.8757134  0.022263525   -4.1544892    1.2787757  1010000 
 3691000   0.85146597   -4.1531191   -4.1531191   -2.8759214  0.025792755   -4.1531191    1.2771977  1010000 
 3692000   0.85159693   -4.1534664   -4.1534664   -2.8760722  0.024027614   -4.1534664    1.2773941  1010000 
 3693000   0.85158364   -4.1534231   -4.1534231   -2.8760489  0.022941082   -4.1534231    1.2773742  1010000 
 3694000   0.85148913   -4.1530214   -4.1530214    -2.875789  0.025605074   -4.1530214    1.2772324  1010000 
 3695000   0.85107332   -4.1526807   -4.1526807   -2.8760719  0.021267563   -4.1526807    1.2766087  1010000 
 3696000   0.85117834   -4.1525796   -4.1525796   -2.8758133  0.023559161   -4.1525796    1.2767662  1010000 
 3697000   0.85099732   -4.1522141   -4.1522141   -2.8757194  0.022765091   -4.1522141    1.2764947  1010000 
 3698000   0.85055535   -4.1516843   -4.1516843   -2.8758526  0.025420657   -4.1516843    1.2758318  1010000 
 3699000   0.85049973    -4.151906    -4.151906   -2.8761577  0.022887965    -4.151906    1.2757483  1010000 
 3700000   0.85108645   -4.1526373   -4.1526373   -2.8760089  0.021946556   -4.1526373    1.2766284  1010000 
 3701000   0.85094138   -4.1530192   -4.1530192   -2.8766084  0.018621031   -4.1530192    1.2764108  1010000 
 3702000   0.85044681   -4.1526188   -4.1526188   -2.8769498  0.021327755   -4.1526188    1.2756689  1010000 
 3703000   0.85010169   -4.1514894   -4.1514894   -2.8763382  0.021270642   -4.1514894    1.2751513  1010000 
 3704000   0.85016995   -4.1512613   -4.1512613   -2.8760076   0.02112144   -4.1512613    1.2752537  1010000 
 3705000   0.85102173   -4.1521595   -4.1521595   -2.8756282  0.021455455   -4.1521595    1.2765313  1010000 
 3706000   0.85037683   -4.1514146   -4.1514146   -2.8758506  0.025275359   -4.1514146     1.275564  1010000 
 3707000   0.85028298   -4.1516264   -4.1516264   -2.8762032  0.020773295   -4.1516264    1.2754232  1010000 
 3708000   0.85116211   -4.1525107   -4.1525107   -2.8757688   0.01804531   -4.1525107    1.2767419  1010000 
 3709000   0.84994318   -4.1509852   -4.1509852   -2.8760717   0.02088527   -4.1509852    1.2749135  1010000 
 3710000    0.8499557   -4.1510804   -4.1510804   -2.8761481  0.021971255   -4.1510804    1.2749323  1010000 
 3711000   0.85050634   -4.1512632   -4.1512632    -2.875505  0.019636506   -4.1512632    1.2757582  1010000 
 3712000   0.85050433   -4.1511783   -4.1511783   -2.8754231  0.019885899   -4.1511783    1.2757552  1010000 
 3713000   0.85051162   -4.1504808   -4.1504808   -2.8747147  0.020493963   -4.1504808    1.2757662  1010000 
 3714000   0.85114077   -4.1508793   -4.1508793   -2.8741694  0.020420578   -4.1508793    1.2767099  1010000 
 3715000   0.85174325   -4.1521503   -4.1521503   -2.8745367  0.015394953   -4.1521503    1.2776136  1010000 
 3716000   0.85071872   -4.1504156   -4.1504156   -2.8743388  0.024803854   -4.1504156    1.2760768  1010000 
 3717000   0.85104119   -4.1506276   -4.1506276   -2.8740671  0.021240306   -4.1506276    1.2765605  1010000 
 3718000   0.85151454    -4.151444    -4.151444   -2.8741735  0.022260046    -4.151444    1.2772705  1010000 
 3719000   0.85083159   -4.1511377   -4.1511377   -2.8748916  0.020006672   -4.1511377    1.2762461  1010000 
 3720000   0.85094021    -4.151229    -4.151229     -2.87482  0.022537964    -4.151229     1.276409  1010000 
 3721000   0.85166834    -4.151596    -4.151596   -2.8740948  0.023364659    -4.151596    1.2775013  1010000 
 3722000   0.85190256   -4.1518814   -4.1518814   -2.8740288  0.023600564   -4.1518814    1.2778526  1010000 
 3723000   0.85144993   -4.1514983   -4.1514983   -2.8743247  0.023623866   -4.1514983    1.2771736  1010000 
 3724000   0.85140697   -4.1514723   -4.1514723   -2.8743631   0.02243252   -4.1514723    1.2771092  1010000 
 3725000   0.85163241   -4.1518886   -4.1518886   -2.8744412  0.025061693   -4.1518886    1.2774473  1010000 
 3726000     0.851649   -4.1520338   -4.1520338   -2.8745615  0.027805356   -4.1520338    1.2774722  1010000 
 3727000   0.85161105   -4.1518332   -4.1518332   -2.8744179   0.02043751   -4.1518332    1.2774153  1010000 
 3728000   0.85110305   -4.1504811   -4.1504811   -2.8738277  0.024175213   -4.1504811    1.2766533  1010000 
 3729000   0.85102087   -4.1505938   -4.1505938   -2.8740637  0.024171092   -4.1505938      1.27653  1010000 
 3730000   0.85133723   -4.1512036   -4.1512036    -2.874199  0.019707058   -4.1512036    1.2770046  1010000 
 3731000   0.85075481   -4.1502735   -4.1502735   -2.8741425  0.022114793   -4.1502735     1.276131  1010000 
 3732000   0.85164028   -4.1514263   -4.1514263   -2.8739672  0.018590726   -4.1514263    1.2774591  1010000 
 3733000   0.85107257   -4.1511249   -4.1511249   -2.8745173   0.02021415   -4.1511249    1.2766076  1010000 
 3734000   0.85142162   -4.1513819   -4.1513819   -2.8742507  0.019536923   -4.1513819    1.2771312  1010000 
 3735000   0.85080513   -4.1509814   -4.1509814    -2.874775  0.024064542   -4.1509814    1.2762064  1010000 
 3736000   0.85040771   -4.1504994   -4.1504994   -2.8748891  0.019196246   -4.1504994    1.2756103  1010000 
 3737000   0.85071854   -4.1506431   -4.1506431   -2.8745665  0.017843878   -4.1506431    1.2760765  1010000 
 3738000   0.85132875   -4.1512536   -4.1512536   -2.8742618  0.018232437   -4.1512536    1.2769919  1010000 
 3739000   0.85080922   -4.1509186   -4.1509186    -2.874706  0.019463696   -4.1509186    1.2762126  1010000 
 3740000     0.850649   -4.1502112   -4.1502112    -2.874239  0.024250368   -4.1502112    1.2759722  1010000 
 3741000   0.85190821   -4.1522049   -4.1522049   -2.8743439  0.022351966   -4.1522049     1.277861  1010000 
 3742000   0.85194006   -4.1525009   -4.1525009    -2.874592  0.024158595   -4.1525009    1.2779088  1010000 
 3743000   0.85185069   -4.1524037   -4.1524037    -2.874629  0.022596095   -4.1524037    1.2777748  1010000 
 3744000   0.85167979   -4.1520955   -4.1520955   -2.8745771  0.023414229   -4.1520955    1.2775184  1010000 
 3745000   0.85239986   -4.1526983   -4.1526983   -2.8740998  0.020320609   -4.1526983    1.2785985  1010000 
 3746000   0.85152375   -4.1508492   -4.1508492   -2.8735649  0.024459168   -4.1508492    1.2772844  1010000 
 3747000   0.85169403   -4.1508902   -4.1508902   -2.8733504  0.023044264   -4.1508902    1.2775398  1010000 
 3748000   0.85178951   -4.1510272   -4.1510272   -2.8733442  0.024331344   -4.1510272     1.277683  1010000 
 3749000   0.85119532   -4.1507734   -4.1507734   -2.8739817  0.026573994   -4.1507734    1.2767917  1010000 
 3750000   0.85141981   -4.1505862   -4.1505862   -2.8734578  0.025556415   -4.1505862    1.2771284  1010000 
 3751000   0.85127013   -4.1505763   -4.1505763   -2.8736724  0.026954044   -4.1505763    1.2769039  1010000 
 3752000   0.85149153   -4.1508004   -4.1508004   -2.8735644    0.0237684   -4.1508004     1.277236  1010000 
 3753000   0.85097982   -4.1498665   -4.1498665    -2.873398  0.026837405   -4.1498665    1.2764685  1010000 
 3754000   0.85063612   -4.1495759   -4.1495759   -2.8736229   0.02321506   -4.1495759    1.2759529  1010000 
 3755000   0.85141462   -4.1503622   -4.1503622   -2.8732415  0.021639978   -4.1503622    1.2771207  1010000 
 3756000   0.85106518   -4.1505796   -4.1505796   -2.8739831   0.01942651   -4.1505796    1.2765965  1010000 
 3757000    0.8508636   -4.1498904   -4.1498904   -2.8735963   0.02277136   -4.1498904    1.2762941  1010000 
 3758000   0.85182685   -4.1511074   -4.1511074   -2.8733684  0.021357635   -4.1511074     1.277739  1010000 
 3759000   0.85169476   -4.1505516   -4.1505516   -2.8730107  0.021794529   -4.1505516    1.2775409  1010000 
 3760000   0.85162726    -4.150704    -4.150704   -2.8732644  0.019252713    -4.150704    1.2774396  1010000 
 3761000   0.85154144   -4.1506404   -4.1506404   -2.8733296  0.020913865   -4.1506404    1.2773109  1010000 
 3762000     0.851585   -4.1501996   -4.1501996   -2.8728234  0.023761417   -4.1501996    1.2773762  1010000 
 3763000   0.85132838   -4.1497739   -4.1497739   -2.8727826  0.025134204   -4.1497739    1.2769913  1010000 
 3764000   0.85165983    -4.149711    -4.149711   -2.8722225  0.021685152    -4.149711    1.2774885  1010000 
 3765000   0.85161618   -4.1496921   -4.1496921   -2.8722691  0.026018355   -4.1496921     1.277423  1010000 
 3766000   0.85213989   -4.1499497   -4.1499497   -2.8717411  0.023909767   -4.1499497    1.2782086  1010000 
 3767000   0.85213626   -4.1501818   -4.1501818   -2.8719787  0.021984253   -4.1501818    1.2782031  1010000 
 3768000   0.85216442   -4.1504091   -4.1504091   -2.8721637  0.021936739   -4.1504091    1.2782454  1010000 
 3769000   0.85212888   -4.1506493   -4.1506493   -2.8724572  0.022186829   -4.1506493     1.278192  1010000 
 3770000    0.8521917    -4.150919    -4.150919   -2.8726327  0.020307068    -4.150919    1.2782863  1010000 
 3771000   0.85226476   -4.1509139   -4.1509139    -2.872518     0.022845   -4.1509139    1.2783959  1010000 
 3772000   0.85184493   -4.1500198   -4.1500198   -2.8722537  0.024763231   -4.1500198    1.2777661  1010000 
 3773000   0.85267548   -4.1508933   -4.1508933   -2.8718813   0.02383564   -4.1508933    1.2790119  1010000 
 3774000   0.85188341   -4.1498371   -4.1498371   -2.8720132  0.024613347   -4.1498371    1.2778239  1010000 
 3775000   0.85217216   -4.1502134   -4.1502134   -2.8719564  0.022036172   -4.1502134     1.278257  1010000 
 3776000   0.85179138   -4.1502642   -4.1502642   -2.8725784  0.021355609   -4.1502642    1.2776858  1010000 
 3777000   0.85176624   -4.1500761   -4.1500761    -2.872428  0.021571736   -4.1500761    1.2776481  1010000 
 3778000   0.85206576   -4.1503681   -4.1503681   -2.8722707    0.0168215   -4.1503681    1.2780974  1010000 
 3779000   0.85105067    -4.149234    -4.149234   -2.8726592  0.021237731    -4.149234    1.2765747  1010000 
 3780000   0.85114727    -4.148711    -4.148711   -2.8719914  0.022217336    -4.148711    1.2767196  1010000 
 3781000   0.85066274   -4.1479745   -4.1479745   -2.8719817  0.022256726   -4.1479745    1.2759929  1010000 
 3782000   0.85098052   -4.1487719   -4.1487719   -2.8723024  0.019889339   -4.1487719    1.2764695  1010000 
 3783000   0.85138537    -4.149011    -4.149011   -2.8719342  0.020012668    -4.149011    1.2770768  1010000 
 3784000   0.85089168   -4.1483174   -4.1483174   -2.8719812  0.019466144   -4.1483174    1.2763363  1010000 
 3785000   0.85119028   -4.1483147   -4.1483147   -2.8715305  0.022696456   -4.1483147    1.2767842  1010000 
 3786000   0.85133591   -4.1488069   -4.1488069   -2.8718043  0.020790671   -4.1488069    1.2770026  1010000 
 3787000   0.85145386    -4.148922    -4.148922   -2.8717424  0.020485417    -4.148922    1.2771795  1010000 
 3788000   0.85072456   -4.1480681   -4.1480681   -2.8719825  0.018714672   -4.1480681    1.2760856  1010000 
 3789000   0.85138348   -4.1488231   -4.1488231   -2.8717492  0.019936299   -4.1488231     1.277074  1010000 
 3790000   0.85145511   -4.1486714   -4.1486714     -2.87149  0.026134646   -4.1486714    1.2771814  1010000 
 3791000   0.85176811   -4.1493697   -4.1493697   -2.8717188  0.021342049   -4.1493697    1.2776509  1010000 
 3792000   0.85175106   -4.1493524   -4.1493524    -2.871727  0.020923288   -4.1493524    1.2776253  1010000 
 3793000   0.85173871   -4.1487123   -4.1487123   -2.8711055  0.023100609   -4.1487123    1.2776068  1010000 
 3794000   0.85164268   -4.1489524   -4.1489524   -2.8714897  0.023388937   -4.1489524    1.2774628  1010000 
 3795000   0.85259535   -4.1500655   -4.1500655   -2.8711738  0.020604546   -4.1500655    1.2788918  1010000 
 3796000   0.85187328   -4.1487026   -4.1487026   -2.8708939  0.023852378   -4.1487026    1.2778087  1010000 
 3797000    0.8519921   -4.1490091   -4.1490091   -2.8710222  0.023653332   -4.1490091    1.2779869  1010000 
 3798000   0.85247615   -4.1492617   -4.1492617   -2.8705487  0.021899009   -4.1492617     1.278713  1010000 
 3799000   0.85292666   -4.1494451   -4.1494451   -2.8700564  0.022913737   -4.1494451    1.2793887  1010000 
 3800000   0.85277833   -4.1487275   -4.1487275   -2.8695613  0.024832689   -4.1487275    1.2791662  1010000 
 3801000   0.85294441   -4.1495744   -4.1495744   -2.8701591  0.023565257   -4.1495744    1.2794154  1010000 
 3802000   0.85211844   -4.1483926   -4.1483926   -2.8702162  0.024616398   -4.1483926    1.2781764  1010000 
 3803000   0.85282733   -4.1495814   -4.1495814   -2.8703416  0.021195286   -4.1495814    1.2792397  1010000 
 3804000   0.85257054     -4.14928     -4.14928   -2.8704255  0.022557539     -4.14928    1.2788545  1010000 
 3805000   0.85251515   -4.1488494   -4.1488494   -2.8700779  0.022988088   -4.1488494    1.2787715  1010000 
 3806000   0.85204908   -4.1488442   -4.1488442   -2.8707719  0.023872968   -4.1488442    1.2780724  1010000 
 3807000   0.85330246   -4.1505331   -4.1505331   -2.8705807  0.019836236   -4.1505331    1.2799524  1010000 
 3808000   0.85209252   -4.1491267   -4.1491267   -2.8709892  0.021928625   -4.1491267    1.2781375  1010000 
 3809000   0.85165902   -4.1486694   -4.1486694   -2.8711822  0.022710719   -4.1486694    1.2774873  1010000 
 3810000   0.85142209   -4.1483646   -4.1483646   -2.8712327  0.023336396   -4.1483646    1.2771319  1010000 
 3811000   0.85234666   -4.1492196   -4.1492196   -2.8707009  0.019408313   -4.1492196    1.2785187  1010000 
 3812000   0.85215167   -4.1490481   -4.1490481   -2.8708218  0.022186314   -4.1490481    1.2782262  1010000 
 3813000   0.85304089   -4.1495467   -4.1495467   -2.8699866  0.019474734   -4.1495467    1.2795601  1010000 
 3814000   0.85203307   -4.1484552   -4.1484552   -2.8704068  0.023810257   -4.1484552    1.2780483  1010000 
 3815000   0.85206787   -4.1487242   -4.1487242   -2.8706236  0.022749806   -4.1487242    1.2781005  1010000 
 3816000   0.85188737   -4.1482436   -4.1482436   -2.8704138   0.02414866   -4.1482436    1.2778298  1010000 
 3817000   0.85196823    -4.148652    -4.148652   -2.8707009  0.026129369    -4.148652    1.2779511  1010000 
 3818000   0.85224715   -4.1488004   -4.1488004   -2.8704309  0.024021176   -4.1488004    1.2783695  1010000 
 3819000    0.8522159   -4.1482028   -4.1482028   -2.8698802  0.024532667   -4.1482028    1.2783226  1010000 
 3820000   0.85234865   -4.1485783   -4.1485783   -2.8700566   0.02436477   -4.1485783    1.2785217  1010000 
 3821000   0.85145645   -4.1477452   -4.1477452   -2.8705618  0.022513484   -4.1477452    1.2771834  1010000 
 3822000   0.85200039   -4.1488713   -4.1488713    -2.870872  0.018436227   -4.1488713    1.2779993  1010000 
 3823000   0.85219579   -4.1490191   -4.1490191   -2.8707266  0.021129698   -4.1490191    1.2782924  1010000 
 3824000   0.85159864   -4.1477157   -4.1477157    -2.870319  0.023732661   -4.1477157    1.2773967  1010000 
 3825000   0.85194331    -4.147937    -4.147937   -2.8700233  0.021837877    -4.147937    1.2779137  1010000 
 3826000   0.85141251    -4.147978    -4.147978   -2.8708605  0.021994274    -4.147978    1.2771175  1010000 
 3827000   0.85126785   -4.1473304   -4.1473304   -2.8704299  0.022543855   -4.1473304    1.2769005  1010000 
 3828000   0.85158436   -4.1472063   -4.1472063   -2.8698311  0.020257515   -4.1472063    1.2773753  1010000 
 3829000   0.85116617   -4.1463813   -4.1463813   -2.8696333  0.024891868   -4.1463813     1.276748  1010000 
 3830000   0.85169608   -4.1467092   -4.1467092   -2.8691663  0.021768123   -4.1467092    1.2775429  1010000 
 3831000   0.85208663   -4.1473479   -4.1473479   -2.8692192  0.019042447   -4.1473479    1.2781287  1010000 
 3832000   0.85190328   -4.1473582   -4.1473582   -2.8695046  0.020363636   -4.1473582    1.2778537  1010000 
 3833000   0.85243315    -4.148043    -4.148043   -2.8693946   0.02088663    -4.148043    1.2786485  1010000 
 3834000   0.85202369   -4.1476964   -4.1476964   -2.8696622   0.01802545   -4.1476964    1.2780343  1010000 
 3835000   0.85256102   -4.1484283   -4.1484283    -2.869588  0.020121762   -4.1484283    1.2788403  1010000 
 3836000   0.85330698    -4.149164    -4.149164   -2.8692048  0.020376727    -4.149164    1.2799592  1010000 
 3837000   0.85257456   -4.1475978   -4.1475978   -2.8687372  0.022876935   -4.1475978    1.2788606  1010000 
 3838000   0.85340748   -4.1487672   -4.1487672   -2.8686573  0.021664568   -4.1487672      1.28011  1010000 
 3839000   0.85322075   -4.1483116   -4.1483116   -2.8684818  0.025638825   -4.1483116    1.2798299  1010000 
 3840000   0.85359949   -4.1486729   -4.1486729   -2.8682749  0.023257236   -4.1486729     1.280398  1010000 
 3841000   0.85368831   -4.1480037   -4.1480037   -2.8674725  0.022755811   -4.1480037    1.2805312  1010000 
 3842000    0.8547958   -4.1485806   -4.1485806   -2.8663882  0.022592344   -4.1485806    1.2821924  1010000 
 3843000   0.85380831   -4.1472957   -4.1472957   -2.8665845  0.025622444   -4.1472957    1.2807112  1010000 
 3844000   0.85277137   -4.1458288   -4.1458288    -2.866673  0.028615692   -4.1458288    1.2791558  1010000 
 3845000   0.85276075   -4.1459991   -4.1459991   -2.8668592  0.026741137   -4.1459991    1.2791399  1010000 
 3846000   0.85345436   -4.1463952   -4.1463952   -2.8662149  0.026015369   -4.1463952    1.2801803  1010000 
 3847000   0.85331638    -4.145752    -4.145752   -2.8657787  0.023052896    -4.145752    1.2799733  1010000 
 3848000   0.85352844    -4.146492    -4.146492   -2.8662006  0.024018367    -4.146492    1.2802914  1010000 
 3849000   0.85229658   -4.1447532   -4.1447532   -2.8663096  0.027001261   -4.1447532    1.2784436  1010000 
 3850000   0.85267035   -4.1452292   -4.1452292   -2.8662249  0.026719553   -4.1452292    1.2790043  1010000 
 3851000   0.85286837   -4.1454643   -4.1454643    -2.866163  0.023262743   -4.1454643    1.2793013  1010000 
 3852000    0.8529677   -4.1453155   -4.1453155   -2.8658652  0.023980938   -4.1453155    1.2794503  1010000 
 3853000   0.85250202   -4.1453303   -4.1453303   -2.8665786  0.024145984   -4.1453303    1.2787518  1010000 
 3854000   0.85228055   -4.1455801   -4.1455801   -2.8671605  0.018697757   -4.1455801    1.2784196  1010000 
 3855000   0.85202017   -4.1454552   -4.1454552   -2.8674263  0.019816897   -4.1454552     1.278029  1010000 
 3856000   0.85185311   -4.1453296   -4.1453296   -2.8675512  0.020310994   -4.1453296    1.2777784  1010000 
 3857000   0.85200347   -4.1453274   -4.1453274   -2.8673235  0.020243346   -4.1453274    1.2780039  1010000 
 3858000   0.85164748   -4.1446185   -4.1446185   -2.8671486  0.019814988   -4.1446185      1.27747  1010000 
 3859000   0.85169074   -4.1446183   -4.1446183   -2.8670835  0.023368329   -4.1446183    1.2775348  1010000 
 3860000    0.8517886   -4.1444544   -4.1444544   -2.8667727  0.022692172   -4.1444544    1.2776816  1010000 
 3861000   0.85274785     -4.14502     -4.14502   -2.8658995   0.01987424     -4.14502    1.2791205  1010000 
 3862000   0.85298144   -4.1457349   -4.1457349    -2.866264  0.018098022   -4.1457349    1.2794709  1010000 
 3863000    0.8516802   -4.1435372   -4.1435372   -2.8660182  0.022698198   -4.1435372     1.277519  1010000 
 3864000   0.85235341   -4.1439761   -4.1439761   -2.8654473   0.02148674   -4.1439761    1.2785288  1010000 
 3865000   0.85145796   -4.1432671   -4.1432671   -2.8660814  0.018713285   -4.1432671    1.2771857  1010000 
 3866000   0.85194774   -4.1436965   -4.1436965   -2.8657761  0.019479071   -4.1436965    1.2779203  1010000 
 3867000   0.85229233   -4.1435105   -4.1435105   -2.8650733  0.022474654   -4.1435105    1.2784372  1010000 
 3868000   0.85218728   -4.1434848   -4.1434848   -2.8652052  0.023181945   -4.1434848    1.2782796  1010000 
 3869000   0.85311633   -4.1445531   -4.1445531   -2.8648798  0.023528411   -4.1445531    1.2796732  1010000 
 3870000   0.85324488   -4.1450096   -4.1450096   -2.8651435   0.02089111   -4.1450096    1.2798661  1010000 
 3871000   0.85284331   -4.1440611   -4.1440611   -2.8647974  0.021524244   -4.1440611    1.2792637  1010000 
 3872000   0.85227954   -4.1435506   -4.1435506   -2.8651325  0.021919297   -4.1435506     1.278418  1010000 
 3873000   0.85218095   -4.1431021   -4.1431021    -2.864832  0.024378097   -4.1431021    1.2782702  1010000 
 3874000   0.85237894   -4.1436009   -4.1436009   -2.8650338  0.021739514   -4.1436009    1.2785671  1010000 
 3875000   0.85208285   -4.1434035   -4.1434035   -2.8652805  0.021772627   -4.1434035     1.278123  1010000 
 3876000   0.85203434   -4.1436518   -4.1436518   -2.8656015  0.018236361   -4.1436518    1.2780502  1010000 
 3877000   0.85281142   -4.1444828   -4.1444828    -2.865267   0.01953369   -4.1444828    1.2792159  1010000 
 3878000   0.85182821   -4.1430536   -4.1430536   -2.8653125  0.023958251   -4.1430536     1.277741  1010000 
 3879000   0.85250566   -4.1432963   -4.1432963   -2.8645391  0.023331311   -4.1432963    1.2787572  1010000 
 3880000   0.85276284   -4.1432811   -4.1432811   -2.8641381    0.0194262   -4.1432811     1.279143  1010000 
 3881000   0.85265523   -4.1427907   -4.1427907   -2.8638091  0.021420663   -4.1427907    1.2789816  1010000 
 3882000   0.85296389   -4.1432247   -4.1432247   -2.8637801  0.021001664   -4.1432247    1.2794446  1010000 
 3883000    0.8530924   -4.1431992   -4.1431992   -2.8635619  0.022674664   -4.1431992    1.2796373  1010000 
 3884000   0.85272254   -4.1431274   -4.1431274   -2.8640449  0.025379832   -4.1431274    1.2790826  1010000 
 3885000   0.85280217    -4.143639    -4.143639    -2.864437  0.022267335    -4.143639     1.279202  1010000 
 3886000   0.85286391   -4.1434814   -4.1434814   -2.8641868   0.02146499   -4.1434814    1.2792946  1010000 
 3887000   0.85410394   -4.1446716   -4.1446716    -2.863517  0.019685339   -4.1446716    1.2811546  1010000 
 3888000   0.85269948   -4.1434428   -4.1434428   -2.8643949  0.024254302   -4.1434428     1.279048  1010000 
 3889000   0.85351133   -4.1450781   -4.1450781   -2.8648123  0.017569044   -4.1450781    1.2802657  1010000 
 3890000   0.85294988   -4.1440982   -4.1440982   -2.8646747  0.020793009   -4.1440982    1.2794236  1010000 
 3891000   0.85261386    -4.142907    -4.142907   -2.8639875  0.021544611    -4.142907    1.2789195  1010000 
 3892000   0.85238327   -4.1429033   -4.1429033   -2.8643297  0.022699971   -4.1429033    1.2785736  1010000 
 3893000   0.85300984   -4.1437371   -4.1437371   -2.8642236  0.018412356   -4.1437371    1.2795135  1010000 
 3894000   0.85339849   -4.1441898   -4.1441898   -2.8640934  0.019720555   -4.1441898    1.2800965  1010000 
 3895000   0.85240307    -4.142545    -4.142545   -2.8639416  0.021517024    -4.142545    1.2786033  1010000 
 3896000   0.85304195   -4.1440031   -4.1440031   -2.8644415  0.020363106   -4.1440031    1.2795617  1010000 
 3897000   0.85285582   -4.1440443   -4.1440443   -2.8647619  0.020754684   -4.1440443    1.2792825  1010000 
 3898000   0.85213101   -4.1428202   -4.1428202    -2.864625  0.024434843   -4.1428202    1.2781953  1010000 
 3899000   0.85184247   -4.1428165   -4.1428165   -2.8650541  0.021336646   -4.1428165    1.2777624  1010000 
 3900000   0.85296138   -4.1443816   -4.1443816   -2.8649408  0.017030718   -4.1443816    1.2794408  1010000 
 3901000   0.85138941   -4.1422447   -4.1422447   -2.8651618  0.021783625   -4.1422447    1.2770829  1010000 
 3902000   0.85216456   -4.1431315   -4.1431315   -2.8648859  0.021650591   -4.1431315    1.2782456  1010000 
 3903000   0.85246497   -4.1436091   -4.1436091   -2.8649129   0.01982358   -4.1436091    1.2786962  1010000 
 3904000   0.85243951   -4.1436743   -4.1436743   -2.8650163  0.024081435   -4.1436743     1.278658  1010000 
 3905000   0.85327116   -4.1445894   -4.1445894    -2.864684  0.019775072   -4.1445894    1.2799055  1010000 
 3906000     0.852807   -4.1439004   -4.1439004   -2.8646912  0.024809415   -4.1439004    1.2792092  1010000 
 3907000   0.85360445    -4.144795    -4.144795   -2.8643896  0.024504914    -4.144795    1.2804054  1010000 
 3908000   0.85421002   -4.1451292   -4.1451292   -2.8638154  0.017572655   -4.1451292    1.2813138  1010000 
 3909000   0.85315045   -4.1437981   -4.1437981   -2.8640736  0.023379064   -4.1437981    1.2797244  1010000 
 3910000    0.8527863   -4.1427602   -4.1427602    -2.863582  0.026420665   -4.1427602    1.2791782  1010000 
 3911000   0.85302674   -4.1428056   -4.1428056   -2.8632668  0.023986952   -4.1428056    1.2795388  1010000 
 3912000   0.85291131   -4.1425519   -4.1425519   -2.8631862  0.022738844   -4.1425519    1.2793657  1010000 
 3913000   0.85369343   -4.1430055   -4.1430055   -2.8624666  0.026952897   -4.1430055    1.2805389  1010000 
 3914000   0.85285143   -4.1421424   -4.1421424   -2.8628665  0.025164324   -4.1421424    1.2792759  1010000 
 3915000   0.85356629   -4.1432318   -4.1432318   -2.8628837  0.025054042   -4.1432318    1.2803482  1010000 
 3916000   0.85362768   -4.1430852   -4.1430852    -2.862645  0.026217122   -4.1430852    1.2804403  1010000 
 3917000     0.853443   -4.1432279   -4.1432279   -2.8630647  0.026649623   -4.1432279    1.2801632  1010000 
 3918000   0.85370787   -4.1435969   -4.1435969   -2.8630364  0.027344143   -4.1435969    1.2805605  1010000 
 3919000    0.8533853   -4.1432937   -4.1432937    -2.863217  0.028535709   -4.1432937    1.2800767  1010000 
 3920000    0.8531209   -4.1430864   -4.1430864   -2.8634063  0.025713355   -4.1430864    1.2796801  1010000 
 3921000   0.85320506   -4.1432718   -4.1432718   -2.8634655  0.024990355   -4.1432718    1.2798063  1010000 
 3922000   0.85358963   -4.1431938   -4.1431938   -2.8628106  0.027350501   -4.1431938    1.2803832  1010000 
 3923000   0.85383417   -4.1439259   -4.1439259   -2.8631759  0.025547379   -4.1439259      1.28075  1010000 
 3924000   0.85284746   -4.1422614   -4.1422614   -2.8629915  0.028391424   -4.1422614    1.2792699  1010000 
 3925000   0.85308499   -4.1424144   -4.1424144   -2.8627882  0.025125006   -4.1424144    1.2796262  1010000 
 3926000   0.85334661   -4.1426131   -4.1426131   -2.8625944  0.023100705   -4.1426131    1.2800186  1010000 
 3927000   0.85349352   -4.1435195   -4.1435195   -2.8632805  0.023110019   -4.1435195     1.280239  1010000 
 3928000    0.8529781    -4.142375    -4.142375   -2.8629092  0.022199851    -4.142375    1.2794659  1010000 
 3929000   0.85214943   -4.1414955   -4.1414955   -2.8632727  0.019750007   -4.1414955    1.2782229  1010000 
 3930000   0.85258864   -4.1420272   -4.1420272   -2.8631455  0.021468859   -4.1420272    1.2788817  1010000 
 3931000    0.8532475   -4.1432461   -4.1432461   -2.8633762  0.018685753   -4.1432461      1.27987  1010000 
 3932000   0.85305834   -4.1429151   -4.1429151   -2.8633289   0.01599329   -4.1429151    1.2795862  1010000 
 3933000   0.85320121   -4.1432694   -4.1432694   -2.8634689  0.019368044   -4.1432694    1.2798006  1010000 
 3934000    0.8521695    -4.141795    -4.141795    -2.863542  0.020816411    -4.141795     1.278253  1010000 
 3935000   0.85271991   -4.1424278   -4.1424278   -2.8633492  0.020363003   -4.1424278    1.2790786  1010000 
 3936000   0.85320776   -4.1427061   -4.1427061   -2.8628958  0.020337273   -4.1427061    1.2798104  1010000 
 3937000   0.85299392   -4.1430432   -4.1430432   -2.8635535  0.017855945   -4.1430432    1.2794896  1010000 
 3938000   0.85287922   -4.1418312   -4.1418312   -2.8625136  0.020484077   -4.1418312    1.2793176  1010000 
 3939000   0.85326638   -4.1426508   -4.1426508   -2.8627525  0.020855227   -4.1426508    1.2798983  1010000 
 3940000   0.85342558   -4.1427717   -4.1427717   -2.8626346  0.018979292   -4.1427717    1.2801371  1010000 
 3941000   0.85267459   -4.1416137   -4.1416137   -2.8626031   0.02373157   -4.1416137    1.2790106  1010000 
 3942000   0.85366651   -4.1425687   -4.1425687   -2.8620702   0.01928219   -4.1425687    1.2804985  1010000 
 3943000   0.85378233   -4.1426623   -4.1426623     -2.86199  0.022492363   -4.1426623    1.2806722  1010000 
 3944000   0.85388465   -4.1422877   -4.1422877    -2.861462  0.019572992   -4.1422877    1.2808257  1010000 
 3945000   0.85337081   -4.1415659   -4.1415659    -2.861511  0.023110004   -4.1415659    1.2800549  1010000 
 3946000   0.85350541   -4.1421737   -4.1421737   -2.8619169  0.020942828   -4.1421737    1.2802568  1010000 
 3947000   0.85322561    -4.141898    -4.141898   -2.8620609  0.022520832    -4.141898    1.2798371  1010000 
 3948000   0.85341205   -4.1422658   -4.1422658    -2.862149  0.019924764   -4.1422658    1.2801168  1010000 
 3949000   0.85291104   -4.1412217   -4.1412217   -2.8618564  0.022513812   -4.1412217    1.2793653  1010000 
 3950000   0.85367343   -4.1414894   -4.1414894   -2.8609805  0.018970388   -4.1414894    1.2805089  1010000 
 3951000     0.852601   -4.1403833   -4.1403833   -2.8614831  0.020795843   -4.1403833    1.2789002  1010000 
 3952000   0.85253448   -4.1401902   -4.1401902   -2.8613898  0.022502577   -4.1401902    1.2788004  1010000 
 3953000     0.853074   -4.1409269   -4.1409269   -2.8613172  0.019815269   -4.1409269    1.2796097  1010000 
 3954000   0.85403953   -4.1415558   -4.1415558   -2.8604977  0.020977493   -4.1415558     1.281058  1010000 
 3955000    0.8534927   -4.1408121   -4.1408121   -2.8605743  0.021597334   -4.1408121    1.2802378  1010000 
 3956000   0.85274777   -4.1398621   -4.1398621   -2.8607417  0.025169851   -4.1398621    1.2791204  1010000 
 3957000   0.85279873   -4.1401586   -4.1401586   -2.8609617   0.02694077   -4.1401586    1.2791968  1010000 
 3958000   0.85406424   -4.1411515   -4.1411515   -2.8600565  0.024989687   -4.1411515    1.2810951  1010000 
 3959000   0.85408212   -4.1415251   -4.1415251   -2.8604032  0.023821902   -4.1415251    1.2811219  1010000 
 3960000   0.85339197    -4.140156    -4.140156   -2.8600693  0.028132606    -4.140156    1.2800867  1010000 
 3961000   0.85427578   -4.1413806   -4.1413806   -2.8599682  0.026933474   -4.1413806    1.2814124  1010000 
 3962000   0.85386973   -4.1413506   -4.1413506   -2.8605472  0.022746218   -4.1413506    1.2808033  1010000 
 3963000   0.85414156   -4.1411024   -4.1411024   -2.8598913  0.023681929   -4.1411024    1.2812111  1010000 
 3964000   0.85444519   -4.1414545   -4.1414545    -2.859788  0.023304058   -4.1414545    1.2816665  1010000 
 3965000   0.85441406   -4.1415313   -4.1415313   -2.8599114  0.023010417   -4.1415313    1.2816198  1010000 
 3966000   0.85468973   -4.1419705   -4.1419705   -2.8599372  0.023227743   -4.1419705    1.2820333  1010000 
 3967000   0.85474524   -4.1414054   -4.1414054   -2.8592888  0.021350052   -4.1414054    1.2821166  1010000 
 3968000   0.85354847   -4.1402437   -4.1402437   -2.8599222  0.022537175   -4.1402437    1.2803214  1010000 
 3969000   0.85360618   -4.1406893   -4.1406893   -2.8602813  0.019394165   -4.1406893     1.280408  1010000 
 3970000   0.85368907   -4.1404776   -4.1404776   -2.8599453  0.020604363   -4.1404776    1.2805323  1010000 
 3971000   0.85345418   -4.1397766   -4.1397766   -2.8595966  0.025206245   -4.1397766      1.28018  1010000 
 3972000   0.85322561   -4.1396479   -4.1396479   -2.8598108  0.022814134   -4.1396479    1.2798372  1010000 
 3973000   0.85340251   -4.1400721   -4.1400721   -2.8599696  0.020301395   -4.1400721    1.2801025  1010000 
 3974000   0.85344339   -4.1400746   -4.1400746   -2.8599108  0.022166002   -4.1400746    1.2801638  1010000 
 3975000   0.85349255   -4.1395701   -4.1395701   -2.8593326  0.024058194   -4.1395701    1.2802376  1010000 
 3976000   0.85360348   -4.1395512   -4.1395512   -2.8591473  0.021711487   -4.1395512     1.280404  1010000 
 3977000   0.85419915   -4.1403617   -4.1403617   -2.8590642  0.021342894   -4.1403617    1.2812975  1010000 
 3978000   0.85458207   -4.1409125   -4.1409125   -2.8590406  0.020427768   -4.1409125    1.2818718  1010000 
 3979000   0.85398684    -4.139816    -4.139816    -2.858837  0.024929491    -4.139816     1.280979  1010000 
 3980000   0.85480154   -4.1406266   -4.1406266   -2.8584256  0.019866206   -4.1406266     1.282201  1010000 
 3981000   0.85416197   -4.1400029   -4.1400029   -2.8587613    0.0197396   -4.1400029    1.2812417  1010000 
 3982000    0.8537335   -4.1393053   -4.1393053   -2.8587063  0.023679784   -4.1393053     1.280599  1010000 
 3983000   0.85405122   -4.1390626   -4.1390626    -2.857987  0.021696594   -4.1390626    1.2810756  1010000 
 3984000   0.85319047   -4.1382582   -4.1382582   -2.8584737  0.025756285   -4.1382582    1.2797844  1010000 
 3985000   0.85418376   -4.1396388   -4.1396388   -2.8583645  0.022382787   -4.1396388    1.2812744  1010000 
 3986000   0.85439124   -4.1405381   -4.1405381   -2.8589525  0.020864162   -4.1405381    1.2815856  1010000 
 3987000   0.85357333   -4.1396412   -4.1396412   -2.8592824  0.019946817   -4.1396412    1.2803587  1010000 
 3988000   0.85378285   -4.1401601   -4.1401601   -2.8594871   0.02167157   -4.1401601     1.280673  1010000 
 3989000   0.85430942   -4.1406579   -4.1406579    -2.859195  0.022234041   -4.1406579    1.2814629  1010000 
 3990000    0.8538514   -4.1397049   -4.1397049   -2.8589291  0.022187138   -4.1397049    1.2807758  1010000 
 3991000   0.85354004   -4.1393593   -4.1393593   -2.8590505  0.019496631   -4.1393593    1.2803088  1010000 
 3992000   0.85350025   -4.1394469   -4.1394469   -2.8591978  0.017522589   -4.1394469    1.2802491  1010000 
 3993000   0.85237868   -4.1376452   -4.1376452   -2.8590784  0.024845839   -4.1376452    1.2785668  1010000 
 3994000   0.85316427    -4.138595    -4.138595   -2.8588499  0.016666049    -4.138595    1.2797451  1010000 
 3995000   0.85356995   -4.1390496   -4.1390496    -2.858696   0.01844031   -4.1390496    1.2803537  1010000 
 3996000   0.85326551    -4.139033    -4.139033    -2.859136   0.01706163    -4.139033     1.279897  1010000 
 3997000   0.85287444   -4.1386921   -4.1386921   -2.8593817  0.016577651   -4.1386921    1.2793104  1010000 
 3998000    0.8525225   -4.1371637   -4.1371637   -2.8583812  0.023674232   -4.1371637    1.2787825  1010000 
 3999000   0.85424645    -4.139583    -4.139583   -2.8582146  0.016318551    -4.139583    1.2813684  1010000 
 4000000   0.85388034   -4.1391794   -4.1391794   -2.8583601  0.019075304   -4.1391794    1.2808192  1010000 
 4001000   0.85351239   -4.1379428   -4.1379428   -2.8576755  0.023570085   -4.1379428    1.2802673  1010000 
 4002000   0.85476122   -4.1391651   -4.1391651   -2.8570246  0.021820067   -4.1391651    1.2821406  1010000 
 4003000   0.85409789   -4.1386481   -4.1386481   -2.8575025  0.026466906   -4.1386481    1.2811456  1010000 
 4004000   0.85501909   -4.1396527   -4.1396527   -2.8571253  0.025154853   -4.1396527    1.2825274  1010000 
 4005000   0.85468836   -4.1386616   -4.1386616   -2.8566303  0.027279076   -4.1386616    1.2820313  1010000 
 4006000   0.85583028   -4.1397382   -4.1397382   -2.8559941  0.022635066   -4.1397382    1.2837441  1010000 
 4007000   0.85465481   -4.1385636   -4.1385636   -2.8565827  0.024627947   -4.1385636    1.2819809  1010000 
 4008000   0.85501424   -4.1391045   -4.1391045   -2.8565844  0.024232088   -4.1391045    1.2825201  1010000 
 4009000   0.85492899   -4.1382586   -4.1382586   -2.8558664   0.03067219   -4.1382586    1.2823922  1010000 
 4010000   0.85480021   -4.1382542   -4.1382542   -2.8560551  0.026346308   -4.1382542     1.282199  1010000 
 4011000   0.85478047   -4.1384612   -4.1384612   -2.8562917  0.026889696   -4.1384612    1.2821694  1010000 
 4012000   0.85468312   -4.1382185   -4.1382185   -2.8561951  0.022646854   -4.1382185    1.2820234  1010000 
 4013000   0.85551856   -4.1399614   -4.1399614   -2.8566849  0.019844002   -4.1399614    1.2832766  1010000 
 4014000   0.85385468   -4.1376143   -4.1376143   -2.8568336  0.027617582   -4.1376143    1.2807808  1010000 
 4015000   0.85467517   -4.1385906   -4.1385906   -2.8565791  0.023174755   -4.1385906    1.2820115  1010000 
 4016000   0.85410461   -4.1380837   -4.1380837    -2.856928  0.020794667   -4.1380837    1.2811557  1010000 
 4017000   0.85444136   -4.1384527   -4.1384527   -2.8567919  0.023701928   -4.1384527    1.2816608  1010000 
 4018000   0.85309797   -4.1369071   -4.1369071   -2.8572614  0.021840559   -4.1369071    1.2796457  1010000 
 4019000   0.85308513   -4.1365387   -4.1365387   -2.8569122  0.019294607   -4.1365387    1.2796264  1010000 
 4020000   0.85338357   -4.1361606   -4.1361606   -2.8560865  0.021171557   -4.1361606    1.2800741  1010000 
 4021000   0.85337689   -4.1365948   -4.1365948   -2.8565307  0.021335378   -4.1365948    1.2800641  1010000 
 4022000   0.85290382   -4.1356782   -4.1356782   -2.8563237  0.024713706   -4.1356782    1.2793545  1010000 
 4023000    0.8531722   -4.1359157   -4.1359157   -2.8561586  0.020878972   -4.1359157     1.279757  1010000 
 4024000   0.85405607   -4.1369503   -4.1369503   -2.8558675  0.020556355   -4.1369503    1.2810828  1010000 
 4025000   0.85375602   -4.1368552   -4.1368552   -2.8562224  0.018828375   -4.1368552    1.2806328  1010000 
 4026000   0.85348275   -4.1363149   -4.1363149    -2.856092  0.023413125   -4.1363149    1.2802229  1010000 
 4027000   0.85382602   -4.1364979   -4.1364979   -2.8557601  0.025269971   -4.1364979    1.2807378  1010000 
 4028000   0.85422548   -4.1370584   -4.1370584   -2.8557214  0.018791149   -4.1370584    1.2813369  1010000 
 4029000   0.85406904   -4.1369851   -4.1369851   -2.8558828  0.022898907   -4.1369851    1.2811023  1010000 
 4030000   0.85395019   -4.1362767   -4.1362767   -2.8553527  0.023321724   -4.1362767     1.280924  1010000 
 4031000   0.85419246   -4.1368328   -4.1368328   -2.8555454  0.023054555   -4.1368328    1.2812874  1010000 
 4032000   0.85445875   -4.1365633   -4.1365633   -2.8548764  0.020145764   -4.1365633    1.2816868  1010000 
 4033000   0.85484674   -4.1369449   -4.1369449   -2.8546761  0.021236303   -4.1369449    1.2822688  1010000 
 4034000    0.8540476   -4.1357163   -4.1357163   -2.8546461  0.021389767   -4.1357163    1.2810701  1010000 
 4035000   0.85458159   -4.1365436   -4.1365436   -2.8546725  0.020803769   -4.1365436    1.2818711  1010000 
 4036000   0.85467999   -4.1360659   -4.1360659   -2.8540472  0.023370182   -4.1360659    1.2820187  1010000 
 4037000    0.8541324   -4.1355116   -4.1355116   -2.8543142  0.023243779   -4.1355116    1.2811973  1010000 
 4038000   0.85501949   -4.1363815   -4.1363815   -2.8538536  0.020011255   -4.1363815     1.282528  1010000 
 4039000   0.85448001   -4.1358483   -4.1358483   -2.8541295  0.023281155   -4.1358483    1.2817187  1010000 
 4040000   0.85528621   -4.1371592   -4.1371592   -2.8542312  0.015796997   -4.1371592     1.282928  1010000 
 4041000   0.85478419   -4.1357977   -4.1357977   -2.8536227  0.021836309   -4.1357977     1.282175  1010000 
 4042000   0.85374821   -4.1352836   -4.1352836   -2.8546625  0.020819013   -4.1352836     1.280621  1010000 
 4043000    0.8541707   -4.1358889   -4.1358889   -2.8546341  0.020703919   -4.1358889    1.2812548  1010000 
 4044000   0.85448235   -4.1358015   -4.1358015   -2.8540792  0.019156933   -4.1358015    1.2817223  1010000 
 4045000   0.85453666   -4.1361367   -4.1361367    -2.854333  0.019823323   -4.1361367    1.2818037  1010000 
 4046000   0.85387121   -4.1353066   -4.1353066   -2.8545011  0.025462629   -4.1353066    1.2808056  1010000 
 4047000   0.85434351   -4.1364888   -4.1364888   -2.8549748   0.01889358   -4.1364888     1.281514  1010000 
 4048000   0.85410395   -4.1359969   -4.1359969   -2.8548422  0.021579037   -4.1359969    1.2811547  1010000 
 4049000   0.85384997   -4.1357914   -4.1357914   -2.8550177  0.018873672   -4.1357914    1.2807737  1010000 
 4050000   0.85452779   -4.1366598   -4.1366598   -2.8548694  0.021289838   -4.1366598    1.2817904  1010000 
 4051000   0.85490054   -4.1372097   -4.1372097   -2.8548602  0.020827946   -4.1372097    1.2823495  1010000 
 4052000   0.85353273   -4.1350976   -4.1350976   -2.8547998  0.020858449   -4.1350976    1.2802978  1010000 
 4053000   0.85400688   -4.1355677   -4.1355677   -2.8545587  0.022058557   -4.1355677     1.281009  1010000 
 4054000   0.85389633   -4.1353167   -4.1353167   -2.8544735   0.02004159   -4.1353167    1.2808432  1010000 
 4055000   0.85423726   -4.1356207   -4.1356207   -2.8542661  0.019789974   -4.1356207    1.2813546  1010000 
 4056000   0.85379012   -4.1349493   -4.1349493   -2.8542654  0.024739892   -4.1349493    1.2806839  1010000 
 4057000   0.85417979   -4.1354076   -4.1354076   -2.8541392  0.024823704   -4.1354076    1.2812684  1010000 
 4058000   0.85391187   -4.1347042   -4.1347042   -2.8538376  0.023434516   -4.1347042    1.2808665  1010000 
 4059000   0.85405802   -4.1351668   -4.1351668    -2.854081  0.023596967   -4.1351668    1.2810858  1010000 
 4060000   0.85434301   -4.1350186   -4.1350186   -2.8535053  0.020113447   -4.1350186    1.2815132  1010000 
 4061000   0.85351879   -4.1336812   -4.1336812   -2.8534043  0.023605081   -4.1336812    1.2802769  1010000 
 4062000   0.85387867   -4.1343952   -4.1343952   -2.8535785  0.023206491   -4.1343952    1.2808167  1010000 
 4063000   0.85488052   -4.1357614   -4.1357614   -2.8534419  0.019007004   -4.1357614    1.2823195  1010000 
 4064000   0.85473394   -4.1355897   -4.1355897   -2.8534901  0.025352456   -4.1355897    1.2820996  1010000 
 4065000   0.85465573   -4.1356485   -4.1356485   -2.8536661  0.025000927   -4.1356485    1.2819823  1010000 
 4066000   0.85522464    -4.135466    -4.135466   -2.8526303  0.023259964    -4.135466    1.2828357  1010000 
 4067000   0.85562719   -4.1353722   -4.1353722   -2.8519327  0.023628014   -4.1353722    1.2834395  1010000 
 4068000   0.85561304   -4.1352772   -4.1352772   -2.8518589  0.022934576   -4.1352772    1.2834183  1010000 
 4069000    0.8562066   -4.1355586   -4.1355586   -2.8512499   0.02653888   -4.1355586    1.2843086  1010000 
 4070000   0.85505587   -4.1342042   -4.1342042   -2.8516217  0.026412761   -4.1342042    1.2825825  1010000 
 4071000   0.85580469   -4.1356053   -4.1356053   -2.8518996  0.025440631   -4.1356053    1.2837058  1010000 
 4072000    0.8563556   -4.1365615   -4.1365615   -2.8520294  0.021841228   -4.1365615    1.2845321  1010000 
 4073000   0.85584057   -4.1354811   -4.1354811   -2.8517215  0.023357953   -4.1354811    1.2837596  1010000 
 4074000   0.85538169   -4.1346498   -4.1346498   -2.8515785  0.028383227   -4.1346498    1.2830713  1010000 
 4075000   0.85549887   -4.1356065   -4.1356065   -2.8523595   0.02282506   -4.1356065     1.283247  1010000 
 4076000   0.85522184    -4.135058    -4.135058   -2.8522265  0.025473969    -4.135058    1.2828315  1010000 
 4077000   0.85622625   -4.1361943   -4.1361943   -2.8518562  0.022064737   -4.1361943    1.2843381  1010000 
 4078000   0.85472318   -4.1345054   -4.1345054   -2.8524219  0.024584965   -4.1345054    1.2820835  1010000 
 4079000   0.85464372   -4.1342002   -4.1342002   -2.8522359  0.025150457   -4.1342002    1.2819643  1010000 
 4080000   0.85465473   -4.1342277   -4.1342277   -2.8522469  0.019963083   -4.1342277    1.2819808  1010000 
 4081000   0.85495429   -4.1342632   -4.1342632   -2.8518331  0.022179827   -4.1342632    1.2824302  1010000 
 4082000   0.85488562   -4.1339711   -4.1339711    -2.851644  0.021875833   -4.1339711    1.2823272  1010000 
 4083000   0.85410925   -4.1330638   -4.1330638   -2.8519012  0.020782637   -4.1330638    1.2811626  1010000 
 4084000   0.85463212   -4.1336082   -4.1336082   -2.8516613  0.023902691   -4.1336082    1.2819469  1010000 
 4085000   0.85391616   -4.1333418   -4.1333418   -2.8524688  0.020540075   -4.1333418     1.280873  1010000 
 4086000    0.8544701   -4.1340342   -4.1340342   -2.8523304  0.019449148   -4.1340342    1.2817039  1010000 
 4087000    0.8530278   -4.1321541   -4.1321541   -2.8526136  0.023321587   -4.1321541    1.2795404  1010000 
 4088000   0.85349709    -4.132776    -4.132776   -2.8525317  0.022432604    -4.132776    1.2802444  1010000 
 4089000   0.85361632   -4.1332937   -4.1332937   -2.8528705  0.020043823   -4.1332937    1.2804232  1010000 
 4090000   0.85403122    -4.133816    -4.133816   -2.8527704  0.018315023    -4.133816    1.2810456  1010000 
 4091000   0.85458603   -4.1335568   -4.1335568   -2.8516791  0.021447617   -4.1335568    1.2818778  1010000 
 4092000    0.8552779   -4.1342939   -4.1342939   -2.8513783  0.020258159   -4.1342939    1.2829156  1010000 
 4093000   0.85468899   -4.1333667   -4.1333667   -2.8513345  0.021170782   -4.1333667    1.2820322  1010000 
 4094000   0.85423836   -4.1329282   -4.1329282   -2.8515719  0.023342287   -4.1329282    1.2813563  1010000 
 4095000   0.85520375   -4.1339062   -4.1339062   -2.8511018  0.021179442   -4.1339062    1.2828044  1010000 
 4096000   0.85492577   -4.1337453   -4.1337453   -2.8513579  0.020411158   -4.1337453    1.2823874  1010000 
 4097000   0.85452929   -4.1332718   -4.1332718   -2.8514792  0.021117694   -4.1332718    1.2817927  1010000 
 4098000   0.85449732   -4.1329881   -4.1329881   -2.8512434  0.025831005   -4.1329881    1.2817447  1010000 
 4099000    0.8553874   -4.1334533   -4.1334533   -2.8503735  0.020056292   -4.1334533    1.2830798  1010000 
 4100000   0.85527368   -4.1338552   -4.1338552   -2.8509459   0.02085407   -4.1338552    1.2829093  1010000 
 4101000    0.8548155   -4.1322207   -4.1322207   -2.8499987  0.024334919   -4.1322207     1.282222  1010000 
 4102000   0.85542813   -4.1331957   -4.1331957   -2.8500548  0.017424531   -4.1331957    1.2831409  1010000 
 4103000   0.85590069   -4.1337996   -4.1337996   -2.8499498  0.022143368   -4.1337996    1.2838498  1010000 
 4104000   0.85548396   -4.1332944   -4.1332944   -2.8500697  0.021870805   -4.1332944    1.2832247  1010000 
 4105000   0.85507778   -4.1327426   -4.1327426   -2.8501272  0.022631109   -4.1327426    1.2826154  1010000 
 4106000   0.85545547   -4.1335225   -4.1335225   -2.8503406  0.020751202   -4.1335225    1.2831819  1010000 
 4107000   0.85573808   -4.1338435   -4.1338435   -2.8502377  0.021085782   -4.1338435    1.2836059  1010000 
 4108000   0.85498754   -4.1329864   -4.1329864   -2.8505064  0.020959028   -4.1329864      1.28248  1010000 
 4109000   0.85403174   -4.1311504   -4.1311504   -2.8501041  0.023323953   -4.1311504    1.2810463  1010000 
 4110000    0.8552487   -4.1329229   -4.1329229   -2.8500511  0.022700333   -4.1329229    1.2828718  1010000 
 4111000   0.85572553   -4.1338551   -4.1338551   -2.8502681  0.022498901   -4.1338551     1.283587  1010000 
 4112000   0.85584976   -4.1344887   -4.1344887   -2.8507153  0.021843772   -4.1344887    1.2837734  1010000 
 4113000   0.85482354   -4.1328786   -4.1328786   -2.8506445  0.021442929   -4.1328786     1.282234  1010000 
 4114000   0.85538893   -4.1336106   -4.1336106   -2.8505284  0.021148531   -4.1336106    1.2830821  1010000 
 4115000   0.85560976   -4.1334242   -4.1334242   -2.8500108  0.020885178   -4.1334242    1.2834134  1010000 
 4116000   0.85606344   -4.1341388   -4.1341388   -2.8500449  0.020141144   -4.1341388    1.2840939  1010000 
 4117000   0.85534704   -4.1332269   -4.1332269   -2.8502076  0.023262463   -4.1332269    1.2830193  1010000 
 4118000   0.85570269   -4.1339084   -4.1339084   -2.8503556  0.025076087   -4.1339084    1.2835528  1010000 
 4119000   0.85508627   -4.1328811   -4.1328811    -2.850253  0.020968211   -4.1328811    1.2826281  1010000 
 4120000    0.8559756   -4.1341147   -4.1341147   -2.8501525  0.020693984   -4.1341147    1.2839621  1010000 
 4121000   0.85598543   -4.1341819   -4.1341819    -2.850205  0.023436805   -4.1341819    1.2839769  1010000 
 4122000   0.85654039   -4.1341366   -4.1341366   -2.8493273  0.022721226   -4.1341366    1.2848093  1010000 
 4123000   0.85604209   -4.1328898   -4.1328898   -2.8488279   0.02568699   -4.1328898    1.2840619  1010000 
 4124000   0.85611289   -4.1328865   -4.1328865   -2.8487184   0.02965049   -4.1328865    1.2841681  1010000 
 4125000   0.85662003   -4.1331413   -4.1331413   -2.8482125  0.021422675   -4.1331413    1.2849288  1010000 
 4126000   0.85562974   -4.1320204   -4.1320204    -2.848577  0.024196312   -4.1320204    1.2834433  1010000 
 4127000   0.85623834    -4.133229    -4.133229   -2.8488728   0.02381718    -4.133229    1.2843562  1010000 
 4128000   0.85673429   -4.1342073   -4.1342073   -2.8491072  0.017836096   -4.1342073    1.2851002  1010000 
 4129000   0.85584512   -4.1332559   -4.1332559   -2.8494895  0.024637223   -4.1332559    1.2837664  1010000 
 4130000   0.85578273   -4.1329552   -4.1329552   -2.8492823  0.022086146   -4.1329552    1.2836728  1010000 
 4131000   0.85515437   -4.1325306   -4.1325306   -2.8498003  0.022626867   -4.1325306    1.2827303  1010000 
 4132000   0.85586484   -4.1336688   -4.1336688   -2.8498728  0.021421237   -4.1336688     1.283796  1010000 
 4133000   0.85540167   -4.1328639   -4.1328639   -2.8497626   0.01931195   -4.1328639    1.2831012  1010000 
 4134000   0.85480047    -4.131736    -4.131736   -2.8495366  0.022172277    -4.131736    1.2821994  1010000 
 4135000   0.85472781   -4.1315069   -4.1315069   -2.8494164  0.025318117   -4.1315069    1.2820904  1010000 
 4136000   0.85534112   -4.1324134   -4.1324134    -2.849403  0.022945962   -4.1324134    1.2830104  1010000 
 4137000   0.85488324   -4.1315337   -4.1315337   -2.8492101  0.021479993   -4.1315337    1.2823236  1010000 
 4138000   0.85474276     -4.13144     -4.13144   -2.8493271  0.020700691     -4.13144    1.2821129  1010000 
 4139000   0.85488122   -4.1316106   -4.1316106     -2.84929   0.02080902   -4.1316106    1.2823206  1010000 
 4140000   0.85512372   -4.1320763   -4.1320763   -2.8493919  0.020054739   -4.1320763    1.2826843  1010000 
 4141000   0.85485671   -4.1312272   -4.1312272   -2.8489434  0.022701476   -4.1312272    1.2822838  1010000 
 4142000   0.85507638   -4.1319253   -4.1319253    -2.849312  0.020870198   -4.1319253    1.2826133  1010000 
 4143000   0.85575664   -4.1328832   -4.1328832   -2.8492495  0.018938038   -4.1328832    1.2836337  1010000 
 4144000   0.85474437   -4.1311525   -4.1311525   -2.8490372  0.024128892   -4.1311525    1.2821153  1010000 
 4145000   0.85606706    -4.132931    -4.132931   -2.8488317  0.023409847    -4.132931    1.2840993  1010000 
 4146000   0.85499822   -4.1313972   -4.1313972   -2.8489011  0.024792351   -4.1313972    1.2824961  1010000 
 4147000   0.85431652   -4.1301234   -4.1301234   -2.8486499   0.02767767   -4.1301234    1.2814735  1010000 
 4148000   0.85630651   -4.1325482   -4.1325482   -2.8480897  0.021175069   -4.1325482    1.2844585  1010000 
 4149000   0.85556397   -4.1312438   -4.1312438   -2.8478991  0.024130424   -4.1312438    1.2833447  1010000 
 4150000   0.85652551   -4.1326129   -4.1326129   -2.8478259  0.021333423   -4.1326129     1.284787  1010000 
 4151000   0.85483002   -4.1304796   -4.1304796   -2.8482358  0.019560856   -4.1304796    1.2822438  1010000 
 4152000   0.85522982   -4.1310894   -4.1310894    -2.848246  0.022125384   -4.1310894    1.2828435  1010000 
 4153000   0.85528536   -4.1311726   -4.1311726   -2.8482459  0.022248678   -4.1311726    1.2829268  1010000 
 4154000   0.85537504   -4.1314538   -4.1314538   -2.8483925  0.020051018   -4.1314538    1.2830613  1010000 
 4155000   0.85552617   -4.1316179   -4.1316179     -2.84833  0.022807417   -4.1316179     1.283288  1010000 
 4156000   0.85565974   -4.1317467   -4.1317467   -2.8482584  0.022332821   -4.1317467    1.2834883  1010000 
 4157000   0.85577526   -4.1314769   -4.1314769   -2.8478153  0.022664427   -4.1314769    1.2836616  1010000 
 4158000    0.8556829    -4.131308    -4.131308   -2.8477849  0.022066806    -4.131308    1.2835231  1010000 
 4159000   0.85475826   -4.1299656   -4.1299656   -2.8478295  0.025298025   -4.1299656    1.2821361  1010000 
 4160000   0.85504066    -4.130453    -4.130453   -2.8478933  0.020234325    -4.130453    1.2825597  1010000 
 4161000   0.85502292   -4.1311242   -4.1311242   -2.8485911  0.021389315   -4.1311242    1.2825331  1010000 
 4162000   0.85488224   -4.1303887   -4.1303887   -2.8480666  0.018695421   -4.1303887    1.2823221  1010000 
 4163000   0.85515263   -4.1307529   -4.1307529   -2.8480252  0.022304525   -4.1307529    1.2827277  1010000 
 4164000   0.85501267   -4.1305022   -4.1305022   -2.8479844  0.023060955   -4.1305022    1.2825177  1010000 
 4165000   0.85647866   -4.1321346   -4.1321346   -2.8474179  0.017534052   -4.1321346    1.2847167  1010000 
 4166000   0.85497766    -4.130026    -4.130026   -2.8475608  0.020999059    -4.130026    1.2824652  1010000 
 4167000   0.85530526   -4.1304419   -4.1304419   -2.8474852  0.022040701   -4.1304419    1.2829566  1010000 
 4168000   0.85598904   -4.1310277   -4.1310277   -2.8470454  0.022469618   -4.1310277    1.2839823  1010000 
 4169000   0.85550554   -4.1307939   -4.1307939   -2.8475368   0.02121919   -4.1307939     1.283257  1010000 
 4170000   0.85606101   -4.1319912   -4.1319912    -2.847901  0.022511284   -4.1319912    1.2840902  1010000 
 4171000   0.85597581   -4.1314062   -4.1314062   -2.8474438  0.022341343   -4.1314062    1.2839624  1010000 
 4172000    0.8554783    -4.131038    -4.131038   -2.8478218  0.024014606    -4.131038    1.2832162  1010000 
 4173000   0.85557493   -4.1307635   -4.1307635   -2.8474024  0.022990489   -4.1307635    1.2833611  1010000 
 4174000   0.85472643    -4.129264    -4.129264   -2.8471756  0.027326297    -4.129264    1.2820884  1010000 
 4175000   0.85558906   -4.1307202   -4.1307202   -2.8473379  0.024547691   -4.1307202    1.2833823  1010000 
 4176000   0.85562635   -4.1303451   -4.1303451   -2.8469068  0.024328022   -4.1303451    1.2834382  1010000 
 4177000   0.85571603   -4.1305389   -4.1305389   -2.8469661  0.023155963   -4.1305389    1.2835728  1010000 
 4178000   0.85581298    -4.130682    -4.130682   -2.8469638  0.024793966    -4.130682    1.2837182  1010000 
 4179000   0.85656666   -4.1317279   -4.1317279   -2.8468792  0.018143328   -4.1317279    1.2848487  1010000 
 4180000   0.85583885   -4.1306807   -4.1306807   -2.8469237  0.021191707   -4.1306807     1.283757  1010000 
 4181000   0.85621528   -4.1307285   -4.1307285   -2.8464069  0.026564723   -4.1307285    1.2843217  1010000 
 4182000   0.85676643   -4.1314079   -4.1314079   -2.8462595  0.024480544   -4.1314079    1.2851484  1010000 
 4183000   0.85608945   -4.1306605   -4.1306605   -2.8465276  0.026634305   -4.1306605    1.2841329  1010000 
 4184000   0.85629698   -4.1303241   -4.1303241   -2.8458799  0.025652654   -4.1303241    1.2844442  1010000 
 4185000    0.8570999   -4.1315449   -4.1315449   -2.8458963   0.02057099   -4.1315449    1.2856486  1010000 
 4186000   0.85660959   -4.1306777   -4.1306777   -2.8457646  0.022154493   -4.1306777    1.2849131  1010000 
 4187000   0.85633337   -4.1303414   -4.1303414   -2.8458426   0.02552026   -4.1303414    1.2844988  1010000 
 4188000   0.85620147   -4.1304842   -4.1304842   -2.8461833   0.02243692   -4.1304842    1.2843009  1010000 
 4189000   0.85659914   -4.1309077   -4.1309077   -2.8460103  0.024326556   -4.1309077    1.2848974  1010000 
 4190000   0.85588071   -4.1297107   -4.1297107   -2.8458909  0.026174285   -4.1297107    1.2838198  1010000 
 4191000   0.85514736   -4.1289882   -4.1289882   -2.8462684  0.021899993   -4.1289882    1.2827198  1010000 
 4192000   0.85603801     -4.12987     -4.12987   -2.8458143  0.023272168     -4.12987    1.2840557  1010000 
 4193000   0.85601757   -4.1298306   -4.1298306   -2.8458055  0.020804537   -4.1298306    1.2840251  1010000 
 4194000   0.85513833   -4.1287297   -4.1287297   -2.8460235  0.024524461   -4.1287297    1.2827062  1010000 
 4195000   0.85634312    -4.130204    -4.130204   -2.8456906  0.019376145    -4.130204    1.2845134  1010000 
 4196000   0.85592628   -4.1297386   -4.1297386   -2.8458505  0.021577793   -4.1297386    1.2838882  1010000 
 4197000   0.85595319    -4.129588    -4.129588   -2.8456595  0.018111308    -4.129588    1.2839285  1010000 
 4198000   0.85449214   -4.1273445   -4.1273445   -2.8456075  0.022941067   -4.1273445    1.2817369  1010000 
 4199000   0.85521524   -4.1284658   -4.1284658   -2.8456442  0.021026444   -4.1284658    1.2828216  1010000 
 4200000    0.8554006   -4.1283901   -4.1283901   -2.8452905  0.021970667   -4.1283901    1.2830996  1010000 
 4201000   0.85594027   -4.1289164   -4.1289164   -2.8450072  0.022520872   -4.1289164    1.2839091  1010000 
 4202000   0.85570447   -4.1284757   -4.1284757   -2.8449203  0.019285042   -4.1284757    1.2835554  1010000 
 4203000   0.85484581   -4.1270103   -4.1270103   -2.8447428  0.025115713   -4.1270103    1.2822674  1010000 
 4204000   0.85615203   -4.1282428   -4.1282428    -2.844016  0.019258027   -4.1282428    1.2842268  1010000 
 4205000   0.85592621   -4.1275587   -4.1275587   -2.8436707  0.024148691   -4.1275587     1.283888  1010000 
 4206000   0.85595308    -4.127758    -4.127758   -2.8438296  0.022958468    -4.127758    1.2839284  1010000 
 4207000   0.85697708   -4.1296409   -4.1296409   -2.8441765  0.018570734   -4.1296409    1.2854644  1010000 
 4208000   0.85598615   -4.1276369   -4.1276369   -2.8436589   0.02345369   -4.1276369     1.283978  1010000 
 4209000   0.85541634   -4.1270626   -4.1270626   -2.8439394  0.025356314   -4.1270626    1.2831232  1010000 
 4210000   0.85561327   -4.1269857   -4.1269857   -2.8435671   0.02370882   -4.1269857    1.2834186  1010000 
 4211000   0.85589465   -4.1274127   -4.1274127   -2.8435719   0.02322898   -4.1274127    1.2838407  1010000 
 4212000   0.85598645   -4.1275958   -4.1275958   -2.8436174  0.024006325   -4.1275958    1.2839784  1010000 
 4213000   0.85579037    -4.127387    -4.127387   -2.8437028  0.025876914    -4.127387    1.2836843  1010000 
 4214000   0.85554023   -4.1273734   -4.1273734   -2.8440643    0.0245358   -4.1273734    1.2833091  1010000 
 4215000   0.85574369   -4.1277902   -4.1277902   -2.8441759  0.018866535   -4.1277902    1.2836143  1010000 
 4216000   0.85543853   -4.1268168   -4.1268168   -2.8436603  0.023994916   -4.1268168    1.2831565  1010000 
 4217000   0.85589682   -4.1269456   -4.1269456   -2.8431017  0.018351428   -4.1269456     1.283844  1010000 
 4218000   0.85536844   -4.1266858   -4.1266858   -2.8436344   0.02081735   -4.1266858    1.2830514  1010000 
 4219000   0.85564525   -4.1271953   -4.1271953   -2.8437287  0.017427768   -4.1271953    1.2834666  1010000 
 4220000    0.8547357    -4.125817    -4.125817   -2.8437147  0.018777153    -4.125817    1.2821023  1010000 
 4221000   0.85565734   -4.1268789   -4.1268789   -2.8433941  0.019008009   -4.1268789    1.2834847  1010000 
 4222000   0.85623196   -4.1272313   -4.1272313   -2.8428846  0.020984336   -4.1272313    1.2843467  1010000 
 4223000   0.85593054   -4.1265402   -4.1265402   -2.8426456  0.019385243   -4.1265402    1.2838945  1010000 
 4224000   0.85561128   -4.1265083   -4.1265083   -2.8430926  0.021995844   -4.1265083    1.2834157  1010000 
 4225000   0.85634162   -4.1271426   -4.1271426   -2.8426315  0.016763121   -4.1271426    1.2845112  1010000 
 4226000   0.85616571   -4.1271315   -4.1271315   -2.8428843  0.021415487   -4.1271315    1.2842473  1010000 
 4227000   0.85741928    -4.128078    -4.128078   -2.8419503  0.019969995    -4.128078    1.2861276  1010000 
 4228000   0.85670896   -4.1270993   -4.1270993   -2.8420371  0.023153601   -4.1270993    1.2850622  1010000 
 4229000   0.85676136   -4.1270329   -4.1270329   -2.8418922  0.022174652   -4.1270329    1.2851408  1010000 
 4230000   0.85680456   -4.1274731   -4.1274731   -2.8422676  0.020370872   -4.1274731    1.2852056  1010000 
 4231000   0.85613078   -4.1266775   -4.1266775   -2.8424826  0.024922992   -4.1266775    1.2841949  1010000 
 4232000   0.85683346   -4.1275583   -4.1275583   -2.8423093  0.025548125   -4.1275583    1.2852489  1010000 
 4233000   0.85629164   -4.1263958   -4.1263958   -2.8419596   0.02699502   -4.1263958    1.2844362  1010000 
 4234000   0.85743019   -4.1283247   -4.1283247   -2.8421807  0.022549684   -4.1283247     1.286144  1010000 
 4235000   0.85719444   -4.1278847   -4.1278847   -2.8420943  0.024305844   -4.1278847    1.2857904  1010000 
 4236000   0.85633248   -4.1267516   -4.1267516   -2.8422542  0.024335312   -4.1267516    1.2844975  1010000 
 4237000   0.85637358   -4.1268318   -4.1268318   -2.8422727  0.021741383   -4.1268318    1.2845591  1010000 
 4238000   0.85709696   -4.1276769   -4.1276769   -2.8420327  0.022338563   -4.1276769    1.2856442  1010000 
 4239000   0.85588151   -4.1261423   -4.1261423   -2.8423213  0.023642333   -4.1261423     1.283821  1010000 
 4240000   0.85667735   -4.1270301   -4.1270301   -2.8420154  0.018284908   -4.1270301    1.2850148  1010000 
 4241000   0.85569851   -4.1260439   -4.1260439   -2.8424975  0.020420628   -4.1260439    1.2835465  1010000 
 4242000   0.85573382   -4.1265268   -4.1265268   -2.8429273  0.019557127   -4.1265268    1.2835995  1010000 
 4243000   0.85637242   -4.1271373   -4.1271373   -2.8425799  0.016972127   -4.1271373    1.2845574  1010000 
 4244000   0.85601761   -4.1265487   -4.1265487   -2.8425236  0.017557428   -4.1265487    1.2840251  1010000 
 4245000   0.85653572    -4.127142    -4.127142   -2.8423397  0.020703515    -4.127142    1.2848023  1010000 
 4246000   0.85631722   -4.1269358   -4.1269358   -2.8424613  0.022595862   -4.1269358    1.2844746  1010000 
 4247000   0.85646301   -4.1267173   -4.1267173    -2.842024  0.024658681   -4.1267173    1.2846933  1010000 
 4248000   0.85657788   -4.1263963   -4.1263963   -2.8415307  0.024272586   -4.1263963    1.2848655  1010000 
 4249000   0.85689776   -4.1269423   -4.1269423   -2.8415969  0.021960726   -4.1269423    1.2853454  1010000 
 4250000   0.85701481   -4.1271963   -4.1271963   -2.8416754  0.025784498   -4.1271963    1.2855209  1010000 
 4251000    0.8569682   -4.1271931   -4.1271931   -2.8417421  0.024929461   -4.1271931     1.285451  1010000 
 4252000    0.8569782    -4.127113    -4.127113    -2.841647  0.021912705    -4.127113     1.285466  1010000 
 4253000   0.85720322   -4.1273712   -4.1273712   -2.8415677  0.027448403   -4.1273712    1.2858036  1010000 
 4254000   0.85741577   -4.1280712   -4.1280712   -2.8419488  0.025109773   -4.1280712    1.2861224  1010000 
 4255000   0.85773601   -4.1280426   -4.1280426   -2.8414399  0.022151721   -4.1280426    1.2866027  1010000 
 4256000   0.85726472   -4.1273483   -4.1273483   -2.8414525  0.023436662   -4.1273483    1.2858958  1010000 
 4257000   0.85777558   -4.1274237   -4.1274237   -2.8407616  0.021560021   -4.1274237    1.2866621  1010000 
 4258000   0.85774467   -4.1271169   -4.1271169   -2.8405012  0.024127568   -4.1271169    1.2866157  1010000 
 4259000   0.85734487   -4.1266356   -4.1266356   -2.8406195  0.026486063   -4.1266356     1.286016  1010000 
 4260000   0.85749958   -4.1269604   -4.1269604   -2.8407123  0.022529664   -4.1269604    1.2862481  1010000 
 4261000   0.85798162   -4.1276999   -4.1276999   -2.8407287  0.022654624   -4.1276999    1.2869712  1010000 
 4262000   0.85725336   -4.1267634   -4.1267634   -2.8408847  0.019863579   -4.1267634    1.2858788  1010000 
 4263000   0.85699009   -4.1265699   -4.1265699    -2.841086  0.020264446   -4.1265699    1.2854839  1010000 
 4264000   0.85585999   -4.1254151   -4.1254151   -2.8416264  0.024802155   -4.1254151    1.2837887  1010000 
 4265000   0.85587297   -4.1254839   -4.1254839   -2.8416757  0.023783059   -4.1254839    1.2838082  1010000 
 4266000   0.85571922   -4.1253879   -4.1253879   -2.8418103  0.022010388   -4.1253879    1.2835776  1010000 
 4267000   0.85658702   -4.1259505   -4.1259505   -2.8410712  0.023120577   -4.1259505    1.2848793  1010000 
 4268000   0.85641641   -4.1256698   -4.1256698   -2.8410465  0.020953491   -4.1256698    1.2846233  1010000 
 4269000   0.85644888   -4.1257477   -4.1257477   -2.8410756  0.021276995   -4.1257477    1.2846721  1010000 
 4270000   0.85629286   -4.1257271   -4.1257271    -2.841289  0.021622344   -4.1257271     1.284438  1010000 
 4271000   0.85680593     -4.12626     -4.12626   -2.8410524  0.020427089     -4.12626    1.2852076  1010000 
 4272000   0.85694918   -4.1262634   -4.1262634   -2.8408409  0.021543357   -4.1262634    1.2854225  1010000 
 4273000   0.85651521   -4.1251295   -4.1251295   -2.8403579  0.026022755   -4.1251295    1.2847715  1010000 
 4274000   0.85734778    -4.126415    -4.126415   -2.8403946  0.020355795    -4.126415    1.2860204  1010000 
 4275000   0.85714478   -4.1267329   -4.1267329    -2.841017  0.024972119   -4.1267329    1.2857159  1010000 
 4276000   0.85648067   -4.1256503   -4.1256503   -2.8409306  0.023130338   -4.1256503    1.2847197  1010000 
 4277000   0.85699983   -4.1259982   -4.1259982   -2.8404997  0.025258773   -4.1259982    1.2854985  1010000 
 4278000   0.85757449   -4.1262561   -4.1262561   -2.8398957  0.022304923   -4.1262561    1.2863605  1010000 
 4279000   0.85754587   -4.1265238   -4.1265238   -2.8402062  0.022422327   -4.1265238    1.2863175  1010000 
 4280000   0.85786888   -4.1263171   -4.1263171   -2.8395151  0.024184606   -4.1263171    1.2868021  1010000 
 4281000   0.85707429   -4.1253587   -4.1253587   -2.8397486  0.026329419   -4.1253587    1.2856102  1010000 
 4282000   0.85676923   -4.1245169   -4.1245169   -2.8393643  0.022595375   -4.1245169    1.2851526  1010000 
 4283000   0.85710365   -4.1252341   -4.1252341   -2.8395799  0.021656662   -4.1252341    1.2856542  1010000 
 4284000    0.8567232   -4.1244342   -4.1244342   -2.8393507  0.024329275   -4.1244342    1.2850835  1010000 
 4285000   0.85719059   -4.1249688   -4.1249688   -2.8391842  0.024914212   -4.1249688    1.2857846  1010000 
 4286000   0.85667734   -4.1248078   -4.1248078   -2.8397931  0.024813042   -4.1248078    1.2850147  1010000 
 4287000   0.85729686   -4.1255503   -4.1255503   -2.8396063  0.019033101   -4.1255503     1.285944  1010000 
 4288000   0.85713139   -4.1252621   -4.1252621   -2.8395663  0.020398181   -4.1252621    1.2856958  1010000 
 4289000   0.85681392   -4.1248558   -4.1248558   -2.8396361  0.021342002   -4.1248558    1.2852196  1010000 
 4290000   0.85717286   -4.1255409   -4.1255409   -2.8397828  0.019177186   -4.1255409     1.285758  1010000 
 4291000   0.85644291   -4.1241175   -4.1241175   -2.8394544   0.02466116   -4.1241175    1.2846631  1010000 
 4292000     0.857064   -4.1254573   -4.1254573   -2.8398626   0.01768357   -4.1254573    1.2855947  1010000 
 4293000   0.85676105    -4.124945    -4.124945   -2.8398047  0.022387462    -4.124945    1.2851403  1010000 
 4294000   0.85670654   -4.1241224   -4.1241224   -2.8390638  0.020299661   -4.1241224    1.2850585  1010000 
 4295000   0.85687144    -4.124522    -4.124522   -2.8392161  0.023768338    -4.124522    1.2853059  1010000 
 4296000   0.85688414     -4.12387     -4.12387    -2.838545  0.024210143     -4.12387    1.2853249  1010000 
 4297000    0.8575578    -4.125241    -4.125241   -2.8389055  0.020075659    -4.125241    1.2863354  1010000 
 4298000   0.85672847   -4.1238763   -4.1238763   -2.8387849  0.022299658   -4.1238763    1.2850914  1010000 
 4299000   0.85700779   -4.1244466   -4.1244466   -2.8389362  0.021254869   -4.1244466    1.2855104  1010000 
 4300000   0.85739645   -4.1252628   -4.1252628   -2.8391694  0.022607171   -4.1252628    1.2860934  1010000 
 4301000   0.85703397   -4.1251739   -4.1251739   -2.8396242  0.022418269   -4.1251739    1.2855497  1010000 
 4302000   0.85672695   -4.1248828   -4.1248828   -2.8397936  0.021800669   -4.1248828    1.2850892  1010000 
 4303000   0.85608937   -4.1236293   -4.1236293   -2.8394965  0.025808184   -4.1236293    1.2841328  1010000 
 4304000    0.8564747   -4.1243708   -4.1243708     -2.83966  0.023784849   -4.1243708    1.2847108  1010000 
 4305000   0.85715579   -4.1244505   -4.1244505    -2.838718  0.022327769   -4.1244505    1.2857324  1010000 
 4306000   0.85749993    -4.124895    -4.124895   -2.8386464  0.019782255    -4.124895    1.2862486  1010000 
 4307000   0.85662733   -4.1239319   -4.1239319   -2.8389921  0.018864253   -4.1239319    1.2849397  1010000 
 4308000   0.85660009   -4.1238837   -4.1238837   -2.8389849  0.015143843   -4.1238837    1.2848989  1010000 
 4309000   0.85689133   -4.1242519   -4.1242519   -2.8389161  0.020077983   -4.1242519    1.2853357  1010000 
 4310000   0.85714679     -4.12403     -4.12403   -2.8383111   0.02151089     -4.12403    1.2857189  1010000 
 4311000   0.85617309   -4.1225208   -4.1225208   -2.8382625  0.023478155   -4.1225208    1.2842584  1010000 
 4312000   0.85729108   -4.1239077   -4.1239077   -2.8379723  0.019218248   -4.1239077    1.2859353  1010000 
 4313000   0.85688087   -4.1231361   -4.1231361   -2.8378161   0.02490062   -4.1231361      1.28532  1010000 
 4314000   0.85642243   -4.1228329   -4.1228329   -2.8382005  0.025203222   -4.1228329    1.2846324  1010000 
 4315000   0.85691876   -4.1235536   -4.1235536   -2.8381768  0.024184878   -4.1235536    1.2853769  1010000 
 4316000   0.85750452   -4.1243155   -4.1243155     -2.83806  0.021760202   -4.1243155    1.2862555  1010000 
 4317000    0.8570361   -4.1235681   -4.1235681   -2.8380152  0.025685245   -4.1235681    1.2855529  1010000 
 4318000    0.8571063   -4.1237118   -4.1237118   -2.8380537     0.023144   -4.1237118    1.2856582  1010000 
 4319000   0.85732126   -4.1235832   -4.1235832   -2.8376026  0.024627979   -4.1235832    1.2859806  1010000 
 4320000    0.8579284    -4.124496    -4.124496   -2.8376047  0.024851644    -4.124496    1.2868913  1010000 
 4321000   0.85714076   -4.1233504   -4.1233504   -2.8376406  0.026918333   -4.1233504    1.2857099  1010000 
 4322000   0.85835099   -4.1251084   -4.1251084   -2.8375832  0.021621719   -4.1251084    1.2875252  1010000 
 4323000    0.8573125   -4.1229801   -4.1229801   -2.8370127  0.027410242   -4.1229801    1.2859675  1010000 
 4324000   0.85710915    -4.123144    -4.123144   -2.8374815  0.023578721    -4.123144    1.2856625  1010000 
 4325000    0.8572153   -4.1228211   -4.1228211   -2.8369994  0.025627242   -4.1228211    1.2858217  1010000 
 4326000   0.85772532   -4.1241786   -4.1241786   -2.8375919  0.016272348   -4.1241786    1.2865867  1010000 
 4327000   0.85722248   -4.1229822   -4.1229822   -2.8371497  0.023007182   -4.1229822    1.2858324  1010000 
 4328000   0.85760948   -4.1237861   -4.1237861   -2.8373732  0.020599361   -4.1237861    1.2864129  1010000 
 4329000   0.85770188   -4.1237012   -4.1237012   -2.8371497  0.025238545   -4.1237012    1.2865515  1010000 
 4330000   0.85675681   -4.1223897   -4.1223897   -2.8372558   0.02593706   -4.1223897    1.2851339  1010000 
 4331000   0.85656488   -4.1223776   -4.1223776   -2.8375315  0.024863886   -4.1223776    1.2848461  1010000 
 4332000   0.85762468   -4.1238728   -4.1238728   -2.8374371  0.025050198   -4.1238728    1.2864357  1010000 
 4333000   0.85701868   -4.1231226   -4.1231226   -2.8375959  0.021434257   -4.1231226    1.2855267  1010000 
 4334000   0.85729285   -4.1231095   -4.1231095   -2.8371715  0.025109663   -4.1231095     1.285938  1010000 
 4335000    0.8567047   -4.1226758   -4.1226758   -2.8376201  0.023925407   -4.1226758    1.2850558  1010000 
 4336000   0.85755043   -4.1231853   -4.1231853   -2.8368609  0.024355278   -4.1231853    1.2863244  1010000 
 4337000   0.85676938   -4.1220282   -4.1220282   -2.8368755  0.024031844   -4.1220282    1.2851528  1010000 
 4338000   0.85683213   -4.1225909   -4.1225909   -2.8373439  0.024981736   -4.1225909    1.2852469  1010000 
 4339000   0.85712706   -4.1226906   -4.1226906   -2.8370013  0.021583971   -4.1226906    1.2856893  1010000 
 4340000   0.85669245   -4.1225351   -4.1225351   -2.8374976  0.021209396   -4.1225351    1.2850374  1010000 
 4341000   0.85759952   -4.1237785   -4.1237785   -2.8373805  0.019932918   -4.1237785     1.286398  1010000 
 4342000   0.85763763   -4.1234304   -4.1234304   -2.8369753  0.021289002   -4.1234304    1.2864552  1010000 
 4343000   0.85793203   -4.1241409   -4.1241409   -2.8372441  0.019512727   -4.1241409    1.2868968  1010000 
 4344000   0.85749483   -4.1238906   -4.1238906   -2.8376496  0.020604881   -4.1238906     1.286241  1010000 
 4345000   0.85738749     -4.12346     -4.12346     -2.83738  0.022122121     -4.12346      1.28608  1010000 
 4346000   0.85794053   -4.1239465   -4.1239465   -2.8370369  0.020298271   -4.1239465    1.2869095  1010000 
 4347000     0.857961   -4.1238785   -4.1238785   -2.8369383  0.020499407   -4.1238785    1.2869402  1010000 
 4348000   0.85764015   -4.1231213   -4.1231213   -2.8366623  0.022616696   -4.1231213     1.286459  1010000 
 4349000     0.857701   -4.1234674   -4.1234674   -2.8369172  0.021408175   -4.1234674    1.2865502  1010000 
 4350000   0.85718051   -4.1222703   -4.1222703   -2.8365008  0.023259121   -4.1222703    1.2857695  1010000 
 4351000   0.85805732   -4.1234933   -4.1234933   -2.8364086  0.023420608   -4.1234933    1.2870847  1010000 
 4352000   0.85777524   -4.1223081   -4.1223081   -2.8356466  0.023791808   -4.1223081    1.2866616  1010000 
 4353000    0.8582136   -4.1231292   -4.1231292     -2.83581  0.022394502   -4.1231292    1.2873191  1010000 
 4354000   0.85787861   -4.1230076   -4.1230076    -2.836191   0.02116281   -4.1230076    1.2868166  1010000 
 4355000   0.85797869    -4.122839    -4.122839   -2.8358723  0.022476388    -4.122839    1.2869668  1010000 
 4356000   0.85854163   -4.1232478   -4.1232478   -2.8354366  0.019650321   -4.1232478    1.2878112  1010000 
 4357000   0.85706275   -4.1216068   -4.1216068   -2.8360139  0.022952674   -4.1216068    1.2855928  1010000 
 4358000   0.85722411   -4.1217019   -4.1217019    -2.835867  0.023507706   -4.1217019    1.2858349  1010000 
 4359000   0.85749363   -4.1222312   -4.1222312   -2.8359921  0.021875882   -4.1222312    1.2862392  1010000 
 4360000   0.85783496   -4.1225051   -4.1225051   -2.8357539   0.02070773   -4.1225051    1.2867512  1010000 
 4361000   0.85643757   -4.1205916   -4.1205916   -2.8359365  0.025571071   -4.1205916    1.2846551  1010000 
 4362000   0.85679224   -4.1205543   -4.1205543   -2.8353672  0.025224896   -4.1205543    1.2851871  1010000 
 4363000   0.85753506   -4.1221974   -4.1221974   -2.8358961   0.02265477   -4.1221974    1.2863013  1010000 
 4364000   0.85737456   -4.1216776   -4.1216776   -2.8356171  0.027224138   -4.1216776    1.2860606  1010000 
 4365000   0.85815792   -4.1227059   -4.1227059   -2.8354703  0.023418433   -4.1227059    1.2872356  1010000 
 4366000   0.85777483   -4.1229288   -4.1229288   -2.8362678  0.021017051   -4.1229288     1.286661  1010000 
 4367000   0.85780457   -4.1224422   -4.1224422   -2.8357367   0.02034786   -4.1224422    1.2867056  1010000 
 4368000   0.85756465   -4.1218104   -4.1218104   -2.8354647  0.023742993   -4.1218104    1.2863457  1010000 
 4369000   0.85723911    -4.120715    -4.120715   -2.8348576  0.027405679    -4.120715    1.2858574  1010000 
 4370000   0.85721435   -4.1202241   -4.1202241   -2.8344038   0.02778221   -4.1202241    1.2858203  1010000 
 4371000    0.8583796   -4.1217967   -4.1217967   -2.8342285  0.024500138   -4.1217967    1.2875681  1010000 
 4372000    0.8573016   -4.1207966   -4.1207966   -2.8348455  0.028781036   -4.1207966    1.2859511  1010000 
 4373000   0.85844819   -4.1214753   -4.1214753   -2.8338043  0.025030957   -4.1214753     1.287671  1010000 
 4374000   0.85829619   -4.1216259   -4.1216259   -2.8341829  0.023951046   -4.1216259     1.287443  1010000 
 4375000   0.85835837   -4.1213048   -4.1213048   -2.8337685  0.028938618   -4.1213048    1.2875363  1010000 
 4376000   0.85838248   -4.1214869   -4.1214869   -2.8339144  0.022848959   -4.1214869    1.2875724  1010000 
 4377000   0.85822966   -4.1210086   -4.1210086   -2.8336654  0.023909705   -4.1210086    1.2873432  1010000 
 4378000    0.8580097   -4.1209423   -4.1209423    -2.833929  0.024769153   -4.1209423    1.2870133  1010000 
 4379000   0.85821643   -4.1211801   -4.1211801   -2.8338568  0.022922286   -4.1211801    1.2873234  1010000 
 4380000   0.85831718   -4.1202844   -4.1202844   -2.8328099  0.021758449   -4.1202844    1.2874745  1010000 
 4381000   0.85767575   -4.1194403   -4.1194403   -2.8329279  0.025674841   -4.1194403    1.2865124  1010000 
 4382000   0.85827409   -4.1203974   -4.1203974   -2.8329876  0.025749402   -4.1203974    1.2874099  1010000 
 4383000     0.857987   -4.1198784   -4.1198784   -2.8328992  0.021862283   -4.1198784    1.2869792  1010000 
 4384000    0.8583096   -4.1203902   -4.1203902   -2.8329271  0.022664846   -4.1203902    1.2874631  1010000 
 4385000   0.85812449   -4.1199606   -4.1199606   -2.8327751  0.021951917   -4.1199606    1.2871855  1010000 
 4386000    0.8582648   -4.1202807   -4.1202807   -2.8328848  0.024025136   -4.1202807    1.2873959  1010000 
 4387000   0.85788748   -4.1199363   -4.1199363   -2.8331063  0.019450605   -4.1199363    1.2868299  1010000 
 4388000   0.85769875   -4.1195603   -4.1195603   -2.8330134   0.02437897   -4.1195603    1.2865469  1010000 
 4389000   0.85781864   -4.1194853   -4.1194853   -2.8327586  0.021137147   -4.1194853    1.2867267  1010000 
 4390000   0.85774538   -4.1197586   -4.1197586   -2.8331418  0.023696374   -4.1197586    1.2866168  1010000 
 4391000   0.85752365   -4.1191698   -4.1191698   -2.8328856  0.025241747   -4.1191698    1.2862842  1010000 
 4392000   0.85718252   -4.1186641   -4.1186641   -2.8328916  0.022570604   -4.1186641    1.2857725  1010000 
 4393000    0.8581315   -4.1201812   -4.1201812   -2.8329853  0.020066413   -4.1201812     1.287196  1010000 
 4394000   0.85757802   -4.1193519   -4.1193519   -2.8329861   0.02388039   -4.1193519    1.2863658  1010000 
 4395000    0.8580321   -4.1202647   -4.1202647   -2.8332179  0.016562421   -4.1202647    1.2870469  1010000 
 4396000   0.85810756   -4.1201233   -4.1201233   -2.8329632  0.022358571   -4.1201233    1.2871601  1010000 
 4397000   0.85772309   -4.1201406   -4.1201406   -2.8335573  0.020612594   -4.1201406    1.2865834  1010000 
 4398000   0.85790122   -4.1198235   -4.1198235   -2.8329729  0.018877396   -4.1198235    1.2868506  1010000 
 4399000    0.8573569   -4.1191209   -4.1191209   -2.8330868   0.01886281   -4.1191209    1.2860341  1010000 
 4400000   0.85717586   -4.1183742   -4.1183742   -2.8326117  0.021346709   -4.1183742    1.2857625  1010000 
 4401000   0.85741579   -4.1184419   -4.1184419   -2.8323195  0.023378457   -4.1184419    1.2861224  1010000 
 4402000   0.85774837   -4.1188332   -4.1188332   -2.8322119  0.019097045   -4.1188332    1.2866213  1010000 
 4403000   0.85771252   -4.1195115   -4.1195115    -2.832944  0.022486177   -4.1195115    1.2865675  1010000 
 4404000   0.85847977   -4.1198513   -4.1198513   -2.8321329  0.021020068   -4.1198513    1.2877184  1010000 
 4405000   0.85824851     -4.11914     -4.11914   -2.8317685  0.022286725     -4.11914    1.2873715  1010000 
 4406000   0.85838071   -4.1190785   -4.1190785   -2.8315087  0.023051774   -4.1190785    1.2875698  1010000 
 4407000   0.85764896   -4.1181558   -4.1181558   -2.8316836  0.023927596   -4.1181558    1.2864722  1010000 
 4408000   0.85833728   -4.1184766   -4.1184766    -2.830972  0.020031483   -4.1184766    1.2875046  1010000 
 4409000   0.85879222    -4.118865    -4.118865   -2.8306779  0.023971463    -4.118865    1.2881871  1010000 
 4410000   0.85917688   -4.1198452   -4.1198452   -2.8310811  0.023499168   -4.1198452     1.288764  1010000 
 4411000   0.85889974   -4.1199442   -4.1199442   -2.8315959  0.022657941   -4.1199442    1.2883483  1010000 
 4412000   0.85889911   -4.1196807   -4.1196807   -2.8313333  0.023946567   -4.1196807    1.2883474  1010000 
 4413000   0.85834857   -4.1185659   -4.1185659   -2.8310444  0.022400192   -4.1185659    1.2875216  1010000 
 4414000   0.85901077   -4.1188514   -4.1188514   -2.8303365  0.023320781   -4.1188514    1.2885149  1010000 
 4415000    0.8590745   -4.1189471   -4.1189471   -2.8303366  0.021247504   -4.1189471    1.2886105  1010000 
 4416000   0.85895828   -4.1188314   -4.1188314   -2.8303952  0.025476885   -4.1188314    1.2884362  1010000 
 4417000   0.85906678   -4.1186296   -4.1186296   -2.8300307  0.023309881   -4.1186296    1.2885989  1010000 
 4418000   0.85912401   -4.1189966   -4.1189966   -2.8303118   0.02269715   -4.1189966    1.2886847  1010000 
 4419000   0.85813313   -4.1178632   -4.1178632   -2.8306648  0.026959881   -4.1178632    1.2871984  1010000 
 4420000   0.85826684   -4.1180547   -4.1180547   -2.8306557  0.024962389   -4.1180547     1.287399  1010000 
 4421000   0.85805486   -4.1181012   -4.1181012   -2.8310202  0.025689836   -4.1181012     1.287081  1010000 
 4422000   0.85816596   -4.1189687   -4.1189687    -2.831721  0.023391735   -4.1189687    1.2872477  1010000 
 4423000   0.85749288    -4.118131    -4.118131    -2.831893  0.022949357    -4.118131    1.2862381  1010000 
 4424000   0.85768546   -4.1184759   -4.1184759    -2.831949  0.023336381   -4.1184759    1.2865269  1010000 
 4425000   0.85806227   -4.1188452   -4.1188452   -2.8317531  0.020989708   -4.1188452    1.2870921  1010000 
 4426000   0.85810058   -4.1190735   -4.1190735   -2.8319239  0.020891883   -4.1190735    1.2871496  1010000 
 4427000   0.85799062   -4.1183774   -4.1183774   -2.8313928  0.021991962   -4.1183774    1.2869846  1010000 
 4428000   0.85758194    -4.117705    -4.117705   -2.8313334  0.021492359    -4.117705    1.2863716  1010000 
 4429000   0.85814714   -4.1188807   -4.1188807   -2.8316612   0.01945586   -4.1188807    1.2872194  1010000 
 4430000   0.85800016   -4.1186174   -4.1186174   -2.8316185  0.018153501   -4.1186174     1.286999  1010000 
 4431000   0.85717891   -4.1173167   -4.1173167   -2.8315496  0.019092269   -4.1173167    1.2857671  1010000 
 4432000   0.85699171   -4.1175114   -4.1175114   -2.8320251  0.021929771   -4.1175114    1.2854863  1010000 
 4433000   0.85809103   -4.1189277   -4.1189277   -2.8317924  0.019973699   -4.1189277    1.2871353  1010000 
 4434000   0.85798821   -4.1184617   -4.1184617   -2.8314807   0.01909902   -4.1184617     1.286981  1010000 
 4435000   0.85747149   -4.1174949   -4.1174949   -2.8312889  0.021996651   -4.1174949     1.286206  1010000 
 4436000   0.85777889   -4.1176973   -4.1176973   -2.8310303  0.026443977   -4.1176973    1.2866671  1010000 
 4437000   0.85831043   -4.1182565   -4.1182565   -2.8307921  0.024283262   -4.1182565    1.2874644  1010000 
 4438000   0.85803711   -4.1176292   -4.1176292   -2.8305748  0.024867521   -4.1176292    1.2870544  1010000 
 4439000   0.85795449   -4.1178061   -4.1178061   -2.8308756  0.023629439   -4.1178061    1.2869305  1010000 
 4440000    0.8579729    -4.118601    -4.118601   -2.8316429  0.023023145    -4.118601    1.2869581  1010000 
 4441000   0.85889783   -4.1195489   -4.1195489   -2.8312035  0.024685819   -4.1195489    1.2883455  1010000 
 4442000   0.85888151   -4.1196073   -4.1196073   -2.8312863  0.021651509   -4.1196073     1.288321  1010000 
 4443000   0.85909531   -4.1193357   -4.1193357    -2.830694  0.023222379   -4.1193357    1.2886417  1010000 
 4444000   0.85813073   -4.1175079   -4.1175079    -2.830313  0.025732442   -4.1175079    1.2871948  1010000 
 4445000   0.85913765   -4.1190595   -4.1190595   -2.8303543  0.020885528   -4.1190595    1.2887052  1010000 
 4446000   0.85937892   -4.1192831   -4.1192831    -2.830216  0.022249765   -4.1192831    1.2890671  1010000 
 4447000   0.85876742    -4.118801    -4.118801   -2.8306511  0.024116029    -4.118801    1.2881499  1010000 
 4448000    0.8585115   -4.1181868   -4.1181868   -2.8304208  0.025801627   -4.1181868     1.287766  1010000 
 4449000   0.85942892   -4.1194485   -4.1194485   -2.8303064  0.023951966   -4.1194485    1.2891421  1010000 
 4450000   0.85901622   -4.1194667   -4.1194667   -2.8309436  0.023348791   -4.1194667     1.288523  1010000 
 4451000   0.85915489   -4.1198651   -4.1198651   -2.8311341  0.021074045   -4.1198651    1.2887311  1010000 
 4452000   0.85884244   -4.1192687   -4.1192687   -2.8310063  0.024395364   -4.1192687    1.2882624  1010000 
 4453000    0.8585068   -4.1188538   -4.1188538   -2.8310948  0.026316825   -4.1188538    1.2877589  1010000 
 4454000   0.85852483   -4.1187358   -4.1187358   -2.8309499  0.026838737   -4.1187358     1.287786  1010000 
 4455000   0.85887116   -4.1190731   -4.1190731   -2.8307676   0.02595985   -4.1190731    1.2883055  1010000 
 4456000    0.8584463   -4.1189553   -4.1189553   -2.8312871  0.023674276   -4.1189553    1.2876682  1010000 
 4457000   0.85832138   -4.1188027   -4.1188027   -2.8313219  0.025721704   -4.1188027    1.2874808  1010000 
 4458000   0.85844525   -4.1191414   -4.1191414   -2.8314749  0.026002767   -4.1191414    1.2876666  1010000 
 4459000   0.85838834   -4.1187273   -4.1187273   -2.8311461  0.024343784   -4.1187273    1.2875812  1010000 
 4460000   0.85873066   -4.1194017   -4.1194017    -2.831307   0.02385378   -4.1194017    1.2880947  1010000 
 4461000   0.85819372   -4.1181241   -4.1181241   -2.8308348  0.025752349   -4.1181241    1.2872893  1010000 
 4462000   0.85854816   -4.1184321   -4.1184321   -2.8306111  0.029562168   -4.1184321     1.287821  1010000 
 4463000   0.85930361   -4.1196549   -4.1196549   -2.8307008  0.023529833   -4.1196549    1.2889541  1010000 
 4464000    0.8587216   -4.1186529   -4.1186529   -2.8305718  0.024391267   -4.1186529    1.2880811  1010000 
 4465000   0.85863904   -4.1182882   -4.1182882   -2.8303309  0.024818178   -4.1182882    1.2879573  1010000 
 4466000   0.85836273   -4.1178461   -4.1178461   -2.8303033  0.024868161   -4.1178461    1.2875428  1010000 
 4467000   0.85965781   -4.1195201   -4.1195201   -2.8300347  0.024504893   -4.1195201    1.2894854  1010000 
 4468000   0.85932789    -4.118913    -4.118913   -2.8299225  0.023415438    -4.118913    1.2889906  1010000 
 4469000   0.85814239    -4.117494    -4.117494   -2.8302817  0.022177551    -4.117494    1.2872123  1010000 
 4470000   0.85883128   -4.1182312   -4.1182312   -2.8299856  0.021407287   -4.1182312    1.2882456  1010000 
 4471000   0.85809055   -4.1169633   -4.1169633   -2.8298288  0.024278777   -4.1169633    1.2871346  1010000 
 4472000   0.85829255   -4.1165364   -4.1165364   -2.8290988  0.025698297   -4.1165364    1.2874376  1010000 
 4473000   0.85903315   -4.1176867   -4.1176867   -2.8291383  0.025050659   -4.1176867    1.2885484  1010000 
 4474000   0.85827573   -4.1172029   -4.1172029   -2.8297905   0.02356301   -4.1172029    1.2874123  1010000 
 4475000    0.8587094   -4.1173385   -4.1173385   -2.8292757  0.025311856   -4.1173385    1.2880628  1010000 
 4476000   0.85889417   -4.1174197   -4.1174197   -2.8290797  0.022641712   -4.1174197      1.28834  1010000 
 4477000   0.85869005   -4.1168796   -4.1168796   -2.8288458  0.028371901   -4.1168796    1.2880338  1010000 
 4478000   0.85932606   -4.1181757   -4.1181757   -2.8291879  0.023525324   -4.1181757    1.2889878  1010000 
 4479000   0.85830405   -4.1166554   -4.1166554   -2.8292006  0.027615426   -4.1166554    1.2874548  1010000 
 4480000   0.85878353   -4.1176915   -4.1176915   -2.8295174  0.021700339   -4.1176915     1.288174  1010000 
 4481000    0.8584107   -4.1167245   -4.1167245   -2.8291098  0.020176125   -4.1167245    1.2876148  1010000 
 4482000   0.85831359   -4.1165993   -4.1165993   -2.8291302  0.022985449   -4.1165993    1.2874691  1010000 
 4483000   0.85913214   -4.1175698   -4.1175698   -2.8288728  0.020835121   -4.1175698    1.2886969  1010000 
 4484000    0.8570977   -4.1145608   -4.1145608   -2.8289155  0.025362519   -4.1145608    1.2856453  1010000 
 4485000   0.85778103   -4.1155614   -4.1155614   -2.8288911  0.024435242   -4.1155614    1.2866703  1010000 
 4486000    0.8581657   -4.1158229   -4.1158229   -2.8285756  0.022763671   -4.1158229    1.2872473  1010000 
 4487000   0.85832017   -4.1168732   -4.1168732   -2.8293942   0.02167954   -4.1168732     1.287479  1010000 
 4488000   0.85826259   -4.1166039   -4.1166039   -2.8292113  0.021500749   -4.1166039    1.2873926  1010000 
 4489000    0.8594614   -4.1180394   -4.1180394   -2.8288486  0.020585127   -4.1180394    1.2891908  1010000 
 4490000    0.8579671   -4.1161075   -4.1161075   -2.8291581  0.018222719   -4.1161075    1.2869494  1010000 
 4491000   0.85773434   -4.1159726   -4.1159726   -2.8293723  0.018786452   -4.1159726    1.2866002  1010000 
 4492000    0.8581293   -4.1158315   -4.1158315   -2.8286388  0.022286245   -4.1158315    1.2871927  1010000 
 4493000   0.85826404   -4.1160291   -4.1160291   -2.8286343  0.020177351   -4.1160291    1.2873948  1010000 
 4494000   0.85875951   -4.1166588   -4.1166588   -2.8285209  0.016091473   -4.1166588     1.288138  1010000 
 4495000   0.85784987   -4.1159366   -4.1159366    -2.829163  0.017268992   -4.1159366    1.2867735  1010000 
 4496000    0.8574328   -4.1148116   -4.1148116   -2.8286637  0.019483964   -4.1148116    1.2861479  1010000 
 4497000   0.85748123   -4.1145169   -4.1145169   -2.8282964  0.019159157   -4.1145169    1.2862206  1010000 
 4498000   0.85812934    -4.114978    -4.114978   -2.8277853  0.023833441    -4.114978    1.2871927  1010000 
 4499000   0.85852577    -4.116267    -4.116267   -2.8284796  0.020926084    -4.116267    1.2877874  1010000 
 4500000   0.85817759   -4.1160517   -4.1160517   -2.8287865    0.0203171   -4.1160517    1.2872651  1010000 
 4501000   0.85848145   -4.1167194   -4.1167194   -2.8289985  0.020749889   -4.1167194    1.2877209  1010000 
 4502000   0.85796818   -4.1152299   -4.1152299   -2.8282789  0.022686916   -4.1152299     1.286951  1010000 
 4503000   0.85889698   -4.1164828   -4.1164828   -2.8281386  0.021794984   -4.1164828    1.2883442  1010000 
 4504000   0.85788816   -4.1146839   -4.1146839    -2.827853  0.025381114   -4.1146839     1.286831  1010000 
 4505000   0.85900389   -4.1164611   -4.1164611   -2.8279566  0.022548934   -4.1164611    1.2885046  1010000 
 4506000   0.85863737    -4.116085    -4.116085   -2.8281303  0.021422284    -4.116085    1.2879548  1010000 
 4507000   0.85845204   -4.1158794   -4.1158794   -2.8282026  0.021617989   -4.1158794    1.2876768  1010000 
 4508000   0.85910217   -4.1165429   -4.1165429    -2.827891  0.018587814   -4.1165429     1.288652  1010000 
 4509000   0.85895358    -4.116401    -4.116401   -2.8279719  0.021927743    -4.116401    1.2884291  1010000 
 4510000   0.85906026    -4.116418    -4.116418   -2.8278288  0.021881968    -4.116418    1.2885891  1010000 
 4511000   0.85954001   -4.1165075   -4.1165075   -2.8271988  0.025053052   -4.1165075    1.2893087  1010000 
 4512000   0.85938269   -4.1170456   -4.1170456   -2.8279729  0.023046972   -4.1170456    1.2890728  1010000 
 4513000   0.85914417    -4.115969    -4.115969    -2.827254  0.024493478    -4.115969     1.288715  1010000 
 4514000   0.85877917   -4.1152551   -4.1152551   -2.8270876  0.024066515   -4.1152551    1.2881675  1010000 
 4515000   0.85947461   -4.1163519   -4.1163519   -2.8271413  0.021346798   -4.1163519    1.2892106  1010000 
 4516000   0.85899171   -4.1158557   -4.1158557   -2.8273694  0.027210121   -4.1158557    1.2884863  1010000 
 4517000   0.85905441   -4.1159249   -4.1159249   -2.8273446  0.025670507   -4.1159249    1.2885803  1010000 
 4518000   0.85913004   -4.1163779   -4.1163779   -2.8276841  0.022352558   -4.1163779    1.2886938  1010000 
 4519000    0.8593924   -4.1160754   -4.1160754   -2.8269881  0.022586223   -4.1160754    1.2890873  1010000 
 4520000   0.86030962    -4.117564    -4.117564   -2.8271009   0.01982014    -4.117564    1.2904632  1010000 
 4521000   0.85941327   -4.1159833   -4.1159833   -2.8268647  0.025407102   -4.1159833    1.2891186  1010000 
 4522000   0.86018954   -4.1172049   -4.1172049   -2.8269218   0.02531524   -4.1172049     1.290283  1010000 
 4523000   0.85964688   -4.1160364   -4.1160364   -2.8265674  0.024586885   -4.1160364     1.289469  1010000 
 4524000   0.85941233   -4.1149818   -4.1149818   -2.8258646  0.027966192   -4.1149818    1.2891172  1010000 
 4525000   0.85967718   -4.1160404   -4.1160404   -2.8265259  0.024382976   -4.1160404    1.2895145  1010000 
 4526000   0.85936572   -4.1157581   -4.1157581   -2.8267108   0.02651613   -4.1157581    1.2890473  1010000 
 4527000   0.85993273   -4.1167654   -4.1167654   -2.8268676  0.023110474   -4.1167654    1.2898978  1010000 
 4528000   0.85907224   -4.1158259   -4.1158259   -2.8272188  0.025195008   -4.1158259    1.2886071  1010000 
 4529000   0.86024555    -4.117182    -4.117182   -2.8268149  0.021630018    -4.117182    1.2903671  1010000 
 4530000   0.85847206    -4.114954    -4.114954   -2.8272471  0.024636956    -4.114954    1.2877068  1010000 
 4531000   0.85981142   -4.1163726   -4.1163726   -2.8266568  0.023367862   -4.1163726    1.2897159  1010000 
 4532000   0.85909063   -4.1150178   -4.1150178   -2.8263831  0.022139627   -4.1150178    1.2886347  1010000 
 4533000   0.85895938   -4.1147205   -4.1147205   -2.8262827   0.02389974   -4.1147205    1.2884378  1010000 
 4534000   0.85853974   -4.1143551   -4.1143551   -2.8265468  0.021259375   -4.1143551    1.2878083  1010000 
 4535000   0.85902046    -4.114625    -4.114625   -2.8260955  0.021587473    -4.114625    1.2885294  1010000 
 4536000   0.85753863   -4.1130621   -4.1130621   -2.8267554  0.025750696   -4.1130621    1.2863067  1010000 
 4537000   0.85879249   -4.1142258   -4.1142258   -2.8260383  0.022536791   -4.1142258    1.2881875  1010000 
 4538000   0.85914432   -4.1142836   -4.1142836   -2.8255684   0.02211827   -4.1142836    1.2887152  1010000 
 4539000   0.85900367   -4.1142424   -4.1142424   -2.8257381  0.025149477   -4.1142424    1.2885042  1010000 
 4540000   0.85946319   -4.1147146   -4.1147146   -2.8255211  0.023125725   -4.1147146    1.2891935  1010000 
 4541000   0.85850755   -4.1133355   -4.1133355   -2.8255755  0.020208361   -4.1133355    1.2877601  1010000 
 4542000   0.85799387   -4.1124025   -4.1124025    -2.825413  0.020449399   -4.1124025    1.2869895  1010000 
 4543000   0.85770078   -4.1124428   -4.1124428   -2.8258929  0.022688361   -4.1124428    1.2865499  1010000 
 4544000   0.85882755   -4.1144486   -4.1144486   -2.8262085  0.017742257   -4.1144486    1.2882401  1010000 
 4545000    0.8588863   -4.1139613   -4.1139613   -2.8256331  0.022669551   -4.1139613    1.2883282  1010000 
 4546000   0.85933762   -4.1136332   -4.1136332   -2.8246281  0.021926967   -4.1136332    1.2890052  1010000 
 4547000   0.85885818   -4.1128006   -4.1128006   -2.8245146  0.026400197   -4.1128006     1.288286  1010000 
 4548000   0.85924919   -4.1128604   -4.1128604   -2.8239879  0.025399042   -4.1128604    1.2888725  1010000 
 4549000   0.85888271   -4.1125208   -4.1125208   -2.8241981  0.022924234   -4.1125208    1.2883228  1010000 
 4550000   0.85889003   -4.1129501   -4.1129501   -2.8246163  0.022331437   -4.1129501    1.2883338  1010000 
 4551000   0.86001756   -4.1144635   -4.1144635   -2.8244384  0.023445867   -4.1144635    1.2900251  1010000 
 4552000   0.85941243   -4.1140368   -4.1140368   -2.8249194  0.019511877   -4.1140368    1.2891174  1010000 
 4553000   0.85871817   -4.1124694   -4.1124694   -2.8243935  0.022322699   -4.1124694     1.288076  1010000 
 4554000   0.85906317   -4.1125126   -4.1125126   -2.8239191   0.01751842   -4.1125126    1.2885935  1010000 
 4555000   0.85841514   -4.1115431   -4.1115431   -2.8239217   0.02241287   -4.1115431    1.2876214  1010000 
 4556000   0.85923371   -4.1125397   -4.1125397   -2.8236905   0.01849661   -4.1125397    1.2888493  1010000 
 4557000   0.85824193   -4.1114632   -4.1114632   -2.8241016  0.022008383   -4.1114632    1.2873616  1010000 
 4558000   0.85857318   -4.1124611   -4.1124611   -2.8246026  0.022816358   -4.1124611    1.2878585  1010000 
 4559000   0.85850296   -4.1127183   -4.1127183   -2.8249652  0.021716513   -4.1127183    1.2877532  1010000 
 4560000   0.85855928   -4.1126547   -4.1126547   -2.8248171  0.020839143   -4.1126547    1.2878376  1010000 
 4561000   0.85800482   -4.1119203   -4.1119203   -2.8249143  0.018240002   -4.1119203     1.287006  1010000 
 4562000   0.85804033    -4.111799    -4.111799   -2.8247397  0.018926802    -4.111799    1.2870592  1010000 
 4563000   0.85827564   -4.1120957   -4.1120957   -2.8246835  0.020277717   -4.1120957    1.2874122  1010000 
 4564000    0.8580461   -4.1116047   -4.1116047   -2.8245368   0.02304161   -4.1116047    1.2870679  1010000 
 4565000   0.85868376   -4.1126046   -4.1126046   -2.8245802  0.020836713   -4.1126046    1.2880244  1010000 
 4566000   0.85877076   -4.1124376   -4.1124376   -2.8242827  0.020077488   -4.1124376    1.2881549  1010000 
 4567000   0.85878225   -4.1125454   -4.1125454   -2.8243733  0.019872251   -4.1125454    1.2881721  1010000 
 4568000   0.85905027   -4.1126702   -4.1126702    -2.824096  0.018736281   -4.1126702    1.2885741  1010000 
 4569000   0.85937073   -4.1128512   -4.1128512   -2.8237963  0.020999564   -4.1128512    1.2890548  1010000 
 4570000   0.85898892   -4.1123775   -4.1123775   -2.8238954  0.022976433   -4.1123775    1.2884821  1010000 
 4571000   0.85944759   -4.1123962   -4.1123962   -2.8232261  0.025859288   -4.1123962    1.2891701  1010000 
 4572000   0.86062819   -4.1146754   -4.1146754   -2.8237344  0.023441854   -4.1146754     1.290941  1010000 
 4573000   0.86028887   -4.1142397   -4.1142397   -2.8238077  0.022983609   -4.1142397     1.290432  1010000 
 4574000   0.85996936   -4.1136304   -4.1136304   -2.8236776  0.025476052   -4.1136304    1.2899528  1010000 
 4575000    0.8605117     -4.11394     -4.11394   -2.8231737  0.023862835     -4.11394    1.2907663  1010000 
 4576000   0.85974197   -4.1132753   -4.1132753   -2.8236636  0.023269058   -4.1132753    1.2896117  1010000 
 4577000   0.85948346    -4.112823    -4.112823   -2.8235991  0.027724237    -4.112823    1.2892239  1010000 
 4578000   0.86037577   -4.1146616   -4.1146616   -2.8240993  0.020885761   -4.1146616    1.2905624  1010000 
 4579000   0.85951965    -4.113794    -4.113794   -2.8245158  0.024060679    -4.113794    1.2892782  1010000 
 4580000   0.85894492   -4.1127835   -4.1127835   -2.8243674  0.027987892   -4.1127835    1.2884161  1010000 
 4581000   0.85914997    -4.112922    -4.112922   -2.8241983   0.02348012    -4.112922    1.2887237  1010000 
 4582000   0.85933383   -4.1133574   -4.1133574   -2.8243579  0.021679194   -4.1133574    1.2889995  1010000 
 4583000   0.85920445   -4.1131097   -4.1131097   -2.8243043  0.022425413   -4.1131097    1.2888054  1010000 
 4584000   0.85909622   -4.1130254   -4.1130254   -2.8243823  0.022939022   -4.1130254     1.288643  1010000 
 4585000   0.85912833   -4.1132816   -4.1132816   -2.8245904  0.022070623   -4.1132816    1.2886912  1010000 
 4586000   0.86012528   -4.1148333   -4.1148333   -2.8246467  0.021262997   -4.1148333    1.2901866  1010000 
 4587000   0.85921334   -4.1136589   -4.1136589   -2.8248402  0.020278564   -4.1136589    1.2888187  1010000 
 4588000   0.85937143   -4.1135289   -4.1135289   -2.8244731  0.023961664   -4.1135289    1.2890559  1010000 
 4589000   0.85949572   -4.1134036   -4.1134036   -2.8241613  0.022394017   -4.1134036    1.2892423  1010000 
 4590000   0.85885635   -4.1115635   -4.1115635   -2.8232802  0.028291919   -4.1115635    1.2882833  1010000 
 4591000   0.86001846   -4.1136857   -4.1136857   -2.8236593  0.026348052   -4.1136857    1.2900264  1010000 
 4592000   0.86005934   -4.1134767   -4.1134767    -2.823389  0.024537092   -4.1134767    1.2900877  1010000 
 4593000   0.86036547   -4.1133387   -4.1133387   -2.8227918  0.025592428   -4.1133387    1.2905469  1010000 
 4594000   0.86054246   -4.1132217   -4.1132217   -2.8224093  0.026586882   -4.1132217    1.2908124  1010000 
 4595000   0.86071837   -4.1135243   -4.1135243    -2.822448  0.028141782   -4.1135243    1.2910763  1010000 
 4596000   0.86031604   -4.1133635   -4.1133635   -2.8228907  0.025515238   -4.1133635    1.2904728  1010000 
 4597000   0.86118847    -4.114615    -4.114615   -2.8228336  0.024327023    -4.114615    1.2917814  1010000 
 4598000   0.86072467   -4.1135052   -4.1135052   -2.8224195  0.030185617   -4.1135052    1.2910857  1010000 
 4599000   0.86063704   -4.1135048   -4.1135048   -2.8225505   0.02731284   -4.1135048    1.2909543  1010000 
 4600000   0.86066012   -4.1128846   -4.1128846   -2.8218957  0.027627732   -4.1128846    1.2909889  1010000 
 4601000   0.86044458   -4.1127116   -4.1127116    -2.822046  0.030123768   -4.1127116    1.2906656  1010000 
 4602000   0.86055103    -4.112514    -4.112514   -2.8216887   0.02502559    -4.112514    1.2908253  1010000 
 4603000   0.86050846   -4.1126512   -4.1126512   -2.8218898  0.028841106   -4.1126512    1.2907614  1010000 
 4604000   0.86072055   -4.1125066   -4.1125066    -2.821427  0.028145567   -4.1125066    1.2910795  1010000 
 4605000   0.86012501   -4.1120486   -4.1120486   -2.8218623  0.024392561   -4.1120486    1.2901862  1010000 
 4606000   0.85993447   -4.1116125   -4.1116125   -2.8217121  0.024451029   -4.1116125    1.2899004  1010000 
 4607000   0.85969041   -4.1112536   -4.1112536   -2.8217193  0.025857301   -4.1112536    1.2895343  1010000 
 4608000   0.85911184   -4.1103918   -4.1103918   -2.8217253  0.027348319   -4.1103918    1.2886665  1010000 
 4609000   0.86012454   -4.1115401   -4.1115401   -2.8213546  0.022108647   -4.1115401    1.2901855  1010000 
 4610000    0.8596232   -4.1105744   -4.1105744   -2.8211408  0.026708469   -4.1105744    1.2894335  1010000 
 4611000   0.86031123   -4.1115684   -4.1115684   -2.8211028  0.023229761   -4.1115684    1.2904656  1010000 
 4612000   0.85929828   -4.1101989   -4.1101989   -2.8212528  0.022366427   -4.1101989    1.2889461  1010000 
 4613000   0.85987869   -4.1107673   -4.1107673   -2.8209506  0.018685712   -4.1107673    1.2898168  1010000 
 4614000   0.86013721   -4.1110291   -4.1110291   -2.8208245   0.01888261   -4.1110291    1.2902045  1010000 
 4615000   0.86024143   -4.1108612   -4.1108612   -2.8205004  0.019080057   -4.1108612    1.2903609  1010000 
 4616000   0.85900338   -4.1091283   -4.1091283   -2.8206245    0.0226931   -4.1091283    1.2885038  1010000 
 4617000   0.85969708   -4.1098004   -4.1098004    -2.820256   0.02093901   -4.1098004    1.2895443  1010000 
 4618000   0.85973171   -4.1102425   -4.1102425   -2.8206462  0.019865914   -4.1102425    1.2895963  1010000 
 4619000   0.85947111   -4.1095507   -4.1095507   -2.8203453  0.022871508   -4.1095507    1.2892054  1010000 
 4620000   0.85984871   -4.1099542   -4.1099542   -2.8201824  0.020543308   -4.1099542    1.2897718  1010000 
 4621000   0.85952974   -4.1093045   -4.1093045   -2.8200112  0.027785235   -4.1093045    1.2892933  1010000 
 4622000   0.86032185   -4.1103293   -4.1103293   -2.8198478  0.020082515   -4.1103293    1.2904815  1010000 
 4623000   0.85941116   -4.1087885   -4.1087885    -2.819673  0.020168234   -4.1087885    1.2891155  1010000 
 4624000   0.85938208   -4.1085554   -4.1085554   -2.8194835  0.019235539   -4.1085554    1.2890718  1010000 
 4625000   0.85949802   -4.1086838   -4.1086838   -2.8194381   0.01986886   -4.1086838    1.2892458  1010000 
 4626000   0.85900543   -4.1077411   -4.1077411   -2.8192342  0.021214721   -4.1077411    1.2885069  1010000 
 4627000   0.85987796   -4.1087809   -4.1087809   -2.8189653  0.020526971   -4.1087809    1.2898157  1010000 
 4628000    0.8598031   -4.1082325   -4.1082325   -2.8185292  0.021063709   -4.1082325    1.2897034  1010000 
 4629000   0.85975576   -4.1083043   -4.1083043   -2.8186719  0.024384294   -4.1083043    1.2896324  1010000 
 4630000   0.85987742   -4.1086233   -4.1086233   -2.8188084  0.021726785   -4.1086233    1.2898149  1010000 
 4631000   0.85914945   -4.1070673   -4.1070673   -2.8183445  0.023283142   -4.1070673    1.2887229  1010000 
 4632000   0.85997625   -4.1081498   -4.1081498   -2.8181867  0.017033399   -4.1081498    1.2899631  1010000 
 4633000   0.85993736   -4.1079561   -4.1079561   -2.8180513  0.019889319   -4.1079561    1.2899048  1010000 
 4634000   0.85945748    -4.106895    -4.106895     -2.81771  0.025530845    -4.106895    1.2891849  1010000 
 4635000   0.85986183   -4.1078143   -4.1078143   -2.8180228   0.02160376   -4.1078143    1.2897915  1010000 
 4636000   0.85934079   -4.1071617   -4.1071617   -2.8181518  0.024706975   -4.1071617    1.2890099  1010000 
 4637000    0.8597011   -4.1068344   -4.1068344   -2.8172841  0.024240023   -4.1068344    1.2895504  1010000 
 4638000   0.86008948   -4.1076201   -4.1076201   -2.8174871  0.019540664   -4.1076201    1.2901329  1010000 
 4639000   0.86015568   -4.1072805   -4.1072805   -2.8170482  0.023126464   -4.1072805    1.2902322  1010000 
 4640000   0.86011794   -4.1072746   -4.1072746    -2.817099  0.022447006   -4.1072746    1.2901756  1010000 
 4641000   0.85961862   -4.1071833   -4.1071833   -2.8177566  0.022962039   -4.1071833    1.2894267  1010000 
 4642000   0.86053048   -4.1081833   -4.1081833   -2.8173888  0.021156574   -4.1081833    1.2907944  1010000 
 4643000   0.85970011   -4.1068621   -4.1068621   -2.8173133  0.024224587   -4.1068621    1.2895489  1010000 
 4644000   0.86062657   -4.1083229   -4.1083229   -2.8173843  0.020278466   -4.1083229    1.2909386  1010000 
 4645000   0.85968374   -4.1070585   -4.1070585   -2.8175342  0.023483246   -4.1070585    1.2895243  1010000 
 4646000   0.86048978   -4.1079004   -4.1079004    -2.817167   0.02370346   -4.1079004    1.2907334  1010000 
 4647000   0.86103376   -4.1091929   -4.1091929   -2.8176435  0.019005437   -4.1091929    1.2915494  1010000 
 4648000   0.85996282   -4.1077289   -4.1077289    -2.817786  0.020789726   -4.1077289    1.2899429  1010000 
 4649000   0.85983329   -4.1075113   -4.1075113   -2.8177626  0.021356638   -4.1075113    1.2897487  1010000 
 4650000   0.85947014   -4.1068365   -4.1068365   -2.8176326  0.021424908   -4.1068365    1.2892039  1010000 
 4651000   0.85977127   -4.1072833   -4.1072833   -2.8176276  0.021696587   -4.1072833    1.2896556  1010000 
 4652000   0.86019796   -4.1073461   -4.1073461   -2.8170504  0.019860427   -4.1073461    1.2902957  1010000 
 4653000   0.85987284   -4.1077219   -4.1077219   -2.8179139  0.022984895   -4.1077219     1.289808  1010000 
 4654000   0.85912346    -4.106753    -4.106753   -2.8180691  0.023751901    -4.106753    1.2886839  1010000 
 4655000    0.8598255   -4.1080585   -4.1080585   -2.8183215   0.02124876   -4.1080585     1.289737  1010000 
 4656000   0.85972362   -4.1078853   -4.1078853   -2.8183011  0.022360264   -4.1078853    1.2895842  1010000 
 4657000   0.85988748   -4.1081837   -4.1081837   -2.8183537  0.021014007   -4.1081837    1.2898299  1010000 
 4658000   0.86005193   -4.1078989   -4.1078989   -2.8178223  0.023490154   -4.1078989    1.2900766  1010000 
 4659000   0.85927857   -4.1066989   -4.1066989   -2.8177823  0.024925098   -4.1066989    1.2889166  1010000 
 4660000   0.86081157   -4.1090441   -4.1090441    -2.817828  0.025824473   -4.1090441    1.2912161  1010000 
 4661000   0.86082948   -4.1092221   -4.1092221   -2.8179792  0.024745051   -4.1092221    1.2912429  1010000 
 4662000    0.8601218   -4.1080945   -4.1080945   -2.8179131  0.021611567   -4.1080945    1.2901814  1010000 
 4663000   0.85957553   -4.1075711   -4.1075711   -2.8182091    0.0270288   -4.1075711     1.289362  1010000 
 4664000   0.86097165   -4.1092544   -4.1092544   -2.8177982  0.020997784   -4.1092544    1.2914562  1010000 
 4665000   0.86096086    -4.108878    -4.108878    -2.817438  0.024214718    -4.108878      1.29144  1010000 
 4666000   0.86126348    -4.109127    -4.109127   -2.8172331   0.02194345    -4.109127    1.2918939  1010000 
 4667000   0.86030946   -4.1077148   -4.1077148   -2.8172519  0.021200505   -4.1077148    1.2904629  1010000 
 4668000    0.8608808   -4.1092456   -4.1092456   -2.8179257  0.020858877   -4.1092456    1.2913199  1010000 
 4669000   0.85989049   -4.1075457   -4.1075457   -2.8177112  0.023103047   -4.1075457    1.2898345  1010000 
 4670000   0.86044191    -4.108721    -4.108721   -2.8180594  0.020806553    -4.108721    1.2906616  1010000 
 4671000   0.86107719   -4.1093202   -4.1093202   -2.8177057  0.023337382   -4.1093202    1.2916145  1010000 
 4672000   0.86009022   -4.1079668   -4.1079668   -2.8178327  0.023269551   -4.1079668    1.2901341  1010000 
 4673000   0.86109695   -4.1094627   -4.1094627   -2.8178186  0.021946849   -4.1094627    1.2916441  1010000 
 4674000   0.86002311   -4.1076775   -4.1076775   -2.8176441  0.026075877   -4.1076775    1.2900334  1010000 
 4675000   0.86155324   -4.1100701   -4.1100701   -2.8177415  0.020751624   -4.1100701    1.2923286  1010000 
 4676000   0.86051847   -4.1089397   -4.1089397   -2.8181632  0.020744653   -4.1089397    1.2907764  1010000 
 4677000   0.86015374   -4.1082894   -4.1082894     -2.81806   0.02511911   -4.1082894    1.2902293  1010000 
 4678000   0.85955495   -4.1074342   -4.1074342   -2.8181031  0.024840039   -4.1074342    1.2893311  1010000 
 4679000   0.86092212   -4.1092589   -4.1092589    -2.817877  0.022700895   -4.1092589    1.2913819  1010000 
 4680000   0.86050282   -4.1084999   -4.1084999    -2.817747  0.025161711   -4.1084999     1.290753  1010000 
 4681000   0.86098042   -4.1085524   -4.1085524    -2.817083  0.024157456   -4.1085524    1.2914694  1010000 
 4682000   0.86058539    -4.107916    -4.107916   -2.8170392  0.027406421    -4.107916    1.2908768  1010000 
 4683000   0.86087091   -4.1081565   -4.1081565   -2.8168514  0.025459691   -4.1081565    1.2913051  1010000 
 4684000   0.86146802   -4.1091724   -4.1091724   -2.8169716  0.020931253   -4.1091724    1.2922008  1010000 
 4685000   0.86040566   -4.1078584   -4.1078584   -2.8172512  0.026429627   -4.1078584    1.2906072  1010000 
 4686000   0.86061766   -4.1082148   -4.1082148   -2.8172895  0.022793026   -4.1082148    1.2909252  1010000 
 4687000    0.8602666   -4.1075392   -4.1075392   -2.8171406  0.025049766   -4.1075392    1.2903986  1010000 
 4688000    0.8608634   -4.1083304   -4.1083304   -2.8170366  0.023339251   -4.1083304    1.2912938  1010000 
 4689000   0.86076862   -4.1083239   -4.1083239   -2.8171722  0.024858501   -4.1083239    1.2911517  1010000 
 4690000   0.86100332   -4.1086008   -4.1086008   -2.8170972  0.024213662   -4.1086008    1.2915037  1010000 
 4691000   0.86127234   -4.1086603   -4.1086603   -2.8167531  0.023187857   -4.1086603    1.2919072  1010000 
 4692000   0.86054796   -4.1069711   -4.1069711   -2.8161505  0.025150033   -4.1069711    1.2908207  1010000 
 4693000   0.86082946   -4.1070475   -4.1070475   -2.8158046  0.026624089   -4.1070475    1.2912429  1010000 
 4694000   0.86115921   -4.1077765   -4.1077765    -2.816039   0.02061498   -4.1077765    1.2917375  1010000 
 4695000   0.86042609   -4.1071268   -4.1071268    -2.816489  0.023816503   -4.1071268    1.2906379  1010000 
 4696000   0.86049724   -4.1071956   -4.1071956    -2.816451  0.022196597   -4.1071956    1.2907446  1010000 
 4697000   0.86073268   -4.1068635   -4.1068635   -2.8157658  0.025073992   -4.1068635    1.2910977  1010000 
 4698000   0.86054582    -4.107015    -4.107015   -2.8161975  0.022815086    -4.107015    1.2908175  1010000 
 4699000   0.86121769   -4.1079448   -4.1079448   -2.8161195  0.022095469   -4.1079448    1.2918253  1010000 
 4700000   0.86094305   -4.1074486   -4.1074486   -2.8160353  0.022113608   -4.1074486    1.2914133  1010000 
 4701000   0.86032961    -4.106049    -4.106049   -2.8155559  0.022399632    -4.106049    1.2904931  1010000 
 4702000   0.86107118    -4.106818    -4.106818   -2.8152125  0.019616063    -4.106818    1.2916055  1010000 
 4703000   0.86053702   -4.1060238   -4.1060238   -2.8152195  0.021541336   -4.1060238    1.2908043  1010000 
 4704000    0.8601085   -4.1052316   -4.1052316   -2.8150701   0.02548499   -4.1052316    1.2901615  1010000 
 4705000    0.8604921   -4.1060553   -4.1060553   -2.8153185  0.020858815   -4.1060553    1.2907369  1010000 
 4706000   0.86018373   -4.1054175   -4.1054175   -2.8151432  0.021375367   -4.1054175    1.2902743  1010000 
 4707000   0.86103343   -4.1064596   -4.1064596   -2.8149108  0.018830839   -4.1064596    1.2915489  1010000 
 4708000   0.86093348   -4.1064851   -4.1064851   -2.8150862   0.01939933   -4.1064851    1.2913989  1010000 
 4709000   0.86082004   -4.1063015   -4.1063015   -2.8150727  0.022785758   -4.1063015    1.2912288  1010000 
 4710000   0.86132291   -4.1067142   -4.1067142   -2.8147311   0.02423723   -4.1067142    1.2919831  1010000 
 4711000   0.86113389   -4.1059053   -4.1059053   -2.8142058  0.024694098   -4.1059053    1.2916995  1010000 
 4712000   0.86141385   -4.1063741   -4.1063741   -2.8142547  0.021920591   -4.1063741    1.2921195  1010000 
 4713000   0.86082068   -4.1051163   -4.1051163   -2.8138865  0.026652444   -4.1051163    1.2912297  1010000 
 4714000   0.86005414   -4.1043937   -4.1043937   -2.8143138    0.0239665   -4.1043937    1.2900799  1010000 
 4715000   0.85990271   -4.1041853   -4.1041853   -2.8143325  0.023212941   -4.1041853    1.2898528  1010000 
 4716000   0.86023525   -4.1042721   -4.1042721   -2.8139205  0.027157531   -4.1042721    1.2903516  1010000 
 4717000   0.86115061   -4.1051712   -4.1051712   -2.8134466   0.02276446   -4.1051712    1.2917246  1010000 
 4718000   0.86030809   -4.1035579   -4.1035579    -2.813097   0.02521744   -4.1035579    1.2904609  1010000 
 4719000   0.86095572   -4.1045945   -4.1045945   -2.8131622  0.019398177   -4.1045945    1.2914323  1010000 
 4720000   0.86074548   -4.1042808   -4.1042808   -2.8131638  0.022805741   -4.1042808    1.2911169  1010000 
 4721000   0.86043907   -4.1033919   -4.1033919   -2.8127346  0.023686926   -4.1033919    1.2906573  1010000 
 4722000   0.86102763   -4.1041649   -4.1041649   -2.8126247  0.021525968   -4.1041649    1.2915402  1010000 
 4723000   0.86053905    -4.103663    -4.103663   -2.8128557  0.022856973    -4.103663    1.2908073  1010000 
 4724000   0.86074626   -4.1039135   -4.1039135   -2.8127954  0.024176244   -4.1039135    1.2911181  1010000 
 4725000   0.86084762   -4.1039454   -4.1039454   -2.8126752  0.023371386   -4.1039454    1.2912702  1010000 
 4726000   0.86172663    -4.104762    -4.104762   -2.8121733   0.02436718    -4.104762    1.2925887  1010000 
 4727000   0.86059316   -4.1032196   -4.1032196   -2.8123311   0.02533985   -4.1032196    1.2908885  1010000 
 4728000   0.86160083   -4.1042865   -4.1042865   -2.8118865  0.023840498   -4.1042865       1.2924  1010000 
 4729000   0.86197672   -4.1043183   -4.1043183   -2.8113545  0.024325418   -4.1043183    1.2929638  1010000 
 4730000   0.86275742   -4.1051436   -4.1051436   -2.8110087  0.022785408   -4.1051436    1.2941348  1010000 
 4731000   0.86124315   -4.1029938   -4.1029938   -2.8111304  0.027396027   -4.1029938    1.2918635  1010000 
 4732000   0.86150053   -4.1032238   -4.1032238   -2.8109743  0.025451379   -4.1032238    1.2922495  1010000 
 4733000   0.86154203   -4.1030723   -4.1030723   -2.8107605  0.024801589   -4.1030723    1.2923118  1010000 
 4734000   0.86186326    -4.103423    -4.103423   -2.8106294  0.023208606    -4.103423    1.2927936  1010000 
 4735000   0.86213801   -4.1039863   -4.1039863   -2.8107806  0.020934162   -4.1039863    1.2932057  1010000 
 4736000   0.86147702    -4.102875    -4.102875   -2.8106608  0.027046159    -4.102875    1.2922143  1010000 
 4737000   0.86185627   -4.1032583   -4.1032583   -2.8104752  0.023528433   -4.1032583    1.2927831  1010000 
 4738000   0.86190928   -4.1040407   -4.1040407   -2.8111781  0.017829363   -4.1040407    1.2928626  1010000 
 4739000   0.86236217   -4.1043482   -4.1043482   -2.8108062  0.018636865   -4.1043482     1.293542  1010000 
 4740000   0.86072426   -4.1019797   -4.1019797   -2.8108946  0.024432439   -4.1019797    1.2910851  1010000 
 4741000   0.86146015   -4.1034242   -4.1034242   -2.8112353  0.021205534   -4.1034242     1.292189  1010000 
 4742000   0.86150125   -4.1033671   -4.1033671   -2.8111165  0.019625142   -4.1033671    1.2922506  1010000 
 4743000   0.86111342   -4.1028797   -4.1028797   -2.8112109  0.020823464   -4.1028797    1.2916689  1010000 
 4744000   0.86021531   -4.1017478   -4.1017478   -2.8114261  0.019942157   -4.1017478    1.2903217  1010000 
 4745000    0.8604942   -4.1020314   -4.1020314   -2.8112914  0.021753747   -4.1020314      1.29074  1010000 
 4746000   0.86092074   -4.1016011   -4.1016011   -2.8102213  0.023165677   -4.1016011    1.2913798  1010000 
 4747000    0.8613684   -4.1021845   -4.1021845   -2.8101332  0.019877369   -4.1021845    1.2920513  1010000 
 4748000   0.86082163   -4.1015925   -4.1015925   -2.8103614   0.02218075   -4.1015925    1.2912312  1010000 
 4749000   0.86178557   -4.1028846   -4.1028846   -2.8102075  0.019878693   -4.1028846    1.2926771  1010000 
 4750000   0.86085836   -4.1014189   -4.1014189   -2.8101327  0.022674167   -4.1014189    1.2912863  1010000 
 4751000   0.86060214   -4.1006161   -4.1006161   -2.8097141  0.026232344   -4.1006161    1.2909019  1010000 
 4752000   0.86161806    -4.101629    -4.101629   -2.8092032    0.0198642    -4.101629    1.2924258  1010000 
 4753000   0.86206717   -4.1029368   -4.1029368   -2.8098374  0.018298065   -4.1029368    1.2930995  1010000 
 4754000   0.86047231   -4.1008994   -4.1008994   -2.8101923  0.023759888   -4.1008994    1.2907072  1010000 
 4755000   0.86136108   -4.1019865   -4.1019865   -2.8099461  0.019088139   -4.1019865    1.2920403  1010000 
 4756000   0.86133216   -4.1021096   -4.1021096   -2.8101127  0.019842937   -4.1021096     1.291997  1010000 
 4757000   0.86089845   -4.1013089   -4.1013089   -2.8099625   0.02183452   -4.1013089    1.2913464  1010000 
 4758000   0.86080069   -4.1014486   -4.1014486   -2.8102488  0.025310718   -4.1014486    1.2911998  1010000 
 4759000   0.86160625   -4.1018377   -4.1018377   -2.8094296  0.022256075   -4.1018377    1.2924081  1010000 
 4760000   0.86150969   -4.1020842   -4.1020842   -2.8098209  0.018968657   -4.1020842    1.2922633  1010000 
 4761000   0.86076249   -4.1008358   -4.1008358   -2.8096934  0.021537437   -4.1008358    1.2911425  1010000 
 4762000   0.86159137   -4.1018201   -4.1018201   -2.8094343   0.01899553   -4.1018201    1.2923858  1010000 
 4763000   0.86118895   -4.1008394   -4.1008394   -2.8090573  0.021172195   -4.1008394    1.2917821  1010000 
 4764000   0.86122005   -4.1010662   -4.1010662   -2.8092374  0.022412581   -4.1010662    1.2918288  1010000 
 4765000    0.8618169   -4.1020535   -4.1020535   -2.8093294   0.02093908   -4.1020535    1.2927241  1010000 
 4766000   0.86248038   -4.1023936   -4.1023936   -2.8086743  0.024072249   -4.1023936    1.2937193  1010000 
 4767000   0.86180922   -4.1020676   -4.1020676   -2.8093551   0.02352084   -4.1020676    1.2927125  1010000 
 4768000    0.8621228   -4.1024095   -4.1024095   -2.8092266  0.023001906   -4.1024095    1.2931829  1010000 
 4769000   0.86173994   -4.1020436   -4.1020436   -2.8094349  0.024623473   -4.1020436    1.2926086  1010000 
 4770000   0.86103507   -4.1004924   -4.1004924    -2.808941  0.028209792   -4.1004924    1.2915513  1010000 
 4771000   0.86140058   -4.1011597   -4.1011597   -2.8090601  0.024155399   -4.1011597    1.2920996  1010000 
 4772000   0.86193816   -4.1012331   -4.1012331   -2.8083272  0.026118198   -4.1012331     1.292906  1010000 
 4773000   0.86282946   -4.1018407   -4.1018407   -2.8075978     0.022986   -4.1018407    1.2942429  1010000 
 4774000    0.8627809   -4.1022495   -4.1022495   -2.8080794   0.02644208   -4.1022495    1.2941701  1010000 
 4775000   0.86242368   -4.1018264   -4.1018264   -2.8081922  0.026768694   -4.1018264    1.2936342  1010000 
 4776000   0.86312678   -4.1029089   -4.1029089     -2.80822  0.021633703   -4.1029089    1.2946889  1010000 
 4777000   0.86246983   -4.1013837   -4.1013837   -2.8076803  0.029396387   -4.1013837    1.2937035  1010000 
 4778000   0.86350637    -4.103075    -4.103075   -2.8078167  0.025075918    -4.103075    1.2952583  1010000 
 4779000   0.86244814   -4.1021789   -4.1021789    -2.808508  0.024701189   -4.1021789    1.2936709  1010000 
 4780000    0.8625172   -4.1027774   -4.1027774   -2.8090028  0.025523707   -4.1027774    1.2937745  1010000 
 4781000   0.86180918    -4.102227    -4.102227   -2.8095145  0.022752984    -4.102227    1.2927125  1010000 
 4782000   0.86144162   -4.1014899   -4.1014899   -2.8093287  0.024137712   -4.1014899    1.2921611  1010000 
 4783000   0.86150871   -4.1007661   -4.1007661   -2.8085043  0.025236799   -4.1007661    1.2922618  1010000 
 4784000   0.86172601   -4.1012053   -4.1012053   -2.8086176  0.022950961   -4.1012053    1.2925877  1010000 
 4785000    0.8620458   -4.1008642   -4.1008642   -2.8077968   0.02761153   -4.1008642    1.2930674  1010000 
 4786000   0.86163786   -4.1002885   -4.1002885    -2.807833  0.023406353   -4.1002885    1.2924555  1010000 
 4787000    0.8617609   -4.1002958   -4.1002958   -2.8076558  0.024113978   -4.1002958    1.2926401  1010000 
 4788000   0.86178968   -4.1002613   -4.1002613    -2.807578  0.022739161   -4.1002613    1.2926832  1010000 
 4789000   0.86230948   -4.1012021   -4.1012021   -2.8077391  0.024308613   -4.1012021    1.2934629  1010000 
 4790000   0.86204972   -4.1012336   -4.1012336   -2.8081603  0.020017949   -4.1012336    1.2930733  1010000 
 4791000   0.86185069   -4.1003155   -4.1003155   -2.8075408  0.024101488   -4.1003155    1.2927747  1010000 
 4792000   0.86191484   -4.0998364   -4.0998364   -2.8069655  0.028446241   -4.0998364     1.292871  1010000 
 4793000    0.8619542   -4.1002015   -4.1002015   -2.8072715  0.024498196   -4.1002015      1.29293  1010000 
 4794000   0.86232018   -4.1002316   -4.1002316   -2.8067526  0.024958546   -4.1002316     1.293479  1010000 
 4795000   0.86276709   -4.1007568   -4.1007568   -2.8066074  0.026864245   -4.1007568    1.2941494  1010000 
 4796000   0.86290451   -4.1018435   -4.1018435   -2.8074881  0.028187796   -4.1018435    1.2943555  1010000 
 4797000   0.86263031   -4.1014423   -4.1014423   -2.8074982  0.025204976   -4.1014423    1.2939442  1010000 
 4798000   0.86281187   -4.1015817   -4.1015817   -2.8073651  0.027838953   -4.1015817    1.2942165  1010000 
 4799000   0.86213115   -4.1006993   -4.1006993   -2.8075038  0.028896354   -4.1006993    1.2931954  1010000 
 4800000   0.86257351   -4.1007671   -4.1007671   -2.8069081  0.024980187   -4.1007671     1.293859  1010000 
 4801000   0.86234394   -4.1002025   -4.1002025   -2.8066879  0.024302752   -4.1002025    1.2935146  1010000 
 4802000   0.86239025    -4.100247    -4.100247   -2.8066629  0.024462543    -4.100247    1.2935841  1010000 
 4803000   0.86183093   -4.0988303   -4.0988303   -2.8060852  0.026660994   -4.0988303    1.2927451  1010000 
 4804000   0.86196925   -4.0993984   -4.0993984   -2.8064458  0.023478765   -4.0993984    1.2929526  1010000 
 4805000   0.86193687    -4.100035    -4.100035    -2.807131  0.022292291    -4.100035     1.292904  1010000 
 4806000   0.86107043   -4.0988673   -4.0988673   -2.8072629  0.021334667   -4.0988673    1.2916044  1010000 
 4807000   0.86162294   -4.0996057   -4.0996057   -2.8071726   0.02057537   -4.0996057    1.2924331  1010000 
 4808000   0.86100365   -4.0991065   -4.0991065   -2.8076024  0.018606801   -4.0991065    1.2915042  1010000 
 4809000   0.86161809   -4.0999734   -4.0999734   -2.8075475  0.020229146   -4.0999734    1.2924259  1010000 
 4810000   0.86165915   -4.0993444   -4.0993444    -2.806857  0.020696359   -4.0993444    1.2924875  1010000 
 4811000   0.86147488   -4.0996841   -4.0996841   -2.8074731  0.019442987   -4.0996841     1.292211  1010000 
 4812000   0.86120914   -4.0994613   -4.0994613   -2.8076489  0.018738942   -4.0994613    1.2918124  1010000 
 4813000    0.8611731    -4.098862    -4.098862   -2.8071036  0.025757729    -4.098862    1.2917584  1010000 
 4814000   0.86151974    -4.099057    -4.099057   -2.8067787  0.023776487    -4.099057    1.2922783  1010000 
 4815000   0.86187444   -4.0995178   -4.0995178   -2.8067074  0.022958285   -4.0995178    1.2928104  1010000 
 4816000   0.86180811   -4.0996514   -4.0996514   -2.8069405  0.023706025   -4.0996514    1.2927109  1010000 
 4817000   0.86181499   -4.0994574   -4.0994574   -2.8067362  0.023301918   -4.0994574    1.2927212  1010000 
 4818000   0.86235173   -4.0996578   -4.0996578   -2.8061315  0.026424921   -4.0996578    1.2935263  1010000 
 4819000   0.86225225    -4.099755    -4.099755   -2.8063779  0.024672663    -4.099755    1.2933771  1010000 
 4820000   0.86250161   -4.1000537   -4.1000537   -2.8063025  0.026843239   -4.1000537    1.2937511  1010000 
 4821000   0.86312386   -4.1006243   -4.1006243   -2.8059398  0.026504388   -4.1006243    1.2946845  1010000 
 4822000    0.8642298   -4.1017788   -4.1017788   -2.8054354  0.019804371   -4.1017788    1.2963434  1010000 
 4823000   0.86249982   -4.0996977   -4.0996977   -2.8059492  0.025182931   -4.0996977    1.2937484  1010000 
 4824000   0.86299151   -4.1000809   -4.1000809   -2.8055949  0.021755578   -4.1000809     1.294486  1010000 
 4825000   0.86305656   -4.0999658   -4.0999658   -2.8053822  0.026911257   -4.0999658    1.2945836  1010000 
 4826000   0.86323357   -4.1005101   -4.1005101    -2.805661  0.024929317   -4.1005101    1.2948491  1010000 
 4827000   0.86233953   -4.0992437   -4.0992437   -2.8057356  0.024494196   -4.0992437     1.293508  1010000 
 4828000   0.86247249   -4.0989663   -4.0989663   -2.8052589  0.023107779   -4.0989663    1.2937075  1010000 
 4829000   0.86253884   -4.0989685   -4.0989685   -2.8051615  0.022840699   -4.0989685     1.293807  1010000 
 4830000   0.86284381   -4.0991206   -4.0991206   -2.8048562  0.023876219   -4.0991206    1.2942644  1010000 
 4831000   0.86231871   -4.0979665   -4.0979665   -2.8044897  0.024821305   -4.0979665    1.2934768  1010000 
 4832000   0.86297762   -4.0986245   -4.0986245   -2.8041593  0.023849709   -4.0986245    1.2944652  1010000 
 4833000   0.86311753   -4.0985047   -4.0985047   -2.8038297  0.021451677   -4.0985047     1.294675  1010000 
 4834000   0.86238634   -4.0979931   -4.0979931   -2.8044149  0.022265054   -4.0979931    1.2935782  1010000 
 4835000   0.86332527   -4.0989263   -4.0989263   -2.8039397   0.02238944   -4.0989263    1.2949866  1010000 
 4836000   0.86238803   -4.0976066   -4.0976066   -2.8040258  0.021797932   -4.0976066    1.2935808  1010000 
 4837000   0.86317658   -4.0988895   -4.0988895   -2.8041259  0.024266706   -4.0988895    1.2947636  1010000 
 4838000   0.86295202   -4.0988918   -4.0988918   -2.8044651  0.021669656   -4.0988918    1.2944268  1010000 
 4839000   0.86196082   -4.0976834   -4.0976834   -2.8047434  0.023519752   -4.0976834    1.2929399  1010000 
 4840000   0.86231378   -4.0978955   -4.0978955   -2.8044261   0.02352659   -4.0978955    1.2934694  1010000 
 4841000   0.86301248   -4.0988672   -4.0988672   -2.8043497  0.023208906   -4.0988672    1.2945174  1010000 
 4842000   0.86262401   -4.0982538   -4.0982538   -2.8043191  0.022982943   -4.0982538    1.2939347  1010000 
 4843000   0.86210199   -4.0972976   -4.0972976   -2.8041459  0.027685916   -4.0972976    1.2931517  1010000 
 4844000   0.86163315   -4.0966486   -4.0966486   -2.8042002  0.024574183   -4.0966486    1.2924484  1010000 
 4845000   0.86287596   -4.0982833   -4.0982833   -2.8039706  0.021190966   -4.0982833    1.2943127  1010000 
 4846000   0.86197501    -4.096873    -4.096873   -2.8039117  0.021423526    -4.096873    1.2929612  1010000 
 4847000     0.862116   -4.0972167   -4.0972167    -2.804044  0.019852691   -4.0972167    1.2931727  1010000 
 4848000    0.8616319   -4.0964002   -4.0964002   -2.8039536  0.021292582   -4.0964002    1.2924466  1010000 
 4849000   0.86255508   -4.0979289   -4.0979289   -2.8040975  0.016086277   -4.0979289    1.2938313  1010000 
 4850000   0.86160382   -4.0965433   -4.0965433   -2.8041389  0.024808921   -4.0965433    1.2924045  1010000 
 4851000   0.86203518   -4.0972186   -4.0972186   -2.8041671  0.023008284   -4.0972186    1.2930515  1010000 
 4852000    0.8616322   -4.0968428   -4.0968428   -2.8043958  0.021315995   -4.0968428     1.292447  1010000 
 4853000   0.86193284   -4.0971744   -4.0971744   -2.8042764  0.017362367   -4.0971744     1.292898  1010000 
 4854000   0.86151125   -4.0963967   -4.0963967   -2.8041311  0.019145737   -4.0963967    1.2922656  1010000 
 4855000    0.8620278   -4.0968009   -4.0968009   -2.8037605  0.019486619   -4.0968009    1.2930404  1010000 
 4856000   0.86175295   -4.0959997   -4.0959997   -2.8033716  0.021543145   -4.0959997    1.2926281  1010000 
 4857000   0.86208214   -4.0965555   -4.0965555   -2.8034335  0.021687106   -4.0965555    1.2931219  1010000 
 4858000   0.86205159   -4.0965334   -4.0965334   -2.8034573  0.018198733   -4.0965334    1.2930761  1010000 
 4859000   0.86232346   -4.0967054   -4.0967054   -2.8032214  0.019935377   -4.0967054    1.2934839  1010000 
 4860000   0.86216977   -4.0968343   -4.0968343   -2.8035809  0.021822186   -4.0968343    1.2932534  1010000 
 4861000   0.86185806    -4.096187    -4.096187   -2.8034012  0.025254949    -4.096187    1.2927858  1010000 
 4862000   0.86294341   -4.0974496   -4.0974496   -2.8030357  0.022950232   -4.0974496    1.2944138  1010000 
 4863000   0.86324504    -4.097752    -4.097752   -2.8028857  0.021370871    -4.097752    1.2948663  1010000 
 4864000   0.86318541    -4.097276    -4.097276   -2.8024992  0.024093514    -4.097276    1.2947768  1010000 
 4865000    0.8635302   -4.0977764   -4.0977764   -2.8024824  0.022490357   -4.0977764     1.295294  1010000 
 4866000   0.86324963   -4.0969601   -4.0969601   -2.8020869  0.023682857   -4.0969601    1.2948732  1010000 
 4867000   0.86271012   -4.0956785   -4.0956785   -2.8016146  0.024531127   -4.0956785    1.2940639  1010000 
 4868000   0.86317736   -4.0964026   -4.0964026   -2.8016378  0.029613451   -4.0964026    1.2947648  1010000 
 4869000   0.86390165   -4.0972421   -4.0972421   -2.8013909  0.024475631   -4.0972421    1.2958512  1010000 
 4870000    0.8630025   -4.0959679   -4.0959679   -2.8014655  0.029111778   -4.0959679    1.2945025  1010000 
 4871000   0.86359286    -4.096648    -4.096648     -2.80126  0.026987773    -4.096648     1.295388  1010000 
 4872000   0.86379209   -4.0972218   -4.0972218   -2.8015349  0.026221894   -4.0972218    1.2956869  1010000 
 4873000   0.86404413    -4.097813    -4.097813   -2.8017481  0.025460008    -4.097813    1.2960649  1010000 
 4874000   0.86332504   -4.0967587   -4.0967587   -2.8017724  0.027887223   -4.0967587    1.2949863  1010000 
 4875000   0.86273922   -4.0966223   -4.0966223   -2.8025147  0.022910098   -4.0966223    1.2941075  1010000 
 4876000   0.86164953   -4.0955595   -4.0955595   -2.8030864   0.02304864   -4.0955595     1.292473  1010000 
 4877000   0.86190866     -4.09635     -4.09635   -2.8034883  0.024856489     -4.09635    1.2928617  1010000 
 4878000   0.86236308   -4.0969729   -4.0969729   -2.8034295  0.021990031   -4.0969729    1.2935433  1010000 
 4879000   0.86226398   -4.0968025   -4.0968025   -2.8034078  0.024377759   -4.0968025    1.2933947  1010000 
 4880000   0.86204763   -4.0959239   -4.0959239   -2.8028538  0.023839509   -4.0959239    1.2930702  1010000 
 4881000   0.86234792   -4.0956997   -4.0956997   -2.8021791  0.022879572   -4.0956997    1.2935206  1010000 
 4882000   0.86242869   -4.0956347   -4.0956347    -2.801993  0.021809203   -4.0956347    1.2936418  1010000 
 4883000   0.86305532   -4.0962846   -4.0962846   -2.8017029  0.025040246   -4.0962846    1.2945817  1010000 
 4884000   0.86305407   -4.0969393   -4.0969393   -2.8023595  0.023951411   -4.0969393    1.2945798  1010000 
 4885000   0.86257385   -4.0961055   -4.0961055    -2.802246  0.026265183   -4.0961055    1.2938595  1010000 
 4886000   0.86211328   -4.0956983   -4.0956983   -2.8025297  0.024748508   -4.0956983    1.2931686  1010000 
 4887000   0.86289903   -4.0972247   -4.0972247   -2.8028774  0.021905528   -4.0972247    1.2943473  1010000 
 4888000   0.86318135   -4.0971757   -4.0971757   -2.8024049  0.024146282   -4.0971757    1.2947707  1010000 
 4889000   0.86327878   -4.0968236   -4.0968236   -2.8019067  0.025281782   -4.0968236    1.2949169  1010000 
 4890000   0.86419784   -4.0978705   -4.0978705    -2.801575  0.021259791   -4.0978705    1.2962955  1010000 
 4891000   0.86359081   -4.0974069   -4.0974069    -2.802022  0.025551072   -4.0974069    1.2953849  1010000 
 4892000   0.86321906   -4.0966722   -4.0966722   -2.8018449  0.026773327   -4.0966722    1.2948273  1010000 
 4893000    0.8635364   -4.0970521   -4.0970521   -2.8017488  0.023840512   -4.0970521    1.2953033  1010000 
 4894000    0.8632921   -4.0962004   -4.0962004   -2.8012635  0.026676605   -4.0962004    1.2949369  1010000 
 4895000   0.86423501   -4.0975003   -4.0975003   -2.8011491  0.020063076   -4.0975003    1.2963512  1010000 
 4896000   0.86286326   -4.0956764   -4.0956764   -2.8013828   0.02648307   -4.0956764    1.2942936  1010000 
 4897000    0.8630107   -4.0957209   -4.0957209   -2.8012062  0.024903321   -4.0957209    1.2945148  1010000 
 4898000   0.86290169    -4.095898    -4.095898   -2.8015468  0.026331944    -4.095898    1.2943512  1010000 
 4899000   0.86264488   -4.0956294   -4.0956294   -2.8016634  0.021302626   -4.0956294     1.293966  1010000 
 4900000   0.86379565   -4.0969532   -4.0969532    -2.801261  0.022772368   -4.0969532    1.2956922  1010000 
 4901000   0.86396323   -4.0967695   -4.0967695   -2.8008259  0.023478173   -4.0967695    1.2959436  1010000 
 4902000   0.86296988   -4.0951461   -4.0951461   -2.8006926  0.023519741   -4.0951461    1.2944535  1010000 
 4903000   0.86358738   -4.0962719   -4.0962719   -2.8008921  0.024550676   -4.0962719    1.2953798  1010000 
 4904000   0.86346572   -4.0960517   -4.0960517   -2.8008544  0.023888094   -4.0960517    1.2951973  1010000 
 4905000   0.86355457   -4.0961235   -4.0961235    -2.800793  0.021308374   -4.0961235    1.2953306  1010000 
 4906000   0.86313088     -4.09534     -4.09534   -2.8006449  0.027547756     -4.09534     1.294695  1010000 
 4907000   0.86474881   -4.0979122   -4.0979122   -2.8007902  0.021762145   -4.0979122    1.2971219  1010000 
 4908000   0.86339291   -4.0959076   -4.0959076   -2.8008196  0.025212805   -4.0959076    1.2950881  1010000 
 4909000   0.86334518   -4.0956914   -4.0956914   -2.8006749  0.025547768   -4.0956914    1.2950165  1010000 
 4910000   0.86327642   -4.0957363   -4.0957363    -2.800823  0.026565015   -4.0957363    1.2949134  1010000 
 4911000   0.86272821   -4.0942516   -4.0942516   -2.8001606  0.027633792   -4.0942516     1.294091  1010000 
 4912000    0.8634031   -4.0956178   -4.0956178   -2.8005144  0.023108686   -4.0956178    1.2951034  1010000 
 4913000   0.86271374   -4.0945503   -4.0945503    -2.800481  0.021883454   -4.0945503    1.2940693  1010000 
 4914000   0.86305694   -4.0950846   -4.0950846   -2.8005005  0.024136563   -4.0950846    1.2945841  1010000 
 4915000   0.86321726   -4.0954303   -4.0954303   -2.8006057  0.024261978   -4.0954303    1.2948246  1010000 
 4916000   0.86380626   -4.0963053   -4.0963053   -2.8005972  0.021208286   -4.0963053    1.2957081  1010000 
 4917000   0.86221567   -4.0934248   -4.0934248   -2.8001026  0.026304516   -4.0934248    1.2933222  1010000 
 4918000   0.86335757   -4.0950247   -4.0950247   -2.7999896  0.024114089   -4.0950247    1.2950351  1010000 
 4919000    0.8640401   -4.0961569   -4.0961569    -2.800098   0.02004371   -4.0961569    1.2960589  1010000 
 4920000   0.86319908   -4.0947875   -4.0947875   -2.7999902  0.021633914   -4.0947875    1.2947973  1010000 
 4921000   0.86293913   -4.0938882   -4.0938882   -2.7994807  0.021242446   -4.0938882    1.2944074  1010000 
 4922000   0.86285794   -4.0943074   -4.0943074   -2.8000218  0.020263494   -4.0943074    1.2942856  1010000 
 4923000   0.86336367   -4.0946758   -4.0946758   -2.7996316  0.021150296   -4.0946758    1.2950442  1010000 
 4924000   0.86273443   -4.0934998   -4.0934998   -2.7993994  0.025580769   -4.0934998    1.2941004  1010000 
 4925000    0.8626774   -4.0931086   -4.0931086   -2.7990938  0.024975773   -4.0931086    1.2940148  1010000 
 4926000   0.86293162   -4.0930651   -4.0930651   -2.7986689  0.023377549   -4.0930651    1.2943962  1010000 
 4927000   0.86391995   -4.0941296   -4.0941296    -2.798251  0.017916825   -4.0941296    1.2958786  1010000 
 4928000   0.86323662   -4.0933321   -4.0933321   -2.7984785  0.021694934   -4.0933321    1.2948536  1010000 
 4929000   0.86303542   -4.0931496   -4.0931496   -2.7985978  0.022281273   -4.0931496    1.2945518  1010000 
 4930000   0.86310906   -4.0931432   -4.0931432   -2.7984808   0.02142451   -4.0931432    1.2946623  1010000 
 4931000    0.8628137   -4.0931272   -4.0931272    -2.798908  0.020821417   -4.0931272    1.2942193  1010000 
 4932000   0.86348357   -4.0937809   -4.0937809   -2.7985568  0.020079328   -4.0937809    1.2952241  1010000 
 4933000   0.86334162    -4.093582    -4.093582   -2.7985709  0.020567828    -4.093582    1.2950111  1010000 
 4934000   0.86320026   -4.0935802   -4.0935802   -2.7987811  0.018922312   -4.0935802    1.2947991  1010000 
 4935000   0.86301493   -4.0928465   -4.0928465   -2.7983254  0.021184444   -4.0928465    1.2945211  1010000 
 4936000   0.86272723   -4.0925237   -4.0925237   -2.7984341  0.023685909   -4.0925237    1.2940896  1010000 
 4937000    0.8631495    -4.093044    -4.093044    -2.798321  0.024331441    -4.093044     1.294723  1010000 
 4938000   0.86302395   -4.0929412   -4.0929412   -2.7984065  0.026384332   -4.0929412    1.2945347  1010000 
 4939000   0.86283673   -4.0922736   -4.0922736   -2.7980198  0.025807828   -4.0922736    1.2942538  1010000 
 4940000   0.86342133   -4.0929431   -4.0929431   -2.7978124  0.024348668   -4.0929431    1.2951307  1010000 
 4941000   0.86395165   -4.0936516   -4.0936516   -2.7977254  0.024909537   -4.0936516    1.2959262  1010000 
 4942000   0.86475165   -4.0941875   -4.0941875   -2.7970613  0.020990742   -4.0941875    1.2971262  1010000 
 4943000   0.86358116   -4.0925961   -4.0925961   -2.7972257  0.024119243   -4.0925961    1.2953705  1010000 
 4944000    0.8638209   -4.0924761   -4.0924761    -2.796746  0.023154804   -4.0924761    1.2957301  1010000 
 4945000   0.86393725   -4.0923906   -4.0923906    -2.796486  0.025729425   -4.0923906    1.2959046  1010000 
 4946000   0.86351625   -4.0918252   -4.0918252   -2.7965521  0.024696112   -4.0918252    1.2952731  1010000 
 4947000   0.86316569   -4.0919078   -4.0919078   -2.7971606  0.025755107   -4.0919078    1.2947472  1010000 
 4948000   0.86359519   -4.0926426   -4.0926426   -2.7972511  0.022733776   -4.0926426    1.2953915  1010000 
 4949000   0.86302131     -4.09138     -4.09138   -2.7968493  0.029397839     -4.09138    1.2945307  1010000 
 4950000   0.86324077   -4.0916481   -4.0916481   -2.7967883  0.026370325   -4.0916481    1.2948599  1010000 
 4951000   0.86403063   -4.0931137   -4.0931137   -2.7970691  0.020616942   -4.0931137    1.2960447  1010000 
 4952000   0.86337863   -4.0916688   -4.0916688   -2.7966022  0.028966571   -4.0916688    1.2950667  1010000 
 4953000   0.86430183   -4.0930907   -4.0930907   -2.7966393   0.02411313   -4.0930907    1.2964515  1010000 
 4954000   0.86363733   -4.0927241   -4.0927241   -2.7972693   0.02395813   -4.0927241    1.2954547  1010000 
 4955000     0.863512    -4.091966    -4.091966   -2.7966993  0.021870094    -4.091966    1.2952667  1010000 
 4956000    0.8634357   -4.0919373   -4.0919373    -2.796785  0.027834689   -4.0919373    1.2951523  1010000 
 4957000   0.86318313   -4.0916884   -4.0916884   -2.7969149  0.026385102   -4.0916884    1.2947734  1010000 
 4958000   0.86404465   -4.0928357   -4.0928357     -2.79677  0.025557409   -4.0928357    1.2960657  1010000 
 4959000    0.8629122   -4.0917014   -4.0917014   -2.7973344  0.026260728   -4.0917014     1.294367  1010000 
 4960000   0.86353267   -4.0929152   -4.0929152   -2.7976174  0.023762027   -4.0929152    1.2952977  1010000 
 4961000   0.86339831   -4.0925098   -4.0925098   -2.7974136   0.02352423   -4.0925098    1.2950962  1010000 
 4962000    0.8630793   -4.0919245   -4.0919245   -2.7973069  0.024769805   -4.0919245    1.2946177  1010000 
 4963000   0.86335053   -4.0921822   -4.0921822   -2.7971577  0.024315856   -4.0921822    1.2950245  1010000 
 4964000   0.86367343   -4.0926139   -4.0926139    -2.797105  0.024024011   -4.0926139    1.2955089  1010000 
 4965000   0.86379562   -4.0928373   -4.0928373   -2.7971452  0.022296099   -4.0928373    1.2956922  1010000 
 4966000   0.86324458   -4.0921665   -4.0921665    -2.797301  0.024234669   -4.0921665    1.2948656  1010000 
 4967000    0.8634097   -4.0925751   -4.0925751   -2.7974618  0.020781998   -4.0925751    1.2951133  1010000 
 4968000   0.86351157   -4.0925583   -4.0925583   -2.7972923  0.021348207   -4.0925583    1.2952661  1010000 
 4969000   0.86384333   -4.0929381   -4.0929381   -2.7971744  0.022139327   -4.0929381    1.2957637  1010000 
 4970000   0.86331469   -4.0921019   -4.0921019   -2.7971311  0.022025403   -4.0921019    1.2949708  1010000 
 4971000    0.8636004   -4.0925804   -4.0925804   -2.7971811  0.024155694   -4.0925804    1.2953993  1010000 
 4972000   0.86339441   -4.0928406   -4.0928406   -2.7977503  0.021509787   -4.0928406    1.2950903  1010000 
 4973000   0.86343053   -4.0926363   -4.0926363   -2.7974918  0.023878085   -4.0926363    1.2951445  1010000 
 4974000   0.86335924   -4.0914966   -4.0914966    -2.796459  0.024351683   -4.0914966    1.2950376  1010000 
 4975000   0.86367686   -4.0922277   -4.0922277   -2.7967137  0.021636293   -4.0922277     1.295514  1010000 
 4976000   0.86433446   -4.0927644   -4.0927644    -2.796264  0.025249947   -4.0927644    1.2965004  1010000 
 4977000    0.8641334   -4.0924686   -4.0924686   -2.7962698  0.023762554   -4.0924686    1.2961988  1010000 
 4978000   0.86413707   -4.0928842   -4.0928842   -2.7966799  0.022862017   -4.0928842    1.2962043  1010000 
 4979000   0.86448764   -4.0927788   -4.0927788   -2.7960486  0.023858164   -4.0927788    1.2967302  1010000 
 4980000   0.86433887   -4.0924345   -4.0924345   -2.7959275   0.02275526   -4.0924345     1.296507  1010000 
 4981000   0.86354973    -4.091353    -4.091353   -2.7960297  0.026885238    -4.091353    1.2953233  1010000 
 4982000   0.86454895   -4.0930963   -4.0930963   -2.7962742  0.023112678   -4.0930963    1.2968221  1010000 
 4983000   0.86447127    -4.092866    -4.092866   -2.7961604  0.022613126    -4.092866    1.2967056  1010000 
 4984000   0.86441359   -4.0930398   -4.0930398   -2.7964207  0.027039538   -4.0930398    1.2966191  1010000 
 4985000   0.86400754   -4.0924246   -4.0924246   -2.7964146  0.025959616   -4.0924246      1.29601  1010000 
 4986000   0.86297272   -4.0910956   -4.0910956   -2.7966378  0.028930213   -4.0910956    1.2944578  1010000 
 4987000   0.86454219   -4.0931948   -4.0931948   -2.7963828  0.022769215   -4.0931948     1.296812  1010000 
 4988000   0.86369655    -4.091529    -4.091529   -2.7959854   0.02601337    -4.091529    1.2955435  1010000 
 4989000   0.86388941   -4.0915457   -4.0915457   -2.7957129  0.028043926   -4.0915457    1.2958328  1010000 
 4990000   0.86394091   -4.0917497   -4.0917497   -2.7958396  0.024878114   -4.0917497    1.2959101  1010000 
 4991000   0.86376551   -4.0912039   -4.0912039   -2.7955569  0.026724166   -4.0912039     1.295647  1010000 
 4992000   0.86495196   -4.0925327   -4.0925327   -2.7951061  0.020904604   -4.0925327    1.2974266  1010000 
 4993000   0.86497515   -4.0923991   -4.0923991   -2.7949377  0.026947411   -4.0923991    1.2974614  1010000 
 4994000   0.86414162   -4.0905047   -4.0905047   -2.7942935  0.028113207   -4.0905047    1.2962111  1010000 
 4995000   0.86497725   -4.0915378   -4.0915378   -2.7940732  0.027308491   -4.0915378    1.2974646  1010000 
 4996000   0.86406011   -4.0905623   -4.0905623   -2.7944734  0.026981502   -4.0905623    1.2960889  1010000 
 4997000   0.86407629   -4.0907309   -4.0907309   -2.7946177  0.025404177   -4.0907309    1.2961132  1010000 
 4998000   0.86402532   -4.0910103   -4.0910103   -2.7949736  0.025371631   -4.0910103    1.2960367  1010000 
 4999000   0.86386185   -4.0907709   -4.0907709   -2.7949794  0.028717292   -4.0907709    1.2957915  1010000 
 5000000   0.86436046   -4.0909322   -4.0909322   -2.7943928  0.026742579   -4.0909322    1.2965394  1010000 
 5001000   0.86491081   -4.0917602   -4.0917602   -2.7943953  0.025317158   -4.0917602    1.2973649  1010000 
 5002000   0.86454318    -4.090962    -4.090962   -2.7941485  0.026476232    -4.090962    1.2968135  1010000 
 5003000   0.86442438   -4.0907507   -4.0907507   -2.7941154  0.025892972   -4.0907507    1.2966353  1010000 
 5004000   0.86395304   -4.0903705   -4.0903705   -2.7944423  0.028260347   -4.0903705    1.2959283  1010000 
 5005000   0.86363076   -4.0898468   -4.0898468    -2.794402  0.026892751   -4.0898468    1.2954449  1010000 
 5006000   0.86423996   -4.0908011   -4.0908011   -2.7944424  0.021011851   -4.0908011    1.2963587  1010000 
 5007000   0.86410644   -4.0906782   -4.0906782   -2.7945198  0.023173133   -4.0906782    1.2961584  1010000 
 5008000   0.86429555   -4.0909556   -4.0909556   -2.7945135  0.018178507   -4.0909556     1.296442  1010000 
 5009000   0.86365748     -4.09041     -4.09041   -2.7949251   0.02034308     -4.09041    1.2954849  1010000 
 5010000   0.86378012   -4.0904295   -4.0904295   -2.7947606  0.021435288   -4.0904295    1.2956689  1010000 
 5011000   0.86247069   -4.0884229   -4.0884229   -2.7947181   0.02766847   -4.0884229    1.2937048  1010000 
 5012000   0.86321652   -4.0892497   -4.0892497   -2.7944262   0.02085327   -4.0892497    1.2948235  1010000 
 5013000   0.86346237   -4.0897343   -4.0897343    -2.794542  0.023628789   -4.0897343    1.2951923  1010000 
 5014000   0.86265567   -4.0881764   -4.0881764   -2.7941942  0.021933954   -4.0881764    1.2939822  1010000 
 5015000   0.86285022   -4.0889956   -4.0889956   -2.7947215  0.019208615   -4.0889956    1.2942741  1010000 
 5016000    0.8631268   -4.0898516   -4.0898516   -2.7951627  0.015256326   -4.0898516    1.2946889  1010000 
 5017000   0.86342507   -4.0898588   -4.0898588   -2.7947225  0.020170034   -4.0898588    1.2951363  1010000 
 5018000   0.86331467   -4.0891318   -4.0891318   -2.7941611   0.02048898   -4.0891318    1.2949707  1010000 
 5019000   0.86328621   -4.0890518   -4.0890518   -2.7941238  0.023450336   -4.0890518     1.294928  1010000 
 5020000   0.86384699   -4.0893418   -4.0893418   -2.7935726  0.025416823   -4.0893418    1.2957692  1010000 
 5021000   0.86406232   -4.0891309   -4.0891309   -2.7930387  0.022926136   -4.0891309    1.2960922  1010000 
 5022000   0.86496363    -4.090456    -4.090456   -2.7930118  0.019736641    -4.090456    1.2974442  1010000 
 5023000   0.86425948   -4.0891779   -4.0891779     -2.79279  0.023589038   -4.0891779    1.2963879  1010000 
 5024000   0.86441741   -4.0887696   -4.0887696   -2.7921448  0.023775232   -4.0887696    1.2966248  1010000 
 5025000   0.86501912   -4.0896265   -4.0896265   -2.7920991  0.023323612   -4.0896265    1.2975274  1010000 
 5026000   0.86494749   -4.0895629   -4.0895629   -2.7921429  0.020807258   -4.0895629    1.2974199  1010000 
 5027000   0.86501876   -4.0888066   -4.0888066   -2.7912797  0.025797076   -4.0888066    1.2975269  1010000 
 5028000   0.86508192   -4.0886836   -4.0886836    -2.791062  0.028556051   -4.0886836    1.2976216  1010000 
 5029000   0.86535648   -4.0886624   -4.0886624   -2.7906289  0.030887394   -4.0886624    1.2980334  1010000 
 5030000   0.86556785   -4.0895621   -4.0895621   -2.7912116  0.024812801   -4.0895621    1.2983505  1010000 
 5031000   0.86556152   -4.0885999   -4.0885999   -2.7902589  0.029000447   -4.0885999     1.298341  1010000 
 5032000   0.86549059   -4.0887642   -4.0887642   -2.7905296  0.024990239   -4.0887642    1.2982346  1010000 
 5033000   0.86516134   -4.0886526   -4.0886526   -2.7909118  0.023898635   -4.0886526    1.2977407  1010000 
 5034000    0.8646001   -4.0880833   -4.0880833   -2.7911845  0.029460462   -4.0880833    1.2968989  1010000 
 5035000   0.86525497   -4.0889848   -4.0889848   -2.7911036  0.024427194   -4.0889848    1.2978812  1010000 
 5036000   0.86452296   -4.0886629   -4.0886629   -2.7918798    0.0275315   -4.0886629    1.2967832  1010000 
 5037000    0.8639675   -4.0875566   -4.0875566   -2.7916066  0.025702907   -4.0875566      1.29595  1010000 
 5038000   0.86471827   -4.0891065   -4.0891065   -2.7920304  0.023246758   -4.0891065    1.2970761  1010000 
 5039000   0.86435736   -4.0887696   -4.0887696   -2.7922349   0.02320004   -4.0887696    1.2965348  1010000 
 5040000   0.86342446   -4.0875702   -4.0875702   -2.7924348  0.026010795   -4.0875702    1.2951354  1010000 
 5041000   0.86509472   -4.0893979   -4.0893979   -2.7917571  0.019829585   -4.0893979    1.2976408  1010000 
 5042000   0.86417504   -4.0875319   -4.0875319   -2.7912706  0.026380677   -4.0875319    1.2962613  1010000 
 5043000   0.86451897    -4.088587    -4.088587   -2.7918098  0.021750799    -4.088587    1.2967772  1010000 
 5044000    0.8643205     -4.08806     -4.08806   -2.7915806  0.017690852     -4.08806    1.2964795  1010000 
 5045000   0.86402112   -4.0866177   -4.0866177   -2.7905873  0.024079135   -4.0866177    1.2960304  1010000 
 5046000   0.86432309   -4.0873226   -4.0873226   -2.7908392   0.02266789   -4.0873226    1.2964833  1010000 
 5047000   0.86445377   -4.0872536   -4.0872536   -2.7905743  0.023578703   -4.0872536    1.2966794  1010000 
 5048000   0.86390935   -4.0871843   -4.0871843   -2.7913216  0.022435116   -4.0871843    1.2958627  1010000 
 5049000   0.86389089   -4.0869039   -4.0869039   -2.7910688  0.022682788   -4.0869039    1.2958351  1010000 
 5050000   0.86447657   -4.0880187   -4.0880187   -2.7913051  0.024127442   -4.0880187    1.2967136  1010000 
 5051000    0.8639882   -4.0874605   -4.0874605   -2.7914795  0.020556675   -4.0874605     1.295981  1010000 
 5052000   0.86503129   -4.0891898   -4.0891898   -2.7916442  0.020327463   -4.0891898    1.2975457  1010000 
 5053000   0.86377618   -4.0873563   -4.0873563   -2.7916933  0.023418426   -4.0873563     1.295663  1010000 
 5054000    0.8644062   -4.0877737   -4.0877737   -2.7911657  0.021303796   -4.0877737     1.296608  1010000 
 5055000   0.86478817   -4.0878684   -4.0878684   -2.7906875  0.022163427   -4.0878684     1.297181  1010000 
 5056000   0.86416787   -4.0870348   -4.0870348   -2.7907843  0.022115679   -4.0870348    1.2962505  1010000 
 5057000   0.86457941   -4.0877152   -4.0877152   -2.7908474  0.021273722   -4.0877152    1.2968678  1010000 
 5058000   0.86384053    -4.086235    -4.086235   -2.7904755  0.025396302    -4.086235    1.2957595  1010000 
 5059000   0.86456951   -4.0867767   -4.0867767   -2.7899237  0.024838687   -4.0867767     1.296853  1010000 
 5060000   0.86553144   -4.0881463   -4.0881463   -2.7898504   0.02149069   -4.0881463    1.2982959  1010000 
 5061000   0.86517905   -4.0879437   -4.0879437   -2.7901764  0.021701216   -4.0879437    1.2977673  1010000 
 5062000   0.86416617    -4.086033    -4.086033   -2.7897851  0.024819488    -4.086033     1.296248  1010000 
 5063000   0.86470262   -4.0866293   -4.0866293   -2.7895767  0.024175446   -4.0866293    1.2970527  1010000 
 5064000   0.86499999   -4.0872615   -4.0872615   -2.7897628  0.022051139   -4.0872615    1.2974987  1010000 
 5065000   0.86461263   -4.0872101   -4.0872101   -2.7902924  0.022553237   -4.0872101    1.2969177  1010000 
 5066000   0.86508666   -4.0877728   -4.0877728   -2.7901441  0.022325191   -4.0877728    1.2976287  1010000 
 5067000   0.86444079   -4.0870063   -4.0870063   -2.7903464  0.025804538   -4.0870063    1.2966599  1010000 
 5068000   0.86439766   -4.0869066   -4.0869066   -2.7903114   0.02488707   -4.0869066    1.2965952  1010000 
 5069000   0.86493677    -4.086758    -4.086758   -2.7893541  0.024209654    -4.086758    1.2974039  1010000 
 5070000   0.86552591    -4.087928    -4.087928   -2.7896404  0.024423013    -4.087928    1.2982876  1010000 
 5071000   0.86508685   -4.0872107   -4.0872107   -2.7895817  0.025467917   -4.0872107     1.297629  1010000 
 5072000   0.86468986   -4.0865999   -4.0865999   -2.7895664  0.024130606   -4.0865999    1.2970335  1010000 
 5073000   0.86474189   -4.0866463   -4.0866463   -2.7895348  0.022576977   -4.0866463    1.2971115  1010000 
 5074000   0.86430371   -4.0857206   -4.0857206   -2.7892663  0.026403957   -4.0857206    1.2964543  1010000 
 5075000   0.86531306   -4.0865617   -4.0865617   -2.7885934  0.021376951   -4.0865617    1.2979683  1010000 
 5076000   0.86532538   -4.0867418   -4.0867418    -2.788755  0.024604908   -4.0867418    1.2979868  1010000 
 5077000   0.86584146   -4.0871325   -4.0871325   -2.7883716  0.023661414   -4.0871325    1.2987609  1010000 
 5078000   0.86695103   -4.0884405   -4.0884405   -2.7880153  0.021923263   -4.0884405    1.3004253  1010000 
 5079000   0.86589355   -4.0875086   -4.0875086   -2.7886696  0.026527092   -4.0875086     1.298839  1010000 
 5080000   0.86616133    -4.087202    -4.087202   -2.7879613  0.027186368    -4.087202    1.2992407  1010000 
 5081000   0.86613988    -4.087298    -4.087298   -2.7880895  0.027407556    -4.087298    1.2992085  1010000 
 5082000   0.86462675   -4.0854812   -4.0854812   -2.7885424  0.030724507   -4.0854812    1.2969388  1010000 
 5083000   0.86540747   -4.0867985   -4.0867985   -2.7886885  0.026798331   -4.0867985    1.2981099  1010000 
 5084000   0.86484647   -4.0856066   -4.0856066   -2.7883381   0.02936818   -4.0856066    1.2972684  1010000 
 5085000    0.8651749   -4.0861703   -4.0861703   -2.7884092  0.023105763   -4.0861703    1.2977611  1010000 
 5086000   0.86534711   -4.0861348   -4.0861348   -2.7881154  0.022548855   -4.0861348    1.2980194  1010000 
 5087000   0.86514621   -4.0857866   -4.0857866   -2.7880685  0.026657014   -4.0857866     1.297718  1010000 
 5088000   0.86529605   -4.0860042   -4.0860042   -2.7880614  0.026490892   -4.0860042    1.2979428  1010000 
 5089000   0.86505396   -4.0854254   -4.0854254   -2.7878457  0.022168924   -4.0854254    1.2975797  1010000 
 5090000   0.86540961    -4.085782    -4.085782   -2.7876688  0.026392182    -4.085782    1.2981131  1010000 
 5091000   0.86541643   -4.0856028   -4.0856028   -2.7874795  0.021260563   -4.0856028    1.2981234  1010000 
 5092000   0.86488201   -4.0848567   -4.0848567    -2.787535  0.021484354   -4.0848567    1.2973217  1010000 
 5093000    0.8646357   -4.0846673   -4.0846673   -2.7877151  0.023814522   -4.0846673    1.2969523  1010000 
 5094000    0.8641888   -4.0839628   -4.0839628   -2.7876809  0.025002944   -4.0839628    1.2962819  1010000 
 5095000   0.86490922   -4.0844073   -4.0844073   -2.7870448  0.023613622   -4.0844073    1.2973625  1010000 
 5096000   0.86520442   -4.0851307   -4.0851307   -2.7873254  0.020870092   -4.0851307    1.2978053  1010000 
 5097000   0.86468672   -4.0849103   -4.0849103   -2.7878815  0.018358854   -4.0849103    1.2970288  1010000 
 5098000   0.86434844   -4.0842867   -4.0842867   -2.7877653   0.02144411   -4.0842867    1.2965214  1010000 
 5099000   0.86464267   -4.0843679   -4.0843679   -2.7874051  0.023237255   -4.0843679    1.2969627  1010000 
 5100000   0.86497044   -4.0847236   -4.0847236   -2.7872692  0.021754029   -4.0847236    1.2974544  1010000 
 5101000   0.86482135   -4.0838661   -4.0838661   -2.7866354  0.024001427   -4.0838661    1.2972307  1010000 
 5102000   0.86503209   -4.0844846   -4.0844846   -2.7869377  0.023891205   -4.0844846    1.2975469  1010000 
 5103000   0.86514863   -4.0845778   -4.0845778   -2.7868562  0.024112303   -4.0845778    1.2977217  1010000 
 5104000   0.86594968   -4.0854674   -4.0854674   -2.7865442  0.020918229   -4.0854674    1.2989232  1010000 
 5105000   0.86495651   -4.0838419   -4.0838419   -2.7864085  0.023299536   -4.0838419    1.2974335  1010000 
 5106000   0.86621801   -4.0849358   -4.0849358     -2.78561  0.021540684   -4.0849358    1.2993257  1010000 
 5107000   0.86481527   -4.0823652   -4.0823652   -2.7851436  0.023421288   -4.0823652    1.2972216  1010000 
 5108000   0.86565527   -4.0840867   -4.0840867    -2.785605  0.023433302   -4.0840867    1.2984816  1010000 
 5109000   0.86476579   -4.0824657   -4.0824657   -2.7853183  0.021600836   -4.0824657    1.2971474  1010000 
 5110000   0.86511013   -4.0825011   -4.0825011   -2.7848372  0.019846992   -4.0825011    1.2976639  1010000 
 5111000   0.86554788   -4.0828888   -4.0828888   -2.7845682  0.021189565   -4.0828888    1.2983205  1010000 
 5112000   0.86584289   -4.0830431   -4.0830431   -2.7842801  0.020343395   -4.0830431    1.2987631  1010000 
 5113000   0.86563755   -4.0819858   -4.0819858   -2.7835308  0.026398739   -4.0819858     1.298455  1010000 
 5114000   0.86582565   -4.0823199   -4.0823199   -2.7835827  0.022573972   -4.0823199    1.2987372  1010000 
 5115000     0.866021   -4.0831782   -4.0831782    -2.784148  0.025706356   -4.0831782    1.2990302  1010000 
 5116000   0.86521827   -4.0825609   -4.0825609   -2.7847348  0.026315715   -4.0825609    1.2978261  1010000 
 5117000   0.86555242   -4.0831497   -4.0831497   -2.7848224  0.026188287   -4.0831497    1.2983273  1010000 
 5118000   0.86510854   -4.0823497   -4.0823497   -2.7846881  0.023797009   -4.0823497    1.2976615  1010000 
 5119000   0.86577716   -4.0829389   -4.0829389   -2.7842745   0.02374541   -4.0829389    1.2986645  1010000 
 5120000   0.86551147   -4.0822326   -4.0822326   -2.7839667  0.023050296   -4.0822326    1.2982659  1010000 
 5121000   0.86520877   -4.0821193   -4.0821193   -2.7843074  0.023468158   -4.0821193    1.2978119  1010000 
 5122000   0.86547705   -4.0824704   -4.0824704   -2.7842561   0.02066107   -4.0824704    1.2982143  1010000 
 5123000   0.86540905   -4.0822198   -4.0822198   -2.7841075  0.021131759   -4.0822198    1.2981123  1010000 
 5124000   0.86534394    -4.081766    -4.081766   -2.7837514  0.023051736    -4.081766    1.2980146  1010000 
 5125000   0.86532662   -4.0814103   -4.0814103   -2.7834217  0.025308875   -4.0814103    1.2979886  1010000 
 5126000      0.86563   -4.0813331   -4.0813331   -2.7828894  0.025747002   -4.0813331    1.2984437  1010000 
 5127000    0.8654337   -4.0810745   -4.0810745   -2.7829252  0.023774696   -4.0810745    1.2981493  1010000 
 5128000   0.86548384    -4.081359    -4.081359   -2.7831345  0.024869968    -4.081359    1.2982245  1010000 
 5129000   0.86532963   -4.0812562   -4.0812562   -2.7832631  0.023303346   -4.0812562    1.2979932  1010000 
 5130000   0.86565878   -4.0813622   -4.0813622   -2.7828753  0.024386292   -4.0813622    1.2984869  1010000 
 5131000   0.86594721   -4.0815177   -4.0815177   -2.7825981  0.024881755   -4.0815177    1.2989195  1010000 
 5132000   0.86596878   -4.0814452   -4.0814452   -2.7824933  0.026526572   -4.0814452    1.2989519  1010000 
 5133000   0.86582018   -4.0814721   -4.0814721   -2.7827431  0.025208785   -4.0814721     1.298729  1010000 
 5134000   0.86583517   -4.0812678   -4.0812678   -2.7825163  0.024491612   -4.0812678    1.2987515  1010000 
 5135000    0.8661309   -4.0813186   -4.0813186   -2.7821235  0.026001124   -4.0813186    1.2991951  1010000 
 5136000   0.86627975   -4.0817439   -4.0817439   -2.7823256  0.023743203   -4.0817439    1.2994183  1010000 
 5137000   0.86546349   -4.0802159   -4.0802159   -2.7820219  0.028995687   -4.0802159    1.2981939  1010000 
 5138000   0.86556406   -4.0804617   -4.0804617   -2.7821169  0.023125649   -4.0804617    1.2983448  1010000 
 5139000   0.86598036   -4.0808943   -4.0808943   -2.7819251  0.022654234   -4.0808943    1.2989693  1010000 
 5140000    0.8653473    -4.080318    -4.080318   -2.7822983  0.021182927    -4.080318    1.2980197  1010000 
 5141000   0.86625668   -4.0817974   -4.0817974   -2.7824137  0.020085655   -4.0817974    1.2993837  1010000 
 5142000   0.86562549   -4.0809957   -4.0809957   -2.7825587  0.021461478   -4.0809957    1.2984369  1010000 
 5143000   0.86522076   -4.0804812   -4.0804812   -2.7826513  0.020484956   -4.0804812    1.2978299  1010000 
 5144000   0.86566113   -4.0809508   -4.0809508   -2.7824604   0.02008191   -4.0809508    1.2984904  1010000 
 5145000   0.86520559    -4.080166    -4.080166   -2.7823589  0.021905142    -4.080166    1.2978071  1010000 
 5146000   0.86521591   -4.0798923   -4.0798923   -2.7820698  0.021346259   -4.0798923    1.2978226  1010000 
 5147000   0.86542814   -4.0804908   -4.0804908   -2.7823499  0.021979075   -4.0804908    1.2981409  1010000 
 5148000   0.86630177   -4.0816378   -4.0816378   -2.7821864  0.023283804   -4.0816378    1.2994514  1010000 
 5149000   0.86598989   -4.0810798   -4.0810798   -2.7820963  0.022257848   -4.0810798    1.2989836  1010000 
 5150000   0.86539397   -4.0802418   -4.0802418   -2.7821521  0.022398064   -4.0802418    1.2980897  1010000 
 5151000    0.8654146   -4.0798866   -4.0798866    -2.781766  0.024528692   -4.0798866    1.2981206  1010000 
 5152000   0.86540793    -4.079999    -4.079999   -2.7818884  0.026528364    -4.079999    1.2981106  1010000 
 5153000    0.8659084   -4.0801497   -4.0801497   -2.7812884  0.023352161   -4.0801497    1.2988613  1010000 
 5154000    0.8663121   -4.0796017   -4.0796017   -2.7801349  0.024247022   -4.0796017    1.2994669  1010000 
 5155000   0.86621815   -4.0798818   -4.0798818   -2.7805558  0.021959184   -4.0798818    1.2993259  1010000 
 5156000   0.86557194   -4.0792824   -4.0792824   -2.7809257  0.022946346   -4.0792824    1.2983566  1010000 
 5157000   0.86675159   -4.0807699   -4.0807699   -2.7806438  0.022142712   -4.0807699    1.3001261  1010000 
 5158000   0.86607378   -4.0799125   -4.0799125   -2.7808031  0.023748415   -4.0799125    1.2991094  1010000 
 5159000   0.86646076   -4.0803648   -4.0803648    -2.780675  0.024944941   -4.0803648    1.2996899  1010000 
 5160000   0.86617474   -4.0799691   -4.0799691   -2.7807083  0.026633635   -4.0799691    1.2992608  1010000 
 5161000   0.86631264   -4.0800961   -4.0800961   -2.7806284  0.026439296   -4.0800961    1.2994677  1010000 
 5162000    0.8664894   -4.0804318   -4.0804318    -2.780699  0.025330886   -4.0804318    1.2997328  1010000 
 5163000   0.86576974   -4.0801586   -4.0801586   -2.7815053   0.02412611   -4.0801586    1.2986533  1010000 
 5164000   0.86527329   -4.0792284   -4.0792284   -2.7813197  0.026865876   -4.0792284    1.2979087  1010000 
 5165000   0.86551079   -4.0788305   -4.0788305   -2.7805656  0.025949964   -4.0788305    1.2982649  1010000 
 5166000    0.8661855   -4.0802485   -4.0802485   -2.7809716  0.025416983   -4.0802485     1.299277  1010000 
 5167000   0.86546899   -4.0789637   -4.0789637   -2.7807615  0.029146349   -4.0789637    1.2982022  1010000 
 5168000    0.8661793   -4.0794296   -4.0794296   -2.7801619  0.026156507   -4.0794296    1.2992677  1010000 
 5169000   0.86640152   -4.0801971   -4.0801971   -2.7805961  0.019475422   -4.0801971     1.299601  1010000 
 5170000   0.86628033   -4.0798402   -4.0798402    -2.780421  0.019201766   -4.0798402    1.2994192  1010000 
 5171000   0.86543684    -4.078555    -4.078555    -2.780401  0.027809927    -4.078555     1.298154  1010000 
 5172000   0.86554485   -4.0785294   -4.0785294   -2.7802134  0.024577983   -4.0785294     1.298316  1010000 
 5173000   0.86499703   -4.0784906   -4.0784906   -2.7809963  0.023566075   -4.0784906    1.2974943  1010000 
 5174000   0.86618586   -4.0804947   -4.0804947   -2.7812172  0.021565101   -4.0804947    1.2992775  1010000 
 5175000   0.86647305     -4.08145     -4.08145   -2.7817417  0.017034782     -4.08145    1.2997083  1010000 
 5176000   0.86641615   -4.0809474   -4.0809474   -2.7813245   0.02028851   -4.0809474    1.2996229  1010000 
 5177000   0.86618517   -4.0804431   -4.0804431   -2.7811666  0.020573601   -4.0804431    1.2992765  1010000 
 5178000    0.8659197   -4.0802001   -4.0802001   -2.7813219  0.023970716   -4.0802001    1.2988783  1010000 
 5179000   0.86578657   -4.0796799   -4.0796799   -2.7810014  0.024537623   -4.0796799    1.2986786  1010000 
 5180000   0.86665859   -4.0803063   -4.0803063   -2.7803197  0.023633915   -4.0803063    1.2999866  1010000 
 5181000   0.86551618   -4.0783169   -4.0783169   -2.7800439  0.025973872   -4.0783169     1.298273  1010000 
 5182000   0.86692928   -4.0802653   -4.0802653   -2.7798726  0.026818326   -4.0802653    1.3003926  1010000 
 5183000   0.86656968   -4.0801962   -4.0801962    -2.780343   0.02363256   -4.0801962    1.2998532  1010000 
 5184000   0.86627428   -4.0798015   -4.0798015   -2.7803913  0.023651277   -4.0798015    1.2994101  1010000 
 5185000   0.86594702   -4.0789276   -4.0789276   -2.7800083  0.024841663   -4.0789276    1.2989192  1010000 
 5186000   0.86607776   -4.0792102   -4.0792102   -2.7800948  0.021695116   -4.0792102    1.2991154  1010000 
 5187000   0.86611396   -4.0792487   -4.0792487    -2.780079  0.022906003   -4.0792487    1.2991696  1010000 
 5188000   0.86676888   -4.0798613   -4.0798613   -2.7797093  0.022067118   -4.0798613     1.300152  1010000 
 5189000   0.86645461   -4.0791098   -4.0791098   -2.7794292  0.023592151   -4.0791098    1.2996806  1010000 
 5190000   0.86671142   -4.0797919   -4.0797919    -2.779726  0.026610453   -4.0797919    1.3000658  1010000 
 5191000   0.86691314     -4.07958     -4.07958   -2.7792116  0.023856606     -4.07958    1.3003684  1010000 
 5192000   0.86719177     -4.08029     -4.08029   -2.7795037  0.023611517     -4.08029    1.3007864  1010000 
 5193000   0.86698176   -4.0801197   -4.0801197   -2.7796484   0.02292547   -4.0801197    1.3004713  1010000 
 5194000   0.86574118   -4.0785265   -4.0785265    -2.779916  0.027316176   -4.0785265    1.2986105  1010000 
 5195000   0.86605789   -4.0788661   -4.0788661   -2.7797805  0.029022731   -4.0788661    1.2990856  1010000 
 5196000   0.86589551   -4.0787996   -4.0787996   -2.7799576  0.022840398   -4.0787996     1.298842  1010000 
 5197000   0.86559983   -4.0789251   -4.0789251   -2.7805267  0.021728089   -4.0789251    1.2983985  1010000 
 5198000   0.86641517   -4.0797724   -4.0797724   -2.7801509  0.019413745   -4.0797724    1.2996215  1010000 
 5199000   0.86568117   -4.0785148   -4.0785148   -2.7799943  0.023368562   -4.0785148    1.2985205  1010000 
 5200000   0.86603373    -4.079114    -4.079114   -2.7800647  0.023540607    -4.079114    1.2990493  1010000 
 5201000   0.86651014   -4.0789015   -4.0789015   -2.7791376  0.024868315   -4.0789015    1.2997639  1010000 
 5202000   0.86665816   -4.0792517   -4.0792517   -2.7792657  0.021903928   -4.0792517     1.299986  1010000 
 5203000   0.86681437   -4.0800971   -4.0800971   -2.7798768  0.020650043   -4.0800971    1.3002203  1010000 
 5204000    0.8660046   -4.0788045   -4.0788045   -2.7797989  0.023847023   -4.0788045    1.2990056  1010000 
 5205000   0.86567242   -4.0784568   -4.0784568   -2.7799494  0.022025714   -4.0784568    1.2985073  1010000 
 5206000   0.86639513   -4.0796678   -4.0796678   -2.7800764  0.021395927   -4.0796678    1.2995914  1010000 
 5207000   0.86515602   -4.0777543   -4.0777543   -2.7800216  0.021819769   -4.0777543    1.2977327  1010000 
 5208000   0.86498833   -4.0771721   -4.0771721   -2.7796909  0.020692546   -4.0771721    1.2974812  1010000 
 5209000   0.86581124   -4.0785877   -4.0785877   -2.7798721  0.023751024   -4.0785877    1.2987156  1010000 
 5210000   0.86534589   -4.0774827   -4.0774827   -2.7794652  0.020519489   -4.0774827    1.2980175  1010000 
 5211000   0.86554213   -4.0774105   -4.0774105   -2.7790986  0.024992284   -4.0774105    1.2983119  1010000 
 5212000   0.86591244   -4.0777052   -4.0777052   -2.7788378  0.026381728   -4.0777052    1.2988674  1010000 
 5213000   0.86642277   -4.0785583   -4.0785583   -2.7789254  0.022603258   -4.0785583    1.2996329  1010000 
 5214000   0.86620647   -4.0783079   -4.0783079   -2.7789995  0.023225288   -4.0783079    1.2993084  1010000 
 5215000   0.86668523   -4.0791798   -4.0791798   -2.7791532  0.023165172   -4.0791798    1.3000266  1010000 
 5216000   0.86656054   -4.0791479   -4.0791479   -2.7793084  0.021917758   -4.0791479    1.2998395  1010000 
 5217000   0.86716888   -4.0796298   -4.0796298   -2.7788777  0.023793405   -4.0796298     1.300752  1010000 
 5218000    0.8669154   -4.0793053   -4.0793053   -2.7789335  0.024158222   -4.0793053    1.3003718  1010000 
 5219000   0.86682622   -4.0791196   -4.0791196   -2.7788816  0.024415328   -4.0791196     1.300238  1010000 
 5220000   0.86694317   -4.0793952   -4.0793952   -2.7789817  0.025149353   -4.0793952    1.3004135  1010000 
 5221000   0.86645618    -4.078687    -4.078687    -2.779004  0.029038028    -4.078687     1.299683  1010000 
 5222000   0.86671318   -4.0790974   -4.0790974   -2.7790289  0.026726865   -4.0790974    1.3000685  1010000 
 5223000   0.86681842    -4.079384    -4.079384   -2.7791576  0.023874626    -4.079384    1.3002263  1010000 
 5224000   0.86666686   -4.0787465   -4.0787465   -2.7787475  0.023312852   -4.0787465     1.299999  1010000 
 5225000   0.86629272   -4.0784011   -4.0784011   -2.7789633  0.024219319   -4.0784011    1.2994378  1010000 
 5226000   0.86639185   -4.0782982   -4.0782982   -2.7787118  0.024348094   -4.0782982    1.2995865  1010000 
 5227000   0.86580224   -4.0778246   -4.0778246   -2.7791225  0.020062105   -4.0778246    1.2987021  1010000 
 5228000   0.86576707   -4.0781925   -4.0781925   -2.7795432  0.023511619   -4.0781925    1.2986493  1010000 
 5229000   0.86671118   -4.0791835   -4.0791835    -2.779118  0.019480743   -4.0791835    1.3000655  1010000 
 5230000   0.86621775   -4.0782396   -4.0782396   -2.7789142  0.023624599   -4.0782396    1.2993253  1010000 
 5231000   0.86707327   -4.0797587   -4.0797587   -2.7791501  0.020997101   -4.0797587    1.3006086  1010000 
 5232000   0.86638732   -4.0783368   -4.0783368   -2.7787571  0.021538104   -4.0783368    1.2995797  1010000 
 5233000   0.86662845   -4.0786306   -4.0786306   -2.7786892  0.021223373   -4.0786306    1.2999414  1010000 
 5234000   0.86677107    -4.078022    -4.078022   -2.7778667  0.025510588    -4.078022    1.3001553  1010000 
 5235000   0.86663678   -4.0784561   -4.0784561   -2.7785022  0.023337589   -4.0784561    1.2999539  1010000 
 5236000   0.86571724   -4.0775231   -4.0775231   -2.7789485  0.023828315   -4.0775231    1.2985746  1010000 
 5237000   0.86658441   -4.0779869   -4.0779869   -2.7781116  0.021364392   -4.0779869    1.2998753  1010000 
 5238000    0.8674989   -4.0794452   -4.0794452   -2.7781982  0.020832067   -4.0794452    1.3012471  1010000 
 5239000   0.86627276   -4.0779399   -4.0779399    -2.778532  0.025784566   -4.0779399    1.2994079  1010000 
 5240000   0.86697276   -4.0781893   -4.0781893   -2.7777314  0.025578158   -4.0781893    1.3004578  1010000 
 5241000   0.86737456   -4.0777932   -4.0777932   -2.7767326  0.027069578   -4.0777932    1.3010606  1010000 
 5242000   0.86771059   -4.0783544   -4.0783544   -2.7767898   0.02335011   -4.0783544    1.3015646  1010000 
 5243000   0.86783699    -4.078493    -4.078493   -2.7767388  0.023927191    -4.078493    1.3017542  1010000 
 5244000   0.86729524   -4.0785644   -4.0785644   -2.7776229  0.023541318   -4.0785644    1.3009416  1010000 
 5245000   0.86685576   -4.0772964   -4.0772964    -2.777014  0.028790268   -4.0772964    1.3002824  1010000 
 5246000   0.86716626   -4.0775025   -4.0775025   -2.7767544  0.027309348   -4.0775025    1.3007481  1010000 
 5247000   0.86736783   -4.0778596   -4.0778596   -2.7768092  0.025605721   -4.0778596    1.3010505  1010000 
 5248000   0.86785918    -4.078423    -4.078423   -2.7766355  0.025973656    -4.078423    1.3017875  1010000 
 5249000   0.86833885   -4.0786589   -4.0786589   -2.7761519  0.024472196   -4.0786589     1.302507  1010000 
 5250000   0.86768928   -4.0777059   -4.0777059   -2.7761733  0.027482729   -4.0777059    1.3015326  1010000 
 5251000   0.86718403   -4.0772994   -4.0772994   -2.7765246  0.025526018   -4.0772994    1.3007748  1010000 
 5252000   0.86721469   -4.0772805   -4.0772805   -2.7764598  0.023155361   -4.0772805    1.3008207  1010000 
 5253000   0.86761887   -4.0775281   -4.0775281   -2.7761011   0.02355541   -4.0775281     1.301427  1010000 
 5254000   0.86650625   -4.0752886   -4.0752886   -2.7755305  0.028145289   -4.0752886    1.2997581  1010000 
 5255000   0.86711396   -4.0766419   -4.0766419   -2.7759722  0.022360628   -4.0766419    1.3006696  1010000 
 5256000   0.86722463   -4.0762745   -4.0762745   -2.7754388  0.023472503   -4.0762745    1.3008357  1010000 
 5257000   0.86687383   -4.0756613   -4.0756613   -2.7753519  0.025840325   -4.0756613    1.3003095  1010000 
 5258000   0.86669642   -4.0752626   -4.0752626   -2.7752193  0.023440784   -4.0752626    1.3000433  1010000 
 5259000   0.86707156    -4.075917    -4.075917    -2.775311   0.02211606    -4.075917    1.3006061  1010000 
 5260000   0.86737776   -4.0758381   -4.0758381   -2.7747728  0.023150345   -4.0758381    1.3010653  1010000 
 5261000   0.86686228   -4.0752237   -4.0752237   -2.7749316  0.025707884   -4.0752237    1.3002921  1010000 
 5262000   0.86724077   -4.0756333   -4.0756333   -2.7747735  0.022700887   -4.0756333    1.3008599  1010000 
 5263000   0.86765873   -4.0754323   -4.0754323   -2.7739455  0.029546298   -4.0754323    1.3014868  1010000 
 5264000   0.86826934   -4.0762506   -4.0762506   -2.7738478   0.02273799   -4.0762506    1.3024027  1010000 
 5265000   0.86738333   -4.0749377   -4.0749377    -2.773864  0.026103799   -4.0749377    1.3010737  1010000 
 5266000   0.86755329   -4.0754051   -4.0754051   -2.7740764  0.024056316   -4.0754051    1.3013286  1010000 
 5267000    0.8672413   -4.0751355   -4.0751355   -2.7742749  0.025151347   -4.0751355    1.3008607  1010000 
 5268000   0.86625018   -4.0735237   -4.0735237   -2.7741498  0.028468875   -4.0735237     1.299374  1010000 
 5269000   0.86717092   -4.0746364   -4.0746364   -2.7738813  0.023593438   -4.0746364    1.3007551  1010000 
 5270000    0.8673389   -4.0754282   -4.0754282   -2.7744212  0.021681072   -4.0754282    1.3010071  1010000 
 5271000   0.86698903   -4.0746223   -4.0746223     -2.77414  0.022838304   -4.0746223    1.3004823  1010000 
 5272000   0.86704198   -4.0746683   -4.0746683   -2.7741066  0.020553736   -4.0746683    1.3005617  1010000 
 5273000   0.86633106   -4.0736869   -4.0736869   -2.7741916  0.022697578   -4.0736869    1.2994953  1010000 
 5274000   0.86551029   -4.0723152   -4.0723152   -2.7740511  0.024823089   -4.0723152    1.2982642  1010000 
 5275000   0.86618859   -4.0736824   -4.0736824   -2.7744008  0.021735159   -4.0736824    1.2992816  1010000 
 5276000   0.86541127   -4.0730014   -4.0730014   -2.7748857  0.019178996   -4.0730014    1.2981156  1010000 
 5277000   0.86555007   -4.0731388   -4.0731388   -2.7748149  0.022006052   -4.0731388    1.2983238  1010000 
 5278000   0.86632179   -4.0738337   -4.0738337   -2.7743523   0.01715125   -4.0738337    1.2994814  1010000 
 5279000   0.86560305   -4.0724163   -4.0724163    -2.774013  0.018457267   -4.0724163    1.2984033  1010000 
 5280000   0.86599132    -4.073103    -4.073103   -2.7741173  0.016905327    -4.073103    1.2989857  1010000 
 5281000   0.86667599   -4.0744234   -4.0744234   -2.7744107  0.015010873   -4.0744234    1.3000127  1010000 
 5282000   0.86561841    -4.073098    -4.073098   -2.7746717   0.01606523    -4.073098    1.2984263  1010000 
 5283000   0.86586579   -4.0736131   -4.0736131   -2.7748157  0.017704902   -4.0736131    1.2987974  1010000 
 5284000   0.86603245    -4.073739    -4.073739   -2.7746916   0.01828911    -4.073739    1.2990474  1010000 
 5285000   0.86592403   -4.0731678   -4.0731678    -2.774283  0.021489432   -4.0731678    1.2988848  1010000 
 5286000   0.86564682   -4.0728079   -4.0728079    -2.774339  0.019646642   -4.0728079    1.2984689  1010000 
 5287000   0.86650264   -4.0738349   -4.0738349   -2.7740823  0.015946853   -4.0738349    1.2997527  1010000 
 5288000   0.86640138   -4.0738166   -4.0738166   -2.7742158  0.019794117   -4.0738166    1.2996008  1010000 
 5289000   0.86557426   -4.0731422   -4.0731422   -2.7747821  0.020217464   -4.0731422    1.2983601  1010000 
 5290000   0.86658002   -4.0738745   -4.0738745   -2.7740058  0.020361264   -4.0738745    1.2998687  1010000 
 5291000   0.86691116   -4.0745258   -4.0745258   -2.7741603   0.02308423   -4.0745258    1.3003655  1010000 
 5292000   0.86677094   -4.0741048   -4.0741048   -2.7739497  0.023737293   -4.0741048    1.3001551  1010000 
 5293000   0.86673126   -4.0738802   -4.0738802   -2.7737846  0.024660649   -4.0738802    1.3000956  1010000 
 5294000   0.86711919   -4.0741043   -4.0741043   -2.7734268  0.023044029   -4.0741043    1.3006775  1010000 
 5295000    0.8676494   -4.0745913   -4.0745913   -2.7731185  0.023163534   -4.0745913    1.3014728  1010000 
 5296000   0.86726793   -4.0735862   -4.0735862   -2.7726856   0.02232595   -4.0735862    1.3009006  1010000 
 5297000   0.86760699   -4.0736289   -4.0736289   -2.7722197   0.02965316   -4.0736289    1.3014092  1010000 
 5298000   0.86812999   -4.0741371   -4.0741371   -2.7719434  0.029903846   -4.0741371    1.3021937  1010000 
 5299000   0.86884049   -4.0756302   -4.0756302   -2.7723707  0.028402335   -4.0756302    1.3032595  1010000 
 5300000   0.86844536   -4.0750362   -4.0750362   -2.7723694  0.025180046   -4.0750362    1.3026667  1010000 
 5301000   0.86799944    -4.074841    -4.074841   -2.7728432  0.023336073    -4.074841    1.3019979  1010000 
 5302000   0.86756844   -4.0742755   -4.0742755   -2.7729241  0.027755105   -4.0742755    1.3013514  1010000 
 5303000   0.86837328    -4.074737    -4.074737   -2.7721784  0.028498494    -4.074737    1.3025586  1010000 
 5304000   0.86769399   -4.0735127   -4.0735127    -2.771973  0.031519514   -4.0735127    1.3015397  1010000 
 5305000   0.86806219   -4.0735562   -4.0735562   -2.7714642  0.026686308   -4.0735562     1.302092  1010000 
 5306000   0.86852479   -4.0742792   -4.0742792   -2.7714933   0.02788153   -4.0742792    1.3027859  1010000 
 5307000   0.86758971    -4.073597    -4.073597   -2.7722138  0.029018986    -4.073597    1.3013833  1010000 
 5308000   0.86770771   -4.0737384   -4.0737384   -2.7721782  0.030772015   -4.0737384    1.3015603  1010000 
 5309000   0.86883458   -4.0752546   -4.0752546    -2.772004  0.025582205   -4.0752546    1.3032506  1010000 
 5310000   0.86902677   -4.0752202   -4.0752202   -2.7716813  0.028978806   -4.0752202    1.3035389  1010000 
 5311000   0.86872834   -4.0742926   -4.0742926   -2.7712013  0.029691101   -4.0742926    1.3030912  1010000 
 5312000    0.8688828   -4.0747017   -4.0747017   -2.7713788  0.028565639   -4.0747017    1.3033229  1010000 
 5313000   0.86929741   -4.0747266   -4.0747266   -2.7707818  0.028589616   -4.0747266    1.3039448  1010000 
 5314000   0.86879106    -4.074271    -4.074271   -2.7710857  0.027597171    -4.074271    1.3031853  1010000 
 5315000   0.86836954    -4.073718    -4.073718    -2.771165  0.028426486    -4.073718     1.302553  1010000 
 5316000   0.86848303   -4.0742846   -4.0742846   -2.7715614  0.027860902   -4.0742846    1.3027233  1010000 
 5317000   0.86816716   -4.0736535   -4.0736535    -2.771404  0.027581752   -4.0736535    1.3022495  1010000 
 5318000   0.86837708   -4.0750227   -4.0750227   -2.7724584  0.024058423   -4.0750227    1.3025643  1010000 
 5319000   0.86734715   -4.0733589   -4.0733589   -2.7723394   0.02465158   -4.0733589    1.3010194  1010000 
 5320000   0.86818385   -4.0743755   -4.0743755    -2.772101  0.022955569   -4.0743755    1.3022745  1010000 
 5321000   0.86799307   -4.0735789   -4.0735789   -2.7715906  0.024202529   -4.0735789    1.3019883  1010000 
 5322000   0.86786695   -4.0738402   -4.0738402    -2.772041  0.021102042   -4.0738402    1.3017991  1010000 
 5323000   0.86744503    -4.072907    -4.072907   -2.7717408  0.023381892    -4.072907    1.3011663  1010000 
 5324000   0.86797696    -4.073426    -4.073426   -2.7714618  0.023671747    -4.073426    1.3019641  1010000 
 5325000   0.86708055   -4.0720556   -4.0720556   -2.7714361   0.02038456   -4.0720556    1.3006195  1010000 
 5326000   0.86705171   -4.0723828   -4.0723828   -2.7718065  0.022022423   -4.0723828    1.3005763  1010000 
 5327000   0.86732567   -4.0730888   -4.0730888   -2.7721016  0.019073736   -4.0730888    1.3009872  1010000 
 5328000   0.86683705   -4.0724704   -4.0724704   -2.7722161  0.018595528   -4.0724704    1.3002543  1010000 
 5329000   0.86620185    -4.071481    -4.071481   -2.7721795  0.021970224    -4.071481    1.2993015  1010000 
 5330000    0.8670917   -4.0723514   -4.0723514   -2.7717151   0.01720229   -4.0723514    1.3006363  1010000 
 5331000   0.86732866    -4.072583    -4.072583   -2.7715913   0.01610991    -4.072583    1.3009917  1010000 
 5332000   0.86730483   -4.0714463   -4.0714463   -2.7704903  0.021785341   -4.0714463     1.300956  1010000 
 5333000   0.86665595   -4.0711772   -4.0711772   -2.7711946  0.021473736   -4.0711772    1.2999826  1010000 
 5334000   0.86661221   -4.0711183   -4.0711183   -2.7712013  0.019698852   -4.0711183     1.299917  1010000 
 5335000    0.8656681   -4.0699224   -4.0699224   -2.7714216  0.024859723   -4.0699224    1.2985009  1010000 
 5336000   0.86598354    -4.070125    -4.070125   -2.7711509  0.024055866    -4.070125     1.298974  1010000 
 5337000   0.86722646   -4.0717927   -4.0717927   -2.7709543  0.023569443   -4.0717927    1.3008384  1010000 
 5338000   0.86681199   -4.0709713   -4.0709713   -2.7707546   0.02093307   -4.0709713    1.3002167  1010000 
 5339000   0.86739596   -4.0720519   -4.0720519   -2.7709593  0.020017561   -4.0720519    1.3010926  1010000 
 5340000   0.86675292   -4.0714848   -4.0714848   -2.7713567  0.024595153   -4.0714848    1.3001281  1010000 
 5341000   0.86748635   -4.0721512   -4.0721512    -2.770923  0.023537668   -4.0721512    1.3012282  1010000 
 5342000   0.86702755   -4.0714383   -4.0714383   -2.7708983  0.025612355   -4.0714383      1.30054  1010000 
 5343000   0.86707118   -4.0711706   -4.0711706   -2.7705651  0.024117853   -4.0711706    1.3006055  1010000 
 5344000   0.86719853   -4.0712803   -4.0712803   -2.7704838  0.023687704   -4.0712803    1.3007965  1010000 
 5345000   0.86780998   -4.0719391   -4.0719391   -2.7702254   0.01942982   -4.0719391    1.3017137  1010000 
 5346000   0.86714252   -4.0706134   -4.0706134   -2.7699009  0.025049031   -4.0706134    1.3007125  1010000 
 5347000   0.86638861   -4.0695633   -4.0695633   -2.7699816  0.026161319   -4.0695633    1.2995816  1010000 
 5348000   0.86714329   -4.0711607   -4.0711607   -2.7704471  0.022470047   -4.0711607    1.3007136  1010000 
 5349000   0.86703891   -4.0705092   -4.0705092   -2.7699521  0.022919324   -4.0705092    1.3005571  1010000 
 5350000   0.86705555   -4.0704436   -4.0704436   -2.7698615  0.021230394   -4.0704436     1.300582  1010000 
 5351000   0.86776648   -4.0717471   -4.0717471   -2.7700987  0.018323883   -4.0717471    1.3016484  1010000 
 5352000    0.8671211   -4.0705073   -4.0705073   -2.7698269  0.022741933   -4.0705073    1.3006804  1010000 
 5353000   0.86773072   -4.0715344   -4.0715344   -2.7699396  0.022707074   -4.0715344    1.3015948  1010000 
 5354000   0.86693848   -4.0703265   -4.0703265   -2.7699201   0.02716292   -4.0703265    1.3004064  1010000 
 5355000   0.86728695   -4.0711172   -4.0711172    -2.770188  0.021962342   -4.0711172    1.3009291  1010000 
 5356000   0.86827913    -4.072225    -4.072225   -2.7698076  0.021338681    -4.072225    1.3024174  1010000 
 5357000   0.86806166   -4.0712674   -4.0712674   -2.7691762     0.028397   -4.0712674    1.3020912  1010000 
 5358000   0.86834263   -4.0718747   -4.0718747   -2.7693621  0.024557345   -4.0718747    1.3025127  1010000 
 5359000   0.86787911   -4.0707732   -4.0707732   -2.7689558  0.030193475   -4.0707732    1.3018174  1010000 
 5360000   0.86906957   -4.0726396   -4.0726396   -2.7690365  0.023628468   -4.0726396    1.3036031  1010000 
 5361000   0.86861212   -4.0723431   -4.0723431   -2.7694262   0.02658677   -4.0723431    1.3029169  1010000 
 5362000   0.86890425   -4.0726208   -4.0726208   -2.7692657  0.030450373   -4.0726208    1.3033551  1010000 
 5363000   0.86868705   -4.0721504   -4.0721504   -2.7691211  0.030511984   -4.0721504    1.3030293  1010000 
 5364000    0.8687406   -4.0724026   -4.0724026    -2.769293  0.026577123   -4.0724026    1.3031096  1010000 
 5365000   0.86820771   -4.0718299   -4.0718299   -2.7695196  0.030779365   -4.0718299    1.3023103  1010000 
 5366000   0.86802766   -4.0714379   -4.0714379   -2.7693977  0.028480367   -4.0714379    1.3020402  1010000 
 5367000   0.86805916   -4.0713612   -4.0713612   -2.7692737  0.029001132   -4.0713612    1.3020874  1010000 
 5368000   0.86819704   -4.0718714   -4.0718714   -2.7695772  0.027073167   -4.0718714    1.3022943  1010000 
 5369000   0.86810153   -4.0719592   -4.0719592   -2.7698082  0.026352881   -4.0719592     1.302151  1010000 
 5370000   0.86833663   -4.0717888   -4.0717888   -2.7692851  0.025446212   -4.0717888    1.3025037  1010000 
 5371000   0.86798368   -4.0714321   -4.0714321   -2.7694579  0.024386559   -4.0714321    1.3019742  1010000 
 5372000   0.86735587   -4.0706126   -4.0706126   -2.7695801  0.025312116   -4.0706126    1.3010325  1010000 
 5373000   0.86821902   -4.0718263   -4.0718263   -2.7694991  0.027158693   -4.0718263    1.3023272  1010000 
 5374000      0.86809   -4.0712017   -4.0712017    -2.769068  0.026178705   -4.0712017    1.3021337  1010000 
 5375000   0.86845665   -4.0717918   -4.0717918   -2.7691081  0.025563163   -4.0717918    1.3026837  1010000 
 5376000   0.86842643   -4.0719673   -4.0719673    -2.769329  0.021381894   -4.0719673    1.3026384  1010000 
 5377000   0.86757033   -4.0707954   -4.0707954   -2.7694411  0.023907993   -4.0707954    1.3013542  1010000 
 5378000   0.86815613   -4.0715994   -4.0715994   -2.7693665  0.022869435   -4.0715994    1.3022329  1010000 
 5379000   0.86812142   -4.0717992   -4.0717992   -2.7696184  0.025232262   -4.0717992    1.3021808  1010000 
 5380000    0.8689042   -4.0724808   -4.0724808   -2.7691258  0.025295392   -4.0724808     1.303355  1010000 
 5381000   0.86815635   -4.0716226   -4.0716226   -2.7693894  0.024469632   -4.0716226    1.3022332  1010000 
 5382000   0.86848706   -4.0719021   -4.0719021   -2.7691728  0.023948714   -4.0719021    1.3027293  1010000 
 5383000   0.86839721   -4.0710683   -4.0710683   -2.7684738  0.027385348   -4.0710683    1.3025945  1010000 
 5384000   0.86880369   -4.0715191   -4.0715191   -2.7683148  0.024382145   -4.0715191    1.3032042  1010000 
 5385000   0.86870184   -4.0713348   -4.0713348   -2.7682833  0.025311458   -4.0713348    1.3030515  1010000 
 5386000   0.86780546   -4.0703014   -4.0703014   -2.7685945  0.024893951   -4.0703014    1.3017069  1010000 
 5387000   0.86817003   -4.0704565   -4.0704565   -2.7682027  0.028571633   -4.0704565    1.3022538  1010000 
 5388000    0.8675072   -4.0700235   -4.0700235    -2.768764  0.022694137   -4.0700235    1.3012595  1010000 
 5389000   0.86719748   -4.0694219   -4.0694219    -2.768627  0.027756975   -4.0694219    1.3007949  1010000 
 5390000   0.86894408   -4.0715044   -4.0715044   -2.7680896  0.022881597   -4.0715044    1.3034148  1010000 
 5391000    0.8684452   -4.0701449   -4.0701449   -2.7674784  0.023739287   -4.0701449    1.3026665  1010000 
 5392000   0.86725072   -4.0683106   -4.0683106   -2.7674358  0.026918493   -4.0683106    1.3008748  1010000 
 5393000    0.8679236   -4.0689268   -4.0689268   -2.7670427  0.024643103   -4.0689268    1.3018841  1010000 
 5394000   0.86816472   -4.0694116   -4.0694116   -2.7671658  0.022875259   -4.0694116    1.3022458  1010000 
 5395000   0.86816015   -4.0698053   -4.0698053   -2.7675664  0.024416484   -4.0698053    1.3022389  1010000 
 5396000   0.86785574    -4.069658    -4.069658   -2.7678757  0.023802534    -4.069658    1.3017823  1010000 
 5397000   0.86719143   -4.0683938   -4.0683938    -2.767608  0.026478308   -4.0683938    1.3007859  1010000 
 5398000   0.86816903   -4.0697451   -4.0697451   -2.7674929  0.020396101   -4.0697451    1.3022523  1010000 
 5399000   0.86800586   -4.0690691   -4.0690691   -2.7670616  0.024266043   -4.0690691    1.3020075  1010000 
 5400000   0.86792354   -4.0687047   -4.0687047   -2.7668207  0.023377546   -4.0687047     1.301884  1010000 
 5401000   0.86811827     -4.06832     -4.06832   -2.7661439  0.026966246     -4.06832    1.3021761  1010000 
 5402000    0.8678542   -4.0679588   -4.0679588   -2.7661787  0.026389433   -4.0679588      1.30178  1010000 
 5403000   0.86753105   -4.0675674   -4.0675674   -2.7662721  0.026075593   -4.0675674    1.3012953  1010000 
 5404000   0.86845752   -4.0685171   -4.0685171   -2.7658321  0.022148691   -4.0685171     1.302685  1010000 
 5405000   0.86789718   -4.0673722   -4.0673722   -2.7655277  0.024998729   -4.0673722    1.3018445  1010000 
 5406000   0.86874146   -4.0684597   -4.0684597   -2.7653488  0.024141514   -4.0684597    1.3031109  1010000 
 5407000   0.86810505   -4.0677937   -4.0677937   -2.7656375  0.026439796   -4.0677937    1.3021563  1010000 
 5408000   0.86804185   -4.0681557   -4.0681557   -2.7660942  0.026197075   -4.0681557    1.3020615  1010000 
 5409000   0.86721256   -4.0668683   -4.0668683   -2.7660507  0.026621679   -4.0668683    1.3008176  1010000 
 5410000   0.86808535   -4.0681723   -4.0681723   -2.7660456  0.022424182   -4.0681723    1.3021267  1010000 
 5411000    0.8682025   -4.0686731   -4.0686731   -2.7663706  0.022323871   -4.0686731    1.3023025  1010000 
 5412000   0.86702819   -4.0661501   -4.0661501   -2.7656091  0.025710824   -4.0661501     1.300541  1010000 
 5413000   0.86820763   -4.0670467   -4.0670467   -2.7647365  0.023147443   -4.0670467    1.3023102  1010000 
 5414000   0.86916464   -4.0684258   -4.0684258   -2.7646802  0.022250725   -4.0684258    1.3037457  1010000 
 5415000   0.86845036    -4.067356    -4.067356   -2.7646818   0.02299214    -4.067356    1.3026743  1010000 
 5416000   0.86809432   -4.0672643   -4.0672643   -2.7651241  0.022011071   -4.0672643    1.3021402  1010000 
 5417000   0.86765247   -4.0666453   -4.0666453   -2.7651679  0.021837161   -4.0666453    1.3014774  1010000 
 5418000   0.86770498   -4.0667748   -4.0667748   -2.7652187  0.023110441   -4.0667748    1.3015562  1010000 
 5419000   0.86729316   -4.0657655   -4.0657655   -2.7648271  0.027106822   -4.0657655    1.3009385  1010000 
 5420000   0.86757015   -4.0660471   -4.0660471   -2.7646931  0.021954846   -4.0660471    1.3013539  1010000 
 5421000    0.8682161    -4.066429    -4.066429   -2.7641061  0.020546068    -4.066429    1.3023229  1010000 
 5422000   0.86801707   -4.0658935   -4.0658935   -2.7638692  0.020316805   -4.0658935    1.3020243  1010000 
 5423000    0.8687053   -4.0664659   -4.0664659   -2.7634092   0.02462684   -4.0664659    1.3030567  1010000 
 5424000   0.86781442   -4.0649479   -4.0649479   -2.7632276  0.027462693   -4.0649479    1.3017203  1010000 
 5425000   0.86907974   -4.0669181   -4.0669181   -2.7632997   0.02483018   -4.0669181    1.3036183  1010000 
 5426000   0.86848166    -4.065721    -4.065721   -2.7629998  0.024314241    -4.065721    1.3027212  1010000 
 5427000   0.86855241   -4.0661067   -4.0661067   -2.7632794  0.025096922   -4.0661067    1.3028273  1010000 
 5428000   0.86848589   -4.0663378   -4.0663378   -2.7636103  0.022888963   -4.0663378    1.3027275  1010000 
 5429000   0.86975277   -4.0670315   -4.0670315   -2.7624037  0.022902054   -4.0670315    1.3046279  1010000 
 5430000   0.86890793   -4.0655192   -4.0655192   -2.7621585  0.027473951   -4.0655192    1.3033606  1010000 
 5431000   0.86982665   -4.0666073   -4.0666073   -2.7618686  0.028525958   -4.0666073    1.3047387  1010000 
 5432000   0.86854021   -4.0653187   -4.0653187   -2.7625097  0.026347451   -4.0653187     1.302809  1010000 
 5433000   0.86834707    -4.064925    -4.064925   -2.7624057  0.025692504    -4.064925    1.3025193  1010000 
 5434000   0.86877266   -4.0657098   -4.0657098   -2.7625521  0.026644621   -4.0657098    1.3031577  1010000 
 5435000   0.86891766   -4.0658737   -4.0658737   -2.7624985  0.021855887   -4.0658737    1.3033752  1010000 
 5436000   0.86893851   -4.0656485   -4.0656485   -2.7622421  0.026657177   -4.0656485    1.3034065  1010000 
 5437000   0.86885815   -4.0653659   -4.0653659     -2.76208  0.028000113   -4.0653659    1.3032859  1010000 
 5438000   0.86912574   -4.0662353   -4.0662353    -2.762548  0.022436333   -4.0662353    1.3036873  1010000 
 5439000   0.86810218   -4.0646785   -4.0646785   -2.7625266  0.026392437   -4.0646785     1.302152  1010000 
 5440000   0.86896152   -4.0661264   -4.0661264   -2.7626854  0.021792266   -4.0661264     1.303441  1010000 
 5441000   0.86786262   -4.0645262   -4.0645262   -2.7627336  0.023711089   -4.0645262    1.3017926  1010000 
 5442000   0.86808805    -4.064861    -4.064861   -2.7627303  0.021409488    -4.064861    1.3021308  1010000 
 5443000   0.86853681   -4.0657269   -4.0657269   -2.7629229   0.02217652   -4.0657269    1.3028039  1010000 
 5444000   0.86745328      -4.0644      -4.0644   -2.7632214  0.022775091      -4.0644    1.3011786  1010000 
 5445000   0.86845786   -4.0656522   -4.0656522   -2.7629667  0.017557529   -4.0656522    1.3026855  1010000 
 5446000   0.86816144   -4.0652415   -4.0652415   -2.7630006  0.023437377   -4.0652415    1.3022409  1010000 
 5447000   0.86827445   -4.0650787   -4.0650787   -2.7626683  0.023332415   -4.0650787    1.3024104  1010000 
 5448000   0.86834464   -4.0651024   -4.0651024   -2.7625868  0.022717271   -4.0651024    1.3025157  1010000 
 5449000   0.86798939   -4.0651255   -4.0651255   -2.7631427  0.023124291   -4.0651255    1.3019828  1010000 
 5450000   0.86796341   -4.0649816   -4.0649816   -2.7630377  0.019271808   -4.0649816    1.3019438  1010000 
 5451000   0.86798871   -4.0644865   -4.0644865   -2.7625047  0.023880136   -4.0644865    1.3019818  1010000 
 5452000   0.86780643   -4.0635745   -4.0635745   -2.7618661  0.026500216   -4.0635745    1.3017084  1010000 
 5453000   0.86797898   -4.0643417   -4.0643417   -2.7623745  0.021213514   -4.0643417    1.3019672  1010000 
 5454000   0.86826105   -4.0644039   -4.0644039   -2.7620136  0.021774597   -4.0644039    1.3023903  1010000 
 5455000   0.86806849   -4.0644681   -4.0644681   -2.7623666   0.02714963   -4.0644681    1.3021015  1010000 
 5456000   0.86845531    -4.064236    -4.064236   -2.7615543  0.026411757    -4.064236    1.3026817  1010000 
 5457000    0.8686734   -4.0649184   -4.0649184   -2.7619096  0.022257247   -4.0649184    1.3030088  1010000 
 5458000   0.86905741     -4.06523     -4.06523   -2.7616451  0.022343789     -4.06523    1.3035848  1010000 
 5459000    0.8682364   -4.0637515   -4.0637515   -2.7613981  0.023462552   -4.0637515    1.3023533  1010000 
 5460000   0.86880954   -4.0640558   -4.0640558   -2.7608428  0.025490843   -4.0640558     1.303213  1010000 
 5461000   0.86778882   -4.0629001   -4.0629001   -2.7612181  0.026748338   -4.0629001    1.3016819  1010000 
 5462000   0.86866441   -4.0643972   -4.0643972   -2.7614018  0.021199506   -4.0643972    1.3029953  1010000 
 5463000   0.86887066   -4.0649661   -4.0649661   -2.7616614  0.019728099   -4.0649661    1.3033047  1010000 
 5464000   0.86845192   -4.0640805   -4.0640805   -2.7614039  0.024098383   -4.0640805    1.3026766  1010000 
 5465000   0.86920617   -4.0645732   -4.0645732   -2.7607653  0.026661865   -4.0645732     1.303808  1010000 
 5466000   0.86884061   -4.0639209   -4.0639209   -2.7606613  0.030236112   -4.0639209    1.3032596  1010000 
 5467000   0.86953667   -4.0653478   -4.0653478   -2.7610441  0.028265817   -4.0653478    1.3043037  1010000 
 5468000   0.86836105   -4.0640459   -4.0640459   -2.7615056  0.028148874   -4.0640459    1.3025403  1010000 
 5469000   0.86876699   -4.0644912   -4.0644912    -2.761342  0.023956825   -4.0644912    1.3031492  1010000 
 5470000   0.86947753   -4.0651922   -4.0651922   -2.7609772   0.02294427   -4.0651922     1.304215  1010000 
 5471000   0.86933329   -4.0647517   -4.0647517   -2.7607531  0.022318867   -4.0647517    1.3039986  1010000 
 5472000   0.86833434   -4.0634497   -4.0634497   -2.7609495  0.026108941   -4.0634497    1.3025002  1010000 
 5473000   0.86971556   -4.0656076   -4.0656076   -2.7610355  0.024768553   -4.0656076     1.304572  1010000 
 5474000   0.86839687   -4.0635851   -4.0635851   -2.7609911  0.027583887   -4.0635851     1.302594  1010000 
 5475000   0.86895326   -4.0647644   -4.0647644   -2.7613358  0.025971271   -4.0647644    1.3034286  1010000 
 5476000   0.86958469   -4.0650844   -4.0650844   -2.7607087  0.024144647   -4.0650844    1.3043757  1010000 
 5477000   0.86874378   -4.0635715   -4.0635715   -2.7604572  0.027024201   -4.0635715    1.3031144  1010000 
 5478000   0.86968211   -4.0647426   -4.0647426   -2.7602208  0.027415863   -4.0647426    1.3045219  1010000 
 5479000   0.86954423   -4.0646381   -4.0646381   -2.7603231  0.027804836   -4.0646381    1.3043151  1010000 
 5480000   0.86938087   -4.0645429   -4.0645429   -2.7604729  0.027374094   -4.0645429      1.30407  1010000 
 5481000   0.86902878   -4.0642203   -4.0642203   -2.7606784  0.023826112   -4.0642203    1.3035419  1010000 
 5482000   0.86911737   -4.0646998   -4.0646998   -2.7610251  0.021915692   -4.0646998    1.3036748  1010000 
 5483000   0.86833588   -4.0634306   -4.0634306   -2.7609281  0.025994731   -4.0634306    1.3025025  1010000 
 5484000   0.86873864   -4.0641657   -4.0641657    -2.761059  0.021983495   -4.0641657    1.3031067  1010000 
 5485000   0.86810446   -4.0638195   -4.0638195   -2.7616641  0.024708936   -4.0638195    1.3021554  1010000 
 5486000   0.86892784   -4.0642156   -4.0642156   -2.7608252  0.023343818   -4.0642156    1.3033905  1010000 
 5487000   0.86926658   -4.0649765   -4.0649765   -2.7610779  0.025823443   -4.0649765    1.3038986  1010000 
 5488000   0.86922309   -4.0648129   -4.0648129   -2.7609796  0.022855255   -4.0648129    1.3038333  1010000 
 5489000   0.86903259   -4.0641271   -4.0641271   -2.7605795  0.023971616   -4.0641271    1.3035476  1010000 
 5490000   0.86843257   -4.0633458   -4.0633458   -2.7606983  0.023261757   -4.0633458    1.3026476  1010000 
 5491000    0.8689809   -4.0638949   -4.0638949   -2.7604249  0.022518466   -4.0638949    1.3034701  1010000 
 5492000    0.8689718   -4.0640789   -4.0640789   -2.7606225  0.025255907   -4.0640789    1.3034564  1010000 
 5493000   0.86880793   -4.0640452   -4.0640452   -2.7608346  0.026228598   -4.0640452    1.3032106  1010000 
 5494000   0.86935431   -4.0651892   -4.0651892    -2.761159  0.022962984   -4.0651892    1.3040302  1010000 
 5495000   0.86950972   -4.0651675   -4.0651675   -2.7609042  0.023752949   -4.0651675    1.3042633  1010000 
 5496000   0.86952871   -4.0646176   -4.0646176   -2.7603259  0.026446611   -4.0646176    1.3042918  1010000 
 5497000   0.86880356   -4.0638586   -4.0638586   -2.7606546   0.02311481   -4.0638586     1.303204  1010000 
 5498000   0.86873741   -4.0632438   -4.0632438    -2.760139  0.028512985   -4.0632438    1.3031048  1010000 
 5499000   0.86989395   -4.0653653   -4.0653653   -2.7605257  0.019891201   -4.0653653    1.3048396  1010000 
 5500000   0.86887956   -4.0642115   -4.0642115   -2.7608934  0.023636012   -4.0642115    1.3033181  1010000 
 5501000   0.86868479   -4.0635473   -4.0635473   -2.7605214   0.02518552   -4.0635473    1.3030259  1010000 
 5502000   0.86913952   -4.0635889   -4.0635889   -2.7598809  0.021578741   -4.0635889     1.303708  1010000 
 5503000   0.86965096   -4.0642016   -4.0642016   -2.7597265  0.022744814   -4.0642016    1.3044752  1010000 
 5504000   0.86987712    -4.064426    -4.064426   -2.7596116  0.024340842    -4.064426    1.3048144  1010000 
 5505000   0.86906295   -4.0641396   -4.0641396   -2.7605465  0.024842974   -4.0641396    1.3035931  1010000 
 5506000   0.86953341   -4.0645761   -4.0645761   -2.7602773  0.022950133   -4.0645761    1.3042988  1010000 
 5507000   0.86952378   -4.0647668   -4.0647668   -2.7604824  0.027786124   -4.0647668    1.3042844  1010000 
 5508000   0.86871135   -4.0629573   -4.0629573   -2.7598916  0.029319165   -4.0629573    1.3030657  1010000 
 5509000   0.87031074   -4.0652443   -4.0652443   -2.7597795  0.023349478   -4.0652443    1.3054648  1010000 
 5510000    0.8695775   -4.0643273   -4.0643273   -2.7599623  0.025378687   -4.0643273     1.304365  1010000 
 5511000   0.86903569   -4.0634125   -4.0634125   -2.7598603  0.027395092   -4.0634125    1.3035522  1010000 
 5512000   0.86970293   -4.0640977   -4.0640977   -2.7595446   0.02198454   -4.0640977    1.3045531  1010000 
 5513000   0.86992538   -4.0647155   -4.0647155   -2.7598287  0.022779687   -4.0647155    1.3048868  1010000 
 5514000    0.8698619   -4.0641682   -4.0641682   -2.7593767    0.0269811   -4.0641682    1.3047916  1010000 
 5515000   0.86948308   -4.0636984   -4.0636984    -2.759475  0.024314464   -4.0636984    1.3042233  1010000 
 5516000   0.86920351   -4.0632217   -4.0632217   -2.7594177  0.024227469   -4.0632217     1.303804  1010000 
 5517000    0.8692845   -4.0632983   -4.0632983   -2.7593729  0.026847667   -4.0632983    1.3039255  1010000 
 5518000   0.86965952   -4.0632217   -4.0632217   -2.7587337  0.026115605   -4.0632217     1.304488  1010000 
 5519000   0.86902603   -4.0628131   -4.0628131   -2.7592754  0.027651483   -4.0628131    1.3035378  1010000 
 5520000   0.86966208   -4.0637513   -4.0637513   -2.7592595  0.025478692   -4.0637513    1.3044918  1010000 
 5521000   0.86969756   -4.0639666   -4.0639666   -2.7594215  0.025814007   -4.0639666     1.304545  1010000 
 5522000   0.86884303     -4.06205     -4.06205   -2.7587867  0.030893366     -4.06205    1.3032633  1010000 
 5523000   0.86958346   -4.0636893   -4.0636893   -2.7593154  0.023882892   -4.0636893    1.3043739  1010000 
 5524000   0.86839627   -4.0614419   -4.0614419   -2.7588488  0.028378326   -4.0614419    1.3025931  1010000 
 5525000   0.86874034   -4.0619882   -4.0619882    -2.758879  0.022929359   -4.0619882    1.3031092  1010000 
 5526000   0.86930948   -4.0629074   -4.0629074   -2.7589444  0.022320026   -4.0629074    1.3039629  1010000 
 5527000   0.86929943   -4.0631528   -4.0631528   -2.7592049  0.021796015   -4.0631528    1.3039479  1010000 
 5528000   0.86890546   -4.0621557   -4.0621557   -2.7587988  0.024234355   -4.0621557    1.3033569  1010000 
 5529000   0.86986772   -4.0630932   -4.0630932   -2.7582929  0.021390566   -4.0630932    1.3048003  1010000 
 5530000   0.86958699   -4.0629504   -4.0629504   -2.7585712  0.017472073   -4.0629504    1.3043792  1010000 
 5531000   0.86907273   -4.0619853   -4.0619853   -2.7583775  0.023789655   -4.0619853    1.3036078  1010000 
 5532000   0.86851234    -4.061015    -4.061015   -2.7582478  0.022933202    -4.061015    1.3027672  1010000 
 5533000   0.86904401   -4.0616473   -4.0616473   -2.7580826  0.023835523   -4.0616473    1.3035647  1010000 
 5534000   0.86909423   -4.0620694   -4.0620694   -2.7584294  0.023608436   -4.0620694    1.3036401  1010000 
 5535000   0.86894855   -4.0614668   -4.0614668   -2.7580453  0.027133151   -4.0614668    1.3034215  1010000 
 5536000   0.86906796   -4.0617359   -4.0617359   -2.7581353  0.020549832   -4.0617359    1.3036006  1010000 
 5537000   0.86937042   -4.0615292   -4.0615292   -2.7574749  0.026703071   -4.0615292    1.3040543  1010000 
 5538000   0.87015974   -4.0622311   -4.0622311   -2.7569928  0.022532334   -4.0622311    1.3052383  1010000 
 5539000   0.87028416   -4.0628414   -4.0628414   -2.7574165  0.024776223   -4.0628414    1.3054249  1010000 
 5540000   0.86947494   -4.0613623   -4.0613623   -2.7571512  0.026387233   -4.0613623    1.3042111  1010000 
 5541000   0.87041421    -4.062699    -4.062699   -2.7570789  0.025535406    -4.062699      1.30562  1010000 
 5542000   0.87074873   -4.0631031   -4.0631031   -2.7569813  0.023459932   -4.0631031    1.3061218  1010000 
 5543000   0.86970736   -4.0620623   -4.0620623   -2.7575026   0.02300389   -4.0620623    1.3045597  1010000 
 5544000   0.86850432   -4.0602656   -4.0602656   -2.7575104  0.029211327   -4.0602656    1.3027552  1010000 
 5545000   0.87042343   -4.0623305   -4.0623305   -2.7566966  0.023601656   -4.0623305    1.3056339  1010000 
 5546000   0.86892384   -4.0600159   -4.0600159   -2.7566315  0.024511211   -4.0600159    1.3033845  1010000 
 5547000   0.87066909   -4.0619728   -4.0619728   -2.7559705  0.025747322   -4.0619728    1.3060023  1010000 
 5548000   0.87003702   -4.0610438   -4.0610438   -2.7559896   0.02478786   -4.0610438    1.3050542  1010000 
 5549000    0.8700738   -4.0608936   -4.0608936   -2.7557842  0.022555015   -4.0608936    1.3051094  1010000 
 5550000   0.87008143   -4.0612198   -4.0612198    -2.756099  0.023794305   -4.0612198    1.3051209  1010000 
 5551000   0.87029135   -4.0617397   -4.0617397    -2.756304  0.022723266   -4.0617397    1.3054357  1010000 
 5552000   0.86971718   -4.0611548   -4.0611548   -2.7565804  0.025059308   -4.0611548    1.3045745  1010000 
 5553000   0.86954787   -4.0606605   -4.0606605     -2.75634  0.023419551   -4.0606605    1.3043205  1010000 
 5554000   0.86938016   -4.0604521   -4.0604521   -2.7563831  0.024556669   -4.0604521    1.3040689  1010000 
 5555000    0.8697844   -4.0609523   -4.0609523    -2.756277  0.018929983   -4.0609523    1.3046753  1010000 
 5556000    0.8689311   -4.0598661   -4.0598661   -2.7564708  0.026101704   -4.0598661    1.3033954  1010000 
 5557000   0.86945315   -4.0608088   -4.0608088   -2.7566303  0.027048824   -4.0608088    1.3041784  1010000 
 5558000   0.86841892   -4.0597322   -4.0597322   -2.7571052  0.028064495   -4.0597322    1.3026271  1010000 
 5559000   0.86968806   -4.0616931   -4.0616931   -2.7571623  0.023235052   -4.0616931    1.3045308  1010000 
 5560000   0.86960262   -4.0614792   -4.0614792   -2.7570766  0.022669463   -4.0614792    1.3044026  1010000 
 5561000   0.86907605   -4.0609339   -4.0609339   -2.7573211  0.020533594   -4.0609339    1.3036128  1010000 
 5562000   0.86917764   -4.0611303   -4.0611303   -2.7573652  0.020505534   -4.0611303    1.3037652  1010000 
 5563000   0.86879974   -4.0602346   -4.0602346   -2.7570363  0.022905201   -4.0602346    1.3031983  1010000 
 5564000   0.86971956   -4.0609917   -4.0609917   -2.7564137  0.018395121   -4.0609917    1.3045781  1010000 
 5565000   0.86854245   -4.0592769   -4.0592769   -2.7564646  0.026700265   -4.0592769    1.3028124  1010000 
 5566000   0.86929777    -4.060512    -4.060512   -2.7565666  0.018960779    -4.060512    1.3039454  1010000 
 5567000   0.86864206   -4.0596609   -4.0596609   -2.7566991  0.020872941   -4.0596609    1.3029618  1010000 
 5568000   0.86809508   -4.0582026   -4.0582026   -2.7560613  0.024356564   -4.0582026    1.3021413  1010000 
 5569000   0.86874945   -4.0585585   -4.0585585   -2.7554356  0.026474484   -4.0585585    1.3031229  1010000 
 5570000   0.86977905   -4.0595931   -4.0595931   -2.7549258  0.026232363   -4.0595931    1.3046673  1010000 
 5571000   0.86948742   -4.0591255   -4.0591255   -2.7548956  0.020623168   -4.0591255    1.3042298  1010000 
 5572000   0.87058939   -4.0608957   -4.0608957    -2.755013  0.019021008   -4.0608957    1.3058828  1010000 
 5573000   0.86910011   -4.0591986   -4.0591986   -2.7555498  0.023359595   -4.0591986    1.3036489  1010000 
 5574000   0.86958934   -4.0599267   -4.0599267   -2.7555439  0.022926185   -4.0599267    1.3043827  1010000 
 5575000   0.87029785   -4.0606142   -4.0606142   -2.7551687  0.023755107   -4.0606142    1.3054455  1010000 
 5576000   0.87006535    -4.059552    -4.059552   -2.7544553  0.026508386    -4.059552    1.3050967  1010000 
 5577000   0.87069382   -4.0605397   -4.0605397   -2.7545002  0.024894155   -4.0605397    1.3060394  1010000 
 5578000   0.87061731   -4.0600644   -4.0600644   -2.7541397  0.023888465   -4.0600644    1.3059247  1010000 
 5579000   0.87031328   -4.0598249   -4.0598249   -2.7543562  0.024554444   -4.0598249    1.3054686  1010000 
 5580000   0.87031059   -4.0596523   -4.0596523   -2.7541877  0.026532546   -4.0596523    1.3054646  1010000 
 5581000   0.87137962   -4.0606413   -4.0606413   -2.7535732  0.026238193   -4.0606413    1.3070681  1010000 
 5582000   0.87074641   -4.0597059   -4.0597059   -2.7535875  0.025539663   -4.0597059    1.3061183  1010000 
 5583000   0.87117514   -4.0602677   -4.0602677   -2.7535063   0.02884792   -4.0602677    1.3067614  1010000 
 5584000   0.87165212   -4.0606846   -4.0606846   -2.7532077  0.029771676   -4.0606846    1.3074769  1010000 
 5585000   0.87066993   -4.0588936   -4.0588936     -2.75289  0.029662523   -4.0588936    1.3060036  1010000 
 5586000   0.87129796   -4.0598353   -4.0598353   -2.7528896  0.022782385   -4.0598353    1.3069456  1010000 
 5587000   0.87145349   -4.0602341   -4.0602341   -2.7530552  0.025361922   -4.0602341    1.3071789  1010000 
 5588000   0.87082664     -4.05881     -4.05881   -2.7525713  0.027038572     -4.05881    1.3062387  1010000 
 5589000    0.8711632   -4.0588736   -4.0588736   -2.7521301  0.027306824   -4.0588736    1.3067435  1010000 
 5590000    0.8709177   -4.0587674   -4.0587674   -2.7523922  0.026629829   -4.0587674    1.3063753  1010000 
 5591000   0.87082204   -4.0592593   -4.0592593   -2.7530275  0.025796707   -4.0592593    1.3062318  1010000 
 5592000   0.87088828   -4.0588577   -4.0588577   -2.7525265  0.026141636   -4.0588577    1.3063311  1010000 
 5593000   0.87065352   -4.0591287   -4.0591287   -2.7531497  0.023794508   -4.0591287     1.305979  1010000 
 5594000   0.86974402   -4.0581796   -4.0581796   -2.7535649  0.027689487   -4.0581796    1.3046147  1010000 
 5595000   0.87026111   -4.0586407   -4.0586407   -2.7532503  0.024529053   -4.0586407    1.3053904  1010000 
 5596000   0.87011042   -4.0586406   -4.0586406   -2.7534763  0.026539832   -4.0586406    1.3051643  1010000 
 5597000   0.87026225     -4.05901     -4.05901   -2.7536179  0.023900484     -4.05901    1.3053921  1010000 
 5598000   0.87080695   -4.0591932   -4.0591932   -2.7529841  0.025658798   -4.0591932    1.3062091  1010000 
 5599000   0.87069589   -4.0587797   -4.0587797   -2.7527372  0.026947896   -4.0587797    1.3060425  1010000 
 5600000   0.87093554   -4.0590029   -4.0590029   -2.7526009    0.0266891   -4.0590029     1.306402  1010000 
 5601000   0.87043517   -4.0587472   -4.0587472   -2.7530958   0.02538304   -4.0587472    1.3056515  1010000 
 5602000   0.87019439   -4.0580365   -4.0580365   -2.7527462  0.029596442   -4.0580365    1.3052903  1010000 
 5603000   0.87051539   -4.0589776   -4.0589776   -2.7532058  0.021796763   -4.0589776    1.3057718  1010000 
 5604000   0.87023835    -4.058327    -4.058327   -2.7529708  0.021327341    -4.058327    1.3053562  1010000 
 5605000   0.87051006   -4.0585444   -4.0585444   -2.7527806  0.021014912   -4.0585444    1.3057638  1010000 
 5606000    0.8704207   -4.0581105   -4.0581105   -2.7524808  0.019989651   -4.0581105    1.3056298  1010000 
 5607000    0.8698598   -4.0581372   -4.0581372   -2.7533488  0.021370517   -4.0581372    1.3047884  1010000 
 5608000   0.86985989   -4.0579375   -4.0579375    -2.753149  0.021631969   -4.0579375    1.3047885  1010000 
 5609000   0.87015054    -4.057762    -4.057762   -2.7525375  0.023506839    -4.057762    1.3052245  1010000 
 5610000    0.8696993   -4.0568932   -4.0568932   -2.7523455  0.026318239   -4.0568932    1.3045477  1010000 
 5611000   0.87055973   -4.0577483   -4.0577483     -2.75191  0.026369166   -4.0577483    1.3058383  1010000 
 5612000   0.87058428   -4.0578573   -4.0578573   -2.7519821  0.022130822   -4.0578573    1.3058751  1010000 
 5613000   0.87094017   -4.0581835   -4.0581835   -2.7517745  0.021048623   -4.0581835     1.306409  1010000 
 5614000   0.87060141   -4.0574677   -4.0574677   -2.7515669  0.024571667   -4.0574677    1.3059008  1010000 
 5615000   0.87071355   -4.0570605   -4.0570605   -2.7509914   0.02345371   -4.0570605     1.306069  1010000 
 5616000   0.86987842   -4.0555253   -4.0555253   -2.7507089  0.024743715   -4.0555253    1.3048163  1010000 
 5617000   0.87034541   -4.0561165   -4.0561165   -2.7505997   0.02728037   -4.0561165    1.3055168  1010000 
 5618000   0.87104995   -4.0567427   -4.0567427   -2.7501691  0.026409815   -4.0567427    1.3065736  1010000 
 5619000   0.87172195   -4.0574039   -4.0574039   -2.7498223  0.024340879   -4.0574039    1.3075816  1010000 
 5620000   0.87034507   -4.0560471   -4.0560471   -2.7505307  0.025646979   -4.0560471    1.3055163  1010000 
 5621000   0.87205169   -4.0571828   -4.0571828   -2.7491066  0.024971849   -4.0571828    1.3080762  1010000 
 5622000   0.87192437   -4.0571158   -4.0571158   -2.7492306  0.026621052   -4.0571158    1.3078853  1010000 
 5623000   0.87145907   -4.0563031   -4.0563031   -2.7491157  0.028597071   -4.0563031    1.3071873  1010000 
 5624000   0.87219361    -4.057395    -4.057395   -2.7491058   0.02323872    -4.057395    1.3082891  1010000 
 5625000    0.8712477   -4.0564361   -4.0564361   -2.7495659  0.025933855   -4.0564361    1.3068703  1010000 
 5626000   0.87070794   -4.0555771   -4.0555771   -2.7495165    0.0290198   -4.0555771    1.3060606  1010000 
 5627000   0.87050383    -4.055783    -4.055783   -2.7500285   0.02615629    -4.055783    1.3057545  1010000 
 5628000   0.87101029   -4.0558751   -4.0558751   -2.7493609  0.025633414   -4.0558751    1.3065141  1010000 
 5629000   0.87082313    -4.055349    -4.055349   -2.7491156  0.026554072    -4.055349    1.3062334  1010000 
 5630000   0.86968489   -4.0543828   -4.0543828   -2.7498567  0.027130635   -4.0543828     1.304526  1010000 
 5631000   0.87046816   -4.0551146   -4.0551146   -2.7494137  0.021303109   -4.0551146    1.3057009  1010000 
 5632000   0.87067999   -4.0555772   -4.0555772   -2.7495585  0.020369108   -4.0555772    1.3060187  1010000 
 5633000   0.87017889   -4.0544331   -4.0544331   -2.7491661  0.021882638   -4.0544331     1.305267  1010000 
 5634000   0.87079543   -4.0555101   -4.0555101   -2.7493182  0.018510554   -4.0555101    1.3061919  1010000 
 5635000   0.87080972   -4.0559654   -4.0559654   -2.7497522  0.018250772   -4.0559654    1.3062133  1010000 
 5636000   0.87043428   -4.0550585   -4.0550585   -2.7494084  0.016412553   -4.0550585    1.3056501  1010000 
 5637000   0.87009825   -4.0542016   -4.0542016   -2.7490556  0.021304132   -4.0542016    1.3051461  1010000 
 5638000   0.86976916   -4.0540137   -4.0540137   -2.7493613   0.02050389   -4.0540137    1.3046524  1010000 
 5639000   0.87038352   -4.0545668   -4.0545668   -2.7489928  0.020241704   -4.0545668     1.305574  1010000 
 5640000   0.87056216   -4.0548885   -4.0548885   -2.7490466  0.022402684   -4.0548885    1.3058419  1010000 
 5641000   0.87036069   -4.0543647   -4.0543647    -2.748825  0.024619035   -4.0543647    1.3055397  1010000 
 5642000   0.87071584   -4.0549522   -4.0549522   -2.7488797  0.021693848   -4.0549522    1.3060725  1010000 
 5643000   0.86991546   -4.0531108   -4.0531108   -2.7482389  0.022794297   -4.0531108    1.3048719  1010000 
 5644000   0.87108214   -4.0548178   -4.0548178   -2.7481959  0.022451796   -4.0548178    1.3066219  1010000 
 5645000   0.87065835   -4.0547351   -4.0547351   -2.7487488  0.025750494   -4.0547351    1.3059862  1010000 
 5646000   0.87086469   -4.0551727   -4.0551727   -2.7488769  0.025501198   -4.0551727    1.3062957  1010000 
 5647000    0.8717369   -4.0560849   -4.0560849   -2.7484809  0.022592317   -4.0560849    1.3076041  1010000 
 5648000   0.87174456   -4.0558229   -4.0558229   -2.7482074  0.024032777   -4.0558229    1.3076155  1010000 
 5649000   0.87122896   -4.0548148   -4.0548148   -2.7479726  0.021751788   -4.0548148    1.3068422  1010000 
 5650000   0.87089602   -4.0548869   -4.0548869   -2.7485442  0.024683877   -4.0548869    1.3063427  1010000 
 5651000   0.87201111   -4.0557919   -4.0557919   -2.7477765  0.025840167   -4.0557919    1.3080154  1010000 
 5652000   0.87146235   -4.0543317   -4.0543317   -2.7471395  0.025489742   -4.0543317    1.3071922  1010000 
 5653000   0.87106152   -4.0536091   -4.0536091   -2.7470181  0.024947896   -4.0536091     1.306591  1010000 
 5654000   0.87106886   -4.0532267   -4.0532267   -2.7466247  0.024744961   -4.0532267     1.306602  1010000 
 5655000   0.87027005   -4.0521308   -4.0521308    -2.746727  0.030547378   -4.0521308    1.3054038  1010000 
 5656000   0.87199462   -4.0545115   -4.0545115   -2.7465209   0.02414463   -4.0545115    1.3079906  1010000 
 5657000   0.87172729   -4.0549775   -4.0549775   -2.7473879  0.022670943   -4.0549775    1.3075896  1010000 
 5658000   0.87128132   -4.0541281   -4.0541281   -2.7472074  0.023193224   -4.0541281    1.3069207  1010000 
 5659000   0.87113457   -4.0541009   -4.0541009   -2.7474003  0.025403176   -4.0541009    1.3067006  1010000 
 5660000   0.87099131   -4.0538318   -4.0538318   -2.7473461   0.02721973   -4.0538318    1.3064857  1010000 
 5661000    0.8706903   -4.0538068   -4.0538068   -2.7477727  0.025761645   -4.0538068    1.3060341  1010000 
 5662000   0.87166448   -4.0547889   -4.0547889   -2.7472935  0.023078772   -4.0547889    1.3074954  1010000 
 5663000   0.87111676   -4.0540936   -4.0540936   -2.7474197  0.025059156   -4.0540936    1.3066739  1010000 
 5664000   0.87134789    -4.054255    -4.054255   -2.7472345  0.026789937    -4.054255    1.3070205  1010000 
 5665000   0.87113169    -4.053797    -4.053797   -2.7471008  0.023598712    -4.053797    1.3066962  1010000 
 5666000   0.87088835   -4.0537115   -4.0537115   -2.7473803  0.024994143   -4.0537115    1.3063312  1010000 
 5667000   0.86994969   -4.0524123   -4.0524123   -2.7474891   0.02861833   -4.0524123    1.3049232  1010000 
 5668000   0.87084619   -4.0542316   -4.0542316   -2.7479636  0.024521528   -4.0542316     1.306268  1010000 
 5669000   0.87081228   -4.0547828   -4.0547828   -2.7485657  0.022073401   -4.0547828    1.3062171  1010000 
 5670000   0.86999366   -4.0536175   -4.0536175   -2.7486284  0.023643365   -4.0536175    1.3049892  1010000 
 5671000    0.8702396   -4.0537038   -4.0537038   -2.7483457  0.024113556   -4.0537038    1.3053581  1010000 
 5672000   0.87134859   -4.0554449   -4.0554449   -2.7484233  0.023590435   -4.0554449    1.3070216  1010000 
 5673000   0.87095141   -4.0545629   -4.0545629   -2.7481371  0.022380942   -4.0545629    1.3064258  1010000 
 5674000   0.87106073   -4.0544781   -4.0544781   -2.7478883  0.025317463   -4.0544781    1.3065898  1010000 
 5675000   0.87135065   -4.0550033   -4.0550033   -2.7479786  0.024806768   -4.0550033    1.3070247  1010000 
 5676000   0.87088432   -4.0539172   -4.0539172   -2.7475921  0.025723069   -4.0539172    1.3063252  1010000 
 5677000   0.87183142   -4.0550958   -4.0550958   -2.7473499  0.020890298   -4.0550958    1.3077458  1010000 
 5678000   0.87172556   -4.0550951   -4.0550951   -2.7475081  0.021802978   -4.0550951     1.307587  1010000 
 5679000   0.87094974   -4.0540626   -4.0540626   -2.7476393  0.023939913   -4.0540626    1.3064233  1010000 
 5680000     0.871154   -4.0537192   -4.0537192   -2.7469895  0.022884602   -4.0537192    1.3067297  1010000 
 5681000   0.87107302   -4.0530784   -4.0530784   -2.7464702   0.02656841   -4.0530784    1.3066082  1010000 
 5682000   0.87168461   -4.0538694   -4.0538694   -2.7463438   0.02453876   -4.0538694    1.3075256  1010000 
 5683000   0.87205025    -4.054181    -4.054181    -2.746107  0.025926387    -4.054181    1.3080741  1010000 
 5684000   0.87201744   -4.0538499   -4.0538499   -2.7458251  0.026343542   -4.0538499    1.3080249  1010000 
 5685000   0.87241284   -4.0546771   -4.0546771   -2.7460591  0.020076563   -4.0546771     1.308618  1010000 
 5686000   0.87123769   -4.0533175   -4.0533175   -2.7464623  0.023818055   -4.0533175    1.3068552  1010000 
 5687000   0.87167953   -4.0540811   -4.0540811   -2.7465631  0.023473574   -4.0540811     1.307518  1010000 
 5688000   0.87182306   -4.0547949   -4.0547949   -2.7470616  0.025365571   -4.0547949    1.3077333  1010000 
 5689000   0.87103634    -4.053707    -4.053707   -2.7471538  0.027275308    -4.053707    1.3065532  1010000 
 5690000   0.87143201   -4.0540269   -4.0540269   -2.7468801  0.024772325   -4.0540269    1.3071467  1010000 
 5691000   0.87167131   -4.0542754   -4.0542754   -2.7467697  0.027557768   -4.0542754    1.3075057  1010000 
 5692000   0.87133326   -4.0531401   -4.0531401   -2.7461415  0.028338902   -4.0531401    1.3069986  1010000 
 5693000   0.87147316   -4.0527583   -4.0527583   -2.7455498  0.026959503   -4.0527583    1.3072084  1010000 
 5694000   0.87234173   -4.0537274   -4.0537274   -2.7452161  0.027178543   -4.0537274    1.3085113  1010000 
 5695000   0.87208217   -4.0530717   -4.0530717   -2.7449497  0.027248609   -4.0530717     1.308122  1010000 
 5696000   0.87185037   -4.0527177   -4.0527177   -2.7449434  0.026913942   -4.0527177    1.3077743  1010000 
 5697000    0.8722608   -4.0530919   -4.0530919    -2.744702  0.026036396   -4.0530919    1.3083899  1010000 
 5698000   0.87191912   -4.0525619   -4.0525619   -2.7446845  0.024977598   -4.0525619    1.3078774  1010000 
 5699000    0.8721507   -4.0527654   -4.0527654   -2.7445406  0.023878852   -4.0527654    1.3082248  1010000 
 5700000   0.87235239   -4.0524884   -4.0524884   -2.7439612  0.025799389   -4.0524884    1.3085273  1010000 
 5701000   0.87258387   -4.0523831   -4.0523831   -2.7435086  0.025611341   -4.0523831    1.3088745  1010000 
 5702000   0.87293092   -4.0535092   -4.0535092   -2.7441141  0.027130253   -4.0535092    1.3093951  1010000 
 5703000   0.87258746   -4.0531737   -4.0531737   -2.7442939  0.025775441   -4.0531737    1.3088799  1010000 
 5704000   0.87182474   -4.0519574   -4.0519574   -2.7442216   0.02879508   -4.0519574    1.3077358  1010000 
 5705000   0.87184885   -4.0520857   -4.0520857   -2.7443137  0.024606894   -4.0520857     1.307772  1010000 
 5706000   0.87183149   -4.0519483   -4.0519483   -2.7442024  0.025387749   -4.0519483    1.3077459  1010000 
 5707000   0.87198046   -4.0517481   -4.0517481   -2.7437788   0.02543183   -4.0517481    1.3079694  1010000 
 5708000   0.87175951   -4.0511296   -4.0511296   -2.7434916  0.027107637   -4.0511296     1.307638  1010000 
 5709000   0.87175215    -4.051251    -4.051251   -2.7436241  0.017740429    -4.051251    1.3076269  1010000 
 5710000   0.87158297   -4.0509747   -4.0509747   -2.7436015  0.024060465   -4.0509747    1.3073732  1010000 
 5711000   0.87151016   -4.0509439   -4.0509439     -2.74368  0.025944977   -4.0509439    1.3072639  1010000 
 5712000   0.87143882   -4.0512907   -4.0512907   -2.7441337  0.022861347   -4.0512907    1.3071569  1010000 
 5713000   0.87152319   -4.0510553   -4.0510553   -2.7437718   0.02233121   -4.0510553    1.3072835  1010000 
 5714000   0.87230294   -4.0518174   -4.0518174   -2.7433643  0.022729912   -4.0518174    1.3084531  1010000 
 5715000   0.87100863    -4.049395    -4.049395   -2.7428834  0.022745761    -4.049395    1.3065116  1010000 
 5716000   0.87182499   -4.0501232   -4.0501232    -2.742387  0.021784878   -4.0501232    1.3077362  1010000 
 5717000   0.87149244   -4.0494177   -4.0494177   -2.7421804  0.025355648   -4.0494177    1.3072374  1010000 
 5718000   0.87083379   -4.0486215   -4.0486215   -2.7423721  0.026564391   -4.0486215    1.3062494  1010000 
 5719000   0.87168202   -4.0497333   -4.0497333   -2.7422116  0.022384858   -4.0497333    1.3075217  1010000 
 5720000   0.87231208   -4.0501536   -4.0501536   -2.7416868  0.024011569   -4.0501536    1.3084668  1010000 
 5721000   0.87276246   -4.0510632   -4.0510632   -2.7419208  0.023971413   -4.0510632    1.3091424  1010000 
 5722000   0.87323094   -4.0511995   -4.0511995   -2.7413544   0.02289407   -4.0511995    1.3098451  1010000 
 5723000   0.87210486   -4.0497669   -4.0497669   -2.7416109  0.025716031   -4.0497669     1.308156  1010000 
 5724000   0.87179253   -4.0497786   -4.0497786   -2.7420911  0.026787084   -4.0497786    1.3076875  1010000 
 5725000   0.87191651   -4.0497222   -4.0497222   -2.7418488  0.021598083   -4.0497222    1.3078735  1010000 
 5726000   0.87150745   -4.0493319   -4.0493319   -2.7420721  0.021858236   -4.0493319    1.3072599  1010000 
 5727000   0.87120995   -4.0485891   -4.0485891   -2.7417755  0.026139914   -4.0485891    1.3068136  1010000 
 5728000   0.87158871   -4.0494442   -4.0494442   -2.7420625  0.022838382   -4.0494442    1.3073818  1010000 
 5729000   0.87121779   -4.0486261   -4.0486261   -2.7418007  0.023229313   -4.0486261    1.3068254  1010000 
 5730000   0.87090469   -4.0482495   -4.0482495   -2.7418937  0.027347391   -4.0482495    1.3063557  1010000 
 5731000   0.87132841   -4.0488466   -4.0488466   -2.7418553  0.023122108   -4.0488466    1.3069913  1010000 
 5732000   0.87124545   -4.0481022   -4.0481022   -2.7412353  0.023839412   -4.0481022    1.3068669  1010000 
 5733000   0.87156031   -4.0483192   -4.0483192     -2.74098  0.022647775   -4.0483192    1.3073392  1010000 
 5734000   0.87197606   -4.0481445   -4.0481445   -2.7401817  0.022635678   -4.0481445    1.3079628  1010000 
 5735000   0.87164031   -4.0478126   -4.0478126   -2.7403534  0.021120394   -4.0478126    1.3074592  1010000 
 5736000   0.87152615   -4.0475898   -4.0475898   -2.7403018  0.023783082   -4.0475898    1.3072879  1010000 
 5737000   0.87217996   -4.0487237   -4.0487237   -2.7404551  0.024714529   -4.0487237    1.3082686  1010000 
 5738000   0.87010509   -4.0458588   -4.0458588   -2.7407025  0.028660957   -4.0458588    1.3051563  1010000 
 5739000   0.87124812   -4.0472837   -4.0472837   -2.7404128  0.025558558   -4.0472837    1.3068709  1010000 
 5740000   0.87268725     -4.04884     -4.04884   -2.7398104  0.024091462     -4.04884    1.3090296  1010000 
 5741000   0.87249256   -4.0484678   -4.0484678   -2.7397302  0.025776358   -4.0484678    1.3087375  1010000 
 5742000   0.87311996   -4.0497472   -4.0497472   -2.7400685  0.022499765   -4.0497472    1.3096786  1010000 
 5743000   0.87257616   -4.0495662   -4.0495662   -2.7407033  0.021598524   -4.0495662    1.3088629  1010000 
 5744000   0.87249664   -4.0489702   -4.0489702   -2.7402265  0.022717329   -4.0489702    1.3087437  1010000 
 5745000   0.87243328   -4.0490496   -4.0490496   -2.7404009  0.026173525   -4.0490496    1.3086486  1010000 
 5746000   0.87196916   -4.0480195   -4.0480195   -2.7400671  0.028033899   -4.0480195    1.3079524  1010000 
 5747000   0.87233301   -4.0486609   -4.0486609   -2.7401627   0.02481683   -4.0486609    1.3084982  1010000 
 5748000    0.8721161    -4.048337    -4.048337   -2.7401641  0.021796485    -4.048337    1.3081729  1010000 
 5749000   0.87178569   -4.0482415   -4.0482415   -2.7405643  0.022688073   -4.0482415    1.3076772  1010000 
 5750000   0.87150049    -4.047918    -4.047918   -2.7406685    0.0219934    -4.047918    1.3072494  1010000 
 5751000   0.87169136   -4.0480406   -4.0480406   -2.7405048   0.02128388   -4.0480406    1.3075357  1010000 
 5752000   0.87148103   -4.0476346   -4.0476346   -2.7404143  0.022869217   -4.0476346    1.3072202  1010000 
 5753000   0.87187175   -4.0483613   -4.0483613    -2.740555  0.021445071   -4.0483613    1.3078063  1010000 
 5754000   0.87028424   -4.0455757   -4.0455757   -2.7401507   0.02456672   -4.0455757    1.3054251  1010000 
 5755000   0.87178086   -4.0471828   -4.0471828   -2.7395128  0.024201092   -4.0471828      1.30767  1010000 
 5756000    0.8715621   -4.0469684   -4.0469684   -2.7396266  0.025616868   -4.0469684    1.3073419  1010000 
 5757000   0.87200973   -4.0474015   -4.0474015   -2.7393882  0.026000233   -4.0474015    1.3080133  1010000 
 5758000   0.87194149   -4.0472971   -4.0472971   -2.7393861  0.024297977   -4.0472971    1.3079109  1010000 
 5759000   0.87147167    -4.046525    -4.046525   -2.7393188  0.030109131    -4.046525    1.3072062  1010000 
 5760000   0.87226256   -4.0478474   -4.0478474   -2.7394549  0.025766244   -4.0478474    1.3083925  1010000 
 5761000   0.87278853   -4.0483685   -4.0483685    -2.739187  0.026621742   -4.0483685    1.3091815  1010000 
 5762000   0.87255609   -4.0478479   -4.0478479   -2.7390151  0.028665248   -4.0478479    1.3088328  1010000 
 5763000   0.87308827   -4.0484686   -4.0484686   -2.7388375  0.028373957   -4.0484686    1.3096311  1010000 
 5764000   0.87412892   -4.0491651   -4.0491651    -2.737973  0.025854542   -4.0491651    1.3111921  1010000 
 5765000   0.87372095   -4.0480453   -4.0480453   -2.7374652  0.027999273   -4.0480453    1.3105801  1010000 
 5766000   0.87399162   -4.0485269   -4.0485269   -2.7375408  0.030211339   -4.0485269    1.3109861  1010000 
 5767000   0.87372771   -4.0485445   -4.0485445   -2.7379542  0.028550762   -4.0485445    1.3105903  1010000 
 5768000   0.87382442   -4.0481488   -4.0481488   -2.7374134  0.031696747   -4.0481488    1.3107353  1010000 
 5769000   0.87433329   -4.0485905   -4.0485905   -2.7370919  0.027255994   -4.0485905    1.3114986  1010000 
 5770000   0.87367727   -4.0478953   -4.0478953   -2.7373807  0.027798775   -4.0478953    1.3105146  1010000 
 5771000   0.87428294   -4.0489669   -4.0489669   -2.7375438  0.027322448   -4.0489669    1.3114231  1010000 
 5772000   0.87373368   -4.0479406   -4.0479406   -2.7373414  0.027631191   -4.0479406    1.3105992  1010000 
 5773000   0.87345231   -4.0471204   -4.0471204   -2.7369432  0.028551519   -4.0471204    1.3101772  1010000 
 5774000   0.87333753   -4.0472702   -4.0472702   -2.7372652  0.026429338   -4.0472702     1.310005  1010000 
 5775000    0.8726544    -4.046502    -4.046502   -2.7375217  0.027447805    -4.046502    1.3089803  1010000 
 5776000   0.87244944   -4.0469018   -4.0469018   -2.7382289  0.025654072   -4.0469018    1.3086729  1010000 
 5777000   0.87262673   -4.0466355   -4.0466355   -2.7376967  0.022526974   -4.0466355    1.3089388  1010000 
 5778000   0.87296388     -4.04712     -4.04712   -2.7376755  0.021854062     -4.04712    1.3094445  1010000 
 5779000    0.8726691   -4.0473723   -4.0473723   -2.7383699    0.0190337   -4.0473723    1.3090024  1010000 
 5780000   0.87194673   -4.0469401   -4.0469401   -2.7390213  0.022233655   -4.0469401    1.3079188  1010000 
 5781000   0.87194054   -4.0470694   -4.0470694   -2.7391599  0.019063236   -4.0470694    1.3079095  1010000 
 5782000   0.87079603   -4.0450917   -4.0450917    -2.738899  0.022234282   -4.0450917    1.3061928  1010000 
 5783000   0.87154158   -4.0463472   -4.0463472   -2.7390362  0.021809182   -4.0463472    1.3073111  1010000 
 5784000   0.87087496   -4.0454156   -4.0454156   -2.7391045  0.022858282   -4.0454156    1.3063111  1010000 
 5785000   0.87114105   -4.0462276   -4.0462276   -2.7395173  0.021753917   -4.0462276    1.3067103  1010000 
 5786000     0.871986   -4.0469197   -4.0469197    -2.738942  0.020647203   -4.0469197    1.3079777  1010000 
 5787000   0.87204598   -4.0466457   -4.0466457    -2.738578  0.022732111   -4.0466457    1.3080677  1010000 
 5788000   0.87150845   -4.0463167   -4.0463167   -2.7390553  0.021137325   -4.0463167    1.3072614  1010000 
 5789000    0.8722747   -4.0471734   -4.0471734   -2.7387626  0.020600994   -4.0471734    1.3084108  1010000 
 5790000   0.87208724   -4.0464742   -4.0464742   -2.7383446  0.023793158   -4.0464742    1.3081296  1010000 
 5791000   0.87291957   -4.0465938   -4.0465938   -2.7372158  0.022162013   -4.0465938    1.3093781  1010000 
 5792000   0.87140916   -4.0446318   -4.0446318   -2.7375194  0.027736873   -4.0446318    1.3071125  1010000 
 5793000    0.8723195   -4.0453003   -4.0453003   -2.7368224  0.026012275   -4.0453003     1.308478  1010000 
 5794000   0.87281656     -4.04574     -4.04574   -2.7365165  0.024371152     -4.04574    1.3092235  1010000 
 5795000   0.87199247   -4.0445145   -4.0445145   -2.7365271  0.025722123   -4.0445145    1.3079874  1010000 
 5796000   0.87281594   -4.0460396   -4.0460396    -2.736817  0.022057384   -4.0460396    1.3092226  1010000 
 5797000   0.87269185   -4.0463186   -4.0463186   -2.7372822  0.021316185   -4.0463186    1.3090365  1010000 
 5798000   0.87276936   -4.0467977   -4.0467977    -2.737645  0.024047299   -4.0467977    1.3091527  1010000 
 5799000   0.87162878   -4.0449162   -4.0449162   -2.7374744  0.024832398   -4.0449162    1.3074419  1010000 
 5800000   0.87224031   -4.0461002   -4.0461002    -2.737741  0.025020534   -4.0461002    1.3083592  1010000 
 5801000   0.87230147   -4.0459164   -4.0459164   -2.7374655  0.022542797   -4.0459164    1.3084509  1010000 
 5802000     0.871882   -4.0452368   -4.0452368   -2.7374151  0.027224416   -4.0452368    1.3078217  1010000 
 5803000   0.87197652   -4.0455589   -4.0455589   -2.7375954  0.023255243   -4.0455589    1.3079635  1010000 
 5804000    0.8712145   -4.0440689   -4.0440689   -2.7372484  0.022400603   -4.0440689    1.3068205  1010000 
 5805000   0.87189702   -4.0450052   -4.0450052    -2.737161  0.023527119   -4.0450052    1.3078442  1010000 
 5806000   0.87220118   -4.0451021   -4.0451021   -2.7368017  0.023588718   -4.0451021    1.3083005  1010000 
 5807000    0.8727533   -4.0455827   -4.0455827   -2.7364541  0.026730757   -4.0455827    1.3091287  1010000 
 5808000   0.87244031   -4.0450018   -4.0450018   -2.7363426  0.022223006   -4.0450018    1.3086592  1010000 
 5809000   0.87206032   -4.0449415   -4.0449415   -2.7368523   0.02081766   -4.0449415    1.3080892  1010000 
 5810000   0.87326127    -4.046776    -4.046776   -2.7368854  0.020294098    -4.046776    1.3098906  1010000 
 5811000   0.87271117   -4.0460838   -4.0460838   -2.7370184  0.024654212   -4.0460838    1.3090655  1010000 
 5812000   0.87266414   -4.0460537   -4.0460537   -2.7370588  0.028520921   -4.0460537    1.3089949  1010000 
 5813000   0.87346598    -4.047146    -4.047146   -2.7369484  0.022552585    -4.047146    1.3101977  1010000 
 5814000     0.873028   -4.0463832   -4.0463832   -2.7368425  0.028194091   -4.0463832    1.3095407  1010000 
 5815000   0.87364274   -4.0470333   -4.0470333   -2.7365705  0.030571685   -4.0470333    1.3104628  1010000 
 5816000   0.87394848   -4.0472042   -4.0472042   -2.7362827   0.02685513   -4.0472042    1.3109214  1010000 
 5817000   0.87341354   -4.0466265   -4.0466265   -2.7365075  0.030472483   -4.0466265     1.310119  1010000 
 5818000   0.87328185   -4.0465443   -4.0465443   -2.7366229  0.030717787   -4.0465443    1.3099215  1010000 
 5819000   0.87349465   -4.0465434   -4.0465434   -2.7363028  0.027353503   -4.0465434    1.3102407  1010000 
 5820000   0.87427989   -4.0467827   -4.0467827   -2.7353641   0.02492326   -4.0467827    1.3114185  1010000 
 5821000   0.87350432   -4.0460454   -4.0460454   -2.7357902  0.027875623   -4.0460454    1.3102552  1010000 
 5822000   0.87450793   -4.0468556   -4.0468556    -2.735095  0.024377832   -4.0468556    1.3117606  1010000 
 5823000   0.87409843    -4.046256    -4.046256   -2.7351096  0.027594874    -4.046256    1.3111463  1010000 
 5824000   0.87395165    -4.046027    -4.046027   -2.7351008  0.025289754    -4.046027    1.3109262  1010000 
 5825000   0.87374765   -4.0448482   -4.0448482    -2.734228  0.026031282   -4.0448482    1.3106202  1010000 
 5826000     0.874087   -4.0454946   -4.0454946   -2.7343654  0.026381796   -4.0454946    1.3111292  1010000 
 5827000   0.87302601   -4.0442643   -4.0442643   -2.7347266  0.029670299   -4.0442643    1.3095377  1010000 
 5828000   0.87330044    -4.044392    -4.044392   -2.7344426  0.026811113    -4.044392    1.3099494  1010000 
 5829000   0.87377187   -4.0455615   -4.0455615    -2.734905  0.025919955   -4.0455615    1.3106565  1010000 
 5830000   0.87330956    -4.045112    -4.045112   -2.7351489  0.028032253    -4.045112     1.309963  1010000 
 5831000   0.87429365   -4.0464418   -4.0464418   -2.7350027  0.029361457   -4.0464418    1.3114392  1010000 
 5832000   0.87434665   -4.0464404   -4.0464404   -2.7349218  0.026022611   -4.0464404    1.3115187  1010000 
 5833000   0.87369611    -4.046041    -4.046041   -2.7354981  0.022224362    -4.046041    1.3105429  1010000 
 5834000   0.87265317   -4.0442143   -4.0442143   -2.7352358  0.029274863   -4.0442143    1.3089785  1010000 
 5835000   0.87310168   -4.0448088   -4.0448088   -2.7351576  0.029038197   -4.0448088    1.3096512  1010000 
 5836000   0.87367791   -4.0449121   -4.0449121   -2.7343965  0.025028744   -4.0449121    1.3105156  1010000 
 5837000   0.87345566   -4.0438295   -4.0438295   -2.7336473  0.024882087   -4.0438295    1.3101822  1010000 
 5838000   0.87382422   -4.0445391   -4.0445391    -2.733804  0.025750838   -4.0445391     1.310735  1010000 
 5839000   0.87439033   -4.0452312   -4.0452312    -2.733647  0.023648595   -4.0452312    1.3115842  1010000 
 5840000   0.87346678   -4.0437399   -4.0437399    -2.733541  0.026535775   -4.0437399    1.3101989  1010000 
 5841000   0.87307638   -4.0434259   -4.0434259   -2.7338126  0.028296807   -4.0434259    1.3096133  1010000 
 5842000   0.87284751   -4.0428628   -4.0428628   -2.7335929  0.026071138   -4.0428628      1.30927  1010000 
 5843000   0.87281933   -4.0424552   -4.0424552   -2.7332275   0.02572837   -4.0424552    1.3092277  1010000 
 5844000    0.8720771   -4.0420997   -4.0420997   -2.7339854  0.021520147   -4.0420997    1.3081144  1010000 
 5845000   0.87343546   -4.0438166   -4.0438166   -2.7336647  0.018714533   -4.0438166    1.3101519  1010000 
 5846000   0.87301175   -4.0428125   -4.0428125   -2.7332962  0.022261916   -4.0428125    1.3095163  1010000 
 5847000   0.87236165   -4.0420218   -4.0420218   -2.7334806  0.023156561   -4.0420218    1.3085412  1010000 
 5848000   0.87216932   -4.0419554   -4.0419554   -2.7337027  0.025625249   -4.0419554    1.3082527  1010000 
 5849000   0.87357646    -4.043585    -4.043585   -2.7332216  0.020737857    -4.043585    1.3103634  1010000 
 5850000   0.87245152   -4.0417204   -4.0417204   -2.7330444  0.020640775   -4.0417204     1.308676  1010000 
 5851000    0.8720413   -4.0413705   -4.0413705   -2.7333099  0.022400786   -4.0413705    1.3080606  1010000 
 5852000   0.87243947   -4.0419195   -4.0419195   -2.7332616  0.018246576   -4.0419195    1.3086579  1010000 
 5853000   0.87197058   -4.0412513   -4.0412513   -2.7332967  0.023612725   -4.0412513    1.3079546  1010000 
 5854000   0.87212546   -4.0406361   -4.0406361   -2.7324492  0.019137612   -4.0406361    1.3081869  1010000 
 5855000   0.87243101   -4.0413134   -4.0413134   -2.7326681  0.019302724   -4.0413134    1.3086452  1010000 
 5856000   0.87272919    -4.042183    -4.042183   -2.7330905  0.020981376    -4.042183    1.3090925  1010000 
 5857000    0.8734889    -4.043272    -4.043272   -2.7330399  0.018187301    -4.043272     1.310232  1010000 
 5858000   0.87310279   -4.0418888   -4.0418888   -2.7322359  0.021300971   -4.0418888    1.3096529  1010000 
 5859000   0.87319768   -4.0422691   -4.0422691   -2.7324739  0.021223367   -4.0422691    1.3097952  1010000 
 5860000   0.87326017   -4.0426156   -4.0426156   -2.7327266  0.020178472   -4.0426156     1.309889  1010000 
 5861000   0.87256265   -4.0410957   -4.0410957    -2.732253  0.024576257   -4.0410957    1.3088427  1010000 
 5862000   0.87341745   -4.0423928   -4.0423928   -2.7322679  0.019587055   -4.0423928    1.3101249  1010000 
 5863000   0.87295698   -4.0412752   -4.0412752   -2.7318411   0.02476844   -4.0412752    1.3094342  1010000 
 5864000   0.87321049   -4.0417136   -4.0417136   -2.7318992  0.022184367   -4.0417136    1.3098144  1010000 
 5865000   0.87251946   -4.0413077   -4.0413077   -2.7325298  0.021732898   -4.0413077    1.3087779  1010000 
 5866000   0.87210675    -4.039582    -4.039582   -2.7314232  0.025275876    -4.039582    1.3081588  1010000 
 5867000   0.87275243   -4.0402708   -4.0402708   -2.7311434  0.025963547   -4.0402708    1.3091274  1010000 
 5868000    0.8729171   -4.0399349   -4.0399349   -2.7305606  0.023331072   -4.0399349    1.3093744  1010000 
 5869000   0.87330974   -4.0405642   -4.0405642   -2.7306009  0.019623048   -4.0405642    1.3099633  1010000 
 5870000   0.87314135   -4.0399307   -4.0399307     -2.73022  0.022458519   -4.0399307    1.3097107  1010000 
 5871000   0.87357517   -4.0406254   -4.0406254    -2.730264   0.02267934   -4.0406254    1.3103615  1010000 
 5872000   0.87400784   -4.0414176   -4.0414176   -2.7304071  0.022319408   -4.0414176    1.3110105  1010000 
 5873000   0.87381909    -4.040836    -4.040836   -2.7301087  0.025078537    -4.040836    1.3107273  1010000 
 5874000   0.87325118   -4.0397364   -4.0397364   -2.7298609  0.027607289   -4.0397364    1.3098755  1010000 
 5875000   0.87429863   -4.0408541   -4.0408541   -2.7294075  0.026871856   -4.0408541    1.3114466  1010000 
 5876000   0.87358247   -4.0401757   -4.0401757   -2.7298033  0.027132253   -4.0401757    1.3103724  1010000 
 5877000   0.87460519   -4.0420336   -4.0420336   -2.7301271  0.022110146   -4.0420336    1.3119065  1010000 
 5878000   0.87488532   -4.0427366   -4.0427366   -2.7304099  0.022988066   -4.0427366    1.3123267  1010000 
 5879000   0.87392493   -4.0413593   -4.0413593   -2.7304732  0.029314132   -4.0413593    1.3108861  1010000 
 5880000   0.87395148   -4.0413256   -4.0413256   -2.7303997  0.030058968   -4.0413256    1.3109259  1010000 
 5881000   0.87477019   -4.0422131   -4.0422131   -2.7300591  0.023734384   -4.0422131     1.312154  1010000 
 5882000   0.87400756   -4.0411138   -4.0411138   -2.7301038  0.024672903   -4.0411138      1.31101  1010000 
 5883000   0.87403764   -4.0403583   -4.0403583   -2.7293031   0.02531811   -4.0403583    1.3110552  1010000 
 5884000   0.87361037   -4.0396151   -4.0396151   -2.7292008  0.024872311   -4.0396151    1.3104143  1010000 
 5885000   0.87465779    -4.041315    -4.041315   -2.7293296  0.024255337    -4.041315    1.3119854  1010000 
 5886000   0.87393343   -4.0399071   -4.0399071   -2.7290083  0.027459679   -4.0399071    1.3108988  1010000 
 5887000     0.874804   -4.0408634   -4.0408634   -2.7286587  0.023747096   -4.0408634    1.3122047  1010000 
 5888000   0.87380552   -4.0399863   -4.0399863   -2.7292793   0.02561857   -4.0399863     1.310707  1010000 
 5889000   0.87396214   -4.0399946   -4.0399946   -2.7290527  0.021019707   -4.0399946    1.3109419  1010000 
 5890000   0.87391748   -4.0399245   -4.0399245   -2.7290496   0.02264901   -4.0399245    1.3108749  1010000 
 5891000   0.87391086   -4.0405961   -4.0405961   -2.7297312  0.018357223   -4.0405961     1.310865  1010000 
 5892000   0.87337741   -4.0396239   -4.0396239   -2.7295591  0.023847419   -4.0396239    1.3100648  1010000 
 5893000   0.87400902   -4.0399203   -4.0399203   -2.7289081  0.023430815   -4.0399203    1.3110122  1010000 
 5894000   0.87358097   -4.0398161   -4.0398161   -2.7294459  0.022595255   -4.0398161    1.3103702  1010000 
 5895000   0.87389564   -4.0397639   -4.0397639   -2.7289217  0.023968833   -4.0397639    1.3108422  1010000 
 5896000   0.87413703   -4.0403199   -4.0403199   -2.7291156  0.024575498   -4.0403199    1.3112042  1010000 
 5897000   0.87356738   -4.0396518   -4.0396518    -2.729302  0.027922981   -4.0396518    1.3103498  1010000 
 5898000   0.87412507   -4.0400253   -4.0400253    -2.728839  0.028405923   -4.0400253    1.3111863  1010000 
 5899000   0.87384384   -4.0397604   -4.0397604   -2.7289959  0.028024212   -4.0397604    1.3107645  1010000 
 5900000   0.87452899   -4.0401889   -4.0401889   -2.7283967   0.02524283   -4.0401889    1.3117922  1010000 
 5901000   0.87383812   -4.0395081   -4.0395081   -2.7287522  0.026921798   -4.0395081    1.3107559  1010000 
 5902000   0.87379827   -4.0391557   -4.0391557   -2.7284596  0.028703331   -4.0391557    1.3106961  1010000 
 5903000    0.8738227   -4.0386994   -4.0386994   -2.7279666  0.029690574   -4.0386994    1.3107328  1010000 
 5904000   0.87507766   -4.0405975   -4.0405975   -2.7279823  0.023024032   -4.0405975    1.3126152  1010000 
 5905000   0.87417333   -4.0385955   -4.0385955   -2.7273368  0.029947189   -4.0385955    1.3112587  1010000 
 5906000   0.87492927   -4.0391955   -4.0391955   -2.7268029  0.027340305   -4.0391955    1.3123926  1010000 
 5907000   0.87482554   -4.0392048   -4.0392048   -2.7269678  0.025048875   -4.0392048     1.312237  1010000 
 5908000   0.87491764   -4.0394656   -4.0394656   -2.7270904   0.02699255   -4.0394656    1.3123752  1010000 
 5909000   0.87519862   -4.0398466   -4.0398466     -2.72705  0.020382417   -4.0398466    1.3127966  1010000 
 5910000   0.87466122   -4.0390904   -4.0390904   -2.7270999  0.024956076   -4.0390904    1.3119905  1010000 
 5911000   0.87445561   -4.0387338   -4.0387338   -2.7270516  0.028185914   -4.0387338    1.3116821  1010000 
 5912000   0.87450705   -4.0385719   -4.0385719   -2.7268126  0.025768259   -4.0385719    1.3117593  1010000 
 5913000   0.87372807   -4.0375726   -4.0375726   -2.7269817  0.024819395   -4.0375726    1.3105908  1010000 
 5914000   0.87441992   -4.0383562   -4.0383562   -2.7267277  0.024594146   -4.0383562    1.3116286  1010000 
 5915000   0.87445021   -4.0379402   -4.0379402   -2.7262661  0.025606062   -4.0379402     1.311674  1010000 
 5916000   0.87446442   -4.0381482   -4.0381482   -2.7264529  0.025409523   -4.0381482    1.3116953  1010000 
 5917000   0.87457553   -4.0384966   -4.0384966   -2.7266346  0.021626482   -4.0384966     1.311862  1010000 
 5918000   0.87348575   -4.0368969   -4.0368969   -2.7266695  0.025267338   -4.0368969    1.3102273  1010000 
 5919000   0.87344009   -4.0367738   -4.0367738   -2.7266149  0.024909165   -4.0367738    1.3101588  1010000 
 5920000   0.87469172   -4.0382383   -4.0382383    -2.726202  0.023825822   -4.0382383    1.3120363  1010000 
 5921000   0.87429171   -4.0380057   -4.0380057   -2.7265694  0.026066646   -4.0380057    1.3114363  1010000 
 5922000    0.8742074   -4.0377296   -4.0377296   -2.7264198   0.02447448   -4.0377296    1.3113098  1010000 
 5923000   0.87428302   -4.0377595   -4.0377595   -2.7263363  0.021292837   -4.0377595    1.3114232  1010000 
 5924000   0.87397862   -4.0373827   -4.0373827    -2.726416  0.024822316   -4.0373827    1.3109666  1010000 
 5925000   0.87386482   -4.0372376   -4.0372376   -2.7264417  0.025074138   -4.0372376    1.3107959  1010000 
 5926000   0.87408638   -4.0370433   -4.0370433    -2.725915  0.022932287   -4.0370433    1.3111283  1010000 
 5927000   0.87362616   -4.0358949   -4.0358949    -2.725457   0.02927791   -4.0358949    1.3104379  1010000 
 5928000   0.87463916   -4.0371501   -4.0371501   -2.7251926  0.021480736   -4.0371501    1.3119574  1010000 
 5929000   0.87432908   -4.0361414   -4.0361414   -2.7246491  0.029301558   -4.0361414    1.3114923  1010000 
 5930000   0.87444224   -4.0368457   -4.0368457   -2.7251837  0.030197952   -4.0368457    1.3116621  1010000 
 5931000   0.87492322   -4.0369821   -4.0369821   -2.7245986  0.022999666   -4.0369821    1.3123835  1010000 
 5932000   0.87505072   -4.0366715   -4.0366715   -2.7240967  0.023705593   -4.0366715    1.3125748  1010000 
 5933000   0.87426403   -4.0354803   -4.0354803   -2.7240855  0.025811304   -4.0354803    1.3113947  1010000 
 5934000   0.87494493   -4.0364917   -4.0364917   -2.7240756  0.022326112   -4.0364917    1.3124161  1010000 
 5935000   0.87472918   -4.0360357   -4.0360357   -2.7239432  0.023335917   -4.0360357    1.3120925  1010000 
 5936000   0.87518288   -4.0368938   -4.0368938   -2.7241208  0.020596373   -4.0368938     1.312773  1010000 
 5937000   0.87429958   -4.0355994   -4.0355994   -2.7241513  0.028889264   -4.0355994    1.3114481  1010000 
 5938000   0.87481178   -4.0362896   -4.0362896   -2.7240732  0.023195025   -4.0362896    1.3122164  1010000 
 5939000   0.87454432   -4.0364265   -4.0364265   -2.7246113   0.02158307   -4.0364265    1.3118152  1010000 
 5940000   0.87423266   -4.0356042   -4.0356042   -2.7242565  0.022227383   -4.0356042    1.3113477  1010000 
 5941000   0.87500416   -4.0361706   -4.0361706   -2.7236657  0.023174778   -4.0361706    1.3125049  1010000 
 5942000   0.87437504   -4.0356608   -4.0356608   -2.7240995  0.025324395   -4.0356608    1.3115613  1010000 
 5943000   0.87424212   -4.0352984   -4.0352984   -2.7239366  0.023197416   -4.0352984    1.3113619  1010000 
 5944000   0.87473115   -4.0357689   -4.0357689   -2.7236734  0.027072385   -4.0357689    1.3120954  1010000 
 5945000   0.87499969   -4.0357734   -4.0357734   -2.7232751    0.0255597   -4.0357734    1.3124982  1010000 
 5946000   0.87502309   -4.0367423   -4.0367423   -2.7242089   0.02205151   -4.0367423    1.3125333  1010000 
 5947000   0.87437867   -4.0361105   -4.0361105   -2.7245438   0.02476945   -4.0361105    1.3115667  1010000 
 5948000   0.87407142   -4.0360984   -4.0360984   -2.7249926   0.02683928   -4.0360984    1.3111058  1010000 
 5949000   0.87424657   -4.0351047   -4.0351047   -2.7237361  0.022467515   -4.0351047    1.3113686  1010000 
 5950000   0.87406539   -4.0351032   -4.0351032   -2.7240065  0.021479337   -4.0351032    1.3110968  1010000 
 5951000   0.87448983   -4.0356911   -4.0356911   -2.7239577  0.021201065   -4.0356911    1.3117335  1010000 
 5952000   0.87465116   -4.0349826   -4.0349826   -2.7230071  0.023771155   -4.0349826    1.3119754  1010000 
 5953000   0.87476091    -4.035351    -4.035351    -2.723211  0.024658426    -4.035351    1.3121401  1010000 
 5954000   0.87525617   -4.0364693   -4.0364693   -2.7235863  0.025634719   -4.0364693     1.312883  1010000 
 5955000   0.87537026   -4.0362908   -4.0362908   -2.7232367  0.024953173   -4.0362908    1.3130541  1010000 
 5956000   0.87517694   -4.0356528   -4.0356528   -2.7228887  0.024345128   -4.0356528    1.3127641  1010000 
 5957000   0.87494916   -4.0357687   -4.0357687   -2.7233462  0.027149208   -4.0357687    1.3124224  1010000 
 5958000   0.87529619     -4.03598     -4.03598    -2.723037  0.020837648     -4.03598     1.312943  1010000 
 5959000   0.87469457   -4.0352436   -4.0352436    -2.723203  0.025002759   -4.0352436    1.3120406  1010000 
 5960000   0.87467137   -4.0356989   -4.0356989   -2.7236931  0.026131898   -4.0356989    1.3120058  1010000 
 5961000   0.87492563   -4.0362965   -4.0362965   -2.7239094  0.025377555   -4.0362965    1.3123871  1010000 
 5962000   0.87503217   -4.0364754   -4.0364754   -2.7239285  0.025511298   -4.0364754     1.312547  1010000 
 5963000   0.87487266   -4.0359356   -4.0359356   -2.7236279  0.028274261   -4.0359356    1.3123077  1010000 
 5964000   0.87580157   -4.0369278   -4.0369278   -2.7232267  0.026937555   -4.0369278    1.3137011  1010000 
 5965000   0.87524069   -4.0359473   -4.0359473   -2.7230876  0.027576333   -4.0359473    1.3128597  1010000 
 5966000   0.87593285   -4.0363715   -4.0363715   -2.7224735  0.026896304   -4.0363715     1.313898  1010000 
 5967000   0.87498561   -4.0350574   -4.0350574   -2.7225803  0.026384662   -4.0350574    1.3124771  1010000 
 5968000   0.87467096    -4.035096    -4.035096   -2.7230908   0.02423725    -4.035096    1.3120051  1010000 
 5969000   0.87587861   -4.0361401   -4.0361401   -2.7223235  0.025759113   -4.0361401    1.3138166  1010000 
 5970000    0.8757234   -4.0354312   -4.0354312   -2.7218474  0.026255909   -4.0354312    1.3135838  1010000 
 5971000   0.87504525   -4.0343936   -4.0343936    -2.721827  0.027906809   -4.0343936    1.3125666  1010000 
 5972000   0.87647752   -4.0358768   -4.0358768   -2.7211619   0.02377549   -4.0358768     1.314715  1010000 
 5973000   0.87551044    -4.034592    -4.034592   -2.7213276  0.027793592    -4.034592    1.3132644  1010000 
 5974000   0.87591796   -4.0348115   -4.0348115   -2.7209359  0.028389057   -4.0348115    1.3138756  1010000 
 5975000   0.87646596   -4.0357407   -4.0357407    -2.721043  0.029982451   -4.0357407    1.3146976  1010000 
 5976000    0.8764028   -4.0358473   -4.0358473   -2.7212444  0.025408101   -4.0358473    1.3146029  1010000 
 5977000   0.87625879   -4.0358377   -4.0358377   -2.7214508  0.027111581   -4.0358377    1.3143869  1010000 
 5978000   0.87552987   -4.0350218   -4.0350218   -2.7217283  0.032980273   -4.0350218    1.3132935  1010000 
 5979000   0.87665463   -4.0361622   -4.0361622   -2.7211815  0.028323844   -4.0361622    1.3149806  1010000 
 5980000   0.87714759   -4.0361943   -4.0361943   -2.7204742  0.028863858   -4.0361943    1.3157201  1010000 
 5981000   0.87682722   -4.0361781   -4.0361781   -2.7209386  0.027842427   -4.0361781    1.3152395  1010000 
 5982000   0.87547751   -4.0339508   -4.0339508   -2.7207358  0.029636955   -4.0339508     1.313215  1010000 
 5983000   0.87645379   -4.0349633   -4.0349633   -2.7202839  0.025707406   -4.0349633    1.3146794  1010000 
 5984000    0.8762728   -4.0340376   -4.0340376   -2.7196297   0.02554822   -4.0340376    1.3144079  1010000 
 5985000   0.87642238   -4.0344242   -4.0344242   -2.7197919  0.024701073   -4.0344242    1.3146323  1010000 
 5986000   0.87584363   -4.0332675   -4.0332675   -2.7195033  0.028884069   -4.0332675    1.3137642  1010000 
 5987000   0.87580637   -4.0329025   -4.0329025   -2.7191943  0.028280268   -4.0329025    1.3137083  1010000 
 5988000   0.87576512   -4.0325729   -4.0325729   -2.7189265  0.026899708   -4.0325729    1.3136464  1010000 
 5989000   0.87589996   -4.0327411   -4.0327411   -2.7188924  0.025045849   -4.0327411    1.3138486  1010000 
 5990000   0.87634919   -4.0331128   -4.0331128   -2.7185903  0.025419383   -4.0331128    1.3145225  1010000 
 5991000   0.87635081   -4.0331432   -4.0331432   -2.7186183  0.023765064   -4.0331432    1.3145249  1010000 
 5992000   0.87519025   -4.0315233   -4.0315233   -2.7187392  0.026902105   -4.0315233    1.3127841  1010000 
 5993000   0.87557146    -4.032057    -4.032057   -2.7187011  0.024884357    -4.032057    1.3133559  1010000 
 5994000    0.8759973   -4.0326301   -4.0326301   -2.7186355   0.02324664   -4.0326301    1.3139946  1010000 
 5995000   0.87597289   -4.0325083   -4.0325083   -2.7185503  0.023004064   -4.0325083     1.313958  1010000 
 5996000   0.87599481   -4.0324079   -4.0324079    -2.718417  0.024021293   -4.0324079    1.3139909  1010000 
 5997000   0.87534273   -4.0306732   -4.0306732   -2.7176604  0.027634443   -4.0306732    1.3130128  1010000 
 5998000   0.87616938   -4.0324253   -4.0324253   -2.7181725  0.024203918   -4.0324253    1.3142528  1010000 
 5999000   0.87562328   -4.0316526   -4.0316526    -2.718219  0.025384412   -4.0316526    1.3134336  1010000 
 6000000   0.87536564   -4.0310798   -4.0310798   -2.7180326    0.0259318   -4.0310798    1.3130472  1010000 
Loop time of 29479.9 on 240 procs for 6000000 steps with 1010000 atoms

Performance: 43962.160 tau/day, 203.529 timesteps/s
99.1% CPU use with 240 MPI tasks x 1 OpenMP threads

MPI task timing breakdown:
Section |  min time  |  avg time  |  max time  |%varavg|  %CPU | %total
-----------------------------------------------------------------------
Pair    | 6309.2     | 10757      | 16109      |1704.5 |  99.0 | 36.49
Bond    | 2.0047     | 2.9123     | 7.7872     |  61.3 | 100.0 |  0.01
Neigh   | 1542.7     | 2470.8     | 3482.7     | 734.7 |  99.5 |  8.38
Comm    | 7263.2     | 13824      | 18946      |1815.3 |  98.9 | 46.89
Output  | 484.03     | 485.56     | 485.99     |   0.6 |  99.8 |  1.65
Modify  | 287.65     | 580.36     | 1922.4     |1675.1 |  99.4 |  1.97
Other   |            | 1359       |            |       |       |  4.61

Nlocal:        4208.33 ave        4791 max        3568 min
Histogram: 1 2 1 5 34 189 4 1 2 1
Nghost:        5357.71 ave        5746 max        3799 min
Histogram: 17 20 3 0 0 0 0 0 26 174
Neighs:       139799.0 ave      150011 max       81941 min
Histogram: 3 5 2 5 2 2 1 2 105 113

Total # of neighbors = 33551756
Ave neighs/atom = 33.219560
Ave special neighs/atom = 0.0000000
Neighbor list builds = 379158
Dangerous builds = 1211

write_data	data.lj
System init for write_data ...
WARNING: Not all mixed pair coeffs generated from mixing. Use write_data with 'pair ij' option to store all pair coeffs. (src/write_data.cpp:312)
Total wall time: 8:11:30
