LAMMPS (24 Dec 2020)
OMP_NUM_THREADS environment is not set. Defaulting to 1 thread. (src/comm.cpp:94)
  using 1 OpenMP thread(s) per MPI task
#Read the equilibrated lj fluid and add nanocubes

units           lj
atom_style      full
atom_modify     map array first cubes
dimension       3
boundary        p p f
pair_style      lj/smooth/linear 2.0

variable        sigma           equal 1.0
variable        epsilon         equal 1.0
read_restart	restart.dat.5000000
Reading restart file ...
  restart file = 24 Dec 2020, LAMMPS = 24 Dec 2020
WARNING: Restart file used different # of processors: 192 vs. 288 (src/read_restart.cpp:697)
  restoring atom style full from restart
  orthogonal box = (0.0000000 0.0000000 0.0000000) to (80.000000 80.000000 160.00000)
  6 by 4 by 12 MPI processor grid
  restoring pair style lj/smooth/linear from restart
  439061 atoms
Finding 1-2 1-3 1-4 neighbors ...
  special bond factors lj:    0        0        0       
  special bond factors coul:  0        0        0       
     0 = max # of 1-2 neighbors
     0 = max # of 1-3 neighbors
     0 = max # of 1-4 neighbors
     1 = max # of special neighbors
  special bonds CPU = 2.340 seconds
  read_restart CPU = 2.758 seconds

group		solvent type 1
439061 atoms in group solvent

read_data	data_64.cubes group cubes add append
Reading data file ...
  orthogonal box = (0.0000000 0.0000000 0.0000000) to (80.000000 80.000000 160.00000)
  6 by 4 by 12 MPI processor grid
WARNING: Pair style in data file differs from currently defined pair style (src/read_data.cpp:588)
  reading atoms ...
  85184 atoms
  reading velocities ...
  85184 velocities
Finding 1-2 1-3 1-4 neighbors ...
  special bond factors lj:    0        0        0       
  special bond factors coul:  0        0        0       
     0 = max # of 1-2 neighbors
     0 = max # of 1-3 neighbors
     0 = max # of 1-4 neighbors
     1 = max # of special neighbors
  special bonds CPU = 0.032 seconds
  read_data CPU = 0.266 seconds

group 		hull  type 2
38528 atoms in group hull
group 		dummy type 3
46656 atoms in group dummy

neighbor      0.4 bin
neigh_modify  exclude molecule/intra cubes


pair_modify   shift yes

pair_coeff    1 1 1.0 1.0 #solvent
pair_coeff    2 2 1.0 1.0 1.12 #np
pair_coeff    3 3 0.0 0.0 0.0 #dummy
pair_coeff    2 3 0.0 0.0 0.0 #np dummy
pair_coeff    1 2 ${eps} ${sig} ${nscut} #np solvent
pair_coeff    1 2 1.0 ${sig} ${nscut} 
pair_coeff    1 2 1.0 2.0 ${nscut} 
pair_coeff    1 2 1.0 2.0 4.0 
pair_coeff    1 3 0.0 0.0 2.5 #dummy solvent

# delete solvent where the cubes are
delete_atoms  overlap 2.0 solvent cubes
System init for delete_atoms ...
Neighbor list info ...
  update every 1 steps, delay 10 steps, check yes
  max neighbors/atom: 2000, page size: 100000
  master list distance cutoff = 4.4
  ghost atom cutoff = 4.4
  binsize = 2.2, bins = 37 37 73
  2 neighbor lists, perpetual/occasional/extra = 1 1 0
  (1) command delete_atoms, occasional
      attributes: full, newton on
      pair build: full/bin
      stencil: full/bin/3d
      bin: standard
  (2) pair lj/smooth/linear, perpetual
      attributes: half, newton on
      pair build: half/bin/newton
      stencil: half/bin/3d/newton
      bin: standard
WARNING: Delete_atoms cutoff > minimum neighbor cutoff (src/delete_atoms.cpp:307)
WARNING: Ignoring 'compress yes' for molecular system (src/delete_atoms.cpp:125)
Deleted 99694 atoms, new total = 424551



pair_coeff    1 1 1.0 1.0 #solvent
pair_coeff    2 2 1.0 1.0 1.12 #np
pair_coeff    3 3 0.0 0.0 0.0 #dummy
pair_coeff    2 3 0.0 0.0 0.0 #np dummy
pair_coeff    1 2 ${eps} ${sig} ${nscut} #np solvent
pair_coeff    1 2 1.0 ${sig} ${nscut} 
pair_coeff    1 2 1.0 2.0 ${nscut} 
pair_coeff    1 2 1.0 2.0 4.0 
pair_coeff    1 3 0.0 0.0 0.0 #dummy solvent


comm_modify   mode multi cutoff/multi 1 2.0 cutoff/multi 2 2.0 cutoff/multi 3 8.67

reset_timestep 	0

balance 	1.05 shift z 10 1.05
Balancing ...
Neighbor list info ...
  update every 1 steps, delay 10 steps, check yes
  max neighbors/atom: 2000, page size: 100000
  master list distance cutoff = 4.4
  ghost atom cutoff = 8.67
  binsize = 2.2, bins = 37 37 73
  1 neighbor lists, perpetual/occasional/extra = 1 0 0
  (1) pair lj/smooth/linear, perpetual
      attributes: half, newton on
      pair build: half/bin/newton
      stencil: half/bin/3d/newton
      bin: standard
 rebalancing time: 0.007 seconds
  iteration count = 4
  initial/final maximal load/proc = 2235.0000 2121.0000
  initial/final imbalance factor  = 1.5161429 1.4388095
  x cuts: 0.0000000 0.16666667 0.33333333 0.50000000 0.66666667 0.83333333 1.0000000
  y cuts: 0.0000000 0.25000000 0.50000000 0.75000000 1.0000000
  z cuts: 0.0000000 0.057291667 0.11979167 0.17187500 0.23958333 0.28125000 0.34375000 0.41145833 0.46354167 0.51562500 0.59895833 0.64583333 1.0000000

####################### WALLS ###########################

variable       epsilonWall equal 2*${epsilon}
variable       epsilonWall equal 2*1
variable       repulsive   equal   0.7147*${sigma}
variable       repulsive   equal   0.7147*1
variable       full	   equal   3*${sigma}
variable       full	   equal   3*1
region         lowWall block EDGE EDGE EDGE EDGE EDGE 2

fix            topWall all wall/lj93 zhi EDGE 	       ${epsilonWall} ${sigma} ${repulsive} units box
fix            topWall all wall/lj93 zhi EDGE 	       2 ${sigma} ${repulsive} units box
fix            topWall all wall/lj93 zhi EDGE 	       2 1 ${repulsive} units box
fix            topWall all wall/lj93 zhi EDGE 	       2 1 0.7147 units box
fix            lowSol solvent wall/lj93 zlo EDGE                ${epsilonWall} ${sigma} ${full} units box
fix            lowSol solvent wall/lj93 zlo EDGE                2 ${sigma} ${full} units box
fix            lowSol solvent wall/lj93 zlo EDGE                2 1 ${full} units box
fix            lowSol solvent wall/lj93 zlo EDGE                2 1 3 units box
fix 	       lowCub cubes wall/lj93 zlo EDGE                ${epsilonWall} ${sigma} ${repulsive} units box
fix 	       lowCub cubes wall/lj93 zlo EDGE                2 ${sigma} ${repulsive} units box
fix 	       lowCub cubes wall/lj93 zlo EDGE                2 1 ${repulsive} units box
fix 	       lowCub cubes wall/lj93 zlo EDGE                2 1 0.7147 units box


###################### COMPUTES ##########################

compute        bin1 solvent chunk/atom bin/1d z lower 1.0 units box


######################  FIXES ############################


fix             peclet solvent ave/chunk 10 10 10000 bin1 density/number norm                  none ave one file density.profile

fix              temp solvent ave/chunk 10 10 10000 bin1 temp norm                  none ave one file temp.profile

fix             1 cubes rigid/nve/small molecule
  create bodies CPU = 0.027 seconds
  64 rigid bodies with 85184 atoms
  8.6602540 = max distance from body owner to body atom

fix             2 solvent nve# temp ${temp} ${temp} 10


## Thermostat
region          regthermo block EDGE EDGE EDGE EDGE 0 15
group           thermo dynamic solvent region regthermo every 1000
dynamic group thermo defined
fix             3 thermo langevin ${temp} ${temp} 10 156453
fix             3 thermo langevin 0.6 ${temp} 10 156453
fix             3 thermo langevin 0.6 0.6 10 156453


#### Load balancing

fix             bal all balance 1000 1.05 shift z 10 1.05

############### Diagnostics and computes ###################

compute        	com cubes          rigid/local   1 mol x y z
compute        	quat cubes         rigid/local   1 mol quatw quati quatj quatk

compute 	cc2 cubes 	   chunk/atom 	 molecule
compute 	msd cubes 	   msd/chunk 	 cc2

fix 		msd all ave/time  1 1 10000 c_msd[*] file dump.msd ave one mode vector

dump            1 all custom 500000 dump.lammpstrj id mol type x y z
dump		cubetrj hull custom 500000 cubes.lammpstrj id mol type x y z
dump            com cubes local 10000 dump.*.xyz c_com[*]
dump	        xyz hull xyz 100000 cubes.xyz
dump            quat cubes      local 10000 dump.*.quat c_quat[*]
#dump		mol cubes molfile 10000 mol.xyz xyz


dump            2 all image 10000 image.*.png type type zoom 1.5 size 1280 720
dump_modify     2 pad 8
dump		image cubes image 10000 image_cubes.*.png type type zoom 1.5 size 1280 720
dump_modify	image pad 8
dump            3 all movie 5000 movie.avi type type zoom 1.5 size 1280 720
dump		4 cubes movie 5000 movie_cubes.avi type type size 1280 720


thermo          1000
thermo_style    custom step temp epair evdwl etotal press pe ke atoms

restart         1000000 restart.dat
timestep        0.005
timer           full
New timer settings: style=full  mode=nosync  timeout=off

run 		5000000
Per MPI rank memory allocation (min/avg/max) = 14.07 | 19.99 | 23.03 Mbytes
Step Temp E_pair E_vdwl TotEng Press PotEng KinEng Atoms 
       0    0.6081211   -2.0951248   -2.0951248   -1.3656949  -0.55691638   -2.0951248    0.7294299   424551 
    1000   0.76798725   -2.3027705   -2.3027705   -1.3815841   0.13219186   -2.3027705   0.92118637   424551 
    2000   0.77774846   -2.3293557   -2.3293557   -1.3964609    0.1691308   -2.3293557   0.93289477   424551 
    3000   0.77446486   -2.3388841   -2.3388841    -1.409928   0.15708247   -2.3388841   0.92895614   424551 
    4000   0.76411539   -2.3397754   -2.3397754   -1.4232332   0.13901815   -2.3397754   0.91654215   424551 
    5000   0.75761053   -2.3443859   -2.3443859   -1.4356463   0.15569114   -2.3443859   0.90873969   424551 
    6000   0.74704814   -2.3445498   -2.3445498   -1.4484795   0.12294671   -2.3445498   0.89607031   424551 
    7000   0.74190175   -2.3499688   -2.3499688   -1.4600715    0.1208419   -2.3499688    0.8898973   424551 
    8000   0.73470204   -2.3496473   -2.3496473   -1.4683859   0.10755736   -2.3496473   0.88126139   424551 
    9000   0.72797492   -2.3489004   -2.3489004   -1.4757081   0.11261575   -2.3489004   0.87319232   424551 
   10000   0.72175898   -2.3473268   -2.3473268   -1.4815904  0.095550128   -2.3473268   0.86573643   424551 
   11000   0.71552335   -2.3434229   -2.3434229    -1.485166  0.075988892   -2.3434229    0.8582569   424551 
   12000   0.71369468   -2.3439398   -2.3439398   -1.4878764  0.081770777   -2.3439398   0.85606345   424551 
   13000   0.70872396   -2.3407658   -2.3407658   -1.4906647  0.086746902   -2.3407658   0.85010116   424551 
   14000   0.70669847   -2.3401257   -2.3401257   -1.4924541  0.072970258   -2.3401257   0.84767162   424551 
   15000   0.70366732   -2.3384953   -2.3384953   -1.4944595  0.069134867   -2.3384953   0.84403582   424551 
   16000   0.70177002   -2.3374894   -2.3374894   -1.4957293  0.064631317   -2.3374894   0.84176004   424551 
   17000   0.69998148   -2.3361577   -2.3361577    -1.496543  0.077225309   -2.3361577   0.83961471   424551 
   18000   0.69901743   -2.3357947   -2.3357947   -1.4973364  0.070550012   -2.3357947   0.83845836   424551 
   19000   0.69869789   -2.3362985   -2.3362985   -1.4982234  0.063270181   -2.3362985   0.83807508   424551 
   20000   0.69853787   -2.3378498   -2.3378498   -1.4999667  0.070375807   -2.3378498   0.83788314   424551 
   21000   0.69961202   -2.3402978   -2.3402978   -1.5011262   0.07672412   -2.3402978   0.83917156   424551 
   22000   0.69845478   -2.3393263   -2.3393263   -1.5015428  0.069293036   -2.3393263   0.83778347   424551 
   23000   0.69820701   -2.3401612   -2.3401612   -1.5026749  0.077326684   -2.3401612   0.83748627   424551 
   24000   0.69902501   -2.3415931   -2.3415931   -1.5031256  0.069253167   -2.3415931   0.83846745   424551 
   25000   0.69965059   -2.3434189   -2.3434189   -1.5042011  0.072788117   -2.3434189   0.83921782   424551 
   26000   0.69870699   -2.3425236   -2.3425236   -1.5044377  0.085793658   -2.3425236     0.838086   424551 
   27000   0.69874462   -2.3435098   -2.3435098   -1.5053787  0.081887638   -2.3435098   0.83813112   424551 
   28000   0.69873614   -2.3436734   -2.3436734   -1.5055524  0.073935403   -2.3436734   0.83812096   424551 
   29000   0.69885098    -2.344827    -2.344827   -1.5065683  0.071515569    -2.344827   0.83825871   424551 
   30000   0.69571956   -2.3420904   -2.3420904   -1.5075877  0.076139969   -2.3420904   0.83450262   424551 
   31000   0.69771785   -2.3438049   -2.3438049   -1.5069054  0.069753725   -2.3438049   0.83689954   424551 
   32000   0.69824623   -2.3451725   -2.3451725   -1.5076392  0.076368454   -2.3451725   0.83753332   424551 
   33000   0.69784806   -2.3456943   -2.3456943   -1.5086386  0.076483467   -2.3456943   0.83705572   424551 
   34000   0.69815527   -2.3468224   -2.3468224   -1.5093982  0.076092182   -2.3468224   0.83742422   424551 
   35000   0.69840597   -2.3481462   -2.3481462   -1.5104213   0.07605843   -2.3481462   0.83772493   424551 
   36000   0.69619584   -2.3472142   -2.3472142   -1.5121403   0.07740297   -2.3472142   0.83507392   424551 
   37000   0.69661045   -2.3474217   -2.3474217   -1.5118505  0.076961773   -2.3474217   0.83557124   424551 
   38000   0.69599546   -2.3478668   -2.3478668   -1.5130333  0.075602462   -2.3478668   0.83483356   424551 
   39000   0.69523094   -2.3478978   -2.3478978   -1.5139813  0.080236685   -2.3478978   0.83391654   424551 
   40000   0.69479962   -2.3479343   -2.3479343   -1.5145352  0.071155119   -2.3479343   0.83339917   424551 
   41000   0.69502388   -2.3497056   -2.3497056   -1.5160375  0.079480724   -2.3497056   0.83366817   424551 
   42000    0.6955674   -2.3504247   -2.3504247   -1.5161046  0.075961574   -2.3504247   0.83432011   424551 
   43000   0.69394487   -2.3500952   -2.3500952   -1.5177213  0.076946522   -2.3500952   0.83237392   424551 
   44000   0.69373115   -2.3513548   -2.3513548   -1.5192373   0.08681553   -2.3513548   0.83211756   424551 
   45000    0.6924619   -2.3504409   -2.3504409   -1.5198458  0.082302597   -2.3504409   0.83059512   424551 
   46000   0.69303273   -2.3527172   -2.3527172   -1.5214374  0.077097085   -2.3527172   0.83127982   424551 
   47000   0.69216326   -2.3523258   -2.3523258   -1.5220889  0.076935877   -2.3523258   0.83023691   424551 
   48000   0.69284057   -2.3547179   -2.3547179   -1.5236686  0.077507253   -2.3547179   0.83104934   424551 
   49000   0.69152782   -2.3542495   -2.3542495   -1.5247748  0.074877477   -2.3542495   0.82947471   424551 
   50000   0.69308156   -2.3575388   -2.3575388   -1.5262004  0.088038325   -2.3575388    0.8313384   424551 
   51000   0.69239641   -2.3579197   -2.3579197   -1.5274032  0.079818607   -2.3579197   0.83051657   424551 
   52000   0.69296354   -2.3600221   -2.3600221   -1.5288253  0.086601207   -2.3600221   0.83119683   424551 
   53000    0.6915044   -2.3600778   -2.3600778   -1.5306312  0.081663206   -2.3600778   0.82944662   424551 
   54000   0.69328356   -2.3632016   -2.3632016   -1.5316209  0.084398441   -2.3632016   0.83158069   424551 
   55000   0.69144913    -2.363437    -2.363437   -1.5340566  0.081480432    -2.363437   0.82938033   424551 
   56000   0.69265085   -2.3669258   -2.3669258    -1.536104  0.086201913   -2.3669258   0.83082176   424551 
   57000    0.6932964   -2.3692765   -2.3692765   -1.5376804    0.0883736   -2.3692765   0.83159609   424551 
   58000   0.69289147   -2.3710946   -2.3710946   -1.5399842  0.093495023   -2.3710946   0.83111039   424551 
   59000    0.6939472    -2.374261    -2.374261   -1.5418843  0.091441384    -2.374261   0.83237672   424551 
   60000   0.69415216   -2.3747385   -2.3747385   -1.5421159  0.084708477   -2.3747385   0.83262256   424551 
   61000   0.69437182   -2.3780151   -2.3780151   -1.5451291  0.082853494   -2.3780151   0.83288604   424551 
   62000   0.69289538   -2.3776238   -2.3776238   -1.5465087  0.090777221   -2.3776238   0.83111508   424551 
   63000   0.69326528   -2.3801622   -2.3801622   -1.5486034  0.091899193   -2.3801622   0.83155876   424551 
   64000   0.69243626   -2.3817107   -2.3817107   -1.5511463  0.087425827   -2.3817107   0.83056436   424551 
   65000   0.69163004   -2.3816085   -2.3816085   -1.5520111  0.091744913   -2.3816085   0.82959732   424551 
   66000   0.69220299   -2.3834764   -2.3834764   -1.5531918  0.093728519   -2.3834764   0.83028456   424551 
   67000   0.69312893   -2.3855965   -2.3855965   -1.5542013  0.084374434   -2.3855965   0.83139522   424551 
   68000   0.69221978   -2.3848906   -2.3848906   -1.5545859  0.092498487   -2.3848906    0.8303047   424551 
   69000   0.69113154   -2.3851958   -2.3851958   -1.5561964  0.085257946   -2.3851958   0.82899938   424551 
   70000   0.69065015    -2.385466    -2.385466   -1.5570441  0.090637372    -2.385466   0.82842196   424551 
   71000    0.6909581    -2.386505    -2.386505   -1.5577136  0.077113283    -2.386505   0.82879134   424551 
   72000   0.69019483   -2.3868985   -2.3868985   -1.5590227  0.089005364   -2.3868985   0.82787582   424551 
   73000   0.68760113   -2.3855291   -2.3855291   -1.5607643  0.087298269   -2.3855291   0.82476472   424551 
   74000   0.68754565   -2.3865264   -2.3865264   -1.5618282  0.081342291   -2.3865264   0.82469818   424551 
   75000   0.68615577   -2.3851149   -2.3851149   -1.5620839  0.096809931   -2.3851149   0.82303104   424551 
   76000    0.6872731   -2.3876627   -2.3876627   -1.5632915  0.083247627   -2.3876627   0.82437126   424551 
   77000   0.68567513   -2.3862589   -2.3862589   -1.5638044  0.077282855   -2.3862589   0.82245452   424551 
   78000   0.68498709    -2.386195    -2.386195   -1.5645658  0.069671327    -2.386195   0.82162923   424551 
   79000    0.6834801   -2.3854299   -2.3854299   -1.5656083  0.067080458   -2.3854299   0.81982162   424551 
   80000   0.68365407   -2.3859358   -2.3859358   -1.5659055  0.070578969   -2.3859358   0.82003029   424551 
   81000   0.68112392   -2.3829959   -2.3829959   -1.5660005  0.065744417   -2.3829959   0.81699543   424551 
   82000   0.68239387   -2.3847503   -2.3847503   -1.5662316  0.062020387   -2.3847503   0.81851871   424551 
   83000   0.67937495   -2.3837086   -2.3837086    -1.568811    0.0756709   -2.3837086   0.81489758   424551 
   84000   0.68013923   -2.3843568   -2.3843568   -1.5685425   0.07059085   -2.3843568   0.81581431   424551 
   85000   0.67920511   -2.3834252   -2.3834252   -1.5687314  0.080382844   -2.3834252   0.81469385   424551 
   86000   0.68090615   -2.3857793   -2.3857793   -1.5690451  0.076036114   -2.3857793   0.81673421   424551 
   87000   0.67954465   -2.3845812   -2.3845812   -1.5694801  0.061858367   -2.3845812   0.81510112   424551 
   88000    0.6780603   -2.3831074   -2.3831074   -1.5697867  0.059677452   -2.3831074   0.81332067   424551 
   89000   0.67918565   -2.3850481   -2.3850481   -1.5703776  0.079034779   -2.3850481   0.81467051   424551 
   90000   0.67916319   -2.3861489   -2.3861489   -1.5715053  0.069095744   -2.3861489   0.81464357   424551 
   91000   0.67771743   -2.3854204   -2.3854204    -1.572511  0.072311734   -2.3854204   0.81290941   424551 
   92000   0.67833093   -2.3866758   -2.3866758   -1.5730305  0.071448781   -2.3866758   0.81364529   424551 
   93000   0.67662761   -2.3858804   -2.3858804   -1.5742782   0.06839328   -2.3858804   0.81160219   424551 
   94000   0.67665856   -2.3865884   -2.3865884   -1.5749491  0.071521037   -2.3865884   0.81163932   424551 
   95000   0.67819115   -2.3889279   -2.3889279   -1.5754503  0.059781124   -2.3889279   0.81347763   424551 
   96000   0.67783607   -2.3890629   -2.3890629   -1.5760112  0.060075724   -2.3890629   0.81305171   424551 
   97000    0.6774612   -2.3887287   -2.3887287   -1.5761266  0.061722703   -2.3887287   0.81260207   424551 
   98000   0.67758068   -2.3889739   -2.3889739   -1.5762285  0.079783214   -2.3889739   0.81274538   424551 
   99000    0.6765662   -2.3891335   -2.3891335    -1.577605   0.07303682   -2.3891335   0.81152853   424551 
  100000   0.67598967   -2.3885671   -2.3885671   -1.5777301   0.07174558   -2.3885671     0.810837   424551 
  101000   0.67652435   -2.3894867   -2.3894867   -1.5780084  0.070849616   -2.3894867   0.81147833   424551 
  102000   0.67507099   -2.3884465   -2.3884465   -1.5787115  0.069378153   -2.3884465   0.80973505   424551 
  103000   0.67457515    -2.387888    -2.387888   -1.5787477  0.077662803    -2.387888    0.8091403   424551 
  104000     0.675237   -2.3901086   -2.3901086   -1.5801745   0.07429962   -2.3901086   0.80993418   424551 
  105000   0.67536378   -2.3902828   -2.3902828   -1.5801965  0.069459733   -2.3902828   0.81008625   424551 
  106000    0.6774802    -2.392974    -2.392974   -1.5803492  0.068808488    -2.392974   0.81262485   424551 
  107000   0.67726307   -2.3932344   -2.3932344     -1.58087   0.07447615   -2.3932344   0.81236441   424551 
  108000   0.67621427   -2.3924552   -2.3924552   -1.5813488  0.073164575   -2.3924552    0.8111064   424551 
  109000   0.67561496   -2.3919139   -2.3919139   -1.5815263  0.064497188   -2.3919139   0.81038754   424551 
  110000   0.67585874   -2.3934328   -2.3934328   -1.5827529  0.069324397   -2.3934328   0.81067994   424551 
  111000   0.67554555   -2.3933383   -2.3933383    -1.583034  0.077121225   -2.3933383   0.81030427   424551 
  112000     0.676861   -2.3955605   -2.3955605   -1.5836784  0.074660407   -2.3955605   0.81188214   424551 
  113000   0.67544444   -2.3951273   -2.3951273   -1.5849443  0.069139943   -2.3951273     0.810183   424551 
  114000   0.67480497   -2.3959891   -2.3959891   -1.5865731  0.066340034   -2.3959891   0.80941596   424551 
  115000   0.67514014   -2.3965768   -2.3965768   -1.5867588  0.072692907   -2.3965768     0.809818   424551 
  116000   0.67367613   -2.3956075   -2.3956075   -1.5875455  0.065632817   -2.3956075   0.80806195   424551 
  117000   0.67564835   -2.3982186   -2.3982186    -1.587791  0.068843389   -2.3982186   0.81042758   424551 
  118000     0.675454   -2.3990256   -2.3990256   -1.5888311  0.076739329   -2.3990256   0.81019446   424551 
  119000   0.67540824   -2.3994245   -2.3994245   -1.5892849  0.067237488   -2.3994245   0.81013957   424551 
  120000   0.67696152   -2.4014418   -2.4014418   -1.5894391  0.083079742   -2.4014418   0.81200271   424551 
  121000   0.67770928   -2.4034905   -2.4034905   -1.5905909   0.07944036   -2.4034905   0.81289964   424551 
  122000   0.67574918   -2.4017786   -2.4017786     -1.59123  0.074601508   -2.4017786   0.81054852   424551 
  123000   0.67662743   -2.4036113   -2.4036113   -1.5920093  0.079283803   -2.4036113   0.81160197   424551 
  124000   0.67751159   -2.4049505   -2.4049505    -1.592288  0.084676709   -2.4049505    0.8126625   424551 
  125000   0.67571984   -2.4037439   -2.4037439   -1.5932306  0.081052078   -2.4037439   0.81051333   424551 
  126000    0.6739801   -2.4031925   -2.4031925    -1.594766  0.087745662   -2.4031925   0.80842655   424551 
  127000   0.67479787   -2.4052518   -2.4052518   -1.5958443   0.07826926   -2.4052518   0.80940745   424551 
  128000   0.67543486   -2.4069782   -2.4069782   -1.5968067  0.071946545   -2.4069782   0.81017151   424551 
  129000   0.67638905   -2.4088523   -2.4088523   -1.5975362  0.079785714   -2.4088523   0.81131604   424551 
  130000   0.67629407   -2.4091971   -2.4091971    -1.597995  0.068526961   -2.4091971   0.81120211   424551 
  131000   0.67618922   -2.4097076   -2.4097076   -1.5986312  0.076017475   -2.4097076   0.81107635   424551 
  132000   0.67486334   -2.4098866   -2.4098866   -1.6004006  0.075998114   -2.4098866   0.80948599   424551 
  133000   0.67426678    -2.409965    -2.409965   -1.6011946   0.07565913    -2.409965   0.80877042   424551 
  134000   0.67295911   -2.4092565   -2.4092565   -1.6020546  0.078861055   -2.4092565    0.8072019   424551 
  135000   0.67434576   -2.4120511   -2.4120511    -1.603186  0.076793893   -2.4120511   0.80886515   424551 
  136000   0.67424408    -2.412561    -2.412561   -1.6038178  0.073662596    -2.412561   0.80874319   424551 
  137000   0.67360983   -2.4133183   -2.4133183   -1.6053359  0.071858977   -2.4133183   0.80798242   424551 
  138000   0.67383047   -2.4134574   -2.4134574   -1.6052103  0.072621959   -2.4134574   0.80824707   424551 
  139000   0.67283916   -2.4124214   -2.4124214   -1.6053634   0.08134686   -2.4124214   0.80705801   424551 
  140000   0.67135831   -2.4105761   -2.4105761   -1.6052943  0.073734457   -2.4105761   0.80528176   424551 
  141000    0.6711821   -2.4114557   -2.4114557   -1.6063853  0.078628019   -2.4114557   0.80507041   424551 
  142000   0.67284417   -2.4139058   -2.4139058   -1.6068418  0.058141427   -2.4139058   0.80706403   424551 
  143000   0.67273979   -2.4139092   -2.4139092   -1.6069704   0.07178687   -2.4139092   0.80693882   424551 
  144000    0.6739403    -2.415881    -2.415881   -1.6075022  0.086245327    -2.415881   0.80837881   424551 
  145000   0.67236123   -2.4145746   -2.4145746   -1.6080898   0.07578554   -2.4145746   0.80648474   424551 
  146000   0.67248915   -2.4148523   -2.4148523   -1.6082141  0.069633437   -2.4148523   0.80663818   424551 
  147000   0.67262087   -2.4152295   -2.4152295   -1.6084333  0.066450621   -2.4152295   0.80679618   424551 
  148000   0.67144369   -2.4141486   -2.4141486   -1.6087645  0.071740876   -2.4141486   0.80538417   424551 
  149000   0.67203288   -2.4157157   -2.4157157   -1.6096248  0.074925068   -2.4157157    0.8060909   424551 
  150000   0.67199009   -2.4158925   -2.4158925   -1.6098529  0.076540912   -2.4158925   0.80603957   424551 
  151000   0.67267004   -2.4168686   -2.4168686   -1.6100135  0.073706794   -2.4168686   0.80685515   424551 
  152000   0.67186773   -2.4163096   -2.4163096   -1.6104168  0.076647253   -2.4163096    0.8058928   424551 
  153000   0.67263987   -2.4178275   -2.4178275   -1.6110085  0.070921902   -2.4178275   0.80681896   424551 
  154000   0.67077755   -2.4164935   -2.4164935   -1.6119083  0.081563672   -2.4164935   0.80458515   424551 
  155000    0.6707876     -2.41698     -2.41698   -1.6123828  0.071741786     -2.41698   0.80459721   424551 
  156000   0.66998259   -2.4168301   -2.4168301   -1.6131985  0.072109785   -2.4168301   0.80363161   424551 
  157000   0.66956029   -2.4170518   -2.4170518   -1.6139267  0.072484387   -2.4170518   0.80312507   424551 
  158000   0.66941416   -2.4171976   -2.4171976   -1.6142478  0.075789742   -2.4171976   0.80294979   424551 
  159000   0.66847007   -2.4170654   -2.4170654    -1.615248  0.064748247   -2.4170654   0.80181737   424551 
  160000   0.66926834   -2.4192311   -2.4192311   -1.6164563   0.07473932   -2.4192311   0.80277488   424551 
  161000   0.66894172   -2.4187131   -2.4187131     -1.61633  0.059675589   -2.4187131   0.80238311   424551 
  162000   0.66767818   -2.4172335   -2.4172335    -1.616366  0.071161026   -2.4172335   0.80086751   424551 
  163000    0.6698327   -2.4196838   -2.4196838    -1.616232  0.067421745   -2.4196838   0.80345182   424551 
  164000   0.66865519   -2.4192211   -2.4192211   -1.6171817  0.074893076   -2.4192211   0.80203942   424551 
  165000    0.6688639   -2.4199736   -2.4199736   -1.6176838  0.074079735   -2.4199736   0.80228976   424551 
  166000   0.66777515   -2.4186902   -2.4186902   -1.6177063  0.070343674   -2.4186902   0.80098382   424551 
  167000   0.66760217   -2.4184891   -2.4184891   -1.6177128  0.066813877   -2.4184891   0.80077634   424551 
  168000   0.66815743   -2.4198893   -2.4198893   -1.6184469  0.064554475   -2.4198893   0.80144237   424551 
  169000   0.66867881   -2.4213217   -2.4213217   -1.6192539  0.068358631   -2.4213217   0.80206775   424551 
  170000   0.66695191   -2.4194002   -2.4194002   -1.6194038  0.068899958   -2.4194002   0.79999636   424551 
  171000   0.66926363   -2.4217486   -2.4217486   -1.6189794  0.071667698   -2.4217486   0.80276923   424551 
  172000   0.66687188   -2.4202423   -2.4202423   -1.6203419   0.06099076   -2.4202423   0.79990038   424551 
  173000   0.66801346   -2.4213056   -2.4213056   -1.6200359  0.074299692   -2.4213056   0.80126967   424551 
  174000   0.66761618   -2.4218212   -2.4218212   -1.6210281  0.077900231   -2.4218212   0.80079314   424551 
  175000   0.66766871   -2.4228079   -2.4228079   -1.6219517  0.079891925   -2.4228079   0.80085616   424551 
  176000    0.6685296    -2.423421    -2.423421   -1.6215322  0.073972801    -2.423421   0.80188878   424551 
  177000   0.66774492   -2.4233768   -2.4233768   -1.6224292  0.077571902   -2.4233768   0.80094757   424551 
  178000   0.66881461   -2.4253572   -2.4253572   -1.6231266   0.07011888   -2.4253572   0.80223064   424551 
  179000   0.66911749   -2.4265268   -2.4265268   -1.6239329  0.070921017   -2.4265268   0.80259394   424551 
  180000    0.6684856   -2.4268859   -2.4268859   -1.6250499  0.068091287   -2.4268859     0.801836   424551 
  181000   0.66653722   -2.4250219   -2.4250219    -1.625523  0.067908286   -2.4250219   0.79949895   424551 
  182000   0.66855561   -2.4276208   -2.4276208   -1.6257008  0.062468451   -2.4276208   0.80191998   424551 
  183000   0.66909841   -2.4287135   -2.4287135   -1.6261425  0.064453261   -2.4287135   0.80257106   424551 
  184000   0.66960554   -2.4301025   -2.4301025   -1.6269231  0.072308371   -2.4301025   0.80317934   424551 
  185000   0.66835941   -2.4291641   -2.4291641   -1.6274795  0.060908875   -2.4291641   0.80168464   424551 
  186000   0.66643303    -2.427538    -2.427538    -1.628164  0.074321649    -2.427538   0.79937398   424551 
  187000   0.66747455   -2.4290582   -2.4290582    -1.628435  0.075430869   -2.4290582   0.80062327   424551 
  188000   0.66806477   -2.4302877   -2.4302877   -1.6289565  0.073756636   -2.4302877   0.80133122   424551 
  189000   0.66899076   -2.4316262   -2.4316262   -1.6291843  0.071805084   -2.4316262   0.80244193   424551 
  190000   0.66866201    -2.431614    -2.431614   -1.6295664   0.07108156    -2.431614    0.8020476   424551 
  191000   0.66689756   -2.4305896   -2.4305896   -1.6306584  0.072471209   -2.4305896   0.79993117   424551 
  192000   0.66817504   -2.4323293   -2.4323293   -1.6308658  0.076947644   -2.4323293   0.80146349   424551 
  193000   0.66786546   -2.4319981   -2.4319981   -1.6309059  0.076707067   -2.4319981   0.80109216   424551 
  194000   0.66532988   -2.4300538   -2.4300538    -1.632003  0.074181972   -2.4300538   0.79805077   424551 
  195000   0.66675908   -2.4322974   -2.4322974   -1.6325323  0.069159503   -2.4322974   0.79976507   424551 
  196000   0.66610596   -2.4317743   -2.4317743   -1.6327927  0.075748172   -2.4317743   0.79898166   424551 
  197000   0.66514208   -2.4317442   -2.4317442   -1.6339187  0.062964756   -2.4317442   0.79782551   424551 
  198000   0.66704134   -2.4336358   -2.4336358   -1.6335321  0.080474934   -2.4336358   0.80010364   424551 
  199000   0.66668227    -2.433653    -2.433653   -1.6339801  0.072988032    -2.433653   0.79967294   424551 
  200000   0.66514059   -2.4324542   -2.4324542   -1.6346305  0.058966003   -2.4324542   0.79782373   424551 
  201000     0.665705   -2.4339503   -2.4339503   -1.6354495  0.071708826   -2.4339503   0.79850072   424551 
  202000   0.66690236   -2.4360619   -2.4360619   -1.6361249  0.074144388   -2.4360619   0.79993693   424551 
  203000   0.66655217   -2.4360093   -2.4360093   -1.6364924  0.066654448   -2.4360093   0.79951689   424551 
  204000   0.66623504   -2.4367577   -2.4367577   -1.6376212  0.066550061   -2.4367577    0.7991365   424551 
  205000   0.66564564   -2.4367656   -2.4367656   -1.6383361  0.071999074   -2.4367656   0.79842952   424551 
  206000   0.66527127   -2.4372187   -2.4372187   -1.6392382  0.070832207   -2.4372187   0.79798047   424551 
  207000   0.66378684   -2.4360428   -2.4360428   -1.6398429  0.067798529   -2.4360428   0.79619993   424551 
  208000   0.66621861   -2.4389947   -2.4389947   -1.6398779  0.068065771   -2.4389947   0.79911679   424551 
  209000   0.66387781    -2.436701    -2.436701    -1.640392  0.064572903    -2.436701   0.79630905   424551 
  210000   0.66558538   -2.4389442   -2.4389442    -1.640587    0.0657112   -2.4389442   0.79835724   424551 
  211000   0.66463738   -2.4385253   -2.4385253   -1.6413052  0.077813673   -2.4385253   0.79722014   424551 
  212000   0.66448689   -2.4388666   -2.4388666    -1.641827  0.072466618   -2.4388666   0.79703962   424551 
  213000   0.66304955   -2.4378866   -2.4378866    -1.642571  0.076326451   -2.4378866   0.79531556   424551 
  214000    0.6636347   -2.4387386   -2.4387386   -1.6427211  0.064561105   -2.4387386   0.79601743   424551 
  215000    0.6659689    -2.442345    -2.442345   -1.6435277    0.0774446    -2.442345   0.79881727   424551 
  216000   0.66440198   -2.4414381   -2.4414381   -1.6445003  0.070923088   -2.4414381   0.79693777   424551 
  217000   0.66351463   -2.4414606   -2.4414606   -1.6455872   0.07597104   -2.4414606   0.79587341   424551 
  218000   0.66396344   -2.4418463   -2.4418463   -1.6454345  0.074186473   -2.4418463   0.79641176   424551 
  219000    0.6647763   -2.4430089   -2.4430089   -1.6456221  0.059748606   -2.4430089   0.79738676   424551 
  220000    0.6642955   -2.4435906   -2.4435906   -1.6467806   0.06454519   -2.4435906   0.79681006   424551 
  221000   0.66335127    -2.442958    -2.442958   -1.6472805   0.07320073    -2.442958   0.79567746   424551 
  222000   0.66340979    -2.443453    -2.443453   -1.6477054  0.068590236    -2.443453   0.79574766   424551 
  223000   0.66338507   -2.4433133   -2.4433133   -1.6475953  0.059651963   -2.4433133   0.79571801   424551 
  224000   0.66397028   -2.4441289   -2.4441289    -1.647709  0.059869332   -2.4441289   0.79641995   424551 
  225000   0.66477644   -2.4453731   -2.4453731   -1.6479862  0.068241174   -2.4453731   0.79738693   424551 
  226000   0.66408199   -2.4441228   -2.4441228   -1.6475689  0.071012774   -2.4441228   0.79655395   424551 
  227000   0.66237868   -2.4427539   -2.4427539   -1.6482431  0.063566508   -2.4427539   0.79451087   424551 
  228000   0.66364766   -2.4444243   -2.4444243   -1.6483913  0.062586468   -2.4444243   0.79603299   424551 
  229000    0.6623757   -2.4438067   -2.4438067   -1.6492994   0.06099561   -2.4438067   0.79450729   424551 
  230000   0.66205439   -2.4447865   -2.4447865   -1.6506646   0.06096278   -2.4447865   0.79412189   424551 
  231000   0.66118957   -2.4440692   -2.4440692   -1.6509846  0.073380221   -2.4440692   0.79308454   424551 
  232000   0.66213097   -2.4459535   -2.4459535   -1.6517398    0.0702673   -2.4459535   0.79421374   424551 
  233000   0.66117333    -2.445627    -2.445627   -1.6525619  0.071351627    -2.445627   0.79306507   424551 
  234000   0.66231301   -2.4471489   -2.4471489   -1.6527168  0.059740038   -2.4471489    0.7944321   424551 
  235000   0.66237554   -2.4465127   -2.4465127   -1.6520056  0.064586859   -2.4465127   0.79450709   424551 
  236000   0.66288533   -2.4476834   -2.4476834   -1.6525648  0.068294618   -2.4476834   0.79511858   424551 
  237000   0.66051481    -2.445959    -2.445959   -1.6536839  0.068990222    -2.445959   0.79227518   424551 
  238000   0.66108017   -2.4461348   -2.4461348   -1.6531815  0.063182215   -2.4461348   0.79295332   424551 
  239000   0.66141846   -2.4468826   -2.4468826   -1.6535235  0.064565098   -2.4468826    0.7933591   424551 
  240000   0.66220462   -2.4490085   -2.4490085   -1.6547064  0.062640749   -2.4490085   0.79430209   424551 
  241000   0.66231725   -2.4491034   -2.4491034   -1.6546662  0.073877288   -2.4491034   0.79443718   424551 
  242000   0.66253653   -2.4501175   -2.4501175   -1.6554173  0.065162848   -2.4501175    0.7947002   424551 
  243000   0.66202627   -2.4500402   -2.4500402    -1.655952  0.066830417   -2.4500402   0.79408816   424551 
  244000   0.65997305   -2.4490707   -2.4490707   -1.6574454  0.072565468   -2.4490707   0.79162535   424551 
  245000   0.66052701   -2.4498584   -2.4498584   -1.6575686  0.068515538   -2.4498584   0.79228982   424551 
  246000   0.66115689   -2.4507943   -2.4507943    -1.657749  0.059562125   -2.4507943   0.79304535   424551 
  247000   0.66079556   -2.4513779   -2.4513779    -1.658766  0.069715601   -2.4513779   0.79261194   424551 
  248000    0.6606548   -2.4514603   -2.4514603   -1.6590172  0.066777006   -2.4514603    0.7924431   424551 
  249000   0.66026499   -2.4513219   -2.4513219   -1.6593464  0.073312496   -2.4513219   0.79197553   424551 
  250000   0.66019899   -2.4520738   -2.4520738   -1.6601775  0.071294202   -2.4520738   0.79189636   424551 
  251000   0.66065689   -2.4525857   -2.4525857   -1.6601401  0.075563228   -2.4525857   0.79244561   424551 
  252000   0.66053472   -2.4527815   -2.4527815   -1.6604825  0.062131043   -2.4527815   0.79229907   424551 
  253000   0.66142522   -2.4540866   -2.4540866   -1.6607194   0.06215302   -2.4540866    0.7933672   424551 
  254000   0.66037989   -2.4529733   -2.4529733   -1.6608599  0.074535341   -2.4529733   0.79211336   424551 
  255000   0.66239765     -2.45606     -2.45606   -1.6615264  0.071826623     -2.45606   0.79453362   424551 
  256000   0.66188648   -2.4560322   -2.4560322   -1.6621118  0.069549976   -2.4560322   0.79392048   424551 
  257000   0.66182282   -2.4551797   -2.4551797   -1.6613356  0.073971466   -2.4551797   0.79384412   424551 
  258000   0.66167551   -2.4557244   -2.4557244    -1.662057  0.063869898   -2.4557244   0.79366743   424551 
  259000   0.66134543   -2.4552263   -2.4552263   -1.6619548  0.069233859   -2.4552263    0.7932715   424551 
  260000   0.66070315   -2.4557291   -2.4557291    -1.663228   0.06542759   -2.4557291   0.79250109   424551 
  261000   0.66131333   -2.4571152   -2.4571152   -1.6638822  0.060195359   -2.4571152     0.793233   424551 
  262000   0.66028439   -2.4557193   -2.4557193   -1.6637205  0.075454055   -2.4557193    0.7919988   424551 
  263000   0.66038433   -2.4566743   -2.4566743   -1.6645557  0.074565063   -2.4566743   0.79211867   424551 
  264000   0.65925547   -2.4564802   -2.4564802   -1.6657156  0.070468945   -2.4564802   0.79076463   424551 
  265000   0.66059606   -2.4585559   -2.4585559   -1.6661832  0.071475369   -2.4585559   0.79237264   424551 
  266000   0.66094078   -2.4591027   -2.4591027   -1.6663166   0.06015078   -2.4591027   0.79278613   424551 
  267000   0.66044155   -2.4586209   -2.4586209   -1.6664336  0.069763886   -2.4586209   0.79218732   424551 
  268000   0.66190215   -2.4609387   -2.4609387   -1.6669995  0.061989229   -2.4609387   0.79393927   424551 
  269000   0.66045042   -2.4603311   -2.4603311   -1.6681331  0.067806889   -2.4603311   0.79219795   424551 
  270000   0.66038355   -2.4598131   -2.4598131   -1.6676953  0.068216608   -2.4598131   0.79211774   424551 
  271000   0.66009241   -2.4598773   -2.4598773   -1.6681088  0.060721164   -2.4598773   0.79176853   424551 
  272000   0.66032161   -2.4606687   -2.4606687   -1.6686253  0.069271362   -2.4606687   0.79204345   424551 
  273000   0.65942108   -2.4608058   -2.4608058   -1.6698425  0.064010143   -2.4608058   0.79096328   424551 
  274000   0.65972345   -2.4616168   -2.4616168   -1.6702908  0.067866242   -2.4616168   0.79132596   424551 
  275000   0.65839835   -2.4609749   -2.4609749   -1.6712384  0.066944773   -2.4609749   0.78973653   424551 
  276000     0.659476   -2.4625032   -2.4625032    -1.671474   0.06449915   -2.4625032   0.79102916   424551 
  277000   0.65774806   -2.4612275   -2.4612275    -1.672271  0.067714437   -2.4612275   0.78895652   424551 
  278000   0.65875401   -2.4629074   -2.4629074   -1.6727442  0.069435936   -2.4629074   0.79016314   424551 
  279000    0.6602537   -2.4657144   -2.4657144   -1.6737524  0.069773934   -2.4657144   0.79196199   424551 
  280000   0.65971783   -2.4649771   -2.4649771   -1.6736578  0.065714375   -2.4649771   0.79131922   424551 
  281000   0.66008125   -2.4659647   -2.4659647   -1.6742095  0.071305736   -2.4659647   0.79175514   424551 
  282000   0.65910182   -2.4658966   -2.4658966   -1.6753163  0.058115034   -2.4658966   0.79058033   424551 
  283000   0.65753904   -2.4646605   -2.4646605   -1.6759547  0.068846767   -2.4646605    0.7887058   424551 
  284000   0.65906242   -2.4662308   -2.4662308   -1.6756977  0.061649844   -2.4662308   0.79053307   424551 
  285000    0.6584238   -2.4659391   -2.4659391   -1.6761721  0.062152167   -2.4659391   0.78976706   424551 
  286000     0.658375   -2.4660146   -2.4660146   -1.6763061  0.059489385   -2.4660146   0.78970853   424551 
  287000    0.6595843   -2.4676091   -2.4676091   -1.6764501  0.074555875   -2.4676091   0.79115906   424551 
  288000   0.65991244   -2.4681487   -2.4681487   -1.6765961  0.072101464   -2.4681487   0.79155266   424551 
  289000   0.65961389   -2.4687098   -2.4687098   -1.6775153  0.066866417   -2.4687098   0.79119455   424551 
  290000   0.65906105   -2.4688622   -2.4688622   -1.6783307  0.066625159   -2.4688622   0.79053143   424551 
  291000   0.65750238   -2.4668739   -2.4668739   -1.6782121  0.067051453   -2.4668739   0.78866183   424551 
  292000   0.65899363   -2.4694888   -2.4694888   -1.6790382  0.071094206   -2.4694888   0.79045056   424551 
  293000   0.65949017   -2.4701694   -2.4701694   -1.6791232  0.058895915   -2.4701694   0.79104615   424551 
  294000   0.65972732    -2.469915    -2.469915   -1.6785843   0.07282437    -2.469915    0.7913306   424551 
  295000   0.65952361   -2.4694466   -2.4694466   -1.6783603  0.067531498   -2.4694466   0.79108626   424551 
  296000   0.65967631   -2.4692684   -2.4692684   -1.6779989   0.07020014   -2.4692684   0.79126942   424551 
  297000    0.6582711   -2.4683297   -2.4683297   -1.6787458  0.071011967   -2.4683297    0.7895839   424551 
  298000   0.65844472   -2.4699904   -2.4699904   -1.6801983  0.062138022   -2.4699904   0.78979215   424551 
  299000   0.65652371   -2.4676709   -2.4676709    -1.680183  0.067078259   -2.4676709   0.78748793   424551 
  300000   0.65858802   -2.4705111   -2.4705111    -1.680547  0.057454666   -2.4705111   0.78996404   424551 
  301000   0.65711541   -2.4692555   -2.4692555   -1.6810579  0.075833007   -2.4692555   0.78819767   424551 
  302000   0.65722363    -2.468702    -2.468702   -1.6803745  0.060378304    -2.468702   0.78832747   424551 
  303000   0.65890347   -2.4715521   -2.4715521   -1.6812097   0.07303454   -2.4715521   0.79034242   424551 
  304000   0.65728957   -2.4702969   -2.4702969   -1.6818903  0.071524401   -2.4702969   0.78840657   424551 
  305000   0.65810175   -2.4713703   -2.4713703   -1.6819895  0.074000758   -2.4713703   0.78938077   424551 
  306000   0.65700433   -2.4709783   -2.4709783   -1.6829138  0.060112111   -2.4709783   0.78806443   424551 
  307000   0.65778157   -2.4724139   -2.4724139   -1.6834172  0.053820433   -2.4724139   0.78899671   424551 
  308000   0.65740123   -2.4727837   -2.4727837   -1.6842432  0.053564941   -2.4727837   0.78854051   424551 
  309000   0.65858923   -2.4741984   -2.4741984   -1.6842329  0.057173349   -2.4741984   0.78996548   424551 
  310000   0.65782101    -2.473374    -2.473374     -1.68433  0.059959503    -2.473374   0.78904402   424551 
  311000   0.65712654   -2.4736869   -2.4736869   -1.6854759  0.064795518   -2.4736869   0.78821102   424551 
  312000   0.65796979   -2.4753296   -2.4753296   -1.6861072  0.067275675   -2.4753296   0.78922248   424551 
  313000   0.65782534   -2.4761615   -2.4761615   -1.6871123  0.070476859   -2.4761615   0.78904922   424551 
  314000   0.65841579   -2.4772672   -2.4772672   -1.6875098  0.065596203   -2.4772672   0.78975745   424551 
  315000   0.65634655   -2.4744385   -2.4744385   -1.6871631  0.065650579   -2.4744385   0.78727544   424551 
  316000   0.65686951   -2.4749509   -2.4749509   -1.6870482  0.068637935   -2.4749509   0.78790271   424551 
  317000   0.65828755   -2.4774503   -2.4774503   -1.6878467  0.073872318   -2.4774503   0.78960363   424551 
  318000   0.65708456   -2.4769967   -2.4769967   -1.6888361  0.066065741   -2.4769967   0.78816066   424551 
  319000   0.65581871   -2.4756856   -2.4756856   -1.6890433  0.064592236   -2.4756856    0.7866423   424551 
  320000   0.65676213   -2.4767636   -2.4767636   -1.6889897  0.068514491   -2.4767636   0.78777391   424551 
  321000   0.65559866    -2.475256    -2.475256   -1.6888776  0.065460888    -2.475256   0.78637835   424551 
  322000   0.65731266   -2.4771075   -2.4771075   -1.6886733  0.063336006   -2.4771075   0.78843427   424551 
  323000   0.65783154   -2.4780386   -2.4780386   -1.6889819  0.069404145   -2.4780386   0.78905666   424551 
  324000   0.65698945   -2.4773229   -2.4773229   -1.6892763  0.065514443   -2.4773229   0.78804658   424551 
  325000   0.65741716   -2.4778745   -2.4778745   -1.6893149  0.062960711   -2.4778745   0.78855961   424551 
  326000   0.65696187   -2.4778184   -2.4778184   -1.6898049  0.058259141   -2.4778184    0.7880135   424551 
  327000   0.65604337   -2.4767155   -2.4767155   -1.6898038  0.071204457   -2.4767155   0.78691178   424551 
  328000   0.65601978   -2.4765927   -2.4765927   -1.6897092  0.064268674   -2.4765927   0.78688348   424551 
  329000   0.65520264    -2.475958    -2.475958   -1.6900546  0.070869237    -2.475958   0.78590333   424551 
  330000   0.65500173   -2.4766879   -2.4766879   -1.6910255  0.061090226   -2.4766879   0.78566235   424551 
  331000   0.65616827   -2.4783766   -2.4783766    -1.691315  0.048160089   -2.4783766   0.78706159   424551 
  332000   0.65630969   -2.4791323   -2.4791323   -1.6919011  0.069083216   -2.4791323   0.78723122   424551 
  333000   0.65535198   -2.4792395   -2.4792395    -1.693157  0.060051694   -2.4792395   0.78608246   424551 
  334000   0.65580232   -2.4800723   -2.4800723   -1.6934497  0.064198673   -2.4800723   0.78662264   424551 
  335000   0.65527962   -2.4794413   -2.4794413   -1.6934456  0.063366324   -2.4794413   0.78599568   424551 
  336000   0.65549557   -2.4808319   -2.4808319   -1.6945772  0.062896895   -2.4808319    0.7862547   424551 
  337000   0.65491963   -2.4805396   -2.4805396   -1.6949757  0.056839333   -2.4805396   0.78556388   424551 
  338000   0.65435583   -2.4801513   -2.4801513   -1.6952637  0.069768255   -2.4801513   0.78488761   424551 
  339000    0.6549335   -2.4816617   -2.4816617   -1.6960812  0.057589301   -2.4816617    0.7855805   424551 
  340000   0.65561281   -2.4822513   -2.4822513   -1.6958559  0.058399126   -2.4822513   0.78639533   424551 
  341000   0.65433544   -2.4813302   -2.4813302    -1.696467  0.058725929   -2.4813302   0.78486315   424551 
  342000   0.65479826   -2.4827347   -2.4827347   -1.6973164  0.064677696   -2.4827347   0.78541829   424551 
  343000   0.65570389   -2.4839578   -2.4839578   -1.6974533  0.071685911   -2.4839578   0.78650458   424551 
  344000   0.65558838   -2.4844454   -2.4844454   -1.6980793  0.060719761   -2.4844454   0.78636603   424551 
  345000   0.65607527   -2.4842109   -2.4842109   -1.6972609  0.059760644   -2.4842109   0.78695004   424551 
  346000   0.65548038    -2.483878    -2.483878   -1.6976415  0.064228711    -2.483878   0.78623648   424551 
  347000   0.65538433   -2.4839987   -2.4839987   -1.6978775  0.060278165   -2.4839987   0.78612127   424551 
  348000   0.65438329   -2.4836666   -2.4836666   -1.6987461    0.0620983   -2.4836666   0.78492054   424551 
  349000   0.65312231   -2.4820547   -2.4820547   -1.6986466  0.054029354   -2.4820547   0.78340802   424551 
  350000   0.65330484   -2.4819757   -2.4819757   -1.6983488  0.066193764   -2.4819757   0.78362696   424551 
  351000   0.65535692   -2.4849059   -2.4849059   -1.6988175  0.062925099   -2.4849059    0.7860884   424551 
  352000     0.655131   -2.4852942   -2.4852942   -1.6994767   0.05633834   -2.4852942   0.78581741   424551 
  353000   0.65440968   -2.4849283   -2.4849283   -1.6999761  0.064221748   -2.4849283    0.7849522   424551 
  354000   0.65452864   -2.4855591   -2.4855591   -1.7004642  0.068807292   -2.4855591   0.78509489   424551 
  355000   0.65384342   -2.4849493   -2.4849493   -1.7006764  0.065184832   -2.4849493   0.78427297   424551 
  356000   0.65392682   -2.4849597   -2.4849597   -1.7005867  0.065001325   -2.4849597   0.78437302   424551 
  357000   0.65447715   -2.4862755   -2.4862755   -1.7012424  0.064863173   -2.4862755   0.78503313   424551 
  358000   0.65325208   -2.4853123   -2.4853123   -1.7017486  0.069114876   -2.4853123   0.78356367   424551 
  359000   0.65359188   -2.4857943   -2.4857943    -1.701823  0.068564113   -2.4857943   0.78397126   424551 
  360000   0.65420691   -2.4864017   -2.4864017   -1.7016928  0.064255083   -2.4864017   0.78470898   424551 
  361000    0.6547365   -2.4874158   -2.4874158   -1.7020716  0.067014049   -2.4874158   0.78534422   424551 
  362000   0.65415035   -2.4875578   -2.4875578   -1.7029167  0.064053396   -2.4875578   0.78464113   424551 
  363000   0.65316374   -2.4863834   -2.4863834   -1.7029256  0.060266461   -2.4863834   0.78345771   424551 
  364000   0.65483802   -2.4885584   -2.4885584   -1.7030925  0.057337473   -2.4885584   0.78546598   424551 
  365000   0.65342935    -2.487704    -2.487704   -1.7039277  0.067888776    -2.487704    0.7837763   424551 
  366000   0.65421055   -2.4886449   -2.4886449   -1.7039316  0.059610638   -2.4886449   0.78471334   424551 
  367000   0.65464088   -2.4896283   -2.4896283   -1.7043988   0.06029452   -2.4896283   0.78522952   424551 
  368000   0.65304274   -2.4877891   -2.4877891   -1.7044766  0.072267127   -2.4877891   0.78331258   424551 
  369000   0.65458471   -2.4902799   -2.4902799   -1.7051177  0.059988684   -2.4902799   0.78516215   424551 
  370000   0.65318653   -2.4885885   -2.4885885   -1.7051035  0.056166244   -2.4885885   0.78348505   424551 
  371000    0.6541893   -2.4903834   -2.4903834   -1.7056956  0.065209201   -2.4903834   0.78468785   424551 
  372000   0.65434241    -2.490761    -2.490761   -1.7058895  0.067847943    -2.490761   0.78487151   424551 
  373000   0.65400424   -2.4912215   -2.4912215   -1.7067556  0.062735814   -2.4912215   0.78446587   424551 
  374000   0.65275093   -2.4903632   -2.4903632   -1.7074007  0.064322041   -2.4903632   0.78296256   424551 
  375000   0.65256024   -2.4904775   -2.4904775   -1.7077437  0.065256966   -2.4904775   0.78273382   424551 
  376000   0.65315145   -2.4921366   -2.4921366   -1.7086936  0.073615129   -2.4921366   0.78344298   424551 
  377000   0.65319346   -2.4918168   -2.4918168   -1.7083235  0.058720716   -2.4918168   0.78349337   424551 
  378000   0.65266173   -2.4908508   -2.4908508   -1.7079953  0.061459886   -2.4908508   0.78285557   424551 
  379000   0.65417049   -2.4933944   -2.4933944   -1.7087291  0.055880306   -2.4933944   0.78466529   424551 
  380000   0.65152551   -2.4901066   -2.4901066   -1.7086139  0.058714168   -2.4901066   0.78149269   424551 
  381000   0.65221614   -2.4917225   -2.4917225   -1.7094015  0.065752346   -2.4917225   0.78232109   424551 
  382000   0.65155412   -2.4913244   -2.4913244   -1.7097974  0.061922432   -2.4913244   0.78152701   424551 
  383000   0.65247682   -2.4924764   -2.4924764   -1.7098426  0.077920864   -2.4924764   0.78263376   424551 
  384000   0.65196486   -2.4923081   -2.4923081   -1.7102885   0.06518106   -2.4923081   0.78201968   424551 
  385000   0.65170683   -2.4927755   -2.4927755   -1.7110654  0.065192145   -2.4927755   0.78171018   424551 
  386000   0.65327105     -2.49444     -2.49444   -1.7108536  0.062542541     -2.49444   0.78358643   424551 
  387000   0.65308928   -2.4948467   -2.4948467   -1.7114783  0.058477195   -2.4948467    0.7833684   424551 
  388000   0.65366449   -2.4951677   -2.4951677   -1.7111093  0.059625976   -2.4951677   0.78405836   424551 
  389000   0.65302025   -2.4948556   -2.4948556     -1.71157  0.072015987   -2.4948556    0.7832856   424551 
  390000    0.6510249   -2.4934301   -2.4934301   -1.7125379  0.064906473   -2.4934301   0.78089221   424551 
  391000   0.65250584   -2.4946565   -2.4946565   -1.7119879  0.061053937   -2.4946565   0.78266857   424551 
  392000   0.65317465   -2.4956006   -2.4956006   -1.7121298  0.066643942   -2.4956006    0.7834708   424551 
  393000   0.65423275   -2.4973265   -2.4973265   -1.7125865  0.071420016   -2.4973265   0.78473998   424551 
  394000   0.65375432   -2.4968142   -2.4968142   -1.7126481   0.06239175   -2.4968142   0.78416611   424551 
  395000   0.65387141   -2.4977702   -2.4977702   -1.7134636  0.060232468   -2.4977702   0.78430655   424551 
  396000   0.65440572   -2.4982295   -2.4982295    -1.713282  0.058701333   -2.4982295   0.78494745   424551 
  397000    0.6523381   -2.4957515   -2.4957515   -1.7132842  0.062544407   -2.4957515   0.78246737   424551 
  398000   0.65251599   -2.4968629   -2.4968629   -1.7141822  0.055103162   -2.4968629   0.78268075   424551 
  399000   0.65232692   -2.4968124   -2.4968124   -1.7143584  0.052067362   -2.4968124   0.78245396   424551 
  400000   0.65295668   -2.4985103   -2.4985103   -1.7153009  0.057031255   -2.4985103   0.78320935   424551 
  401000   0.65041043   -2.4967149   -2.4967149   -1.7165597  0.064432731   -2.4967149   0.78015517   424551 
  402000    0.6501833   -2.4963035   -2.4963035   -1.7164208  0.056161326   -2.4963035   0.77988274   424551 
  403000   0.65216666    -2.498462    -2.498462   -1.7162003  0.063254407    -2.498462   0.78226174   424551 
  404000   0.65076317   -2.4977484   -2.4977484   -1.7171701  0.066902321   -2.4977484   0.78057827   424551 
  405000   0.65179803   -2.4991863   -2.4991863   -1.7173667  0.063192986   -2.4991863   0.78181957   424551 
  406000   0.65220649   -2.5003871   -2.5003871   -1.7180776  0.064872245   -2.5003871   0.78230951   424551 
  407000   0.65128625   -2.4998508   -2.4998508   -1.7186451  0.054918861   -2.4998508    0.7812057   424551 
  408000   0.65114865   -2.4999741   -2.4999741   -1.7189334  0.051336123   -2.4999741   0.78104065   424551 
  409000   0.65234813   -2.5013355   -2.5013355   -1.7188561  0.067260253   -2.5013355   0.78247941   424551 
  410000   0.65109577   -2.4998965   -2.4998965   -1.7189192  0.071181076   -2.4998965   0.78097722   424551 
  411000   0.65145296   -2.5010056   -2.5010056      -1.7196  0.050764156   -2.5010056   0.78140567   424551 
  412000   0.65073321   -2.5006746   -2.5006746   -1.7201322  0.058596669   -2.5006746   0.78054234   424551 
  413000   0.65109758   -2.5012956   -2.5012956   -1.7203162  0.057582457   -2.5012956   0.78097939   424551 
  414000    0.6515486   -2.5024363   -2.5024363   -1.7209159  0.061047936   -2.5024363   0.78152039   424551 
  415000   0.65215754   -2.5034798   -2.5034798    -1.721229  0.059214187   -2.5034798    0.7822508   424551 
  416000    0.6525247   -2.5042983   -2.5042983   -1.7216071  0.056877699   -2.5042983    0.7826912   424551 
  417000   0.65271837   -2.5050091   -2.5050091   -1.7220856  0.052482206   -2.5050091   0.78292351   424551 
  418000   0.65071366   -2.5020655   -2.5020655   -1.7215466  0.057820972   -2.5020655   0.78051889   424551 
  419000   0.65228619   -2.5039188   -2.5039188   -1.7215137  0.070364631   -2.5039188   0.78240511   424551 
  420000   0.65120443   -2.5022275   -2.5022275   -1.7211199  0.069952347   -2.5022275   0.78110756   424551 
  421000   0.65242065   -2.5030159   -2.5030159   -1.7204495  0.067609677   -2.5030159   0.78256639   424551 
  422000   0.65127152   -2.5034797   -2.5034797   -1.7222916  0.064870651   -2.5034797   0.78118803   424551 
  423000   0.65083448   -2.5024603   -2.5024603   -1.7217965  0.056604348   -2.5024603   0.78066381   424551 
  424000     0.651738   -2.5040599   -2.5040599   -1.7223124  0.063954311   -2.5040599   0.78174757   424551 
  425000   0.65074908   -2.5028998   -2.5028998   -1.7223385   0.05467415   -2.5028998   0.78056138   424551 
  426000   0.65074853   -2.5029804   -2.5029804   -1.7224196  0.062063501   -2.5029804   0.78056071   424551 
  427000   0.65091027   -2.5034179   -2.5034179   -1.7226632  0.064040075   -2.5034179   0.78075472   424551 
  428000   0.65126709   -2.5036068   -2.5036068    -1.722424  0.063381049   -2.5036068   0.78118272   424551 
  429000   0.65003896   -2.5027991   -2.5027991   -1.7230895  0.067590798   -2.5027991    0.7797096   424551 
  430000   0.65101479   -2.5043836   -2.5043836   -1.7235035  0.057321941   -2.5043836   0.78088009   424551 
  431000   0.65134117    -2.504735    -2.504735   -1.7234634  0.070786767    -2.504735   0.78127158   424551 
  432000   0.65091281   -2.5045502   -2.5045502   -1.7237925  0.068290273   -2.5045502   0.78075777   424551 
  433000   0.65065899   -2.5044596   -2.5044596   -1.7240063  0.062495492   -2.5044596   0.78045331   424551 
  434000    0.6498164   -2.5040854   -2.5040854   -1.7246428  0.057775348   -2.5040854   0.77944265   424551 
  435000   0.65040104    -2.505461    -2.505461   -1.7253171  0.055154103    -2.505461   0.78014391   424551 
  436000   0.65052144   -2.5058794   -2.5058794   -1.7255911  0.057265874   -2.5058794   0.78028833   424551 
  437000   0.65096645   -2.5069878   -2.5069878   -1.7261657  0.068616429   -2.5069878    0.7808221   424551 
  438000   0.65035007   -2.5074847   -2.5074847   -1.7274019  0.059278048   -2.5074847   0.78008277   424551 
  439000   0.64953826   -2.5073647   -2.5073647   -1.7282556   0.07346524   -2.5073647   0.77910902   424551 
  440000   0.65114619   -2.5100289   -2.5100289   -1.7289912  0.061796713   -2.5100289    0.7810377   424551 
  441000   0.65051541     -2.50922     -2.50922   -1.7289389  0.066384649     -2.50922   0.78028109   424551 
  442000   0.65076194   -2.5103372   -2.5103372   -1.7297604  0.056451877   -2.5103372    0.7805768   424551 
  443000   0.65021606   -2.5098969   -2.5098969   -1.7299749  0.061414488   -2.5098969   0.77992203   424551 
  444000   0.65008362   -2.5098701   -2.5098701   -1.7301069  0.062863081   -2.5098701   0.77976317   424551 
  445000   0.64963768   -2.5092057   -2.5092057   -1.7299774  0.062853671   -2.5092057   0.77922827   424551 
  446000   0.65046731   -2.5104946   -2.5104946   -1.7302712  0.059115269   -2.5104946    0.7802234   424551 
  447000   0.64989451   -2.5092538   -2.5092538   -1.7297174  0.064572225   -2.5092538   0.77953634   424551 
  448000   0.64944272   -2.5091464   -2.5091464    -1.730152  0.062901734   -2.5091464   0.77899441   424551 
  449000   0.64891607   -2.5088864   -2.5088864   -1.7305237  0.050559955   -2.5088864   0.77836272   424551 
  450000   0.64977536   -2.5107707   -2.5107707   -1.7313773  0.055392074   -2.5107707   0.77939342   424551 
  451000   0.64996261   -2.5114503   -2.5114503   -1.7318323  0.059994272   -2.5114503   0.77961802   424551 
  452000   0.64887762   -2.5108797   -2.5108797   -1.7325631  0.052197743   -2.5108797   0.77831659   424551 
  453000   0.64896622   -2.5104714   -2.5104714   -1.7320485  0.060508921   -2.5104714   0.77842287   424551 
  454000   0.64879248    -2.510577    -2.510577   -1.7323625  0.070380263    -2.510577   0.77821447   424551 
  455000    0.6497963   -2.5121981   -2.5121981   -1.7327796  0.055332827   -2.5121981   0.77941853   424551 
  456000   0.64970413    -2.513037    -2.513037    -1.733729  0.059525395    -2.513037   0.77930798   424551 
  457000     0.648634   -2.5127845   -2.5127845   -1.7347601   0.05872734   -2.5127845   0.77802438   424551 
  458000   0.64785975   -2.5118606   -2.5118606   -1.7347649  0.064082009   -2.5118606   0.77709567   424551 
  459000   0.64833839    -2.512911    -2.512911   -1.7352412  0.068631706    -2.512911    0.7776698   424551 
  460000   0.64995661   -2.5144197   -2.5144197   -1.7348089  0.063853757   -2.5144197   0.77961083   424551 
  461000    0.6500149   -2.5138619   -2.5138619   -1.7341812  0.063322563   -2.5138619   0.77968074   424551 
  462000   0.64897157   -2.5135625   -2.5135625   -1.7351332  0.060174126   -2.5135625   0.77842928   424551 
  463000   0.65057205   -2.5153851   -2.5153851   -1.7350361  0.053509787   -2.5153851   0.78034903   424551 
  464000   0.65059448   -2.5161739   -2.5161739   -1.7357979  0.059712952   -2.5161739   0.78037594   424551 
  465000   0.64814795   -2.5142575   -2.5142575   -1.7368161  0.064716003   -2.5142575   0.77744137   424551 
  466000   0.64798316   -2.5143359   -2.5143359   -1.7370921  0.057146179   -2.5143359   0.77724371   424551 
  467000   0.64968528   -2.5165948   -2.5165948   -1.7373095   0.05874286   -2.5165948   0.77928536   424551 
  468000   0.64975441   -2.5173515   -2.5173515   -1.7379832  0.054251768   -2.5173515   0.77936829   424551 
  469000    0.6483765   -2.5158883   -2.5158883   -1.7381728  0.054912069   -2.5158883   0.77771551   424551 
  470000   0.64840101   -2.5166201   -2.5166201   -1.7388752  0.055852502   -2.5166201    0.7777449   424551 
  471000    0.6480288   -2.5164446   -2.5164446   -1.7391462   0.06191774   -2.5164446   0.77729845   424551 
  472000   0.64736846    -2.516204    -2.516204   -1.7396976  0.072356629    -2.516204   0.77650638   424551 
  473000    0.6483502   -2.5178927   -2.5178927   -1.7402087  0.055562817   -2.5178927   0.77768396   424551 
  474000   0.64676529   -2.5166854   -2.5166854   -1.7409025  0.062305928   -2.5166854    0.7757829   424551 
  475000   0.64861478   -2.5188269   -2.5188269   -1.7408256  0.057867963   -2.5188269   0.77800132   424551 
  476000   0.64770414    -2.517303    -2.517303   -1.7403939  0.063411427    -2.517303   0.77690902   424551 
  477000   0.64755497   -2.5179205   -2.5179205   -1.7411904  0.068595582   -2.5179205    0.7767301   424551 
  478000   0.64821024    -2.518655    -2.518655   -1.7411389  0.051871243    -2.518655   0.77751608   424551 
  479000   0.64680815   -2.5170584   -2.5170584   -1.7412241   0.05802566   -2.5170584    0.7758343   424551 
  480000   0.64711557   -2.5169816   -2.5169816   -1.7407785  0.056380371   -2.5169816   0.77620305   424551 
  481000    0.6480355    -2.518298    -2.518298   -1.7409915  0.056507107    -2.518298   0.77730649   424551 
  482000   0.64807729   -2.5175321   -2.5175321   -1.7401755  0.054105938   -2.5175321   0.77735662   424551 
  483000   0.64845918   -2.5188927   -2.5188927    -1.741078  0.061133867   -2.5188927   0.77781468   424551 
  484000   0.64799525   -2.5184658   -2.5184658   -1.7412076  0.060694277   -2.5184658   0.77725821   424551 
  485000   0.64793741   -2.5186962   -2.5186962   -1.7415073  0.058423805   -2.5186962   0.77718883   424551 
  486000   0.64618889   -2.5175386   -2.5175386   -1.7424471  0.058634363   -2.5175386   0.77509151   424551 
  487000   0.64862847   -2.5204126   -2.5204126   -1.7423949  0.047900617   -2.5204126   0.77801774   424551 
  488000   0.64622445   -2.5178515   -2.5178515   -1.7427173  0.068711277   -2.5178515   0.77513416   424551 
  489000   0.64766612   -2.5196649   -2.5196649   -1.7428015  0.052572567   -2.5196649   0.77686342   424551 
  490000   0.64691811   -2.5183878   -2.5183878   -1.7424216  0.056245473   -2.5183878   0.77596619   424551 
  491000    0.6473852   -2.5196163   -2.5196163   -1.7430899  0.055891264   -2.5196163   0.77652647   424551 
  492000   0.64684742   -2.5194759   -2.5194759   -1.7435945  0.052445007   -2.5194759   0.77588141   424551 
  493000   0.64709502   -2.5195612   -2.5195612   -1.7433828   0.06104259   -2.5195612   0.77617839   424551 
  494000   0.64692645   -2.5204142   -2.5204142    -1.744438  0.057271947   -2.5204142    0.7759762   424551 
  495000   0.64711145   -2.5210655   -2.5210655   -1.7448674  0.061232202   -2.5210655    0.7761981   424551 
  496000   0.64531767   -2.5194055   -2.5194055    -1.745359    0.0523689   -2.5194055    0.7740465   424551 
  497000   0.64578851   -2.5203675   -2.5203675   -1.7457562  0.051328896   -2.5203675   0.77461127   424551 
  498000   0.64713075   -2.5218531   -2.5218531   -1.7456319  0.058551262   -2.5218531   0.77622126   424551 
  499000   0.64777389   -2.5226858   -2.5226858   -1.7456932  0.063955314   -2.5226858   0.77699269   424551 
  500000    0.6492654   -2.5251541   -2.5251541   -1.7463724  0.058500433   -2.5251541   0.77878173   424551 
  501000   0.64689004   -2.5227843   -2.5227843   -1.7468518  0.056015001   -2.5227843   0.77593253   424551 
  502000   0.64670705   -2.5228338   -2.5228338   -1.7471208  0.058340377   -2.5228338   0.77571304   424551 
  503000   0.64798509   -2.5250167   -2.5250167   -1.7477707   0.05575173   -2.5250167   0.77724601   424551 
  504000   0.64653342   -2.5231555   -2.5231555   -1.7476507  0.054519487   -2.5231555   0.77550477   424551 
  505000    0.6461771   -2.5223893   -2.5223893   -1.7473119  0.055063611   -2.5223893   0.77507737   424551 
  506000   0.64676235   -2.5237458   -2.5237458   -1.7479665  0.056551982   -2.5237458   0.77577936   424551 
  507000   0.64769071   -2.5250469   -2.5250469    -1.748154  0.058271797   -2.5250469   0.77689292   424551 
  508000    0.6456599   -2.5228901   -2.5228901   -1.7484331  0.056022746   -2.5228901   0.77445699   424551 
  509000   0.64681725   -2.5239658   -2.5239658   -1.7481206   0.05915241   -2.5239658   0.77584522   424551 
  510000   0.64680554   -2.5238513   -2.5238513   -1.7480202  0.055104777   -2.5238513   0.77583117   424551 
  511000   0.64611739    -2.524175    -2.524175   -1.7491692  0.062179959    -2.524175   0.77500575   424551 
  512000   0.64705451   -2.5259837   -2.5259837   -1.7498539  0.060862804   -2.5259837   0.77612981   424551 
  513000   0.64618337   -2.5250259   -2.5250259    -1.749941  0.069501916   -2.5250259   0.77508489   424551 
  514000   0.64736473   -2.5267577   -2.5267577   -1.7502557  0.060180702   -2.5267577   0.77650191   424551 
  515000   0.64678636   -2.5265339   -2.5265339   -1.7507258  0.061911567   -2.5265339   0.77580816   424551 
  516000    0.6471249   -2.5264685   -2.5264685   -1.7502543  0.059486003   -2.5264685   0.77621423   424551 
  517000   0.64598418   -2.5258086   -2.5258086   -1.7509626  0.065765348   -2.5258086   0.77484597   424551 
  518000   0.64766709   -2.5276002   -2.5276002   -1.7507356  0.055711223   -2.5276002   0.77686459   424551 
  519000   0.64774968   -2.5275077   -2.5275077   -1.7505441  0.052657745   -2.5275077   0.77696365   424551 
  520000   0.64695151   -2.5267712   -2.5267712   -1.7507649  0.058604205   -2.5267712   0.77600625   424551 
  521000   0.64619595   -2.5264449   -2.5264449   -1.7513449  0.057643701   -2.5264449   0.77509998   424551 
  522000     0.647461   -2.5285007   -2.5285007   -1.7518833  0.062037738   -2.5285007   0.77661739   424551 
  523000   0.64593957   -2.5265166   -2.5265166   -1.7517241  0.063807615   -2.5265166   0.77479246   424551 
  524000   0.64692807   -2.5283451   -2.5283451   -1.7523669  0.054400049   -2.5283451   0.77597814   424551 
  525000   0.64748858   -2.5290667   -2.5290667   -1.7524162  0.053677988   -2.5290667   0.77665047   424551 
  526000   0.64608864   -2.5279109   -2.5279109   -1.7529397  0.057165615   -2.5279109   0.77497126   424551 
  527000   0.64678048   -2.5294902   -2.5294902   -1.7536891  0.059633628   -2.5294902   0.77580112   424551 
  528000    0.6463059   -2.5280248   -2.5280248   -1.7527929  0.064103104   -2.5280248   0.77523186   424551 
  529000   0.64543276   -2.5277129   -2.5277129   -1.7535283  0.050227016   -2.5277129   0.77418454   424551 
  530000   0.64552423   -2.5275594   -2.5275594   -1.7532651  0.061961013   -2.5275594   0.77429427   424551 
  531000   0.64538559   -2.5280647   -2.5280647   -1.7539367  0.055253888   -2.5280647   0.77412797   424551 
  532000   0.64509573    -2.528017    -2.528017   -1.7542367  0.060705885    -2.528017   0.77378028   424551 
  533000   0.64453106   -2.5272574   -2.5272574   -1.7541544  0.051876231   -2.5272574   0.77310298   424551 
  534000   0.64611721   -2.5288025   -2.5288025    -1.753797  0.050541456   -2.5288025   0.77500554   424551 
  535000   0.64596248   -2.5294871   -2.5294871   -1.7546672  0.065710382   -2.5294871   0.77481993   424551 
  536000   0.64548741   -2.5289754   -2.5289754   -1.7547253  0.053670774   -2.5289754    0.7742501   424551 
  537000   0.64567089   -2.5300532   -2.5300532    -1.755583  0.056926673   -2.5300532   0.77447018   424551 
  538000   0.64431082   -2.5291467   -2.5291467   -1.7563079  0.062512296   -2.5291467    0.7728388   424551 
  539000   0.64388948   -2.5292721   -2.5292721   -1.7569387  0.062115672   -2.5292721   0.77233342   424551 
  540000   0.64444245   -2.5303219   -2.5303219   -1.7573252  0.063558717   -2.5303219   0.77299669   424551 
  541000   0.64525394   -2.5308749   -2.5308749   -1.7569049  0.054564503   -2.5308749   0.77397006   424551 
  542000   0.64395653   -2.5300715   -2.5300715   -1.7576577  0.062794075   -2.5300715   0.77241384   424551 
  543000   0.64364075   -2.5304966   -2.5304966   -1.7584616   0.04781952   -2.5304966   0.77203507   424551 
  544000   0.64422773   -2.5301339   -2.5301339   -1.7573948  0.058604237   -2.5301339   0.77273914   424551 
  545000   0.64350617   -2.5301101   -2.5301101   -1.7582365   0.05468809   -2.5301101   0.77187364   424551 
  546000   0.64422018   -2.5309839   -2.5309839   -1.7582538  0.060525517   -2.5309839   0.77273009   424551 
  547000   0.64466142    -2.532331    -2.532331   -1.7590716  0.054126076    -2.532331   0.77325934   424551 
  548000   0.64406232   -2.5314413   -2.5314413   -1.7589006  0.048820831   -2.5314413   0.77254074   424551 
  549000   0.64459944   -2.5320519   -2.5320519   -1.7588669  0.059661517   -2.5320519   0.77318499   424551 
  550000    0.6446475   -2.5330425   -2.5330425   -1.7597999  0.059591358   -2.5330425   0.77324264   424551 
  551000   0.64553361   -2.5348617   -2.5348617   -1.7605562  0.059557867   -2.5348617   0.77430552   424551 
  552000   0.64386922   -2.5334995   -2.5334995   -1.7611904  0.048635372   -2.5334995   0.77230911   424551 
  553000   0.64510394   -2.5347111   -2.5347111   -1.7609209  0.044336328   -2.5347111   0.77379014   424551 
  554000   0.64381316   -2.5334114   -2.5334114   -1.7611695   0.06448419   -2.5334114   0.77224187   424551 
  555000   0.64417745    -2.533533    -2.533533   -1.7608541  0.067642382    -2.533533   0.77267882   424551 
  556000   0.64515986   -2.5345041   -2.5345041   -1.7606469  0.066381153   -2.5345041   0.77385721   424551 
  557000   0.64445291   -2.5337547   -2.5337547   -1.7607455  0.064110661   -2.5337547   0.77300923   424551 
  558000   0.64392354   -2.5336399   -2.5336399   -1.7612657  0.054236521   -2.5336399   0.77237427   424551 
  559000   0.64357931   -2.5340403   -2.5340403    -1.762079  0.056945405   -2.5340403   0.77196137   424551 
  560000   0.64427759   -2.5344664   -2.5344664   -1.7616674  0.060942024   -2.5344664   0.77279894   424551 
  561000   0.64356655   -2.5335774   -2.5335774   -1.7616313  0.053520441   -2.5335774   0.77194607   424551 
  562000   0.64358138   -2.5332497   -2.5332497   -1.7612859  0.051319023   -2.5332497   0.77196385   424551 
  563000   0.64408464   -2.5342371   -2.5342371   -1.7616696  0.061554088   -2.5342371    0.7725675   424551 
  564000   0.64373782   -2.5335527   -2.5335527   -1.7614012  0.067569205   -2.5335527    0.7721515   424551 
  565000   0.64291074   -2.5339248   -2.5339248   -1.7627654  0.059811915   -2.5339248   0.77115943   424551 
  566000   0.64296564   -2.5342428   -2.5342428   -1.7630175  0.051811457   -2.5342428   0.77122529   424551 
  567000   0.64362814    -2.535475    -2.535475    -1.763455  0.055750891    -2.535475   0.77201994   424551 
  568000   0.64472024   -2.5363481   -2.5363481   -1.7630182   0.05603207   -2.5363481    0.7733299   424551 
  569000   0.64304869   -2.5350155   -2.5350155   -1.7636906  0.070353913   -2.5350155   0.77132491   424551 
  570000   0.64346407   -2.5354017   -2.5354017   -1.7635786  0.049720844   -2.5354017   0.77182314   424551 
  571000   0.64525448   -2.5370854   -2.5370854   -1.7631147  0.063949504   -2.5370854   0.77397071   424551 
  572000   0.64428544   -2.5361479   -2.5361479   -1.7633396  0.056375558   -2.5361479   0.77280836   424551 
  573000   0.64458448   -2.5368546   -2.5368546   -1.7636875  0.072569931   -2.5368546   0.77316706   424551 
  574000   0.64319374   -2.5354248   -2.5354248   -1.7639259  0.065489102   -2.5354248   0.77149889   424551 
  575000   0.64415687   -2.5373325   -2.5373325   -1.7646784   0.06099162   -2.5373325   0.77265414   424551 
  576000   0.64384991   -2.5371275   -2.5371275   -1.7648415  0.062765474   -2.5371275   0.77228595   424551 
  577000   0.64364617   -2.5371169   -2.5371169   -1.7650754   0.05811424   -2.5371169   0.77204157   424551 
  578000   0.64302693   -2.5363668   -2.5363668    -1.765068  0.059414703   -2.5363668    0.7712988   424551 
  579000   0.64354645   -2.5375705   -2.5375705   -1.7656486  0.062432515   -2.5375705   0.77192195   424551 
  580000   0.64422397    -2.538554    -2.538554   -1.7658194  0.052559407    -2.538554   0.77273463   424551 
  581000   0.64346757   -2.5380419   -2.5380419   -1.7662145  0.055916844   -2.5380419   0.77182733   424551 
  582000   0.64274373   -2.5375005   -2.5375005   -1.7665414  0.061169414   -2.5375005   0.77095911   424551 
  583000   0.64257647   -2.5369947   -2.5369947   -1.7662363  0.051766081   -2.5369947   0.77075848   424551 
  584000   0.64305919   -2.5380756   -2.5380756   -1.7667381  0.057793721   -2.5380756   0.77133749   424551 
  585000   0.64455321    -2.538843    -2.538843   -1.7657134  0.054705405    -2.538843   0.77312954   424551 
  586000   0.64400752   -2.5385875   -2.5385875   -1.7661125  0.058723917   -2.5385875     0.772475   424551 
  587000   0.64402006   -2.5389912   -2.5389912   -1.7665012  0.056671726   -2.5389912   0.77249005   424551 
  588000   0.64425673   -2.5395161   -2.5395161   -1.7667422  0.058936647   -2.5395161   0.77277392   424551 
  589000   0.64409556   -2.5393432   -2.5393432   -1.7667626  0.048071519   -2.5393432    0.7725806   424551 
  590000   0.64231251   -2.5380956   -2.5380956   -1.7676538  0.046330734   -2.5380956   0.77044186   424551 
  591000   0.64328789   -2.5400588   -2.5400588    -1.768447  0.054544528   -2.5400588   0.77161181   424551 
  592000   0.64232734   -2.5387339   -2.5387339   -1.7682743  0.054440126   -2.5387339   0.77045965   424551 
  593000   0.64313365   -2.5400756   -2.5400756   -1.7686488  0.050784819   -2.5400756   0.77142681   424551 
  594000   0.64309905   -2.5403969   -2.5403969   -1.7690116  0.064175208   -2.5403969   0.77138531   424551 
  595000    0.6440289   -2.5419178   -2.5419178   -1.7694172  0.055496127   -2.5419178   0.77250064   424551 
  596000   0.64360471   -2.5409738   -2.5409738    -1.768982  0.062292033   -2.5409738   0.77199184   424551 
  597000    0.6426092   -2.5401086   -2.5401086   -1.7693109  0.058069267   -2.5401086   0.77079774   424551 
  598000     0.643609   -2.5417352   -2.5417352   -1.7697382  0.060628251   -2.5417352   0.77199699   424551 
  599000   0.64330547   -2.5418695   -2.5418695   -1.7702366  0.057964275   -2.5418695   0.77163291   424551 
  600000   0.64309008   -2.5419198   -2.5419198   -1.7705452  0.061795964   -2.5419198   0.77137455   424551 
  601000   0.64431699   -2.5439463   -2.5439463   -1.7711001  0.060319619   -2.5439463    0.7728462   424551 
  602000   0.64395472   -2.5436111   -2.5436111   -1.7711994   0.06069628   -2.5436111   0.77241167   424551 
  603000   0.64085877   -2.5410941   -2.5410941   -1.7723959  0.060462936   -2.5410941   0.76869813   424551 
  604000    0.6416153     -2.54231     -2.54231   -1.7727044  0.056791029     -2.54231   0.76960558   424551 
  605000   0.64173007   -2.5431283   -2.5431283   -1.7733851  0.057761391   -2.5431283   0.76974324   424551 
  606000    0.6420433   -2.5432084   -2.5432084   -1.7730895  0.056388309   -2.5432084   0.77011895   424551 
  607000   0.64265902   -2.5446505   -2.5446505    -1.773793  0.059379386   -2.5446505    0.7708575   424551 
  608000   0.64174321   -2.5439979   -2.5439979   -1.7742389  0.057236238   -2.5439979   0.76975901   424551 
  609000   0.64216863   -2.5444167   -2.5444167   -1.7741474  0.049232272   -2.5444167   0.77026928   424551 
  610000   0.64140271   -2.5428544   -2.5428544   -1.7735038   0.05278243   -2.5428544   0.76935057   424551 
  611000   0.64220163   -2.5440399   -2.5440399   -1.7737311  0.062636583   -2.5440399   0.77030886   424551 
  612000   0.64363169   -2.5448608   -2.5448608   -1.7728366  0.053314942   -2.5448608    0.7720242   424551 
  613000   0.64129299   -2.5428246   -2.5428246   -1.7736057  0.054735479   -2.5428246   0.76921898   424551 
  614000     0.642032   -2.5438488   -2.5438488   -1.7737434  0.064140948   -2.5438488    0.7701054   424551 
  615000   0.64339473   -2.5446553   -2.5446553   -1.7729153  0.062303964   -2.5446553   0.77173997   424551 
  616000   0.64237212   -2.5435831   -2.5435831   -1.7730697  0.058163444   -2.5435831   0.77051337   424551 
  617000   0.64321014   -2.5449894   -2.5449894   -1.7734709  0.055714095   -2.5449894   0.77151856   424551 
  618000   0.64145749    -2.543902    -2.543902   -1.7744857  0.054087046    -2.543902   0.76941628   424551 
  619000   0.64130919   -2.5447342   -2.5447342   -1.7754957  0.066377076   -2.5447342   0.76923841   424551 
  620000   0.64202306   -2.5458043   -2.5458043   -1.7757096  0.057845864   -2.5458043   0.77009467   424551 
  621000   0.64102459   -2.5447869   -2.5447869   -1.7758899  0.053521398   -2.5447869   0.76889703   424551 
  622000   0.64248535   -2.5464076   -2.5464076   -1.7757584  0.055029627   -2.5464076   0.77064919   424551 
  623000   0.64308479   -2.5477046   -2.5477046   -1.7763364  0.047185907   -2.5477046    0.7713682   424551 
  624000    0.6421492     -2.54679     -2.54679    -1.776544  0.059137692     -2.54679   0.77024598   424551 
  625000   0.64212957   -2.5469527   -2.5469527   -1.7767302   0.05064136   -2.5469527   0.77022243   424551 
  626000   0.64304925   -2.5474673   -2.5474673   -1.7761417  0.054086752   -2.5474673   0.77132557   424551 
  627000   0.64241212   -2.5469863   -2.5469863   -1.7764249  0.053488623   -2.5469863   0.77056135   424551 
  628000    0.6414429   -2.5456992   -2.5456992   -1.7763004  0.056524988   -2.5456992   0.76939878   424551 
  629000   0.64090917   -2.5459897   -2.5459897   -1.7772311  0.051020528   -2.5459897   0.76875859   424551 
  630000   0.64100331   -2.5471081   -2.5471081   -1.7782366  0.057080399   -2.5471081    0.7688715   424551 
  631000   0.64227734   -2.5486914   -2.5486914   -1.7782917  0.046003385   -2.5486914   0.77039968   424551 
  632000   0.64228767   -2.5488467   -2.5488467   -1.7784346  0.056190647   -2.5488467   0.77041208   424551 
  633000   0.64148236   -2.5477749   -2.5477749   -1.7783288  0.058159367   -2.5477749   0.76944611   424551 
  634000   0.64062942   -2.5467977   -2.5467977   -1.7783746  0.052770213   -2.5467977   0.76842304   424551 
  635000   0.64156681   -2.5485096   -2.5485096   -1.7789622  0.049618096   -2.5485096   0.76954741   424551 
  636000   0.64117866   -2.5476202   -2.5476202   -1.7785384  0.059328563   -2.5476202   0.76908183   424551 
  637000   0.64070965   -2.5476667   -2.5476667   -1.7791474  0.057352385   -2.5476667   0.76851926   424551 
  638000   0.64211289   -2.5490661   -2.5490661   -1.7788637  0.046827082   -2.5490661   0.77020242   424551 
  639000   0.64128922   -2.5483912   -2.5483912   -1.7791768  0.056109966   -2.5483912   0.76921445   424551 
  640000   0.64210955   -2.5493895   -2.5493895   -1.7791911  0.053916019   -2.5493895   0.77019842   424551 
  641000   0.64186399   -2.5492129   -2.5492129    -1.779309    0.0577412   -2.5492129   0.76990387   424551 
  642000   0.64102936     -2.54995     -2.54995   -1.7810473  0.051394858     -2.54995   0.76890275   424551 
  643000   0.64077135   -2.5498425   -2.5498425   -1.7812492  0.051489557   -2.5498425   0.76859327   424551 
  644000   0.64147065    -2.550766    -2.550766    -1.781334  0.058741161    -2.550766   0.76943208   424551 
  645000   0.64150458   -2.5506309   -2.5506309   -1.7811581  0.055273138   -2.5506309   0.76947277   424551 
  646000   0.64172818   -2.5518763   -2.5518763   -1.7821353  0.043115333   -2.5518763   0.76974097   424551 
  647000   0.64143607   -2.5511532   -2.5511532   -1.7817626  0.058616949   -2.5511532    0.7693906   424551 
  648000   0.64101346   -2.5507321   -2.5507321   -1.7818484  0.051845103   -2.5507321   0.76888368   424551 
  649000   0.64235513   -2.5525578   -2.5525578   -1.7820648  0.056381986   -2.5525578   0.77049299   424551 
  650000   0.64210341   -2.5529423   -2.5529423   -1.7827512  0.056189739   -2.5529423   0.77019105   424551 
  651000   0.64246132   -2.5536369   -2.5536369   -1.7830165  0.051123532   -2.5536369   0.77062036   424551 
  652000   0.64240589   -2.5537488   -2.5537488   -1.7831949  0.061383423   -2.5537488   0.77055387   424551 
  653000   0.64079462   -2.5518167   -2.5518167   -1.7831955   0.06007152   -2.5518167   0.76862119   424551 
  654000   0.64176446   -2.5522027   -2.5522027   -1.7824182  0.055891945   -2.5522027   0.76978449   424551 
  655000    0.6409376   -2.5509522   -2.5509522   -1.7821595  0.054220576   -2.5509522   0.76879269   424551 
  656000   0.64139356   -2.5518221   -2.5518221   -1.7824825  0.052941411   -2.5518221    0.7693396   424551 
  657000   0.64219227   -2.5522428   -2.5522428   -1.7819452   0.05662909   -2.5522428   0.77029764   424551 
  658000   0.64188764    -2.552363    -2.552363   -1.7824308  0.062197564    -2.552363   0.76993225   424551 
  659000   0.64072678   -2.5515378   -2.5515378    -1.782998  0.050623294   -2.5515378   0.76853981   424551 
  660000    0.6393916    -2.550456    -2.550456   -1.7835177  0.058833086    -2.550456   0.76693829   424551 
  661000   0.64101066   -2.5525561   -2.5525561   -1.7836758  0.053826537   -2.5525561   0.76888033   424551 
  662000   0.64098142   -2.5526247   -2.5526247   -1.7837795  0.053464484   -2.5526247   0.76884524   424551 
  663000   0.64060519   -2.5526831   -2.5526831   -1.7842891  0.056907728   -2.5526831   0.76839397   424551 
  664000   0.63998274   -2.5516796   -2.5516796   -1.7840322  0.058290362   -2.5516796   0.76764735   424551 
  665000   0.64009744   -2.5519488   -2.5519488   -1.7841639  0.057279511   -2.5519488   0.76778493   424551 
  666000   0.64105586   -2.5521374   -2.5521374   -1.7832029  0.059340672   -2.5521374   0.76893453   424551 
  667000   0.64016157   -2.5514887   -2.5514887   -1.7836269  0.055537211   -2.5514887   0.76786185   424551 
  668000   0.64021429   -2.5520715   -2.5520715   -1.7841464  0.055303094   -2.5520715   0.76792509   424551 
  669000   0.64116704    -2.553675    -2.553675   -1.7846071  0.053057205    -2.553675    0.7690679   424551 
  670000   0.64022507   -2.5524299   -2.5524299   -1.7844919  0.058520772   -2.5524299   0.76793802   424551 
  671000   0.64084701   -2.5532719   -2.5532719   -1.7845878  0.048959173   -2.5532719   0.76868403   424551 
  672000   0.63985345   -2.5524179   -2.5524179   -1.7849256  0.059300601   -2.5524179   0.76749227   424551 
  673000   0.64122734   -2.5544336   -2.5544336   -1.7852933  0.058754768   -2.5544336   0.76914023   424551 
  674000   0.64060247   -2.5544443   -2.5544443   -1.7860536  0.052802097   -2.5544443    0.7683907   424551 
  675000   0.64148084   -2.5557413   -2.5557413    -1.786297  0.055525463   -2.5557413   0.76944429   424551 
  676000    0.6402054   -2.5544503   -2.5544503   -1.7865359  0.064325733   -2.5544503   0.76791443   424551 
  677000   0.64055286    -2.554894    -2.554894   -1.7865628  0.053468277    -2.554894    0.7683312   424551 
  678000   0.64105908   -2.5559344   -2.5559344    -1.786996  0.048956329   -2.5559344    0.7689384   424551 
  679000   0.63984588   -2.5541068   -2.5541068   -1.7866236  0.055192045   -2.5541068   0.76748319   424551 
  680000   0.64059389   -2.5549641   -2.5549641   -1.7865837  0.059544284   -2.5549641   0.76838042   424551 
  681000   0.64049611   -2.5554444   -2.5554444   -1.7871813  0.050654141   -2.5554444   0.76826313   424551 
  682000   0.64036929   -2.5555326   -2.5555326   -1.7874215  0.053149764   -2.5555326   0.76811101   424551 
  683000   0.64062034   -2.5557938   -2.5557938   -1.7873817  0.047061358   -2.5557938   0.76841214   424551 
  684000   0.64081121   -2.5559782   -2.5559782   -1.7873371  0.056535845   -2.5559782   0.76864109   424551 
  685000   0.64115578   -2.5568465   -2.5568465   -1.7877921  0.046884709   -2.5568465   0.76905439   424551 
  686000   0.64190952   -2.5573592   -2.5573592   -1.7874007  0.057807477   -2.5573592   0.76995849   424551 
  687000   0.64101393   -2.5570138   -2.5570138   -1.7881296   0.05791068   -2.5570138   0.76888424   424551 
  688000   0.63912403   -2.5550508   -2.5550508   -1.7884334  0.041925437   -2.5550508   0.76661735   424551 
  689000   0.63906787   -2.5550268   -2.5550268   -1.7884768  0.056641736   -2.5550268   0.76654998   424551 
  690000   0.63991118   -2.5556504   -2.5556504   -1.7880889  0.059950217   -2.5556504   0.76756151   424551 
  691000    0.6410804   -2.5571616   -2.5571616   -1.7881976    0.0522927   -2.5571616   0.76896397   424551 
  692000   0.63934356   -2.5564943   -2.5564943   -1.7896136  0.060949585   -2.5564943   0.76688066   424551 
  693000   0.63994371   -2.5569838   -2.5569838   -1.7893833  0.056335689   -2.5569838   0.76760053   424551 
  694000   0.63954638   -2.5568184   -2.5568184   -1.7896944  0.050715242   -2.5568184   0.76712395   424551 
  695000   0.63874856   -2.5558948   -2.5558948   -1.7897278  0.063155398   -2.5558948   0.76616697   424551 
  696000   0.63948654    -2.557402    -2.557402   -1.7903498  0.058862126    -2.557402   0.76705216   424551 
  697000   0.63884505   -2.5565739   -2.5565739   -1.7902912  0.050658685   -2.5565739   0.76628272   424551 
  698000   0.64017823   -2.5580906   -2.5580906   -1.7902088  0.062367917   -2.5580906   0.76788183   424551 
  699000   0.64012289   -2.5580828   -2.5580828   -1.7902674  0.054129593   -2.5580828   0.76781545   424551 
  700000   0.63924589   -2.5575101   -2.5575101   -1.7907466  0.055969961   -2.5575101   0.76676351   424551 
  701000   0.63869988   -2.5576977   -2.5576977   -1.7915891  0.057496885   -2.5576977   0.76610858   424551 
  702000   0.63884282   -2.5575659   -2.5575659   -1.7912859  0.044136367   -2.5575659   0.76628003   424551 
  703000   0.63893017   -2.5577129   -2.5577129   -1.7913281  0.059617758   -2.5577129   0.76638481   424551 
  704000   0.63942501   -2.5591191   -2.5591191   -1.7921407  0.046722628   -2.5591191   0.76697837   424551 
  705000   0.63907567    -2.559229    -2.559229   -1.7926697  0.046002146    -2.559229   0.76655933   424551 
  706000   0.63956318   -2.5595387   -2.5595387   -1.7923946  0.052211777   -2.5595387   0.76714409   424551 
  707000   0.63927275   -2.5584643   -2.5584643   -1.7916685  0.048027468   -2.5584643   0.76679573   424551 
  708000   0.63938522   -2.5588735   -2.5588735   -1.7919429  0.065397925   -2.5588735   0.76693063   424551 
  709000   0.64138119   -2.5613931   -2.5613931   -1.7920683  0.050250609   -2.5613931   0.76932477   424551 
  710000   0.64114446   -2.5605047   -2.5605047   -1.7914639  0.056785164   -2.5605047   0.76904081   424551 
  711000   0.63924842   -2.5583076   -2.5583076   -1.7915411  0.059717936   -2.5583076   0.76676655   424551 
  712000   0.64007348   -2.5598941   -2.5598941   -1.7921379  0.057693361   -2.5598941   0.76775619   424551 
  713000   0.64030679   -2.5604124   -2.5604124   -1.7923764  0.057157339   -2.5604124   0.76803604   424551 
  714000   0.63950452   -2.5598494   -2.5598494   -1.7927757  0.057198438   -2.5598494   0.76707373   424551 
  715000   0.63907025   -2.5593155   -2.5593155   -1.7927627  0.050160139   -2.5593155   0.76655284   424551 
  716000   0.63904404   -2.5600383   -2.5600383   -1.7935169  0.054145902   -2.5600383    0.7665214   424551 
  717000   0.63930856   -2.5597696   -2.5597696   -1.7929309  0.048464887   -2.5597696   0.76683869   424551 
  718000   0.63841172   -2.5583679   -2.5583679    -1.792605  0.057581245   -2.5583679   0.76576294   424551 
  719000    0.6397031   -2.5601004   -2.5601004   -1.7927885  0.054387517   -2.5601004   0.76731193   424551 
  720000   0.63896241    -2.559186    -2.559186   -1.7927625  0.057727094    -2.559186   0.76642349   424551 
  721000   0.63976465   -2.5602794   -2.5602794   -1.7928936  0.052631844   -2.5602794   0.76738575   424551 
  722000   0.63843755   -2.5588748   -2.5588748   -1.7930809   0.05944806   -2.5588748   0.76579392   424551 
  723000   0.63992868   -2.5610095   -2.5610095    -1.793427  0.052720652   -2.5610095   0.76758251   424551 
  724000   0.63946651   -2.5613435   -2.5613435   -1.7943153  0.055592923   -2.5613435   0.76702814   424551 
  725000   0.63999705   -2.5621965   -2.5621965    -1.794532  0.049370188   -2.5621965   0.76766451   424551 
  726000   0.64020371   -2.5620894   -2.5620894    -1.794177  0.054337585   -2.5620894    0.7679124   424551 
  727000   0.63887544   -2.5613914   -2.5613914   -1.7950723  0.063002598   -2.5613914   0.76631916   424551 
  728000   0.64004851   -2.5621115   -2.5621115   -1.7943853  0.058203605   -2.5621115   0.76772624   424551 
  729000   0.64005576   -2.5630658   -2.5630658   -1.7953309  0.063625945   -2.5630658   0.76773493   424551 
  730000   0.63926842   -2.5621126   -2.5621126   -1.7953221  0.050023114   -2.5621126   0.76679053   424551 
  731000   0.63990039   -2.5628753   -2.5628753   -1.7953267  0.052064706   -2.5628753   0.76754858   424551 
  732000    0.6398832    -2.562543    -2.562543    -1.795015   0.05910017    -2.562543   0.76752796   424551 
  733000   0.63987942   -2.5629553   -2.5629553   -1.7954319  0.057085871   -2.5629553   0.76752342   424551 
  734000   0.63957775   -2.5625585   -2.5625585   -1.7953969  0.053262073   -2.5625585   0.76716157   424551 
  735000   0.63964364   -2.5634383   -2.5634383   -1.7961977  0.056789731   -2.5634383   0.76724061   424551 
  736000   0.63995322   -2.5645596   -2.5645596   -1.7969477  0.045551259   -2.5645596   0.76761194   424551 
  737000   0.63941081    -2.563884    -2.563884   -1.7969226  0.057465857    -2.563884   0.76696133   424551 
  738000   0.63907453   -2.5636023   -2.5636023   -1.7970443  0.047865209   -2.5636023   0.76655797   424551 
  739000   0.63954513   -2.5645805   -2.5645805    -1.797458  0.052476417   -2.5645805   0.76712245   424551 
  740000   0.63878297   -2.5640476   -2.5640476   -1.7978393  0.060545676   -2.5640476   0.76620825   424551 
  741000   0.63872471   -2.5644692   -2.5644692   -1.7983308  0.044810593   -2.5644692   0.76613837   424551 
  742000   0.63781862   -2.5631825   -2.5631825    -1.798131  0.050366832   -2.5631825   0.76505152   424551 
  743000   0.63876358    -2.564942    -2.564942    -1.798757  0.046834297    -2.564942     0.766185   424551 
  744000   0.63821579   -2.5644332   -2.5644332   -1.7989052  0.059776621   -2.5644332   0.76552792   424551 
  745000    0.6378817   -2.5640316   -2.5640316   -1.7989044   0.05569904   -2.5640316   0.76512719   424551 
  746000   0.63879984     -2.56532     -2.56532   -1.7990915  0.056139662     -2.56532   0.76622848   424551 
  747000   0.63804554   -2.5654547   -2.5654547    -1.800131  0.053548866   -2.5654547   0.76532372   424551 
  748000   0.63783547   -2.5655118   -2.5655118   -1.8004401  0.049288078   -2.5655118   0.76507175   424551 
  749000   0.63747102   -2.5655369   -2.5655369   -1.8009023  0.058168992   -2.5655369   0.76463459   424551 
  750000   0.63821902   -2.5665219   -2.5665219   -1.8009901  0.059875319   -2.5665219    0.7655318   424551 
  751000   0.64014995   -2.5684194   -2.5684194   -1.8005715   0.04714917   -2.5684194   0.76784791   424551 
  752000   0.63933857    -2.567777    -2.567777   -1.8009023  0.049187259    -2.567777   0.76687469   424551 
  753000   0.63815591   -2.5664214   -2.5664214   -1.8009653    0.0524192   -2.5664214    0.7654561   424551 
  754000   0.63821538   -2.5667384   -2.5667384    -1.801211   0.05631617   -2.5667384   0.76552744   424551 
  755000   0.63763474    -2.566068    -2.566068    -1.801237  0.056747127    -2.566068   0.76483097   424551 
  756000   0.63770893   -2.5664846   -2.5664846   -1.8015647  0.058333257   -2.5664846   0.76491995   424551 
  757000   0.63870579   -2.5680393   -2.5680393   -1.8019236  0.056466342   -2.5680393   0.76611567   424551 
  758000   0.63770014   -2.5671611   -2.5671611   -1.8022516  0.063469612   -2.5671611   0.76490942   424551 
  759000   0.63721955   -2.5670982   -2.5670982   -1.8027653  0.041837311   -2.5670982   0.76433295   424551 
  760000   0.63934955   -2.5698752   -2.5698752   -1.8029874  0.054270563   -2.5698752   0.76688785   424551 
  761000   0.63764456   -2.5680261   -2.5680261   -1.8031833   0.04463958   -2.5680261   0.76484274   424551 
  762000   0.63811493   -2.5690203   -2.5690203   -1.8036133  0.054567665   -2.5690203   0.76540695   424551 
  763000   0.63780728   -2.5688591   -2.5688591   -1.8038212  0.051458141   -2.5688591   0.76503793   424551 
  764000    0.6369368   -2.5677935   -2.5677935   -1.8037997  0.054754586   -2.5677935    0.7639938   424551 
  765000   0.63647871   -2.5672002   -2.5672002   -1.8037558  0.057229035   -2.5672002   0.76344434   424551 
  766000   0.63612737   -2.5673515   -2.5673515   -1.8043286  0.048361201   -2.5673515   0.76302291   424551 
  767000   0.63724582   -2.5692253   -2.5692253   -1.8048608  0.048307654   -2.5692253   0.76436447   424551 
  768000   0.63824622   -2.5707806   -2.5707806   -1.8052162  0.054122693   -2.5707806   0.76556443   424551 
  769000   0.63854537   -2.5709444   -2.5709444   -1.8050212  0.049849081   -2.5709444   0.76592325   424551 
  770000   0.63736518   -2.5699117   -2.5699117   -1.8054041  0.050225344   -2.5699117   0.76450764   424551 
  771000   0.63748445   -2.5705074   -2.5705074   -1.8058567  0.051993084   -2.5705074    0.7646507   424551 
  772000    0.6374448    -2.571302    -2.571302   -1.8066989  0.054246461    -2.571302   0.76460313   424551 
  773000   0.63622451   -2.5701533   -2.5701533   -1.8070139  0.047769723   -2.5701533   0.76313943   424551 
  774000   0.63851239   -2.5727175   -2.5727175   -1.8068338  0.052239197   -2.5727175    0.7658837   424551 
  775000   0.63855484   -2.5720145   -2.5720145   -1.8060799  0.052274793   -2.5720145   0.76593461   424551 
  776000   0.63834182   -2.5728405   -2.5728405   -1.8071614  0.055374918   -2.5728405    0.7656791   424551 
  777000   0.63876936   -2.5732485   -2.5732485   -1.8070566  0.052008215   -2.5732485   0.76619193   424551 
  778000   0.63808906    -2.572471    -2.572471   -1.8070951  0.055712974    -2.572471   0.76537592   424551 
  779000   0.63930514    -2.573385    -2.573385   -1.8065504  0.058148043    -2.573385   0.76683458   424551 
  780000   0.63773983   -2.5725512   -2.5725512   -1.8075942  0.052651248   -2.5725512   0.76495702   424551 
  781000   0.63747842   -2.5722874   -2.5722874   -1.8076439  0.045335876   -2.5722874   0.76464347   424551 
  782000    0.6376717   -2.5725197   -2.5725197   -1.8076444  0.047233455   -2.5725197    0.7648753   424551 
  783000   0.63788775   -2.5736585   -2.5736585    -1.808524  0.058803347   -2.5736585   0.76513445   424551 
  784000   0.63786894   -2.5737856   -2.5737856   -1.8086737  0.051814613   -2.5737856   0.76511188   424551 
  785000   0.63761125   -2.5733177   -2.5733177   -1.8085149  0.051868518   -2.5733177   0.76480279   424551 
  786000   0.63693685   -2.5724572   -2.5724572   -1.8084634  0.047021545   -2.5724572   0.76399386   424551 
  787000   0.63671877   -2.5737515   -2.5737515   -1.8100192  0.052244046   -2.5737515   0.76373228   424551 
  788000   0.63552384    -2.572309    -2.572309     -1.81001   0.04935994    -2.572309   0.76229899   424551 
  789000    0.6378028   -2.5744422   -2.5744422   -1.8094096  0.053205895   -2.5744422   0.76503255   424551 
  790000   0.63628915   -2.5723512   -2.5723512   -1.8091343  0.060041032   -2.5723512   0.76321695   424551 
  791000   0.63724571   -2.5726746   -2.5726746   -1.8083102  0.057603641   -2.5726746   0.76436433   424551 
  792000   0.63661997   -2.5726272   -2.5726272   -1.8090134  0.055332608   -2.5726272   0.76361377   424551 
  793000   0.63601803    -2.572362    -2.572362   -1.8094702  0.057369439    -2.572362   0.76289176   424551 
  794000   0.63658444   -2.5730282   -2.5730282   -1.8094571   0.05859913   -2.5730282   0.76357116   424551 
  795000   0.63693442   -2.5722208   -2.5722208   -1.8082299  0.060643632   -2.5722208   0.76399095   424551 
  796000   0.63743515   -2.5733608   -2.5733608   -1.8087692  0.052635309   -2.5733608   0.76459157   424551 
  797000   0.63692219   -2.5730514   -2.5730514   -1.8090751  0.045414952   -2.5730514   0.76397628   424551 
  798000   0.63649333    -2.572459    -2.572459   -1.8089971  0.046871369    -2.572459   0.76346187   424551 
  799000   0.63499924   -2.5713776   -2.5713776   -1.8097079  0.045887512   -2.5713776   0.76166973   424551 
  800000   0.63631634   -2.5733423   -2.5733423   -1.8100928  0.053330447   -2.5733423   0.76324957   424551 
  801000   0.63653688   -2.5731008   -2.5731008   -1.8095867  0.050745949   -2.5731008    0.7635141   424551 
  802000   0.63580303   -2.5729738   -2.5729738   -1.8103399  0.052225202   -2.5729738   0.76263387   424551 
  803000   0.63565469   -2.5730274   -2.5730274   -1.8105715  0.048452867   -2.5730274   0.76245593   424551 
  804000    0.6350367   -2.5723149   -2.5723149   -1.8106002  0.047150124   -2.5723149   0.76171466   424551 
  805000   0.63538509    -2.573332    -2.573332   -1.8111995  0.049195422    -2.573332   0.76213256   424551 
  806000   0.63616627    -2.574661    -2.574661   -1.8115914   0.05215308    -2.574661   0.76306956   424551 
  807000   0.63575738   -2.5743836   -2.5743836   -1.8118045  0.051821125   -2.5743836   0.76257911   424551 
  808000   0.63796593   -2.5771518   -2.5771518   -1.8119236  0.050323879   -2.5771518   0.76522822   424551 
  809000   0.63555509   -2.5743394   -2.5743394    -1.812003   0.04927257   -2.5743394   0.76233647   424551 
  810000   0.63716188   -2.5762344   -2.5762344   -1.8119706  0.050686352   -2.5762344   0.76426378   424551 
  811000   0.63755051   -2.5771195   -2.5771195   -1.8123896  0.055161375   -2.5771195   0.76472994   424551 
  812000   0.63703624    -2.576678    -2.576678    -1.812565  0.045373647    -2.576678   0.76411307   424551 
  813000   0.63602607   -2.5758821   -2.5758821   -1.8129807  0.053997434   -2.5758821    0.7629014   424551 
  814000   0.63513281   -2.5746784   -2.5746784   -1.8128485  0.051196028   -2.5746784   0.76182994   424551 
  815000   0.63616616   -2.5762414   -2.5762414    -1.813172  0.056347882   -2.5762414   0.76306943   424551 
  816000   0.63656917   -2.5775474   -2.5775474   -1.8139945  0.064576824   -2.5775474   0.76355283   424551 
  817000   0.63630224   -2.5770443   -2.5770443   -1.8138117  0.061374932   -2.5770443   0.76323266   424551 
  818000   0.63688559   -2.5779817   -2.5779817   -1.8140494  0.048456292   -2.5779817   0.76393237   424551 
  819000   0.63617029   -2.5768955   -2.5768955   -1.8138211  0.046601498   -2.5768955   0.76307439   424551 
  820000   0.63658202   -2.5777194   -2.5777194   -1.8141511  0.051324214   -2.5777194   0.76356825   424551 
  821000   0.63616238   -2.5773479   -2.5773479    -1.814283  0.052254536   -2.5773479   0.76306491   424551 
  822000   0.63578563   -2.5772622   -2.5772622   -1.8146492  0.054852548   -2.5772622     0.762613   424551 
  823000   0.63662819   -2.5789389   -2.5789389   -1.8153153   0.05190548   -2.5789389   0.76362364   424551 
  824000   0.63564654   -2.5779819   -2.5779819   -1.8155357  0.048335192   -2.5779819   0.76244616   424551 
  825000   0.63532254   -2.5786146   -2.5786146   -1.8165571  0.053864108   -2.5786146   0.76205753   424551 
  826000   0.63474976   -2.5782023   -2.5782023   -1.8168319  0.052138763   -2.5782023   0.76137048   424551 
  827000   0.63579932   -2.5800922   -2.5800922   -1.8174628  0.051365541   -2.5800922   0.76262942   424551 
  828000   0.63534502   -2.5794333   -2.5794333   -1.8173488  0.049438207   -2.5794333    0.7620845   424551 
  829000   0.63463059   -2.5791584   -2.5791584   -1.8179309  0.051605831   -2.5791584   0.76122755   424551 
  830000   0.63550622   -2.5806842   -2.5806842   -1.8184064   0.05604228   -2.5806842   0.76227785   424551 
  831000   0.63421692   -2.5792286   -2.5792286   -1.8184972  0.049963021   -2.5792286   0.76073136   424551 
  832000   0.63504598   -2.5801939   -2.5801939   -1.8184681  0.047108511   -2.5801939    0.7617258   424551 
  833000   0.63428686   -2.5798357   -2.5798357   -1.8190204  0.050261413   -2.5798357   0.76081525   424551 
  834000   0.63560906   -2.5815467   -2.5815467   -1.8191455  0.052761494   -2.5815467   0.76240121   424551 
  835000      0.63571   -2.5814383   -2.5814383    -1.818916  0.055700255   -2.5814383   0.76252227   424551 
  836000   0.63599283   -2.5820037   -2.5820037   -1.8191422  0.043709086   -2.5820037   0.76286152   424551 
  837000   0.63594959   -2.5817376   -2.5817376   -1.8189279  0.057725742   -2.5817376   0.76280967   424551 
  838000   0.63572705   -2.5821515   -2.5821515   -1.8196087  0.049373351   -2.5821515   0.76254273   424551 
  839000   0.63390771    -2.581026    -2.581026   -1.8206656  0.059719261    -2.581026   0.76036046   424551 
  840000   0.63527958     -2.58219     -2.58219    -1.820184  0.047490599     -2.58219   0.76200599   424551 
  841000   0.63544017   -2.5821085   -2.5821085   -1.8199098  0.058555085   -2.5821085   0.76219863   424551 
  842000   0.63593463   -2.5836982   -2.5836982   -1.8209065  0.055824279   -2.5836982   0.76279172   424551 
  843000   0.63540957   -2.5828003   -2.5828003   -1.8206383  0.054452442   -2.5828003   0.76216192   424551 
  844000   0.63552958   -2.5832834   -2.5832834   -1.8209775  0.058461551   -2.5832834   0.76230587   424551 
  845000   0.63474162   -2.5819455   -2.5819455   -1.8205848  0.045109777   -2.5819455   0.76136073   424551 
  846000   0.63540172   -2.5828144   -2.5828144   -1.8206619  0.053057824   -2.5828144   0.76215251   424551 
  847000   0.63469155   -2.5823609   -2.5823609   -1.8210603  0.053640112   -2.5823609   0.76130067   424551 
  848000   0.63397366   -2.5818048   -2.5818048   -1.8213652  0.052187196   -2.5818048   0.76043957   424551 
  849000   0.63456427   -2.5825704   -2.5825704   -1.8214224   0.04976418   -2.5825704     0.761148   424551 
  850000   0.63337299   -2.5809738   -2.5809738   -1.8212547  0.057793822   -2.5809738   0.75971908   424551 
  851000   0.63505262   -2.5828775   -2.5828775   -1.8211437   0.05224178   -2.5828775   0.76173377   424551 
  852000   0.63421203    -2.581606    -2.581606   -1.8208805  0.040395443    -2.581606   0.76072549   424551 
  853000   0.63422542   -2.5817594   -2.5817594   -1.8210179  0.055207457   -2.5817594   0.76074155   424551 
  854000   0.63595459   -2.5840712   -2.5840712   -1.8212555  0.057439615   -2.5840712   0.76281566   424551 
  855000   0.63523957    -2.583524    -2.583524    -1.821566  0.052901401    -2.583524   0.76195801   424551 
  856000   0.63526342   -2.5838851   -2.5838851   -1.8218985   0.05121221   -2.5838851   0.76198661   424551 
  857000   0.63592529   -2.5851991   -2.5851991   -1.8224186  0.050939456   -2.5851991   0.76278051   424551 
  858000   0.63632864   -2.5854214   -2.5854214   -1.8221571  0.051043704   -2.5854214   0.76326433   424551 
  859000    0.6349455   -2.5842515   -2.5842515   -1.8226462  0.052733094   -2.5842515   0.76160528   424551 
  860000   0.63535018   -2.5851161   -2.5851161   -1.8230255  0.048844712   -2.5851161   0.76209068   424551 
  861000   0.63485756   -2.5849663   -2.5849663   -1.8234665   0.04475497   -2.5849663   0.76149979   424551 
  862000   0.63425461   -2.5845668   -2.5845668   -1.8237902  0.053517534   -2.5845668   0.76077657   424551 
  863000   0.63432808   -2.5855493   -2.5855493   -1.8246846   0.05026787   -2.5855493    0.7608647   424551 
  864000   0.63499451   -2.5861119   -2.5861119   -1.8244479  0.052755961   -2.5861119   0.76166406   424551 
  865000    0.6342925   -2.5870315   -2.5870315   -1.8262095  0.050716029   -2.5870315   0.76082202   424551 
  866000   0.63376502   -2.5863932   -2.5863932   -1.8262039  0.057200673   -2.5863932   0.76018932   424551 
  867000   0.63509238   -2.5872231   -2.5872231   -1.8254417  0.050305018   -2.5872231   0.76178146   424551 
  868000   0.63528242    -2.587062    -2.587062   -1.8250526  0.068573882    -2.587062   0.76200941   424551 
  869000   0.63521668    -2.587072    -2.587072   -1.8251414  0.043465764    -2.587072   0.76193056   424551 
  870000   0.63464041   -2.5866386   -2.5866386   -1.8253993   0.05542829   -2.5866386   0.76123933   424551 
  871000   0.63379995   -2.5866893   -2.5866893   -1.8264581  0.047654766   -2.5866893   0.76023121   424551 
  872000   0.63395109   -2.5868655   -2.5868655    -1.826453  0.048197249   -2.5868655    0.7604125   424551 
  873000   0.63396022   -2.5875014   -2.5875014   -1.8270779  0.059955447   -2.5875014   0.76042345   424551 
  874000   0.63383242   -2.5877349   -2.5877349   -1.8274648  0.045877353   -2.5877349   0.76027016   424551 
  875000   0.63490184   -2.5894642   -2.5894642   -1.8279113  0.048676231   -2.5894642    0.7615529   424551 
  876000   0.63430451   -2.5884907   -2.5884907   -1.8276543  0.045094924   -2.5884907   0.76083642   424551 
  877000   0.63515883   -2.5897302   -2.5897302    -1.827869  0.045480059   -2.5897302   0.76186116   424551 
  878000   0.63337735   -2.5880038   -2.5880038   -1.8282795  0.050445734   -2.5880038   0.75972431   424551 
  879000   0.63333679   -2.5879601   -2.5879601   -1.8282844  0.054500664   -2.5879601   0.75967566   424551 
  880000   0.63335596   -2.5885332   -2.5885332   -1.8288345  0.053742411   -2.5885332   0.75969865   424551 
  881000   0.63377902   -2.5882452   -2.5882452   -1.8280391  0.054022923   -2.5882452    0.7602061   424551 
  882000   0.63372643   -2.5875194   -2.5875194   -1.8273763  0.049769324   -2.5875194   0.76014303   424551 
  883000    0.6342777   -2.5885113   -2.5885113    -1.827707  0.048898765   -2.5885113   0.76080426   424551 
  884000   0.63368715   -2.5872451   -2.5872451   -1.8271491  0.053833681   -2.5872451   0.76009591   424551 
  885000   0.63397257   -2.5881929   -2.5881929   -1.8277546  0.051716809   -2.5881929   0.76043827   424551 
  886000   0.63294242    -2.587944    -2.587944   -1.8287413  0.046108609    -2.587944   0.75920262   424551 
  887000   0.63225101   -2.5871788   -2.5871788   -1.8288055  0.058631177   -2.5871788   0.75837329   424551 
  888000   0.63287917    -2.588031    -2.588031   -1.8289043  0.061804311    -2.588031   0.75912675   424551 
  889000   0.63331652   -2.5885735   -2.5885735   -1.8289222  0.054769903   -2.5885735   0.75965134   424551 
  890000   0.63520976   -2.5906463   -2.5906463    -1.828724  0.052901235   -2.5906463   0.76192225   424551 
  891000   0.63449262   -2.5902926   -2.5902926   -1.8292306  0.054297793   -2.5902926   0.76106205   424551 
  892000   0.63280082   -2.5880852   -2.5880852   -1.8290524  0.048736453   -2.5880852   0.75903278   424551 
  893000    0.6329107   -2.5891755   -2.5891755   -1.8300109  0.053681876   -2.5891755   0.75916458   424551 
  894000   0.63498051   -2.5918053   -2.5918053    -1.830158  0.049233353   -2.5918053   0.76164727   424551 
  895000   0.63229547   -2.5884247   -2.5884247   -1.8299981  0.058734979   -2.5884247   0.75842661   424551 
  896000   0.63288868   -2.5902801   -2.5902801    -1.831142  0.044052355   -2.5902801   0.75913815   424551 
  897000   0.63312735   -2.5912187   -2.5912187   -1.8317943   0.04366221   -2.5912187   0.75942444   424551 
  898000   0.63420572    -2.592444    -2.592444    -1.831726  0.052928719    -2.592444   0.76071793   424551 
  899000   0.63363201   -2.5926148   -2.5926148   -1.8325851  0.047375522   -2.5926148   0.76002977   424551 
  900000   0.63348758   -2.5913448   -2.5913448   -1.8314882  0.052755608   -2.5913448   0.75985652   424551 
  901000   0.63351687   -2.5921465   -2.5921465   -1.8322549  0.047774263   -2.5921465   0.75989166   424551 
  902000   0.63248965   -2.5918475   -2.5918475    -1.833188  0.047016756   -2.5918475   0.75865953   424551 
  903000   0.63360604   -2.5932844   -2.5932844   -1.8332857  0.049544977   -2.5932844   0.75999861   424551 
  904000    0.6338311   -2.5936631   -2.5936631   -1.8333945  0.048717452   -2.5936631   0.76026857   424551 
  905000   0.63253851   -2.5926438   -2.5926438   -1.8339256  0.053223252   -2.5926438   0.75871814   424551 
  906000   0.63429225    -2.593734    -2.593734   -1.8329122  0.055178661    -2.593734   0.76082172   424551 
  907000   0.63220457    -2.591769    -2.591769   -1.8334514  0.047669141    -2.591769   0.75831759   424551 
  908000   0.63226476   -2.5914455   -2.5914455   -1.8330558   0.05826048   -2.5914455   0.75838978   424551 
  909000   0.63208263   -2.5917206   -2.5917206   -1.8335493  0.059093458   -2.5917206   0.75817132   424551 
  910000     0.633132    -2.592724    -2.592724   -1.8332939  0.047562957    -2.592724   0.75943002   424551 
  911000   0.63247305   -2.5929818   -2.5929818   -1.8343422  0.053230504   -2.5929818   0.75863961   424551 
  912000   0.63284955   -2.5940322   -2.5940322    -1.834941  0.048597684   -2.5940322   0.75909122   424551 
  913000   0.63257617   -2.5933124   -2.5933124   -1.8345491  0.052138676   -2.5933124   0.75876331   424551 
  914000   0.63323429   -2.5931716   -2.5931716   -1.8336189  0.056802246   -2.5931716   0.75955272   424551 
  915000   0.63164608   -2.5920843   -2.5920843   -1.8344366  0.054352232   -2.5920843   0.75764768   424551 
  916000   0.63117411   -2.5924374   -2.5924374   -1.8353559  0.054683772   -2.5924374   0.75708156   424551 
  917000   0.63277573   -2.5944119   -2.5944119   -1.8354092  0.052597128   -2.5944119   0.75900268   424551 
  918000   0.63243544   -2.5941044   -2.5941044   -1.8355099  0.046906905   -2.5941044   0.75859451   424551 
  919000   0.63057555   -2.5928459   -2.5928459   -1.8364823  0.045316254   -2.5928459   0.75636361   424551 
  920000   0.63325715   -2.5958672   -2.5958672   -1.8362871  0.052928675   -2.5958672   0.75958013   424551 
  921000   0.63326328   -2.5955229   -2.5955229   -1.8359355  0.056507672   -2.5955229   0.75958748   424551 
  922000   0.63188113    -2.594283    -2.594283   -1.8363534  0.054062544    -2.594283   0.75792962   424551 
  923000   0.63262191   -2.5954286   -2.5954286   -1.8366104  0.048632165   -2.5954286   0.75881818   424551 
  924000   0.63249661   -2.5956701   -2.5956701   -1.8370022  0.052135861   -2.5956701   0.75866787   424551 
  925000   0.63233474   -2.5959488   -2.5959488   -1.8374751  0.056468117   -2.5959488   0.75847371   424551 
  926000   0.63291231   -2.5962408   -2.5962408   -1.8370743   0.04696369   -2.5962408    0.7591665   424551 
  927000   0.63283403   -2.5967892   -2.5967892   -1.8377166  0.043861794   -2.5967892    0.7590726   424551 
  928000   0.63275748   -2.5958355   -2.5958355   -1.8368547  0.043974315   -2.5958355   0.75898079   424551 
  929000   0.63206256   -2.5954509   -2.5954509   -1.8373037  0.057271179   -2.5954509   0.75814724   424551 
  930000   0.63235924   -2.5961555   -2.5961555   -1.8376524  0.058294625   -2.5961555    0.7585031   424551 
  931000   0.63220545    -2.596859    -2.596859   -1.8385403  0.045297282    -2.596859   0.75831863   424551 
  932000   0.63101367    -2.595178    -2.595178   -1.8382889   0.04617374    -2.595178   0.75688911   424551 
  933000   0.63275917   -2.5977039   -2.5977039   -1.8387211  0.050083697   -2.5977039   0.75898281   424551 
  934000   0.63307379   -2.5979289   -2.5979289   -1.8385687  0.049089258   -2.5979289   0.75936019   424551 
  935000   0.63251396   -2.5972509   -2.5972509   -1.8385622  0.044803406   -2.5972509   0.75868869   424551 
  936000   0.63306179   -2.5986512   -2.5986512   -1.8393054  0.058729932   -2.5986512    0.7593458   424551 
  937000   0.63313543   -2.5987419   -2.5987419   -1.8393078  0.048029029   -2.5987419   0.75943413   424551 
  938000   0.63290737   -2.5985209   -2.5985209   -1.8393603  0.051425317   -2.5985209   0.75916057   424551 
  939000   0.63219284    -2.597934    -2.597934   -1.8396305  0.047307279    -2.597934   0.75830351   424551 
  940000   0.63230116   -2.5990377   -2.5990377   -1.8406042  0.047351795   -2.5990377   0.75843344   424551 
  941000   0.63206989   -2.5983658   -2.5983658   -1.8402098  0.049520945   -2.5983658   0.75815603   424551 
  942000   0.63247512   -2.5980456   -2.5980456   -1.8394035  0.056977066   -2.5980456    0.7586421   424551 
  943000   0.63238566    -2.598655    -2.598655   -1.8401202  0.043917875    -2.598655   0.75853479   424551 
  944000   0.63262858   -2.5983594   -2.5983594   -1.8395332  0.045008063   -2.5983594   0.75882617   424551 
  945000    0.6310773   -2.5958443   -2.5958443   -1.8388788  0.048610639   -2.5958443   0.75696544   424551 
  946000   0.63160878   -2.5955564   -2.5955564   -1.8379534  0.044718844   -2.5955564   0.75760294   424551 
  947000     0.634094   -2.5984555   -2.5984555   -1.8378716  0.047081456   -2.5984555   0.76058392   424551 
  948000   0.63208913   -2.5963608   -2.5963608   -1.8381817  0.049975545   -2.5963608   0.75817911   424551 
  949000    0.6332618   -2.5972909   -2.5972909   -1.8377052  0.056801156   -2.5972909   0.75958571   424551 
  950000     0.631226   -2.5952146   -2.5952146   -1.8380708  0.050248589   -2.5952146    0.7571438   424551 
  951000   0.63135349   -2.5952464   -2.5952464   -1.8379497  0.056831561   -2.5952464   0.75729673   424551 
  952000   0.63204431   -2.5959999   -2.5959999   -1.8378746  0.051301519   -2.5959999   0.75812536   424551 
  953000   0.63208695   -2.5963639   -2.5963639   -1.8381874  0.054389468   -2.5963639   0.75817649   424551 
  954000   0.63215622   -2.5966526   -2.5966526    -1.838393  0.053211049   -2.5966526   0.75825959   424551 
  955000   0.63197268   -2.5964647   -2.5964647   -1.8384252   0.04685944   -2.5964647   0.75803943   424551 
  956000   0.63130237   -2.5956265   -2.5956265   -1.8383911  0.046650938   -2.5956265    0.7572354   424551 
  957000   0.63090621   -2.5961899   -2.5961899   -1.8394297   0.04450165   -2.5961899   0.75676022   424551 
  958000   0.63257842   -2.5976462   -2.5976462   -1.8388802  0.038664155   -2.5976462   0.75876601   424551 
  959000   0.63388517   -2.6004695   -2.6004695   -1.8401361  0.052132993   -2.6004695   0.76033343   424551 
  960000   0.63210551    -2.598642    -2.598642   -1.8404432  0.056368746    -2.598642   0.75819876   424551 
  961000   0.63230745   -2.5992606   -2.5992606   -1.8408196  0.056907573   -2.5992606   0.75844098   424551 
  962000   0.63285758   -2.5991348   -2.5991348    -1.840034  0.051502034   -2.5991348   0.75910085   424551 
  963000   0.63343781   -2.6006762   -2.6006762   -1.8408794   0.05231006   -2.6006762   0.75979683   424551 
  964000   0.63203793   -2.5997084   -2.5997084   -1.8415907  0.057253145   -2.5997084    0.7581177   424551 
  965000   0.63299747   -2.6014889   -2.6014889   -1.8422203  0.053624967   -2.6014889   0.75926865   424551 
  966000   0.63232985   -2.6006383   -2.6006383   -1.8421704   0.04621988   -2.6006383   0.75846786   424551 
  967000   0.62996541   -2.5985561   -2.5985561   -1.8429243  0.048135621   -2.5985561   0.75563175   424551 
  968000   0.63311475    -2.602529    -2.602529   -1.8431197  0.038093697    -2.602529   0.75940933   424551 
  969000   0.63202805    -2.601017    -2.601017   -1.8429111  0.061508153    -2.601017   0.75810585   424551 
  970000   0.63124643   -2.6003604   -2.6003604   -1.8431921  0.051722075   -2.6003604   0.75716831   424551 
  971000   0.63058447   -2.6001382   -2.6001382   -1.8437639  0.041146076   -2.6001382    0.7563743   424551 
  972000   0.63106526   -2.6001878   -2.6001878   -1.8432368  0.054985449   -2.6001878     0.756951   424551 
  973000    0.6313887   -2.6009245   -2.6009245   -1.8435856  0.048990374   -2.6009245   0.75733896   424551 
  974000   0.63220059   -2.6016561   -2.6016561   -1.8433433  0.048956098   -2.6016561    0.7583128   424551 
  975000   0.63225729   -2.6019583   -2.6019583   -1.8435775  0.051058625   -2.6019583   0.75838082   424551 
  976000   0.63211057   -2.6012805   -2.6012805   -1.8430757    0.0491605   -2.6012805   0.75820483   424551 
  977000   0.63153967   -2.6014715   -2.6014715   -1.8439515  0.052081347   -2.6014715   0.75752005   424551 
  978000   0.63255183   -2.6028684   -2.6028684   -1.8441343  0.047782474   -2.6028684   0.75873411   424551 
  979000   0.63222449   -2.6030217   -2.6030217   -1.8446802  0.052121996   -2.6030217   0.75834148   424551 
  980000   0.63095335   -2.6018163   -2.6018163   -1.8449995  0.048424415   -2.6018163   0.75681676   424551 
  981000   0.63188064    -2.602226    -2.602226    -1.844297  0.055598822    -2.602226   0.75792904   424551 
  982000   0.63137993   -2.6015363   -2.6015363   -1.8442079  0.049931093   -2.6015363   0.75732844   424551 
  983000   0.63157714   -2.6017624   -2.6017624   -1.8441974  0.039620517   -2.6017624   0.75756499   424551 
  984000   0.63214186   -2.6026175   -2.6026175   -1.8443751  0.057329829   -2.6026175   0.75824236   424551 
  985000   0.63131207   -2.6019554   -2.6019554   -1.8447084  0.053995431   -2.6019554   0.75724704   424551 
  986000   0.63174156   -2.6024135   -2.6024135   -1.8446513  0.049298415   -2.6024135   0.75776221   424551 
  987000   0.63151935    -2.601899    -2.601899   -1.8444033  0.051127672    -2.601899   0.75749567   424551 
  988000   0.63144826   -2.6021722   -2.6021722   -1.8447618   0.05963878   -2.6021722   0.75741041   424551 
  989000   0.63054289   -2.6020907   -2.6020907   -1.8457662  0.052485308   -2.6020907   0.75632443   424551 
  990000   0.63135291   -2.6037317   -2.6037317   -1.8464357  0.052956628   -2.6037317   0.75729603   424551 
  991000   0.63059082   -2.6030216   -2.6030216   -1.8466396  0.037560298   -2.6030216   0.75638192   424551 
  992000   0.63181276   -2.6041722   -2.6041722   -1.8463246  0.047245849   -2.6041722   0.75784762   424551 
  993000   0.63118005    -2.602903    -2.602903   -1.8458143  0.056834921    -2.602903   0.75708869   424551 
  994000    0.6313243   -2.6035116   -2.6035116   -1.8462499  0.046486573   -2.6035116   0.75726171   424551 
  995000    0.6318915   -2.6043628   -2.6043628   -1.8464207   0.05521982   -2.6043628   0.75794205   424551 
  996000   0.63185609   -2.6041097   -2.6041097   -1.8462101   0.04385926   -2.6041097   0.75789959   424551 
  997000   0.63267735   -2.6054494   -2.6054494   -1.8465647  0.048055112   -2.6054494   0.75888467   424551 
  998000   0.63150231   -2.6045359   -2.6045359   -1.8470606  0.050349914   -2.6045359   0.75747524   424551 
  999000    0.6306579   -2.6037028   -2.6037028   -1.8472404  0.049681755   -2.6037028   0.75646238   424551 
 1000000   0.63183494   -2.6055319   -2.6055319   -1.8476577  0.053831943   -2.6055319   0.75787422   424551 
 1001000   0.63178003   -2.6057658   -2.6057658   -1.8479575  0.050401511   -2.6057658   0.75780836   424551 
 1002000   0.63067782   -2.6052528   -2.6052528   -1.8487666  0.047945513   -2.6052528   0.75648628   424551 
 1003000   0.63101087   -2.6053943   -2.6053943   -1.8485085  0.054983143   -2.6053943   0.75688576   424551 
 1004000   0.63167293   -2.6062758   -2.6062758    -1.848596  0.045956748   -2.6062758   0.75767989   424551 
 1005000   0.63200275   -2.6064452   -2.6064452   -1.8483697  0.046038836   -2.6064452    0.7580755   424551 
 1006000   0.63258325   -2.6083789   -2.6083789   -1.8496071   0.04775001   -2.6083789   0.75877181   424551 
 1007000   0.63085523    -2.606075    -2.606075   -1.8493759  0.050649241    -2.606075   0.75669907   424551 
 1008000   0.63052139   -2.6054737   -2.6054737   -1.8491751  0.055950301   -2.6054737   0.75629864   424551 
 1009000   0.62962501   -2.6042872   -2.6042872   -1.8490638  0.049020657   -2.6042872   0.75522345   424551 
 1010000   0.63032689   -2.6054887   -2.6054887   -1.8494234  0.060024922   -2.6054887   0.75606534   424551 
 1011000   0.63016509   -2.6055534   -2.6055534   -1.8496822  0.044871469   -2.6055534   0.75587126   424551 
 1012000   0.63046211   -2.6058196   -2.6058196    -1.849592  0.042540173   -2.6058196   0.75622754   424551 
 1013000   0.63103599   -2.6066509   -2.6066509    -1.849735  0.049622839   -2.6066509   0.75691589   424551 
 1014000   0.63173421   -2.6075472   -2.6075472   -1.8497938  0.066606535   -2.6075472   0.75775339   424551 
 1015000   0.63043796   -2.6064821   -2.6064821   -1.8502835  0.054253089   -2.6064821   0.75619856   424551 
 1016000   0.63013959    -2.606975    -2.606975   -1.8511344  0.057332987    -2.606975   0.75584068   424551 
 1017000   0.63089198   -2.6078294   -2.6078294   -1.8510863  0.046161597   -2.6078294   0.75674316   424551 
 1018000   0.63057074   -2.6076552   -2.6076552   -1.8512974  0.044693663   -2.6076552   0.75635783   424551 
 1019000   0.62974681   -2.6070081   -2.6070081   -1.8516386  0.040116086   -2.6070081   0.75536954   424551 
 1020000   0.63047857   -2.6076882   -2.6076882   -1.8514409  0.040246568   -2.6076882   0.75624728   424551 
 1021000   0.62930083   -2.6070481   -2.6070481   -1.8522135  0.052459624   -2.6070481    0.7548346   424551 
 1022000   0.63053566   -2.6074217   -2.6074217   -1.8511059  0.051510936   -2.6074217   0.75631576   424551 
 1023000   0.63133111   -2.6085906   -2.6085906   -1.8513207  0.048571637   -2.6085906   0.75726989   424551 
 1024000   0.63148029   -2.6089512   -2.6089512   -1.8515024  0.054255887   -2.6089512   0.75744882   424551 
 1025000   0.63102655   -2.6093753   -2.6093753   -1.8524707   0.04911905   -2.6093753   0.75690456   424551 
 1026000   0.63142224   -2.6092762   -2.6092762    -1.851897  0.051686484   -2.6092762   0.75737919   424551 
 1027000   0.63118269   -2.6095847   -2.6095847   -1.8524929  0.055231118   -2.6095847   0.75709185   424551 
 1028000   0.63014598   -2.6087942   -2.6087942   -1.8529459  0.050297754   -2.6087942   0.75584834   424551 
 1029000   0.63227234   -2.6116069   -2.6116069   -1.8532081  0.059492216   -2.6116069   0.75839887   424551 
 1030000   0.63103805   -2.6099029   -2.6099029   -1.8529846   0.05112414   -2.6099029   0.75691836   424551 
 1031000   0.63148355   -2.6103908   -2.6103908   -1.8529381  0.055440268   -2.6103908   0.75745273   424551 
 1032000   0.63176261   -2.6112907   -2.6112907   -1.8535032  0.060135563   -2.6112907   0.75778746   424551 
 1033000   0.63118643    -2.610728    -2.610728   -1.8536317  0.048550766    -2.610728   0.75709634   424551 
 1034000   0.63215674   -2.6122625   -2.6122625   -1.8540022  0.055780192   -2.6122625   0.75826021   424551 
 1035000   0.63081306   -2.6106136   -2.6106136   -1.8539651   0.05084305   -2.6106136   0.75664849   424551 
 1036000   0.62985487   -2.6096142   -2.6096142   -1.8541151  0.049986516   -2.6096142   0.75549916   424551 
 1037000   0.62909081   -2.6084388   -2.6084388   -1.8538561   0.04876477   -2.6084388   0.75458268   424551 
 1038000   0.62957095   -2.6092468   -2.6092468   -1.8540882  0.047068508   -2.6092468    0.7551586   424551 
 1039000   0.63027006   -2.6094845   -2.6094845   -1.8534873  0.046395308   -2.6094845   0.75599718   424551 
 1040000   0.62960694    -2.608569    -2.608569   -1.8533672  0.052425037    -2.608569   0.75520177   424551 
 1041000   0.62927379   -2.6086424   -2.6086424   -1.8538402  0.050520738   -2.6086424   0.75480216   424551 
 1042000   0.63059891   -2.6100189   -2.6100189   -1.8536273  0.051832638   -2.6100189   0.75639163   424551 
 1043000   0.63112868   -2.6114755   -2.6114755   -1.8544484  0.059526634   -2.6114755   0.75702707   424551 
 1044000     0.630646   -2.6105961   -2.6105961    -1.854148  0.055271921   -2.6105961    0.7564481   424551 
 1045000   0.63047531   -2.6109043   -2.6109043    -1.854661  0.054529143   -2.6109043   0.75624337   424551 
 1046000   0.63026042   -2.6107875   -2.6107875   -1.8548019  0.043126091   -2.6107875   0.75598561   424551 
 1047000   0.63095359   -2.6117105   -2.6117105   -1.8548935  0.051048838   -2.6117105   0.75681705   424551 
 1048000   0.63083954   -2.6121382   -2.6121382    -1.855458  0.053335305   -2.6121382   0.75668025   424551 
 1049000   0.62989248   -2.6113191   -2.6113191   -1.8557748  0.050947557   -2.6113191   0.75554427   424551 
 1050000   0.63058973   -2.6126695   -2.6126695   -1.8562889  0.048733296   -2.6126695   0.75638061   424551 
 1051000   0.63207835   -2.6141563   -2.6141563   -1.8559901  0.041885002   -2.6141563   0.75816619   424551 
 1052000   0.63116754   -2.6132917   -2.6132917    -1.856218  0.047347896   -2.6132917   0.75707368   424551 
 1053000   0.63030984    -2.612186    -2.612186   -1.8561411  0.051301109    -2.612186   0.75604489   424551 
 1054000   0.62983602   -2.6118903   -2.6118903   -1.8564138  0.052215285   -2.6118903   0.75547655   424551 
 1055000   0.62966449   -2.6123445   -2.6123445   -1.8570737  0.052812922   -2.6123445    0.7552708   424551 
 1056000   0.62886602   -2.6109453   -2.6109453   -1.8566323  0.047429798   -2.6109453   0.75431305   424551 
 1057000   0.62929231   -2.6119082   -2.6119082   -1.8570838   0.04985125   -2.6119082   0.75482438   424551 
 1058000   0.63027039    -2.612342    -2.612342   -1.8563444  0.040668561    -2.612342   0.75599757   424551 
 1059000   0.63030571   -2.6127634   -2.6127634   -1.8567235  0.054351478   -2.6127634   0.75603993   424551 
 1060000   0.63042182   -2.6140363   -2.6140363   -1.8578571  0.058668137   -2.6140363    0.7561792   424551 
 1061000   0.63034657   -2.6146214   -2.6146214   -1.8585324  0.057160374   -2.6146214   0.75608894   424551 
 1062000   0.63114942   -2.6149442   -2.6149442   -1.8578922  0.044658951   -2.6149442   0.75705194   424551 
 1063000   0.62825598   -2.6119276   -2.6119276   -1.8583463   0.04969723   -2.6119276   0.75358132   424551 
 1064000   0.62913975   -2.6127496   -2.6127496   -1.8581082  0.051506037   -2.6127496   0.75464139   424551 
 1065000   0.63038573    -2.614843    -2.614843   -1.8587071  0.052721605    -2.614843   0.75613591   424551 
 1066000   0.62841067   -2.6139753   -2.6139753   -1.8602084  0.045140104   -2.6139753   0.75376687   424551 
 1067000   0.62933735    -2.614527    -2.614527   -1.8596486  0.038832744    -2.614527    0.7548784   424551 
 1068000   0.62941502   -2.6148192   -2.6148192   -1.8598476  0.045707242   -2.6148192   0.75497157   424551 
 1069000   0.63048448   -2.6161192   -2.6161192   -1.8598648  0.044742949   -2.6161192   0.75625437   424551 
 1070000   0.63112776   -2.6170974   -2.6170974   -1.8600715  0.052795181   -2.6170974   0.75702597   424551 
 1071000   0.62993079    -2.615755    -2.615755   -1.8601648  0.053218083    -2.615755   0.75559022   424551 
 1072000   0.62916451   -2.6140202   -2.6140202   -1.8593491  0.056374275   -2.6140202   0.75467108   424551 
 1073000   0.62943151   -2.6141988   -2.6141988   -1.8592074  0.046323977   -2.6141988   0.75499134   424551 
 1074000   0.63088112   -2.6166302   -2.6166302      -1.8599   0.05004474   -2.6166302   0.75673013   424551 
 1075000   0.62938377   -2.6149463   -2.6149463   -1.8600122  0.049048095   -2.6149463   0.75493409   424551 
 1076000   0.62988634   -2.6161189   -2.6161189    -1.860582  0.044756052   -2.6161189   0.75553691   424551 
 1077000    0.6294479   -2.6159558   -2.6159558   -1.8609447  0.046080365   -2.6159558   0.75501101   424551 
 1078000   0.62831015   -2.6142046   -2.6142046   -1.8605583  0.047891793   -2.6142046    0.7536463   424551 
 1079000   0.62904502   -2.6154535   -2.6154535   -1.8609258  0.053467399   -2.6154535   0.75452776   424551 
 1080000   0.62849589   -2.6150683   -2.6150683   -1.8611992  0.057670758   -2.6150683   0.75386909   424551 
 1081000   0.62864919   -2.6157223   -2.6157223   -1.8616694   0.05367913   -2.6157223   0.75405297   424551 
 1082000   0.62878706   -2.6156722   -2.6156722   -1.8614539  0.046759004   -2.6156722   0.75421834   424551 
 1083000   0.62880086   -2.6157521   -2.6157521   -1.8615172  0.046945616   -2.6157521   0.75423489   424551 
 1084000   0.62932492   -2.6153511   -2.6153511   -1.8604876  0.047524343   -2.6153511   0.75486349   424551 
 1085000   0.62831726   -2.6138953   -2.6138953   -1.8602404  0.044511118   -2.6138953   0.75365482   424551 
 1086000   0.62935423   -2.6156337   -2.6156337    -1.860735  0.051631803   -2.6156337   0.75489865   424551 
 1087000   0.62879893   -2.6145619   -2.6145619   -1.8603293  0.043503583   -2.6145619   0.75423258   424551 
 1088000   0.63088125   -2.6171411   -2.6171411   -1.8604109  0.048951988   -2.6171411   0.75673029   424551 
 1089000   0.62896523    -2.615734    -2.615734   -1.8613019  0.048279246    -2.615734   0.75443206   424551 
 1090000   0.62966656   -2.6167344   -2.6167344   -1.8614611  0.047212774   -2.6167344   0.75527328   424551 
 1091000   0.62934175   -2.6166116   -2.6166116   -1.8617279  0.047061004   -2.6166116   0.75488369   424551 
 1092000    0.6293173   -2.6161146   -2.6161146   -1.8612602  0.058486409   -2.6161146   0.75485436   424551 
 1093000   0.62874927   -2.6165445   -2.6165445   -1.8623715  0.051054666   -2.6165445   0.75417301   424551 
 1094000   0.62892394   -2.6171058   -2.6171058   -1.8627232  0.049946716   -2.6171058   0.75438252   424551 
 1095000   0.62912885   -2.6178787   -2.6178787   -1.8632504   0.05529898   -2.6178787   0.75462832   424551 
 1096000   0.62844714   -2.6169907   -2.6169907   -1.8631801  0.051417046   -2.6169907   0.75381061   424551 
 1097000   0.62932601   -2.6176918   -2.6176918    -1.862827  0.051541865   -2.6176918    0.7548648   424551 
 1098000   0.62942405   -2.6173636   -2.6173636   -1.8623812  0.048718741   -2.6173636    0.7549824   424551 
 1099000   0.62929427   -2.6176673   -2.6176673   -1.8628405   0.05163729   -2.6176673   0.75482673   424551 
 1100000   0.62980293   -2.6178858   -2.6178858   -1.8624489  0.052039072   -2.6178858   0.75543686   424551 
 1101000   0.63003262   -2.6186446   -2.6186446   -1.8629322  0.044043671   -2.6186446   0.75571237   424551 
 1102000   0.62897207   -2.6181672   -2.6181672   -1.8637269  0.047100193   -2.6181672   0.75444026   424551 
 1103000    0.6273922   -2.6169517   -2.6169517   -1.8644065  0.052004547   -2.6169517   0.75254524   424551 
 1104000   0.62835963   -2.6183102   -2.6183102   -1.8646046  0.046080483   -2.6183102   0.75370565   424551 
 1105000   0.62891814   -2.6190924   -2.6190924   -1.8647169  0.050955232   -2.6190924   0.75437557   424551 
 1106000   0.62900511   -2.6186029   -2.6186029    -1.864123  0.052800274   -2.6186029   0.75447989   424551 
 1107000    0.6290951   -2.6196795   -2.6196795   -1.8650917   0.05381553   -2.6196795   0.75458784   424551 
 1108000    0.6289057   -2.6189569   -2.6189569   -1.8645963   0.05241223   -2.6189569   0.75436065   424551 
 1109000   0.62795399   -2.6186024   -2.6186024   -1.8653833  0.044242383   -2.6186024   0.75321909   424551 
 1110000   0.62798256   -2.6187903   -2.6187903    -1.865537  0.044194648   -2.6187903   0.75325336   424551 
 1111000   0.62909179     -2.61992     -2.61992   -1.8653361  0.046220207     -2.61992   0.75458386   424551 
 1112000   0.63078767   -2.6222379   -2.6222379   -1.8656198  0.048980244   -2.6222379   0.75661804   424551 
 1113000   0.62983296   -2.6212032   -2.6212032   -1.8657303  0.049047336   -2.6212032   0.75547288   424551 
 1114000   0.62953433   -2.6211305   -2.6211305   -1.8660159  0.049185279   -2.6211305   0.75511468   424551 
 1115000   0.63067317   -2.6220987   -2.6220987    -1.865618   0.04535666   -2.6220987   0.75648069   424551 
 1116000   0.62877214   -2.6204248   -2.6204248   -1.8662243  0.045919831   -2.6204248   0.75420045   424551 
 1117000   0.62993004    -2.621335    -2.621335   -1.8657457  0.048777901    -2.621335   0.75558932   424551 
 1118000   0.62964144   -2.6214736   -2.6214736   -1.8662305  0.052435815   -2.6214736   0.75524316   424551 
 1119000   0.62866596   -2.6210438   -2.6210438   -1.8669707  0.048924667   -2.6210438   0.75407309   424551 
 1120000   0.62812753   -2.6205799   -2.6205799   -1.8671527  0.050184011   -2.6205799   0.75342725   424551 
 1121000   0.62812632    -2.620525    -2.620525   -1.8670992  0.058334352    -2.620525    0.7534258   424551 
 1122000   0.62957654   -2.6217625   -2.6217625   -1.8665972  0.056675175   -2.6217625   0.75516531   424551 
 1123000    0.6290581   -2.6211115   -2.6211115    -1.866568  0.049584944   -2.6211115   0.75454345   424551 
 1124000    0.6285572   -2.6205381   -2.6205381   -1.8665955  0.044048764   -2.6205381   0.75394263   424551 
 1125000   0.63002791   -2.6225911   -2.6225911   -1.8668844  0.045644355   -2.6225911   0.75570671   424551 
 1126000   0.62809517   -2.6207216   -2.6207216   -1.8673332  0.039652661   -2.6207216   0.75338843   424551 
 1127000   0.62826177   -2.6204361   -2.6204361   -1.8668478  0.047447883   -2.6204361   0.75358827   424551 
 1128000    0.6287049   -2.6209864   -2.6209864   -1.8668666  0.042742722   -2.6209864   0.75411979   424551 
 1129000   0.62691451   -2.6190587   -2.6190587   -1.8670864  0.038585133   -2.6190587   0.75197226   424551 
 1130000   0.62729415   -2.6193849   -2.6193849   -1.8669573  0.049895203   -2.6193849   0.75242762   424551 
 1131000   0.62837083   -2.6210612   -2.6210612   -1.8673422  0.043611154   -2.6210612   0.75371908   424551 
 1132000   0.62796679   -2.6200051   -2.6200051   -1.8667706  0.053352074   -2.6200051   0.75323445   424551 
 1133000   0.62753448   -2.6198327   -2.6198327   -1.8671168  0.037229262   -2.6198327    0.7527159   424551 
 1134000   0.62763007   -2.6198138   -2.6198138   -1.8669832  0.049496418   -2.6198138   0.75283055   424551 
 1135000   0.62798152   -2.6201234   -2.6201234   -1.8668713  0.043508275   -2.6201234   0.75325211   424551 
 1136000   0.62818085   -2.6203242   -2.6203242    -1.866833   0.05892225   -2.6203242   0.75349121   424551 
 1137000   0.62836611   -2.6204488   -2.6204488   -1.8667354  0.057637878   -2.6204488   0.75371342   424551 
 1138000   0.62952418   -2.6227841   -2.6227841   -1.8676816  0.047420213   -2.6227841    0.7551025   424551 
 1139000   0.62927395   -2.6236116   -2.6236116   -1.8688092  0.050643891   -2.6236116   0.75480236   424551 
 1140000    0.6298421   -2.6244787   -2.6244787   -1.8689949  0.044390343   -2.6244787   0.75548384   424551 
 1141000   0.62841157   -2.6230053   -2.6230053   -1.8692374  0.041496756   -2.6230053   0.75376795   424551 
 1142000    0.6283123   -2.6237466   -2.6237466   -1.8700977  0.053911369   -2.6237466   0.75364887   424551 
 1143000   0.62799003   -2.6237144   -2.6237144    -1.870452  0.047536393   -2.6237144   0.75326231   424551 
 1144000   0.62849637    -2.625016    -2.625016   -1.8711463  0.044530338    -2.625016   0.75386966   424551 
 1145000    0.6281337   -2.6247046   -2.6247046     -1.87127  0.045735856   -2.6247046   0.75343465   424551 
 1146000   0.62691904   -2.6235248   -2.6235248   -1.8715471  0.057711142   -2.6235248   0.75197769   424551 
 1147000   0.62773111   -2.6241094   -2.6241094   -1.8711576  0.046105966   -2.6241094   0.75295175   424551 
 1148000   0.62767616   -2.6230695   -2.6230695   -1.8701836   0.04223138   -2.6230695   0.75288584   424551 
 1149000   0.62800108   -2.6239679   -2.6239679   -1.8706924  0.045263217   -2.6239679   0.75327557   424551 
 1150000   0.62768519   -2.6235102   -2.6235102   -1.8706135  0.046260246   -2.6235102   0.75289667   424551 
 1151000   0.62769493   -2.6241358   -2.6241358   -1.8712275  0.042371456   -2.6241358   0.75290836   424551 
 1152000   0.62839206   -2.6249272   -2.6249272   -1.8711826  0.048177548   -2.6249272   0.75374454   424551 
 1153000   0.62842133   -2.6246801   -2.6246801   -1.8709005  0.042323402   -2.6246801   0.75377966   424551 
 1154000   0.62718823   -2.6236825   -2.6236825    -1.871382  0.048524142   -2.6236825   0.75230057   424551 
 1155000   0.62829516   -2.6244249   -2.6244249   -1.8707966  0.048486198   -2.6244249   0.75362832   424551 
 1156000   0.62777737   -2.6256893   -2.6256893   -1.8726821  0.045167754   -2.6256893   0.75300724   424551 
 1157000    0.6276647   -2.6253423   -2.6253423   -1.8724702  0.045232803   -2.6253423    0.7528721   424551 
 1158000   0.62657843    -2.624544    -2.624544   -1.8729748  0.041735334    -2.624544   0.75156913   424551 
 1159000   0.62621078   -2.6244789   -2.6244789   -1.8733507  0.043015225   -2.6244789   0.75112815   424551 
 1160000   0.62850197   -2.6262993   -2.6262993   -1.8724229  0.046619821   -2.6262993   0.75387638   424551 
 1161000   0.62642292   -2.6244708   -2.6244708   -1.8730882   0.05081155   -2.6244708    0.7513826   424551 
 1162000   0.62824026   -2.6267027   -2.6267027   -1.8731402  0.049078465   -2.6267027   0.75356247   424551 
 1163000   0.62745074   -2.6262561   -2.6262561   -1.8736406  0.042226004   -2.6262561   0.75261546   424551 
 1164000   0.62813807   -2.6276654   -2.6276654   -1.8742255  0.044157471   -2.6276654   0.75343989   424551 
 1165000   0.62791465   -2.6280623   -2.6280623   -1.8748904  0.048098094   -2.6280623    0.7531719   424551 
 1166000   0.62749485   -2.6278623   -2.6278623   -1.8751939  0.046659536   -2.6278623   0.75266836   424551 
 1167000   0.62694163   -2.6275895   -2.6275895   -1.8755847  0.048554444   -2.6275895   0.75200479   424551 
 1168000   0.62705335   -2.6272835   -2.6272835   -1.8751447  0.046959782   -2.6272835   0.75213879   424551 
 1169000   0.62791498   -2.6281531   -2.6281531   -1.8749808  0.047557295   -2.6281531    0.7531723   424551 
 1170000     0.626473   -2.6270868   -2.6270868   -1.8756441  0.049852724   -2.6270868   0.75144266   424551 
 1171000   0.62712649   -2.6277395   -2.6277395    -1.875513  0.055490206   -2.6277395   0.75222652   424551 
 1172000   0.62676098   -2.6271828   -2.6271828   -1.8753947  0.050495035   -2.6271828   0.75178809   424551 
 1173000   0.62642976   -2.6271087   -2.6271087   -1.8757179  0.044486316   -2.6271087   0.75139081   424551 
 1174000   0.62681249   -2.6273359   -2.6273359    -1.875486  0.051367727   -2.6273359   0.75184988   424551 
 1175000   0.62712282   -2.6273162   -2.6273162    -1.875094  0.055802855   -2.6273162   0.75222212   424551 
 1176000    0.6265506   -2.6272674   -2.6272674   -1.8757317  0.051353495   -2.6272674   0.75153575   424551 
 1177000   0.62684428   -2.6279272   -2.6279272   -1.8760391  0.045730055   -2.6279272   0.75188802   424551 
 1178000   0.62767742   -2.6295133   -2.6295133    -1.876626  0.039524262   -2.6295133   0.75288735   424551 
 1179000    0.6263919   -2.6270829   -2.6270829   -1.8757375  0.045226389   -2.6270829    0.7513454   424551 
 1180000   0.62529429   -2.6263291   -2.6263291   -1.8763003  0.049095255   -2.6263291   0.75002883   424551 
 1181000    0.6269036   -2.6289869   -2.6289869   -1.8770278  0.041102257   -2.6289869   0.75195916   424551 
 1182000   0.62641706   -2.6284681   -2.6284681   -1.8770925  0.045904819   -2.6284681   0.75137557   424551 
 1183000   0.62687563   -2.6292693   -2.6292693   -1.8773437  0.041264947   -2.6292693   0.75192562   424551 
 1184000    0.6271553   -2.6298352   -2.6298352   -1.8775741  0.043617964   -2.6298352   0.75226107   424551 
 1185000   0.62776434   -2.6311521   -2.6311521   -1.8781605  0.047144021   -2.6311521   0.75299161   424551 
 1186000   0.62719521   -2.6303997   -2.6303997   -1.8780908  0.048630901   -2.6303997   0.75230894   424551 
 1187000   0.62724213   -2.6311908   -2.6311908   -1.8788255  0.040453553   -2.6311908   0.75236523   424551 
 1188000   0.62619094   -2.6296381   -2.6296381   -1.8785337  0.036877391   -2.6296381   0.75110435   424551 
 1189000   0.62777614   -2.6318911   -2.6318911   -1.8788853  0.048989254   -2.6318911   0.75300576   424551 
 1190000   0.62622402   -2.6301522   -2.6301522   -1.8790082  0.048697422   -2.6301522   0.75114402   424551 
 1191000   0.62612098   -2.6299875   -2.6299875   -1.8789671  0.051384962   -2.6299875   0.75102043   424551 
 1192000   0.62609556   -2.6297111   -2.6297111   -1.8787212  0.048771279   -2.6297111   0.75098994   424551 
 1193000   0.62780799   -2.6320263   -2.6320263   -1.8789823  0.041898521   -2.6320263   0.75304396   424551 
 1194000   0.62747817   -2.6311941   -2.6311941   -1.8785457  0.041808207   -2.6311941   0.75264836   424551 
 1195000   0.62664496   -2.6308052   -2.6308052   -1.8791563  0.046870767   -2.6308052   0.75164893   424551 
 1196000   0.62557789   -2.6295408   -2.6295408   -1.8791718  0.041413765   -2.6295408     0.750369   424551 
 1197000   0.62584413   -2.6304676   -2.6304676   -1.8797793  0.054140903   -2.6304676   0.75068835   424551 
 1198000   0.62593569    -2.630855    -2.630855   -1.8800568  0.050257251    -2.630855   0.75079818   424551 
 1199000   0.62671137   -2.6321975   -2.6321975    -1.880469  0.035759045   -2.6321975    0.7517286   424551 
 1200000   0.62684974   -2.6324544   -2.6324544   -1.8805598   0.04638054   -2.6324544   0.75189457   424551 
 1201000   0.62575652   -2.6320999   -2.6320999   -1.8815167  0.051463913   -2.6320999   0.75058326   424551 
 1202000    0.6244519   -2.6314582   -2.6314582   -1.8824398   0.04686271   -2.6314582   0.74901839   424551 
 1203000   0.62663803   -2.6331655   -2.6331655   -1.8815249  0.043545791   -2.6331655   0.75164062   424551 
 1204000   0.62655747   -2.6333572   -2.6333572   -1.8818133  0.050759978   -2.6333572   0.75154399   424551 
 1205000   0.62585566   -2.6325927   -2.6325927   -1.8818905  0.045841381   -2.6325927   0.75070219   424551 
 1206000   0.62670896   -2.6338477   -2.6338477    -1.882122  0.047643974   -2.6338477    0.7517257   424551 
 1207000   0.62697984   -2.6336736   -2.6336736   -1.8816229  0.056784414   -2.6336736   0.75205061   424551 
 1208000   0.62583766   -2.6325398   -2.6325398   -1.8818592  0.050311746   -2.6325398   0.75068059   424551 
 1209000    0.6271175   -2.6335942   -2.6335942   -1.8813785   0.04612501   -2.6335942   0.75221573   424551 
 1210000   0.62731202   -2.6338485   -2.6338485   -1.8813994  0.044733167   -2.6338485   0.75244906   424551 
 1211000   0.62660518    -2.632363    -2.632363   -1.8807618   0.03861207    -2.632363   0.75160122   424551 
 1212000   0.62676663   -2.6323347   -2.6323347   -1.8805399  0.056123037   -2.6323347   0.75179487   424551 
 1213000   0.62631577    -2.632102    -2.632102   -1.8808479  0.054170008    -2.632102   0.75125408   424551 
 1214000   0.62701578   -2.6331266   -2.6331266   -1.8810329  0.052375474   -2.6331266   0.75209373   424551 
 1215000   0.62634274   -2.6324348   -2.6324348   -1.8811484  0.047000138   -2.6324348   0.75128642   424551 
 1216000    0.6264689   -2.6330403   -2.6330403   -1.8816025  0.042093237   -2.6330403   0.75143776   424551 
 1217000   0.62413952   -2.6304657   -2.6304657    -1.881822   0.04500493   -2.6304657   0.74864371   424551 
 1218000   0.62523016   -2.6319242   -2.6319242   -1.8819723  0.043056028   -2.6319242   0.74995191   424551 
 1219000   0.62453682   -2.6318224   -2.6318224   -1.8827021  0.045512727   -2.6318224   0.74912025   424551 
 1220000   0.62505723   -2.6320036   -2.6320036   -1.8822591  0.049334138   -2.6320036   0.74974448   424551 
 1221000   0.62472277   -2.6322218   -2.6322218   -1.8828785  0.040757774   -2.6322218    0.7493433   424551 
 1222000   0.62556133   -2.6328566   -2.6328566   -1.8825075  0.043829406   -2.6328566   0.75034914   424551 
 1223000   0.62488368   -2.6323543   -2.6323543   -1.8828179  0.052456876   -2.6323543   0.74953631   424551 
 1224000   0.62516918   -2.6319683   -2.6319683   -1.8820896  0.051954779   -2.6319683   0.74987877   424551 
 1225000   0.62467396   -2.6313141   -2.6313141   -1.8820293  0.043339144   -2.6313141   0.74928475   424551 
 1226000   0.62553303   -2.6324989   -2.6324989   -1.8821837  0.039074069   -2.6324989   0.75031519   424551 
 1227000   0.62614567   -2.6327891   -2.6327891   -1.8817391  0.050040351   -2.6327891   0.75105005   424551 
 1228000   0.62533362   -2.6326064   -2.6326064   -1.8825304  0.040005277   -2.6326064   0.75007601   424551 
 1229000   0.62643511   -2.6338811   -2.6338811   -1.8824839  0.045877484   -2.6338811   0.75139723   424551 
 1230000   0.62582475   -2.6331993   -2.6331993   -1.8825342   0.04580517   -2.6331993   0.75066511   424551 
 1231000   0.62614994    -2.633365    -2.633365   -1.8823098  0.045374617    -2.633365   0.75105517   424551 
 1232000   0.62617495   -2.6339783   -2.6339783   -1.8828932  0.042519726   -2.6339783   0.75108516   424551 
 1233000   0.62508016   -2.6329672   -2.6329672   -1.8831952  0.053212319   -2.6329672   0.74977199   424551 
 1234000   0.62572933   -2.6338665   -2.6338665   -1.8833159  0.046359803   -2.6338665   0.75055065   424551 
 1235000    0.6253776   -2.6339336   -2.6339336   -1.8838049  0.039094394   -2.6339336   0.75012876   424551 
 1236000   0.62608676    -2.634424    -2.634424   -1.8834447  0.048508178    -2.634424   0.75097939   424551 
 1237000   0.62581178    -2.634237    -2.634237   -1.8835875  0.050305952    -2.634237   0.75064955   424551 
 1238000   0.62546747   -2.6333325   -2.6333325   -1.8830959  0.053421054   -2.6333325   0.75023656   424551 
 1239000   0.62636597   -2.6344063   -2.6344063   -1.8830921  0.045662818   -2.6344063   0.75131429   424551 
 1240000   0.62501958   -2.6338655   -2.6338655   -1.8841662   0.04521842   -2.6338655   0.74969933   424551 
 1241000   0.62511412   -2.6346208   -2.6346208   -1.8848081  0.041432368   -2.6346208   0.74981272   424551 
 1242000   0.62489973   -2.6346566   -2.6346566   -1.8851011  0.046773329   -2.6346566   0.74955556   424551 
 1243000   0.62431855   -2.6339845   -2.6339845   -1.8851261  0.034136418   -2.6339845   0.74885845   424551 
 1244000   0.62551837   -2.6357879   -2.6357879   -1.8854903  0.046547995   -2.6357879   0.75029761   424551 
 1245000   0.62672663   -2.6372193   -2.6372193   -1.8854724  0.055144387   -2.6372193   0.75174689   424551 
 1246000   0.62698062   -2.6374357   -2.6374357   -1.8853842  0.039148478   -2.6374357   0.75205155   424551 
 1247000   0.62667102   -2.6374297   -2.6374297   -1.8857495  0.037935126   -2.6374297   0.75168019   424551 
 1248000   0.62531884   -2.6370119   -2.6370119   -1.8869536  0.049301668   -2.6370119   0.75005828   424551 
 1249000   0.62543887   -2.6376971   -2.6376971   -1.8874949   0.05828988   -2.6376971   0.75020225   424551 
 1250000   0.62539113   -2.6374858   -2.6374858   -1.8873408  0.052631551   -2.6374858   0.75014498   424551 
 1251000   0.62448206   -2.6368255   -2.6368255   -1.8877709  0.044786411   -2.6368255   0.74905457   424551 
 1252000   0.62541195   -2.6377813   -2.6377813   -1.8876114  0.041611592   -2.6377813   0.75016996   424551 
 1253000   0.62514041   -2.6368468   -2.6368468   -1.8870026  0.044113805   -2.6368468   0.74984425   424551 
 1254000   0.62572926   -2.6375923   -2.6375923   -1.8870418  0.047594338   -2.6375923   0.75055056   424551 
 1255000    0.6263173   -2.6383565   -2.6383565   -1.8871006  0.046030118   -2.6383565   0.75125591   424551 
 1256000   0.62423289     -2.63643     -2.63643   -1.8876743  0.054247071     -2.63643    0.7487557   424551 
 1257000   0.62693881   -2.6388748   -2.6388748   -1.8868734  0.044802877   -2.6388748    0.7520014   424551 
 1258000   0.62500422   -2.6370408   -2.6370408   -1.8873599  0.052615393   -2.6370408    0.7496809   424551 
 1259000   0.62461105   -2.6366174   -2.6366174   -1.8874081  0.058872664   -2.6366174    0.7492093   424551 
 1260000   0.62513004   -2.6361385   -2.6361385   -1.8863067  0.048134701   -2.6361385   0.74983182   424551 
 1261000   0.62560636   -2.6374693   -2.6374693   -1.8870661  0.042537719   -2.6374693   0.75040315   424551 
 1262000   0.62538366   -2.6372839   -2.6372839   -1.8871479  0.042003424   -2.6372839   0.75013602   424551 
 1263000   0.62532789   -2.6372253   -2.6372253   -1.8871562  0.048578517   -2.6372253   0.75006914   424551 
 1264000   0.62473323    -2.636311    -2.636311   -1.8869551   0.04792948    -2.636311   0.74935585   424551 
 1265000   0.62523495   -2.6373508   -2.6373508   -1.8873932  0.056155367   -2.6373508   0.74995765   424551 
 1266000   0.62486527   -2.6372456   -2.6372456   -1.8877314  0.048402135   -2.6372456   0.74951422   424551 
 1267000   0.62591371   -2.6376941   -2.6376941   -1.8869223  0.047703807   -2.6376941   0.75077182   424551 
 1268000   0.62508616   -2.6375954   -2.6375954   -1.8878163  0.038328598   -2.6375954   0.74977918   424551 
 1269000     0.626642   -2.6390899   -2.6390899   -1.8874445  0.045577326   -2.6390899   0.75164539   424551 
 1270000   0.62605062   -2.6377626   -2.6377626   -1.8868265  0.049948012   -2.6377626   0.75093603   424551 
 1271000   0.62439076     -2.63674     -2.63674    -1.887795  0.059745992     -2.63674   0.74894507   424551 
 1272000   0.62534675   -2.6384031   -2.6384031   -1.8883113  0.050893754   -2.6384031   0.75009176   424551 
 1273000   0.62515217   -2.6374816   -2.6374816   -1.8876232  0.047136434   -2.6374816   0.74985836   424551 
 1274000   0.62596594   -2.6390632   -2.6390632   -1.8882287  0.038501607   -2.6390632   0.75083447   424551 
 1275000   0.62646873   -2.6397392   -2.6397392   -1.8883017  0.045461882   -2.6397392   0.75143754   424551 
 1276000   0.62582105   -2.6389091   -2.6389091   -1.8882485  0.037191624   -2.6389091   0.75066067   424551 
 1277000   0.62604391   -2.6391708   -2.6391708   -1.8882428  0.050752671   -2.6391708   0.75092799   424551 
 1278000   0.62595344    -2.638577    -2.638577   -1.8877575  0.048473504    -2.638577   0.75081947   424551 
 1279000   0.62480455   -2.6380421   -2.6380421   -1.8886007  0.049955178   -2.6380421   0.74944139   424551 
 1280000   0.62610782   -2.6399812   -2.6399812   -1.8889765  0.042250028   -2.6399812   0.75100464   424551 
 1281000   0.62478164   -2.6373437   -2.6373437   -1.8879298  0.051514817   -2.6373437   0.74941391   424551 
 1282000   0.62469716   -2.6381822   -2.6381822   -1.8888696  0.046917809   -2.6381822   0.74931259   424551 
 1283000   0.62472466   -2.6385905   -2.6385905   -1.8892449  0.042138407   -2.6385905   0.74934556   424551 
 1284000   0.62462879   -2.6385924   -2.6385924   -1.8893618  0.049750154   -2.6385924   0.74923057   424551 
 1285000   0.62570844    -2.640264    -2.640264   -1.8897384  0.044241045    -2.640264    0.7505256   424551 
 1286000   0.62626953   -2.6406881   -2.6406881   -1.8894895  0.051188077   -2.6406881   0.75119861   424551 
 1287000   0.62521523   -2.6397515   -2.6397515   -1.8898175  0.048359613   -2.6397515     0.749934   424551 
 1288000   0.62482875   -2.6394669   -2.6394669   -1.8899964  0.055399648   -2.6394669   0.74947042   424551 
 1289000   0.62553664   -2.6408252   -2.6408252   -1.8905056  0.039481404   -2.6408252   0.75031953   424551 
 1290000   0.62583754   -2.6411195   -2.6411195   -1.8904391  0.051639178   -2.6411195   0.75068045   424551 
 1291000   0.62580136   -2.6419799   -2.6419799   -1.8913428  0.048762198   -2.6419799   0.75063706   424551 
 1292000   0.62399115   -2.6407029   -2.6407029   -1.8922372  0.045406404   -2.6407029   0.74846574   424551 
 1293000   0.62485486   -2.6408874   -2.6408874   -1.8913857  0.050504798   -2.6408874   0.74950174   424551 
 1294000    0.6253112     -2.64177     -2.64177   -1.8917208  0.044362138     -2.64177   0.75004911   424551 
 1295000   0.62562053   -2.6422725   -2.6422725   -1.8918523  0.041490801   -2.6422725   0.75042015   424551 
 1296000   0.62414836   -2.6407936   -2.6407936   -1.8921393  0.053139195   -2.6407936   0.74865431   424551 
 1297000   0.62369629   -2.6400153   -2.6400153   -1.8919033  0.045700363   -2.6400153   0.74811206   424551 
 1298000   0.62414394   -2.6404621   -2.6404621   -1.8918131  0.057372704   -2.6404621   0.74864901   424551 
 1299000   0.62530767   -2.6416271   -2.6416271   -1.8915822  0.045379094   -2.6416271   0.75004488   424551 
 1300000   0.62467387   -2.6406054   -2.6406054   -1.8913207  0.044310325   -2.6406054   0.74928465   424551 
 1301000   0.62470221   -2.6399534   -2.6399534   -1.8906347  0.047158271   -2.6399534   0.74931864   424551 
 1302000   0.62467388   -2.6396354   -2.6396354   -1.8903507  0.053156409   -2.6396354   0.74928465   424551 
 1303000    0.6244852   -2.6403875   -2.6403875   -1.8913291  0.038025147   -2.6403875   0.74905835   424551 
 1304000   0.62442105   -2.6405165   -2.6405165   -1.8915351   0.04290858   -2.6405165    0.7489814   424551 
 1305000   0.62479602   -2.6406048   -2.6406048   -1.8911736  0.047247041   -2.6406048   0.74943117   424551 
 1306000   0.62561063   -2.6413217   -2.6413217   -1.8909134  0.046479469   -2.6413217   0.75040827   424551 
 1307000   0.62454252   -2.6412206   -2.6412206   -1.8920935  0.048156702   -2.6412206    0.7491271   424551 
 1308000   0.62527457   -2.6419242   -2.6419242   -1.8919191  0.044211617   -2.6419242   0.75000518   424551 
 1309000   0.62496255   -2.6418193   -2.6418193   -1.8921884  0.054065721   -2.6418193   0.74963091   424551 
 1310000    0.6246205   -2.6416767   -2.6416767   -1.8924561   0.04350131   -2.6416767   0.74922063   424551 
 1311000   0.62300309   -2.6396872   -2.6396872   -1.8924067  0.046897302   -2.6396872   0.74728058   424551 
 1312000   0.62560624    -2.642699    -2.642699    -1.892296   0.05120102    -2.642699   0.75040301   424551 
 1313000   0.62575696   -2.6424716   -2.6424716   -1.8918878  0.054828766   -2.6424716   0.75058379   424551 
 1314000   0.62687134   -2.6438326   -2.6438326   -1.8919121  0.047703029   -2.6438326   0.75192047   424551 
 1315000   0.62620126   -2.6436406   -2.6436406   -1.8925239  0.045777995   -2.6436406   0.75111672   424551 
 1316000   0.62593553     -2.64393     -2.64393   -1.8931321  0.050417007     -2.64393   0.75079799   424551 
 1317000   0.62446634    -2.642239    -2.642239   -1.8932032  0.045495678    -2.642239   0.74903572   424551 
 1318000   0.62580765   -2.6443424   -2.6443424   -1.8936978   0.05168758   -2.6443424    0.7506446   424551 
 1319000   0.62518963   -2.6436042   -2.6436042   -1.8937009  0.046571639   -2.6436042    0.7499033   424551 
 1320000   0.62434946   -2.6424073   -2.6424073   -1.8935118  0.056544216   -2.6424073   0.74889552   424551 
 1321000   0.62535583   -2.6443609   -2.6443609   -1.8942583  0.052026116   -2.6443609   0.75010264   424551 
 1322000   0.62461768   -2.6443799   -2.6443799   -1.8951627  0.035208529   -2.6443799   0.74921725   424551 
 1323000   0.62528435   -2.6449987   -2.6449987   -1.8949818   0.05073454   -2.6449987   0.75001691   424551 
 1324000   0.62424514   -2.6443957   -2.6443957   -1.8956253  0.054593028   -2.6443957    0.7487704   424551 
 1325000   0.62490445   -2.6451168   -2.6451168   -1.8955556  0.038265847   -2.6451168   0.74956122   424551 
 1326000    0.6249431   -2.6454809   -2.6454809   -1.8958733  0.043969033   -2.6454809   0.74960759   424551 
 1327000   0.62564983   -2.6465161   -2.6465161   -1.8960608  0.043273374   -2.6465161    0.7504553   424551 
 1328000    0.6264554   -2.6470079   -2.6470079   -1.8955864  0.045116622   -2.6470079   0.75142156   424551 
 1329000   0.62559936   -2.6463067   -2.6463067    -1.895912  0.046581393   -2.6463067   0.75039475   424551 
 1330000   0.62478567   -2.6451019   -2.6451019   -1.8956831  0.055991827   -2.6451019   0.74941875   424551 
 1331000   0.62519586   -2.6458733   -2.6458733   -1.8959625  0.050997444   -2.6458733   0.74991077   424551 
 1332000   0.62433422   -2.6440596   -2.6440596   -1.8951823  0.050390798   -2.6440596   0.74887724   424551 
 1333000   0.62587396   -2.6455372   -2.6455372   -1.8948131  0.043146751   -2.6455372   0.75072414   424551 
 1334000    0.6264086   -2.6461025   -2.6461025    -1.894737  0.049562289   -2.6461025   0.75136542   424551 
 1335000   0.62655818    -2.646738    -2.646738   -1.8951931    0.0525176    -2.646738   0.75154485   424551 
 1336000   0.62518157   -2.6458497   -2.6458497   -1.8959561  0.040747764   -2.6458497   0.74989362   424551 
 1337000    0.6247003   -2.6451837   -2.6451837   -1.8958673   0.04628223   -2.6451837   0.74931635   424551 
 1338000   0.62481464   -2.6459631   -2.6459631   -1.8965095  0.041595782   -2.6459631    0.7494535   424551 
 1339000   0.62511855   -2.6461305   -2.6461305   -1.8963125  0.043360019   -2.6461305   0.74981803   424551 
 1340000    0.6246132    -2.645094    -2.645094   -1.8958821  0.041974256    -2.645094   0.74921188   424551 
 1341000   0.62472465   -2.6450774   -2.6450774   -1.8957319  0.050849133   -2.6450774   0.74934556   424551 
 1342000   0.62419532   -2.6449149   -2.6449149   -1.8962042  0.041594807   -2.6449149   0.74871064   424551 
 1343000   0.62421259   -2.6445757   -2.6445757   -1.8958443  0.041201463   -2.6445757   0.74873135   424551 
 1344000   0.62370929   -2.6447787   -2.6447787    -1.896651  0.044192895   -2.6447787   0.74812765   424551 
 1345000   0.62310425   -2.6442809   -2.6442809    -1.896879  0.044267357   -2.6442809   0.74740192   424551 
 1346000   0.62405076   -2.6451656   -2.6451656   -1.8966283  0.041985745   -2.6451656   0.74853723   424551 
 1347000   0.62277352   -2.6440975   -2.6440975   -1.8970922  0.046681835   -2.6440975   0.74700522   424551 
 1348000   0.62376046   -2.6459834   -2.6459834   -1.8977944  0.042713802   -2.6459834   0.74818902   424551 
 1349000    0.6227514    -2.645782    -2.645782   -1.8988034  0.038294547    -2.645782   0.74697868   424551 
 1350000   0.62261171   -2.6458848   -2.6458848   -1.8990737  0.048714494   -2.6458848   0.74681112   424551 
 1351000    0.6233587     -2.64659     -2.64659   -1.8988828  0.045167673     -2.64659   0.74770713   424551 
 1352000   0.62481352   -2.6473594   -2.6473594   -1.8979073  0.050609356   -2.6473594   0.74945215   424551 
 1353000   0.62510108    -2.646724    -2.646724   -1.8969269  0.046169296    -2.646724   0.74979707   424551 
 1354000   0.62421069   -2.6463208   -2.6463208   -1.8975917  0.047805275   -2.6463208   0.74872907   424551 
 1355000   0.62565462   -2.6481399   -2.6481399   -1.8976789  0.041023955   -2.6481399   0.75046103   424551 
 1356000   0.62454006   -2.6471925   -2.6471925   -1.8980684  0.047087473   -2.6471925   0.74912414   424551 
 1357000   0.62457414    -2.646794    -2.646794    -1.897629   0.05553701    -2.646794   0.74916502   424551 
 1358000   0.62387203   -2.6455633   -2.6455633   -1.8972404  0.052892309   -2.6455633   0.74832285   424551 
 1359000   0.62362542   -2.6451174   -2.6451174   -1.8970904  0.050120083   -2.6451174   0.74802705   424551 
 1360000   0.62291067   -2.6441083   -2.6441083   -1.8969385  0.055059668   -2.6441083   0.74716972   424551 
 1361000    0.6242722   -2.6463695   -2.6463695   -1.8975666  0.056272653   -2.6463695   0.74880285   424551 
 1362000   0.62542001   -2.6484228   -2.6484228   -1.8982431  0.045956603   -2.6484228   0.75017963   424551 
 1363000   0.62364346   -2.6460244   -2.6460244   -1.8979757  0.044016234   -2.6460244   0.74804869   424551 
 1364000   0.62430841   -2.6469199   -2.6469199   -1.8980736  0.050453532   -2.6469199   0.74884629   424551 
 1365000   0.62338918    -2.645491    -2.645491   -1.8977473  0.040943331    -2.645491   0.74774368   424551 
 1366000   0.62428043   -2.6464882   -2.6464882   -1.8976755  0.050524868   -2.6464882   0.74881273   424551 
 1367000   0.62418559   -2.6469062   -2.6469062   -1.8982072  0.051662733   -2.6469062   0.74869896   424551 
 1368000   0.62470555    -2.646829    -2.646829   -1.8975063  0.051815081    -2.646829   0.74932265   424551 
 1369000   0.62429577   -2.6463442   -2.6463442   -1.8975131  0.047765029   -2.6463442   0.74883112   424551 
 1370000   0.62417579   -2.6474888   -2.6474888   -1.8988016  0.049958556   -2.6474888   0.74868721   424551 
 1371000   0.62417456   -2.6480672   -2.6480672   -1.8993815  0.047000548   -2.6480672   0.74868574   424551 
 1372000   0.62329926   -2.6466431   -2.6466431   -1.8990073  0.045950309   -2.6466431   0.74763582   424551 
 1373000   0.62380769   -2.6477809   -2.6477809   -1.8995352  0.046036157   -2.6477809   0.74824569   424551 
 1374000   0.62333243   -2.6480823   -2.6480823   -1.9004067  0.039891994   -2.6480823   0.74767562   424551 
 1375000   0.62333303   -2.6479744   -2.6479744   -1.9002981  0.044402184   -2.6479744   0.74767633   424551 
 1376000   0.62441984   -2.6494305   -2.6494305   -1.9004506  0.050381507   -2.6494305   0.74897995   424551 
 1377000    0.6239936   -2.6496852   -2.6496852   -1.9012166   0.05108918   -2.6496852   0.74846868   424551 
 1378000   0.62446243   -2.6495346   -2.6495346   -1.9005035  0.046971366   -2.6495346   0.74903103   424551 
 1379000   0.62321464    -2.647746    -2.647746   -1.9002117  0.043720902    -2.647746   0.74753432   424551 
 1380000   0.62338808   -2.6480468   -2.6480468   -1.9003044  0.057025503   -2.6480468   0.74774237   424551 
 1381000   0.62495436   -2.6503075   -2.6503075   -1.9006865  0.040955841   -2.6503075   0.74962109   424551 
 1382000    0.6239655   -2.6499882   -2.6499882   -1.9015533  0.037379346   -2.6499882   0.74843497   424551 
 1383000     0.623292   -2.6490272   -2.6490272   -1.9014001  0.046542358   -2.6490272   0.74762713   424551 
 1384000   0.62369226   -2.6494338   -2.6494338   -1.9013266   0.04691471   -2.6494338   0.74810723   424551 
 1385000   0.62415409   -2.6503529   -2.6503529   -1.9016917  0.049270979   -2.6503529   0.74866118   424551 
 1386000   0.62273794   -2.6488136   -2.6488136   -1.9018511  0.041101244   -2.6488136   0.74696253   424551 
 1387000   0.62380295   -2.6504379   -2.6504379   -1.9021979  0.051237937   -2.6504379      0.74824   424551 
 1388000   0.62414216   -2.6507978   -2.6507978    -1.902151  0.037587891   -2.6507978   0.74864687   424551 
 1389000   0.62236426   -2.6490668   -2.6490668   -1.9025525   0.05751849   -2.6490668   0.74651431   424551 
 1390000   0.62333816   -2.6507262   -2.6507262   -1.9030437  0.049105714   -2.6507262   0.74768249   424551 
 1391000   0.62358822    -2.650786    -2.650786   -1.9028035  0.049910413    -2.650786   0.74798243   424551 
 1392000   0.62395005   -2.6511976   -2.6511976   -1.9027812  0.053437566   -2.6511976   0.74841643   424551 
 1393000   0.62375739   -2.6504811   -2.6504811   -1.9022958  0.050501125   -2.6504811   0.74818535   424551 
 1394000   0.62256991   -2.6490937   -2.6490937   -1.9023327  0.048020718   -2.6490937   0.74676099   424551 
 1395000   0.62430855   -2.6507957   -2.6507957   -1.9019493  0.051707592   -2.6507957   0.74884645   424551 
 1396000   0.62375915    -2.650284    -2.650284   -1.9020966  0.051567226    -2.650284   0.74818746   424551 
 1397000   0.62179167   -2.6486482   -2.6486482   -1.9028207  0.046659518   -2.6486482    0.7458275   424551 
 1398000    0.6229602   -2.6504023   -2.6504023   -1.9031731  0.043491431   -2.6504023   0.74722913   424551 
 1399000   0.62359319   -2.6511853   -2.6511853   -1.9031969  0.038575122   -2.6511853   0.74798839   424551 
 1400000   0.62302404   -2.6510454   -2.6510454   -1.9037397  0.052646111   -2.6510454    0.7473057   424551 
 1401000   0.62369627   -2.6507986   -2.6507986   -1.9026865  0.042615052   -2.6507986   0.74811204   424551 
 1402000   0.62299726   -2.6507505   -2.6507505   -1.9034769  0.052054636   -2.6507505   0.74727358   424551 
 1403000   0.62240934   -2.6502545   -2.6502545   -1.9036861  0.047147327   -2.6502545   0.74656839   424551 
 1404000   0.62291291   -2.6503551   -2.6503551   -1.9031827  0.036934183   -2.6503551   0.74717241   424551 
 1405000   0.62311739   -2.6515548   -2.6515548   -1.9041371  0.042398677   -2.6515548   0.74741768   424551 
 1406000   0.62216611   -2.6508615   -2.6508615   -1.9045849   0.04713192   -2.6508615   0.74627663   424551 
 1407000    0.6215147   -2.6502307   -2.6502307   -1.9047354  0.036707215   -2.6502307   0.74549528   424551 
 1408000    0.6236504   -2.6532615   -2.6532615   -1.9052045   0.05077659   -2.6532615   0.74805701   424551 
 1409000   0.62221067   -2.6515863   -2.6515863   -1.9052563  0.047810938   -2.6515863   0.74633008   424551 
 1410000   0.62284157   -2.6521349   -2.6521349   -1.9050481  0.047081996   -2.6521349   0.74708683   424551 
 1411000   0.62283582   -2.6527066   -2.6527066   -1.9056267  0.055810738   -2.6527066   0.74707994   424551 
 1412000   0.62283934   -2.6526264   -2.6526264   -1.9055423  0.046355334   -2.6526264   0.74708416   424551 
 1413000   0.62275679   -2.6523401   -2.6523401   -1.9053549  0.050260507   -2.6523401   0.74698515   424551 
 1414000   0.62321116   -2.6524276   -2.6524276   -1.9048975  0.047820967   -2.6524276   0.74753016   424551 
 1415000   0.62329679   -2.6528563   -2.6528563   -1.9052234  0.045798044   -2.6528563   0.74763287   424551 
 1416000   0.62331586   -2.6528446   -2.6528446   -1.9051889  0.048100359   -2.6528446   0.74765573   424551 
 1417000   0.62444383   -2.6549692   -2.6549692   -1.9059604  0.046942663   -2.6549692   0.74900871   424551 
 1418000   0.62324552   -2.6540775   -2.6540775   -1.9065061  0.043355304   -2.6540775   0.74757137   424551 
 1419000   0.62393925   -2.6551567   -2.6551567   -1.9067532  0.045742356   -2.6551567   0.74840348   424551 
 1420000   0.62384112   -2.6548416   -2.6548416   -1.9065558  0.037723019   -2.6548416   0.74828578   424551 
 1421000   0.62223628   -2.6532655   -2.6532655   -1.9069047  0.041173486   -2.6532655    0.7463608   424551 
 1422000   0.62286026   -2.6539485   -2.6539485   -1.9068393  0.051879121   -2.6539485   0.74710926   424551 
 1423000    0.6214746    -2.652408    -2.652408   -1.9069608  0.046046823    -2.652408   0.74544719   424551 
 1424000   0.62305483   -2.6546919   -2.6546919   -1.9073492  0.051718843   -2.6546919   0.74734264   424551 
 1425000   0.62299013   -2.6553168   -2.6553168   -1.9080518  0.044385153   -2.6553168   0.74726504   424551 
 1426000   0.62368804    -2.656153    -2.656153   -1.9080508  0.039843441    -2.656153   0.74810216   424551 
 1427000   0.62218142   -2.6543789   -2.6543789   -1.9080839  0.043258428   -2.6543789     0.746295   424551 
 1428000   0.62240173   -2.6541856   -2.6541856   -1.9076263  0.051877979   -2.6541856   0.74655926   424551 
 1429000   0.62264357   -2.6545484   -2.6545484    -1.907699   0.03904052   -2.6545484   0.74684934   424551 
 1430000   0.62276877   -2.6548595   -2.6548595     -1.90786  0.044234114   -2.6548595   0.74699951   424551 
 1431000   0.62210166   -2.6538823   -2.6538823    -1.907683  0.059782433   -2.6538823   0.74619933   424551 
 1432000   0.62188038   -2.6535073   -2.6535073   -1.9075734  0.048976523   -2.6535073    0.7459339   424551 
 1433000   0.62334632   -2.6546721   -2.6546721   -1.9069798  0.041963627   -2.6546721   0.74769227   424551 
 1434000   0.62180162   -2.6530853   -2.6530853   -1.9072458  0.046842756   -2.6530853   0.74583944   424551 
 1435000   0.62159387   -2.6536799   -2.6536799   -1.9080896  0.046956473   -2.6536799   0.74559025   424551 
 1436000   0.62267222   -2.6545411   -2.6545411   -1.9076574  0.050100119   -2.6545411   0.74688371   424551 
 1437000   0.62245186   -2.6547849   -2.6547849   -1.9081655  0.044230772   -2.6547849   0.74661939   424551 
 1438000   0.62196444   -2.6547406   -2.6547406   -1.9087059  0.045412711   -2.6547406   0.74603474   424551 
 1439000   0.62187108   -2.6544024   -2.6544024   -1.9084797  0.049666855   -2.6544024   0.74592275   424551 
 1440000   0.62309705   -2.6562167   -2.6562167   -1.9088234  0.044642433   -2.6562167   0.74739329   424551 
 1441000   0.62268864   -2.6563103   -2.6563103   -1.9094069  0.040922451   -2.6563103    0.7469034   424551 
 1442000   0.62195261   -2.6556453   -2.6556453   -1.9096248   0.04949144   -2.6556453   0.74602055   424551 
 1443000   0.62256719   -2.6566131   -2.6566131   -1.9098553  0.045302336   -2.6566131   0.74675772   424551 
 1444000   0.62262795   -2.6570055   -2.6570055   -1.9101749  0.044921185   -2.6570055   0.74683061   424551 
 1445000   0.62174708   -2.6557934   -2.6557934   -1.9100193  0.041126074   -2.6557934   0.74577402   424551 
 1446000   0.62160942   -2.6559821   -2.6559821   -1.9103732  0.045547364   -2.6559821    0.7456089   424551 
 1447000   0.62215037   -2.6564549   -2.6564549   -1.9101972  0.048493298   -2.6564549   0.74625776   424551 
 1448000   0.62326406   -2.6578191   -2.6578191   -1.9102254  0.045263825   -2.6578191   0.74759361   424551 
 1449000    0.6219874   -2.6558241   -2.6558241   -1.9097618   0.04967837   -2.6558241   0.74606227   424551 
 1450000   0.62262884    -2.656241    -2.656241   -1.9094093  0.048397938    -2.656241   0.74683167   424551 
 1451000   0.62335284   -2.6582191   -2.6582191    -1.910519  0.043704625   -2.6582191    0.7477001   424551 
 1452000   0.62354026   -2.6579799   -2.6579799    -1.910055  0.055466324   -2.6579799   0.74792491   424551 
 1453000   0.62295176   -2.6573079   -2.6573079   -1.9100889  0.047033395   -2.6573079   0.74721901   424551 
 1454000   0.62149892    -2.655968    -2.655968   -1.9104916   0.04451574    -2.655968   0.74547636   424551 
 1455000   0.62177403   -2.6564568   -2.6564568   -1.9106504  0.043214879   -2.6564568   0.74580635   424551 
 1456000   0.62209534   -2.6567178   -2.6567178   -1.9105261  0.046088063   -2.6567178   0.74619175   424551 
 1457000   0.62136342   -2.6561121   -2.6561121   -1.9107983  0.034958205   -2.6561121   0.74531383   424551 
 1458000   0.62137245   -2.6561357   -2.6561357   -1.9108111  0.043244214   -2.6561357   0.74532466   424551 
 1459000    0.6206196   -2.6553106   -2.6553106    -1.910889  0.038025222   -2.6553106   0.74442163   424551 
 1460000   0.62084247   -2.6554923   -2.6554923   -1.9108033  0.043440634   -2.6554923   0.74468896   424551 
 1461000   0.62177528   -2.6571626   -2.6571626   -1.9113548  0.046305776   -2.6571626   0.74580784   424551 
 1462000   0.62158985   -2.6569907   -2.6569907   -1.9114052  0.046205141   -2.6569907   0.74558543   424551 
 1463000   0.62147258   -2.6575698   -2.6575698   -1.9121251  0.040707593   -2.6575698   0.74544475   424551 
 1464000   0.62182096   -2.6584342   -2.6584342   -1.9125715  0.040087665   -2.6584342   0.74586263   424551 
 1465000      0.62056    -2.657076    -2.657076   -1.9127259  0.049691544    -2.657076   0.74435014   424551 
 1466000   0.62147501   -2.6577587   -2.6577587   -1.9123111    0.0425053   -2.6577587   0.74544767   424551 
 1467000   0.62113895   -2.6579194   -2.6579194   -1.9128748  0.042246814   -2.6579194   0.74504458   424551 
 1468000   0.62233592   -2.6587295   -2.6587295   -1.9122492  0.041401142   -2.6587295   0.74648032   424551 
 1469000    0.6218291   -2.6586496   -2.6586496   -1.9127772  0.046672421   -2.6586496    0.7458724   424551 
 1470000   0.62047508   -2.6580577   -2.6580577   -1.9138094  0.047478424   -2.6580577   0.74424827   424551 
 1471000   0.62188961   -2.6592699   -2.6592699    -1.913325  0.047767154   -2.6592699   0.74594498   424551 
 1472000   0.62196065   -2.6596737   -2.6596737   -1.9136435  0.034493385   -2.6596737   0.74603019   424551 
 1473000   0.62217412    -2.660287    -2.660287   -1.9140008  0.042765687    -2.660287   0.74628624   424551 
 1474000   0.62187622   -2.6604866   -2.6604866   -1.9145577  0.052773808   -2.6604866   0.74592892   424551 
 1475000   0.62315708   -2.6621222   -2.6621222   -1.9146569  0.053985523   -2.6621222   0.74746529   424551 
 1476000   0.62237687   -2.6609301   -2.6609301   -1.9144006  0.045711355   -2.6609301   0.74652943   424551 
 1477000   0.62260265    -2.660325    -2.660325   -1.9135248  0.046622327    -2.660325   0.74680025   424551 
 1478000   0.62198867   -2.6600207   -2.6600207   -1.9139569  0.047215538   -2.6600207    0.7460638   424551 
 1479000   0.62218307   -2.6601577   -2.6601577   -1.9138608  0.042862931   -2.6601577   0.74629697   424551 
 1480000   0.62171461   -2.6596042   -2.6596042   -1.9138692  0.046061823   -2.6596042   0.74573507   424551 
 1481000   0.62246117   -2.6606999   -2.6606999   -1.9140693  0.041903771   -2.6606999   0.74663056   424551 
 1482000   0.62168854   -2.6598606   -2.6598606   -1.9141568  0.043436775   -2.6598606    0.7457038   424551 
 1483000   0.62227988   -2.6600205   -2.6600205   -1.9136074  0.039378531   -2.6600205    0.7464131   424551 
 1484000   0.62172264   -2.6587997   -2.6587997    -1.913055  0.050150009   -2.6587997   0.74574471   424551 
 1485000   0.62108156   -2.6576819   -2.6576819   -1.9127062  0.040320638   -2.6576819   0.74497574   424551 
 1486000   0.62195912    -2.659673    -2.659673   -1.9136447  0.041800361    -2.659673   0.74602836   424551 
 1487000   0.62116372   -2.6587853   -2.6587853    -1.913711  0.049342369   -2.6587853   0.74507429   424551 
 1488000   0.62093959   -2.6597562   -2.6597562   -1.9149507  0.047020538   -2.6597562   0.74480545   424551 
 1489000   0.62161192   -2.6596309   -2.6596309    -1.914019  0.044179731   -2.6596309    0.7456119   424551 
 1490000   0.62048211   -2.6591146   -2.6591146   -1.9148579  0.044693174   -2.6591146    0.7442567   424551 
 1491000   0.62205171   -2.6608507   -2.6608507   -1.9147112  0.040836427   -2.6608507   0.74613942   424551 
 1492000   0.62159756   -2.6598037   -2.6598037   -1.9142091  0.048018542   -2.6598037   0.74559467   424551 
 1493000   0.62165363   -2.6600885   -2.6600885   -1.9144266  0.048675001   -2.6600885   0.74566193   424551 
 1494000   0.62167268   -2.6602553   -2.6602553   -1.9145705  0.047888748   -2.6602553   0.74568478   424551 
 1495000   0.62159589   -2.6604796   -2.6604796   -1.9148869  0.047820867   -2.6604796   0.74559266   424551 
 1496000   0.62181173   -2.6608587   -2.6608587   -1.9150071  0.052358009   -2.6608587   0.74585157   424551 
 1497000   0.62270431   -2.6617512   -2.6617512    -1.914829  0.046463442   -2.6617512    0.7469222   424551 
 1498000   0.62244313   -2.6618229   -2.6618229    -1.915214  0.042533547   -2.6618229   0.74660892   424551 
 1499000     0.622484   -2.6614616   -2.6614616   -1.9148037  0.050214178   -2.6614616   0.74665793   424551 
 1500000    0.6227618   -2.6616131   -2.6616131   -1.9146219  0.044546904   -2.6616131   0.74699115   424551 
 1501000   0.62201688   -2.6608469   -2.6608469   -1.9147492  0.050836187   -2.6608469   0.74609764   424551 
 1502000    0.6217917   -2.6612004   -2.6612004   -1.9153729   0.03218664   -2.6612004   0.74582753   424551 
 1503000   0.62251027   -2.6619909   -2.6619909   -1.9153014  0.045109972   -2.6619909   0.74668945   424551 
 1504000   0.62250286   -2.6619876   -2.6619876    -1.915307  0.046996162   -2.6619876   0.74668056   424551 
 1505000   0.62097543   -2.6604923   -2.6604923   -1.9156439  0.045921259   -2.6604923   0.74484844   424551 
 1506000   0.62108599   -2.6603803   -2.6603803   -1.9153992  0.045412486   -2.6603803   0.74498105   424551 
 1507000   0.62215615    -2.661635    -2.661635   -1.9153704  0.042272916    -2.661635   0.74626469   424551 
 1508000   0.62285676   -2.6631406   -2.6631406   -1.9160356  0.047655508   -2.6631406   0.74710506   424551 
 1509000   0.62241405   -2.6631587   -2.6631587   -1.9165846  0.046673562   -2.6631587   0.74657403   424551 
 1510000   0.62165532   -2.6632093   -2.6632093   -1.9175453  0.051388815   -2.6632093   0.74566395   424551 
 1511000   0.62267945   -2.6639377   -2.6639377   -1.9170453  0.047104668   -2.6639377   0.74689237   424551 
 1512000    0.6221944   -2.6627376   -2.6627376   -1.9164271  0.042684065   -2.6627376   0.74631057   424551 
 1513000   0.62222675   -2.6624987   -2.6624987   -1.9161493  0.041429814   -2.6624987   0.74634937   424551 
 1514000   0.62153168    -2.661588    -2.661588   -1.9160724  0.046729054    -2.661588   0.74551565   424551 
 1515000   0.62226388   -2.6626081   -2.6626081   -1.9162142  0.043813773   -2.6626081    0.7463939   424551 
 1516000   0.62256783   -2.6630517   -2.6630517   -1.9162932   0.04370723   -2.6630517    0.7467585   424551 
 1517000   0.62037242   -2.6614917   -2.6614917   -1.9173666  0.048765604   -2.6614917   0.74412514   424551 
 1518000   0.62108234   -2.6629514   -2.6629514   -1.9179747  0.038791037   -2.6629514   0.74497667   424551 
 1519000   0.62155821   -2.6630138   -2.6630138   -1.9174663  0.050275281   -2.6630138   0.74554747   424551 
 1520000   0.62119454   -2.6626174   -2.6626174   -1.9175061  0.038774654   -2.6626174   0.74511126   424551 
 1521000   0.62241665   -2.6637062   -2.6637062    -1.917129  0.047092139   -2.6637062   0.74657715   424551 
 1522000   0.62176448   -2.6627083   -2.6627083   -1.9169134  0.038601961   -2.6627083   0.74579488   424551 
 1523000   0.62181153     -2.66295     -2.66295   -1.9170987  0.051314685     -2.66295   0.74585132   424551 
 1524000   0.62114253   -2.6617557   -2.6617557   -1.9167069  0.047389254   -2.6617557   0.74504886   424551 
 1525000   0.62206778   -2.6629929   -2.6629929   -1.9168342  0.042822306   -2.6629929   0.74615869   424551 
 1526000   0.62260887   -2.6638793   -2.6638793   -1.9170716  0.039780932   -2.6638793   0.74680772   424551 
 1527000   0.62063061   -2.6615848   -2.6615848     -1.91715  0.044076463   -2.6615848   0.74443483   424551 
 1528000   0.62246106   -2.6630458   -2.6630458   -1.9164153  0.036663621   -2.6630458   0.74663043   424551 
 1529000    0.6214592   -2.6621507   -2.6621507    -1.916722  0.049489763   -2.6621507   0.74542872   424551 
 1530000   0.62204739   -2.6625532   -2.6625532    -1.916419  0.049483935   -2.6625532   0.74613423   424551 
 1531000   0.62186389   -2.6625378   -2.6625378   -1.9166237  0.042786885   -2.6625378   0.74591413   424551 
 1532000   0.62129478   -2.6620315   -2.6620315      -1.9168  0.037286521   -2.6620315   0.74523149   424551 
 1533000   0.62294417    -2.664467    -2.664467   -1.9172571  0.030210769    -2.664467    0.7472099   424551 
 1534000   0.62135562   -2.6624602   -2.6624602   -1.9171557  0.045831257   -2.6624602   0.74530447   424551 
 1535000   0.62222598    -2.663661    -2.663661   -1.9173126    0.0556761    -2.663661   0.74634845   424551 
 1536000   0.62182498   -2.6632889   -2.6632889   -1.9174215  0.048409295   -2.6632889   0.74586746   424551 
 1537000   0.62147175   -2.6642998   -2.6642998    -1.918856  0.040330844   -2.6642998   0.74544377   424551 
 1538000   0.62158618   -2.6640624   -2.6640624   -1.9184813  0.044758357   -2.6640624   0.74558103   424551 
 1539000   0.62162947   -2.6639573   -2.6639573   -1.9183243   0.04396587   -2.6639573   0.74563294   424551 
 1540000   0.62222018   -2.6644905   -2.6644905    -1.918149  0.048627424   -2.6644905   0.74634149   424551 
 1541000   0.62186751   -2.6641331   -2.6641331   -1.9182147  0.051667805   -2.6641331   0.74591847   424551 
 1542000   0.62226618   -2.6655375   -2.6655375   -1.9191408  0.045190136   -2.6655375   0.74639667   424551 
 1543000   0.62110732   -2.6641217   -2.6641217    -1.919115  0.047151692   -2.6641217   0.74500663   424551 
 1544000   0.62206345   -2.6653091   -2.6653091   -1.9191556  0.041403423   -2.6653091    0.7461535   424551 
 1545000   0.62188409   -2.6646178   -2.6646178   -1.9186795  0.039243824   -2.6646178   0.74593836   424551 
 1546000   0.62059949   -2.6627627   -2.6627627   -1.9183652  0.041874638   -2.6627627   0.74439751   424551 
 1547000    0.6216924   -2.6640185   -2.6640185     -1.91831  0.050124018   -2.6640185   0.74570843   424551 
 1548000   0.62154243   -2.6638527   -2.6638527   -1.9183241   0.04800364   -2.6638527   0.74552855   424551 
 1549000   0.62029097   -2.6631733   -2.6631733   -1.9191459  0.039048366   -2.6631733   0.74402745   424551 
 1550000   0.62174021   -2.6648714   -2.6648714   -1.9191056  0.041391271   -2.6648714   0.74576578   424551 
 1551000   0.62233383   -2.6660922   -2.6660922   -1.9196144  0.046764425   -2.6660922   0.74647781   424551 
 1552000    0.6225217   -2.6666268   -2.6666268   -1.9199237  0.049247485   -2.6666268   0.74670316   424551 
 1553000    0.6219603   -2.6652792   -2.6652792   -1.9192494  0.047752286   -2.6652792   0.74602977   424551 
 1554000   0.62131907    -2.664378    -2.664378   -1.9191173  0.047505763    -2.664378   0.74526063   424551 
 1555000   0.62163634   -2.6647726   -2.6647726   -1.9191314   0.04436424   -2.6647726   0.74564118   424551 
 1556000   0.62211081    -2.665678    -2.665678   -1.9194677  0.043086634    -2.665678   0.74621031   424551 
 1557000   0.62276102    -2.666345    -2.666345   -1.9193547   0.04903266    -2.666345   0.74699022   424551 
 1558000   0.62323013       -2.667       -2.667   -1.9194471  0.039770842       -2.667   0.74755291   424551 
 1559000   0.62202237   -2.6657726   -2.6657726   -1.9196684  0.051551461   -2.6657726   0.74610423   424551 
 1560000   0.62122048   -2.6644111   -2.6644111   -1.9192687   0.04242193   -2.6644111   0.74514237   424551 
 1561000   0.62131275   -2.6650394   -2.6650394   -1.9197863  0.049843955   -2.6650394   0.74525304   424551 
 1562000   0.62078189   -2.6643689   -2.6643689   -1.9197526  0.036179422   -2.6643689   0.74461628   424551 
 1563000   0.62069601   -2.6644329   -2.6644329   -1.9199197   0.04447242   -2.6644329   0.74451328   424551 
 1564000   0.62043195   -2.6646208   -2.6646208   -1.9204242   0.04288769   -2.6646208   0.74419655   424551 
 1565000   0.62222047   -2.6666404   -2.6666404   -1.9202985  0.047537949   -2.6666404   0.74634184   424551 
 1566000   0.62167143   -2.6659946   -2.6659946   -1.9203113  0.036431099   -2.6659946   0.74568327   424551 
 1567000   0.62100102    -2.666585    -2.666585   -1.9217059  0.044811411    -2.666585   0.74487913   424551 
 1568000   0.62110409   -2.6666804   -2.6666804   -1.9216777  0.052002176   -2.6666804   0.74500277   424551 
 1569000   0.62245265   -2.6683879   -2.6683879   -1.9217676  0.048061961   -2.6683879   0.74662033   424551 
 1570000    0.6224077    -2.668244    -2.668244   -1.9216776  0.048950668    -2.668244   0.74656642   424551 
 1571000   0.62143564   -2.6673023   -2.6673023   -1.9219018  0.041303402   -2.6673023   0.74540045   424551 
 1572000    0.6224883   -2.6686167   -2.6686167   -1.9219536  0.042561752   -2.6686167    0.7466631   424551 
 1573000   0.62252258   -2.6690611   -2.6690611   -1.9223569  0.047837214   -2.6690611   0.74670422   424551 
 1574000    0.6216475   -2.6689363   -2.6689363   -1.9232818  0.043967948   -2.6689363   0.74565457   424551 
 1575000   0.62022116   -2.6674578   -2.6674578   -1.9235141  0.048113579   -2.6674578    0.7439437   424551 
 1576000   0.62117683   -2.6684836   -2.6684836   -1.9233936  0.052066736   -2.6684836   0.74509001   424551 
 1577000   0.62056044   -2.6676296   -2.6676296   -1.9232789  0.045487244   -2.6676296   0.74435066   424551 
 1578000   0.62201737   -2.6690397   -2.6690397   -1.9229415  0.048526526   -2.6690397   0.74609822   424551 
 1579000   0.62189608   -2.6684873   -2.6684873   -1.9225345  0.049837828   -2.6684873   0.74595274   424551 
 1580000   0.62121815   -2.6680554   -2.6680554   -1.9229158  0.053988736   -2.6680554   0.74513958   424551 
 1581000   0.62029337   -2.6666307   -2.6666307   -1.9226004  0.041767216   -2.6666307   0.74403033   424551 
 1582000   0.62139525   -2.6677843   -2.6677843   -1.9224323  0.038238727   -2.6677843   0.74535201   424551 
 1583000   0.62146293   -2.6676501   -2.6676501   -1.9222169  0.045563092   -2.6676501   0.74543318   424551 
 1584000   0.62269883   -2.6688229   -2.6688229   -1.9219072  0.045702225   -2.6688229   0.74691563   424551 
 1585000    0.6214111   -2.6678385   -2.6678385   -1.9224675  0.045653678   -2.6678385   0.74537102   424551 
 1586000   0.62061733   -2.6676869   -2.6676869    -1.923268  0.039683638   -2.6676869    0.7444189   424551 
 1587000   0.62094481   -2.6684834   -2.6684834   -1.9236717  0.039478322   -2.6684834   0.74481171   424551 
 1588000   0.62014174   -2.6681219   -2.6681219   -1.9242734  0.035903195   -2.6681219   0.74384844   424551 
 1589000   0.62003183   -2.6682333   -2.6682333   -1.9245167  0.038923409   -2.6682333   0.74371661   424551 
 1590000    0.6204024   -2.6685221   -2.6685221    -1.924361  0.041288887   -2.6685221    0.7441611   424551 
 1591000   0.62162886   -2.6689385   -2.6689385   -1.9233063  0.040714341   -2.6689385   0.74563221   424551 
 1592000   0.62079755   -2.6684609   -2.6684609   -1.9238258  0.046656966   -2.6684609   0.74463507   424551 
 1593000   0.61931472   -2.6670447   -2.6670447   -1.9241883  0.040442279   -2.6670447   0.74285645   424551 
 1594000   0.62179967   -2.6692754   -2.6692754   -1.9234383  0.050948196   -2.6692754    0.7458371   424551 
 1595000   0.62155041   -2.6691322   -2.6691322   -1.9235941  0.044006674   -2.6691322   0.74553811   424551 
 1596000    0.6206412   -2.6680657   -2.6680657   -1.9236182  0.038778878   -2.6680657   0.74444753   424551 
 1597000   0.62255369   -2.6699294   -2.6699294   -1.9231879  0.048994034   -2.6699294   0.74674154   424551 
 1598000   0.62210389   -2.6693756   -2.6693756   -1.9231736  0.041660582   -2.6693756     0.746202   424551 
 1599000    0.6216491   -2.6692908   -2.6692908   -1.9236343  0.045703669   -2.6692908   0.74565649   424551 
 1600000   0.62066824   -2.6690314   -2.6690314   -1.9245514  0.043434642   -2.6690314   0.74447997   424551 
 1601000   0.62061539   -2.6688944   -2.6688944   -1.9244778  0.030134476   -2.6688944   0.74441658   424551 
 1602000   0.61997903   -2.6686126   -2.6686126   -1.9249593  0.040947611   -2.6686126   0.74365328   424551 
 1603000   0.62027497   -2.6687744   -2.6687744   -1.9247662  0.053797736   -2.6687744   0.74400825   424551 
 1604000   0.61993933   -2.6683688   -2.6683688   -1.9247632  0.039774185   -2.6683688   0.74360566   424551 
 1605000   0.62054643   -2.6688919   -2.6688919   -1.9245581  0.042926883   -2.6688919   0.74433386   424551 
 1606000   0.61960981   -2.6687606   -2.6687606   -1.9255502  0.046853032   -2.6687606   0.74321041   424551 
 1607000    0.6192138     -2.66894     -2.66894   -1.9262046   0.04486305     -2.66894    0.7427354   424551 
 1608000   0.61930403   -2.6686912   -2.6686912   -1.9258476  0.049091486   -2.6686912   0.74284363   424551 
 1609000   0.61956039   -2.6689644   -2.6689644   -1.9258133  0.052035902   -2.6689644   0.74315113   424551 
 1610000   0.61974664   -2.6695238   -2.6695238   -1.9261493  0.041784441   -2.6695238   0.74337452   424551 
 1611000   0.62096422   -2.6709948   -2.6709948   -1.9261598  0.041565664   -2.6709948     0.744835   424551 
 1612000   0.62003358   -2.6708911   -2.6708911   -1.9271724  0.040038878   -2.6708911   0.74371871   424551 
 1613000   0.62050635   -2.6707006   -2.6707006   -1.9264149  0.050278033   -2.6707006   0.74428578   424551 
 1614000   0.62144895   -2.6722965   -2.6722965   -1.9268801   0.05351817   -2.6722965   0.74541642   424551 
 1615000   0.62202899   -2.6716032   -2.6716032    -1.925491  0.047560355   -2.6716032   0.74611217   424551 
 1616000   0.62181187   -2.6711464   -2.6711464   -1.9252947  0.050018369   -2.6711464   0.74585173   424551 
 1617000   0.62224243   -2.6716376   -2.6716376   -1.9252694    0.0470625   -2.6716376   0.74636818   424551 
 1618000   0.62123289   -2.6711267   -2.6711267   -1.9259695  0.048535702   -2.6711267   0.74515726   424551 
 1619000   0.62229147   -2.6728968   -2.6728968   -1.9264698  0.046795499   -2.6728968     0.746427   424551 
 1620000   0.62220548   -2.6726726   -2.6726726   -1.9263487  0.047593575   -2.6726726   0.74632386   424551 
 1621000   0.62121691   -2.6713791   -2.6713791    -1.926241  0.053578865   -2.6713791   0.74513809   424551 
 1622000   0.62042452   -2.6711873   -2.6711873   -1.9269997   0.03588634   -2.6711873   0.74418764   424551 
 1623000   0.61992892   -2.6711192   -2.6711192    -1.927526  0.049294752   -2.6711192   0.74359316   424551 
 1624000   0.62085991   -2.6719342   -2.6719342   -1.9272243  0.048782735   -2.6719342   0.74470987   424551 
 1625000   0.62006591   -2.6718215   -2.6718215    -1.928064  0.047633064   -2.6718215   0.74375749   424551 
 1626000   0.61994175   -2.6719837   -2.6719837   -1.9283751  0.042679035   -2.6719837   0.74360856   424551 
 1627000   0.62095303   -2.6730972   -2.6730972   -1.9282756  0.044968768   -2.6730972   0.74482157   424551 
 1628000   0.61970331   -2.6717374   -2.6717374   -1.9284148  0.047830781   -2.6717374   0.74332256   424551 
 1629000   0.62049695   -2.6726463   -2.6726463   -1.9283718  0.045659718   -2.6726463   0.74427451   424551 
 1630000   0.62031666   -2.6724042   -2.6724042   -1.9283459  0.049131762   -2.6724042   0.74405825   424551 
 1631000   0.62089108   -2.6728946   -2.6728946   -1.9281473  0.041586281   -2.6728946   0.74474726   424551 
 1632000   0.61934712   -2.6710088   -2.6710088   -1.9281135  0.047539227   -2.6710088   0.74289531   424551 
 1633000   0.62035557    -2.672189    -2.672189   -1.9280841  0.034407255    -2.672189   0.74410493   424551 
 1634000   0.62040592   -2.6723991   -2.6723991   -1.9282337  0.046216015   -2.6723991   0.74416532   424551 
 1635000   0.62051137   -2.6722705   -2.6722705   -1.9279787  0.034511023   -2.6722705   0.74429181   424551 
 1636000   0.62149086   -2.6733857   -2.6733857    -1.927919  0.047071762   -2.6733857   0.74546668   424551 
 1637000   0.61998586   -2.6723281   -2.6723281   -1.9286666  0.035738058   -2.6723281   0.74366147   424551 
 1638000   0.62250357   -2.6754406   -2.6754406   -1.9287591  0.045466621   -2.6754406   0.74668141   424551 
 1639000   0.62121191   -2.6741053   -2.6741053   -1.9289732  0.046481146   -2.6741053   0.74513209   424551 
 1640000   0.62090817   -2.6740808   -2.6740808   -1.9293131   0.04928552   -2.6740808   0.74476776   424551 
 1641000   0.62145001   -2.6744529   -2.6744529   -1.9290352  0.042919601   -2.6744529   0.74541769   424551 
 1642000   0.62137954    -2.674577    -2.674577   -1.9292439  0.046770082    -2.674577   0.74533315   424551 
 1643000   0.62183391    -2.675356    -2.675356   -1.9294778  0.050261007    -2.675356   0.74587817   424551 
 1644000    0.6207039    -2.674535    -2.674535   -1.9300123  0.052605732    -2.674535   0.74452274   424551 
 1645000   0.62124655   -2.6755794   -2.6755794   -1.9304057  0.042924995   -2.6755794   0.74517364   424551 
 1646000    0.6203285   -2.6741727   -2.6741727   -1.9301003  0.041628295   -2.6741727   0.74407245   424551 
 1647000   0.62084879   -2.6748678   -2.6748678   -1.9301712  0.045255822   -2.6748678   0.74469654   424551 
 1648000   0.61949492   -2.6734145   -2.6734145   -1.9303419  0.048106149   -2.6734145    0.7430726   424551 
 1649000   0.61905641   -2.6726761   -2.6726761   -1.9301294  0.042141792   -2.6726761   0.74254661   424551 
 1650000   0.62037675   -2.6746721   -2.6746721   -1.9305418  0.042095598   -2.6746721   0.74413033   424551 
 1651000     0.621373   -2.6758573   -2.6758573    -1.930532  0.039100438   -2.6758573   0.74532532   424551 
 1652000   0.62006835   -2.6738695   -2.6738695   -1.9301091  0.037197312   -2.6738695   0.74376041   424551 
 1653000    0.6202972    -2.673696    -2.673696   -1.9296611  0.040739491    -2.673696   0.74403492   424551 
 1654000    0.6207049   -2.6748844   -2.6748844   -1.9303605  0.042178153   -2.6748844   0.74452394   424551 
 1655000   0.61976048   -2.6739629   -2.6739629   -1.9305717  0.044913378   -2.6739629   0.74339113   424551 
 1656000   0.62019437   -2.6743635   -2.6743635   -1.9304519  0.044408585   -2.6743635   0.74391157   424551 
 1657000    0.6208592   -2.6756113   -2.6756113   -1.9309023  0.042613207   -2.6756113   0.74470902   424551 
 1658000   0.62116706   -2.6765231   -2.6765231   -1.9314448  0.045938365   -2.6765231   0.74507829   424551 
 1659000   0.62087366   -2.6760236   -2.6760236   -1.9312973  0.052476796   -2.6760236   0.74472636   424551 
 1660000   0.62046393   -2.6760158   -2.6760158   -1.9317809  0.043785075   -2.6760158   0.74423491   424551 
 1661000   0.62071569    -2.676174    -2.676174   -1.9316371  0.040246151    -2.676174   0.74453688   424551 
 1662000   0.62025408   -2.6769689   -2.6769689   -1.9329857  0.042845603   -2.6769689   0.74398319   424551 
 1663000   0.62048368   -2.6769306   -2.6769306    -1.932672    0.0420162   -2.6769306    0.7442586   424551 
 1664000   0.61972501   -2.6766532   -2.6766532   -1.9333046  0.037908663   -2.6766532   0.74334858   424551 
 1665000   0.61942643   -2.6761414   -2.6761414    -1.933151  0.054211009   -2.6761414   0.74299044   424551 
 1666000   0.62085405    -2.678144    -2.678144   -1.9334411  0.046327456    -2.678144   0.74470284   424551 
 1667000   0.61930023   -2.6762941   -2.6762941    -1.933455  0.045373526   -2.6762941   0.74283907   424551 
 1668000   0.62056338   -2.6785176   -2.6785176   -1.9341634  0.049105927   -2.6785176   0.74435419   424551 
 1669000   0.61954546   -2.6766975   -2.6766975   -1.9335642  0.046651695   -2.6766975   0.74313322   424551 
 1670000    0.6208515   -2.6789429   -2.6789429   -1.9342431  0.041426374   -2.6789429   0.74469979   424551 
 1671000   0.61942501   -2.6769389   -2.6769389   -1.9339502  0.055792269   -2.6769389   0.74298873   424551 
 1672000   0.62116001   -2.6781233   -2.6781233   -1.9330534  0.046101287   -2.6781233   0.74506984   424551 
 1673000   0.62128346   -2.6778074   -2.6778074   -1.9325895  0.036385316   -2.6778074   0.74521791   424551 
 1674000   0.62038798   -2.6767108   -2.6767108    -1.932567  0.042384347   -2.6767108   0.74414381   424551 
 1675000    0.6207984    -2.677324    -2.677324   -1.9326879  0.037670588    -2.677324    0.7446361   424551 
 1676000   0.62103944   -2.6780778   -2.6780778   -1.9331526  0.046225847   -2.6780778   0.74492522   424551 
 1677000   0.61975406   -2.6767254   -2.6767254    -1.933342  0.041032083   -2.6767254   0.74338342   424551 
 1678000   0.61957709   -2.6768166   -2.6768166   -1.9336455  0.043786734   -2.6768166   0.74317116   424551 
 1679000   0.61952769   -2.6770768   -2.6770768   -1.9339649  0.042224129   -2.6770768    0.7431119   424551 
 1680000    0.6207667   -2.6771919   -2.6771919   -1.9325939  0.037081339   -2.6771919   0.74459807   424551 
 1681000   0.61978303   -2.6773856   -2.6773856   -1.9339674  0.037912287   -2.6773856   0.74341818   424551 
 1682000   0.61960584   -2.6772703   -2.6772703   -1.9340647  0.050093869   -2.6772703   0.74320564   424551 
 1683000   0.62113954   -2.6792675   -2.6792675   -1.9342222  0.035084583   -2.6792675   0.74504528   424551 
 1684000   0.61913057   -2.6772635   -2.6772635   -1.9346279  0.036831309   -2.6772635   0.74263556   424551 
 1685000    0.6194013   -2.6780212   -2.6780212   -1.9350609  0.038278227   -2.6780212   0.74296029   424551 
 1686000   0.61887177    -2.677259    -2.677259   -1.9349339  0.039685153    -2.677259   0.74232514   424551 
 1687000   0.61856611   -2.6771332   -2.6771332   -1.9351747   0.03566859   -2.6771332   0.74195851   424551 
 1688000   0.61971919   -2.6779273   -2.6779273   -1.9345857  0.043594255   -2.6779273    0.7433416   424551 
 1689000   0.61935584   -2.6781212   -2.6781212   -1.9352154  0.028214601   -2.6781212   0.74290577   424551 
 1690000    0.6201079   -2.6787737   -2.6787737   -1.9349659  0.044899883   -2.6787737   0.74380785   424551 
 1691000   0.61984242   -2.6780162   -2.6780162   -1.9345268  0.044295257   -2.6780162   0.74348942   424551 
 1692000   0.61879945   -2.6773348   -2.6773348   -1.9350964  0.046651865   -2.6773348    0.7422384   424551 
 1693000   0.62014792   -2.6783062   -2.6783062   -1.9344504  0.037812268   -2.6783062   0.74385586   424551 
 1694000   0.62024858   -2.6784879   -2.6784879   -1.9345113  0.041559364   -2.6784879   0.74397659   424551 
 1695000    0.6206575   -2.6798187   -2.6798187   -1.9353516  0.048550351   -2.6798187   0.74446709   424551 
 1696000   0.61996422   -2.6789365   -2.6789365    -1.935301  0.045978891   -2.6789365    0.7436355   424551 
 1697000   0.62089667   -2.6803748   -2.6803748   -1.9356209   0.04819312   -2.6803748   0.74475397   424551 
 1698000   0.61967437   -2.6796324   -2.6796324   -1.9363446  0.040670604   -2.6796324   0.74328784   424551 
 1699000   0.62047233   -2.6804353   -2.6804353   -1.9361903  0.047077686   -2.6804353   0.74424497   424551 
 1700000   0.62013987    -2.680378    -2.680378   -1.9365318  0.042525417    -2.680378    0.7438462   424551 
 1701000   0.61915416   -2.6797879   -2.6797879   -1.9371241  0.049057188   -2.6797879   0.74266386   424551 
 1702000   0.61857763   -2.6789495   -2.6789495   -1.9369771  0.040974246   -2.6789495   0.74197232   424551 
 1703000   0.61984252   -2.6805619   -2.6805619   -1.9370724  0.045311367   -2.6805619   0.74348953   424551 
 1704000   0.61936948   -2.6799177   -2.6799177   -1.9369956  0.043624432   -2.6799177   0.74292213   424551 
 1705000   0.61960898   -2.6795181   -2.6795181   -1.9363087  0.041539864   -2.6795181   0.74320941   424551 
 1706000   0.62061508   -2.6807201   -2.6807201   -1.9363039   0.04378622   -2.6807201   0.74441621   424551 
 1707000   0.62027151    -2.679625    -2.679625   -1.9356208  0.049481724    -2.679625    0.7440041   424551 
 1708000   0.61947908   -2.6788719   -2.6788719   -1.9358183  0.044402994   -2.6788719    0.7430536   424551 
 1709000   0.62017225   -2.6795117   -2.6795117   -1.9356267  0.039543046   -2.6795117   0.74388504   424551 
 1710000   0.61878096   -2.6773621   -2.6773621   -1.9351459  0.040915222   -2.6773621   0.74221621   424551 
 1711000    0.6198545   -2.6788098   -2.6788098   -1.9353059  0.052108163   -2.6788098   0.74350391   424551 
 1712000   0.61954696   -2.6778373   -2.6778373   -1.9347023  0.046488397   -2.6778373   0.74313502   424551 
 1713000   0.61934328   -2.6779418   -2.6779418   -1.9350511  0.042947027   -2.6779418    0.7428907   424551 
 1714000   0.61894963   -2.6774415   -2.6774415    -1.935023  0.049311726   -2.6774415   0.74241853   424551 
 1715000   0.61941842   -2.6776985   -2.6776985   -1.9347176  0.046786138   -2.6776985   0.74298083   424551 
 1716000   0.62060283   -2.6799852   -2.6799852   -1.9355837  0.043802571   -2.6799852   0.74440152   424551 
 1717000   0.62041744   -2.6803023   -2.6803023   -1.9361231  0.045057168   -2.6803023   0.74417914   424551 
 1718000   0.61998048   -2.6794882   -2.6794882   -1.9358331   0.04015111   -2.6794882   0.74365502   424551 
 1719000   0.61932475   -2.6798627   -2.6798627   -1.9369942  0.041472173   -2.6798627   0.74286847   424551 
 1720000   0.61946375    -2.678942    -2.678942   -1.9359068  0.043545871    -2.678942    0.7430352   424551 
 1721000   0.61951919   -2.6801088   -2.6801088   -1.9370071  0.041772597   -2.6801088    0.7431017   424551 
 1722000   0.61971828   -2.6800309   -2.6800309   -1.9366904  0.050100543   -2.6800309   0.74334051   424551 
 1723000   0.61980602    -2.679559    -2.679559   -1.9361132  0.034737723    -2.679559   0.74344576   424551 
 1724000   0.61953767   -2.6799287   -2.6799287   -1.9368049  0.041629411   -2.6799287   0.74312388   424551 
 1725000   0.61946824   -2.6795708   -2.6795708   -1.9365302  0.041109939   -2.6795708   0.74304059   424551 
 1726000   0.61849303   -2.6795785   -2.6795785   -1.9377076  0.046138224   -2.6795785   0.74187085   424551 
 1727000   0.61886275   -2.6801922   -2.6801922   -1.9378779  0.049473537   -2.6801922   0.74231432   424551 
 1728000   0.61972309   -2.6813117   -2.6813117   -1.9379655  0.051783016   -2.6813117   0.74334628   424551 
 1729000   0.61906385   -2.6797574   -2.6797574   -1.9372019  0.046984958   -2.6797574   0.74255553   424551 
 1730000   0.61950904   -2.6806227   -2.6806227   -1.9375332  0.040193948   -2.6806227   0.74308953   424551 
 1731000   0.61878676   -2.6806798   -2.6806798   -1.9384566  0.037356978   -2.6806798   0.74222317   424551 
 1732000    0.6181913    -2.679907    -2.679907   -1.9383981  0.041867508    -2.679907   0.74150892   424551 
 1733000   0.61932957   -2.6813106   -2.6813106   -1.9384363  0.039368087   -2.6813106   0.74287426   424551 
 1734000   0.61898176   -2.6812737   -2.6812737   -1.9388166  0.036346837   -2.6812737   0.74245707   424551 
 1735000   0.61880538   -2.6806295   -2.6806295    -1.938384  0.040742805   -2.6806295    0.7422455   424551 
 1736000   0.61901275   -2.6799074   -2.6799074   -1.9374132  0.044315206   -2.6799074   0.74249424   424551 
 1737000   0.61860292   -2.6794866   -2.6794866   -1.9374839  0.036590963   -2.6794866   0.74200265   424551 
 1738000   0.61926866   -2.6800863   -2.6800863   -1.9372851  0.048578062   -2.6800863    0.7428012   424551 
 1739000   0.61931301   -2.6803286   -2.6803286   -1.9374742  0.046495499   -2.6803286   0.74285439   424551 
 1740000   0.61980263    -2.681094    -2.681094   -1.9376523  0.042917794    -2.681094   0.74344168   424551 
 1741000   0.61996714   -2.6815056   -2.6815056   -1.9378666  0.049497922   -2.6815056   0.74363901   424551 
 1742000   0.62048202   -2.6814947   -2.6814947   -1.9372381  0.036959503   -2.6814947    0.7442566   424551 
 1743000   0.61982132   -2.6803559   -2.6803559   -1.9368918  0.038830478   -2.6803559    0.7434641   424551 
 1744000   0.61979946   -2.6808894   -2.6808894   -1.9374515  0.048959825   -2.6808894   0.74343788   424551 
 1745000   0.62128095   -2.6821833   -2.6821833   -1.9369684  0.041102601   -2.6821833   0.74521491   424551 
 1746000   0.62038065   -2.6810612   -2.6810612   -1.9369262  0.044678549   -2.6810612     0.744135   424551 
 1747000    0.6204525   -2.6814625   -2.6814625   -1.9372413  0.041114902   -2.6814625   0.74422119   424551 
 1748000   0.61985748   -2.6804683   -2.6804683   -1.9369608  0.045165657   -2.6804683   0.74350748   424551 
 1749000   0.61986633   -2.6807279   -2.6807279   -1.9372098  0.044890713   -2.6807279    0.7435181   424551 
 1750000   0.62088259   -2.6826751   -2.6826751    -1.937938  0.047081242   -2.6826751   0.74473708   424551 
 1751000   0.62121421     -2.68304     -2.68304   -1.9379051  0.048808485     -2.68304   0.74513486   424551 
 1752000   0.62073945   -2.6826983   -2.6826983   -1.9381329  0.035686464   -2.6826983   0.74456539   424551 
 1753000   0.61924527   -2.6805288   -2.6805288   -1.9377557  0.037997129   -2.6805288   0.74277314   424551 
 1754000   0.61889666   -2.6808176   -2.6808176   -1.9384626  0.035087479   -2.6808176   0.74235499   424551 
 1755000    0.6198914   -2.6812952   -2.6812952    -1.937747  0.044386074   -2.6812952   0.74354816   424551 
 1756000   0.61902042   -2.6807852   -2.6807852   -1.9382818  0.042570465   -2.6807852   0.74250344   424551 
 1757000   0.61959633   -2.6806398   -2.6806398   -1.9374456  0.043674426   -2.6806398   0.74319423   424551 
 1758000   0.61831736    -2.679206    -2.679206   -1.9375459  0.035724868    -2.679206   0.74166013   424551 
 1759000   0.62000318   -2.6815147   -2.6815147   -1.9378324  0.044823977   -2.6815147   0.74368224   424551 
 1760000   0.61910715    -2.680318    -2.680318   -1.9377105  0.044824479    -2.680318   0.74260747   424551 
 1761000   0.61915326   -2.6808846   -2.6808846   -1.9382218  0.043731823   -2.6808846   0.74266278   424551 
 1762000   0.61928902     -2.68114     -2.68114   -1.9383144  0.034780854     -2.68114   0.74282562   424551 
 1763000   0.61888106   -2.6802417   -2.6802417   -1.9379055   0.03844656   -2.6802417   0.74233628   424551 
 1764000   0.62018252   -2.6817342   -2.6817342   -1.9378368  0.042452267   -2.6817342   0.74389735   424551 
 1765000   0.61841981    -2.681227    -2.681227    -1.939444  0.039104075    -2.681227   0.74178302   424551 
 1766000   0.61940826   -2.6826369   -2.6826369   -1.9396682  0.026635162   -2.6826369   0.74296865   424551 
 1767000   0.61978544   -2.6827146   -2.6827146   -1.9392935  0.041362341   -2.6827146   0.74342107   424551 
 1768000   0.61799861   -2.6809756   -2.6809756   -1.9396978  0.039528224   -2.6809756    0.7412778   424551 
 1769000   0.62001722   -2.6836859   -2.6836859   -1.9399868  0.039514437   -2.6836859   0.74369908   424551 
 1770000   0.61997784   -2.6836462   -2.6836462   -1.9399944  0.043909209   -2.6836462   0.74365184   424551 
 1771000   0.61980957   -2.6837092   -2.6837092   -1.9402592  0.047505484   -2.6837092   0.74345001   424551 
 1772000   0.62007373   -2.6837019   -2.6837019   -1.9399351  0.043659791   -2.6837019   0.74376686   424551 
 1773000   0.62108199   -2.6848174   -2.6848174   -1.9398411  0.039020539   -2.6848174   0.74497626   424551 
 1774000   0.61973516    -2.682518    -2.682518   -1.9391572  0.045337555    -2.682518   0.74336076   424551 
 1775000   0.61931197   -2.6821766   -2.6821766   -1.9393235  0.050916739   -2.6821766   0.74285314   424551 
 1776000    0.6205145   -2.6839049   -2.6839049   -1.9396093  0.037939825   -2.6839049   0.74429556   424551 
 1777000   0.61808343   -2.6816024   -2.6816024   -1.9402229  0.036828218   -2.6816024   0.74137954   424551 
 1778000   0.61876002   -2.6829536   -2.6829536   -1.9407625  0.037301725   -2.6829536   0.74219109   424551 
 1779000   0.61950565   -2.6838483   -2.6838483   -1.9407629  0.041908164   -2.6838483   0.74308546   424551 
 1780000   0.61955286    -2.684231    -2.684231   -1.9410889  0.049199089    -2.684231   0.74314209   424551 
 1781000   0.61969206   -2.6845823   -2.6845823   -1.9412733   0.04147999   -2.6845823   0.74330906   424551 
 1782000   0.62078689   -2.6858303   -2.6858303    -1.941208  0.039582321   -2.6858303   0.74462229   424551 
 1783000   0.62010399   -2.6851903   -2.6851903   -1.9413872  0.039192387   -2.6851903   0.74380316   424551 
 1784000   0.62048297   -2.6858664   -2.6858664   -1.9416087  0.043484492   -2.6858664   0.74425774   424551 
 1785000   0.61963542   -2.6849848   -2.6849848   -1.9417436  0.039919125   -2.6849848   0.74324113   424551 
 1786000   0.61965565   -2.6846756   -2.6846756   -1.9414102  0.042159941   -2.6846756   0.74326539   424551 
 1787000   0.61931963     -2.68504     -2.68504   -1.9421777  0.043850498     -2.68504   0.74286233   424551 
 1788000   0.61820792    -2.684097    -2.684097   -1.9425681  0.045404297    -2.684097   0.74152885   424551 
 1789000   0.61747189   -2.6834912   -2.6834912   -1.9428452  0.041018401   -2.6834912     0.740646   424551 
 1790000   0.61834797   -2.6842022   -2.6842022   -1.9425054  0.052684494   -2.6842022   0.74169684   424551 
 1791000   0.62025428   -2.6865078   -2.6865078   -1.9425244  0.049076207   -2.6865078   0.74398343   424551 
 1792000   0.62017668   -2.6866344   -2.6866344   -1.9427441  0.041314039   -2.6866344   0.74389035   424551 
 1793000   0.61886483    -2.685168    -2.685168   -1.9428512  0.035625072    -2.685168   0.74231681   424551 
 1794000   0.61938914   -2.6860173   -2.6860173   -1.9430716  0.033398929   -2.6860173   0.74294571   424551 
 1795000   0.62021846   -2.6867068   -2.6867068   -1.9427663  0.038901242   -2.6867068   0.74394046   424551 
 1796000   0.62057735   -2.6862931   -2.6862931   -1.9419221  0.042192815   -2.6862931   0.74437095   424551 
 1797000   0.61930063   -2.6855145   -2.6855145   -1.9426749  0.040799683   -2.6855145   0.74283954   424551 
 1798000   0.62064012    -2.686676    -2.686676   -1.9422298  0.054942291    -2.686676   0.74444623   424551 
 1799000   0.62051285   -2.6872059   -2.6872059   -1.9429124  0.044682331   -2.6872059   0.74429358   424551 
 1800000   0.61963172   -2.6868631   -2.6868631   -1.9436264  0.038237634   -2.6868631   0.74323669   424551 
 1801000   0.61993125   -2.6871364   -2.6871364   -1.9435404  0.050396876   -2.6871364   0.74359597   424551 
 1802000   0.61963263   -2.6862824   -2.6862824   -1.9430446  0.058297103   -2.6862824   0.74323778   424551 
 1803000   0.62032407   -2.6864944   -2.6864944   -1.9424272  0.051503867   -2.6864944   0.74406715   424551 
 1804000   0.62016398    -2.687023    -2.687023   -1.9431479  0.042385361    -2.687023   0.74387512   424551 
 1805000   0.61965426   -2.6868497   -2.6868497    -1.943586   0.03968489   -2.6868497   0.74326371   424551 
 1806000   0.61976654   -2.6865544   -2.6865544    -1.943156  0.037348854   -2.6865544    0.7433984   424551 
 1807000   0.61922185   -2.6855828   -2.6855828   -1.9428377  0.041323873   -2.6855828   0.74274505   424551 
 1808000   0.61833076   -2.6858998   -2.6858998   -1.9442236  0.037313164   -2.6858998    0.7416762   424551 
 1809000   0.61889719   -2.6870455   -2.6870455   -1.9446899  0.038498537   -2.6870455   0.74235562   424551 
 1810000     0.618351   -2.6863307   -2.6863307   -1.9446302  0.042185509   -2.6863307   0.74170049   424551 
 1811000   0.61836116   -2.6862312   -2.6862312   -1.9445186  0.043369715   -2.6862312   0.74171267   424551 
 1812000   0.61903234   -2.6872693   -2.6872693   -1.9447516  0.034129141   -2.6872693   0.74251774   424551 
 1813000   0.61842519   -2.6866437   -2.6866437   -1.9448542  0.049270349   -2.6866437   0.74178947   424551 
 1814000   0.61967849   -2.6875634   -2.6875634   -1.9442706  0.043388765   -2.6875634   0.74329278   424551 
 1815000   0.61866148   -2.6864272   -2.6864272   -1.9443544  0.039127072   -2.6864272   0.74207289   424551 
 1816000   0.61889565   -2.6872141   -2.6872141   -1.9448603  0.040890427   -2.6872141   0.74235378   424551 
 1817000   0.61849536   -2.6863996   -2.6863996   -1.9445259  0.041056573   -2.6863996   0.74187364   424551 
 1818000   0.61832505   -2.6867558   -2.6867558   -1.9450865  0.039656055   -2.6867558   0.74166936   424551 
 1819000   0.61775411   -2.6862246   -2.6862246   -1.9452401  0.038082949   -2.6862246   0.74098452   424551 
 1820000    0.6192614   -2.6881004   -2.6881004   -1.9453079  0.043840936   -2.6881004   0.74279249   424551 
 1821000   0.61949454   -2.6880977   -2.6880977   -1.9450256  0.046498711   -2.6880977   0.74307214   424551 
 1822000    0.6190604   -2.6877758   -2.6877758   -1.9452244  0.043855284   -2.6877758    0.7425514   424551 
 1823000   0.61872729   -2.6876686   -2.6876686   -1.9455168  0.046041961   -2.6876686   0.74215184   424551 
 1824000   0.61792377   -2.6863076   -2.6863076   -1.9451196  0.048267317   -2.6863076   0.74118802   424551 
 1825000   0.61853379    -2.687099    -2.687099   -1.9451792  0.054906464    -2.687099   0.74191973   424551 
 1826000   0.61914755    -2.688503    -2.688503    -1.945847  0.039229065    -2.688503   0.74265593   424551 
 1827000   0.61927652   -2.6882133   -2.6882133   -1.9454027  0.050910885   -2.6882133   0.74281063   424551 
 1828000   0.61976484   -2.6893894   -2.6893894    -1.945993   0.05030547   -2.6893894   0.74339636   424551 
 1829000   0.61971881   -2.6884521   -2.6884521   -1.9451109  0.048390807   -2.6884521   0.74334115   424551 
 1830000   0.62065515   -2.6889282   -2.6889282   -1.9444639  0.050922036   -2.6889282   0.74446426   424551 
 1831000   0.62176473   -2.6903195   -2.6903195   -1.9445244  0.041225564   -2.6903195   0.74579519   424551 
 1832000   0.62085143   -2.6888691   -2.6888691   -1.9441694  0.042236721   -2.6888691   0.74469971   424551 
 1833000    0.6215794   -2.6893934   -2.6893934   -1.9438205  0.041376234   -2.6893934   0.74557288   424551 
 1834000   0.62054395   -2.6889525   -2.6889525   -1.9446216  0.037656578   -2.6889525   0.74433088   424551 
 1835000    0.6204472    -2.690309    -2.690309   -1.9460941  0.046756835    -2.690309   0.74421483   424551 
 1836000   0.62001266   -2.6892398   -2.6892398   -1.9455462  0.040260723   -2.6892398   0.74369361   424551 
 1837000   0.61972003   -2.6896054   -2.6896054   -1.9462628  0.041439532   -2.6896054    0.7433426   424551 
 1838000   0.61823939   -2.6873442   -2.6873442   -1.9457776  0.037718093   -2.6873442   0.74156661   424551 
 1839000     0.619495   -2.6888716   -2.6888716   -1.9457989  0.035882504   -2.6888716   0.74307269   424551 
 1840000   0.61929179   -2.6886493   -2.6886493   -1.9458204  0.038912229   -2.6886493   0.74282895   424551 
 1841000   0.61946002   -2.6892587   -2.6892587    -1.946228  0.044513664   -2.6892587   0.74303073   424551 
 1842000   0.61904271   -2.6886016   -2.6886016   -1.9460714  0.041816069   -2.6886016   0.74253017   424551 
 1843000   0.61967492   -2.6894702   -2.6894702   -1.9461817  0.043695465   -2.6894702    0.7432885   424551 
 1844000    0.6192717   -2.6887822   -2.6887822   -1.9459774  0.043993581   -2.6887822   0.74280484   424551 
 1845000   0.61985575   -2.6899677   -2.6899677   -1.9464622  0.033620905   -2.6899677   0.74350541   424551 
 1846000   0.61851814   -2.6890116   -2.6890116   -1.9471107  0.039506023   -2.6890116   0.74190097   424551 
 1847000   0.61921454   -2.6900004   -2.6900004   -1.9472641  0.040157195   -2.6900004   0.74273628   424551 
 1848000   0.61967636   -2.6907994   -2.6907994   -1.9475092  0.038257134   -2.6907994   0.74329023   424551 
 1849000   0.61938331   -2.6901282   -2.6901282   -1.9471895   0.04468478   -2.6901282   0.74293871   424551 
 1850000   0.62044856   -2.6915198   -2.6915198   -1.9473033  0.041192469   -2.6915198   0.74421647   424551 
 1851000   0.61959117   -2.6904662   -2.6904662   -1.9472782  0.047077511   -2.6904662   0.74318804   424551 
 1852000   0.61832474   -2.6892291   -2.6892291   -1.9475601  0.044478847   -2.6892291   0.74166898   424551 
 1853000    0.6194332   -2.6909192   -2.6909192   -1.9479207  0.043807601   -2.6909192   0.74299856   424551 
 1854000   0.61854682   -2.6904205   -2.6904205   -1.9484851  0.049664441   -2.6904205   0.74193537   424551 
 1855000   0.61985346   -2.6918553   -2.6918553   -1.9483526  0.041278701   -2.6918553   0.74350265   424551 
 1856000    0.6193746   -2.6909768   -2.6909768   -1.9480485  0.044389077   -2.6909768   0.74292828   424551 
 1857000   0.61843101   -2.6899232   -2.6899232   -1.9481268   0.03916598   -2.6899232   0.74179646   424551 
 1858000   0.61924259   -2.6905913   -2.6905913   -1.9478213  0.031394937   -2.6905913   0.74276993   424551 
 1859000   0.61952778   -2.6908489   -2.6908489   -1.9477369  0.052271246   -2.6908489   0.74311201   424551 
 1860000   0.61928833   -2.6905867   -2.6905867   -1.9477619  0.043234133   -2.6905867   0.74282479   424551 
 1861000   0.61868484   -2.6899872   -2.6899872   -1.9478863  0.039741546   -2.6899872   0.74210091   424551 
 1862000   0.61911854   -2.6906209   -2.6906209   -1.9479998  0.035274718   -2.6906209   0.74262113   424551 
 1863000   0.61906551   -2.6904088   -2.6904088   -1.9478513  0.041410865   -2.6904088   0.74255752   424551 
 1864000   0.61953729   -2.6916043   -2.6916043   -1.9484809  0.043440301   -2.6916043   0.74312341   424551 
 1865000   0.62005346   -2.6921422   -2.6921422   -1.9483996  0.040313769   -2.6921422   0.74374255   424551 
 1866000   0.61849189   -2.6909565   -2.6909565    -1.949087  0.048011689   -2.6909565   0.74186947   424551 
 1867000   0.61862955   -2.6905234   -2.6905234   -1.9484888  0.034808262   -2.6905234    0.7420346   424551 
 1868000   0.61953529   -2.6923661   -2.6923661   -1.9492451  0.034018639   -2.6923661   0.74312102   424551 
 1869000   0.61888682   -2.6919911   -2.6919911   -1.9496479   0.04857597   -2.6919911   0.74234319   424551 
 1870000    0.6171972    -2.690853    -2.690853   -1.9505365  0.043978306    -2.690853   0.74031652   424551 
 1871000   0.61834526    -2.692232    -2.692232   -1.9505384  0.039760754    -2.692232    0.7416936   424551 
 1872000   0.61867074   -2.6924518   -2.6924518   -1.9503678   0.03152916   -2.6924518     0.742084   424551 
 1873000    0.6180705   -2.6917287   -2.6917287   -1.9503647  0.033845408   -2.6917287   0.74136403   424551 
 1874000   0.61877304   -2.6920822   -2.6920822   -1.9498755  0.041804703   -2.6920822   0.74220671   424551 
 1875000   0.61957072   -2.6927374   -2.6927374   -1.9495739  0.039216474   -2.6927374   0.74316352   424551 
 1876000   0.61880425   -2.6923998   -2.6923998   -1.9501556  0.040753477   -2.6923998   0.74224415   424551 
 1877000    0.6195547   -2.6937326   -2.6937326   -1.9505883  0.043883825   -2.6937326    0.7431443   424551 
 1878000    0.6198237   -2.6945046   -2.6945046   -1.9510376  0.035079396   -2.6945046   0.74346696   424551 
 1879000   0.61796208   -2.6917287   -2.6917287   -1.9504947  0.048009297   -2.6917287   0.74123399   424551 
 1880000   0.61866809   -2.6929396   -2.6929396   -1.9508587  0.045374277   -2.6929396   0.74208083   424551 
 1881000   0.61885628   -2.6936502   -2.6936502   -1.9513436  0.043497656   -2.6936502   0.74230656   424551 
 1882000   0.61759388    -2.692238    -2.692238   -1.9514456  0.049735402    -2.692238   0.74079234   424551 
 1883000   0.61808647   -2.6926858   -2.6926858   -1.9513026  0.043972069   -2.6926858   0.74138319   424551 
 1884000   0.61838314   -2.6925533   -2.6925533   -1.9508143  0.045634051   -2.6925533   0.74173904   424551 
 1885000   0.61865779   -2.6934116   -2.6934116   -1.9513431  0.035203635   -2.6934116   0.74206848   424551 
 1886000    0.6183564   -2.6931509   -2.6931509    -1.951444  0.039484237   -2.6931509   0.74170696   424551 
 1887000   0.61845471    -2.693001    -2.693001   -1.9511761  0.042843828    -2.693001   0.74182488   424551 
 1888000   0.61857557   -2.6926656   -2.6926656   -1.9506958  0.031353954   -2.6926656   0.74196985   424551 
 1889000   0.61912791    -2.694124    -2.694124   -1.9514917  0.043936119    -2.694124   0.74263238   424551 
 1890000   0.61915731   -2.6938028   -2.6938028   -1.9511351  0.043179238   -2.6938028   0.74266763   424551 
 1891000   0.61869708   -2.6933994   -2.6933994   -1.9512838  0.034423542   -2.6933994    0.7421156   424551 
 1892000   0.61904169   -2.6941559   -2.6941559    -1.951627  0.033973568   -2.6941559   0.74252895   424551 
 1893000   0.61834686   -2.6933811   -2.6933811   -1.9516856  0.041841078   -2.6933811   0.74169551   424551 
 1894000   0.61787344   -2.6921983   -2.6921983   -1.9510706  0.036534052   -2.6921983   0.74112766   424551 
 1895000   0.61759671   -2.6923279   -2.6923279   -1.9515322  0.034221517   -2.6923279   0.74079572   424551 
 1896000   0.61827581   -2.6927519   -2.6927519   -1.9511416   0.04179052   -2.6927519   0.74161029   424551 
 1897000   0.61865039   -2.6933321   -2.6933321   -1.9512725  0.050233357   -2.6933321   0.74205959   424551 
 1898000   0.61805696   -2.6921599   -2.6921599   -1.9508121   0.03614363   -2.6921599   0.74134779   424551 
 1899000   0.61759566   -2.6918731   -2.6918731   -1.9510787  0.039136468   -2.6918731   0.74079446   424551 
 1900000   0.61822641   -2.6921874   -2.6921874   -1.9506364  0.037951478   -2.6921874   0.74155103   424551 
 1901000   0.61914255    -2.693838    -2.693838   -1.9511881  0.042180854    -2.693838   0.74264993   424551 
 1902000   0.61847656   -2.6929135   -2.6929135   -1.9510624  0.046340055   -2.6929135   0.74185109   424551 
 1903000   0.61773303   -2.6918289   -2.6918289   -1.9508697  0.043853797   -2.6918289   0.74095924   424551 
 1904000   0.61747406   -2.6919715   -2.6919715   -1.9513229  0.043124031   -2.6919715    0.7406486   424551 
 1905000   0.61816465   -2.6934114   -2.6934114   -1.9519344  0.041206569   -2.6934114   0.74147696   424551 
 1906000   0.61833631   -2.6939097   -2.6939097   -1.9522268  0.034591786   -2.6939097   0.74168286   424551 
 1907000   0.61863787   -2.6945565   -2.6945565   -1.9525119  0.041339759   -2.6945565   0.74204458   424551 
 1908000    0.6182948   -2.6932659   -2.6932659   -1.9516328  0.044505709   -2.6932659   0.74163307   424551 
 1909000   0.61903326   -2.6941124   -2.6941124   -1.9515935  0.040675138   -2.6941124   0.74251884   424551 
 1910000   0.61909969   -2.6937834   -2.6937834   -1.9511848  0.054216745   -2.6937834   0.74259853   424551 
 1911000   0.61849768   -2.6943662   -2.6943662   -1.9524897  0.050452039   -2.6943662   0.74187643   424551 
 1912000   0.61852736   -2.6937647   -2.6937647   -1.9518526  0.045853082   -2.6937647   0.74191202   424551 
 1913000   0.61891666   -2.6956182   -2.6956182   -1.9532393  0.051533521   -2.6956182   0.74237898   424551 
 1914000   0.61949668   -2.6950159   -2.6950159   -1.9519412  0.044371413   -2.6950159   0.74307471   424551 
 1915000   0.61976643   -2.6955121   -2.6955121   -1.9521138  0.045864629   -2.6955121   0.74339826   424551 
 1916000   0.61949189   -2.6945954   -2.6945954   -1.9515264  0.052709714   -2.6945954   0.74306896   424551 
 1917000   0.61968861   -2.6956017   -2.6956017   -1.9522968  0.036600973   -2.6956017   0.74330492   424551 
 1918000   0.61830376   -2.6936777   -2.6936777   -1.9520339  0.051010075   -2.6936777   0.74164382   424551 
 1919000   0.61932933   -2.6943185   -2.6943185   -1.9514445  0.049318004   -2.6943185   0.74287397   424551 
 1920000   0.61890413   -2.6934354   -2.6934354   -1.9510715  0.044701958   -2.6934354   0.74236395   424551 
 1921000   0.61886876   -2.6945942   -2.6945942   -1.9522726  0.038996131   -2.6945942   0.74232152   424551 
 1922000   0.61813282   -2.6935742   -2.6935742   -1.9521354  0.037449833   -2.6935742   0.74143877   424551 
 1923000   0.61773616   -2.6932394   -2.6932394   -1.9522764    0.0441146   -2.6932394   0.74096299   424551 
 1924000   0.61773248   -2.6933671   -2.6933671   -1.9524085  0.045309884   -2.6933671   0.74095857   424551 
 1925000   0.61734567   -2.6931904   -2.6931904   -1.9526958  0.042786712   -2.6931904   0.74049461   424551 
 1926000   0.61816121   -2.6941296   -2.6941296   -1.9526568  0.049656692   -2.6941296   0.74147284   424551 
 1927000   0.61803376   -2.6947642   -2.6947642   -1.9534442  0.033446751   -2.6947642   0.74131996   424551 
 1928000   0.61801353   -2.6941892   -2.6941892   -1.9528935  0.040629479   -2.6941892   0.74129569   424551 
 1929000   0.61838652   -2.6947973   -2.6947973   -1.9530542  0.045391935   -2.6947973   0.74174309   424551 
 1930000   0.61771248   -2.6935923   -2.6935923   -1.9526577  0.045699548   -2.6935923   0.74093459   424551 
 1931000   0.61830428   -2.6953401   -2.6953401   -1.9536956   0.04241404   -2.6953401   0.74164444   424551 
 1932000   0.61832121   -2.6947984   -2.6947984   -1.9531336  0.039320302   -2.6947984   0.74166475   424551 
 1933000   0.61983823   -2.6963209   -2.6963209   -1.9528365  0.035385594   -2.6963209   0.74348439   424551 
 1934000   0.61863666   -2.6957457   -2.6957457   -1.9537025   0.03630971   -2.6957457   0.74204313   424551 
 1935000   0.61802703   -2.6951062   -2.6951062   -1.9537943   0.03678617   -2.6951062   0.74131188   424551 
 1936000   0.61850339    -2.696091    -2.696091   -1.9542077  0.037030107    -2.696091   0.74188327   424551 
 1937000   0.61793939   -2.6947457   -2.6947457   -1.9535389  0.035183268   -2.6947457   0.74120676   424551 
 1938000   0.61803837   -2.6948998   -2.6948998   -1.9535743  0.043554566   -2.6948998   0.74132549   424551 
 1939000   0.61816971   -2.6958428   -2.6958428   -1.9543598  0.049391907   -2.6958428   0.74148303   424551 
 1940000   0.61768805    -2.695337    -2.695337   -1.9544317   0.03306841    -2.695337   0.74090529   424551 
 1941000   0.61885154   -2.6960433   -2.6960433   -1.9537425   0.04418644   -2.6960433   0.74230087   424551 
 1942000   0.61926858   -2.6958088   -2.6958088   -1.9530077  0.047293291   -2.6958088    0.7428011   424551 
 1943000   0.61900976   -2.6961564   -2.6961564   -1.9536657  0.039802155   -2.6961564   0.74249065   424551 
 1944000   0.61828112   -2.6958669   -2.6958669   -1.9542503  0.035619862   -2.6958669   0.74161666   424551 
 1945000   0.61898907    -2.696161    -2.696161   -1.9536951  0.039524244    -2.696161   0.74246584   424551 
 1946000   0.61863101   -2.6961712   -2.6961712   -1.9541348  0.041745339   -2.6961712   0.74203635   424551 
 1947000   0.61855069   -2.6955614   -2.6955614   -1.9536214  0.038714644   -2.6955614      0.74194   424551 
 1948000   0.61965123   -2.6973658   -2.6973658   -1.9541057  0.043862249   -2.6973658   0.74326009   424551 
 1949000   0.61825869   -2.6958746   -2.6958746   -1.9542848  0.038950604   -2.6958746   0.74158976   424551 
 1950000   0.61811899   -2.6951653   -2.6951653   -1.9537431  0.042969352   -2.6951653   0.74142219   424551 
 1951000   0.61922966   -2.6973082   -2.6973082   -1.9545537  0.050403446   -2.6973082   0.74275442   424551 
 1952000   0.61784497     -2.69702     -2.69702   -1.9559265  0.042031182     -2.69702   0.74109351   424551 
 1953000     0.617516   -2.6969696   -2.6969696   -1.9562707  0.041033909   -2.6969696   0.74069891   424551 
 1954000   0.61753575   -2.6971924   -2.6971924   -1.9564698  0.051427356   -2.6971924    0.7407226   424551 
 1955000   0.61743133   -2.6960582   -2.6960582   -1.9554608  0.037624824   -2.6960582   0.74059736   424551 
 1956000   0.61851202   -2.6976427   -2.6976427    -1.955749   0.03383448   -2.6976427   0.74189363   424551 
 1957000   0.61811794   -2.6967967   -2.6967967   -1.9553758  0.036078251   -2.6967967   0.74142093   424551 
 1958000    0.6190637   -2.6979959   -2.6979959   -1.9554405  0.039281021   -2.6979959   0.74255535   424551 
 1959000   0.61841815   -2.6983074   -2.6983074   -1.9565264  0.039731917   -2.6983074   0.74178103   424551 
 1960000   0.61801993   -2.6979482   -2.6979482   -1.9566448  0.046375024   -2.6979482   0.74130338   424551 
 1961000   0.61723722   -2.6974403   -2.6974403   -1.9570758   0.03716879   -2.6974403   0.74036453   424551 
 1962000   0.61782959    -2.698869    -2.698869   -1.9577939  0.047818843    -2.698869   0.74107506   424551 
 1963000   0.61756185   -2.6988306   -2.6988306   -1.9580766  0.045886017   -2.6988306   0.74075392   424551 
 1964000   0.61754836   -2.6989097   -2.6989097    -1.958172  0.040526153   -2.6989097   0.74073774   424551 
 1965000    0.6167126   -2.6979377   -2.6979377   -1.9582025  0.047232763   -2.6979377   0.73973526   424551 
 1966000   0.61689037   -2.6981731   -2.6981731   -1.9582246  0.037069837   -2.6981731   0.73994849   424551 
 1967000   0.61704249   -2.6983999   -2.6983999   -1.9582689  0.047622386   -2.6983999   0.74013095   424551 
 1968000   0.61684061   -2.6981423   -2.6981423   -1.9582535  0.038694688   -2.6981423    0.7398888   424551 
 1969000   0.61765001   -2.6996028   -2.6996028   -1.9587432  0.043166662   -2.6996028   0.74085966   424551 
 1970000   0.61801727    -2.699356    -2.699356   -1.9580559  0.041200994    -2.699356   0.74130018   424551 
 1971000   0.61835583   -2.6998063   -2.6998063      -1.9581  0.044624469   -2.6998063   0.74170627   424551 
 1972000   0.61658969   -2.6979364   -2.6979364   -1.9583486  0.040668265   -2.6979364   0.73958782   424551 
 1973000   0.61792153   -2.6995266   -2.6995266   -1.9583413  0.038884179   -2.6995266   0.74118534   424551 
 1974000   0.61723796   -2.6985507   -2.6985507   -1.9581853  0.030627961   -2.6985507   0.74036541   424551 
 1975000   0.61704411   -2.6979098   -2.6979098   -1.9577769  0.049731252   -2.6979098    0.7401329   424551 
 1976000   0.61759656   -2.6989281   -2.6989281   -1.9581326  0.043641435   -2.6989281   0.74079555   424551 
 1977000   0.61653715   -2.6981457   -2.6981457   -1.9586209  0.035622735   -2.6981457    0.7395248   424551 
 1978000    0.6181221   -2.6993272   -2.6993272   -1.9579013  0.049760772   -2.6993272   0.74142593   424551 
 1979000   0.61750019   -2.6993561   -2.6993561   -1.9586762  0.036230846   -2.6993561   0.74067995   424551 
 1980000   0.61773293   -2.6996682   -2.6996682   -1.9587091  0.042481627   -2.6996682   0.74095912   424551 
 1981000   0.61778123   -2.6995548   -2.6995548   -1.9585377   0.04865771   -2.6995548   0.74101705   424551 
 1982000    0.6162748   -2.6969807   -2.6969807   -1.9577706  0.044645189   -2.6969807   0.73921012   424551 
 1983000   0.61642861   -2.6978239   -2.6978239   -1.9584293  0.041587393   -2.6978239   0.73939462   424551 
 1984000   0.61725871    -2.699227    -2.699227   -1.9588367  0.037458652    -2.699227    0.7403903   424551 
 1985000   0.61903819   -2.7007141   -2.7007141   -1.9581893  0.041136043   -2.7007141   0.74252476   424551 
 1986000   0.61776311   -2.6991255   -2.6991255   -1.9581302  0.047630406   -2.6991255   0.74099531   424551 
 1987000   0.61820036   -2.6997127   -2.6997127   -1.9581929  0.048449626   -2.6997127   0.74151979   424551 
 1988000   0.61785314   -2.6996478   -2.6996478   -1.9585445  0.041001231   -2.6996478   0.74110331   424551 
 1989000   0.61741204   -2.6991736   -2.6991736   -1.9585993  0.052314432   -2.6991736   0.74057422   424551 
 1990000   0.61707239   -2.6988882   -2.6988882   -1.9587214   0.04403566   -2.6988882   0.74016682   424551 
 1991000   0.61770214   -2.6997258   -2.6997258   -1.9588036  0.042815343   -2.6997258   0.74092218   424551 
 1992000   0.61820051   -2.7004925   -2.7004925   -1.9589726  0.052390425   -2.7004925   0.74151997   424551 
 1993000    0.6196706   -2.7024223   -2.7024223    -1.959139  0.041730581   -2.7024223   0.74328332   424551 
 1994000    0.6180385   -2.7002751   -2.7002751   -1.9589495  0.032580043   -2.7002751   0.74132565   424551 
 1995000    0.6187714   -2.7013263   -2.7013263   -1.9591216  0.046866625   -2.7013263   0.74220475   424551 
 1996000   0.61751819   -2.6993463   -2.6993463   -1.9586448  0.040967428   -2.6993463   0.74070155   424551 
 1997000   0.61796017   -2.6990154   -2.6990154   -1.9577837  0.044527281   -2.6990154   0.74123169   424551 
 1998000   0.61785407   -2.6997065   -2.6997065   -1.9586021  0.035592155   -2.6997065   0.74110442   424551 
 1999000   0.61777713   -2.7000925   -2.7000925   -1.9590804  0.044955383   -2.7000925   0.74101213   424551 
 2000000   0.61773884   -2.7013603   -2.7013603   -1.9603941  0.038576987   -2.7013603   0.74096621   424551 
 2001000   0.61633482   -2.6991164   -2.6991164   -1.9598343  0.038163834   -2.6991164   0.73928211   424551 
 2002000   0.61578602    -2.698671    -2.698671   -1.9600472  0.036427269    -2.698671   0.73862384   424551 
 2003000   0.61721011   -2.7011057   -2.7011057   -1.9607737  0.043878387   -2.7011057     0.740332   424551 
 2004000   0.61658068   -2.6995464   -2.6995464   -1.9599693  0.035753762   -2.6995464   0.73957702   424551 
 2005000   0.61678743   -2.7004133   -2.7004133   -1.9605883  0.034043055   -2.7004133   0.73982501   424551 
 2006000   0.61634109   -2.6996479   -2.6996479   -1.9603583    0.0301571   -2.6996479   0.73928963   424551 
 2007000   0.61732521   -2.7011574   -2.7011574   -1.9606874  0.038083586   -2.7011574   0.74047006   424551 
 2008000   0.61707363   -2.7010362   -2.7010362   -1.9608679  0.043025715   -2.7010362    0.7401683   424551 
 2009000   0.61732011   -2.7001911   -2.7001911   -1.9597272  0.045092662   -2.7001911   0.74046395   424551 
 2010000   0.61809572   -2.7016436   -2.7016436   -1.9602493  0.040487126   -2.7016436   0.74139428   424551 
 2011000   0.61833521   -2.7024712   -2.7024712   -1.9607897   0.03403995   -2.7024712   0.74168154   424551 
 2012000   0.61759672   -2.7012753   -2.7012753   -1.9604795  0.045786067   -2.7012753   0.74079573   424551 
 2013000   0.61696927   -2.7009077   -2.7009077   -1.9608645  0.044505145   -2.7009077   0.74004313   424551 
 2014000   0.61747169   -2.7019964   -2.7019964   -1.9613506  0.041251362   -2.7019964   0.74064577   424551 
 2015000    0.6163423     -2.70054     -2.70054   -1.9612489  0.038184054     -2.70054   0.73929109   424551 
 2016000    0.6174514   -2.7014875   -2.7014875   -1.9608661  0.039981659   -2.7014875   0.74062143   424551 
 2017000   0.61661671   -2.7013764   -2.7013764   -1.9617562   0.04373929   -2.7013764   0.73962023   424551 
 2018000   0.61584029   -2.7005665   -2.7005665   -1.9618775  0.044389748   -2.7005665   0.73868894   424551 
 2019000   0.61697838   -2.7025849   -2.7025849   -1.9625308  0.049271747   -2.7025849   0.74005406   424551 
 2020000   0.61795034   -2.7034551   -2.7034551   -1.9622352  0.031473033   -2.7034551    0.7412199   424551 
 2021000   0.61721321   -2.7020815   -2.7020815   -1.9617458  0.036951255   -2.7020815   0.74033572   424551 
 2022000   0.61786402    -2.703149    -2.703149   -1.9620326  0.040850402    -2.703149   0.74111636   424551 
 2023000   0.61709867   -2.7022159   -2.7022159   -1.9620176  0.036868007   -2.7022159   0.74019834   424551 
 2024000    0.6173238   -2.7023822   -2.7023822   -1.9619139   0.04541273   -2.7023822   0.74046837   424551 
 2025000   0.61871074    -2.704611    -2.704611    -1.962479  0.037997766    -2.704611   0.74213198   424551 
 2026000    0.6186083   -2.7054128   -2.7054128   -1.9634036  0.039371029   -2.7054128   0.74200911   424551 
 2027000   0.61729049   -2.7042078   -2.7042078   -1.9637794  0.042642008   -2.7042078   0.74042842   424551 
 2028000   0.61770493   -2.7054659   -2.7054659   -1.9645403  0.052987473   -2.7054659   0.74092553   424551 
 2029000   0.61690337   -2.7053359   -2.7053359   -1.9653718  0.038934422   -2.7053359   0.73996408   424551 
 2030000   0.61723664   -2.7048705   -2.7048705   -1.9645066  0.034342617   -2.7048705   0.74036383   424551 
 2031000     0.616307   -2.7040101   -2.7040101   -1.9647613  0.047236009   -2.7040101   0.73924875   424551 
 2032000   0.61742168   -2.7054222   -2.7054222   -1.9648364  0.040324837   -2.7054222   0.74058578   424551 
 2033000   0.61735864   -2.7052517   -2.7052517   -1.9647415  0.045444974   -2.7052517   0.74051017   424551 
 2034000    0.6171152   -2.7050748   -2.7050748   -1.9648567  0.048496292   -2.7050748   0.74021816   424551 
 2035000   0.61807312   -2.7060875   -2.7060875   -1.9647203  0.035942357   -2.7060875   0.74136717   424551 
 2036000    0.6173129   -2.7055332   -2.7055332   -1.9650779  0.040519384   -2.7055332    0.7404553   424551 
 2037000   0.61691453   -2.7049388   -2.7049388   -1.9649613  0.041394382   -2.7049388   0.73997746   424551 
 2038000   0.61740282     -2.70546     -2.70546   -1.9648968  0.047874982     -2.70546   0.74056316   424551 
 2039000   0.61603023   -2.7047475   -2.7047475   -1.9658307  0.044454692   -2.7047475   0.73891676   424551 
 2040000   0.61785697   -2.7068469   -2.7068469    -1.965739  0.046511381   -2.7068469   0.74110791   424551 
 2041000   0.61793966   -2.7066865   -2.7066865   -1.9654794  0.042100497   -2.7066865   0.74120708   424551 
 2042000   0.61845625   -2.7075103   -2.7075103   -1.9656836  0.037771768   -2.7075103   0.74182673   424551 
 2043000   0.61663213    -2.704498    -2.704498   -1.9648593  0.045998811    -2.704498   0.73963873   424551 
 2044000   0.61689499   -2.7043742   -2.7043742   -1.9644202  0.052846266   -2.7043742   0.73995403   424551 
 2045000   0.61667741   -2.7038087   -2.7038087   -1.9641156  0.040969831   -2.7038087   0.73969304   424551 
 2046000   0.61735435    -2.705084    -2.705084    -1.964579  0.039179397    -2.705084   0.74050502   424551 
 2047000   0.61613085   -2.7034374   -2.7034374   -1.9643999   0.04712946   -2.7034374   0.73903745   424551 
 2048000   0.61724986   -2.7044588   -2.7044588   -1.9640791  0.043188358   -2.7044588   0.74037969   424551 
 2049000   0.61603491   -2.7033996   -2.7033996   -1.9644772   0.04220943   -2.7033996   0.73892238   424551 
 2050000   0.61659981   -2.7033404   -2.7033404   -1.9637405  0.030181023   -2.7033404   0.73959996   424551 
 2051000   0.61838435   -2.7057746   -2.7057746   -1.9640341   0.04493442   -2.7057746   0.74174049   424551 
 2052000   0.61814207   -2.7060249   -2.7060249    -1.964575  0.046272244   -2.7060249   0.74144987   424551 
 2053000   0.61730294   -2.7047561   -2.7047561   -1.9643128  0.042383719   -2.7047561   0.74044336   424551 
 2054000   0.61675959   -2.7047985   -2.7047985   -1.9650069   0.04254026   -2.7047985   0.73979161   424551 
 2055000   0.61773339   -2.7066929   -2.7066929   -1.9657333  0.036953244   -2.7066929   0.74095967   424551 
 2056000   0.61714806   -2.7059702   -2.7059702   -1.9657126  0.047928241   -2.7059702   0.74025757   424551 
 2057000   0.61576801   -2.7050108   -2.7050108   -1.9664086  0.054283958   -2.7050108   0.73860223   424551 
 2058000   0.61676404    -2.705901    -2.705901   -1.9661041  0.039319789    -2.705901   0.73979695   424551 
 2059000   0.61548623   -2.7040415   -2.7040415   -1.9657773   0.03765006   -2.7040415   0.73826424   424551 
 2060000   0.61578414    -2.704673    -2.704673   -1.9660514  0.045664021    -2.704673   0.73862158   424551 
 2061000   0.61613883   -2.7052629   -2.7052629   -1.9662159  0.049692034   -2.7052629   0.73904702   424551 
 2062000   0.61642413   -2.7062495   -2.7062495   -1.9668603  0.038402491   -2.7062495   0.73938924   424551 
 2063000   0.61669996   -2.7066864   -2.7066864   -1.9669663  0.056468301   -2.7066864   0.73972009   424551 
 2064000   0.61688026   -2.7073018   -2.7073018   -1.9673655  0.041688569   -2.7073018   0.73993636   424551 
 2065000   0.61726927   -2.7075733   -2.7075733   -1.9671704  0.043816487   -2.7075733   0.74040296   424551 
 2066000   0.61744445   -2.7085113   -2.7085113   -1.9678982  0.037147929   -2.7085113    0.7406131   424551 
 2067000    0.6165957    -2.706954    -2.706954   -1.9673589  0.043302829    -2.706954   0.73959503   424551 
 2068000   0.61637272   -2.7072595   -2.7072595    -1.967932  0.041739847   -2.7072595   0.73932757   424551 
 2069000   0.61722029   -2.7073055   -2.7073055   -1.9669613  0.043280816   -2.7073055   0.74034421   424551 
 2070000   0.61770979   -2.7074118   -2.7074118   -1.9664804   0.02971616   -2.7074118   0.74093136   424551 
 2071000   0.61713185    -2.706673    -2.706673   -1.9664348  0.044795111    -2.706673   0.74023813   424551 
 2072000   0.61796154   -2.7077377   -2.7077377   -1.9665044  0.039774962   -2.7077377   0.74123334   424551 
 2073000   0.61779733   -2.7072263   -2.7072263     -1.96619  0.038552397   -2.7072263   0.74103636   424551 
 2074000   0.61630218   -2.7061042   -2.7061042   -1.9668613  0.042690567   -2.7061042   0.73924296   424551 
 2075000   0.61762064   -2.7075995   -2.7075995   -1.9667751  0.040887654   -2.7075995   0.74082443   424551 
 2076000   0.61707655   -2.7067942   -2.7067942   -1.9666224  0.037741727   -2.7067942    0.7401718   424551 
 2077000   0.61667786   -2.7062795   -2.7062795   -1.9665859  0.039405731   -2.7062795   0.73969359   424551 
 2078000   0.61711309   -2.7066158   -2.7066158   -1.9664002  0.038882695   -2.7066158   0.74021564   424551 
 2079000   0.61534408   -2.7050735   -2.7050735   -1.9669798  0.049404843   -2.7050735   0.73809374   424551 
 2080000   0.61791745   -2.7076148   -2.7076148   -1.9664344  0.045869586   -2.7076148   0.74118045   424551 
 2081000   0.61592107   -2.7060037   -2.7060037   -1.9672179  0.035430094   -2.7060037   0.73878583   424551 
 2082000   0.61663892   -2.7068087   -2.7068087   -1.9671618  0.039647419   -2.7068087   0.73964688   424551 
 2083000    0.6157025    -2.705657    -2.705657   -1.9671334  0.050217773    -2.705657   0.73852366   424551 
 2084000    0.6162645   -2.7057955   -2.7057955   -1.9665978  0.046607186   -2.7057955   0.73919776   424551 
 2085000   0.61709998   -2.7066295   -2.7066295   -1.9664296  0.047779508   -2.7066295   0.74019991   424551 
 2086000    0.6168295   -2.7067217   -2.7067217   -1.9668462   0.04960832   -2.7067217   0.73987548   424551 
 2087000   0.61783544   -2.7073498   -2.7073498   -1.9662678  0.044480616   -2.7073498   0.74108207   424551 
 2088000   0.61853167   -2.7087453   -2.7087453   -1.9668282  0.038368401   -2.7087453   0.74191719   424551 
 2089000   0.61848571   -2.7089205   -2.7089205   -1.9670585  0.043176041   -2.7089205   0.74186206   424551 
 2090000   0.61860241   -2.7092808   -2.7092808   -1.9672787  0.047355487   -2.7092808   0.74200205   424551 
 2091000   0.61789179   -2.7087044   -2.7087044   -1.9675547  0.040561295   -2.7087044   0.74114967   424551 
 2092000   0.61695605   -2.7080851   -2.7080851   -1.9680578  0.048692236   -2.7080851   0.74002726   424551 
 2093000   0.61683394   -2.7084149   -2.7084149   -1.9685341  0.032122898   -2.7084149    0.7398808   424551 
 2094000   0.61680199   -2.7080796   -2.7080796   -1.9682371  0.045169726   -2.7080796   0.73984248   424551 
 2095000   0.61600939   -2.7065767   -2.7065767   -1.9676849  0.038247186   -2.7065767   0.73889176   424551 
 2096000   0.61875746   -2.7101862   -2.7101862   -1.9679981  0.038807937   -2.7101862   0.74218802   424551 
 2097000   0.61612168   -2.7065909   -2.7065909   -1.9675645  0.045546303   -2.7065909   0.73902645   424551 
 2098000   0.61684279   -2.7081667   -2.7081667   -1.9682753  0.035371345   -2.7081667   0.73989141   424551 
 2099000   0.61701236   -2.7081821   -2.7081821   -1.9680873  0.035677992   -2.7081821    0.7400948   424551 
 2100000   0.61620115    -2.708098    -2.708098   -1.9689762   0.03776192    -2.708098   0.73912177   424551 
 2101000   0.61558832   -2.7076502   -2.7076502   -1.9692635  0.042369985   -2.7076502    0.7383867   424551 
 2102000   0.61561555   -2.7072828   -2.7072828   -1.9688635  0.035664661   -2.7072828   0.73841936   424551 
 2103000   0.61659706   -2.7088203   -2.7088203   -1.9692236  0.038886994   -2.7088203   0.73959666   424551 
 2104000   0.61698291     -2.70916     -2.70916   -1.9691005  0.050396248     -2.70916   0.74005949   424551 
 2105000   0.61668076   -2.7091936   -2.7091936   -1.9694965  0.038046965   -2.7091936   0.73969706   424551 
 2106000   0.61735638   -2.7104341   -2.7104341   -1.9699266  0.044506052   -2.7104341   0.74050746   424551 
 2107000   0.61713253    -2.710193    -2.710193    -1.969954  0.033331003    -2.710193   0.74023895   424551 
 2108000   0.61627922   -2.7095212   -2.7095212   -1.9703058  0.038677724   -2.7095212   0.73921542   424551 
 2109000   0.61577371   -2.7086107   -2.7086107   -1.9700016  0.036495563   -2.7086107   0.73860907   424551 
 2110000   0.61653421   -2.7099923   -2.7099923    -1.970471  0.033068688   -2.7099923   0.73952128   424551 
 2111000    0.6157396   -2.7088178   -2.7088178   -1.9702497  0.039131174   -2.7088178   0.73856816   424551 
 2112000   0.61544005    -2.708625    -2.708625   -1.9704162  0.037008355    -2.708625   0.73820886   424551 
 2113000   0.61563345   -2.7087058   -2.7087058    -1.970265  0.035793353   -2.7087058   0.73844083   424551 
 2114000   0.61568687   -2.7090138   -2.7090138   -1.9705089  0.036708138   -2.7090138    0.7385049   424551 
 2115000   0.61511994   -2.7083097   -2.7083097   -1.9704848  0.040665701   -2.7083097   0.73782489   424551 
 2116000   0.61552083   -2.7087123   -2.7087123   -1.9704065  0.038731912   -2.7087123   0.73830575   424551 
 2117000    0.6164629   -2.7099544   -2.7099544   -1.9705186   0.04576336   -2.7099544   0.73943574   424551 
 2118000   0.61725064   -2.7106745   -2.7106745   -1.9702939  0.031884304   -2.7106745   0.74038062   424551 
 2119000   0.61585587   -2.7102342   -2.7102342   -1.9715266  0.040500861   -2.7102342   0.73870762   424551 
 2120000   0.61510709   -2.7087539   -2.7087539   -1.9709444  0.042976168   -2.7087539   0.73780947   424551 
 2121000   0.61587971   -2.7098634   -2.7098634   -1.9711272  0.045053344   -2.7098634   0.73873622   424551 
 2122000   0.61595864   -2.7097403   -2.7097403   -1.9709094  0.047147287   -2.7097403   0.73883089   424551 
 2123000   0.61563655   -2.7094808   -2.7094808   -1.9710362  0.035648037   -2.7094808   0.73844455   424551 
 2124000   0.61635549   -2.7106112   -2.7106112   -1.9713043  0.043211022   -2.7106112    0.7393069   424551 
 2125000   0.61630351    -2.709813    -2.709813   -1.9705684  0.044831139    -2.709813   0.73924456   424551 
 2126000   0.61602629    -2.710051    -2.710051   -1.9711389  0.041418754    -2.710051   0.73891204   424551 
 2127000   0.61608628    -2.709937    -2.709937    -1.970953  0.034044094    -2.709937     0.738984   424551 
 2128000   0.61589898   -2.7101385   -2.7101385   -1.9713792   0.02964866   -2.7101385   0.73875933   424551 
 2129000   0.61603344   -2.7102061   -2.7102061   -1.9712855  0.044523557   -2.7102061   0.73892061   424551 
 2130000   0.61553737   -2.7094316   -2.7094316    -1.971106  0.033332423   -2.7094316   0.73832559   424551 
 2131000   0.61613943   -2.7110685   -2.7110685   -1.9720208  0.041983033   -2.7110685   0.73904774   424551 
 2132000   0.61541917   -2.7100911   -2.7100911   -1.9719073  0.031717912   -2.7100911   0.73818381   424551 
 2133000   0.61454928   -2.7088602   -2.7088602   -1.9717198  0.043042219   -2.7088602   0.73714039   424551 
 2134000   0.61523991   -2.7100961   -2.7100961   -1.9721274  0.032156486   -2.7100961   0.73796878   424551 
 2135000   0.61391288   -2.7089456   -2.7089456   -1.9725685  0.044426215   -2.7089456   0.73637704   424551 
 2136000   0.61635584   -2.7120987   -2.7120987   -1.9727914  0.052919915   -2.7120987   0.73930732   424551 
 2137000   0.61560849   -2.7106863   -2.7106863   -1.9722754  0.035849399   -2.7106863   0.73841089   424551 
 2138000   0.61598429   -2.7108993   -2.7108993   -1.9720376  0.038312817   -2.7108993   0.73886166   424551 
 2139000   0.61689197   -2.7120077   -2.7120077   -1.9720573  0.047033736   -2.7120077   0.73995041   424551 
 2140000   0.61610039   -2.7108003   -2.7108003   -1.9717993  0.034141139   -2.7108003   0.73900092   424551 
 2141000   0.61688488   -2.7120044   -2.7120044   -1.9720625  0.046155226   -2.7120044    0.7399419   424551 
 2142000   0.61729577   -2.7125455   -2.7125455   -1.9721108  0.042684345   -2.7125455   0.74043476   424551 
 2143000   0.61573584   -2.7109004   -2.7109004   -1.9723368   0.04819112   -2.7109004   0.73856365   424551 
 2144000   0.61790186   -2.7129713   -2.7129713   -1.9718095  0.043218136   -2.7129713   0.74116175   424551 
 2145000    0.6179399    -2.713495    -2.713495   -1.9722876   0.03914598    -2.713495   0.74120738   424551 
 2146000   0.61831634   -2.7141169   -2.7141169    -1.972458  0.050446201   -2.7141169    0.7416589   424551 
 2147000   0.61581232    -2.711436    -2.711436   -1.9727806  0.043756448    -2.711436   0.73865538   424551 
 2148000    0.6164103   -2.7124938   -2.7124938   -1.9731211  0.034825011   -2.7124938   0.73937265   424551 
 2149000   0.61550387   -2.7111173   -2.7111173   -1.9728319  0.036535792   -2.7111173    0.7382854   424551 
 2150000   0.61648211   -2.7124589   -2.7124589   -1.9730001  0.040629632   -2.7124589   0.73945878   424551 
 2151000   0.61650763   -2.7122235   -2.7122235   -1.9727341  0.037811164   -2.7122235    0.7394894   424551 
 2152000   0.61702785   -2.7130376   -2.7130376   -1.9729243  0.035605134   -2.7130376   0.74011339   424551 
 2153000   0.61645731   -2.7118217   -2.7118217   -1.9723927  0.045248206   -2.7118217   0.73942904   424551 
 2154000    0.6154604   -2.7113205   -2.7113205   -1.9730872   0.03624669   -2.7113205   0.73823327   424551 
 2155000   0.61578406    -2.711502    -2.711502   -1.9728805  0.045782542    -2.711502   0.73862149   424551 
 2156000   0.61707268   -2.7126886   -2.7126886   -1.9725215  0.033337541   -2.7126886   0.74016717   424551 
 2157000    0.6148069   -2.7106477   -2.7106477   -1.9731983  0.041344671   -2.7106477    0.7374494   424551 
 2158000   0.61549203   -2.7105817   -2.7105817   -1.9723105  0.032072461   -2.7105817    0.7382712   424551 
 2159000    0.6162727   -2.7113244   -2.7113244   -1.9721168  0.036483564   -2.7113244    0.7392076   424551 
 2160000   0.61564196   -2.7113406   -2.7113406   -1.9728896  0.048501559   -2.7113406   0.73845104   424551 
 2161000   0.61563465   -2.7113316   -2.7113316   -1.9728893  0.036649187   -2.7113316   0.73844227   424551 
 2162000   0.61665899    -2.712619    -2.712619    -1.972948  0.044642462    -2.712619   0.73967095   424551 
 2163000    0.6155467   -2.7109706   -2.7109706   -1.9726338  0.045303376   -2.7109706   0.73833678   424551 
 2164000    0.6160057   -2.7117282   -2.7117282   -1.9728408  0.037335304   -2.7117282   0.73888734   424551 
 2165000    0.6160157   -2.7120843   -2.7120843    -1.973185  0.038016151   -2.7120843   0.73889933   424551 
 2166000   0.61587273   -2.7117299   -2.7117299   -1.9730021  0.040927066   -2.7117299   0.73872785   424551 
 2167000   0.61650778   -2.7125973   -2.7125973   -1.9731078  0.042723553   -2.7125973   0.73948957   424551 
 2168000   0.61637942   -2.7122608   -2.7122608   -1.9729252  0.042447793   -2.7122608   0.73933561   424551 
 2169000   0.61569724   -2.7118892   -2.7118892   -1.9733718  0.043017157   -2.7118892   0.73851735   424551 
 2170000   0.61617963   -2.7123605   -2.7123605   -1.9732646  0.043832942   -2.7123605   0.73909596   424551 
 2171000   0.61665949    -2.713234    -2.713234   -1.9735625  0.043629785    -2.713234   0.73967155   424551 
 2172000   0.61646497   -2.7127873   -2.7127873   -1.9733491  0.040514242   -2.7127873   0.73943822   424551 
 2173000   0.61542181   -2.7124136   -2.7124136   -1.9742266  0.045925451   -2.7124136   0.73818697   424551 
 2174000   0.61421603   -2.7113081   -2.7113081   -1.9745674  0.039527995   -2.7113081   0.73674067   424551 
 2175000   0.61543001   -2.7126758   -2.7126758    -1.974479  0.050939445   -2.7126758   0.73819681   424551 
 2176000   0.61634981    -2.714348    -2.714348   -1.9750479   0.03927357    -2.714348   0.73930009   424551 
 2177000   0.61479891   -2.7123484   -2.7123484   -1.9749086  0.040259197   -2.7123484   0.73743982   424551 
 2178000   0.61418903    -2.711556    -2.711556   -1.9748477  0.038032811    -2.711556   0.73670828   424551 
 2179000   0.61569134   -2.7130058   -2.7130058   -1.9744956  0.034200174   -2.7130058   0.73851027   424551 
 2180000   0.61505742   -2.7127299   -2.7127299     -1.97498  0.035659698   -2.7127299   0.73774989   424551 
 2181000   0.61576871   -2.7134296   -2.7134296   -1.9748265  0.043960765   -2.7134296   0.73860308   424551 
 2182000   0.61471104   -2.7129882   -2.7129882   -1.9756538  0.038815886   -2.7129882   0.73733441   424551 
 2183000   0.61451518   -2.7130025   -2.7130025    -1.975903  0.046245744   -2.7130025   0.73709948   424551 
 2184000   0.61531654   -2.7139857   -2.7139857    -1.975925  0.040798994   -2.7139857    0.7380607   424551 
 2185000   0.61457242   -2.7127874   -2.7127874   -1.9756192  0.042652956   -2.7127874   0.73716815   424551 
 2186000   0.61499995   -2.7132119   -2.7132119    -1.975531  0.046875438   -2.7132119   0.73768096   424551 
 2187000   0.61531365   -2.7131481   -2.7131481   -1.9750909  0.053209405   -2.7131481   0.73805723   424551 
 2188000   0.61551348   -2.7135612   -2.7135612   -1.9752642  0.044118845   -2.7135612   0.73829693   424551 
 2189000   0.61709659   -2.7156792   -2.7156792   -1.9754834  0.040243908   -2.7156792   0.74019584   424551 
 2190000   0.61689158   -2.7160403   -2.7160403   -1.9760904  0.037527774   -2.7160403   0.73994993   424551 
 2191000   0.61548272   -2.7149113   -2.7149113   -1.9766512  0.048074164   -2.7149113   0.73826003   424551 
 2192000   0.61635149   -2.7159136   -2.7159136   -1.9766115  0.044425339   -2.7159136   0.73930211   424551 
 2193000   0.61536317   -2.7146175   -2.7146175   -1.9765008  0.047379597   -2.7146175   0.73811664   424551 
 2194000   0.61635658   -2.7149813   -2.7149813   -1.9756731  0.039077346   -2.7149813   0.73930821   424551 
 2195000   0.61580437   -2.7142896   -2.7142896   -1.9756437  0.039830809   -2.7142896   0.73864584   424551 
 2196000    0.6150125   -2.7137289   -2.7137289   -1.9760329  0.039941043   -2.7137289   0.73769601   424551 
 2197000   0.61515293   -2.7140909   -2.7140909   -1.9762264  0.031275015   -2.7140909   0.73786446   424551 
 2198000   0.61518501   -2.7132858   -2.7132858   -1.9753828  0.037430319   -2.7132858   0.73790293   424551 
 2199000   0.61500277   -2.7140275   -2.7140275   -1.9763431  0.042376584   -2.7140275   0.73768435   424551 
 2200000   0.61415909   -2.7131357   -2.7131357   -1.9764634  0.040664697   -2.7131357   0.73667236   424551 
 2201000    0.6153575   -2.7152982   -2.7152982   -1.9771884  0.038889389   -2.7152982   0.73810984   424551 
 2202000   0.61470063   -2.7148185   -2.7148185   -1.9774966  0.034680881   -2.7148185   0.73732193   424551 
 2203000   0.61493583   -2.7154197   -2.7154197   -1.9778157  0.035864781   -2.7154197   0.73760405   424551 
 2204000   0.61513402   -2.7156615   -2.7156615   -1.9778197   0.03738234   -2.7156615   0.73784178   424551 
 2205000   0.61579709   -2.7156682   -2.7156682   -1.9770311  0.046147148   -2.7156682   0.73863712   424551 
 2206000   0.61615216    -2.715732    -2.715732    -1.976669  0.042853608    -2.715732   0.73906302   424551 
 2207000   0.61585865   -2.7157416   -2.7157416   -1.9770306  0.044273396   -2.7157416   0.73871096   424551 
 2208000   0.61462515   -2.7140876   -2.7140876   -1.9768562   0.03380664   -2.7140876    0.7372314   424551 
 2209000   0.61564113    -2.715684    -2.715684    -1.977234  0.044495332    -2.715684   0.73845004   424551 
 2210000   0.61566949   -2.7161405   -2.7161405   -1.9776564  0.043382912   -2.7161405   0.73848406   424551 
 2211000   0.61621505   -2.7159573   -2.7159573   -1.9768189  0.042177217   -2.7159573   0.73913845   424551 
 2212000    0.6159897   -2.7163028   -2.7163028   -1.9774346  0.037196527   -2.7163028   0.73886815   424551 
 2213000   0.61800005   -2.7187859   -2.7187859   -1.9775064  0.029984857   -2.7187859   0.74127953   424551 
 2214000   0.61545364   -2.7164839   -2.7164839   -1.9782588  0.031936322   -2.7164839   0.73822515   424551 
 2215000   0.61590868   -2.7166536   -2.7166536   -1.9778826   0.04719795   -2.7166536   0.73877096   424551 
 2216000   0.61640838   -2.7171218   -2.7171218   -1.9777514  0.040586283   -2.7171218   0.73937035   424551 
 2217000   0.61559641   -2.7169531   -2.7169531   -1.9785567   0.04247708   -2.7169531    0.7383964   424551 
 2218000   0.61617685   -2.7179427   -2.7179427     -1.97885  0.036285803   -2.7179427   0.73909263   424551 
 2219000   0.61597636   -2.7174166   -2.7174166   -1.9785644  0.041821227   -2.7174166   0.73885215   424551 
 2220000   0.61685951   -2.7182759   -2.7182759   -1.9783644  0.040397142   -2.7182759   0.73991147   424551 
 2221000   0.61709981   -2.7177452   -2.7177452   -1.9775455    0.0401498   -2.7177452    0.7401997   424551 
 2222000   0.61638743   -2.7173478   -2.7173478   -1.9780026  0.045312639   -2.7173478   0.73934521   424551 
 2223000   0.61542128   -2.7162969   -2.7162969   -1.9781105   0.04317434   -2.7162969   0.73818633   424551 
 2224000   0.61503698   -2.7163268   -2.7163268   -1.9786014  0.036717512   -2.7163268   0.73772538   424551 
 2225000   0.61488297    -2.715619    -2.715619   -1.9780783  0.043728642    -2.715619   0.73754065   424551 
 2226000   0.61555114   -2.7167523   -2.7167523   -1.9784101   0.02753837   -2.7167523    0.7383421   424551 
 2227000   0.61551974   -2.7166367   -2.7166367   -1.9783323  0.041939746   -2.7166367   0.73830444   424551 
 2228000   0.61703625    -2.717693    -2.717693   -1.9775696   0.04537677    -2.717693   0.74012347   424551 
 2229000   0.61566486   -2.7164192   -2.7164192   -1.9779407  0.038614802   -2.7164192   0.73847851   424551 
 2230000   0.61576594    -2.716903    -2.716903   -1.9783033  0.050678355    -2.716903   0.73859975   424551 
 2231000   0.61442555   -2.7154141   -2.7154141   -1.9784221  0.030352419   -2.7154141   0.73699197   424551 
 2232000   0.61453347   -2.7156756   -2.7156756   -1.9785541  0.044984556   -2.7156756   0.73712142   424551 
 2233000   0.61573868   -2.7175244   -2.7175244   -1.9789574  0.042707308   -2.7175244   0.73856705   424551 
 2234000   0.61573899   -2.7165814   -2.7165814    -1.978014  0.042394641   -2.7165814   0.73856743   424551 
 2235000   0.61538996   -2.7164422   -2.7164422   -1.9782934  0.040545063   -2.7164422   0.73814877   424551 
 2236000   0.61604745   -2.7171755   -2.7171755   -1.9782381  0.032527422   -2.7171755   0.73893742   424551 
 2237000   0.61539036   -2.7163507   -2.7163507   -1.9782015  0.042387496   -2.7163507   0.73814925   424551 
 2238000   0.61606703   -2.7175495   -2.7175495   -1.9785886  0.043129295   -2.7175495    0.7389609   424551 
 2239000   0.61673969   -2.7182926   -2.7182926   -1.9785248  0.044491103   -2.7182926   0.73976775   424551 
 2240000   0.61689104    -2.718183    -2.718183   -1.9782337  0.044669775    -2.718183   0.73994929   424551 
 2241000   0.61567645   -2.7166775   -2.7166775   -1.9781851  0.045316933   -2.7166775   0.73849241   424551 
 2242000   0.61465939   -2.7158984   -2.7158984    -1.978626  0.036953004   -2.7158984   0.73727247   424551 
 2243000   0.61494077   -2.7166526   -2.7166526   -1.9790426  0.050155058   -2.7166526   0.73760998   424551 
 2244000   0.61427223   -2.7165056   -2.7165056   -1.9796975  0.039144623   -2.7165056   0.73680808   424551 
 2245000   0.61448584   -2.7171184   -2.7171184   -1.9800541  0.035103564   -2.7171184   0.73706429   424551 
 2246000   0.61424557   -2.7172457   -2.7172457   -1.9804696  0.040988127   -2.7172457    0.7367761   424551 
 2247000   0.61435152   -2.7181662   -2.7181662    -1.981263  0.041939228   -2.7181662   0.73690318   424551 
 2248000   0.61511527   -2.7176722   -2.7176722   -1.9798529  0.048289289   -2.7176722   0.73781929   424551 
 2249000   0.61479018   -2.7172226   -2.7172226   -1.9797933  0.044779479   -2.7172226   0.73742935   424551 
 2250000   0.61587588   -2.7182105   -2.7182105   -1.9794789   0.04454654   -2.7182105   0.73873162   424551 
 2251000   0.61586843    -2.718955    -2.718955   -1.9802323  0.035213409    -2.718955   0.73872269   424551 
 2252000   0.61582666   -2.7186489   -2.7186489   -1.9799763  0.051148684   -2.7186489   0.73867258   424551 
 2253000    0.6150626   -2.7172109   -2.7172109   -1.9794548  0.039391511   -2.7172109   0.73775611   424551 
 2254000   0.61615062   -2.7185275   -2.7185275   -1.9794664  0.042083107   -2.7185275   0.73906116   424551 
 2255000   0.61635763   -2.7187227   -2.7187227   -1.9794132  0.046106128   -2.7187227   0.73930948   424551 
 2256000   0.61566177   -2.7181587   -2.7181587   -1.9796839  0.045397361   -2.7181587    0.7384748   424551 
 2257000   0.61516029   -2.7183527   -2.7183527   -1.9804794  0.047301157   -2.7183527   0.73787328   424551 
 2258000    0.6149888    -2.717328    -2.717328   -1.9796604  0.041443911    -2.717328   0.73766759   424551 
 2259000    0.6141127   -2.7164154   -2.7164154   -1.9797986  0.051515796   -2.7164154   0.73661673   424551 
 2260000   0.61472976   -2.7179396   -2.7179396   -1.9805827   0.04047291   -2.7179396   0.73735688   424551 
 2261000   0.61507773   -2.7185146   -2.7185146   -1.9807404  0.044786632   -2.7185146   0.73777425   424551 
 2262000   0.61493904   -2.7180839   -2.7180839    -1.980476  0.051179481   -2.7180839    0.7376079   424551 
 2263000   0.61539613   -2.7184638   -2.7184638   -1.9803076  0.046074093   -2.7184638   0.73815618   424551 
 2264000   0.61595787   -2.7204008   -2.7204008   -1.9815708  0.047184822   -2.7204008   0.73882996   424551 
 2265000   0.61459054   -2.7184716   -2.7184716   -1.9812817  0.048121018   -2.7184716   0.73718988   424551 
 2266000    0.6150629   -2.7186896   -2.7186896   -1.9809331  0.046291944   -2.7186896   0.73775647   424551 
 2267000   0.61575496   -2.7195451   -2.7195451   -1.9809585  0.039914172   -2.7195451   0.73858658   424551 
 2268000   0.61530489     -2.71753     -2.71753   -1.9794833  0.055199071     -2.71753   0.73804673   424551 
 2269000   0.61525417   -2.7188213   -2.7188213   -1.9808354  0.034521653   -2.7188213   0.73798589   424551 
 2270000    0.6146128   -2.7185407   -2.7185407   -1.9813242  0.040190625   -2.7185407   0.73721658   424551 
 2271000   0.61402759   -2.7185825   -2.7185825   -1.9820678  0.044628534   -2.7185825   0.73651463   424551 
 2272000   0.61381068    -2.718147    -2.718147   -1.9818925  0.043721242    -2.718147   0.73625446   424551 
 2273000    0.6142158   -2.7176991   -2.7176991   -1.9809588  0.036234884   -2.7176991   0.73674039   424551 
 2274000   0.61662575   -2.7204298   -2.7204298   -1.9807988  0.033801273   -2.7204298   0.73963108   424551 
 2275000   0.61529777   -2.7187392   -2.7187392    -1.980701  0.037144098   -2.7187392   0.73803819   424551 
 2276000   0.61551295   -2.7198254   -2.7198254   -1.9815291  0.038615766   -2.7198254    0.7382963   424551 
 2277000   0.61362126   -2.7178108   -2.7178108   -1.9817836  0.045290954   -2.7178108   0.73602725   424551 
 2278000   0.61458466   -2.7189136   -2.7189136   -1.9817308  0.041164378   -2.7189136   0.73718282   424551 
 2279000   0.61529882   -2.7196942   -2.7196942   -1.9816548  0.038115431   -2.7196942   0.73803945   424551 
 2280000   0.61476452   -2.7185165   -2.7185165   -1.9811179   0.04301744   -2.7185165   0.73739856   424551 
 2281000   0.61506229   -2.7197673   -2.7197673   -1.9820116  0.044416967   -2.7197673   0.73775574   424551 
 2282000   0.61493511   -2.7202407   -2.7202407   -1.9826375  0.038202756   -2.7202407   0.73760319   424551 
 2283000   0.61421184    -2.719465    -2.719465   -1.9827294  0.046963222    -2.719465   0.73673564   424551 
 2284000    0.6150967   -2.7207151   -2.7207151   -1.9829181  0.038009721   -2.7207151   0.73779701   424551 
 2285000   0.61600009   -2.7214789   -2.7214789   -1.9825983  0.042486896   -2.7214789    0.7388806   424551 
 2286000   0.61434806   -2.7193283   -2.7193283   -1.9824293  0.043598646   -2.7193283   0.73689903   424551 
 2287000   0.61432041    -2.719433    -2.719433   -1.9825672  0.044945277    -2.719433   0.73686587   424551 
 2288000   0.61509364   -2.7196717   -2.7196717   -1.9818784  0.037757093   -2.7196717   0.73779334   424551 
 2289000   0.61487058   -2.7199743   -2.7199743   -1.9824485  0.047029016   -2.7199743   0.73752578   424551 
 2290000   0.61487383   -2.7197771   -2.7197771   -1.9822475  0.041912339   -2.7197771   0.73752968   424551 
 2291000   0.61358143   -2.7187347   -2.7187347   -1.9827552  0.040810887   -2.7187347   0.73597948   424551 
 2292000   0.61483983   -2.7196704   -2.7196704   -1.9821815  0.039541371   -2.7196704    0.7374889   424551 
 2293000   0.61476834   -2.7198187   -2.7198187   -1.9824156  0.042466487   -2.7198187   0.73740314   424551 
 2294000   0.61462656   -2.7196709   -2.7196709   -1.9824378  0.043359419   -2.7196709   0.73723309   424551 
 2295000   0.61500946   -2.7200053   -2.7200053   -1.9823129  0.037103664   -2.7200053   0.73769236   424551 
 2296000   0.61522514   -2.7210682   -2.7210682   -1.9831171  0.035180689   -2.7210682   0.73795108   424551 
 2297000    0.6147051   -2.7200999   -2.7200999   -1.9827726  0.045018877   -2.7200999    0.7373273   424551 
 2298000   0.61345177   -2.7182478   -2.7182478   -1.9824238  0.045145906   -2.7182478   0.73582395   424551 
 2299000   0.61571065   -2.7205703   -2.7205703   -1.9820369  0.044869247   -2.7205703   0.73853343   424551 
 2300000   0.61473543   -2.7202412   -2.7202412   -1.9828776  0.044279124   -2.7202412   0.73736367   424551 
 2301000   0.61470287   -2.7205129   -2.7205129   -1.9831883  0.038501089   -2.7205129   0.73732462   424551 
 2302000   0.61550837   -2.7211121   -2.7211121   -1.9828213  0.043693725   -2.7211121    0.7382908   424551 
 2303000   0.61444636   -2.7200137   -2.7200137   -1.9829968  0.035639969   -2.7200137   0.73701694   424551 
 2304000   0.61525777    -2.721274    -2.721274   -1.9832838  0.049708917    -2.721274   0.73799022   424551 
 2305000   0.61516754   -2.7204239   -2.7204239    -1.982542  0.037615758   -2.7204239   0.73788198   424551 
 2306000      0.61563   -2.7221846   -2.7221846   -1.9837479  0.043981575   -2.7221846    0.7384367   424551 
 2307000   0.61482699   -2.7211663   -2.7211663   -1.9836928  0.040164439   -2.7211663    0.7374735   424551 
 2308000   0.61578861   -2.7222145   -2.7222145   -1.9835876  0.048537234   -2.7222145   0.73862694   424551 
 2309000   0.61538772   -2.7216632   -2.7216632   -1.9835171  0.042415749   -2.7216632   0.73814608   424551 
 2310000   0.61466011   -2.7213541   -2.7213541   -1.9840808  0.045393133   -2.7213541   0.73727333   424551 
 2311000   0.61585242   -2.7229722   -2.7229722   -1.9842687   0.03765507   -2.7229722   0.73870348   424551 
 2312000   0.61555872   -2.7230171   -2.7230171   -1.9846659  0.033467621   -2.7230171   0.73835119   424551 
 2313000   0.61477502   -2.7228127   -2.7228127   -1.9854015  0.035448034   -2.7228127   0.73741117   424551 
 2314000   0.61512793   -2.7230349   -2.7230349   -1.9852004  0.051578503   -2.7230349   0.73783447   424551 
 2315000   0.61503067   -2.7220537   -2.7220537   -1.9843359  0.044859441   -2.7220537   0.73771781   424551 
 2316000   0.61336003   -2.7196716   -2.7196716   -1.9839577  0.044906199   -2.7196716    0.7357139   424551 
 2317000   0.61463716   -2.7206454   -2.7206454   -1.9833996  0.045412463   -2.7206454    0.7372458   424551 
 2318000   0.61405344   -2.7203801   -2.7203801   -1.9838344  0.039701551   -2.7203801   0.73654564   424551 
 2319000   0.61540599   -2.7214955   -2.7214955   -1.9833275  0.036828055   -2.7214955     0.738168   424551 
 2320000   0.61533617   -2.7217854   -2.7217854   -1.9837011  0.039317912   -2.7217854   0.73808424   424551 
 2321000    0.6154394   -2.7216532   -2.7216532   -1.9834451  0.047814906   -2.7216532   0.73820807   424551 
 2322000   0.61653994    -2.722374    -2.722374   -1.9828459  0.042721718    -2.722374   0.73952815   424551 
 2323000   0.61584345    -2.721875    -2.721875   -1.9831823  0.037722851    -2.721875   0.73869273   424551 
 2324000   0.61544897   -2.7209606   -2.7209606   -1.9827411  0.048745757   -2.7209606   0.73821956   424551 
 2325000   0.61468411   -2.7201447   -2.7201447   -1.9828426  0.044375087   -2.7201447   0.73730212   424551 
 2326000   0.61450838   -2.7204029   -2.7204029   -1.9833116  0.048559558   -2.7204029   0.73709134   424551 
 2327000   0.61399821   -2.7201345   -2.7201345   -1.9836551  0.042570446   -2.7201345    0.7364794   424551 
 2328000   0.61419566   -2.7205859   -2.7205859   -1.9838697  0.038978695   -2.7205859   0.73671623   424551 
 2329000    0.6149085   -2.7213758   -2.7213758   -1.9838045  0.036863237   -2.7213758   0.73757126   424551 
 2330000   0.61595927   -2.7213936   -2.7213936    -1.982562  0.032419486   -2.7213936   0.73883165   424551 
 2331000   0.61549645    -2.721186    -2.721186   -1.9829095  0.037790151    -2.721186    0.7382765   424551 
 2332000   0.61475508   -2.7200649   -2.7200649   -1.9826777  0.028474376   -2.7200649   0.73738725   424551 
 2333000   0.61445959   -2.7199229   -2.7199229   -1.9828901  0.036729834   -2.7199229   0.73703281   424551 
 2334000   0.61448275   -2.7198141   -2.7198141   -1.9827535  0.045379974   -2.7198141   0.73706059   424551 
 2335000   0.61527622   -2.7208898   -2.7208898   -1.9828774  0.035548574   -2.7208898   0.73801234   424551 
 2336000   0.61523302   -2.7214649   -2.7214649   -1.9835044  0.041465238   -2.7214649   0.73796052   424551 
 2337000   0.61435687   -2.7198845   -2.7198845   -1.9829749  0.039383002   -2.7198845    0.7369096   424551 
 2338000   0.61439591   -2.7204538   -2.7204538   -1.9834974   0.04902076   -2.7204538   0.73695643   424551 
 2339000   0.61454478   -2.7213575   -2.7213575   -1.9842225  0.042382579   -2.7213575     0.737135   424551 
 2340000   0.61506268   -2.7222507   -2.7222507   -1.9844945  0.028604617   -2.7222507   0.73775621   424551 
 2341000   0.61572211   -2.7234465   -2.7234465   -1.9848994  0.035282952   -2.7234465   0.73854718   424551 
 2342000    0.6149511   -2.7218879   -2.7218879   -1.9842656  0.042494821   -2.7218879   0.73762236   424551 
 2343000   0.61423658   -2.7215289   -2.7215289   -1.9847636  0.036540636   -2.7215289   0.73676531   424551 
 2344000   0.61585555   -2.7230403   -2.7230403    -1.984333  0.037801896   -2.7230403   0.73870724   424551 
 2345000   0.61541684   -2.7228342   -2.7228342   -1.9846532  0.046297729   -2.7228342   0.73818101   424551 
 2346000   0.61531515   -2.7228194   -2.7228194   -1.9847604  0.046256792   -2.7228194   0.73805904   424551 
 2347000   0.61624389   -2.7244895   -2.7244895   -1.9853165  0.034271848   -2.7244895   0.73917304   424551 
 2348000   0.61468831   -2.7232205   -2.7232205   -1.9859133  0.041681255   -2.7232205   0.73730715   424551 
 2349000   0.61407976   -2.7220548   -2.7220548   -1.9854776  0.049854155   -2.7220548   0.73657721   424551 
 2350000   0.61371977   -2.7220552   -2.7220552   -1.9859098  0.046162696   -2.7220552   0.73614541   424551 
 2351000   0.61481874   -2.7239264   -2.7239264   -1.9864628  0.035858907   -2.7239264    0.7374636   424551 
 2352000   0.61539179   -2.7244243   -2.7244243   -1.9862734  0.040234321   -2.7244243   0.73815097   424551 
 2353000   0.61440783   -2.7232648   -2.7232648    -1.986294  0.033317618   -2.7232648   0.73697073   424551 
 2354000   0.61484689   -2.7240766   -2.7240766   -1.9865792  0.043332018   -2.7240766   0.73749737   424551 
 2355000   0.61368372   -2.7226468   -2.7226468   -1.9865446  0.044634353   -2.7226468   0.73610216   424551 
 2356000    0.6147374   -2.7242649   -2.7242649   -1.9868988  0.036829768   -2.7242649   0.73736604   424551 
 2357000   0.61450463   -2.7232494   -2.7232494   -1.9861626  0.040696426   -2.7232494   0.73708683   424551 
 2358000   0.61566423   -2.7251867   -2.7251867   -1.9867089  0.045585893   -2.7251867   0.73847775   424551 
 2359000   0.61578684   -2.7248926   -2.7248926   -1.9862677  0.049207841   -2.7248926   0.73862482   424551 
 2360000   0.61565824   -2.7244961   -2.7244961   -1.9860255  0.043579954   -2.7244961   0.73847057   424551 
 2361000   0.61387953    -2.722781    -2.722781    -1.986444  0.041409509    -2.722781   0.73633703   424551 
 2362000   0.61596272     -2.72483     -2.72483   -1.9859942  0.035820342     -2.72483   0.73883579   424551 
 2363000    0.6145293   -2.7234242   -2.7234242   -1.9863078  0.042707993   -2.7234242   0.73711642   424551 
 2364000   0.61544432   -2.7252577   -2.7252577   -1.9870437  0.039664642   -2.7252577   0.73821397   424551 
 2365000   0.61462505   -2.7247809   -2.7247809   -1.9875496  0.043315972   -2.7247809   0.73723128   424551 
 2366000   0.61591335   -2.7258663   -2.7258663   -1.9870897  0.035474979   -2.7258663   0.73877656   424551 
 2367000   0.61615906   -2.7259972   -2.7259972   -1.9869259  0.033460088   -2.7259972   0.73907129   424551 
 2368000   0.61511036    -2.724577    -2.724577   -1.9867636  0.043611484    -2.724577   0.73781339   424551 
 2369000   0.61540351   -2.7249369   -2.7249369   -1.9867719  0.036661314   -2.7249369   0.73816502   424551 
 2370000   0.61563977   -2.7247726   -2.7247726   -1.9863242   0.03679517   -2.7247726   0.73844841   424551 
 2371000   0.61579302   -2.7252932   -2.7252932    -1.986661  0.045222128   -2.7252932   0.73863223   424551 
 2372000   0.61568613   -2.7246411   -2.7246411   -1.9861371  0.037638208   -2.7246411   0.73850402   424551 
 2373000   0.61483438   -2.7235443   -2.7235443   -1.9860619  0.049618567   -2.7235443   0.73748236   424551 
 2374000   0.61559528   -2.7245139   -2.7245139   -1.9861189  0.052602576   -2.7245139   0.73839505   424551 
 2375000    0.6150693   -2.7236104   -2.7236104   -1.9858463  0.037864509   -2.7236104   0.73776414   424551 
 2376000   0.61598641   -2.7249502   -2.7249502    -1.986086  0.043489082   -2.7249502    0.7388642   424551 
 2377000   0.61530288   -2.7249537   -2.7249537   -1.9869094  0.044941993   -2.7249537   0.73804432   424551 
 2378000   0.61510289   -2.7246932   -2.7246932   -1.9868887  0.044422631   -2.7246932   0.73780443   424551 
 2379000   0.61472391   -2.7239895   -2.7239895   -1.9866396  0.050822964   -2.7239895   0.73734986   424551 
 2380000   0.61408103   -2.7232948   -2.7232948    -1.986716  0.056085811   -2.7232948   0.73657874   424551 
 2381000   0.61495961   -2.7245211   -2.7245211   -1.9868886  0.040628056   -2.7245211   0.73763257   424551 
 2382000   0.61578786    -2.725859    -2.725859    -1.987233  0.035444558    -2.725859   0.73862605   424551 
 2383000   0.61545345   -2.7259488   -2.7259488   -1.9877239  0.041400891   -2.7259488   0.73822492   424551 
 2384000   0.61630026   -2.7267684   -2.7267684   -1.9875278  0.038060605   -2.7267684   0.73924065   424551 
 2385000   0.61410883   -2.7246235   -2.7246235   -1.9880114     0.038953   -2.7246235   0.73661208   424551 
 2386000   0.61519048   -2.7255393   -2.7255393   -1.9876298  0.043823617   -2.7255393    0.7379095   424551 
 2387000   0.61552558   -2.7260027   -2.7260027   -1.9876913  0.044302556   -2.7260027   0.73831144   424551 
 2388000    0.6137746    -2.724259    -2.724259   -1.9880478   0.03452366    -2.724259   0.73621118   424551 
 2389000   0.61316608    -2.723473    -2.723473   -1.9879917   0.03747074    -2.723473   0.73548127   424551 
 2390000   0.61406846   -2.7246514   -2.7246514   -1.9880878  0.040071165   -2.7246514   0.73656366   424551 
 2391000   0.61416484   -2.7251125   -2.7251125   -1.9884332  0.033748811   -2.7251125   0.73667926   424551 
 2392000   0.61443944    -2.726006    -2.726006   -1.9889974  0.043007122    -2.726006   0.73700864   424551 
 2393000   0.61512842     -2.72662     -2.72662    -1.988785  0.037750063     -2.72662   0.73783506   424551 
 2394000   0.61446164    -2.726032    -2.726032   -1.9889967  0.037806012    -2.726032   0.73703527   424551 
 2395000   0.61517466   -2.7272564   -2.7272564   -1.9893659  0.038663995   -2.7272564   0.73789052   424551 
 2396000   0.61441141   -2.7266073   -2.7266073   -1.9896323  0.037554673   -2.7266073   0.73697502   424551 
 2397000   0.61520887   -2.7283353   -2.7283353   -1.9904037  0.050724964   -2.7283353   0.73793156   424551 
 2398000   0.61690971   -2.7303478   -2.7303478   -1.9903762  0.040444679   -2.7303478   0.73997168   424551 
 2399000   0.61499298   -2.7284359   -2.7284359   -1.9907633  0.050347677   -2.7284359    0.7376726   424551 
 2400000   0.61665794   -2.7307634   -2.7307634   -1.9910937  0.040260313   -2.7307634   0.73966969   424551 
 2401000   0.61514618   -2.7287284   -2.7287284    -1.990872  0.046244651   -2.7287284   0.73785636   424551 
 2402000   0.61563148   -2.7287653   -2.7287653   -1.9903268   0.04935962   -2.7287653   0.73843847   424551 
 2403000   0.61634316   -2.7294621   -2.7294621     -1.99017  0.046164795   -2.7294621   0.73929211   424551 
 2404000   0.61537297   -2.7281406   -2.7281406   -1.9900122   0.04079202   -2.7281406   0.73812839   424551 
 2405000   0.61434016   -2.7264606   -2.7264606   -1.9895711  0.037845884   -2.7264606   0.73688955   424551 
 2406000   0.61406494    -2.726688    -2.726688   -1.9901286  0.045059265    -2.726688   0.73655944   424551 
 2407000   0.61484274      -2.7288      -2.7288   -1.9913076  0.048627489      -2.7288    0.7374924   424551 
 2408000   0.61427127    -2.728233    -2.728233    -1.991426  0.037904524    -2.728233   0.73680692   424551 
 2409000   0.61419891   -2.7280014   -2.7280014   -1.9912812  0.044056681   -2.7280014   0.73672012   424551 
 2410000    0.6142255   -2.7280145   -2.7280145   -1.9912625   0.04339826   -2.7280145   0.73675203   424551 
 2411000   0.61480975   -2.7282413   -2.7282413   -1.9907884  0.043478608   -2.7282413   0.73745282   424551 
 2412000    0.6145295   -2.7281381   -2.7281381   -1.9910214  0.040909571   -2.7281381   0.73711666   424551 
 2413000   0.61498203   -2.7287046   -2.7287046   -1.9910451  0.040042456   -2.7287046   0.73765947   424551 
 2414000   0.61461775   -2.7289681   -2.7289681   -1.9917456  0.039047737   -2.7289681   0.73722252   424551 
 2415000   0.61457332   -2.7297733   -2.7297733   -1.9926041  0.033267811   -2.7297733   0.73716923   424551 
 2416000   0.61345963   -2.7285214   -2.7285214    -1.992688  0.041139332   -2.7285214   0.73583337   424551 
 2417000   0.61467709   -2.7297552   -2.7297552   -1.9924615  0.039123621   -2.7297552   0.73729369   424551 
 2418000   0.61495485   -2.7300677   -2.7300677   -1.9924408  0.039574066   -2.7300677   0.73762687   424551 
 2419000   0.61419975    -2.728474    -2.728474   -1.9917529  0.040822624    -2.728474   0.73672113   424551 
 2420000   0.61456391   -2.7288864   -2.7288864   -1.9917285  0.030693103   -2.7288864   0.73715794   424551 
 2421000   0.61354642   -2.7282445   -2.7282445    -1.992307  0.042463707   -2.7282445   0.73593748   424551 
 2422000   0.61355601     -2.72878     -2.72878    -1.992831  0.028653078     -2.72878   0.73594898   424551 
 2423000   0.61406648   -2.7290095   -2.7290095   -1.9924482  0.051674564   -2.7290095   0.73656129   424551 
 2424000   0.61346976   -2.7283922   -2.7283922   -1.9925467  0.041876863   -2.7283922   0.73584553   424551 
 2425000   0.61429885   -2.7293847   -2.7293847   -1.9925447  0.035036483   -2.7293847      0.73684   424551 
 2426000   0.61403459   -2.7293417   -2.7293417   -1.9928187  0.039662954   -2.7293417   0.73652303   424551 
 2427000   0.61302815   -2.7281272   -2.7281272   -1.9928114  0.043233012   -2.7281272   0.73531582   424551 
 2428000   0.61300072   -2.7287536   -2.7287536   -1.9934706  0.041910933   -2.7287536   0.73528292   424551 
 2429000   0.61443751   -2.7302898   -2.7302898   -1.9932835  0.044336269   -2.7302898   0.73700632   424551 
 2430000   0.61385248   -2.7291529   -2.7291529   -1.9928483  0.036901124   -2.7291529    0.7363046   424551 
 2431000   0.61389971    -2.729751    -2.729751   -1.9933897    0.0430274    -2.729751   0.73636124   424551 
 2432000   0.61449745   -2.7302236   -2.7302236   -1.9931454  0.036565847   -2.7302236   0.73707822   424551 
 2433000   0.61445208   -2.7305134   -2.7305134   -1.9934896  0.039227444   -2.7305134    0.7370238   424551 
 2434000   0.61309773   -2.7291025   -2.7291025   -1.9937032  0.031223967   -2.7291025   0.73539928   424551 
 2435000   0.61370983   -2.7302419   -2.7302419   -1.9941084   0.04918478   -2.7302419   0.73613348   424551 
 2436000   0.61430934   -2.7306208   -2.7306208   -1.9937682  0.051548143   -2.7306208   0.73685258   424551 
 2437000   0.61419126   -2.7303942   -2.7303942   -1.9936833  0.044875175   -2.7303942   0.73671095   424551 
 2438000   0.61501827   -2.7306182   -2.7306182   -1.9929152  0.038474133   -2.7306182   0.73770294   424551 
 2439000   0.61396832   -2.7295574   -2.7295574   -1.9931139  0.039799521   -2.7295574   0.73644354   424551 
 2440000   0.61352552   -2.7289498   -2.7289498   -1.9930374  0.037166712   -2.7289498   0.73591241   424551 
 2441000   0.61521603   -2.7319705   -2.7319705   -1.9940303  0.039851896   -2.7319705   0.73794014   424551 
 2442000   0.61343861   -2.7298912   -2.7298912   -1.9940831  0.037226663   -2.7298912   0.73580816   424551 
 2443000   0.61365287   -2.7303534   -2.7303534   -1.9942882  0.032980214   -2.7303534   0.73606517   424551 
 2444000   0.61399695   -2.7295434   -2.7295434   -1.9930655  0.037207252   -2.7295434   0.73647789   424551 
 2445000   0.61418831   -2.7299447   -2.7299447   -1.9932373  0.047716088   -2.7299447   0.73670741   424551 
 2446000   0.61296202   -2.7285057   -2.7285057   -1.9932692  0.043016255   -2.7285057    0.7352365   424551 
 2447000   0.61416424   -2.7297827   -2.7297827   -1.9931042  0.035932717   -2.7297827   0.73667854   424551 
 2448000   0.61410189   -2.7294873   -2.7294873   -1.9928835  0.036382098   -2.7294873   0.73660376   424551 
 2449000   0.61531933   -2.7312681   -2.7312681    -1.993204  0.044737964   -2.7312681   0.73806406   424551 
 2450000   0.61452309   -2.7302669   -2.7302669   -1.9931579  0.041734929   -2.7302669   0.73710897   424551 
 2451000   0.61375556   -2.7294447   -2.7294447   -1.9932564  0.046087484   -2.7294447   0.73618833   424551 
 2452000   0.61321949    -2.728758    -2.728758   -1.9932126  0.042195561    -2.728758   0.73554533   424551 
 2453000   0.61536125   -2.7309412   -2.7309412   -1.9928269  0.043729767   -2.7309412   0.73811433   424551 
 2454000    0.6136195     -2.72963     -2.72963   -1.9936048  0.049504124     -2.72963   0.73602513   424551 
 2455000   0.61447803   -2.7308981   -2.7308981   -1.9938432   0.04512756   -2.7308981   0.73705493   424551 
 2456000   0.61208305   -2.7286194   -2.7286194   -1.9944373  0.039168786   -2.7286194   0.73418219   424551 
 2457000   0.61465679   -2.7317535   -2.7317535   -1.9944842  0.042562946   -2.7317535   0.73726934   424551 
 2458000   0.61394645   -2.7310842   -2.7310842   -1.9946669  0.040713845   -2.7310842   0.73641731   424551 
 2459000   0.61291126   -2.7292503   -2.7292503   -1.9940747  0.044403933   -2.7292503   0.73517562   424551 
 2460000   0.61476657    -2.731045    -2.731045    -1.993644  0.037925359    -2.731045   0.73740102   424551 
 2461000   0.61354614   -2.7293982   -2.7293982   -1.9934611  0.041206181   -2.7293982   0.73593714   424551 
 2462000   0.61421643   -2.7297712   -2.7297712     -1.99303  0.040618053   -2.7297712   0.73674114   424551 
 2463000   0.61363926   -2.7290774   -2.7290774   -1.9930285  0.041541048   -2.7290774   0.73604884   424551 
 2464000   0.61369586   -2.7287296   -2.7287296   -1.9926129  0.037757667   -2.7287296   0.73611673   424551 
 2465000   0.61483587   -2.7297431   -2.7297431   -1.9922589  0.039366423   -2.7297431   0.73748415   424551 
 2466000   0.61454747   -2.7298387   -2.7298387   -1.9927005  0.044404284   -2.7298387   0.73713822   424551 
 2467000   0.61403095   -2.7287555   -2.7287555   -1.9922368   0.03398016   -2.7287555   0.73651866   424551 
 2468000   0.61451593   -2.7302387   -2.7302387   -1.9931383  0.043405528   -2.7302387   0.73710039   424551 
 2469000   0.61492299   -2.7307127   -2.7307127    -1.993124  0.044864768   -2.7307127   0.73758865   424551 
 2470000   0.61413286    -2.730247    -2.730247   -1.9936061  0.034336133    -2.730247    0.7366409   424551 
 2471000   0.61395125   -2.7305995   -2.7305995   -1.9941764  0.033597988   -2.7305995   0.73642306   424551 
 2472000   0.61242448   -2.7280959   -2.7280959   -1.9935042  0.036822181   -2.7280959   0.73459173   424551 
 2473000    0.6143655    -2.730864    -2.730864    -1.993944  0.033414957    -2.730864   0.73691995   424551 
 2474000   0.61456888   -2.7313221   -2.7313221   -1.9941582  0.046910663   -2.7313221    0.7371639   424551 
 2475000   0.61372973   -2.7308135   -2.7308135   -1.9946561  0.043045579   -2.7308135   0.73615735   424551 
 2476000    0.6147101   -2.7315298   -2.7315298   -1.9941965  0.043987156   -2.7315298    0.7373333   424551 
 2477000   0.61415078   -2.7310188   -2.7310188   -1.9943564  0.041446451   -2.7310188    0.7366624   424551 
 2478000   0.61461758   -2.7315858   -2.7315858   -1.9943635  0.045241829   -2.7315858   0.73722231   424551 
 2479000   0.61431059   -2.7316763   -2.7316763   -1.9948222  0.039428984   -2.7316763   0.73685408   424551 
 2480000   0.61460786   -2.7322721   -2.7322721   -1.9950615  0.037191809   -2.7322721   0.73721065   424551 
 2481000   0.61461704   -2.7311468   -2.7311468   -1.9939251  0.046145936   -2.7311468   0.73722166   424551 
 2482000   0.61424618   -2.7308721   -2.7308721   -1.9940952  0.036443241   -2.7308721   0.73677682   424551 
 2483000   0.61392144   -2.7311857   -2.7311857   -1.9947984  0.036566144   -2.7311857   0.73638731   424551 
 2484000   0.61499728   -2.7321712   -2.7321712   -1.9944934  0.036238472   -2.7321712   0.73767775   424551 
 2485000   0.61457646   -2.7316475   -2.7316475   -1.9944745  0.043094945   -2.7316475     0.737173   424551 
 2486000   0.61395912   -2.7312607   -2.7312607   -1.9948282  0.042147797   -2.7312607    0.7364325   424551 
 2487000   0.61520084   -2.7323154   -2.7323154   -1.9943935  0.041359336   -2.7323154   0.73792192   424551 
 2488000   0.61541984   -2.7319264   -2.7319264   -1.9937418  0.035921008   -2.7319264   0.73818461   424551 
 2489000   0.61519206   -2.7316626   -2.7316626   -1.9937512  0.040386226   -2.7316626    0.7379114   424551 
 2490000   0.61382388   -2.7294106   -2.7294106   -1.9931403  0.052376688   -2.7294106   0.73627028   424551 
 2491000    0.6138922    -2.729458    -2.729458   -1.9931058  0.047783415    -2.729458   0.73635224   424551 
 2492000   0.61401565   -2.7303957   -2.7303957   -1.9938954   0.03651337   -2.7303957   0.73650031   424551 
 2493000   0.61444803   -2.7307233   -2.7307233   -1.9937044  0.034276836   -2.7307233   0.73701894   424551 
 2494000    0.6146243   -2.7312737   -2.7312737   -1.9940434  0.039330902   -2.7312737   0.73723037   424551 
 2495000   0.61529615   -2.7313085   -2.7313085   -1.9932722  0.036318019   -2.7313085   0.73803625   424551 
 2496000   0.61433084   -2.7299151   -2.7299151   -1.9930368  0.044247405   -2.7299151   0.73687838   424551 
 2497000   0.61570814     -2.73152     -2.73152   -1.9929896  0.049758994     -2.73152   0.73853042   424551 
 2498000   0.61490728   -2.7310427   -2.7310427   -1.9934729  0.041429482   -2.7310427   0.73756981   424551 
 2499000   0.61524506   -2.7314606   -2.7314606   -1.9934857  0.036173368   -2.7314606   0.73797496   424551 
 2500000   0.61520141   -2.7318954   -2.7318954   -1.9939728  0.037753808   -2.7318954   0.73792261   424551 
 2501000   0.61504983   -2.7319908   -2.7319908   -1.9942501  0.034093259   -2.7319908   0.73774079   424551 
 2502000   0.61441777   -2.7310752   -2.7310752   -1.9940925  0.035501643   -2.7310752   0.73698265   424551 
 2503000   0.61406247   -2.7306089   -2.7306089   -1.9940524  0.030192609   -2.7306089   0.73655647   424551 
 2504000   0.61357945   -2.7294833   -2.7294833   -1.9935062  0.046437425   -2.7294833    0.7359771   424551 
 2505000    0.6139277    -2.730853    -2.730853   -1.9944582   0.04516326    -2.730853   0.73639482   424551 
 2506000   0.61355579   -2.7305822   -2.7305822   -1.9946335  0.030808917   -2.7305822   0.73594871   424551 
 2507000   0.61373457   -2.7313802   -2.7313802    -1.995217  0.040380103   -2.7313802   0.73616316   424551 
 2508000   0.61412353   -2.7321825   -2.7321825   -1.9955528  0.037182457   -2.7321825   0.73662972   424551 
 2509000    0.6128845   -2.7300605   -2.7300605    -1.994917  0.044393186   -2.7300605   0.73514352   424551 
 2510000   0.61343431   -2.7311692   -2.7311692   -1.9953662   0.02999289   -2.7311692     0.735803   424551 
 2511000   0.61525613   -2.7328701   -2.7328701   -1.9948818  0.041476029   -2.7328701   0.73798824   424551 
 2512000   0.61404868   -2.7325913   -2.7325913   -1.9960513  0.036522215   -2.7325913   0.73653993   424551 
 2513000   0.61413469   -2.7324507   -2.7324507   -1.9958076  0.042191893   -2.7324507    0.7366431   424551 
 2514000   0.61360141   -2.7328858   -2.7328858   -1.9968824  0.042588235   -2.7328858   0.73600344   424551 
 2515000   0.61298586   -2.7319577   -2.7319577   -1.9966926  0.037036756   -2.7319577    0.7352651   424551 
 2516000   0.61370456   -2.7327228   -2.7327228   -1.9965956  0.043091455   -2.7327228   0.73612716   424551 
 2517000   0.61330046   -2.7319659   -2.7319659   -1.9963234  0.034646186   -2.7319659   0.73564245   424551 
 2518000   0.61468536   -2.7338583   -2.7338583   -1.9965547  0.027609436   -2.7338583   0.73730362   424551 
 2519000    0.6147875   -2.7332909   -2.7332909   -1.9958648  0.048195268   -2.7332909   0.73742614   424551 
 2520000   0.61525323   -2.7333309   -2.7333309   -1.9953462  0.038090554   -2.7333309   0.73798476   424551 
 2521000   0.61450585   -2.7328894   -2.7328894   -1.9958011  0.041722642   -2.7328894    0.7370883   424551 
 2522000   0.61498407   -2.7333583   -2.7333583   -1.9956964  0.043893598   -2.7333583   0.73766192   424551 
 2523000    0.6156004   -2.7342384   -2.7342384   -1.9958372  0.047440416   -2.7342384   0.73840119   424551 
 2524000   0.61367245   -2.7330873   -2.7330873   -1.9969986  0.036311826   -2.7330873   0.73608865   424551 
 2525000   0.61353296   -2.7332243   -2.7332243    -1.997303  0.041422886   -2.7332243   0.73592133   424551 
 2526000   0.61434988   -2.7339614   -2.7339614   -1.9970602  0.034916575   -2.7339614   0.73690121   424551 
 2527000   0.61342174   -2.7328268   -2.7328268   -1.9970389  0.037731709   -2.7328268   0.73578793   424551 
 2528000   0.61343798   -2.7327352   -2.7327352   -1.9969277  0.037769883   -2.7327352   0.73580741   424551 
 2529000   0.61450286   -2.7332224   -2.7332224   -1.9961377  0.039713347   -2.7332224   0.73708471   424551 
 2530000   0.61378402   -2.7324677   -2.7324677   -1.9962453  0.041336559   -2.7324677   0.73622247   424551 
 2531000   0.61354554   -2.7328205   -2.7328205   -1.9968841  0.042622159   -2.7328205   0.73593642   424551 
 2532000   0.61410145   -2.7332138   -2.7332138   -1.9966106  0.040366129   -2.7332138   0.73660323   424551 
 2533000   0.61423205   -2.7334202   -2.7334202   -1.9966603  0.039800182   -2.7334202   0.73675987   424551 
 2534000   0.61468625   -2.7334157   -2.7334157   -1.9961111  0.037380102   -2.7334157   0.73730468   424551 
 2535000   0.61455673   -2.7330976   -2.7330976   -1.9959483  0.043581677   -2.7330976   0.73714932   424551 
 2536000   0.61372571   -2.7325254   -2.7325254   -1.9963728  0.042310786   -2.7325254   0.73615253   424551 
 2537000   0.61382411   -2.7327167   -2.7327167   -1.9964462  0.035598289   -2.7327167   0.73627056   424551 
 2538000   0.61341391   -2.7321223   -2.7321223   -1.9963438  0.046766205   -2.7321223   0.73577854   424551 
 2539000   0.61408043   -2.7329489   -2.7329489   -1.9963709  0.048640877   -2.7329489   0.73657802   424551 
 2540000   0.61369292   -2.7326214   -2.7326214   -1.9965082  0.041889683   -2.7326214   0.73611321   424551 
 2541000    0.6145441   -2.7334412   -2.7334412    -1.996307  0.040439426   -2.7334412   0.73713418   424551 
 2542000   0.61437785   -2.7336135   -2.7336135   -1.9966787  0.037237161   -2.7336135   0.73693477   424551 
 2543000   0.61401061   -2.7328187   -2.7328187   -1.9963244  0.039632627   -2.7328187   0.73649426   424551 
 2544000    0.6138295   -2.7324618   -2.7324618   -1.9961848  0.036197683   -2.7324618   0.73627703   424551 
 2545000   0.61546343   -2.7344115   -2.7344115   -1.9961746  0.030068781   -2.7344115    0.7382369   424551 
 2546000   0.61522204   -2.7350129   -2.7350129   -1.9970655  0.051663162   -2.7350129   0.73794735   424551 
 2547000   0.61418932   -2.7339382   -2.7339382   -1.9972295  0.038268017   -2.7339382   0.73670862   424551 
 2548000   0.61382869   -2.7340813   -2.7340813   -1.9978052  0.040905797   -2.7340813   0.73627606   424551 
 2549000   0.61381423   -2.7343842   -2.7343842   -1.9981255  0.031799307   -2.7343842   0.73625872   424551 
 2550000   0.61312419   -2.7336297   -2.7336297   -1.9981987  0.043754722   -2.7336297   0.73543102   424551 
 2551000   0.61316245   -2.7342672   -2.7342672   -1.9987903  0.043837191   -2.7342672   0.73547691   424551 
 2552000    0.6134349    -2.734511    -2.734511   -1.9987073  0.041276958    -2.734511   0.73580371   424551 
 2553000     0.613494   -2.7338368   -2.7338368   -1.9979622  0.039950778   -2.7338368   0.73587461   424551 
 2554000   0.61378501   -2.7344059   -2.7344059   -1.9981822  0.043132005   -2.7344059   0.73622366   424551 
 2555000   0.61465522    -2.734858    -2.734858   -1.9975905  0.041654676    -2.734858   0.73726746   424551 
 2556000   0.61426257   -2.7345637   -2.7345637   -1.9977672  0.050505377   -2.7345637   0.73679648   424551 
 2557000   0.61417261   -2.7351885   -2.7351885   -1.9984999  0.043436693   -2.7351885   0.73668858   424551 
 2558000   0.61504673    -2.735741    -2.735741   -1.9980039  0.040278905    -2.735741   0.73773707   424551 
 2559000   0.61466285   -2.7356451   -2.7356451   -1.9983684  0.035564632   -2.7356451   0.73727661   424551 
 2560000   0.61464476   -2.7351253   -2.7351253   -1.9978703   0.04761347   -2.7351253   0.73725492   424551 
 2561000   0.61513985   -2.7350473   -2.7350473   -1.9971986  0.041216105   -2.7350473   0.73784877   424551 
 2562000   0.61502383   -2.7350082   -2.7350082   -1.9972986  0.038926525   -2.7350082   0.73770961   424551 
 2563000   0.61419762   -2.7344378   -2.7344378   -1.9977193  0.034837318   -2.7344378   0.73671858   424551 
 2564000   0.61375022   -2.7337799   -2.7337799    -1.997598  0.046438251   -2.7337799   0.73618193   424551 
 2565000   0.61311362   -2.7342622   -2.7342622   -1.9988438  0.039006696   -2.7342622   0.73541834   424551 
 2566000    0.6142648   -2.7351891   -2.7351891   -1.9983899  0.039364296   -2.7351891   0.73679917   424551 
 2567000   0.61232922   -2.7333542   -2.7333542   -1.9988767  0.048462219   -2.7333542   0.73447747   424551 
 2568000   0.61258703   -2.7336727   -2.7336727    -1.998886  0.047980978   -2.7336727    0.7347867   424551 
 2569000    0.6132712    -2.733706    -2.733706   -1.9980986  0.038460114    -2.733706   0.73560736   424551 
 2570000    0.6138959   -2.7348128   -2.7348128   -1.9984561  0.038916488   -2.7348128   0.73635667   424551 
 2571000   0.61456911   -2.7357283   -2.7357283   -1.9985641  0.042992776   -2.7357283   0.73716417   424551 
 2572000   0.61472091   -2.7349309   -2.7349309   -1.9975847  0.039731781   -2.7349309   0.73734625   424551 
 2573000   0.61380767   -2.7345297   -2.7345297   -1.9982789  0.048634103   -2.7345297   0.73625084   424551 
 2574000   0.61350543   -2.7346334   -2.7346334    -1.998745  0.042106955   -2.7346334   0.73588831   424551 
 2575000   0.61472565   -2.7369796   -2.7369796   -1.9996276  0.033779721   -2.7369796   0.73735194   424551 
 2576000   0.61321482   -2.7364289   -2.7364289   -2.0008892  0.034479578   -2.7364289   0.73553973   424551 
 2577000    0.6136816   -2.7361249   -2.7361249   -2.0000253  0.035141979   -2.7361249   0.73609962   424551 
 2578000   0.61405086   -2.7366069   -2.7366069   -2.0000644  0.033701699   -2.7366069   0.73654254   424551 
 2579000    0.6136145   -2.7360052   -2.7360052    -1.999986  0.036384576   -2.7360052   0.73601914   424551 
 2580000   0.61409285   -2.7363339   -2.7363339    -1.999741  0.041929238   -2.7363339   0.73659291   424551 
 2581000   0.61293297   -2.7358048   -2.7358048   -2.0006032  0.037226672   -2.7358048   0.73520166   424551 
 2582000   0.61342374   -2.7365131   -2.7365131   -2.0007228  0.043443006   -2.7365131   0.73579033   424551 
 2583000   0.61261368   -2.7358539   -2.7358539   -2.0010352    0.0392323   -2.7358539   0.73481867   424551 
 2584000   0.61257886   -2.7357443   -2.7357443   -2.0009674  0.036366962   -2.7357443    0.7347769   424551 
 2585000    0.6136219   -2.7366575   -2.7366575   -2.0006295  0.041299138   -2.7366575   0.73602801   424551 
 2586000    0.6141888   -2.7367038   -2.7367038   -1.9999958  0.040661504   -2.7367038     0.736708   424551 
 2587000   0.61270907   -2.7353952   -2.7353952   -2.0004621  0.045475382   -2.7353952   0.73493309   424551 
 2588000   0.61293033   -2.7362991   -2.7362991   -2.0011006  0.041378993   -2.7362991   0.73519849   424551 
 2589000   0.61311221   -2.7366856   -2.7366856   -2.0012689  0.037234225   -2.7366856   0.73541665   424551 
 2590000   0.61240451   -2.7361976   -2.7361976   -2.0016299  0.037272077   -2.7361976   0.73456778   424551 
 2591000   0.61299273   -2.7373874   -2.7373874    -2.002114  0.043174979   -2.7373874   0.73527334   424551 
 2592000    0.6123179   -2.7361604   -2.7361604   -2.0016965  0.034164112   -2.7361604   0.73446389   424551 
 2593000   0.61214873   -2.7359493   -2.7359493   -2.0016883  0.039278396   -2.7359493   0.73426097   424551 
 2594000   0.61217962   -2.7356589   -2.7356589   -2.0013609  0.038948153   -2.7356589   0.73429803   424551 
 2595000   0.61221297   -2.7361091   -2.7361091   -2.0017711  0.040843423   -2.7361091   0.73433803   424551 
 2596000   0.61195512    -2.735488    -2.735488   -2.0014592  0.038329895    -2.735488   0.73402874   424551 
 2597000   0.61252181   -2.7365233   -2.7365233   -2.0018149  0.043340246   -2.7365233   0.73470848   424551 
 2598000   0.61251858   -2.7375695   -2.7375695   -2.0028649  0.039978051   -2.7375695   0.73470461   424551 
 2599000   0.61338908    -2.737854    -2.737854   -2.0021052  0.039947647    -2.737854   0.73574876   424551 
 2600000   0.61265628   -2.7372159   -2.7372159   -2.0023461   0.04102026   -2.7372159   0.73486977   424551 
 2601000   0.61251778   -2.7374163   -2.7374163   -2.0027127  0.032070134   -2.7374163   0.73470364   424551 
 2602000   0.61332373   -2.7376814   -2.7376814   -2.0020111  0.038651016   -2.7376814   0.73567036   424551 
 2603000   0.61396801   -2.7381313   -2.7381313   -2.0016882  0.043543115   -2.7381313   0.73644317   424551 
 2604000   0.61236191   -2.7365396   -2.7365396   -2.0020229   0.04422034   -2.7365396   0.73451669   424551 
 2605000     0.613881   -2.7383985   -2.7383985   -2.0020597  0.039879808   -2.7383985    0.7363388   424551 
 2606000   0.61334701   -2.7381248   -2.7381248   -2.0024266  0.042574042   -2.7381248   0.73569828   424551 
 2607000   0.61435086   -2.7393801   -2.7393801   -2.0024777  0.044571029   -2.7393801   0.73690239   424551 
 2608000     0.613662   -2.7386762   -2.7386762   -2.0026001  0.041811976   -2.7386762   0.73607611   424551 
 2609000   0.61360545   -2.7381062   -2.7381062   -2.0020979  0.037298614   -2.7381062   0.73600828   424551 
 2610000    0.6120405   -2.7370742   -2.7370742    -2.002943  0.030913195   -2.7370742   0.73413116   424551 
 2611000   0.61241687   -2.7375871   -2.7375871   -2.0030045  0.044450587   -2.7375871   0.73458261   424551 
 2612000   0.61268975   -2.7381484   -2.7381484   -2.0032385  0.044295857   -2.7381484   0.73490992   424551 
 2613000    0.6130314   -2.7384619   -2.7384619   -2.0031422  0.041784402   -2.7384619   0.73531972   424551 
 2614000   0.61247325   -2.7382967   -2.7382967   -2.0036465    0.0478183   -2.7382967   0.73465023   424551 
 2615000    0.6124889   -2.7389051   -2.7389051   -2.0042361  0.038136195   -2.7389051     0.734669   424551 
 2616000   0.61309549   -2.7385429   -2.7385429   -2.0031463  0.052002263   -2.7385429   0.73539659   424551 
 2617000   0.61308427   -2.7395801   -2.7395801    -2.004197  0.044129112   -2.7395801   0.73538314   424551 
 2618000   0.61447447   -2.7400845   -2.7400845   -2.0030339  0.041697124   -2.7400845   0.73705066   424551 
 2619000   0.61353267   -2.7387996   -2.7387996   -2.0028786   0.04427571   -2.7387996   0.73592099   424551 
 2620000   0.61324183   -2.7381587   -2.7381587   -2.0025866  0.027674226   -2.7381587   0.73557213   424551 
 2621000   0.61215982   -2.7370518   -2.7370518   -2.0027776   0.04091308   -2.7370518   0.73427428   424551 
 2622000   0.61314637   -2.7376646   -2.7376646   -2.0022069  0.032012527   -2.7376646   0.73545763   424551 
 2623000   0.61385914   -2.7380892   -2.7380892   -2.0017767  0.036279273   -2.7380892   0.73631258   424551 
 2624000   0.61370332    -2.738422    -2.738422   -2.0022963  0.032656224    -2.738422   0.73612568   424551 
 2625000   0.61327025   -2.7380595   -2.7380595   -2.0024533  0.044448876   -2.7380595   0.73560621   424551 
 2626000   0.61255395   -2.7372633   -2.7372633   -2.0025163  0.035639746   -2.7372633   0.73474703   424551 
 2627000   0.61359457   -2.7381335   -2.7381335   -2.0021382  0.044550466   -2.7381335   0.73599523   424551 
 2628000   0.61313387   -2.7381862   -2.7381862   -2.0027436  0.044766589   -2.7381862   0.73544263   424551 
 2629000   0.61431693   -2.7388743   -2.7388743   -2.0020126  0.037426897   -2.7388743   0.73686169   424551 
 2630000   0.61409638   -2.7381529   -2.7381529   -2.0015557  0.039979551   -2.7381529   0.73659715   424551 
 2631000   0.61392484    -2.738178    -2.738178   -2.0017866  0.041914934    -2.738178   0.73639139   424551 
 2632000   0.61385601   -2.7381575   -2.7381575   -2.0018487  0.034140053   -2.7381575   0.73630883   424551 
 2633000      0.61307   -2.7376056   -2.7376056   -2.0022396  0.041387147   -2.7376056   0.73536603   424551 
 2634000   0.61388446    -2.739108    -2.739108   -2.0027651  0.031819484    -2.739108   0.73634295   424551 
 2635000   0.61245108   -2.7377916   -2.7377916    -2.003168  0.039855358   -2.7377916   0.73462364   424551 
 2636000   0.61320006   -2.7387413   -2.7387413   -2.0032193  0.041810703   -2.7387413   0.73552202   424551 
 2637000   0.61346345   -2.7395289   -2.7395289    -2.003691  0.037262314   -2.7395289   0.73583795   424551 
 2638000   0.61246132   -2.7383326   -2.7383326   -2.0036967  0.043494479   -2.7383326   0.73463592   424551 
 2639000   0.61390507   -2.7397923   -2.7397923   -2.0034246  0.039039488   -2.7397923   0.73636767   424551 
 2640000   0.61257689   -2.7381351   -2.7381351   -2.0033605  0.038824942   -2.7381351   0.73477454   424551 
 2641000   0.61312876   -2.7399828   -2.7399828   -2.0045463  0.037603738   -2.7399828   0.73543651   424551 
 2642000   0.61318766   -2.7407653   -2.7407653   -2.0052581  0.028492856   -2.7407653   0.73550716   424551 
 2643000   0.61422328   -2.7411061   -2.7411061   -2.0043567  0.037580195   -2.7411061   0.73674936   424551 
 2644000   0.61374884    -2.741771    -2.741771   -2.0055907  0.033701345    -2.741771   0.73618028   424551 
 2645000   0.61256493   -2.7404211   -2.7404211   -2.0056609  0.045235276   -2.7404211    0.7347602   424551 
 2646000   0.61306113   -2.7411548   -2.7411548   -2.0057994  0.041684039   -2.7411548   0.73535539   424551 
 2647000   0.61220792   -2.7402697   -2.7402697   -2.0059377  0.039813706   -2.7402697   0.73433197   424551 
 2648000   0.61296734   -2.7415579   -2.7415579   -2.0063151  0.034874317   -2.7415579   0.73524288   424551 
 2649000   0.61386793   -2.7420932   -2.7420932     -2.00577  0.039599131   -2.7420932   0.73632312   424551 
 2650000   0.61297863   -2.7410597   -2.7410597   -2.0058033  0.036233674   -2.7410597   0.73525642   424551 
 2651000   0.61200351   -2.7399891   -2.7399891   -2.0059023  0.044451835   -2.7399891   0.73408678   424551 
 2652000   0.61232267   -2.7408566   -2.7408566    -2.006387  0.029264879   -2.7408566   0.73446962   424551 
 2653000   0.61157866   -2.7404672   -2.7404672     -2.00689  0.038761454   -2.7404672   0.73357718   424551 
 2654000   0.61193268   -2.7408421   -2.7408421   -2.0068403  0.048742177   -2.7408421   0.73400183   424551 
 2655000   0.61185508   -2.7401697   -2.7401697   -2.0062609  0.041320186   -2.7401697   0.73390875   424551 
 2656000    0.6122354     -2.74069     -2.74069   -2.0063251  0.051326734     -2.74069   0.73436493   424551 
 2657000    0.6136983   -2.7427162   -2.7427162   -2.0065966  0.041255052   -2.7427162   0.73611965   424551 
 2658000   0.61323153   -2.7417903   -2.7417903   -2.0062305  0.038774988   -2.7417903   0.73555977   424551 
 2659000   0.61324325   -2.7418558   -2.7418558   -2.0062819  0.047306771   -2.7418558   0.73557383   424551 
 2660000   0.61280723   -2.7413549   -2.7413549   -2.0063041  0.039252223   -2.7413549   0.73505083   424551 
 2661000   0.61245791   -2.7411369   -2.7411369   -2.0065051  0.039994016   -2.7411369   0.73463183   424551 
 2662000   0.61227454   -2.7410842   -2.7410842   -2.0066724  0.044479252   -2.7410842   0.73441188   424551 
 2663000   0.61213739   -2.7411419   -2.7411419   -2.0068945  0.046336848   -2.7411419   0.73424737   424551 
 2664000   0.61252177   -2.7416603   -2.7416603   -2.0069518  0.040934937   -2.7416603   0.73470844   424551 
 2665000    0.6137905   -2.7419875   -2.7419875   -2.0057572  0.029382561   -2.7419875   0.73623025   424551 
 2666000   0.61165754   -2.7402036   -2.7402036   -2.0065317  0.044555909   -2.7402036    0.7336718   424551 
 2667000   0.61347912   -2.7416971   -2.7416971   -2.0058403  0.046407882   -2.7416971   0.73585676   424551 
 2668000   0.61527722   -2.7439447   -2.7439447   -2.0059311  0.042647062   -2.7439447   0.73801355   424551 
 2669000   0.61327347   -2.7414258   -2.7414258   -2.0058157  0.039954529   -2.7414258   0.73561008   424551 
 2670000    0.6140168   -2.7430789   -2.7430789   -2.0065772   0.04218621   -2.7430789    0.7365017   424551 
 2671000   0.61321316   -2.7430223   -2.7430223   -2.0074845  0.047775378   -2.7430223   0.73553774   424551 
 2672000    0.6120804   -2.7411384   -2.7411384   -2.0069593  0.036114665   -2.7411384   0.73417902   424551 
 2673000   0.61343037   -2.7426467   -2.7426467   -2.0068484  0.048412473   -2.7426467   0.73579828   424551 
 2674000   0.61239665   -2.7411955   -2.7411955   -2.0066372  0.040866301   -2.7411955   0.73455835   424551 
 2675000    0.6120177   -2.7414396   -2.7414396   -2.0073357  0.048250528   -2.7414396   0.73410381   424551 
 2676000    0.6130177   -2.7425939   -2.7425939   -2.0072907  0.041440256   -2.7425939   0.73530329   424551 
 2677000   0.61219973   -2.7415642   -2.7415642    -2.007242  0.054176901   -2.7415642   0.73432215   424551 
 2678000   0.61294992   -2.7426618   -2.7426618   -2.0074398  0.041413545   -2.7426618   0.73522199   424551 
 2679000     0.613754   -2.7436419   -2.7436419   -2.0074555  0.041729309   -2.7436419   0.73618646   424551 
 2680000    0.6128484    -2.743173    -2.743173   -2.0080727  0.051723893    -2.743173   0.73510022   424551 
 2681000    0.6128682   -2.7433041   -2.7433041   -2.0081801  0.040490461   -2.7433041   0.73512397   424551 
 2682000   0.61189867   -2.7422964   -2.7422964   -2.0083353  0.036479788   -2.7422964   0.73396104   424551 
 2683000   0.61383282   -2.7436082   -2.7436082   -2.0073272  0.047872301   -2.7436082   0.73628101   424551 
 2684000   0.61206548   -2.7423077   -2.7423077   -2.0081466  0.029454254   -2.7423077   0.73416112   424551 
 2685000   0.61248098   -2.7425995   -2.7425995     -2.00794  0.035856197   -2.7425995    0.7346595   424551 
 2686000   0.61218788   -2.7426026   -2.7426026   -2.0082947  0.042116133   -2.7426026   0.73430794   424551 
 2687000   0.61376243    -2.744707    -2.744707   -2.0085104  0.043008594    -2.744707   0.73619658   424551 
 2688000   0.61301513   -2.7442074   -2.7442074   -2.0089072  0.051694574   -2.7442074   0.73530021   424551 
 2689000   0.61350593   -2.7446763   -2.7446763   -2.0087874  0.034557115   -2.7446763   0.73588891   424551 
 2690000   0.61387188   -2.7452282   -2.7452282   -2.0089003  0.040573776   -2.7452282   0.73632786   424551 
 2691000   0.61276211    -2.743567    -2.743567   -2.0085703   0.03890299    -2.743567   0.73499671   424551 
 2692000   0.61259034   -2.7438717   -2.7438717   -2.0090811  0.041047365   -2.7438717   0.73479067   424551 
 2693000   0.61307942   -2.7448197   -2.7448197   -2.0094424  0.034143363   -2.7448197   0.73537733   424551 
 2694000   0.61119077   -2.7432515   -2.7432515   -2.0101396  0.037002985   -2.7432515   0.73311192   424551 
 2695000   0.61196228   -2.7437682   -2.7437682   -2.0097308  0.039869578   -2.7437682   0.73403734   424551 
 2696000   0.61380382   -2.7452296   -2.7452296   -2.0089834  0.044991273   -2.7452296   0.73624623   424551 
 2697000   0.61352705    -2.745247    -2.745247   -2.0093328  0.043207046    -2.745247   0.73591425   424551 
 2698000   0.61337319   -2.7448652   -2.7448652   -2.0091355  0.029152204   -2.7448652   0.73572969   424551 
 2699000   0.61330953   -2.7445851   -2.7445851   -2.0089318  0.050133512   -2.7445851   0.73565333   424551 
 2700000    0.6137348   -2.7451179   -2.7451179   -2.0089545  0.040008163   -2.7451179   0.73616343   424551 
 2701000   0.61321094   -2.7448412   -2.7448412   -2.0093062   0.03018292   -2.7448412   0.73553508   424551 
 2702000   0.61190582   -2.7430643   -2.7430643   -2.0090947    0.0442762   -2.7430643    0.7339696   424551 
 2703000   0.61164067   -2.7429888   -2.7429888   -2.0093373  0.034068501   -2.7429888   0.73365157   424551 
 2704000   0.61114366    -2.742661    -2.742661   -2.0096056  0.034201442    -2.742661   0.73305541   424551 
 2705000   0.61216843   -2.7429485   -2.7429485   -2.0086639  0.043030025   -2.7429485   0.73428461   424551 
 2706000    0.6110724   -2.7422219   -2.7422219    -2.009252  0.038908095   -2.7422219   0.73296994   424551 
 2707000   0.61118901     -2.74162     -2.74162   -2.0085102  0.032104757     -2.74162   0.73310981   424551 
 2708000   0.61210526   -2.7422306   -2.7422306   -2.0080218  0.035887335   -2.7422306   0.73420883   424551 
 2709000   0.61192593   -2.7410446   -2.7410446   -2.0070509  0.039652814   -2.7410446   0.73399373   424551 
 2710000   0.61250984   -2.7418578   -2.7418578   -2.0071637  0.040370959   -2.7418578   0.73469412   424551 
 2711000   0.61213588   -2.7413747   -2.7413747   -2.0071291  0.046463464   -2.7413747   0.73424556   424551 
 2712000   0.61412929   -2.7442037   -2.7442037   -2.0075671  0.045258673   -2.7442037   0.73663662   424551 
 2713000   0.61280975   -2.7423083   -2.7423083   -2.0072545  0.047368813   -2.7423083   0.73505386   424551 
 2714000   0.61226365   -2.7421722   -2.7421722   -2.0077734  0.045195532   -2.7421722   0.73439882   424551 
 2715000   0.61205523   -2.7419043   -2.7419043   -2.0077555  0.045588819   -2.7419043   0.73414882   424551 
 2716000    0.6118306    -2.741707    -2.741707   -2.0078276  0.035580851    -2.741707   0.73387938   424551 
 2717000   0.61167131   -2.7416002   -2.7416002   -2.0079118  0.038335228   -2.7416002   0.73368832   424551 
 2718000   0.61102272   -2.7414514   -2.7414514   -2.0085411  0.037384822   -2.7414514   0.73291035   424551 
 2719000   0.61149449   -2.7422448   -2.7422448   -2.0087686  0.042842559   -2.7422448   0.73347623   424551 
 2720000   0.61260843   -2.7435685   -2.7435685   -2.0087561  0.043467774   -2.7435685   0.73481238   424551 
 2721000   0.61114769   -2.7416851   -2.7416851   -2.0086249  0.040540188   -2.7416851   0.73306024   424551 
 2722000   0.61212683   -2.7425379   -2.7425379   -2.0083032  0.039399579   -2.7425379   0.73423471   424551 
 2723000    0.6124092   -2.7425374   -2.7425374    -2.007964  0.037948526   -2.7425374    0.7345734   424551 
 2724000   0.61386155   -2.7445089   -2.7445089   -2.0081934  0.043690319   -2.7445089   0.73631547   424551 
 2725000   0.61414981   -2.7448889   -2.7448889   -2.0082276  0.036602624   -2.7448889   0.73666124   424551 
 2726000    0.6138898   -2.7447393   -2.7447393     -2.00839  0.035211586   -2.7447393   0.73634935   424551 
 2727000   0.61410083   -2.7446845   -2.7446845    -2.008082  0.050868147   -2.7446845   0.73660248   424551 
 2728000    0.6131376    -2.743032    -2.743032   -2.0075849  0.042605706    -2.743032   0.73544711   424551 
 2729000   0.61380345   -2.7435017   -2.7435017   -2.0072559  0.040724642   -2.7435017   0.73624578   424551 
 2730000   0.61283546   -2.7431433   -2.7431433   -2.0080586  0.039144362   -2.7431433    0.7350847   424551 
 2731000   0.61298858   -2.7440039   -2.7440039   -2.0087355  0.044122122   -2.7440039   0.73526835   424551 
 2732000   0.61259101   -2.7441336   -2.7441336   -2.0093421  0.043136882   -2.7441336   0.73479149   424551 
 2733000   0.61183265    -2.743453    -2.743453   -2.0095712  0.038812613    -2.743453   0.73388184   424551 
 2734000   0.61166178   -2.7427249   -2.7427249    -2.009048  0.042538138   -2.7427249   0.73367689   424551 
 2735000   0.61315394   -2.7449918   -2.7449918   -2.0095251  0.027111642   -2.7449918   0.73546671   424551 
 2736000   0.61185444   -2.7435577   -2.7435577   -2.0096498  0.025595618   -2.7435577   0.73390798   424551 
 2737000   0.61247648   -2.7442335   -2.7442335   -2.0095794  0.040653404   -2.7442335    0.7346541   424551 
 2738000   0.61139558   -2.7436063   -2.7436063   -2.0102488  0.043454965   -2.7436063   0.73335759   424551 
 2739000   0.61082753   -2.7430203   -2.7430203   -2.0103441  0.034485954   -2.7430203   0.73267622   424551 
 2740000   0.61246947   -2.7447776   -2.7447776   -2.0101319  0.037856711   -2.7447776    0.7346457   424551 
 2741000   0.61230679   -2.7442063   -2.7442063   -2.0097557  0.040027091   -2.7442063   0.73445056   424551 
 2742000   0.61267341   -2.7448929   -2.7448929   -2.0100026  0.032504322   -2.7448929   0.73489031   424551 
 2743000   0.61235576   -2.7451534   -2.7451534   -2.0106441  0.033078203   -2.7451534    0.7345093   424551 
 2744000    0.6122749   -2.7441942   -2.7441942   -2.0097819  0.042663411   -2.7441942   0.73441231   424551 
 2745000   0.61309191   -2.7455812   -2.7455812   -2.0101889  0.038184035   -2.7455812    0.7353923   424551 
 2746000   0.61182937   -2.7442013   -2.7442013   -2.0103234  0.038952248   -2.7442013   0.73387791   424551 
 2747000   0.61263506   -2.7459344   -2.7459344     -2.01109  0.040467269   -2.7459344   0.73484432   424551 
 2748000   0.61283906   -2.7456906   -2.7456906   -2.0106016   0.03691885   -2.7456906   0.73508901   424551 
 2749000   0.61179745   -2.7448184   -2.7448184   -2.0109788  0.046060742   -2.7448184   0.73383962   424551 
 2750000   0.61426105   -2.7473613   -2.7473613   -2.0105666  0.040528838   -2.7473613   0.73679467   424551 
 2751000   0.61244377   -2.7456536   -2.7456536   -2.0110388  0.033730581   -2.7456536   0.73461487   424551 
 2752000   0.61350415   -2.7465956   -2.7465956   -2.0107088  0.044475173   -2.7465956   0.73588678   424551 
 2753000   0.61397953   -2.7477648   -2.7477648   -2.0113079  0.047441909   -2.7477648   0.73645699   424551 
 2754000   0.61403308   -2.7472509   -2.7472509   -2.0107297  0.038569516   -2.7472509   0.73652121   424551 
 2755000   0.61334438   -2.7465804   -2.7465804   -2.0108853   0.05158254   -2.7465804   0.73569513   424551 
 2756000   0.61314909   -2.7460951   -2.7460951   -2.0106342  0.056998744   -2.7460951   0.73546088   424551 
 2757000   0.61291924   -2.7465131   -2.7465131   -2.0113279  0.050840183   -2.7465131   0.73518519   424551 
 2758000   0.61290903   -2.7458885   -2.7458885   -2.0107155  0.046023552   -2.7458885   0.73517294   424551 
 2759000   0.61358428   -2.7467916   -2.7467916   -2.0108087  0.044206021   -2.7467916   0.73598289   424551 
 2760000   0.61308547   -2.7461855   -2.7461855   -2.0108009  0.042420486   -2.7461855   0.73538458   424551 
 2761000   0.61249002   -2.7462205   -2.7462205   -2.0115502  0.029068549   -2.7462205   0.73467034   424551 
 2762000    0.6127623   -2.7469954   -2.7469954   -2.0119984   0.03998769   -2.7469954   0.73499694   424551 
 2763000    0.6118689   -2.7451152   -2.7451152   -2.0111899  0.043795384   -2.7451152   0.73392533   424551 
 2764000     0.612966   -2.7463911   -2.7463911   -2.0111499  0.041499356   -2.7463911   0.73524128   424551 
 2765000   0.61215929   -2.7454664   -2.7454664   -2.0111927  0.041260904   -2.7454664   0.73427365   424551 
 2766000    0.6127951   -2.7462225   -2.7462225   -2.0111862  0.033702405   -2.7462225   0.73503628   424551 
 2767000   0.61233772   -2.7459603   -2.7459603   -2.0114726  0.032907813   -2.7459603   0.73448766   424551 
 2768000   0.61229182   -2.7466188   -2.7466188   -2.0121862  0.037489759   -2.7466188   0.73443261   424551 
 2769000   0.61173961   -2.7452057   -2.7452057   -2.0114355  0.036016658   -2.7452057   0.73377025   424551 
 2770000   0.61123029   -2.7451486   -2.7451486   -2.0119892  0.044805678   -2.7451486   0.73315932   424551 
 2771000   0.61189069    -2.745408    -2.745408   -2.0114566  0.038895837    -2.745408   0.73395146   424551 
 2772000   0.61238835   -2.7453575   -2.7453575   -2.0108091  0.041615048   -2.7453575   0.73454839   424551 
 2773000   0.61240381   -2.7450421   -2.7450421   -2.0104752  0.044550999   -2.7450421   0.73456694   424551 
 2774000   0.61342623   -2.7463569   -2.7463569   -2.0105636   0.04167607   -2.7463569   0.73579331   424551 
 2775000   0.61335395   -2.7462543   -2.7462543   -2.0105477  0.039726868   -2.7462543   0.73570661   424551 
 2776000   0.61363369   -2.7469029   -2.7469029   -2.0108608  0.030013577   -2.7469029   0.73604216   424551 
 2777000   0.61251221   -2.7463753   -2.7463753   -2.0116783  0.042484917   -2.7463753   0.73469697   424551 
 2778000   0.61166943   -2.7456173   -2.7456173   -2.0119313   0.03364235   -2.7456173   0.73368606   424551 
 2779000   0.61233131   -2.7465761   -2.7465761   -2.0120961  0.034631918   -2.7465761   0.73447997   424551 
 2780000   0.61141346   -2.7451087   -2.7451087   -2.0117297  0.044624383   -2.7451087   0.73337903   424551 
 2781000   0.61201847   -2.7450023   -2.7450023   -2.0108976  0.037914143   -2.7450023   0.73410473   424551 
 2782000   0.61194027   -2.7445085   -2.7445085   -2.0104976  0.044518953   -2.7445085   0.73401094   424551 
 2783000   0.61367837   -2.7469775   -2.7469775   -2.0108818   0.04168209   -2.7469775   0.73609576   424551 
 2784000   0.61223246   -2.7452284   -2.7452284   -2.0108669  0.042259869   -2.7452284   0.73436141   424551 
 2785000   0.61240071   -2.7458959   -2.7458959   -2.0113326   0.04666127   -2.7458959   0.73456323   424551 
 2786000   0.61224397   -2.7458231   -2.7458231   -2.0114479  0.033951364   -2.7458231   0.73437521   424551 
 2787000   0.61344405   -2.7481621   -2.7481621   -2.0123474  0.036185671   -2.7481621   0.73581469   424551 
 2788000   0.61287653   -2.7472601   -2.7472601   -2.0121262  0.041355491   -2.7472601   0.73513396   424551 
 2789000   0.61301495   -2.7475644   -2.7475644   -2.0122644  0.034668975   -2.7475644   0.73529998   424551 
 2790000   0.61221984    -2.746332    -2.746332   -2.0119858   0.04119307    -2.746332   0.73434627   424551 
 2791000   0.61267703   -2.7472622   -2.7472622   -2.0123675  0.036152287   -2.7472622   0.73489466   424551 
 2792000   0.61436811   -2.7482144   -2.7482144   -2.0112913  0.042979236   -2.7482144   0.73692308   424551 
 2793000    0.6133131   -2.7474272   -2.7474272   -2.0117695  0.046146207   -2.7474272   0.73565761   424551 
 2794000   0.61296417   -2.7478113   -2.7478113   -2.0125722  0.040477588   -2.7478113   0.73523908   424551 
 2795000   0.61247414   -2.7464816   -2.7464816   -2.0118304  0.037171601   -2.7464816    0.7346513   424551 
 2796000   0.61277004   -2.7463015   -2.7463015   -2.0112953  0.047925156   -2.7463015   0.73500622   424551 
 2797000   0.61246485   -2.7457454   -2.7457454   -2.0111052  0.052647087   -2.7457454   0.73464016   424551 
 2798000   0.61340698   -2.7466586   -2.7466586   -2.0108884  0.034580437   -2.7466586   0.73577022   424551 
 2799000   0.61186704   -2.7454277   -2.7454277   -2.0115047  0.042699103   -2.7454277   0.73392309   424551 
 2800000   0.61266173   -2.7466079   -2.7466079   -2.0117315  0.032997262   -2.7466079   0.73487631   424551 
 2801000   0.61214776   -2.7462265   -2.7462265   -2.0119667  0.044497755   -2.7462265   0.73425981   424551 
 2802000   0.61164898   -2.7459379   -2.7459379   -2.0122763  0.032957213   -2.7459379   0.73366154   424551 
 2803000   0.61149954   -2.7454342   -2.7454342   -2.0119519  0.029460718   -2.7454342   0.73348228   424551 
 2804000   0.61135193   -2.7453053   -2.7453053   -2.0120001  0.031806582   -2.7453053   0.73330523   424551 
 2805000    0.6112195   -2.7447662   -2.7447662   -2.0116198   0.03442132   -2.7447662   0.73314638   424551 
 2806000   0.61196545   -2.7456858   -2.7456858   -2.0116447  0.038976018   -2.7456858   0.73404114   424551 
 2807000   0.61116972   -2.7452377   -2.7452377    -2.012151  0.036226047   -2.7452377   0.73308667   424551 
 2808000   0.61229843    -2.746027    -2.746027   -2.0115864  0.042227337    -2.746027   0.73444053   424551 
 2809000   0.61354728   -2.7476276   -2.7476276   -2.0116891  0.037283277   -2.7476276   0.73593851   424551 
 2810000   0.61142289   -2.7453499   -2.7453499   -2.0119595   0.03873039   -2.7453499   0.73339035   424551 
 2811000   0.61165553    -2.745816    -2.745816   -2.0121466  0.040664828    -2.745816   0.73366939   424551 
 2812000   0.61220638   -2.7467628   -2.7467628   -2.0124326  0.042386516   -2.7467628   0.73433013   424551 
 2813000   0.61262144   -2.7476261   -2.7476261   -2.0127981  0.031235238   -2.7476261   0.73482798   424551 
 2814000   0.61299933   -2.7475989   -2.7475989   -2.0123177  0.033217601   -2.7475989   0.73528126   424551 
 2815000   0.61261047   -2.7469033   -2.7469033   -2.0120885  0.040267084   -2.7469033   0.73481482   424551 
 2816000   0.61270456   -2.7471725   -2.7471725   -2.0122448   0.03634702   -2.7471725   0.73492768   424551 
 2817000   0.61355947   -2.7481196   -2.7481196   -2.0121665  0.046331304   -2.7481196   0.73595313   424551 
 2818000   0.61242745   -2.7472242   -2.7472242   -2.0126289  0.035828604   -2.7472242    0.7345953   424551 
 2819000   0.61230031     -2.74686     -2.74686   -2.0124172  0.040067985     -2.74686   0.73444279   424551 
 2820000   0.61361602   -2.7479405   -2.7479405   -2.0119195  0.049666816   -2.7479405   0.73602096   424551 
 2821000   0.61188364   -2.7466068   -2.7466068   -2.0126638  0.032328455   -2.7466068     0.733943   424551 
 2822000   0.61343698   -2.7481297   -2.7481297   -2.0123235  0.030726365   -2.7481297   0.73580621   424551 
 2823000   0.61297056    -2.747906    -2.747906   -2.0126592  0.043730743    -2.747906   0.73524674   424551 
 2824000   0.61216906   -2.7477781   -2.7477781   -2.0134928  0.040725656   -2.7477781   0.73428536   424551 
 2825000   0.61236412   -2.7481598   -2.7481598   -2.0136405  0.036918273   -2.7481598   0.73451933   424551 
 2826000   0.61286872    -2.748284    -2.748284   -2.0131594  0.035714625    -2.748284   0.73512459   424551 
 2827000    0.6135503   -2.7494742   -2.7494742    -2.013532   0.03547122   -2.7494742   0.73594214   424551 
 2828000    0.6122288   -2.7474842   -2.7474842   -2.0131271  0.042385288   -2.7474842   0.73435702   424551 
 2829000   0.61335365   -2.7482416   -2.7482416   -2.0125353   0.04185749   -2.7482416   0.73570625   424551 
 2830000   0.61180321   -2.7469921   -2.7469921   -2.0131456  0.053990985   -2.7469921   0.73384653   424551 
 2831000   0.61211817   -2.7482874   -2.7482874   -2.0140631  0.043478678   -2.7482874   0.73422432   424551 
 2832000   0.61212717    -2.747456    -2.747456   -2.0132208  0.043514199    -2.747456   0.73423512   424551 
 2833000   0.61217999   -2.7479182   -2.7479182   -2.0136197  0.035334488   -2.7479182   0.73429847   424551 
 2834000   0.61125833    -2.747167    -2.747167   -2.0139741  0.045380674    -2.747167   0.73319296   424551 
 2835000   0.61148951   -2.7475084   -2.7475084   -2.0140381  0.032345191   -2.7475084   0.73347025   424551 
 2836000    0.6125987   -2.7494039   -2.7494039   -2.0146032  0.035307332   -2.7494039    0.7348007   424551 
 2837000   0.61207716   -2.7488062   -2.7488062    -2.014631  0.036041853   -2.7488062   0.73417513   424551 
 2838000   0.61265458   -2.7494837   -2.7494837    -2.014616  0.044290011   -2.7494837   0.73486773   424551 
 2839000   0.61251158   -2.7481817   -2.7481817   -2.0134855  0.031168076   -2.7481817    0.7346962   424551 
 2840000   0.61139688    -2.747305    -2.747305   -2.0139459  0.041100129    -2.747305   0.73335915   424551 
 2841000   0.61238468   -2.7491127   -2.7491127   -2.0145687  0.039776162   -2.7491127     0.734544   424551 
 2842000   0.61172898    -2.748711    -2.748711   -2.0149535  0.045482425    -2.748711   0.73375749   424551 
 2843000   0.61186245   -2.7488013   -2.7488013   -2.0148837  0.037777009   -2.7488013   0.73391759   424551 
 2844000   0.61204777   -2.7488432   -2.7488432   -2.0147034  0.048885911   -2.7488432   0.73413988   424551 
 2845000   0.61225319   -2.7495632   -2.7495632   -2.0151769  0.038846377   -2.7495632   0.73438627   424551 
 2846000   0.61266796   -2.7501556   -2.7501556   -2.0152718    0.0414619   -2.7501556   0.73488378   424551 
 2847000   0.61238113   -2.7500176   -2.7500176   -2.0154779  0.039219045   -2.7500176   0.73453974   424551 
 2848000   0.61357071    -2.750926    -2.750926   -2.0149594  0.043631462    -2.750926   0.73596662   424551 
 2849000   0.61342797   -2.7501401   -2.7501401   -2.0143447  0.038158114   -2.7501401    0.7357954   424551 
 2850000    0.6132011   -2.7492623   -2.7492623    -2.013739  0.040089488   -2.7492623   0.73552328   424551 
 2851000    0.6143929   -2.7504887   -2.7504887   -2.0135358  0.042727572   -2.7504887   0.73695282   424551 
 2852000   0.61484825   -2.7520848   -2.7520848   -2.0145858  0.032649845   -2.7520848     0.737499   424551 
 2853000   0.61435151   -2.7514287   -2.7514287   -2.0145255  0.040948477   -2.7514287   0.73690317   424551 
 2854000   0.61347817   -2.7504593   -2.7504593   -2.0146037  0.044102016   -2.7504593   0.73585562   424551 
 2855000   0.61203655    -2.749126    -2.749126   -2.0149996  0.040912167    -2.749126   0.73412642   424551 
 2856000   0.61316267   -2.7507471   -2.7507471     -2.01527  0.035751416   -2.7507471   0.73547718   424551 
 2857000    0.6129018   -2.7504751   -2.7504751   -2.0153109  0.041891397   -2.7504751   0.73516427   424551 
 2858000   0.61189267   -2.7495987   -2.7495987   -2.0156449  0.035635714   -2.7495987   0.73395383   424551 
 2859000   0.61253424   -2.7505447   -2.7505447   -2.0158213  0.039960195   -2.7505447   0.73472339   424551 
 2860000   0.61110869   -2.7487643   -2.7487643   -2.0157508  0.048045396   -2.7487643   0.73301347   424551 
 2861000   0.61269675   -2.7494406   -2.7494406   -2.0145223  0.054956356   -2.7494406   0.73491831   424551 
 2862000   0.61218952   -2.7492835   -2.7492835   -2.0149736  0.042574996   -2.7492835    0.7343099   424551 
 2863000    0.6139613   -2.7516284   -2.7516284   -2.0151933  0.029589664   -2.7516284   0.73643511   424551 
 2864000   0.61390084   -2.7515522   -2.7515522   -2.0151896   0.04336423   -2.7515522    0.7363626   424551 
 2865000   0.61333581    -2.750567    -2.750567   -2.0148821  0.049622134    -2.750567   0.73568485   424551 
 2866000   0.61342609   -2.7500719   -2.7500719   -2.0142787  0.039933649   -2.7500719   0.73579315   424551 
 2867000   0.61306374   -2.7497805   -2.7497805    -2.014422  0.035797395   -2.7497805   0.73535851   424551 
 2868000   0.61265041   -2.7499232   -2.7499232   -2.0150605  0.038963226   -2.7499232   0.73486273   424551 
 2869000   0.61390139   -2.7515513   -2.7515513   -2.0151881   0.04463607   -2.7515513   0.73636326   424551 
 2870000   0.61317196   -2.7510345   -2.7510345   -2.0155462  0.036920839   -2.7510345   0.73548833   424551 
 2871000   0.61352085   -2.7514357   -2.7514357   -2.0155289  0.037635819   -2.7514357   0.73590681   424551 
 2872000   0.61218668   -2.7509302   -2.7509302   -2.0166237  0.048075251   -2.7509302   0.73430649   424551 
 2873000   0.61153503   -2.7503652   -2.7503652   -2.0168403  0.035490985   -2.7503652   0.73352485   424551 
 2874000   0.61212435    -2.750265    -2.750265   -2.0160333  0.045508747    -2.750265   0.73423173   424551 
 2875000   0.61232511   -2.7497627   -2.7497627   -2.0152901  0.045431968   -2.7497627   0.73447254   424551 
 2876000   0.61316809   -2.7501647   -2.7501647    -2.014681  0.049332786   -2.7501647   0.73548368   424551 
 2877000   0.61251181   -2.7496011   -2.7496011   -2.0149046  0.039284909   -2.7496011   0.73469649   424551 
 2878000    0.6141376   -2.7518762   -2.7518762   -2.0152296  0.033973874   -2.7518762   0.73664658   424551 
 2879000   0.61349125   -2.7506055   -2.7506055   -2.0147341  0.040413157   -2.7506055   0.73587131   424551 
 2880000    0.6115257   -2.7492515   -2.7492515   -2.0157378   0.03387771   -2.7492515   0.73351366   424551 
 2881000   0.61123243   -2.7487733   -2.7487733   -2.0156115  0.041099494   -2.7487733   0.73316189   424551 
 2882000   0.61277345   -2.7503908   -2.7503908   -2.0153805  0.029379608   -2.7503908   0.73501031   424551 
 2883000   0.61122335   -2.7478806   -2.7478806   -2.0147296  0.039116508   -2.7478806     0.733151   424551 
 2884000    0.6111291   -2.7483606   -2.7483606   -2.0153227  0.044636113   -2.7483606   0.73303795   424551 
 2885000    0.6123624   -2.7502381   -2.7502381   -2.0157208  0.045752305   -2.7502381   0.73451727   424551 
 2886000    0.6129433   -2.7507059   -2.7507059   -2.0154918  0.035791144   -2.7507059   0.73521404   424551 
 2887000   0.61227883   -2.7493433   -2.7493433   -2.0149263  0.049045823   -2.7493433   0.73441703   424551 
 2888000   0.61173202   -2.7487229   -2.7487229   -2.0149618  0.051702887   -2.7487229   0.73376114   424551 
 2889000   0.61115218   -2.7483017   -2.7483017    -2.015236  0.046105828   -2.7483017   0.73306563   424551 
 2890000    0.6116583   -2.7475931   -2.7475931   -2.0139204  0.046627849   -2.7475931   0.73367272   424551 
 2891000   0.61214203   -2.7492159   -2.7492159    -2.014963  0.034738563   -2.7492159   0.73425294   424551 
 2892000   0.61199233   -2.7490484   -2.7490484    -2.014975  0.038244057   -2.7490484   0.73407338   424551 
 2893000   0.61143293   -2.7485355   -2.7485355   -2.0151331  0.036354826   -2.7485355   0.73340238   424551 
 2894000   0.61011616   -2.7476859   -2.7476859   -2.0158629  0.036634707   -2.7476859   0.73182295   424551 
 2895000   0.61204974   -2.7505014   -2.7505014   -2.0163592  0.032977765   -2.7505014   0.73414224   424551 
 2896000   0.61076365   -2.7490333   -2.7490333   -2.0164337   0.04426142   -2.7490333    0.7325996   424551 
 2897000   0.61194973   -2.7501679   -2.7501679   -2.0161456   0.03965779   -2.7501679   0.73402228   424551 
 2898000   0.61147549   -2.7502321   -2.7502321   -2.0167787  0.036376125   -2.7502321   0.73345344   424551 
 2899000   0.61140686   -2.7508339   -2.7508339   -2.0174628   0.03739761   -2.7508339   0.73337112   424551 
 2900000   0.61069186   -2.7496698   -2.7496698   -2.0171563  0.048349665   -2.7496698   0.73251348   424551 
 2901000   0.61070926   -2.7498761   -2.7498761   -2.0173418  0.040158278   -2.7498761   0.73253436   424551 
 2902000   0.61099369   -2.7506315   -2.7506315   -2.0177559  0.044775784   -2.7506315   0.73287553   424551 
 2903000   0.61061959   -2.7501273   -2.7501273   -2.0177005  0.042911608   -2.7501273    0.7324268   424551 
 2904000   0.61086469   -2.7499439   -2.7499439   -2.0172232  0.043216206   -2.7499439   0.73272079   424551 
 2905000   0.61131687    -2.750989    -2.750989   -2.0177258  0.029403217    -2.750989   0.73326317   424551 
 2906000   0.61095972   -2.7511059   -2.7511059   -2.0182711  0.038256745   -2.7511059   0.73283478   424551 
 2907000   0.61166156   -2.7516868   -2.7516868   -2.0180102  0.038499538   -2.7516868   0.73367663   424551 
 2908000   0.61217081   -2.7517003   -2.7517003   -2.0174129  0.044025295   -2.7517003   0.73428746   424551 
 2909000   0.61060009    -2.750049    -2.750049   -2.0176455  0.041949915    -2.750049   0.73240341   424551 
 2910000   0.61085192   -2.7506262   -2.7506262   -2.0179208   0.03694505   -2.7506262   0.73270547   424551 
 2911000   0.61257408   -2.7528419   -2.7528419   -2.0180707  0.049640276   -2.7528419   0.73477117   424551 
 2912000   0.61154726   -2.7519063   -2.7519063   -2.0183668  0.033914376   -2.7519063   0.73353953   424551 
 2913000    0.6116397   -2.7528423   -2.7528423   -2.0191919   0.04106549   -2.7528423    0.7336504   424551 
 2914000   0.61080348   -2.7513993   -2.7513993   -2.0187519  0.037301198   -2.7513993   0.73264737   424551 
 2915000   0.61036071   -2.7511882   -2.7511882    -2.019072   0.03768957   -2.7511882   0.73211628   424551 
 2916000   0.61111933   -2.7517581   -2.7517581   -2.0187319  0.041490262   -2.7517581   0.73302622   424551 
 2917000   0.61249724   -2.7537449   -2.7537449   -2.0190659   0.03395751   -2.7537449     0.734679   424551 
 2918000   0.61200406   -2.7528209   -2.7528209   -2.0187335  0.029838293   -2.7528209   0.73408745   424551 
 2919000   0.61258568   -2.7540567   -2.7540567   -2.0192716  0.040201505   -2.7540567   0.73478509   424551 
 2920000   0.61214292   -2.7531442   -2.7531442   -2.0188902  0.042788137   -2.7531442     0.734254   424551 
 2921000   0.61276821   -2.7539815   -2.7539815   -2.0189775  0.029075202   -2.7539815   0.73500403   424551 
 2922000   0.61198054   -2.7528934   -2.7528934   -2.0188341  0.040697333   -2.7528934   0.73405924   424551 
 2923000   0.61197182   -2.7526957   -2.7526957    -2.018647  0.046289334   -2.7526957   0.73404877   424551 
 2924000   0.61231965   -2.7530387   -2.7530387   -2.0185727   0.02856237   -2.7530387   0.73446599   424551 
 2925000   0.61250095   -2.7534831   -2.7534831   -2.0187997   0.03939395   -2.7534831   0.73468346   424551 
 2926000   0.61199252   -2.7531423   -2.7531423   -2.0190686  0.041439766   -2.7531423   0.73407361   424551 
 2927000   0.61266195   -2.7532892   -2.7532892   -2.0184126  0.043335025   -2.7532892   0.73487657   424551 
 2928000   0.61302142   -2.7534168   -2.7534168    -2.018109  0.033481575   -2.7534168   0.73530775   424551 
 2929000   0.61194397   -2.7522858   -2.7522858   -2.0182705    0.0422387   -2.7522858   0.73401537   424551 
 2930000   0.61205918   -2.7527965   -2.7527965   -2.0186429  0.034221182   -2.7527965   0.73415356   424551 
 2931000   0.61182929   -2.7530732   -2.7530732   -2.0191954  0.039687503   -2.7530732   0.73387782   424551 
 2932000   0.61042412   -2.7522723   -2.7522723   -2.0200799  0.030192961   -2.7522723   0.73219234   424551 
 2933000   0.61128923   -2.7528282   -2.7528282   -2.0195982  0.033188855   -2.7528282   0.73323002   424551 
 2934000   0.61262413   -2.7543397   -2.7543397   -2.0195085  0.038245536   -2.7543397   0.73483121   424551 
 2935000    0.6101454   -2.7514807   -2.7514807   -2.0196227  0.033564873   -2.7514807   0.73185801   424551 
 2936000   0.61184732   -2.7531329   -2.7531329   -2.0192335  0.046039365   -2.7531329   0.73389944   424551 
 2937000   0.61022005   -2.7508612   -2.7508612   -2.0189136  0.040067004   -2.7508612   0.73194756   424551 
 2938000   0.61212756   -2.7530679   -2.7530679   -2.0188323  0.034795546   -2.7530679   0.73423558   424551 
 2939000   0.61129966   -2.7525316   -2.7525316   -2.0192891  0.040266274   -2.7525316   0.73324253   424551 
 2940000   0.61131545   -2.7533792   -2.7533792   -2.0201177  0.036448399   -2.7533792   0.73326147   424551 
 2941000   0.61191314   -2.7545114   -2.7545114    -2.020533  0.046019173   -2.7545114   0.73397839   424551 
 2942000   0.61132177   -2.7535625   -2.7535625   -2.0202934  0.045507235   -2.7535625   0.73326905   424551 
 2943000   0.61164798   -2.7536443   -2.7536443    -2.019984  0.048458275   -2.7536443   0.73366033   424551 
 2944000   0.61259245   -2.7553202   -2.7553202    -2.020527  0.040709247   -2.7553202   0.73479321   424551 
 2945000    0.6119091   -2.7549935   -2.7549935     -2.02102  0.037056996   -2.7549935   0.73397355   424551 
 2946000   0.61289424   -2.7564123   -2.7564123    -2.021257  0.041956201   -2.7564123    0.7351552   424551 
 2947000   0.61232373   -2.7553548   -2.7553548   -2.0208839  0.041831219   -2.7553548   0.73447089   424551 
 2948000   0.61170707   -2.7544635   -2.7544635   -2.0207323  0.048212664   -2.7544635   0.73373122   424551 
 2949000    0.6118201   -2.7547619   -2.7547619   -2.0208951  0.039285985   -2.7547619   0.73386679   424551 
 2950000   0.61244175   -2.7547693   -2.7547693   -2.0201568  0.047232148   -2.7547693   0.73461245   424551 
 2951000   0.61213578   -2.7550275   -2.7550275   -2.0207821  0.044704672   -2.7550275   0.73424544   424551 
 2952000    0.6120836    -2.754017    -2.754017   -2.0198342  0.047669241    -2.754017   0.73418285   424551 
 2953000   0.61232519   -2.7550412   -2.7550412   -2.0205685  0.039940784   -2.7550412   0.73447264   424551 
 2954000   0.61153947   -2.7544644   -2.7544644   -2.0209342  0.038001667   -2.7544644   0.73353018   424551 
 2955000    0.6114058   -2.7552183   -2.7552183   -2.0218485  0.035444666   -2.7552183   0.73336985   424551 
 2956000    0.6102365   -2.7534722   -2.7534722   -2.0215049  0.031805006   -2.7534722   0.73196729   424551 
 2957000   0.61108039   -2.7533682   -2.7533682   -2.0203887   0.03354383   -2.7533682   0.73297953   424551 
 2958000   0.61078368   -2.7527539   -2.7527539   -2.0201302  0.035086737   -2.7527539   0.73262363   424551 
 2959000   0.61128928   -2.7529986   -2.7529986   -2.0197685  0.037320948   -2.7529986   0.73323008   424551 
 2960000   0.61044108   -2.7524157   -2.7524157   -2.0202031  0.037400044   -2.7524157   0.73221268   424551 
 2961000   0.61141233   -2.7528274   -2.7528274   -2.0194497   0.03955738   -2.7528274   0.73337768   424551 
 2962000   0.61194311   -2.7537571   -2.7537571   -2.0197427  0.040623256   -2.7537571   0.73401434   424551 
 2963000   0.61116368   -2.7530617   -2.7530617   -2.0199823  0.045563154   -2.7530617   0.73307942   424551 
 2964000    0.6119877   -2.7542193   -2.7542193   -2.0201515  0.037590623   -2.7542193   0.73406782   424551 
 2965000   0.61198116   -2.7539064   -2.7539064   -2.0198464  0.042537377   -2.7539064   0.73405998   424551 
 2966000   0.61199908   -2.7539287   -2.7539287   -2.0198472  0.037615575   -2.7539287   0.73408147   424551 
 2967000   0.61072132   -2.7529794   -2.7529794   -2.0204306  0.037304358   -2.7529794   0.73254883   424551 
 2968000   0.61239578   -2.7545328   -2.7545328   -2.0199755  0.029849623   -2.7545328   0.73455731   424551 
 2969000   0.61148659    -2.753506    -2.753506   -2.0200392  0.035680811    -2.753506   0.73346675   424551 
 2970000   0.61063838   -2.7520912   -2.7520912   -2.0196418  0.035244202   -2.7520912   0.73244934   424551 
 2971000   0.61013226   -2.7511749   -2.7511749   -2.0193326    0.0302182   -2.7511749   0.73184226   424551 
 2972000   0.61282924   -2.7542004   -2.7542004   -2.0191232  0.050656811   -2.7542004   0.73507723   424551 
 2973000   0.61148984   -2.7527747   -2.7527747   -2.0193041  0.041372312   -2.7527747   0.73347064   424551 
 2974000   0.61256711   -2.7539276   -2.7539276   -2.0191648   0.03811159   -2.7539276   0.73476281   424551 
 2975000   0.61264552   -2.7548233   -2.7548233   -2.0199664  0.036726479   -2.7548233   0.73485687   424551 
 2976000   0.61249767   -2.7545267   -2.7545267   -2.0198471   0.04598461   -2.7545267   0.73467952   424551 
 2977000   0.61323076   -2.7556702   -2.7556702   -2.0201113  0.035286037   -2.7556702   0.73555886   424551 
 2978000   0.61286345   -2.7542639   -2.7542639   -2.0191457  0.045166919   -2.7542639   0.73511827   424551 
 2979000   0.61178407    -2.753452    -2.753452   -2.0196284  0.045267167    -2.753452   0.73382357   424551 
 2980000   0.61073833   -2.7524165   -2.7524165   -2.0198472  0.037025618   -2.7524165   0.73256923   424551 
 2981000   0.61242629   -2.7538194   -2.7538194   -2.0192255  0.042030073   -2.7538194   0.73459391   424551 
 2982000    0.6129787   -2.7546468   -2.7546468   -2.0193903  0.041046345   -2.7546468   0.73525651   424551 
 2983000   0.61163717    -2.753833    -2.753833   -2.0201856   0.04303201    -2.753833   0.73364736   424551 
 2984000   0.61130193   -2.7540889   -2.7540889   -2.0208436  0.039195828   -2.7540889   0.73324525   424551 
 2985000   0.61083155   -2.7528252   -2.7528252   -2.0201442  0.039872377   -2.7528252   0.73268104   424551 
 2986000   0.61185335   -2.7529563   -2.7529563   -2.0190497  0.032062562   -2.7529563   0.73390667   424551 
 2987000   0.61165599   -2.7525994   -2.7525994   -2.0189294  0.039201533   -2.7525994   0.73366995   424551 
 2988000   0.61133561   -2.7524735   -2.7524735   -2.0191878   0.03394413   -2.7524735   0.73328565   424551 
 2989000   0.61275303   -2.7543837   -2.7543837   -2.0193979  0.037033466   -2.7543837   0.73498582   424551 
 2990000   0.61130712   -2.7526795   -2.7526795   -2.0194281  0.042779051   -2.7526795   0.73325148   424551 
 2991000   0.61219053   -2.7546466   -2.7546466   -2.0203355  0.037973462   -2.7546466   0.73431111   424551 
 2992000   0.61154927   -2.7533977   -2.7533977   -2.0198557  0.043565914   -2.7533977   0.73354194   424551 
 2993000    0.6113117   -2.7529765   -2.7529765   -2.0197196  0.031631615   -2.7529765   0.73325697   424551 
 2994000   0.61161667   -2.7536939   -2.7536939   -2.0200712  0.041130995   -2.7536939   0.73362278   424551 
 2995000   0.61230008   -2.7542083   -2.7542083   -2.0197658  0.037067522   -2.7542083   0.73444252   424551 
 2996000    0.6120009   -2.7543539   -2.7543539   -2.0202702  0.039818437   -2.7543539   0.73408365   424551 
 2997000   0.61153748   -2.7535101   -2.7535101   -2.0199823  0.040104625   -2.7535101   0.73352779   424551 
 2998000   0.61139659   -2.7531773   -2.7531773   -2.0198185  0.046543539   -2.7531773    0.7333588   424551 
 2999000   0.61286325   -2.7552868   -2.7552868   -2.0201688  0.041963043   -2.7552868   0.73511803   424551 
 3000000   0.61067391   -2.7537322   -2.7537322   -2.0212402  0.036784831   -2.7537322   0.73249196   424551 
 3001000   0.61108611   -2.7539697   -2.7539697   -2.0209834  0.044829035   -2.7539697   0.73298638   424551 
 3002000   0.61258797   -2.7555117   -2.7555117   -2.0207239  0.033198105   -2.7555117   0.73478784   424551 
 3003000   0.61268835   -2.7555186   -2.7555186   -2.0206103  0.044659753   -2.7555186   0.73490824   424551 
 3004000   0.61206257   -2.7543779   -2.7543779   -2.0202203  0.046351649   -2.7543779   0.73415763   424551 
 3005000   0.61153292   -2.7543704   -2.7543704   -2.0208481  0.037831261   -2.7543704   0.73352232   424551 
 3006000    0.6108454   -2.7541954   -2.7541954   -2.0214978  0.036241174   -2.7541954   0.73269766   424551 
 3007000   0.61149919   -2.7546898   -2.7546898   -2.0212079  0.045885041   -2.7546898   0.73348186   424551 
 3008000    0.6114641   -2.7546146   -2.7546146   -2.0211748  0.037626638   -2.7546146   0.73343978   424551 
 3009000   0.61040709   -2.7535872   -2.7535872   -2.0214153  0.044379492   -2.7535872   0.73217192   424551 
 3010000   0.60987008      -2.7538      -2.7538   -2.0222722    0.0399335      -2.7538   0.73152778   424551 
 3011000   0.61043513   -2.7550831   -2.7550831   -2.0228775  0.035283239   -2.7550831   0.73220554   424551 
 3012000    0.6109727   -2.7557799   -2.7557799   -2.0229296  0.030629079   -2.7557799   0.73285035   424551 
 3013000   0.61110651   -2.7554572   -2.7554572   -2.0224464   0.04425036   -2.7554572   0.73301086   424551 
 3014000     0.610872   -2.7554733   -2.7554733   -2.0227437  0.050246212   -2.7554733   0.73272956   424551 
 3015000   0.61178968   -2.7566162   -2.7566162   -2.0227859  0.042490967   -2.7566162    0.7338303   424551 
 3016000   0.61148076   -2.7567657   -2.7567657    -2.023306  0.041095605   -2.7567657   0.73345975   424551 
 3017000   0.61188422   -2.7572617   -2.7572617    -2.023318  0.042783289   -2.7572617    0.7339437   424551 
 3018000   0.61109336   -2.7565848   -2.7565848   -2.0235897  0.041064407   -2.7565848   0.73299507   424551 
 3019000   0.61108049   -2.7568156   -2.7568156   -2.0238359  0.036962126   -2.7568156   0.73297964   424551 
 3020000   0.61134546   -2.7572457   -2.7572457   -2.0239482  0.043883628   -2.7572457   0.73329747   424551 
 3021000   0.61218514   -2.7578461   -2.7578461   -2.0235414  0.037378216   -2.7578461   0.73430465   424551 
 3022000   0.61230038   -2.7576705   -2.7576705   -2.0232276  0.036251138   -2.7576705   0.73444288   424551 
 3023000   0.61216203   -2.7574877   -2.7574877   -2.0232107  0.055584382   -2.7574877   0.73427692   424551 
 3024000   0.61107954   -2.7561048   -2.7561048   -2.0231263  0.034749917   -2.7561048    0.7329785   424551 
 3025000   0.61169004   -2.7568562   -2.7568562   -2.0231454  0.035887232   -2.7568562   0.73371078   424551 
 3026000   0.61153946   -2.7565888   -2.7565888   -2.0230586  0.045814241   -2.7565888   0.73353017   424551 
 3027000   0.61175191   -2.7569271   -2.7569271   -2.0231421  0.039724146   -2.7569271     0.733785   424551 
 3028000   0.61140248   -2.7568834   -2.7568834   -2.0235176  0.041215099   -2.7568834   0.73336587   424551 
 3029000   0.61050553   -2.7562336   -2.7562336   -2.0239436  0.030688986   -2.7562336   0.73228998   424551 
 3030000   0.61116566   -2.7565741   -2.7565741   -2.0234923  0.037270742   -2.7565741    0.7330818   424551 
 3031000    0.6117647   -2.7562294   -2.7562294   -2.0224291  0.041439574   -2.7562294   0.73380034   424551 
 3032000    0.6109231   -2.7552623   -2.7552623   -2.0224715  0.035739743   -2.7552623   0.73279085   424551 
 3033000   0.61127368    -2.756299    -2.756299   -2.0230876  0.042512741    -2.756299   0.73321137   424551 
 3034000   0.61134565   -2.7566611   -2.7566611   -2.0233634  0.038475092   -2.7566611   0.73329769   424551 
 3035000   0.61037493   -2.7557901   -2.7557901   -2.0236568  0.037537869   -2.7557901   0.73213333   424551 
 3036000   0.61055574    -2.756352    -2.756352   -2.0240018  0.041387651    -2.756352   0.73235022   424551 
 3037000   0.60994878   -2.7552412   -2.7552412    -2.023619  0.040087917   -2.7552412   0.73162218   424551 
 3038000   0.60780689   -2.7532792   -2.7532792   -2.0242262  0.044778209   -2.7532792   0.72905302   424551 
 3039000   0.61089193   -2.7562692   -2.7562692   -2.0235157  0.036829048   -2.7562692   0.73275347   424551 
 3040000   0.61008482   -2.7553791   -2.7553791   -2.0235938  0.045123857   -2.7553791   0.73178535   424551 
 3041000   0.61088796   -2.7559322   -2.7559322   -2.0231835  0.044549702   -2.7559322    0.7327487   424551 
 3042000   0.61166607   -2.7576653   -2.7576653   -2.0239833  0.035296528   -2.7576653   0.73368203   424551 
 3043000   0.61120137   -2.7572543   -2.7572543   -2.0241297  0.046900514   -2.7572543   0.73312464   424551 
 3044000   0.61122932   -2.7573228   -2.7573228   -2.0241647  0.037269353   -2.7573228   0.73315816   424551 
 3045000   0.61171187   -2.7584544   -2.7584544   -2.0247174  0.035649091   -2.7584544   0.73373697   424551 
 3046000   0.61252817   -2.7595588   -2.7595588   -2.0248427  0.036714126   -2.7595588   0.73471611   424551 
 3047000   0.61186014    -2.759527    -2.759527   -2.0256122  0.038986942    -2.759527   0.73391481   424551 
 3048000   0.61071755   -2.7582105   -2.7582105   -2.0256662  0.040638838   -2.7582105    0.7325443   424551 
 3049000   0.61173026   -2.7588406   -2.7588406   -2.0250815  0.045367092   -2.7588406   0.73375903   424551 
 3050000   0.61187502   -2.7592919   -2.7592919   -2.0253592  0.052776774   -2.7592919   0.73393266   424551 
 3051000   0.61299201   -2.7604542   -2.7604542   -2.0251817  0.042970147   -2.7604542   0.73527247   424551 
 3052000   0.61182453   -2.7576345   -2.7576345   -2.0237624  0.042610627   -2.7576345   0.73387211   424551 
 3053000   0.61132757   -2.7574625   -2.7574625   -2.0241865  0.044542335   -2.7574625   0.73327601   424551 
 3054000   0.61160304   -2.7579707   -2.7579707   -2.0243643  0.042734425   -2.7579707   0.73360643   424551 
 3055000   0.61171263   -2.7585371   -2.7585371   -2.0247992  0.048597671   -2.7585371   0.73373788   424551 
 3056000   0.61060898    -2.757358    -2.757358    -2.024944  0.035292289    -2.757358   0.73241407   424551 
 3057000   0.61057011    -2.757263    -2.757263   -2.0248956  0.035800203    -2.757263   0.73236745   424551 
 3058000   0.61159286   -2.7581752   -2.7581752    -2.024581  0.031095349   -2.7581752   0.73359422   424551 
 3059000   0.61093387   -2.7568778   -2.7568778    -2.024074  0.034525861   -2.7568778   0.73280378   424551 
 3060000   0.61160602   -2.7575552   -2.7575552   -2.0239452  0.033496099   -2.7575552   0.73361001   424551 
 3061000   0.61168588   -2.7580677   -2.7580677   -2.0243619  0.040262045   -2.7580677    0.7337058   424551 
 3062000   0.61053887   -2.7568493   -2.7568493   -2.0245193  0.045881592   -2.7568493   0.73232998   424551 
 3063000   0.61091328   -2.7576666   -2.7576666   -2.0248876  0.040568649   -2.7576666   0.73277907   424551 
 3064000    0.6100351   -2.7574943   -2.7574943   -2.0257685  0.033963983   -2.7574943   0.73172571   424551 
 3065000   0.60932826   -2.7565233   -2.7565233   -2.0256455  0.039500005   -2.7565233   0.73087787   424551 
 3066000   0.61017914   -2.7580256   -2.7580256   -2.0261271  0.032563945   -2.7580256   0.73189849   424551 
 3067000   0.60909719   -2.7565674   -2.7565674   -2.0259666  0.026952513   -2.7565674   0.73060071   424551 
 3068000   0.61081498    -2.758139    -2.758139   -2.0254778  0.037609438    -2.758139   0.73266117   424551 
 3069000   0.61112197   -2.7585141   -2.7585141   -2.0254847  0.041091488   -2.7585141   0.73302939   424551 
 3070000   0.61054502   -2.7577653   -2.7577653   -2.0254279  0.044625461   -2.7577653   0.73233735   424551 
 3071000   0.61100436   -2.7583699   -2.7583699   -2.0254815  0.046321624   -2.7583699   0.73288833   424551 
 3072000   0.61219332   -2.7587624   -2.7587624    -2.024448  0.040860958   -2.7587624   0.73431446   424551 
 3073000   0.61191979   -2.7586844   -2.7586844    -2.024698  0.046890367   -2.7586844   0.73398637   424551 
 3074000   0.61246611   -2.7600658   -2.7600658   -2.0254241  0.044488342   -2.7600658   0.73464167   424551 
 3075000   0.61214021    -2.759052    -2.759052   -2.0248012  0.041039419    -2.759052   0.73425076   424551 
 3076000   0.61268601   -2.7602678   -2.7602678   -2.0253623   0.04091361   -2.7602678   0.73490544   424551 
 3077000   0.61200991   -2.7590146   -2.7590146   -2.0249201  0.045116747   -2.7590146   0.73409447   424551 
 3078000   0.61242419   -2.7596085   -2.7596085   -2.0250171  0.039505499   -2.7596085   0.73459139   424551 
 3079000    0.6112687   -2.7591501   -2.7591501   -2.0259447  0.041184449   -2.7591501   0.73320539   424551 
 3080000   0.61105517   -2.7594372   -2.7594372   -2.0264879  0.038564469   -2.7594372   0.73294927   424551 
 3081000   0.61071302   -2.7592827   -2.7592827   -2.0267438  0.035159148   -2.7592827   0.73253887   424551 
 3082000   0.61111053   -2.7593653   -2.7593653   -2.0263496   0.03348779   -2.7593653   0.73301567   424551 
 3083000   0.61131388   -2.7600141   -2.7600141   -2.0267545  0.033924284   -2.7600141   0.73325959   424551 
 3084000   0.61129604    -2.760234    -2.760234   -2.0269958  0.038776516    -2.760234   0.73323819   424551 
 3085000   0.60930695   -2.7578744   -2.7578744   -2.0270221  0.032409643   -2.7578744   0.73085231   424551 
 3086000   0.61010375   -2.7590289   -2.7590289   -2.0272209  0.042880776   -2.7590289   0.73180807   424551 
 3087000    0.6110077   -2.7595303   -2.7595303   -2.0266379  0.032171716   -2.7595303   0.73289233   424551 
 3088000   0.61043315   -2.7586408   -2.7586408   -2.0264376  0.034083134   -2.7586408   0.73220317   424551 
 3089000   0.61067395    -2.758641    -2.758641    -2.026149  0.032889642    -2.758641   0.73249201   424551 
 3090000    0.6102415   -2.7581554   -2.7581554   -2.0261821  0.037229979   -2.7581554   0.73197328   424551 
 3091000   0.60937962   -2.7577337   -2.7577337   -2.0267942  0.038871994   -2.7577337   0.73093948   424551 
 3092000    0.6089666   -2.7573675   -2.7573675   -2.0269235  0.037600585   -2.7573675   0.73044407   424551 
 3093000   0.61033144     -2.75869     -2.75869   -2.0266088  0.032118519     -2.75869   0.73208117   424551 
 3094000   0.60968542   -2.7580538   -2.7580538   -2.0267475  0.040439486   -2.7580538   0.73130628   424551 
 3095000   0.61101648   -2.7597246   -2.7597246   -2.0268217  0.029943081   -2.7597246   0.73290286   424551 
 3096000   0.61068637   -2.7595965   -2.7595965   -2.0270896  0.034746896   -2.7595965    0.7325069   424551 
 3097000   0.61077964   -2.7590823   -2.7590823   -2.0264635  0.037324168   -2.7590823   0.73261878   424551 
 3098000   0.61191629   -2.7601536   -2.7601536   -2.0261714  0.030601051   -2.7601536   0.73398217   424551 
 3099000   0.61126718   -2.7592201   -2.7592201   -2.0260165  0.039728108   -2.7592201   0.73320357   424551 
 3100000   0.61160074   -2.7597734   -2.7597734   -2.0261697  0.040941755   -2.7597734   0.73360367   424551 
 3101000   0.61176592   -2.7596433   -2.7596433   -2.0258415  0.033033962   -2.7596433    0.7338018   424551 
 3102000   0.61093997    -2.759516    -2.759516   -2.0267049  0.039919516    -2.759516   0.73281109   424551 
 3103000   0.61106433    -2.760342    -2.760342   -2.0273818  0.030739894    -2.760342   0.73296026   424551 
 3104000   0.61081717    -2.759107    -2.759107   -2.0264432  0.042042801    -2.759107    0.7326638   424551 
 3105000    0.6112507   -2.7609349   -2.7609349   -2.0277511  0.033930009   -2.7609349    0.7331838   424551 
 3106000   0.61091328   -2.7594286   -2.7594286   -2.0266495  0.045259932   -2.7594286   0.73277907   424551 
 3107000    0.6116611   -2.7609915   -2.7609915   -2.0273155   0.04309279   -2.7609915   0.73367607   424551 
 3108000   0.61041945   -2.7591832   -2.7591832   -2.0269964  0.046845132   -2.7591832   0.73218674   424551 
 3109000   0.61091933   -2.7593829   -2.7593829   -2.0265965  0.041355975   -2.7593829   0.73278634   424551 
 3110000   0.61131069   -2.7599271   -2.7599271   -2.0266713   0.03638867   -2.7599271   0.73325577   424551 
 3111000   0.61145153   -2.7606297   -2.7606297    -2.027205  0.044623525   -2.7606297   0.73342469   424551 
 3112000   0.61120748   -2.7606671   -2.7606671   -2.0275351  0.037890625   -2.7606671   0.73313197   424551 
 3113000   0.61238097   -2.7620308   -2.7620308   -2.0274912    0.0400677   -2.7620308   0.73453954   424551 
 3114000   0.60993756   -2.7584829   -2.7584829   -2.0268742  0.033534829   -2.7584829   0.73160871   424551 
 3115000   0.60990335   -2.7584763   -2.7584763   -2.0269086  0.033589379   -2.7584763   0.73156768   424551 
 3116000   0.60962705   -2.7579911   -2.7579911   -2.0267548  0.037708032   -2.7579911   0.73123627   424551 
 3117000   0.61109018   -2.7603845   -2.7603845   -2.0273932  0.038839573   -2.7603845   0.73299126   424551 
 3118000   0.61041877   -2.7598399   -2.7598399    -2.027654  0.045372843   -2.7598399   0.73218592   424551 
 3119000   0.61192846   -2.7610491   -2.7610491   -2.0270524  0.034993546   -2.7610491   0.73399676   424551 
 3120000   0.61052142   -2.7594307   -2.7594307   -2.0271217  0.039977354   -2.7594307   0.73230904   424551 
 3121000   0.61206364    -2.761011    -2.761011   -2.0268521  0.040612782    -2.761011   0.73415891   424551 
 3122000   0.61174741   -2.7605879   -2.7605879   -2.0268083  0.051033341   -2.7605879   0.73377961   424551 
 3123000   0.61272503   -2.7625158   -2.7625158   -2.0275635  0.042680376   -2.7625158   0.73495224   424551 
 3124000   0.61243058   -2.7618684   -2.7618684   -2.0272693  0.037718106   -2.7618684   0.73459905   424551 
 3125000   0.61208264   -2.7618193   -2.7618193   -2.0276376  0.046874634   -2.7618193    0.7341817   424551 
 3126000   0.61255709   -2.7624937   -2.7624937   -2.0277429  0.041311082   -2.7624937   0.73475079   424551 
 3127000   0.61119438   -2.7615635   -2.7615635   -2.0284472  0.045937765   -2.7615635   0.73311625   424551 
 3128000   0.61023413   -2.7611445   -2.7611445     -2.02918  0.029587315   -2.7611445   0.73196445   424551 
 3129000   0.61136484   -2.7625423   -2.7625423   -2.0292215  0.041117046   -2.7625423   0.73332071   424551 
 3130000   0.61045164   -2.7621828   -2.7621828   -2.0299574  0.051467929   -2.7621828   0.73222535   424551 
 3131000   0.61029433   -2.7614328   -2.7614328   -2.0293962  0.032807832   -2.7614328   0.73203666   424551 
 3132000   0.61182868   -2.7634716   -2.7634716   -2.0295945  0.041583843   -2.7634716   0.73387708   424551 
 3133000   0.60996538   -2.7615919   -2.7615919   -2.0299498   0.03243817   -2.7615919   0.73164209   424551 
 3134000   0.61122631    -2.763451    -2.763451   -2.0302964   0.03812671    -2.763451   0.73315455   424551 
 3135000   0.61018464   -2.7611162   -2.7611162   -2.0292111  0.041770262   -2.7611162   0.73190508   424551 
 3136000   0.61013269   -2.7616085   -2.7616085   -2.0297657  0.038251633   -2.7616085   0.73184277   424551 
 3137000   0.61093137   -2.7627436   -2.7627436   -2.0299428  0.039677125   -2.7627436   0.73280077   424551 
 3138000   0.61081226   -2.7624565   -2.7624565   -2.0297986  0.038307482   -2.7624565    0.7326579   424551 
 3139000   0.61086011   -2.7627714   -2.7627714   -2.0300561  0.043465655   -2.7627714    0.7327153   424551 
 3140000   0.61077739   -2.7625043   -2.7625043   -2.0298882  0.035144361   -2.7625043   0.73261608   424551 
 3141000   0.61145284   -2.7640151   -2.7640151   -2.0305889  0.034301112   -2.7640151   0.73342627   424551 
 3142000   0.61040472   -2.7628395   -2.7628395   -2.0306704  0.038010447   -2.7628395   0.73216907   424551 
 3143000   0.61130815   -2.7641258   -2.7641258   -2.0308731  0.042251945   -2.7641258   0.73325271   424551 
 3144000   0.61093829   -2.7645691   -2.7645691     -2.03176  0.038948025   -2.7645691   0.73280908   424551 
 3145000    0.6099776   -2.7631491   -2.7631491   -2.0314923  0.036466168   -2.7631491   0.73165674   424551 
 3146000    0.6103323   -2.7639587   -2.7639587   -2.0318765  0.036966999   -2.7639587    0.7320822   424551 
 3147000   0.61065696    -2.764608    -2.764608   -2.0321363  0.043691862    -2.764608   0.73247163   424551 
 3148000    0.6101868   -2.7644838   -2.7644838   -2.0325762  0.040547467   -2.7644838   0.73190768   424551 
 3149000   0.61133215   -2.7647833   -2.7647833   -2.0315018  0.038299349   -2.7647833    0.7332815   424551 
 3150000   0.61123861   -2.7649169   -2.7649169   -2.0317476  0.034718195   -2.7649169    0.7331693   424551 
 3151000   0.61046861   -2.7640362   -2.7640362   -2.0317905  0.043282461   -2.7640362    0.7322457   424551 
 3152000   0.60929042   -2.7630417   -2.7630417   -2.0322092  0.033641292   -2.7630417   0.73083249   424551 
 3153000   0.61066436    -2.764623    -2.764623   -2.0321425  0.041682411    -2.764623   0.73248051   424551 
 3154000   0.61101492   -2.7650388   -2.7650388   -2.0321378  0.041804889   -2.7650388   0.73290099   424551 
 3155000   0.61173526   -2.7656763   -2.7656763   -2.0319112  0.038572196   -2.7656763   0.73376502   424551 
 3156000   0.61018387   -2.7647441   -2.7647441     -2.03284   0.04249006   -2.7647441   0.73190416   424551 
 3157000    0.6102525   -2.7644516   -2.7644516   -2.0324651  0.043663519   -2.7644516   0.73198649   424551 
 3158000   0.61039864   -2.7650025   -2.7650025   -2.0328407   0.04198289   -2.7650025   0.73216178   424551 
 3159000   0.60931584   -2.7633087   -2.7633087   -2.0324457  0.033474587   -2.7633087   0.73086298   424551 
 3160000   0.61061083   -2.7651135   -2.7651135   -2.0326972  0.032118412   -2.7651135   0.73241629   424551 
 3161000   0.61169416   -2.7661455   -2.7661455   -2.0324298  0.035693805   -2.7661455   0.73371573   424551 
 3162000   0.61159766    -2.765837    -2.765837   -2.0322371  0.040622122    -2.765837   0.73359998   424551 
 3163000   0.61101948   -2.7651133   -2.7651133   -2.0322069  0.047025202   -2.7651133   0.73290646   424551 
 3164000    0.6118261   -2.7663433   -2.7663433   -2.0324693  0.046999624   -2.7663433   0.73387398   424551 
 3165000   0.61203646    -2.766322    -2.766322   -2.0321957  0.030427668    -2.766322   0.73412632   424551 
 3166000   0.61123409   -2.7658052   -2.7658052   -2.0326413  0.031600384   -2.7658052   0.73316389   424551 
 3167000   0.61086547   -2.7646459   -2.7646459   -2.0319241  0.034962982   -2.7646459   0.73272173   424551 
 3168000   0.60967754   -2.7634686   -2.7634686   -2.0321718  0.029474694   -2.7634686   0.73129684   424551 
 3169000   0.61009404    -2.763919    -2.763919   -2.0321226  0.030799652    -2.763919   0.73179642   424551 
 3170000   0.60999271   -2.7638173   -2.7638173   -2.0321425  0.038259468   -2.7638173   0.73167487   424551 
 3171000    0.6108279   -2.7653639   -2.7653639   -2.0326873  0.040204318   -2.7653639   0.73267666   424551 
 3172000    0.6106616   -2.7646253   -2.7646253   -2.0321481  0.041478705   -2.7646253   0.73247719   424551 
 3173000   0.61117094   -2.7655646   -2.7655646   -2.0324764  0.032307772   -2.7655646   0.73308813   424551 
 3174000   0.60932898   -2.7633083   -2.7633083   -2.0324296   0.04437451   -2.7633083   0.73087873   424551 
 3175000   0.60969352   -2.7633638   -2.7633638   -2.0320478  0.033788009   -2.7633638     0.731316   424551 
 3176000   0.61130219   -2.7650512   -2.7650512   -2.0318056  0.032939588   -2.7650512   0.73324557   424551 
 3177000   0.61003206   -2.7636791   -2.7636791   -2.0319571  0.044300503   -2.7636791   0.73172207   424551 
 3178000   0.61118023    -2.764944    -2.764944   -2.0318447  0.038598401    -2.764944   0.73309928   424551 
 3179000   0.61131851   -2.7652261   -2.7652261    -2.031961  0.037232988   -2.7652261   0.73326514   424551 
 3180000   0.61134859     -2.76548     -2.76548   -2.0321787  0.025664098     -2.76548   0.73330122   424551 
 3181000   0.61073855   -2.7650826   -2.7650826   -2.0325131   0.04161524   -2.7650826   0.73256949   424551 
 3182000   0.61110343   -2.7659881   -2.7659881   -2.0329809  0.035667197   -2.7659881   0.73300716   424551 
 3183000   0.61124152   -2.7656489   -2.7656489   -2.0324761  0.045233309   -2.7656489    0.7331728   424551 
 3184000   0.61049628   -2.7645434   -2.7645434   -2.0322645  0.033822425   -2.7645434   0.73227889   424551 
 3185000   0.61186569     -2.76646     -2.76646   -2.0325385  0.037880268     -2.76646   0.73392148   424551 
 3186000   0.60996213   -2.7651259   -2.7651259   -2.0334877   0.04143986   -2.7651259   0.73163819   424551 
 3187000   0.61008156   -2.7651034   -2.7651034   -2.0333219   0.03483247   -2.7651034   0.73178144   424551 
 3188000   0.61030276   -2.7658845   -2.7658845   -2.0338378  0.040246174   -2.7658845   0.73204677   424551 
 3189000   0.60991756   -2.7652742   -2.7652742   -2.0336895  0.032078232   -2.7652742   0.73158473   424551 
 3190000   0.61042388   -2.7655559   -2.7655559   -2.0333639  0.032937664   -2.7655559   0.73219205   424551 
 3191000   0.60932619   -2.7648954   -2.7648954     -2.03402  0.040344209   -2.7648954   0.73087539   424551 
 3192000    0.6094913   -2.7653298   -2.7653298   -2.0342563  0.039608929   -2.7653298   0.73107344   424551 
 3193000   0.60906415   -2.7647603   -2.7647603   -2.0341992  0.042163482   -2.7647603   0.73056107   424551 
 3194000   0.60971525   -2.7651654   -2.7651654   -2.0338233  0.039245418   -2.7651654   0.73134206   424551 
 3195000   0.60931037   -2.7638252   -2.7638252   -2.0329687  0.042011575   -2.7638252   0.73085642   424551 
 3196000   0.60969516   -2.7643394   -2.7643394   -2.0330214  0.039422083   -2.7643394   0.73131796   424551 
 3197000   0.60971241   -2.7639613   -2.7639613   -2.0326226  0.036466836   -2.7639613   0.73133866   424551 
 3198000   0.61020052    -2.764351    -2.764351   -2.0324269  0.028599071    -2.764351   0.73192413   424551 
 3199000   0.61069511   -2.7648174   -2.7648174      -2.0323  0.038336357   -2.7648174   0.73251738   424551 
 3200000   0.61073052   -2.7651681   -2.7651681   -2.0326083  0.033411038   -2.7651681   0.73255986   424551 
 3201000   0.61153992   -2.7661842   -2.7661842   -2.0326535  0.047201939   -2.7661842   0.73353072   424551 
 3202000   0.61093937   -2.7651943   -2.7651943    -2.032384  0.045258398   -2.7651943   0.73281037   424551 
 3203000   0.61144999   -2.7665771   -2.7665771   -2.0331542  0.034262522   -2.7665771   0.73342286   424551 
 3204000   0.61180426   -2.7660851   -2.7660851   -2.0322373   0.04389483   -2.7660851   0.73384779   424551 
 3205000   0.61149174    -2.766082    -2.766082   -2.0326091  0.036700501    -2.766082   0.73347292   424551 
 3206000    0.6103442   -2.7649296   -2.7649296   -2.0328331  0.032872618   -2.7649296   0.73209648   424551 
 3207000   0.61002294   -2.7654617   -2.7654617   -2.0337506  0.041725074   -2.7654617   0.73171113   424551 
 3208000   0.61039231   -2.7656507   -2.7656507   -2.0334966  0.031766271   -2.7656507   0.73215418   424551 
 3209000   0.61025199   -2.7657687   -2.7657687   -2.0337828  0.029197677   -2.7657687   0.73198588   424551 
 3210000   0.60989745   -2.7652101   -2.7652101   -2.0336494   0.04058758   -2.7652101   0.73156061   424551 
 3211000   0.61017672   -2.7662957   -2.7662957   -2.0344001  0.037297941   -2.7662957   0.73189559   424551 
 3212000   0.60939061   -2.7650895   -2.7650895   -2.0341368  0.026955024   -2.7650895   0.73095266   424551 
 3213000   0.61051876   -2.7654762   -2.7654762   -2.0331704  0.037931355   -2.7654762   0.73230586   424551 
 3214000    0.6099407   -2.7653022   -2.7653022   -2.0336897  0.040561148   -2.7653022   0.73161249   424551 
 3215000   0.60998638   -2.7649569   -2.7649569   -2.0332896  0.037486404   -2.7649569   0.73166727   424551 
 3216000   0.61035056   -2.7652677   -2.7652677   -2.0331636  0.037279769   -2.7652677   0.73210411   424551 
 3217000    0.6099244   -2.7646209   -2.7646209   -2.0330279  0.037118078   -2.7646209   0.73159293   424551 
 3218000   0.60935336   -2.7640291   -2.7640291   -2.0331211  0.032529687   -2.7640291   0.73090798   424551 
 3219000   0.61038325    -2.765507    -2.765507   -2.0333637  0.038837677    -2.765507   0.73214331   424551 
 3220000   0.61017348   -2.7655841   -2.7655841   -2.0336924  0.039382059   -2.7655841    0.7318917   424551 
 3221000   0.60983732   -2.7653828   -2.7653828   -2.0338943  0.034486021   -2.7653828   0.73148848   424551 
 3222000   0.61103735   -2.7666847   -2.7666847   -2.0337568  0.038444901   -2.7666847    0.7329279   424551 
 3223000   0.61071764   -2.7662261   -2.7662261   -2.0336817  0.035382739   -2.7662261   0.73254441   424551 
 3224000   0.61003234   -2.7652162   -2.7652162   -2.0334938  0.040584712   -2.7652162   0.73172241   424551 
 3225000   0.60961193   -2.7654993   -2.7654993   -2.0342812  0.032545273   -2.7654993   0.73121813   424551 
 3226000   0.60985994   -2.7654856   -2.7654856     -2.03397  0.040313122   -2.7654856   0.73151562   424551 
 3227000   0.61002676   -2.7659613   -2.7659613   -2.0342456  0.040659704   -2.7659613   0.73171571   424551 
 3228000   0.60945951   -2.7663027   -2.7663027   -2.0352674  0.032860649   -2.7663027   0.73103531   424551 
 3229000   0.61054563   -2.7667939   -2.7667939   -2.0344558  0.041610428   -2.7667939   0.73233808   424551 
 3230000   0.61075577   -2.7670529   -2.7670529   -2.0344628  0.037898454   -2.7670529   0.73259014   424551 
 3231000   0.61062114   -2.7666789   -2.7666789   -2.0342503  0.042196342   -2.7666789   0.73242866   424551 
 3232000   0.60994505   -2.7659918   -2.7659918   -2.0343741  0.032846322   -2.7659918    0.7316177   424551 
 3233000   0.61105881   -2.7667497   -2.7667497   -2.0337961  0.033214184   -2.7667497   0.73295364   424551 
 3234000   0.60985966   -2.7657201   -2.7657201   -2.0342048  0.031187312   -2.7657201   0.73151528   424551 
 3235000   0.60968315    -2.766526    -2.766526   -2.0352224  0.027354281    -2.766526   0.73130356   424551 
 3236000   0.61009924   -2.7663198   -2.7663198   -2.0345172  0.036722523   -2.7663198   0.73180265   424551 
 3237000   0.60963251   -2.7660371   -2.7660371   -2.0347943  0.043721324   -2.7660371   0.73124282   424551 
 3238000   0.60960997   -2.7657786   -2.7657786   -2.0345628  0.044921394   -2.7657786   0.73121578   424551 
 3239000   0.61030759    -2.766479    -2.766479   -2.0344265  0.036503575    -2.766479   0.73205256   424551 
 3240000   0.60986793   -2.7657916   -2.7657916   -2.0342664  0.047607895   -2.7657916   0.73152519   424551 
 3241000   0.61149181   -2.7672579   -2.7672579   -2.0337849  0.038973567   -2.7672579   0.73347301   424551 
 3242000   0.61088982   -2.7675049   -2.7675049   -2.0347539  0.037309813   -2.7675049   0.73275093   424551 
 3243000   0.61147596   -2.7680016   -2.7680016   -2.0345476  0.045480072   -2.7680016     0.733454   424551 
 3244000   0.61124782   -2.7679209   -2.7679209   -2.0347405  0.040504028   -2.7679209   0.73318035   424551 
 3245000   0.61048259   -2.7671152   -2.7671152   -2.0348527  0.039388108   -2.7671152   0.73226247   424551 
 3246000   0.61018727   -2.7673218   -2.7673218   -2.0354136  0.034510539   -2.7673218   0.73190825   424551 
 3247000   0.61058962     -2.76736     -2.76736   -2.0349691  0.036948394     -2.76736   0.73239085   424551 
 3248000    0.6113516   -2.7684014   -2.7684014   -2.0350965  0.028822997   -2.7684014   0.73330484   424551 
 3249000   0.60982432   -2.7664162   -2.7664162   -2.0349433  0.033434792   -2.7664162   0.73147289   424551 
 3250000   0.60966993   -2.7665985   -2.7665985   -2.0353108  0.036179373   -2.7665985    0.7312877   424551 
 3251000   0.61031483   -2.7679998   -2.7679998   -2.0359386  0.042173966   -2.7679998   0.73206125   424551 
 3252000   0.60924441   -2.7670035   -2.7670035   -2.0362262  0.039846655   -2.7670035    0.7307773   424551 
 3253000    0.6118106   -2.7699702   -2.7699702   -2.0361148  0.031511273   -2.7699702    0.7338554   424551 
 3254000   0.61028701   -2.7682495   -2.7682495   -2.0362216  0.038176509   -2.7682495   0.73202788   424551 
 3255000   0.61136482   -2.7697275   -2.7697275   -2.0364068   0.04644888   -2.7697275   0.73332069   424551 
 3256000   0.61110232   -2.7692283   -2.7692283   -2.0362225  0.050375702   -2.7692283   0.73300583   424551 
 3257000   0.61128365   -2.7691383   -2.7691383    -2.035915  0.040910102   -2.7691383   0.73322333   424551 
 3258000   0.61076486   -2.7681904   -2.7681904   -2.0355894  0.046968524   -2.7681904   0.73260105   424551 
 3259000   0.61128093   -2.7685631   -2.7685631    -2.035343  0.029732071   -2.7685631   0.73322006   424551 
 3260000   0.61062813     -2.76794     -2.76794    -2.035503  0.042516757     -2.76794   0.73243704   424551 
 3261000   0.61046758   -2.7678988   -2.7678988   -2.0356543  0.040891513   -2.7678988   0.73224447   424551 
 3262000   0.61103858   -2.7687687   -2.7687687   -2.0358393   0.03752146   -2.7687687   0.73292937   424551 
 3263000   0.60995371   -2.7677219   -2.7677219   -2.0360938  0.032804556   -2.7677219   0.73162809   424551 
 3264000   0.60992595   -2.7677519   -2.7677519   -2.0361571  0.031715359   -2.7677519    0.7315948   424551 
 3265000   0.60874646   -2.7660283   -2.7660283   -2.0358483  0.033098541   -2.7660283   0.73018001   424551 
 3266000   0.60928559   -2.7670895   -2.7670895   -2.0362628  0.034991488   -2.7670895    0.7308267   424551 
 3267000   0.60947633   -2.7670258   -2.7670258   -2.0359703  0.036323394   -2.7670258   0.73105548   424551 
 3268000   0.61059802   -2.7686078   -2.7686078   -2.0362068  0.038493621   -2.7686078   0.73240093   424551 
 3269000   0.60969292    -2.766964    -2.766964   -2.0356488  0.041911562    -2.766964   0.73131528   424551 
 3270000   0.61032639   -2.7683464   -2.7683464   -2.0362713  0.046386304   -2.7683464   0.73207512   424551 
 3271000   0.61036628   -2.7683285   -2.7683285   -2.0362055  0.039539737   -2.7683285   0.73212296   424551 
 3272000   0.61106422   -2.7679831   -2.7679831    -2.035023  0.039106436   -2.7679831   0.73296013   424551 
 3273000   0.61063955   -2.7676885   -2.7676885   -2.0352378   0.04309705   -2.7676885   0.73245074   424551 
 3274000   0.61049173   -2.7681642   -2.7681642   -2.0358908  0.042176444   -2.7681642   0.73227343   424551 
 3275000   0.61216665   -2.7707703   -2.7707703   -2.0364879  0.040433537   -2.7707703   0.73428247   424551 
 3276000   0.61133344   -2.7694392   -2.7694392   -2.0361561  0.047044609   -2.7694392   0.73328306   424551 
 3277000   0.61174394   -2.7694192   -2.7694192   -2.0356438  0.027619376   -2.7694192   0.73377544   424551 
 3278000    0.6116216   -2.7698792   -2.7698792   -2.0362505  0.039465338   -2.7698792    0.7336287   424551 
 3279000    0.6112209   -2.7700614   -2.7700614   -2.0369133  0.032898074   -2.7700614   0.73314807   424551 
 3280000    0.6100082     -2.76853     -2.76853   -2.0368366  0.045703148     -2.76853   0.73169345   424551 
 3281000   0.61080977   -2.7701564   -2.7701564   -2.0375015  0.046410758   -2.7701564   0.73265492   424551 
 3282000   0.61081561   -2.7698719   -2.7698719     -2.03721  0.041945434   -2.7698719   0.73266192   424551 
 3283000   0.61121497   -2.7705996   -2.7705996   -2.0374587  0.039303112   -2.7705996   0.73314095   424551 
 3284000   0.60962388   -2.7690149   -2.7690149   -2.0377824  0.044730857   -2.7690149   0.73123246   424551 
 3285000   0.60902791   -2.7683562   -2.7683562   -2.0378386  0.034823353   -2.7683562   0.73051761   424551 
 3286000   0.61051841   -2.7694798   -2.7694798   -2.0371743  0.037355898   -2.7694798   0.73230544   424551 
 3287000   0.61020408   -2.7695475   -2.7695475   -2.0376191  0.039445464   -2.7695475   0.73192841   424551 
 3288000   0.61085245   -2.7688672   -2.7688672   -2.0361611  0.032747185   -2.7688672   0.73270611   424551 
 3289000   0.60951183   -2.7677736   -2.7677736   -2.0366755  0.036480023   -2.7677736   0.73109806   424551 
 3290000   0.61000716   -2.7681925   -2.7681925   -2.0365003  0.035016493   -2.7681925   0.73169221   424551 
 3291000   0.61016353   -2.7671319   -2.7671319   -2.0352521   0.03342011   -2.7671319   0.73187976   424551 
 3292000    0.6097205   -2.7683991   -2.7683991   -2.0370507  0.030858942   -2.7683991   0.73134836   424551 
 3293000   0.61068005   -2.7694781   -2.7694781   -2.0369788  0.035610952   -2.7694781   0.73249932   424551 
 3294000   0.60930502   -2.7673118   -2.7673118   -2.0364618  0.033521764   -2.7673118      0.73085   424551 
 3295000   0.61051696   -2.7684634   -2.7684634   -2.0361597   0.03408171   -2.7684634    0.7323037   424551 
 3296000   0.61025496   -2.7680764   -2.7680764   -2.0360869  0.038144052   -2.7680764   0.73198943   424551 
 3297000   0.60999224   -2.7676916   -2.7676916   -2.0360173  0.033881901   -2.7676916   0.73167431   424551 
 3298000   0.60998172    -2.768167    -2.768167   -2.0365053  0.027458464    -2.768167   0.73166168   424551 
 3299000   0.61090401   -2.7698726   -2.7698726   -2.0371046  0.032508817   -2.7698726   0.73276796   424551 
 3300000   0.61067804   -2.7690134   -2.7690134   -2.0365165  0.033083978   -2.7690134   0.73249691   424551 
 3301000   0.61097468   -2.7697115   -2.7697115   -2.0368588  0.036374436   -2.7697115   0.73285272   424551 
 3302000   0.61085975   -2.7692106   -2.7692106   -2.0364957  0.038992287   -2.7692106   0.73271486   424551 
 3303000   0.60983037   -2.7681234   -2.7681234   -2.0366432  0.037552853   -2.7681234   0.73148014   424551 
 3304000   0.60955685   -2.7676684   -2.7676684   -2.0365164  0.034436087   -2.7676684   0.73115207   424551 
 3305000   0.61084785   -2.7692561   -2.7692561   -2.0365555  0.034856064   -2.7692561    0.7327006   424551 
 3306000   0.60908187   -2.7674702   -2.7674702   -2.0368878  0.038280278   -2.7674702   0.73058233   424551 
 3307000   0.60923071   -2.7686524   -2.7686524   -2.0378915  0.031012928   -2.7686524   0.73076087   424551 
 3308000   0.60946041   -2.7689693   -2.7689693   -2.0379329  0.032667507   -2.7689693   0.73103638   424551 
 3309000   0.60947364   -2.7688853   -2.7688853    -2.037833  0.033571396   -2.7688853   0.73105225   424551 
 3310000   0.60970872   -2.7688983   -2.7688983    -2.037564  0.036988355   -2.7688983   0.73133423   424551 
 3311000   0.60963825   -2.7687943   -2.7687943   -2.0375446  0.045913462   -2.7687943   0.73124971   424551 
 3312000   0.60987475   -2.7687977   -2.7687977   -2.0372643  0.032788376   -2.7687977   0.73153338   424551 
 3313000   0.61080694   -2.7705044   -2.7705044   -2.0378529  0.042633928   -2.7705044   0.73265152   424551 
 3314000   0.61059755     -2.76982     -2.76982   -2.0374197  0.025677416     -2.76982   0.73240037   424551 
 3315000   0.61023321   -2.7691878   -2.7691878   -2.0372244  0.035044624   -2.7691878   0.73196335   424551 
 3316000   0.61163984   -2.7709357   -2.7709357   -2.0372851  0.032722325   -2.7709357   0.73365057   424551 
 3317000   0.61100623   -2.7691677   -2.7691677   -2.0362771  0.026261724   -2.7691677   0.73289057   424551 
 3318000    0.6115874   -2.7696098   -2.7696098   -2.0360221  0.036423416   -2.7696098   0.73358768   424551 
 3319000   0.61062772   -2.7682682   -2.7682682   -2.0358316  0.037611323   -2.7682682   0.73243655   424551 
 3320000   0.61007048   -2.7683405   -2.7683405   -2.0365723  0.046233778   -2.7683405   0.73176815   424551 
 3321000   0.61117008   -2.7696833   -2.7696833   -2.0365962  0.035488061   -2.7696833   0.73308711   424551 
 3322000   0.61084064   -2.7703624   -2.7703624   -2.0376705   0.03823593   -2.7703624   0.73269195   424551 
 3323000   0.61005388   -2.7698764   -2.7698764   -2.0381281  0.038577606   -2.7698764   0.73174824   424551 
 3324000   0.60886716   -2.7686055   -2.7686055   -2.0382807  0.026638167   -2.7686055   0.73032479   424551 
 3325000   0.60976149   -2.7695221   -2.7695221   -2.0381246  0.034054424   -2.7695221   0.73139753   424551 
 3326000   0.61077932     -2.77006     -2.77006   -2.0374416  0.043347977     -2.77006    0.7326184   424551 
 3327000   0.61072372   -2.7702967   -2.7702967    -2.037745  0.037454178   -2.7702967    0.7325517   424551 
 3328000   0.61042216   -2.7705525   -2.7705525   -2.0383625  0.038397632   -2.7705525   0.73218999   424551 
 3329000   0.60867465   -2.7685474   -2.7685474   -2.0384535   0.04081615   -2.7685474   0.73009388   424551 
 3330000   0.60984397   -2.7697114   -2.7697114    -2.038215  0.040718379   -2.7697114   0.73149646   424551 
 3331000   0.60994461   -2.7695856   -2.7695856   -2.0379685   0.03230045   -2.7695856   0.73161717   424551 
 3332000   0.61025265   -2.7696427   -2.7696427   -2.0376561  0.044164989   -2.7696427   0.73198666   424551 
 3333000   0.60968955   -2.7692984   -2.7692984   -2.0379872  0.037644051   -2.7692984   0.73131124   424551 
 3334000   0.60998947   -2.7691073   -2.7691073   -2.0374363  0.030372105   -2.7691073   0.73167099   424551 
 3335000   0.61070181   -2.7705345   -2.7705345   -2.0380091  0.046343655   -2.7705345   0.73252542   424551 
 3336000   0.61048977    -2.769391    -2.769391   -2.0371199  0.044510438    -2.769391   0.73227109   424551 
 3337000   0.61122151   -2.7707746   -2.7707746   -2.0376258   0.04140861   -2.7707746   0.73314879   424551 
 3338000   0.60932022   -2.7687611   -2.7687611   -2.0378929  0.035456704   -2.7687611   0.73086823   424551 
 3339000   0.60997427   -2.7692651   -2.7692651   -2.0376124  0.041038693   -2.7692651   0.73165276   424551 
 3340000   0.61018484   -2.7693421   -2.7693421   -2.0374368  0.033740767   -2.7693421   0.73190533   424551 
 3341000   0.61031084   -2.7700316   -2.7700316   -2.0379752  0.036114801   -2.7700316   0.73205646   424551 
 3342000   0.61026431   -2.7699337   -2.7699337   -2.0379331  0.037997187   -2.7699337   0.73200064   424551 
 3343000   0.60920803   -2.7692391   -2.7692391   -2.0385055  0.034003184   -2.7692391   0.73073366   424551 
 3344000    0.6085199   -2.7679964   -2.7679964   -2.0380881  0.042827516   -2.7679964   0.72990827   424551 
 3345000   0.60973428   -2.7691343   -2.7691343   -2.0377694  0.035358104   -2.7691343   0.73136489   424551 
 3346000   0.60996215   -2.7691723   -2.7691723    -2.037534  0.037243197   -2.7691723   0.73163822   424551 
 3347000   0.61025824    -2.769165    -2.769165   -2.0371717  0.044180089    -2.769165   0.73199336   424551 
 3348000   0.60995894   -2.7690067   -2.7690067   -2.0373723  0.037453562   -2.7690067   0.73163436   424551 
 3349000   0.61070241    -2.770077    -2.770077   -2.0375508  0.028462234    -2.770077   0.73252614   424551 
 3350000   0.61084184   -2.7702501   -2.7702501   -2.0375567  0.033441921   -2.7702501   0.73269339   424551 
 3351000   0.61005011   -2.7693433   -2.7693433   -2.0375996   0.03940402   -2.7693433   0.73174372   424551 
 3352000   0.61030337   -2.7698572   -2.7698572   -2.0378097  0.035381998   -2.7698572    0.7320475   424551 
 3353000   0.60999191   -2.7694201   -2.7694201   -2.0377461  0.039099531   -2.7694201   0.73167392   424551 
 3354000   0.60958498   -2.7693802   -2.7693802   -2.0381944  0.049077912   -2.7693802   0.73118581   424551 
 3355000   0.61066747   -2.7700614   -2.7700614   -2.0375772  0.036571237   -2.7700614   0.73248423   424551 
 3356000    0.6112548   -2.7708327   -2.7708327    -2.037644  0.032661482   -2.7708327   0.73318872   424551 
 3357000   0.61030354   -2.7699523   -2.7699523   -2.0379046  0.032825016   -2.7699523   0.73204771   424551 
 3358000   0.60948913   -2.7688513   -2.7688513   -2.0377804  0.038842831   -2.7688513   0.73107083   424551 
 3359000   0.60996669   -2.7698167   -2.7698167    -2.038173  0.031578487   -2.7698167   0.73164366   424551 
 3360000   0.61017817   -2.7703761   -2.7703761   -2.0384788  0.036249074   -2.7703761   0.73189733   424551 
 3361000   0.60999528   -2.7705202   -2.7705202   -2.0388422  0.044880503   -2.7705202   0.73167795   424551 
 3362000   0.60996776   -2.7705785   -2.7705785   -2.0389335  0.044389253   -2.7705785   0.73164495   424551 
 3363000   0.61132902   -2.7712699   -2.7712699   -2.0379921  0.040798002   -2.7712699   0.73327775   424551 
 3364000   0.61000315   -2.7697076   -2.7697076   -2.0380202  0.032433369   -2.7697076    0.7316874   424551 
 3365000   0.61096748   -2.7706883   -2.7706883   -2.0378442  0.045925952   -2.7706883   0.73284409   424551 
 3366000   0.61051838   -2.7702902   -2.7702902   -2.0379848  0.037317761   -2.7702902    0.7323054   424551 
 3367000   0.60997982   -2.7697788   -2.7697788   -2.0381194  0.034533519   -2.7697788   0.73165941   424551 
 3368000   0.60853104   -2.7681531   -2.7681531   -2.0382315  0.034127223   -2.7681531   0.72992162   424551 
 3369000   0.61040518   -2.7705095   -2.7705095   -2.0383398  0.038973312   -2.7705095   0.73216963   424551 
 3370000   0.61000178   -2.7700251   -2.7700251   -2.0383393  0.035774282   -2.7700251   0.73168575   424551 
 3371000   0.60950081   -2.7700545   -2.7700545   -2.0389696  0.038274663   -2.7700545   0.73108485   424551 
 3372000   0.61034831   -2.7714484   -2.7714484    -2.039347  0.036306452   -2.7714484    0.7321014   424551 
 3373000    0.6094351   -2.7701754   -2.7701754   -2.0391693  0.041342026   -2.7701754   0.73100603   424551 
 3374000   0.61021726   -2.7710388   -2.7710388   -2.0390946  0.037970886   -2.7710388   0.73194421   424551 
 3375000   0.61094899   -2.7720416   -2.7720416   -2.0392197  0.048955728   -2.7720416   0.73282191   424551 
 3376000   0.60991373   -2.7707662   -2.7707662    -2.039186   0.03450094   -2.7707662   0.73158014   424551 
 3377000   0.60930002   -2.7704293   -2.7704293   -2.0395853  0.036302793   -2.7704293   0.73084401   424551 
 3378000   0.61052005   -2.7719675   -2.7719675     -2.03966  0.040245744   -2.7719675   0.73230741   424551 
 3379000    0.6106583   -2.7730018   -2.7730018   -2.0405286  0.035731056   -2.7730018   0.73247323   424551 
 3380000   0.61021195   -2.7725408   -2.7725408    -2.040603  0.030238618   -2.7725408   0.73193784   424551 
 3381000   0.61002835   -2.7719108   -2.7719108   -2.0401932  0.040256657   -2.7719108   0.73171762   424551 
 3382000   0.61042607   -2.7728867   -2.7728867    -2.040692    0.0320053   -2.7728867   0.73219468   424551 
 3383000   0.60912175   -2.7714177   -2.7714177   -2.0407876  0.038497264   -2.7714177   0.73063017   424551 
 3384000   0.61096008   -2.7735049   -2.7735049   -2.0406697  0.033391437   -2.7735049   0.73283521   424551 
 3385000   0.60980273   -2.7718292   -2.7718292   -2.0403822  0.041135417   -2.7718292   0.73144699   424551 
 3386000     0.608456   -2.7702781   -2.7702781   -2.0404464   0.04144056   -2.7702781   0.72983161   424551 
 3387000   0.61054239    -2.772648    -2.772648   -2.0403138   0.04159335    -2.772648    0.7323342   424551 
 3388000   0.61035368   -2.7721144   -2.7721144   -2.0400065  0.042032568   -2.7721144   0.73210785   424551 
 3389000    0.6097851   -2.7720255   -2.7720255   -2.0405996  0.041532361   -2.7720255   0.73142585   424551 
 3390000   0.61027633   -2.7719639   -2.7719639   -2.0399488  0.043250312   -2.7719639   0.73201506   424551 
 3391000   0.60998228   -2.7717899   -2.7717899   -2.0401275  0.034027209   -2.7717899   0.73166235   424551 
 3392000   0.61024677   -2.7719508   -2.7719508   -2.0399711  0.027021884   -2.7719508   0.73197961   424551 
 3393000   0.60972011   -2.7715757   -2.7715757   -2.0402278  0.044072351   -2.7715757   0.73134789   424551 
 3394000    0.6098618   -2.7718137   -2.7718137   -2.0402959  0.036849503   -2.7718137   0.73151785   424551 
 3395000   0.60963391    -2.771072    -2.771072   -2.0398275  0.036544891    -2.771072    0.7312445   424551 
 3396000   0.60995236   -2.7720855   -2.7720855   -2.0404591   0.03030622   -2.7720855   0.73162647   424551 
 3397000    0.6089877   -2.7710162   -2.7710162   -2.0405469  0.038770877   -2.7710162   0.73046937   424551 
 3398000   0.60892908   -2.7711968   -2.7711968   -2.0407977  0.028612832   -2.7711968   0.73039907   424551 
 3399000   0.60974602   -2.7722885   -2.7722885   -2.0409095  0.037787943   -2.7722885   0.73137896   424551 
 3400000   0.60939073   -2.7721273   -2.7721273   -2.0411745  0.031928507   -2.7721273   0.73095281   424551 
 3401000   0.60973835   -2.7723482   -2.7723482   -2.0409784  0.039829356   -2.7723482   0.73136978   424551 
 3402000   0.61054408   -2.7734561   -2.7734561   -2.0411199  0.044896765   -2.7734561   0.73233622   424551 
 3403000   0.61091826   -2.7730959   -2.7730959   -2.0403108  0.035827472   -2.7730959   0.73278505   424551 
 3404000   0.61019217   -2.7726654   -2.7726654   -2.0407513  0.040009944   -2.7726654   0.73191411   424551 
 3405000   0.61026512   -2.7725627   -2.7725627   -2.0405611  0.038709294   -2.7725627   0.73200162   424551 
 3406000   0.60941683   -2.7713291   -2.7713291    -2.040345  0.035595917   -2.7713291   0.73098412   424551 
 3407000   0.61045424   -2.7731702   -2.7731702   -2.0409418  0.035154354   -2.7731702   0.73222847   424551 
 3408000    0.6098206    -2.772128    -2.772128   -2.0406596  0.035140487    -2.772128   0.73146843   424551 
 3409000   0.60907116   -2.7713498   -2.7713498   -2.0407803  0.041238864   -2.7713498   0.73056949   424551 
 3410000   0.61062779   -2.7734254   -2.7734254   -2.0409888   0.04017261   -2.7734254   0.73243664   424551 
 3411000   0.60881324   -2.7715673   -2.7715673   -2.0413072  0.037492474   -2.7715673   0.73026011   424551 
 3412000   0.60940794    -2.772353    -2.772353   -2.0413795  0.038361096    -2.772353   0.73097345   424551 
 3413000   0.60900133   -2.7721107   -2.7721107   -2.0416249  0.033601402   -2.7721107   0.73048573   424551 
 3414000   0.60929749   -2.7720921   -2.7720921   -2.0412511  0.030088976   -2.7720921   0.73084096   424551 
 3415000   0.61000969   -2.7721466   -2.7721466   -2.0404513  0.042875246   -2.7721466   0.73169524   424551 
 3416000   0.60896603   -2.7716374   -2.7716374    -2.041194  0.033529659   -2.7716374   0.73044339   424551 
 3417000   0.60940975   -2.7721438   -2.7721438   -2.0411682  0.042780367   -2.7721438   0.73097562   424551 
 3418000   0.61052009   -2.7743561   -2.7743561   -2.0420486  0.043278537   -2.7743561   0.73230745   424551 
 3419000   0.60953111   -2.7728529   -2.7728529   -2.0417317  0.046015933   -2.7728529   0.73112118   424551 
 3420000   0.61010899   -2.7736226   -2.7736226   -2.0418083  0.027660463   -2.7736226   0.73181435   424551 
 3421000   0.61000391     -2.77401     -2.77401   -2.0423217  0.045238264     -2.77401   0.73168831   424551 
 3422000   0.61054317   -2.7745763   -2.7745763   -2.0422411  0.032896066   -2.7745763   0.73233513   424551 
 3423000   0.60880534   -2.7725055   -2.7725055   -2.0422549   0.04078862   -2.7725055   0.73025064   424551 
 3424000   0.61005048   -2.7741676   -2.7741676   -2.0424234  0.035096093   -2.7741676   0.73174417   424551 
 3425000   0.60912459   -2.7731274   -2.7731274   -2.0424938  0.031078968   -2.7731274   0.73063358   424551 
 3426000     0.608788   -2.7728114   -2.7728114   -2.0425816  0.040666819   -2.7728114   0.73022984   424551 
 3427000   0.60863371   -2.7727318   -2.7727318   -2.0426871  0.041449491   -2.7727318   0.73004478   424551 
 3428000   0.60957943   -2.7744494   -2.7744494   -2.0432703  0.038671223   -2.7744494   0.73117915   424551 
 3429000   0.61002866   -2.7745233   -2.7745233   -2.0428053  0.044698671   -2.7745233     0.731718   424551 
 3430000   0.61019378   -2.7745312   -2.7745312   -2.0426151  0.038479577   -2.7745312   0.73191605   424551 
 3431000   0.60977018   -2.7732285   -2.7732285   -2.0418205  0.037945937   -2.7732285   0.73140795   424551 
 3432000   0.60915232   -2.7728725   -2.7728725   -2.0422056  0.045295269   -2.7728725   0.73066684   424551 
 3433000   0.60881726   -2.7726286   -2.7726286   -2.0423637  0.030622473   -2.7726286   0.73026494   424551 
 3434000    0.6098803   -2.7739783   -2.7739783   -2.0424383  0.028051995   -2.7739783   0.73154003   424551 
 3435000   0.61062054   -2.7744602   -2.7744602   -2.0420323  0.042350575   -2.7744602   0.73242794   424551 
 3436000   0.60899395   -2.7733408   -2.7733408    -2.042864  0.043270148   -2.7733408   0.73047687   424551 
 3437000   0.60798596   -2.7721505   -2.7721505   -2.0428827  0.039938703   -2.7721505   0.72926781   424551 
 3438000   0.60956981   -2.7746633   -2.7746633   -2.0434957  0.039119689   -2.7746633    0.7311676   424551 
 3439000   0.60873479   -2.7732033   -2.7732033   -2.0430372  0.034164887   -2.7732033   0.73016602   424551 
 3440000   0.60855282   -2.7728779   -2.7728779   -2.0429301  0.035547178   -2.7728779   0.72994775   424551 
 3441000   0.60974971   -2.7732954   -2.7732954    -2.041912  0.036399505   -2.7732954   0.73138339   424551 
 3442000   0.61040249   -2.7746866   -2.7746866   -2.0425202  0.036659464   -2.7746866   0.73216639   424551 
 3443000   0.60991573   -2.7736471   -2.7736471   -2.0420646  0.037974081   -2.7736471   0.73158254   424551 
 3444000   0.60935897   -2.7723524   -2.7723524   -2.0414377   0.04126395   -2.7723524   0.73091472   424551 
 3445000   0.61007161   -2.7735668   -2.7735668   -2.0417973  0.034476612   -2.7735668   0.73176951   424551 
 3446000   0.60883172    -2.771866    -2.771866   -2.0415837  0.035401817    -2.771866   0.73028229   424551 
 3447000   0.60900805   -2.7721795   -2.7721795   -2.0416857  0.038470357   -2.7721795   0.73049378   424551 
 3448000   0.60925764   -2.7733677   -2.7733677   -2.0425745  0.037650903   -2.7733677   0.73079316   424551 
 3449000   0.61145805   -2.7761626   -2.7761626   -2.0427301  0.036311258   -2.7761626   0.73343252   424551 
 3450000   0.60899786   -2.7736731   -2.7736731   -2.0431916  0.035857651   -2.7736731   0.73048157   424551 
 3451000   0.60933773   -2.7741924   -2.7741924   -2.0433032   0.04014141   -2.7741924   0.73088923   424551 
 3452000   0.60955434   -2.7742741   -2.7742741    -2.043125  0.029600131   -2.7742741   0.73114906   424551 
 3453000   0.61115775   -2.7759716   -2.7759716   -2.0428993  0.038555003   -2.7759716   0.73307231   424551 
 3454000   0.60981812   -2.7743197   -2.7743197   -2.0428542  0.036737312   -2.7743197   0.73146545   424551 
 3455000   0.61050989   -2.7751669   -2.7751669   -2.0428717  0.042919206   -2.7751669   0.73229521   424551 
 3456000   0.60920077   -2.7736187   -2.7736187   -2.0428938  0.037132374   -2.7736187   0.73072495   424551 
 3457000   0.60955493   -2.7736605   -2.7736605   -2.0425108  0.032369239   -2.7736605   0.73114976   424551 
 3458000   0.61046431   -2.7743622   -2.7743622   -2.0421217  0.035113729   -2.7743622   0.73224055   424551 
 3459000   0.61069429   -2.7748199   -2.7748199   -2.0423035  0.046073928   -2.7748199    0.7325164   424551 
 3460000   0.60978876   -2.7740218   -2.7740218   -2.0425915  0.043023421   -2.7740218   0.73143024   424551 
 3461000   0.60922391   -2.7737444   -2.7737444   -2.0429917  0.036944043   -2.7737444   0.73075271   424551 
 3462000   0.60982045   -2.7746231   -2.7746231   -2.0431548  0.034878077   -2.7746231   0.73146825   424551 
 3463000   0.60896917   -2.7732708   -2.7732708   -2.0428236  0.038250027   -2.7732708   0.73044716   424551 
 3464000   0.60915981   -2.7732868   -2.7732868    -2.042611   0.03697698   -2.7732868   0.73067582   424551 
 3465000   0.60865638   -2.7719962   -2.7719962   -2.0419243  0.035052149   -2.7719962   0.73007197   424551 
 3466000   0.60902274   -2.7729143   -2.7729143   -2.0424029  0.035173199   -2.7729143   0.73051141   424551 
 3467000   0.60896878    -2.773465    -2.773465   -2.0430184  0.023994436    -2.773465   0.73044668   424551 
 3468000    0.6080878   -2.7725821   -2.7725821   -2.0431921  0.039506631   -2.7725821   0.72938997   424551 
 3469000   0.60955836   -2.7743402   -2.7743402   -2.0431863  0.032878499   -2.7743402   0.73115387   424551 
 3470000   0.60919673   -2.7737568   -2.7737568   -2.0430367  0.035939296   -2.7737568    0.7307201   424551 
 3471000   0.60901502   -2.7731157   -2.7731157   -2.0426135  0.038962593   -2.7731157   0.73050215   424551 
 3472000   0.60997796   -2.7740215   -2.7740215   -2.0423643  0.037568451   -2.7740215   0.73165717   424551 
 3473000   0.60973543   -2.7742862   -2.7742862   -2.0429199  0.040488982   -2.7742862   0.73136626   424551 
 3474000   0.60989275   -2.7737146   -2.7737146   -2.0421597  0.038143878   -2.7737146   0.73155497   424551 
 3475000   0.61032582   -2.7752171   -2.7752171   -2.0431427  0.031043208   -2.7752171   0.73207443   424551 
 3476000    0.6098326   -2.7749478   -2.7749478    -2.043465  0.034504582   -2.7749478   0.73148283   424551 
 3477000   0.60948785   -2.7748859   -2.7748859   -2.0438166  0.037482895   -2.7748859    0.7310693   424551 
 3478000   0.60977574   -2.7749794   -2.7749794   -2.0435647  0.043009706   -2.7749794   0.73141461   424551 
 3479000   0.60977933   -2.7753735   -2.7753735   -2.0439546  0.033761067   -2.7753735   0.73141893   424551 
 3480000   0.60976712   -2.7756133   -2.7756133    -2.044209  0.038041354   -2.7756133   0.73140428   424551 
 3481000   0.60992693   -2.7758362   -2.7758362   -2.0442402   0.04996603   -2.7758362   0.73159597   424551 
 3482000   0.60987043   -2.7759139   -2.7759139   -2.0443857  0.030246482   -2.7759139   0.73152819   424551 
 3483000   0.60924556   -2.7754301   -2.7754301   -2.0446514  0.028295182   -2.7754301   0.73077868   424551 
 3484000    0.6099767   -2.7746756   -2.7746756   -2.0430199  0.044159976   -2.7746756   0.73165566   424551 
 3485000   0.60986514   -2.7745656   -2.7745656   -2.0430437  0.033393458   -2.7745656   0.73152185   424551 
 3486000   0.61049776   -2.7758152   -2.7758152   -2.0435346  0.037983588   -2.7758152   0.73228067   424551 
 3487000    0.6087155   -2.7742486   -2.7742486   -2.0441057    0.0420943   -2.7742486   0.73014288   424551 
 3488000   0.60869582   -2.7745944   -2.7745944   -2.0444751  0.040822803   -2.7745944   0.73011927   424551 
 3489000    0.6092873   -2.7751269   -2.7751269   -2.0442982  0.035749492   -2.7751269   0.73082874   424551 
 3490000    0.6089248   -2.7747922   -2.7747922   -2.0443983  0.032084833   -2.7747922   0.73039393   424551 
 3491000   0.60950168    -2.774851    -2.774851   -2.0437651  0.043203474    -2.774851   0.73108589   424551 
 3492000   0.60971365   -2.7756649   -2.7756649   -2.0443247  0.035987464   -2.7756649   0.73134015   424551 
 3493000   0.60834178   -2.7727574   -2.7727574   -2.0430628  0.025405469   -2.7727574   0.72969461   424551 
 3494000   0.60930504   -2.7741431   -2.7741431   -2.0432931  0.035939141   -2.7741431   0.73085002   424551 
 3495000   0.60895652   -2.7745247   -2.7745247   -2.0440927  0.032233818   -2.7745247   0.73043198   424551 
 3496000   0.60918878   -2.7743966   -2.7743966    -2.043686  0.045700003   -2.7743966   0.73071057   424551 
 3497000   0.60880527    -2.774292    -2.774292   -2.0440414  0.032776816    -2.774292   0.73025056   424551 
 3498000   0.61016877   -2.7758715   -2.7758715   -2.0439854  0.026028958   -2.7758715   0.73188606   424551 
 3499000   0.60958065   -2.7752546   -2.7752546    -2.044074  0.040449948   -2.7752546   0.73118061   424551 
 3500000   0.60873531   -2.7755009   -2.7755009   -2.0453342  0.043353403   -2.7755009   0.73016664   424551 
 3501000   0.60955374    -2.776223    -2.776223   -2.0450747  0.027059969    -2.776223   0.73114833   424551 
 3502000   0.60970566   -2.7760251   -2.7760251   -2.0446945  0.041686898   -2.7760251   0.73133056   424551 
 3503000   0.60993254   -2.7759845   -2.7759845   -2.0443818  0.038181257   -2.7759845    0.7316027   424551 
 3504000   0.61036181   -2.7769865   -2.7769865   -2.0448689   0.02688572   -2.7769865    0.7321176   424551 
 3505000   0.60956225    -2.776142    -2.776142   -2.0449835   0.03849936    -2.776142   0.73115855   424551 
 3506000   0.60973673   -2.7766837   -2.7766837   -2.0453159  0.033128161   -2.7766837   0.73136782   424551 
 3507000   0.60923009    -2.775538    -2.775538   -2.0447778   0.03110599    -2.775538   0.73076012   424551 
 3508000   0.60897605   -2.7764065   -2.7764065   -2.0459511  0.033700077   -2.7764065    0.7304554   424551 
 3509000   0.60888182   -2.7758958   -2.7758958   -2.0455534  0.030887666   -2.7758958   0.73034237   424551 
 3510000   0.60865944   -2.7758654   -2.7758654   -2.0457898  0.037052334   -2.7758654   0.73007564   424551 
 3511000   0.60957307   -2.7781252   -2.7781252   -2.0469537  0.035695061   -2.7781252   0.73117152   424551 
 3512000   0.60877965   -2.7771431   -2.7771431   -2.0469233  0.040779464   -2.7771431   0.73021983   424551 
 3513000     0.609755   -2.7778564   -2.7778564   -2.0464667  0.045509239   -2.7778564   0.73138974   424551 
 3514000   0.61051228   -2.7780998   -2.7780998   -2.0458017  0.033832972   -2.7780998   0.73229808   424551 
 3515000   0.60956763   -2.7770111   -2.7770111   -2.0458461  0.034260861   -2.7770111   0.73116499   424551 
 3516000   0.60938701   -2.7768507   -2.7768507   -2.0459023  0.047030027   -2.7768507   0.73094834   424551 
 3517000     0.608579   -2.7758934   -2.7758934   -2.0459143  0.034443056   -2.7758934   0.72997916   424551 
 3518000   0.60992746   -2.7774643   -2.7774643   -2.0458677  0.031095727   -2.7774643    0.7315966   424551 
 3519000   0.60960049   -2.7769448   -2.7769448   -2.0457404  0.038733029   -2.7769448   0.73120441   424551 
 3520000   0.60912922   -2.7772551   -2.7772551    -2.046616  0.036502572   -2.7772551   0.73063913   424551 
 3521000   0.60776249   -2.7759132   -2.7759132   -2.0469135  0.035746411   -2.7759132   0.72899976   424551 
 3522000   0.60944536   -2.7783192   -2.7783192   -2.0473008  0.039204222   -2.7783192   0.73101833   424551 
 3523000   0.60881298     -2.77768     -2.77768   -2.0474202  0.037375471     -2.77768   0.73025981   424551 
 3524000   0.60825094   -2.7775392   -2.7775392   -2.0479535  0.035282306   -2.7775392   0.72958565   424551 
 3525000   0.60944985   -2.7786155   -2.7786155   -2.0475918  0.038239832   -2.7786155   0.73102372   424551 
 3526000   0.60827372   -2.7768767   -2.7768767   -2.0472638  0.038528719   -2.7768767   0.72961298   424551 
 3527000   0.60891203   -2.7777516   -2.7777516   -2.0473729  0.035520732   -2.7777516   0.73037862   424551 
 3528000   0.60909465   -2.7782003   -2.7782003   -2.0476027  0.035634794   -2.7782003   0.73059767   424551 
 3529000   0.61037647   -2.7790709   -2.7790709   -2.0469357  0.038950251   -2.7790709   0.73213519   424551 
 3530000    0.6089889   -2.7781543   -2.7781543   -2.0476835   0.04015414   -2.7781543   0.73047082   424551 
 3531000   0.60837566    -2.776703    -2.776703   -2.0469677   0.04092052    -2.776703   0.72973525   424551 
 3532000   0.60942515   -2.7776698   -2.7776698   -2.0466757  0.039000106   -2.7776698   0.73099409   424551 
 3533000   0.60917293   -2.7774272   -2.7774272   -2.0467356  0.038086492   -2.7774272   0.73069155   424551 
 3534000   0.60963295   -2.7780343   -2.7780343    -2.046791  0.031346537   -2.7780343   0.73124335   424551 
 3535000   0.61005111   -2.7784229   -2.7784229    -2.046678  0.034700747   -2.7784229   0.73174492   424551 
 3536000   0.60825555   -2.7762936   -2.7762936   -2.0467024  0.041753932   -2.7762936   0.72959118   424551 
 3537000   0.60931293   -2.7774845   -2.7774845    -2.046625  0.036837773   -2.7774845   0.73085948   424551 
 3538000   0.60928002   -2.7772547   -2.7772547   -2.0464346  0.035900567   -2.7772547   0.73082002   424551 
 3539000   0.60941583   -2.7770271   -2.7770271   -2.0460442  0.034935013   -2.7770271   0.73098291   424551 
 3540000   0.60925129    -2.777301    -2.777301   -2.0465154  0.033492493    -2.777301   0.73078555   424551 
 3541000   0.60959744   -2.7781375   -2.7781375   -2.0469367  0.041999023   -2.7781375   0.73120075   424551 
 3542000   0.60977319   -2.7785306   -2.7785306    -2.047119  0.043703964   -2.7785306   0.73141157   424551 
 3543000   0.60889267   -2.7778534   -2.7778534    -2.047498   0.04597214   -2.7778534   0.73035539   424551 
 3544000   0.61014594    -2.778716    -2.778716   -2.0468573  0.037877373    -2.778716   0.73185867   424551 
 3545000   0.60890713   -2.7769115   -2.7769115   -2.0465387  0.031454286   -2.7769115   0.73037274   424551 
 3546000   0.60966935   -2.7781191   -2.7781191   -2.0468321  0.036211658   -2.7781191     0.731287   424551 
 3547000   0.60929392   -2.7784787   -2.7784787    -2.047642  0.040298137   -2.7784787   0.73083669   424551 
 3548000   0.60828896   -2.7776372   -2.7776372    -2.048006  0.041227751   -2.7776372   0.72963125   424551 
 3549000   0.60919169   -2.7787975   -2.7787975   -2.0480835  0.040927157   -2.7787975   0.73071406   424551 
 3550000   0.60779687   -2.7781024   -2.7781024   -2.0490614  0.036259859   -2.7781024     0.729041   424551 
 3551000   0.60853304   -2.7790755   -2.7790755   -2.0491515  0.037664089   -2.7790755   0.72992402   424551 
 3552000   0.60817341   -2.7781539   -2.7781539   -2.0486612  0.037597483   -2.7781539   0.72949265   424551 
 3553000   0.60729334    -2.778477    -2.778477     -2.05004  0.033437158    -2.778477   0.72843703   424551 
 3554000   0.60742735   -2.7774377   -2.7774377   -2.0488399  0.042539486   -2.7774377   0.72859777   424551 
 3555000   0.60888771   -2.7787072   -2.7787072   -2.0483577  0.035089869   -2.7787072   0.73034944   424551 
 3556000    0.6090554   -2.7795413   -2.7795413   -2.0489908  0.024790139   -2.7795413   0.73055058   424551 
 3557000    0.6091256   -2.7793992   -2.7793992   -2.0487644  0.031996539   -2.7793992   0.73063479   424551 
 3558000   0.60976655   -2.7801519   -2.7801519   -2.0487483  0.038891742   -2.7801519   0.73140359   424551 
 3559000   0.60822902   -2.7788754   -2.7788754    -2.049316  0.032499109   -2.7788754   0.72955936   424551 
 3560000   0.61061352   -2.7811003   -2.7811003   -2.0486808  0.035876733   -2.7811003   0.73241952   424551 
 3561000   0.61012652   -2.7801703   -2.7801703   -2.0483349  0.040565831   -2.7801703   0.73183537   424551 
 3562000   0.60910681   -2.7793168   -2.7793168   -2.0487045  0.036045971   -2.7793168   0.73061225   424551 
 3563000   0.60985364   -2.7803947   -2.7803947   -2.0488866  0.040148192   -2.7803947   0.73150806   424551 
 3564000   0.61059622   -2.7814503   -2.7814503   -2.0490516  0.042836564   -2.7814503   0.73239877   424551 
 3565000   0.60940498   -2.7799475   -2.7799475   -2.0489776  0.047084917   -2.7799475   0.73096989   424551 
 3566000   0.60960747   -2.7803279   -2.7803279   -2.0491151  0.042294299   -2.7803279   0.73121278   424551 
 3567000   0.60928524   -2.7802744   -2.7802744   -2.0494481  0.049012077   -2.7802744   0.73082627   424551 
 3568000   0.60845061   -2.7801829   -2.7801829   -2.0503577   0.04381537   -2.7801829   0.72982515   424551 
 3569000   0.60844109   -2.7803342   -2.7803342   -2.0505205  0.040304316   -2.7803342   0.72981374   424551 
 3570000   0.60879097    -2.781057    -2.781057   -2.0508236  0.039458928    -2.781057   0.73023341   424551 
 3571000   0.60816929   -2.7808152   -2.7808152   -2.0513275  0.037215877   -2.7808152   0.72948771   424551 
 3572000   0.60828483   -2.7807983   -2.7807983    -2.051172  0.038885801   -2.7807983    0.7296263   424551 
 3573000   0.60903961   -2.7819732   -2.7819732   -2.0514416  0.034866933   -2.7819732   0.73053164   424551 
 3574000   0.60933759   -2.7824383   -2.7824383   -2.0515492  0.031911188   -2.7824383   0.73088906   424551 
 3575000   0.60806771   -2.7807072   -2.7807072   -2.0513413  0.038456275   -2.7807072   0.72936587   424551 
 3576000   0.60908112   -2.7820813   -2.7820813   -2.0514999  0.039707405   -2.7820813   0.73058144   424551 
 3577000   0.60903846   -2.7814363   -2.7814363   -2.0509061  0.040925472   -2.7814363   0.73053026   424551 
 3578000   0.60890881   -2.7813234   -2.7813234   -2.0509487   0.03762353   -2.7813234   0.73037475   424551 
 3579000   0.60942277   -2.7825053   -2.7825053   -2.0515141  0.038053566   -2.7825053   0.73099123   424551 
 3580000   0.60947942   -2.7819428   -2.7819428   -2.0508836  0.034912287   -2.7819428   0.73105919   424551 
 3581000    0.6100618   -2.7829374   -2.7829374   -2.0511797  0.033158158   -2.7829374   0.73175774   424551 
 3582000   0.60923593    -2.781501    -2.781501   -2.0507339  0.040124585    -2.781501   0.73076713   424551 
 3583000    0.6087505   -2.7811883   -2.7811883   -2.0510034  0.036431521   -2.7811883   0.73018486   424551 
 3584000    0.6094698   -2.7810569   -2.7810569   -2.0500093  0.030615108   -2.7810569   0.73104765   424551 
 3585000   0.60854291   -2.7803654   -2.7803654   -2.0504295  0.032741157   -2.7803654   0.72993586   424551 
 3586000    0.6078582   -2.7799197   -2.7799197   -2.0508051  0.039357262   -2.7799197   0.72911457   424551 
 3587000   0.60979054   -2.7822255   -2.7822255   -2.0507932   0.04092311   -2.7822255   0.73143237   424551 
 3588000    0.6084892   -2.7799739   -2.7799739   -2.0501025  0.044681571   -2.7799739   0.72987144   424551 
 3589000   0.61003084   -2.7816943   -2.7816943   -2.0499737  0.038833688   -2.7816943   0.73172061   424551 
 3590000   0.61001863   -2.7814955   -2.7814955   -2.0497895  0.042735228   -2.7814955   0.73170596   424551 
 3591000   0.60820528   -2.7796814   -2.7796814   -2.0501505  0.049566551   -2.7796814   0.72953088   424551 
 3592000   0.60922341   -2.7805338   -2.7805338   -2.0497817  0.039680586   -2.7805338   0.73075211   424551 
 3593000    0.6096773   -2.7810045   -2.7810045    -2.049708  0.037922998   -2.7810045   0.73129654   424551 
 3594000   0.60948246   -2.7807901   -2.7807901   -2.0497273  0.032030353   -2.7807901   0.73106284   424551 
 3595000   0.60927671   -2.7801766   -2.7801766   -2.0493606  0.032588296   -2.7801766   0.73081604   424551 
 3596000   0.60940993   -2.7808904   -2.7808904   -2.0499146  0.044528194   -2.7808904   0.73097583   424551 
 3597000   0.60892098   -2.7799318   -2.7799318   -2.0495425  0.035921989   -2.7799318   0.73038934   424551 
 3598000   0.60879857   -2.7796144   -2.7796144   -2.0493718  0.033206973   -2.7796144   0.73024252   424551 
 3599000   0.60845215   -2.7795395   -2.7795395   -2.0497125  0.042649949   -2.7795395   0.72982699   424551 
 3600000   0.60794631   -2.7789407   -2.7789407   -2.0497205  0.039795353   -2.7789407   0.72922025   424551 
 3601000   0.60822443   -2.7788152   -2.7788152   -2.0492614  0.038342849   -2.7788152   0.72955385   424551 
 3602000    0.6077444   -2.7769842   -2.7769842   -2.0480061   0.03192761   -2.7769842   0.72897806   424551 
 3603000   0.60808376   -2.7775881   -2.7775881   -2.0482029  0.029018712   -2.7775881   0.72938512   424551 
 3604000   0.60831492   -2.7779405   -2.7779405   -2.0482781  0.038506457   -2.7779405    0.7296624   424551 
 3605000   0.60798254    -2.777709    -2.777709   -2.0484453  0.029788085    -2.777709    0.7292637   424551 
 3606000   0.60918201   -2.7781467   -2.7781467   -2.0474443  0.038549505   -2.7781467   0.73070245   424551 
 3607000   0.60875766     -2.77828     -2.77828   -2.0480866  0.036534689     -2.77828   0.73019345   424551 
 3608000   0.60818218   -2.7780145   -2.7780145   -2.0485114  0.037557027   -2.7780145   0.72950317   424551 
 3609000   0.60940403   -2.7794859   -2.7794859   -2.0485172  0.040369028   -2.7794859   0.73096876   424551 
 3610000   0.60952094   -2.7795428   -2.7795428   -2.0484338  0.035503765   -2.7795428   0.73110899   424551 
 3611000   0.60901707   -2.7791874   -2.7791874   -2.0486828  0.039215562   -2.7791874   0.73050461   424551 
 3612000   0.60974868    -2.779696    -2.779696   -2.0483138   0.03420915    -2.779696   0.73138216   424551 
 3613000   0.60974752   -2.7803214   -2.7803214   -2.0489406  0.038826231   -2.7803214   0.73138077   424551 
 3614000   0.60930983   -2.7803874   -2.7803874   -2.0495317   0.03306115   -2.7803874   0.73085577   424551 
 3615000    0.6083077   -2.7793813   -2.7793813   -2.0497276  0.030778411   -2.7793813   0.72965373   424551 
 3616000   0.60782954   -2.7793439   -2.7793439   -2.0502637  0.041124863   -2.7793439   0.72908019   424551 
 3617000   0.61004468   -2.7816921   -2.7816921   -2.0499549  0.036945379   -2.7816921    0.7317372   424551 
 3618000   0.61028963   -2.7811814   -2.7811814   -2.0491504  0.035671338   -2.7811814   0.73203101   424551 
 3619000   0.61097911   -2.7817539   -2.7817539   -2.0488959  0.034039031   -2.7817539   0.73285804   424551 
 3620000   0.60915356   -2.7797171   -2.7797171   -2.0490488  0.028440926   -2.7797171   0.73066833   424551 
 3621000   0.60837926   -2.7795851   -2.7795851   -2.0498455  0.027403534   -2.7795851   0.72973957   424551 
 3622000   0.60906079    -2.780669    -2.780669   -2.0501119   0.02860007    -2.780669   0.73055705   424551 
 3623000   0.60878297   -2.7805712   -2.7805712   -2.0503474  0.029360419   -2.7805712   0.73022381   424551 
 3624000    0.6081943    -2.780393    -2.780393   -2.0508753  0.039952296    -2.780393   0.72951771   424551 
 3625000   0.60957085   -2.7816101   -2.7816101   -2.0504413  0.033993004   -2.7816101   0.73116886   424551 
 3626000   0.60833046   -2.7804089   -2.7804089   -2.0507279  0.042428868   -2.7804089   0.72968103   424551 
 3627000   0.60816199   -2.7804247   -2.7804247   -2.0509457  0.038755284   -2.7804247   0.72947896   424551 
 3628000   0.60839582   -2.7804684   -2.7804684   -2.0507089  0.033840911   -2.7804684   0.72975943   424551 
 3629000   0.60915769   -2.7814687   -2.7814687   -2.0507954  0.029909924   -2.7814687   0.73067328   424551 
 3630000   0.60875201   -2.7811443   -2.7811443   -2.0509576  0.028286072   -2.7811443   0.73018668   424551 
 3631000   0.60896134   -2.7813068   -2.7813068   -2.0508691   0.04149377   -2.7813068   0.73043776   424551 
 3632000   0.60832892   -2.7809935   -2.7809935   -2.0513143  0.046437295   -2.7809935   0.72967918   424551 
 3633000   0.60831892    -2.780529    -2.780529   -2.0508618  0.037858604    -2.780529   0.72966719   424551 
 3634000   0.60925517   -2.7816714   -2.7816714   -2.0508812  0.030321468   -2.7816714   0.73079021   424551 
 3635000   0.61054697   -2.7829034   -2.7829034   -2.0505637  0.034243653   -2.7829034    0.7323397   424551 
 3636000   0.61003099   -2.7824781   -2.7824781   -2.0507573  0.032949474   -2.7824781   0.73172079   424551 
 3637000   0.60838718   -2.7812212   -2.7812212   -2.0514721  0.035982039   -2.7812212   0.72974907   424551 
 3638000    0.6091258   -2.7822691   -2.7822691    -2.051634  0.037524763   -2.7822691   0.73063502   424551 
 3639000    0.6089713   -2.7820286   -2.7820286   -2.0515789  0.042164365   -2.7820286   0.73044971   424551 
 3640000   0.60892891   -2.7814866   -2.7814866   -2.0510878  0.039253071   -2.7814866   0.73039887   424551 
 3641000   0.60873897   -2.7819544   -2.7819544   -2.0517834  0.036876779   -2.7819544   0.73017103   424551 
 3642000   0.60834582   -2.7812504   -2.7812504   -2.0515509  0.036589417   -2.7812504   0.72969946   424551 
 3643000   0.60918269   -2.7821198   -2.7821198   -2.0514166    0.0365419   -2.7821198   0.73070326   424551 
 3644000    0.6087064    -2.781386    -2.781386    -2.051254  0.034168329    -2.781386   0.73013196   424551 
 3645000   0.61021005   -2.7828739   -2.7828739   -2.0509383  0.028268517   -2.7828739   0.73193556   424551 
 3646000   0.60943592   -2.7818654   -2.7818654   -2.0508584  0.032365886   -2.7818654   0.73100701   424551 
 3647000   0.60842964   -2.7808759   -2.7808759   -2.0510759  0.037459021   -2.7808759       0.7298   424551 
 3648000   0.61000986   -2.7818007   -2.7818007   -2.0501052  0.034922254   -2.7818007   0.73169544   424551 
 3649000   0.60990364   -2.7812675   -2.7812675   -2.0496994  0.040930627   -2.7812675   0.73156804   424551 
 3650000   0.60918155    -2.780759    -2.780759   -2.0500571  0.033692839    -2.780759   0.73070189   424551 
 3651000   0.60887002   -2.7805341   -2.7805341   -2.0502059  0.043446662   -2.7805341   0.73032822   424551 
 3652000   0.60909632   -2.7809996   -2.7809996   -2.0503999  0.037424472   -2.7809996   0.73059967   424551 
 3653000    0.6084942   -2.7802442   -2.7802442   -2.0503668  0.042335576   -2.7802442   0.72987744   424551 
 3654000   0.61035161   -2.7823903   -2.7823903   -2.0502849  0.040060935   -2.7823903   0.73210537   424551 
 3655000   0.60838879   -2.7802125   -2.7802125   -2.0504616  0.044020865   -2.7802125     0.729751   424551 
 3656000   0.60775058   -2.7791346   -2.7791346   -2.0501491  0.040015314   -2.7791346   0.72898547   424551 
 3657000   0.60801794   -2.7793789   -2.7793789   -2.0500727  0.035432741   -2.7793789   0.72930617   424551 
 3658000   0.60828413   -2.7793398   -2.7793398   -2.0497143  0.029569386   -2.7793398   0.72962546   424551 
 3659000    0.6074465   -2.7781423   -2.7781423   -2.0495215  0.037367186   -2.7781423   0.72862074   424551 
 3660000   0.60796322   -2.7787613   -2.7787613   -2.0495207  0.037466544   -2.7787613   0.72924053   424551 
 3661000   0.60720294   -2.7782617   -2.7782617   -2.0499331   0.03083486   -2.7782617   0.72832859   424551 
 3662000   0.60694778   -2.7788948   -2.7788948   -2.0508723  0.033511439   -2.7788948   0.72802253   424551 
 3663000   0.60877875   -2.7797142   -2.7797142   -2.0494955  0.038149588   -2.7797142   0.73021874   424551 
 3664000   0.60830188    -2.779353    -2.779353   -2.0497063  0.034383423    -2.779353   0.72964675   424551 
 3665000   0.60921222   -2.7814166   -2.7814166   -2.0506779  0.044808553   -2.7814166   0.73073869   424551 
 3666000   0.60909679   -2.7807973   -2.7807973   -2.0501971  0.047070278   -2.7807973   0.73060023   424551 
 3667000   0.60905299   -2.7802216   -2.7802216   -2.0496739  0.032977677   -2.7802216    0.7305477   424551 
 3668000   0.60855325   -2.7795419   -2.7795419   -2.0495936  0.042433219   -2.7795419   0.72994827   424551 
 3669000   0.60995097   -2.7814185   -2.7814185   -2.0497937  0.037757181   -2.7814185    0.7316248   424551 
 3670000   0.60982321   -2.7822075   -2.7822075    -2.050736  0.030366571   -2.7822075   0.73147155   424551 
 3671000   0.60869285   -2.7808303   -2.7808303   -2.0507146  0.037564454   -2.7808303   0.73011572   424551 
 3672000   0.60945861   -2.7814094   -2.7814094   -2.0503751  0.032153284   -2.7814094   0.73103423   424551 
 3673000   0.60889742   -2.7807404   -2.7807404   -2.0503793  0.029345635   -2.7807404   0.73036109   424551 
 3674000   0.60876716   -2.7817632   -2.7817632   -2.0515584  0.036836828   -2.7817632   0.73020484   424551 
 3675000   0.60987894    -2.783614    -2.783614   -2.0520756  0.039975973    -2.783614    0.7315384   424551 
 3676000    0.6083001    -2.781885    -2.781885   -2.0522403  0.044346896    -2.781885   0.72964462   424551 
 3677000   0.60922235   -2.7830001   -2.7830001   -2.0522493  0.035365361   -2.7830001   0.73075084   424551 
 3678000   0.60865042   -2.7827486   -2.7827486   -2.0526838  0.039226728   -2.7827486   0.73006482   424551 
 3679000   0.60941182   -2.7829727   -2.7829727   -2.0519946  0.032359623   -2.7829727    0.7309781   424551 
 3680000   0.60997584   -2.7837314   -2.7837314   -2.0520768  0.042179896   -2.7837314   0.73165463   424551 
 3681000   0.60823967   -2.7817228   -2.7817228   -2.0521507  0.033915883   -2.7817228   0.72957213   424551 
 3682000   0.60857523    -2.781568    -2.781568   -2.0515934  0.031524003    -2.781568   0.72997463   424551 
 3683000   0.60749672   -2.7800733   -2.7800733   -2.0513923  0.038723822   -2.7800733   0.72868097   424551 
 3684000   0.60935735   -2.7821562   -2.7821562   -2.0512435  0.037172574   -2.7821562   0.73091277   424551 
 3685000   0.60958998   -2.7825619   -2.7825619   -2.0513701  0.036601103   -2.7825619    0.7311918   424551 
 3686000   0.60868404   -2.7806827   -2.7806827   -2.0505776   0.03757891   -2.7806827   0.73010514   424551 
 3687000   0.60893224   -2.7811333   -2.7811333   -2.0507304  0.041664595   -2.7811333   0.73040286   424551 
 3688000   0.60917234   -2.7817871   -2.7817871   -2.0510962  0.031115411   -2.7817871   0.73069085   424551 
 3689000     0.609513    -2.782208    -2.782208   -2.0511086  0.037290798    -2.782208   0.73109946   424551 
 3690000   0.61068093   -2.7829342   -2.7829342   -2.0504338  0.036345133   -2.7829342   0.73250037   424551 
 3691000   0.60795913   -2.7800889   -2.7800889   -2.0508533  0.044908737   -2.7800889   0.72923562   424551 
 3692000    0.6084272   -2.7806789   -2.7806789   -2.0508818  0.030528803   -2.7806789   0.72979707   424551 
 3693000   0.60844245   -2.7805226   -2.7805226   -2.0507072  0.041131212   -2.7805226   0.72981536   424551 
 3694000   0.60769628   -2.7795589   -2.7795589   -2.0506385  0.029207664   -2.7795589   0.72892035   424551 
 3695000   0.60805221   -2.7799763   -2.7799763   -2.0506291  0.038906148   -2.7799763   0.72934727   424551 
 3696000   0.60802038   -2.7803675   -2.7803675   -2.0510584  0.039173796   -2.7803675   0.72930909   424551 
 3697000   0.60744013   -2.7801846   -2.7801846   -2.0515715  0.029936374   -2.7801846   0.72861309   424551 
 3698000    0.6085834   -2.7819346   -2.7819346   -2.0519502  0.044396346   -2.7819346   0.72998443   424551 
 3699000   0.60803755   -2.7810193   -2.7810193   -2.0516896  0.039124915   -2.7810193   0.72932969   424551 
 3700000   0.60825316   -2.7816272   -2.7816272   -2.0520389  0.046956631   -2.7816272   0.72958831   424551 
 3701000   0.60858205   -2.7820554   -2.7820554   -2.0520726  0.028340115   -2.7820554   0.72998281   424551 
 3702000   0.60841925   -2.7812466   -2.7812466   -2.0514591  0.037492908   -2.7812466   0.72978753   424551 
 3703000   0.60927094   -2.7819414   -2.7819414   -2.0511323   0.03987383   -2.7819414   0.73080912   424551 
 3704000   0.60876494   -2.7819618   -2.7819618   -2.0517596  0.029676307   -2.7819618   0.73020219   424551 
 3705000   0.60881126    -2.781896    -2.781896   -2.0516383  0.048385461    -2.781896   0.73025774   424551 
 3706000   0.60964063   -2.7825118   -2.7825118   -2.0512592  0.039226862   -2.7825118   0.73125255   424551 
 3707000   0.60790491   -2.7808362   -2.7808362   -2.0516657  0.037842244   -2.7808362   0.72917059   424551 
 3708000   0.60887314    -2.781693    -2.781693    -2.051361  0.036489006    -2.781693   0.73033196   424551 
 3709000   0.60850039   -2.7810738   -2.7810738   -2.0511889  0.032579435   -2.7810738   0.72988486   424551 
 3710000   0.60740276   -2.7799197   -2.7799197   -2.0513514  0.043078206   -2.7799197   0.72856827   424551 
 3711000    0.6081446    -2.781217    -2.781217   -2.0517589   0.02890434    -2.781217   0.72945809   424551 
 3712000   0.60781134   -2.7807613   -2.7807613   -2.0517029  0.033697746   -2.7807613   0.72905836   424551 
 3713000   0.60772715   -2.7805382   -2.7805382   -2.0515808   0.04736565   -2.7805382   0.72895738   424551 
 3714000   0.60812068   -2.7807362   -2.7807362   -2.0513068  0.040010798   -2.7807362    0.7294294   424551 
 3715000   0.60972116   -2.7825816   -2.7825816   -2.0512325   0.02850093   -2.7825816   0.73134915   424551 
 3716000   0.60833272   -2.7807469   -2.7807469   -2.0510632  0.045132738   -2.7807469   0.72968374   424551 
 3717000   0.60992282   -2.7827291   -2.7827291    -2.051138  0.036000552   -2.7827291   0.73159103   424551 
 3718000   0.60878293   -2.7819621   -2.7819621   -2.0517384  0.034597679   -2.7819621   0.73022377   424551 
 3719000    0.6085411   -2.7815245   -2.7815245   -2.0515908  0.042378771   -2.7815245   0.72993369   424551 
 3720000   0.60813865   -2.7806203   -2.7806203   -2.0511693  0.035614361   -2.7806203   0.72945096   424551 
 3721000   0.60809188    -2.780719    -2.780719   -2.0513242  0.038849972    -2.780719   0.72939486   424551 
 3722000   0.60824274   -2.7811083   -2.7811083   -2.0515325  0.030734719   -2.7811083   0.72957581   424551 
 3723000   0.60875731   -2.7819621   -2.7819621   -2.0517691  0.043533115   -2.7819621   0.73019303   424551 
 3724000   0.60878042   -2.7823558   -2.7823558    -2.052135  0.042342438   -2.7823558   0.73022075   424551 
 3725000   0.60865462   -2.7817319   -2.7817319    -2.051662  0.035448363   -2.7817319   0.73006986   424551 
 3726000   0.60706021   -2.7811086   -2.7811086   -2.0529512  0.030073971   -2.7811086   0.72815739   424551 
 3727000   0.60788622   -2.7817168   -2.7817168   -2.0525687  0.042714969   -2.7817168   0.72914817   424551 
 3728000   0.60863178   -2.7829449   -2.7829449   -2.0529024  0.029644453   -2.7829449   0.73004246   424551 
 3729000   0.60853045   -2.7825692   -2.7825692   -2.0526483  0.046835961   -2.7825692   0.72992092   424551 
 3730000    0.6091647   -2.7831928   -2.7831928   -2.0525111  0.040546881   -2.7831928   0.73068169   424551 
 3731000   0.60886587   -2.7828298   -2.7828298   -2.0525065  0.044727325   -2.7828298   0.73032325   424551 
 3732000   0.60852434    -2.782614    -2.782614   -2.0527005  0.032282071    -2.782614   0.72991359   424551 
 3733000   0.60939974   -2.7841852   -2.7841852   -2.0532216    0.0349247   -2.7841852   0.73096361   424551 
 3734000     0.608648    -2.783219    -2.783219    -2.053157  0.038988317    -2.783219   0.73006191   424551 
 3735000   0.60873295    -2.783026    -2.783026   -2.0528621  0.042677412    -2.783026   0.73016381   424551 
 3736000    0.6088072   -2.7835231   -2.7835231   -2.0532702  0.043199432   -2.7835231   0.73025287   424551 
 3737000   0.60824469   -2.7824694   -2.7824694   -2.0528912  0.035674494   -2.7824694   0.72957815   424551 
 3738000   0.60872771   -2.7824285   -2.7824285    -2.052271  0.027211305   -2.7824285   0.73015753   424551 
 3739000   0.60923294   -2.7827644   -2.7827644   -2.0520008  0.036867009   -2.7827644   0.73076354   424551 
 3740000   0.60970281   -2.7836362   -2.7836362    -2.052309  0.038211812   -2.7836362   0.73132714   424551 
 3741000   0.60752245   -2.7818339   -2.7818339    -2.053122  0.043556634   -2.7818339   0.72871183   424551 
 3742000   0.60896774   -2.7832012   -2.7832012   -2.0527558   0.03249727   -2.7832012   0.73044544   424551 
 3743000   0.60711052   -2.7803664   -2.7803664   -2.0521487  0.041929808   -2.7803664   0.72821774   424551 
 3744000   0.60926941   -2.7838888   -2.7838888   -2.0530815  0.036493996   -2.7838888   0.73080728   424551 
 3745000   0.60900046   -2.7830793   -2.7830793   -2.0525946  0.036720238   -2.7830793   0.73048468   424551 
 3746000   0.61005951   -2.7842376   -2.7842376   -2.0524826   0.03339682   -2.7842376   0.73175499   424551 
 3747000   0.60808697   -2.7821316   -2.7821316   -2.0527426  0.034734034   -2.7821316   0.72938898   424551 
 3748000   0.60824357   -2.7820988   -2.7820988   -2.0525219   0.03853515   -2.7820988   0.72957681   424551 
 3749000   0.60935871   -2.7840528   -2.7840528   -2.0531384    0.0369824   -2.7840528   0.73091439   424551 
 3750000   0.60847818   -2.7828397   -2.7828397   -2.0529815  0.032852171   -2.7828397   0.72985821   424551 
 3751000   0.60845725   -2.7823207   -2.7823207   -2.0524876  0.030738543   -2.7823207   0.72983311   424551 
 3752000   0.60820335   -2.7825955   -2.7825955   -2.0530669  0.040841843   -2.7825955   0.72952857   424551 
 3753000   0.60844683   -2.7831375   -2.7831375   -2.0533169  0.034148765   -2.7831375   0.72982061   424551 
 3754000   0.60804369   -2.7825294   -2.7825294   -2.0531924  0.050929704   -2.7825294   0.72933706   424551 
 3755000   0.60787888   -2.7829683   -2.7829683   -2.0538289  0.039843849   -2.7829683   0.72913937   424551 
 3756000   0.60764721    -2.783094    -2.783094   -2.0542325  0.031716366    -2.783094   0.72886148   424551 
 3757000   0.60924598   -2.7848591   -2.7848591   -2.0540799  0.038919275   -2.7848591   0.73077918   424551 
 3758000   0.60908701   -2.7847954   -2.7847954   -2.0542069  0.028523957   -2.7847954    0.7305885   424551 
 3759000   0.60794176   -2.7841137   -2.7841137   -2.0548989   0.03630384   -2.7841137   0.72921479   424551 
 3760000   0.60882983   -2.7852956   -2.7852956   -2.0550155  0.042450733   -2.7852956   0.73028001   424551 
 3761000   0.60838579   -2.7845968   -2.7845968   -2.0548494  0.038536368   -2.7845968    0.7297474   424551 
 3762000   0.60886764   -2.7856259   -2.7856259   -2.0553005  0.025308718   -2.7856259   0.73032537   424551 
 3763000   0.60796255   -2.7849159   -2.7849159   -2.0556762  0.045311162   -2.7849159   0.72923973   424551 
 3764000   0.60857188   -2.7856464   -2.7856464   -2.0556758  0.036213132   -2.7856464   0.72997061   424551 
 3765000   0.60789298   -2.7848139   -2.7848139   -2.0556576   0.02800111   -2.7848139   0.72915629   424551 
 3766000    0.6081561   -2.7840102   -2.7840102   -2.0545383  0.037876603   -2.7840102   0.72947189   424551 
 3767000   0.60833555   -2.7847532   -2.7847532    -2.055066  0.030246793   -2.7847532   0.72968714   424551 
 3768000    0.6077917   -2.7838156   -2.7838156   -2.0547808  0.042274082   -2.7838156    0.7290348   424551 
 3769000    0.6082726   -2.7842476   -2.7842476    -2.054636  0.036534393   -2.7842476   0.72961163   424551 
 3770000   0.60792128   -2.7838477   -2.7838477   -2.0546574  0.040404918   -2.7838477   0.72919023   424551 
 3771000   0.60742047   -2.7833462   -2.7833462   -2.0547567  0.031374093   -2.7833462   0.72858951   424551 
 3772000   0.60877789   -2.7843364   -2.7843364   -2.0541187  0.038630378   -2.7843364   0.73021771   424551 
 3773000   0.60904951   -2.7846992   -2.7846992   -2.0541557  0.035392263   -2.7846992   0.73054352   424551 
 3774000   0.60866185   -2.7846499   -2.7846499   -2.0545714  0.041356461   -2.7846499   0.73007853   424551 
 3775000   0.60806191   -2.7836806   -2.7836806   -2.0543217  0.033283875   -2.7836806   0.72935891   424551 
 3776000   0.60838855   -2.7840346   -2.7840346   -2.0542839  0.027107197   -2.7840346   0.72975071   424551 
 3777000    0.6071237   -2.7825935   -2.7825935     -2.05436  0.031615086   -2.7825935   0.72823354   424551 
 3778000   0.60833848   -2.7845339   -2.7845339   -2.0548433  0.040519172   -2.7845339   0.72969065   424551 
 3779000    0.6073542   -2.7835122   -2.7835122   -2.0550022  0.042862688   -2.7835122   0.72851003   424551 
 3780000   0.60684577   -2.7828727   -2.7828727   -2.0549725  0.034158583   -2.7828727   0.72790017   424551 
 3781000   0.60782312   -2.7840017   -2.7840017   -2.0549292  0.040886392   -2.7840017   0.72907248   424551 
 3782000   0.60699786   -2.7826015   -2.7826015   -2.0545189  0.036488757   -2.7826015   0.72808261   424551 
 3783000    0.6081373   -2.7843734   -2.7843734   -2.0549241  0.036129126   -2.7843734   0.72944934   424551 
 3784000   0.60768179   -2.7839857   -2.7839857   -2.0550828  0.030412353   -2.7839857   0.72890297   424551 
 3785000   0.60831419   -2.7851611   -2.7851611   -2.0554996  0.030671253   -2.7851611   0.72966152   424551 
 3786000   0.60869676   -2.7855385   -2.7855385   -2.0554181  0.042235767   -2.7855385    0.7301204   424551 
 3787000   0.60868673   -2.7855007   -2.7855007   -2.0553924  0.041173469   -2.7855007   0.73010837   424551 
 3788000   0.60824775    -2.785116    -2.785116   -2.0555342  0.036033111    -2.785116   0.72958182   424551 
 3789000   0.60798034   -2.7849201   -2.7849201    -2.055659  0.036472084   -2.7849201   0.72926107   424551 
 3790000   0.60778914   -2.7844366   -2.7844366   -2.0554048  0.050811375   -2.7844366   0.72903173   424551 
 3791000   0.60804503   -2.7847287   -2.7847287     -2.05539  0.038863249   -2.7847287   0.72933867   424551 
 3792000   0.60795153   -2.7849684   -2.7849684   -2.0557419  0.044208651   -2.7849684   0.72922651   424551 
 3793000    0.6084437   -2.7846858   -2.7846858   -2.0548689  0.040856265   -2.7846858   0.72981686   424551 
 3794000    0.6081782   -2.7849339   -2.7849339   -2.0554355   0.03425538   -2.7849339    0.7294984   424551 
 3795000   0.60734562   -2.7840013   -2.7840013   -2.0555016  0.036788129   -2.7840013   0.72849974   424551 
 3796000   0.60732553   -2.7841698   -2.7841698   -2.0556942  0.040548934   -2.7841698   0.72847564   424551 
 3797000   0.60790028   -2.7845599   -2.7845599   -2.0553949  0.032310407   -2.7845599   0.72916504   424551 
 3798000    0.6076988   -2.7845022   -2.7845022   -2.0555789  0.036811305   -2.7845022   0.72892336   424551 
 3799000   0.60702184   -2.7838488   -2.7838488   -2.0557374  0.034922956   -2.7838488   0.72811137   424551 
 3800000   0.60770982   -2.7842508   -2.7842508   -2.0553142  0.032410734   -2.7842508   0.72893658   424551 
 3801000   0.60758502    -2.784079    -2.784079   -2.0552921  0.035614745    -2.784079   0.72878689   424551 
 3802000   0.60797347    -2.784718    -2.784718   -2.0554652  0.042249435    -2.784718   0.72925283   424551 
 3803000   0.60828264   -2.7843255   -2.7843255   -2.0547018  0.038618081   -2.7843255   0.72962367   424551 
 3804000    0.6080614   -2.7834861   -2.7834861   -2.0541278  0.046204216   -2.7834861    0.7293583   424551 
 3805000   0.60858778   -2.7845243   -2.7845243   -2.0545346   0.04082742   -2.7845243   0.72998968   424551 
 3806000   0.60818683   -2.7838299   -2.7838299   -2.0543212  0.027687644   -2.7838299   0.72950875   424551 
 3807000   0.60946152   -2.7850481   -2.7850481   -2.0540104  0.042108577   -2.7850481   0.73103771   424551 
 3808000   0.60866936   -2.7843786   -2.7843786    -2.054291  0.032765484   -2.7843786   0.73008753   424551 
 3809000   0.60735433   -2.7828291   -2.7828291   -2.0543189  0.042049599   -2.7828291   0.72851018   424551 
 3810000   0.60813421   -2.7836202   -2.7836202   -2.0541745  0.030157367   -2.7836202   0.72944564   424551 
 3811000   0.60987635    -2.785203    -2.785203   -2.0536677  0.036585668    -2.785203    0.7315353   424551 
 3812000   0.60757152   -2.7822087   -2.7822087    -2.053438  0.045870484   -2.7822087    0.7287707   424551 
 3813000   0.60831269   -2.7838084   -2.7838084   -2.0541487  0.036490617   -2.7838084   0.72965971   424551 
 3814000   0.60801293   -2.7834472   -2.7834472    -2.054147  0.037449799   -2.7834472   0.72930016   424551 
 3815000    0.6075028   -2.7828874   -2.7828874   -2.0541991  0.041702425   -2.7828874   0.72868826   424551 
 3816000   0.60787588   -2.7837798   -2.7837798   -2.0546441  0.032159451   -2.7837798   0.72913577   424551 
 3817000   0.60794386   -2.7837863   -2.7837863    -2.054569  0.036623033   -2.7837863   0.72921731   424551 
 3818000   0.60835042   -2.7837221   -2.7837221   -2.0540171  0.026693232   -2.7837221   0.72970498   424551 
 3819000   0.60800254   -2.7841506   -2.7841506   -2.0548629  0.031442337   -2.7841506   0.72928769   424551 
 3820000   0.60708839   -2.7829354   -2.7829354   -2.0547443  0.034218358   -2.7829354   0.72819119   424551 
 3821000   0.60774282   -2.7835604   -2.7835604   -2.0545842  0.033583692   -2.7835604   0.72897617   424551 
 3822000   0.60815086   -2.7837673   -2.7837673   -2.0543017  0.039362982   -2.7837673   0.72946561   424551 
 3823000   0.60825245   -2.7836687   -2.7836687   -2.0540812  0.043089818   -2.7836687   0.72958746   424551 
 3824000    0.6089426   -2.7843684   -2.7843684   -2.0539531  0.038603112   -2.7843684   0.73041529   424551 
 3825000   0.60782421    -2.783432    -2.783432   -2.0543582  0.032264017    -2.783432   0.72907379   424551 
 3826000   0.60753555   -2.7831089   -2.7831089   -2.0543814  0.033802049   -2.7831089   0.72872755   424551 
 3827000   0.60811177   -2.7836283   -2.7836283   -2.0542095  0.036090102   -2.7836283   0.72941871   424551 
 3828000   0.60631827   -2.7826158   -2.7826158   -2.0553483  0.037860898   -2.7826158   0.72726745   424551 
 3829000   0.60766687   -2.7838642   -2.7838642   -2.0549792  0.025470105   -2.7838642   0.72888506   424551 
 3830000    0.6072646   -2.7835395   -2.7835395   -2.0551369  0.033580161   -2.7835395   0.72840255   424551 
 3831000   0.60760606   -2.7833596   -2.7833596   -2.0545475  0.036961561   -2.7833596   0.72881213   424551 
 3832000    0.6086768   -2.7845989   -2.7845989   -2.0545024  0.026748245   -2.7845989   0.73009646   424551 
 3833000   0.60776447   -2.7842097   -2.7842097   -2.0552076  0.033346233   -2.7842097   0.72900214   424551 
 3834000   0.60840869   -2.7854365   -2.7854365   -2.0556616  0.035406666   -2.7854365   0.72977486   424551 
 3835000   0.60831138   -2.7855422   -2.7855422    -2.055884  0.031355088   -2.7855422   0.72965814   424551 
 3836000   0.60688102   -2.7839946   -2.7839946   -2.0560522  0.038173138   -2.7839946   0.72794246   424551 
 3837000   0.60774304   -2.7843758   -2.7843758   -2.0553994  0.037080134   -2.7843758   0.72897643   424551 
 3838000   0.60944917    -2.785006    -2.785006   -2.0539831  0.039546984    -2.785006    0.7310229   424551 
 3839000   0.60941649   -2.7852665   -2.7852665   -2.0542828  0.047526449   -2.7852665    0.7309837   424551 
 3840000   0.60855914    -2.784988    -2.784988   -2.0550327  0.033519446    -2.784988   0.72995533   424551 
 3841000   0.60882779   -2.7853006   -2.7853006    -2.055023  0.041951591   -2.7853006   0.73027757   424551 
 3842000   0.60856528   -2.7855731   -2.7855731   -2.0556104  0.033279637   -2.7855731   0.72996269   424551 
 3843000    0.6093155   -2.7858498   -2.7858498   -2.0549872  0.044646564   -2.7858498   0.73086257   424551 
 3844000   0.60903876   -2.7864776   -2.7864776    -2.055947  0.036092597   -2.7864776   0.73053063   424551 
 3845000   0.60828691   -2.7850128   -2.7850128    -2.055384  0.039831817   -2.7850128    0.7296288   424551 
 3846000   0.60752501   -2.7842912   -2.7842912   -2.0555763  0.034655189   -2.7842912   0.72871491   424551 
 3847000   0.60855512   -2.7857367   -2.7857367   -2.0557862  0.042645363   -2.7857367   0.72995051   424551 
 3848000   0.60748305   -2.7847124   -2.7847124   -2.0560479  0.034452946   -2.7847124   0.72866458   424551 
 3849000   0.60755325   -2.7852889   -2.7852889   -2.0565401  0.029574363   -2.7852889   0.72874878   424551 
 3850000   0.60708131   -2.7846586   -2.7846586   -2.0564759  0.038644516   -2.7846586    0.7281827   424551 
 3851000   0.60721359    -2.784602    -2.784602   -2.0562606  0.028328108    -2.784602   0.72834137   424551 
 3852000   0.60747619   -2.7845499   -2.7845499   -2.0558936  0.028228061   -2.7845499   0.72865635   424551 
 3853000   0.60581917   -2.7834133   -2.7834133   -2.0567445  0.039436488   -2.7834133   0.72666878   424551 
 3854000   0.60628617   -2.7844283   -2.7844283   -2.0571993   0.02722408   -2.7844283   0.72722895   424551 
 3855000   0.60825859   -2.7868009   -2.7868009   -2.0572061  0.037625652   -2.7868009   0.72959482   424551 
 3856000   0.60637649   -2.7844851   -2.7844851   -2.0571478  0.034142933   -2.7844851   0.72733728   424551 
 3857000   0.60858728   -2.7870653   -2.7870653   -2.0570762  0.032920089   -2.7870653   0.72998908   424551 
 3858000   0.60860103    -2.787644    -2.787644   -2.0576384  0.040149329    -2.787644   0.73000557   424551 
 3859000   0.60955676   -2.7888547   -2.7888547   -2.0577028   0.03461151   -2.7888547   0.73115196   424551 
 3860000   0.60824496   -2.7870627   -2.7870627   -2.0574842  0.030361468   -2.7870627   0.72957848   424551 
 3861000   0.60811855   -2.7867495   -2.7867495   -2.0573227  0.035452824   -2.7867495   0.72942685   424551 
 3862000   0.60875797   -2.7880861   -2.7880861   -2.0578923  0.038043511   -2.7880861   0.73019382   424551 
 3863000   0.60775322    -2.787525    -2.787525   -2.0585364  0.035705601    -2.787525   0.72898864   424551 
 3864000   0.60780029   -2.7872306   -2.7872306   -2.0581855  0.042315286   -2.7872306   0.72904511   424551 
 3865000   0.60827261   -2.7878265   -2.7878265   -2.0582149  0.039909856   -2.7878265   0.72961164   424551 
 3866000   0.60867805   -2.7878392   -2.7878392   -2.0577413  0.037588548   -2.7878392   0.73009796   424551 
 3867000   0.60823648   -2.7872971   -2.7872971   -2.0577288  0.043038569   -2.7872971    0.7295683   424551 
 3868000   0.60858538   -2.7875004   -2.7875004   -2.0575136  0.035070166   -2.7875004    0.7299868   424551 
 3869000   0.60873866    -2.787296    -2.787296   -2.0571253  0.043791404    -2.787296   0.73017067   424551 
 3870000   0.60950021   -2.7878838   -2.7878838   -2.0567997  0.036990134   -2.7878838   0.73108412   424551 
 3871000    0.6088024   -2.7876347   -2.7876347   -2.0573876  0.040008829   -2.7876347   0.73024712   424551 
 3872000   0.60694321   -2.7855923   -2.7855923   -2.0575753  0.034753354   -2.7855923   0.72801705   424551 
 3873000   0.60802444   -2.7860556   -2.7860556   -2.0567417  0.044055258   -2.7860556   0.72931396   424551 
 3874000   0.60808344   -2.7865031   -2.7865031   -2.0571183  0.037825591   -2.7865031   0.72938473   424551 
 3875000   0.60777919   -2.7862269   -2.7862269   -2.0572072  0.030518337   -2.7862269   0.72901979   424551 
 3876000   0.60799448   -2.7868494   -2.7868494   -2.0575713  0.036925253   -2.7868494   0.72927803   424551 
 3877000   0.60825924   -2.7865826   -2.7865826    -2.056987  0.039718614   -2.7865826   0.72959561   424551 
 3878000   0.60780413   -2.7863116   -2.7863116   -2.0572619  0.037014653   -2.7863116   0.72904971   424551 
 3879000   0.60811876   -2.7869309   -2.7869309   -2.0575038  0.035860092   -2.7869309    0.7294271   424551 
 3880000   0.60788677   -2.7867605   -2.7867605   -2.0576116  0.031626188   -2.7867605   0.72914884   424551 
 3881000   0.60882858    -2.787311    -2.787311   -2.0570325  0.029355849    -2.787311   0.73027852   424551 
 3882000   0.60735498   -2.7860582   -2.7860582   -2.0575472  0.035054124   -2.7860582   0.72851096   424551 
 3883000   0.60772384   -2.7872369   -2.7872369   -2.0582835  0.032627101   -2.7872369    0.7289534   424551 
 3884000     0.608159    -2.787846    -2.787846   -2.0583707  0.036813079    -2.787846   0.72947537   424551 
 3885000    0.6071129   -2.7863101   -2.7863101   -2.0580895  0.041227024   -2.7863101   0.72822059   424551 
 3886000     0.608276   -2.7875142   -2.7875142   -2.0578985   0.04002132   -2.7875142   0.72961571   424551 
 3887000   0.60781043   -2.7871007   -2.7871007   -2.0580434  0.035794521   -2.7871007   0.72905727   424551 
 3888000   0.60897488   -2.7881874   -2.7881874   -2.0577334  0.037810232   -2.7881874     0.730454   424551 
 3889000   0.60742429   -2.7868519   -2.7868519   -2.0582578  0.039901934   -2.7868519    0.7285941   424551 
 3890000   0.60688309   -2.7870688   -2.7870688   -2.0591238  0.040924326   -2.7870688   0.72794493   424551 
 3891000   0.60924521   -2.7891781   -2.7891781   -2.0583998  0.035050769   -2.7891781   0.73077826   424551 
 3892000   0.60852307   -2.7883257   -2.7883257   -2.0584137  0.032661905   -2.7883257   0.72991207   424551 
 3893000   0.60678223   -2.7855996   -2.7855996   -2.0577756  0.041262873   -2.7855996   0.72782396   424551 
 3894000   0.60630985   -2.7862531   -2.7862531   -2.0589957  0.029758107   -2.7862531   0.72725734   424551 
 3895000   0.60797352   -2.7870298   -2.7870298    -2.057777  0.034332395   -2.7870298   0.72925288   424551 
 3896000   0.60885486   -2.7879796   -2.7879796   -2.0576695  0.032783073   -2.7879796   0.73031004   424551 
 3897000   0.60792362    -2.787233    -2.787233     -2.05804  0.039282192    -2.787233   0.72919303   424551 
 3898000   0.60906935   -2.7886333   -2.7886333    -2.058066  0.037568251   -2.7886333   0.73056732   424551 
 3899000   0.60760739   -2.7875943   -2.7875943   -2.0587805  0.037248386   -2.7875943   0.72881372   424551 
 3900000   0.60853423   -2.7890694   -2.7890694   -2.0591439  0.040318884   -2.7890694   0.72992545   424551 
 3901000   0.60819867   -2.7881462   -2.7881462   -2.0586232  0.037759718   -2.7881462   0.72952295   424551 
 3902000   0.60831562   -2.7884008   -2.7884008   -2.0587376  0.032614257   -2.7884008   0.72966323   424551 
 3903000   0.60808361   -2.7880827   -2.7880827   -2.0586978  0.037135055   -2.7880827   0.72938494   424551 
 3904000   0.60855639   -2.7884857   -2.7884857   -2.0585336  0.041301991   -2.7884857   0.72995203   424551 
 3905000    0.6082218   -2.7882459   -2.7882459   -2.0586952  0.039457937   -2.7882459    0.7295507   424551 
 3906000   0.60734158   -2.7874272   -2.7874272   -2.0589323  0.039480617   -2.7874272   0.72849489   424551 
 3907000    0.6076744   -2.7881544   -2.7881544   -2.0592603  0.037593199   -2.7881544    0.7288941   424551 
 3908000   0.60842957   -2.7888302   -2.7888302   -2.0590302  0.031409989   -2.7888302   0.72979991   424551 
 3909000   0.60780409   -2.7884978   -2.7884978   -2.0594482   0.03454815   -2.7884978   0.72904966   424551 
 3910000   0.60834281   -2.7886701   -2.7886701   -2.0589742    0.0366458   -2.7886701   0.72969584   424551 
 3911000   0.60771829   -2.7876674   -2.7876674   -2.0587207  0.040979849   -2.7876674   0.72894675   424551 
 3912000    0.6074966    -2.787517    -2.787517   -2.0588362  0.046552864    -2.787517   0.72868083   424551 
 3913000   0.60872361   -2.7884009   -2.7884009   -2.0582483  0.042735064   -2.7884009    0.7301526   424551 
 3914000   0.60819094   -2.7881247   -2.7881247    -2.058611  0.041674223   -2.7881247   0.72951368   424551 
 3915000   0.60793008   -2.7872212   -2.7872212   -2.0580204  0.044507886   -2.7872212   0.72920078   424551 
 3916000   0.60861863   -2.7875336   -2.7875336   -2.0575069  0.035499501   -2.7875336   0.73002669   424551 
 3917000    0.6086311   -2.7881795   -2.7881795   -2.0581379  0.039870257   -2.7881795   0.73004165   424551 
 3918000   0.60603677   -2.7849137   -2.7849137    -2.057984    0.0396511   -2.7849137   0.72692979   424551 
 3919000   0.60750495   -2.7864927   -2.7864927   -2.0578019  0.038212084   -2.7864927   0.72869085   424551 
 3920000   0.60804879   -2.7871874   -2.7871874   -2.0578442  0.026319019   -2.7871874   0.72934318   424551 
 3921000   0.60592783   -2.7851284   -2.7851284   -2.0583293  0.038035735   -2.7851284   0.72679913   424551 
 3922000   0.60844706   -2.7877271   -2.7877271   -2.0579062  0.037875966   -2.7877271    0.7298209   424551 
 3923000   0.60799406   -2.7865629   -2.7865629   -2.0572853  0.036839466   -2.7865629   0.72927753   424551 
 3924000   0.60850058   -2.7865364   -2.7865364   -2.0566514  0.043324543   -2.7865364   0.72988509   424551 
 3925000   0.60690412   -2.7852205   -2.7852205   -2.0572503  0.045234551   -2.7852205   0.72797017   424551 
 3926000   0.60714757   -2.7854987   -2.7854987   -2.0572365   0.03830727   -2.7854987   0.72826218   424551 
 3927000   0.60813954   -2.7856613   -2.7856613   -2.0562092  0.039552058   -2.7856613   0.72945203   424551 
 3928000   0.60778396   -2.7854199   -2.7854199   -2.0563944  0.033261716   -2.7854199   0.72902552   424551 
 3929000   0.60901922   -2.7867194   -2.7867194   -2.0562122  0.031403128   -2.7867194   0.73050719   424551 
 3930000   0.60715635   -2.7848263   -2.7848263   -2.0565536  0.031404233   -2.7848263    0.7282727   424551 
 3931000   0.60810662   -2.7863639   -2.7863639   -2.0569514   0.03303434   -2.7863639   0.72941255   424551 
 3932000   0.60742219   -2.7862706   -2.7862706    -2.057679  0.032915252   -2.7862706   0.72859158   424551 
 3933000    0.6066659   -2.7851342   -2.7851342   -2.0574498  0.037472325   -2.7851342   0.72768442   424551 
 3934000   0.60657104   -2.7854135   -2.7854135   -2.0578429  0.037278026   -2.7854135   0.72757064   424551 
 3935000   0.60702115   -2.7861592   -2.7861592   -2.0580487  0.043876328   -2.7861592   0.72811053   424551 
 3936000   0.60844798   -2.7874183   -2.7874183   -2.0575963   0.03439709   -2.7874183     0.729822   424551 
 3937000   0.60744215   -2.7871366   -2.7871366   -2.0585211  0.026449387   -2.7871366   0.72861552   424551 
 3938000   0.60786432   -2.7881741   -2.7881741   -2.0590522  0.042430813   -2.7881741   0.72912191   424551 
 3939000   0.60703922   -2.7873286   -2.7873286   -2.0591964  0.032696864   -2.7873286   0.72813221   424551 
 3940000   0.60805417   -2.7884801   -2.7884801   -2.0591304   0.03975296   -2.7884801   0.72934963   424551 
 3941000   0.60806598   -2.7885836   -2.7885836   -2.0592198  0.035323182   -2.7885836    0.7293638   424551 
 3942000   0.60801109   -2.7883005   -2.7883005   -2.0590025  0.031739489   -2.7883005   0.72929795   424551 
 3943000     0.608037   -2.7885428   -2.7885428   -2.0592137   0.03332076   -2.7885428   0.72932904   424551 
 3944000   0.60814646   -2.7887426   -2.7887426   -2.0592823  0.035978282   -2.7887426   0.72946033   424551 
 3945000   0.60715697   -2.7868667   -2.7868667   -2.0585932   0.03589724   -2.7868667   0.72827346   424551 
 3946000   0.60923012   -2.7889777   -2.7889777   -2.0582175  0.039930558   -2.7889777   0.73076016   424551 
 3947000   0.60731917   -2.7869964   -2.7869964   -2.0585284  0.035984976   -2.7869964   0.72846801   424551 
 3948000   0.60830001   -2.7884784   -2.7884784   -2.0588339  0.032986201   -2.7884784    0.7296445   424551 
 3949000   0.60822537   -2.7879485   -2.7879485   -2.0583935  0.044217432   -2.7879485   0.72955498   424551 
 3950000   0.60786863   -2.7873173   -2.7873173   -2.0581902  0.040758422   -2.7873173   0.72912708   424551 
 3951000   0.60805345    -2.787579    -2.787579   -2.0582303  0.034600056    -2.787579   0.72934876   424551 
 3952000   0.60778579   -2.7876558   -2.7876558   -2.0586281  0.036755641   -2.7876558   0.72902771   424551 
 3953000   0.60774194   -2.7865992   -2.7865992   -2.0576241  0.035841927   -2.7865992   0.72897512   424551 
 3954000   0.60811191   -2.7872399   -2.7872399    -2.057821  0.039942981   -2.7872399   0.72941888   424551 
 3955000   0.60874828    -2.788203    -2.788203   -2.0580208  0.042164309    -2.788203   0.73018219   424551 
 3956000   0.60736016   -2.7865189   -2.7865189   -2.0580017  0.048009527   -2.7865189   0.72851717   424551 
 3957000   0.60761245   -2.7870496   -2.7870496   -2.0582298  0.040074139   -2.7870496   0.72881979   424551 
 3958000    0.6070614   -2.7865856   -2.7865856   -2.0584267  0.028236609   -2.7865856   0.72815882   424551 
 3959000    0.6077921    -2.787527    -2.787527   -2.0584918  0.036481366    -2.787527   0.72903528   424551 
 3960000    0.6076072   -2.7874444   -2.7874444   -2.0586309  0.036472399   -2.7874444   0.72881349   424551 
 3961000   0.60743794   -2.7862707   -2.7862707   -2.0576602  0.036641563   -2.7862707   0.72861047   424551 
 3962000   0.60830738   -2.7881651   -2.7881651   -2.0585118  0.031986074   -2.7881651   0.72965335   424551 
 3963000   0.60814892    -2.788613    -2.788613   -2.0591497  0.034807442    -2.788613   0.72946327   424551 
 3964000   0.60769252   -2.7881536   -2.7881536   -2.0592378  0.037807963   -2.7881536   0.72891583   424551 
 3965000    0.6083767   -2.7885992   -2.7885992   -2.0588627  0.029926298   -2.7885992    0.7297365   424551 
 3966000   0.60771503   -2.7872597   -2.7872597   -2.0583169  0.035012487   -2.7872597   0.72894283   424551 
 3967000   0.60827619   -2.7882738   -2.7882738   -2.0586579   0.04585661   -2.7882738   0.72961594   424551 
 3968000   0.60771547   -2.7878878   -2.7878878   -2.0589445  0.039239714   -2.7878878   0.72894337   424551 
 3969000   0.60886766   -2.7901813   -2.7901813   -2.0598559  0.032001881   -2.7901813    0.7303254   424551 
 3970000   0.60716483   -2.7885202   -2.7885202   -2.0602373  0.034287941   -2.7885202   0.72828288   424551 
 3971000   0.60825681   -2.7901642   -2.7901642   -2.0605715  0.035473543   -2.7901642    0.7295927   424551 
 3972000   0.60809698   -2.7896685   -2.7896685   -2.0602676  0.035216928   -2.7896685   0.72940097   424551 
 3973000   0.60833952   -2.7892799   -2.7892799    -2.059588  0.034002583   -2.7892799   0.72969189   424551 
 3974000   0.60785032   -2.7885773   -2.7885773   -2.0594722  0.040121275   -2.7885773   0.72910512   424551 
 3975000   0.60651478    -2.786698    -2.786698   -2.0591948  0.039639248    -2.786698   0.72750316   424551 
 3976000   0.60732244   -2.7873981   -2.7873981   -2.0589262  0.041593711   -2.7873981   0.72847193   424551 
 3977000   0.60701002   -2.7873971   -2.7873971   -2.0592999   0.02835539   -2.7873971   0.72809719   424551 
 3978000   0.60751122   -2.7879078   -2.7879078   -2.0592095  0.039449294   -2.7879078   0.72869837   424551 
 3979000   0.60902695   -2.7900307   -2.7900307   -2.0595142  0.039048107   -2.7900307   0.73051646   424551 
 3980000   0.60695782   -2.7876813   -2.7876813   -2.0596467  0.034708907   -2.7876813   0.72803458   424551 
 3981000   0.60694843   -2.7869853   -2.7869853    -2.058962  0.048091978   -2.7869853   0.72802331   424551 
 3982000   0.60646752   -2.7871737   -2.7871737   -2.0597272  0.038870132   -2.7871737   0.72744647   424551 
 3983000   0.60610199   -2.7861977   -2.7861977   -2.0591897   0.03841651   -2.7861977   0.72700802   424551 
 3984000   0.60811039   -2.7886635   -2.7886635   -2.0592464  0.039325971   -2.7886635   0.72941706   424551 
 3985000   0.60764689   -2.7878125   -2.7878125   -2.0589514  0.034292512   -2.7878125    0.7288611   424551 
 3986000   0.60839661   -2.7882522   -2.7882522   -2.0584918  0.035534924   -2.7882522   0.72976038   424551 
 3987000   0.60700848    -2.787069    -2.787069   -2.0589737  0.032882698    -2.787069   0.72809534   424551 
 3988000   0.60711277   -2.7870345   -2.7870345   -2.0588141  0.039860898   -2.7870345   0.72822044   424551 
 3989000   0.60797518   -2.7881597   -2.7881597   -2.0589048  0.033158244   -2.7881597   0.72925487   424551 
 3990000    0.6086466   -2.7895666   -2.7895666   -2.0595064  0.035097109   -2.7895666   0.73006023   424551 
 3991000   0.60807578   -2.7890024   -2.7890024   -2.0596269  0.025714163   -2.7890024   0.72937554   424551 
 3992000   0.60692581   -2.7884281   -2.7884281    -2.060432  0.040371098   -2.7884281   0.72799618   424551 
 3993000   0.60800517   -2.7889329   -2.7889329    -2.059642  0.034771155   -2.7889329   0.72929085   424551 
 3994000   0.60822874   -2.7883751   -2.7883751   -2.0588161  0.033900471   -2.7883751   0.72955902   424551 
 3995000   0.60589036   -2.7859127   -2.7859127   -2.0591585   0.03190181   -2.7859127   0.72675418   424551 
 3996000   0.60742026   -2.7877475   -2.7877475   -2.0591582  0.031948075   -2.7877475   0.72858927   424551 
 3997000   0.60836934   -2.7888467   -2.7888467    -2.059119  0.038425465   -2.7888467   0.72972767   424551 
 3998000   0.60762152   -2.7880435   -2.7880435   -2.0592128  0.038784193   -2.7880435   0.72883067   424551 
 3999000   0.60753235   -2.7885265   -2.7885265   -2.0598028  0.045894055   -2.7885265   0.72872371   424551 
 4000000   0.60755524   -2.7893405   -2.7893405   -2.0605894   0.02586447   -2.7893405   0.72875118   424551 
 4001000   0.60764728   -2.7895948   -2.7895948   -2.0607332  0.031998502   -2.7895948   0.72886157   424551 
 4002000   0.60807135   -2.7902606   -2.7902606   -2.0608903  0.036364971   -2.7902606   0.72937023   424551 
 4003000   0.60775018   -2.7906771   -2.7906771   -2.0616921  0.031536166   -2.7906771     0.728985   424551 
 4004000   0.60791718   -2.7901615   -2.7901615   -2.0609762  0.036134972   -2.7901615   0.72918531   424551 
 4005000   0.60719474   -2.7887675   -2.7887675   -2.0604487  0.040395698   -2.7887675   0.72831876   424551 
 4006000    0.6076179   -2.7890654   -2.7890654   -2.0602391  0.042545361   -2.7890654   0.72882633   424551 
 4007000   0.60816757   -2.7903472   -2.7903472   -2.0608615  0.036958428   -2.7903472   0.72948565   424551 
 4008000   0.60725581   -2.7897229   -2.7897229   -2.0613309  0.041034751   -2.7897229     0.728392   424551 
 4009000   0.60749806   -2.7898974   -2.7898974   -2.0612148  0.037508026   -2.7898974   0.72868258   424551 
 4010000   0.60777877   -2.7904832   -2.7904832   -2.0614639  0.029521031   -2.7904832   0.72901929   424551 
 4011000   0.60652165   -2.7894122   -2.7894122   -2.0619008  0.033281166   -2.7894122   0.72751139   424551 
 4012000   0.60699262   -2.7897556   -2.7897556   -2.0616793  0.035959539   -2.7897556   0.72807632   424551 
 4013000   0.60697191   -2.7890281   -2.7890281   -2.0609766  0.050445954   -2.7890281   0.72805148   424551 
 4014000   0.60788311    -2.790263    -2.790263   -2.0611186  0.036984191    -2.790263   0.72914445   424551 
 4015000   0.60732369   -2.7888781   -2.7888781   -2.0604047  0.035354162   -2.7888781   0.72847343   424551 
 4016000   0.60656338   -2.7885995   -2.7885995   -2.0610381  0.031608376   -2.7885995   0.72756145   424551 
 4017000   0.60794289   -2.7898003   -2.7898003   -2.0605841  0.039751118   -2.7898003   0.72921614   424551 
 4018000   0.60681636   -2.7890972   -2.7890972   -2.0612323  0.039456898   -2.7890972    0.7278649   424551 
 4019000   0.60622686   -2.7883678   -2.7883678   -2.0612099  0.028399648   -2.7883678    0.7271578   424551 
 4020000   0.60743945   -2.7898752   -2.7898752    -2.061263  0.039418347   -2.7898752   0.72861228   424551 
 4021000   0.60751162   -2.7899297   -2.7899297   -2.0612308  0.029564798   -2.7899297   0.72869885   424551 
 4022000   0.60798612    -2.791183    -2.791183    -2.061915  0.036361054    -2.791183     0.729268   424551 
 4023000   0.60729089   -2.7905798   -2.7905798   -2.0621457  0.031946357   -2.7905798   0.72843409   424551 
 4024000   0.60745019   -2.7903537   -2.7903537   -2.0617286  0.042760467   -2.7903537   0.72862516   424551 
 4025000   0.60749633   -2.7903168   -2.7903168   -2.0616363  0.037007135   -2.7903168   0.72868051   424551 
 4026000   0.60789951   -2.7914642   -2.7914642      -2.0623  0.031150877   -2.7914642   0.72916412   424551 
 4027000   0.60699824   -2.7906452   -2.7906452   -2.0625622  0.032501636   -2.7906452   0.72808305   424551 
 4028000   0.60716196   -2.7903743   -2.7903743   -2.0620949  0.035144558   -2.7903743   0.72827943   424551 
 4029000   0.60780201   -2.7915235   -2.7915235   -2.0624764  0.026988123   -2.7915235   0.72904716   424551 
 4030000    0.6078403   -2.7907313   -2.7907313   -2.0616382  0.027332176   -2.7907313    0.7290931   424551 
 4031000    0.6062225   -2.7884167   -2.7884167   -2.0612641  0.030263034   -2.7884167   0.72715258   424551 
 4032000   0.60835803   -2.7903907   -2.7903907   -2.0606766  0.035338418   -2.7903907    0.7297141   424551 
 4033000   0.60676848   -2.7888544   -2.7888544   -2.0610469  0.034277868   -2.7888544   0.72780746   424551 
 4034000   0.60587489   -2.7881996   -2.7881996    -2.061464  0.042663097   -2.7881996   0.72673562   424551 
 4035000   0.60893756   -2.7921669   -2.7921669   -2.0617577  0.033406334   -2.7921669   0.73040924   424551 
 4036000   0.60772987   -2.7904999   -2.7904999   -2.0615393  0.033428396   -2.7904999   0.72896063   424551 
 4037000   0.60700398   -2.7893373   -2.7893373   -2.0612474   0.02810399   -2.7893373   0.72808994   424551 
 4038000   0.60801036   -2.7901501   -2.7901501    -2.060853   0.04152019   -2.7901501   0.72929708   424551 
 4039000   0.60719931   -2.7890891   -2.7890891   -2.0607648  0.037024523   -2.7890891   0.72832423   424551 
 4040000   0.60756002    -2.789709    -2.789709   -2.0609521  0.034287201    -2.789709    0.7287569   424551 
 4041000   0.60723312   -2.7889776   -2.7889776   -2.0606128  0.040811118   -2.7889776    0.7283648   424551 
 4042000   0.60798784   -2.7899155   -2.7899155   -2.0606454  0.034046981   -2.7899155   0.72927007   424551 
 4043000   0.60753449   -2.7896513   -2.7896513    -2.060925  0.039116386   -2.7896513   0.72872628   424551 
 4044000     0.607253   -2.7893463   -2.7893463   -2.0609576  0.033482882   -2.7893463   0.72838864   424551 
 4045000   0.60793051   -2.7894593   -2.7894593    -2.060258  0.041550348   -2.7894593    0.7292013   424551 
 4046000   0.60736605   -2.7891134   -2.7891134   -2.0605892  0.026619909   -2.7891134   0.72852424   424551 
 4047000   0.60742458   -2.7892438   -2.7892438   -2.0606494  0.029568327   -2.7892438   0.72859444   424551 
 4048000   0.60712506   -2.7891693   -2.7891693   -2.0609341  0.035101069   -2.7891693   0.72823518   424551 
 4049000   0.60796717   -2.7901024   -2.7901024   -2.0608571   0.03423925   -2.7901024   0.72924527   424551 
 4050000   0.60853208   -2.7910398   -2.7910398   -2.0611169  0.038442408   -2.7910398   0.72992287   424551 
 4051000   0.60774335   -2.7900974   -2.7900974   -2.0611206  0.032923376   -2.7900974    0.7289768   424551 
 4052000   0.60642072   -2.7879184   -2.7879184    -2.060528  0.041306785   -2.7879184   0.72739034   424551 
 4053000   0.60855639   -2.7903694   -2.7903694   -2.0604173  0.036695071   -2.7903694   0.72995203   424551 
 4054000   0.60656942   -2.7887913   -2.7887913   -2.0612226   0.03735719   -2.7887913    0.7275687   424551 
 4055000   0.60694413   -2.7893718   -2.7893718   -2.0613537  0.029052252   -2.7893718   0.72801816   424551 
 4056000    0.6074298    -2.789884    -2.789884   -2.0612833  0.037785798    -2.789884    0.7286007   424551 
 4057000   0.60905832   -2.7919505   -2.7919505   -2.0613964  0.034090207   -2.7919505   0.73055409   424551 
 4058000   0.60711702   -2.7895162   -2.7895162   -2.0612907  0.044858039   -2.7895162   0.72822553   424551 
 4059000   0.60765011   -2.7900396   -2.7900396   -2.0611747  0.035497671   -2.7900396   0.72886496   424551 
 4060000   0.60787969   -2.7911973   -2.7911973   -2.0620569  0.030198212   -2.7911973   0.72914035   424551 
 4061000   0.60777202   -2.7911258   -2.7911258   -2.0621146  0.036803777   -2.7911258   0.72901119   424551 
 4062000   0.60757147   -2.7908571   -2.7908571   -2.0620864   0.04028848   -2.7908571   0.72877064   424551 
 4063000   0.60810836   -2.7911056   -2.7911056    -2.061691  0.034434031   -2.7911056   0.72941463   424551 
 4064000   0.60805107   -2.7914593   -2.7914593   -2.0621134  0.031386236   -2.7914593   0.72934591   424551 
 4065000   0.60756498   -2.7911602   -2.7911602   -2.0623973  0.052522966   -2.7911602   0.72876285   424551 
 4066000   0.60742687   -2.7916726   -2.7916726   -2.0630754  0.035853641   -2.7916726   0.72859719   424551 
 4067000   0.60687723   -2.7910818   -2.7910818   -2.0631439  0.039506493   -2.7910818   0.72793791   424551 
 4068000   0.60733684   -2.7918553   -2.7918553   -2.0633661  0.042660555   -2.7918553    0.7284892   424551 
 4069000   0.60645235   -2.7899257   -2.7899257   -2.0624974  0.043117543   -2.7899257   0.72742828   424551 
 4070000   0.60685971   -2.7894821   -2.7894821   -2.0615652  0.038671584   -2.7894821   0.72791689   424551 
 4071000    0.6072179   -2.7901953   -2.7901953   -2.0618488  0.033347816   -2.7901953   0.72834654   424551 
 4072000   0.60797936   -2.7914944   -2.7914944   -2.0622345  0.029841611   -2.7914944   0.72925989   424551 
 4073000   0.60709841   -2.7909058   -2.7909058   -2.0627026  0.026500023   -2.7909058   0.72820322   424551 
 4074000   0.60834107   -2.7923063   -2.7923063   -2.0626126  0.027276281   -2.7923063   0.72969376   424551 
 4075000   0.60614725   -2.7902012   -2.7902012   -2.0631389  0.040236453   -2.7902012   0.72706231   424551 
 4076000   0.60687431   -2.7909036   -2.7909036   -2.0629692  0.037668827   -2.7909036   0.72793441   424551 
 4077000   0.60693953   -2.7908842   -2.7908842   -2.0628716   0.04007752   -2.7908842   0.72801264   424551 
 4078000   0.60821939   -2.7918399   -2.7918399   -2.0622921  0.035463988   -2.7918399   0.72954781   424551 
 4079000   0.60765913   -2.7913247   -2.7913247   -2.0624489  0.040375713   -2.7913247   0.72887579   424551 
 4080000   0.60689781   -2.7901955   -2.7901955   -2.0622329  0.034782568   -2.7901955    0.7279626   424551 
 4081000   0.60681814   -2.7899154   -2.7899154   -2.0620483  0.032067442   -2.7899154   0.72786704   424551 
 4082000   0.60847487   -2.7917856   -2.7917856   -2.0619313   0.03934883   -2.7917856   0.72985425   424551 
 4083000   0.60700303   -2.7905257   -2.7905257   -2.0624369  0.036912898   -2.7905257   0.72808881   424551 
 4084000   0.60805772   -2.7919387   -2.7919387   -2.0625848  0.031809296   -2.7919387   0.72935389   424551 
 4085000   0.60869932   -2.7928857   -2.7928857   -2.0627623  0.047998268   -2.7928857   0.73012347   424551 
 4086000   0.60772795   -2.7925735   -2.7925735   -2.0636152  0.038326278   -2.7925735   0.72895833   424551 
 4087000   0.60761906   -2.7924738   -2.7924738   -2.0636461  0.029526863   -2.7924738   0.72882772   424551 
 4088000     0.608768   -2.7928904   -2.7928904   -2.0626845  0.031033548   -2.7928904   0.73020585   424551 
 4089000   0.60751682   -2.7920644   -2.7920644   -2.0633593  0.041560789   -2.7920644   0.72870509   424551 
 4090000    0.6066417   -2.7900738   -2.7900738   -2.0624184  0.027095298   -2.7900738    0.7276554   424551 
 4091000   0.60820232   -2.7918484   -2.7918484   -2.0623211  0.031003072   -2.7918484   0.72952733   424551 
 4092000   0.60804044   -2.7913778   -2.7913778   -2.0620446  0.028027533   -2.7913778   0.72933316   424551 
 4093000   0.60722378   -2.7914095   -2.7914095   -2.0630559   0.03292756   -2.7914095    0.7283536   424551 
 4094000   0.60880533   -2.7927555   -2.7927555   -2.0625049   0.04786937   -2.7927555   0.73025062   424551 
 4095000     0.608112   -2.7918969   -2.7918969   -2.0624779  0.045342922   -2.7918969   0.72941899   424551 
 4096000    0.6070783   -2.7915099   -2.7915099   -2.0633308  0.042280716   -2.7915099   0.72817909   424551 
 4097000   0.60701257   -2.7915105   -2.7915105   -2.0634102  0.039608253   -2.7915105   0.72810025   424551 
 4098000   0.60711324    -2.791972    -2.791972    -2.063751   0.03210716    -2.791972     0.728221   424551 
 4099000   0.60679899   -2.7906299   -2.7906299   -2.0627858  0.040862495   -2.7906299   0.72784407   424551 
 4100000   0.60733207   -2.7914958   -2.7914958   -2.0630124  0.041167097   -2.7914958   0.72848348   424551 
 4101000   0.60637935    -2.790776    -2.790776   -2.0634353  0.041132755    -2.790776   0.72734071   424551 
 4102000   0.60716506    -2.791891    -2.791891   -2.0636079  0.038292932    -2.791891   0.72828315   424551 
 4103000    0.6070256   -2.7920818   -2.7920818   -2.0639659  0.030025874   -2.7920818   0.72811588   424551 
 4104000   0.60706707   -2.7917978   -2.7917978   -2.0636321  0.027653555   -2.7917978   0.72816562   424551 
 4105000   0.60707825   -2.7916641   -2.7916641   -2.0634851  0.039685078   -2.7916641   0.72817903   424551 
 4106000   0.60662225   -2.7910472   -2.7910472   -2.0634151  0.036567977   -2.7910472   0.72763206   424551 
 4107000   0.60650343   -2.7909833   -2.7909833   -2.0634937  0.041903346   -2.7909833   0.72748954   424551 
 4108000   0.60728388   -2.7921151   -2.7921151   -2.0636894  0.037407178   -2.7921151   0.72842568   424551 
 4109000   0.60748706   -2.7924583   -2.7924583   -2.0637889  0.033739194   -2.7924583   0.72866939   424551 
 4110000   0.60793534   -2.7934321   -2.7934321    -2.064225  0.037515707   -2.7934321   0.72920709   424551 
 4111000   0.60785103   -2.7936122   -2.7936122   -2.0645062  0.040217627   -2.7936122   0.72910597   424551 
 4112000   0.60714584   -2.7931008   -2.7931008   -2.0648407   0.04190619   -2.7931008    0.7282601   424551 
 4113000   0.60678427   -2.7927627   -2.7927627   -2.0649363  0.037048363   -2.7927627   0.72782641   424551 
 4114000   0.60657383   -2.7920771   -2.7920771   -2.0645031  0.033087341   -2.7920771   0.72757399   424551 
 4115000   0.60708844   -2.7931292   -2.7931292    -2.064938  0.033128321   -2.7931292   0.72819126   424551 
 4116000   0.60786567   -2.7941698   -2.7941698   -2.0650463  0.035108629   -2.7941698   0.72912353   424551 
 4117000   0.60612011   -2.7914752   -2.7914752   -2.0644455   0.03507659   -2.7914752   0.72702976   424551 
 4118000   0.60777136   -2.7931775   -2.7931775   -2.0641671  0.035535544   -2.7931775   0.72901041   424551 
 4119000   0.60703516   -2.7925188   -2.7925188   -2.0643914  0.035401152   -2.7925188   0.72812734   424551 
 4120000    0.6079041   -2.7936175   -2.7936175   -2.0644478  0.032906396   -2.7936175   0.72916962   424551 
 4121000   0.60694635   -2.7924302   -2.7924302   -2.0644094  0.030650751   -2.7924302   0.72802082   424551 
 4122000   0.60705266   -2.7919031   -2.7919031   -2.0637548  0.041341982   -2.7919031   0.72814834   424551 
 4123000   0.60745369   -2.7923977   -2.7923977   -2.0637684  0.035935081   -2.7923977   0.72862936   424551 
 4124000   0.60653551   -2.7909483   -2.7909483   -2.0634202  0.032109297   -2.7909483   0.72752802   424551 
 4125000    0.6072123   -2.7915686   -2.7915686   -2.0632288  0.032692808   -2.7915686   0.72833982   424551 
 4126000   0.60751957   -2.7920724   -2.7920724    -2.063364   0.04095815   -2.7920724   0.72870838   424551 
 4127000   0.60696457   -2.7906441   -2.7906441   -2.0626014  0.035763246   -2.7906441   0.72804267   424551 
 4128000   0.60699725    -2.791072    -2.791072   -2.0629901  0.041018194    -2.791072   0.72808187   424551 
 4129000   0.60744556   -2.7915237   -2.7915237   -2.0629041  0.031845018   -2.7915237   0.72861961   424551 
 4130000   0.60575049   -2.7893038   -2.7893038   -2.0627174  0.037600976   -2.7893038    0.7265864   424551 
 4131000   0.60696927   -2.7913931   -2.7913931   -2.0633447    0.0297044   -2.7913931   0.72804831   424551 
 4132000    0.6054507   -2.7883945   -2.7883945   -2.0621677  0.037444434   -2.7883945   0.72622681   424551 
 4133000   0.60675004    -2.789233    -2.789233   -2.0614476  0.031024313    -2.789233   0.72778534   424551 
 4134000   0.60672149    -2.789629    -2.789629   -2.0618779  0.035021938    -2.789629    0.7277511   424551 
 4135000   0.60706091   -2.7901672   -2.7901672    -2.062009  0.031826038   -2.7901672   0.72815823   424551 
 4136000   0.60701176   -2.7905941   -2.7905941   -2.0624948  0.032587485   -2.7905941   0.72809928   424551 
 4137000   0.60740501   -2.7913337   -2.7913337   -2.0627627  0.029665727   -2.7913337   0.72857097   424551 
 4138000   0.60684745   -2.7912186   -2.7912186   -2.0633164  0.033348388   -2.7912186   0.72790219   424551 
 4139000   0.60602118   -2.7899493   -2.7899493   -2.0630382  0.030189524   -2.7899493   0.72691109   424551 
 4140000   0.60560805   -2.7891407   -2.7891407   -2.0627252  0.035976854   -2.7891407   0.72641556   424551 
 4141000   0.60656672     -2.79033     -2.79033   -2.0627646  0.037591134     -2.79033   0.72756546   424551 
 4142000   0.60635349   -2.7900397   -2.7900397     -2.06273  0.038983077   -2.7900397    0.7273097   424551 
 4143000   0.60863382   -2.7916944   -2.7916944   -2.0616495  0.039829383   -2.7916944   0.73004491   424551 
 4144000   0.60621061   -2.7895166   -2.7895166   -2.0623783  0.032873791   -2.7895166   0.72713831   424551 
 4145000   0.60655066   -2.7897942   -2.7897942    -2.062248  0.041622612   -2.7897942   0.72754619   424551 
 4146000   0.60584097   -2.7891497   -2.7891497   -2.0624548  0.040093335   -2.7891497   0.72669493   424551 
 4147000   0.60683059   -2.7902122   -2.7902122   -2.0623302  0.033386847   -2.7902122   0.72788196   424551 
 4148000   0.60697183   -2.7898044   -2.7898044    -2.061753  0.042388139   -2.7898044   0.72805138   424551 
 4149000   0.60722695   -2.7906161   -2.7906161   -2.0622587  0.032898658   -2.7906161   0.72835739   424551 
 4150000   0.60651638   -2.7904843   -2.7904843   -2.0629792  0.039718389   -2.7904843   0.72750508   424551 
 4151000   0.60738365   -2.7910562   -2.7910562   -2.0625108  0.035505036   -2.7910562   0.72854536   424551 
 4152000   0.60719195    -2.790833    -2.790833   -2.0625176  0.036055669    -2.790833    0.7283154   424551 
 4153000   0.60616923   -2.7903865   -2.7903865   -2.0632979  0.031802806   -2.7903865   0.72708868   424551 
 4154000   0.60786111   -2.7920225   -2.7920225   -2.0629045  0.032306286   -2.7920225   0.72911806   424551 
 4155000   0.60721165   -2.7913984   -2.7913984   -2.0630593  0.033169177   -2.7913984   0.72833904   424551 
 4156000   0.60780696   -2.7919275   -2.7919275   -2.0628744  0.032221337   -2.7919275   0.72905311   424551 
 4157000   0.60667667   -2.7917973   -2.7917973   -2.0640999  0.033034518   -2.7917973   0.72769735   424551 
 4158000   0.60624971   -2.7920004   -2.7920004   -2.0648152  0.033987406   -2.7920004   0.72718522   424551 
 4159000   0.60616398   -2.7916075   -2.7916075   -2.0645251  0.039453803   -2.7916075   0.72708238   424551 
 4160000   0.60708064   -2.7929766   -2.7929766   -2.0647947  0.036496875   -2.7929766    0.7281819   424551 
 4161000   0.60729484    -2.792405    -2.792405   -2.0639662  0.045536227    -2.792405   0.72843882   424551 
 4162000   0.60605975   -2.7914327   -2.7914327   -2.0644754  0.039156043   -2.7914327   0.72695735   424551 
 4163000   0.60622672   -2.7919733   -2.7919733   -2.0648157  0.041876166   -2.7919733   0.72715764   424551 
 4164000   0.60673467   -2.7923499   -2.7923499   -2.0645829  0.040757192   -2.7923499   0.72776691   424551 
 4165000   0.60634582    -2.792421    -2.792421   -2.0651206  0.027918751    -2.792421   0.72730049   424551 
 4166000   0.60562395   -2.7909073   -2.7909073   -2.0644726  0.036194195   -2.7909073   0.72643463   424551 
 4167000   0.60680822   -2.7921606   -2.7921606   -2.0643054  0.038078859   -2.7921606   0.72785513   424551 
 4168000   0.60752486   -2.7927044   -2.7927044   -2.0639897  0.039332681   -2.7927044   0.72871473   424551 
 4169000   0.60742437   -2.7926101   -2.7926101   -2.0640159  0.038639545   -2.7926101    0.7285942   424551 
 4170000   0.60798857   -2.7936625   -2.7936625   -2.0643916  0.040057051   -2.7936625   0.72927094   424551 
 4171000   0.60733756   -2.7929402   -2.7929402   -2.0644502  0.038740194   -2.7929402   0.72849007   424551 
 4172000   0.60694101    -2.792424    -2.792424   -2.0644096  0.031576569    -2.792424   0.72801441   424551 
 4173000   0.60619826   -2.7922761   -2.7922761   -2.0651525  0.033220151   -2.7922761    0.7271235   424551 
 4174000   0.60653419   -2.7924678   -2.7924678   -2.0649413  0.036538673   -2.7924678   0.72752644   424551 
 4175000   0.60597638   -2.7919912   -2.7919912   -2.0651338  0.030793837   -2.7919912   0.72685736   424551 
 4176000   0.60724453   -2.7933233   -2.7933233   -2.0649448  0.030626523   -2.7933233   0.72837848   424551 
 4177000   0.60750421   -2.7935025   -2.7935025   -2.0648126   0.03925514   -2.7935025   0.72868997   424551 
 4178000   0.60700365   -2.7936227   -2.7936227   -2.0655332  0.033562693   -2.7936227   0.72808955   424551 
 4179000    0.6064744   -2.7927711   -2.7927711   -2.0653164    0.0338951   -2.7927711   0.72745472   424551 
 4180000   0.60736308   -2.7932474   -2.7932474   -2.0647268  0.034146805   -2.7932474   0.72852067   424551 
 4181000   0.60774942    -2.793437    -2.793437   -2.0644529  0.031593247    -2.793437   0.72898408   424551 
 4182000   0.60726362   -2.7938097   -2.7938097   -2.0654084  0.039119526   -2.7938097   0.72840137   424551 
 4183000   0.60792777     -2.79467     -2.79467    -2.065472  0.031177761     -2.79467   0.72919801   424551 
 4184000   0.60666154   -2.7933337   -2.7933337   -2.0656545  0.035607122   -2.7933337   0.72767919   424551 
 4185000   0.60777557   -2.7940485   -2.7940485    -2.065033  0.036878401   -2.7940485   0.72901546   424551 
 4186000   0.60636495   -2.7921171   -2.7921171   -2.0647936  0.039714603   -2.7921171   0.72732343   424551 
 4187000   0.60641915   -2.7921189   -2.7921189   -2.0647304  0.035732063   -2.7921189   0.72738846   424551 
 4188000   0.60617254    -2.792257    -2.792257   -2.0651644  0.036873216    -2.792257   0.72709265   424551 
 4189000    0.6059356   -2.7925446   -2.7925446   -2.0657361  0.029676302   -2.7925446   0.72680845   424551 
 4190000   0.60678378    -2.793392    -2.793392   -2.0655662  0.035889094    -2.793392   0.72782582   424551 
 4191000   0.60495617    -2.791505    -2.791505   -2.0658713  0.039372556    -2.791505   0.72563364   424551 
 4192000   0.60680843   -2.7939633   -2.7939633   -2.0661079  0.036036915   -2.7939633   0.72785538   424551 
 4193000   0.60555763   -2.7930272   -2.7930272   -2.0666721  0.031877611   -2.7930272   0.72635507   424551 
 4194000   0.60707729   -2.7944303   -2.7944303   -2.0662525  0.038473101   -2.7944303   0.72817788   424551 
 4195000   0.60614654   -2.7929452   -2.7929452   -2.0658837  0.044895241   -2.7929452   0.72706147   424551 
 4196000   0.60639499   -2.7931118   -2.7931118   -2.0657523  0.033925063   -2.7931118   0.72735948   424551 
 4197000   0.60688516   -2.7937233   -2.7937233   -2.0657759    0.0373963   -2.7937233   0.72794743   424551 
 4198000   0.60699587   -2.7938959   -2.7938959   -2.0658157  0.036663674   -2.7938959   0.72808021   424551 
 4199000   0.60788604   -2.7957083   -2.7957083   -2.0665604  0.036461108   -2.7957083   0.72914796   424551 
 4200000   0.60818188   -2.7956671   -2.7956671   -2.0661643  0.032674696   -2.7956671   0.72950281   424551 
 4201000   0.60576651   -2.7931636   -2.7931636    -2.066558   0.03916539   -2.7931636   0.72660562   424551 
 4202000   0.60764026   -2.7951026   -2.7951026   -2.0662495   0.03932364   -2.7951026   0.72885315   424551 
 4203000   0.60719482     -2.79458     -2.79458   -2.0662612  0.041431546     -2.79458   0.72831885   424551 
 4204000   0.60730436    -2.794172    -2.794172   -2.0657217  0.037932826    -2.794172   0.72845024   424551 
 4205000   0.60642422   -2.7940468   -2.7940468   -2.0666523  0.038489147   -2.7940468   0.72739454   424551 
 4206000   0.60714829   -2.7943462   -2.7943462   -2.0660831   0.03990752   -2.7943462   0.72826304   424551 
 4207000   0.60815343   -2.7948616   -2.7948616   -2.0653929  0.039229424   -2.7948616   0.72946868   424551 
 4208000   0.60768266   -2.7941321   -2.7941321   -2.0652281  0.031234645   -2.7941321   0.72890401   424551 
 4209000    0.6076449   -2.7935304   -2.7935304   -2.0646717   0.03413839   -2.7935304   0.72885872   424551 
 4210000    0.6079019   -2.7940076   -2.7940076   -2.0648406  0.037453024   -2.7940076   0.72916698   424551 
 4211000   0.60642366   -2.7918746   -2.7918746   -2.0644808  0.038727138   -2.7918746   0.72739386   424551 
 4212000   0.60614046   -2.7921879   -2.7921879   -2.0651337  0.029152807   -2.7921879   0.72705417   424551 
 4213000    0.6053199   -2.7925924   -2.7925924   -2.0665224  0.039981895   -2.7925924   0.72606992   424551 
 4214000   0.60544544   -2.7924797   -2.7924797   -2.0662592  0.040288122   -2.7924797    0.7262205   424551 
 4215000   0.60529555   -2.7914595   -2.7914595   -2.0654188  0.038822392   -2.7914595   0.72604071   424551 
 4216000   0.60614174   -2.7926932   -2.7926932   -2.0656375  0.033098818   -2.7926932    0.7270557   424551 
 4217000    0.6056343   -2.7918977   -2.7918977   -2.0654507   0.02812608   -2.7918977   0.72644704   424551 
 4218000   0.60478302   -2.7912003   -2.7912003   -2.0657744  0.043273234   -2.7912003   0.72542594   424551 
 4219000   0.60590405   -2.7924705   -2.7924705   -2.0656999  0.033904006   -2.7924705    0.7267706   424551 
 4220000   0.60556922   -2.7920202   -2.7920202   -2.0656512  0.032150183   -2.7920202   0.72636897   424551 
 4221000   0.60610298   -2.7923846   -2.7923846   -2.0653754  0.035247365   -2.7923846   0.72700921   424551 
 4222000   0.60606555   -2.7920463   -2.7920463    -2.065082  0.038294394   -2.7920463   0.72696432   424551 
 4223000   0.60640064   -2.7924012   -2.7924012    -2.065035  0.040047178   -2.7924012   0.72736625   424551 
 4224000   0.60790313   -2.7946038   -2.7946038   -2.0654354   0.03802755   -2.7946038   0.72916845   424551 
 4225000   0.60608841   -2.7921506   -2.7921506   -2.0651589  0.039175301   -2.7921506   0.72699174   424551 
 4226000     0.607469   -2.7933414   -2.7933414   -2.0646937  0.033899413   -2.7933414   0.72864772   424551 
 4227000   0.60515073   -2.7908727   -2.7908727   -2.0650057  0.040549161   -2.7908727   0.72586701   424551 
 4228000    0.6072097   -2.7927127   -2.7927127    -2.064376  0.031911768   -2.7927127    0.7283367   424551 
 4229000   0.60674795   -2.7926054   -2.7926054   -2.0648226  0.035389768   -2.7926054   0.72778284   424551 
 4230000   0.60694759   -2.7927613   -2.7927613    -2.064739  0.038644615   -2.7927613    0.7280223   424551 
 4231000   0.60697711   -2.7936022   -2.7936022   -2.0655445  0.031882038   -2.7936022   0.72805771   424551 
 4232000   0.60684653   -2.7933615   -2.7933615   -2.0654605  0.040102356   -2.7933615   0.72790108   424551 
 4233000   0.60648946   -2.7927828   -2.7927828     -2.06531  0.035176162   -2.7927828   0.72747278   424551 
 4234000   0.60675606   -2.7930377   -2.7930377   -2.0652451  0.031319271   -2.7930377   0.72779257   424551 
 4235000   0.60691924   -2.7932743   -2.7932743    -2.065286  0.044186673   -2.7932743    0.7279883   424551 
 4236000   0.60785878   -2.7951098   -2.7951098   -2.0659945   0.03214463   -2.7951098   0.72911526   424551 
 4237000   0.60640077   -2.7935636   -2.7935636   -2.0661972  0.041896049   -2.7935636   0.72736641   424551 
 4238000   0.60655192   -2.7936102   -2.7936102   -2.0660625  0.031961712   -2.7936102    0.7275477   424551 
 4239000   0.60801348   -2.7951569   -2.7951569   -2.0658561  0.038900862   -2.7951569   0.72930081   424551 
 4240000   0.60745966    -2.794168    -2.794168   -2.0655315  0.031495171    -2.794168   0.72863652   424551 
 4241000   0.60705712   -2.7937421   -2.7937421   -2.0655884  0.035861357   -2.7937421   0.72815369   424551 
 4242000   0.60725099     -2.79355     -2.79355   -2.0651638  0.043628929     -2.79355   0.72838623   424551 
 4243000   0.60793492    -2.794536    -2.794536   -2.0653294  0.028862696    -2.794536   0.72920659   424551 
 4244000   0.60708522   -2.7934981   -2.7934981   -2.0653107  0.038216989   -2.7934981   0.72818739   424551 
 4245000   0.60704632   -2.7933826   -2.7933826   -2.0652419  0.038199024   -2.7933826   0.72814073   424551 
 4246000   0.60777142   -2.7936641   -2.7936641   -2.0646536  0.030956557   -2.7936641   0.72901047   424551 
 4247000   0.60822551   -2.7948384   -2.7948384   -2.0652833  0.031497316   -2.7948384   0.72955514   424551 
 4248000   0.60749312   -2.7937582   -2.7937582   -2.0650815  0.037622671   -2.7937582   0.72867666   424551 
 4249000   0.60665996    -2.793641    -2.793641   -2.0659637  0.036514595    -2.793641    0.7276773   424551 
 4250000   0.60556024   -2.7930972   -2.7930972    -2.066739  0.035076582   -2.7930972    0.7263582   424551 
 4251000   0.60519344   -2.7927232   -2.7927232   -2.0668049  0.032832473   -2.7927232   0.72591823   424551 
 4252000   0.60654197   -2.7946005   -2.7946005   -2.0670647  0.028674658   -2.7946005   0.72753577   424551 
 4253000    0.6063165   -2.7940541   -2.7940541   -2.0667888  0.034887171   -2.7940541   0.72726533   424551 
 4254000   0.60648764   -2.7944368   -2.7944368   -2.0669662  0.032583622   -2.7944368   0.72747061   424551 
 4255000   0.60529225   -2.7931265   -2.7931265   -2.0670898  0.033362147   -2.7931265   0.72603675   424551 
 4256000   0.60661451   -2.7941809   -2.7941809   -2.0665581  0.038951719   -2.7941809   0.72762279   424551 
 4257000   0.60617952   -2.7933459   -2.7933459   -2.0662449  0.039877277   -2.7933459   0.72710102   424551 
 4258000   0.60623156   -2.7939505   -2.7939505   -2.0667871  0.037383752   -2.7939505   0.72716345   424551 
 4259000    0.6070158   -2.7951064   -2.7951064   -2.0670022  0.033656762   -2.7951064   0.72810412   424551 
 4260000   0.60675992   -2.7942446   -2.7942446   -2.0664474  0.036415973   -2.7942446    0.7277972   424551 
 4261000   0.60784089   -2.7951954   -2.7951954   -2.0661015  0.042151322   -2.7951954    0.7290938   424551 
 4262000   0.60707079   -2.7946532   -2.7946532   -2.0664831  0.043139189   -2.7946532   0.72817008   424551 
 4263000   0.60896492   -2.7976553   -2.7976553   -2.0672132  0.026193283   -2.7976553   0.73044205   424551 
 4264000    0.6075697   -2.7955814   -2.7955814   -2.0668129  0.044069636   -2.7955814   0.72876851   424551 
 4265000   0.60685021   -2.7946654   -2.7946654   -2.0667599  0.049165467   -2.7946654    0.7279055   424551 
 4266000   0.60762977   -2.7961747   -2.7961747   -2.0673342  0.043817666   -2.7961747   0.72884057   424551 
 4267000   0.60758688   -2.7960951   -2.7960951    -2.067306  0.033285358   -2.7960951   0.72878912   424551 
 4268000   0.60712167   -2.7948171   -2.7948171   -2.0665859   0.04377977   -2.7948171   0.72823111   424551 
 4269000   0.60657962   -2.7944183   -2.7944183   -2.0668373  0.046613264   -2.7944183   0.72758093   424551 
 4270000   0.60750047   -2.7955869   -2.7955869   -2.0669015  0.025145256   -2.7955869   0.72868547   424551 
 4271000   0.60636274   -2.7940928   -2.7940928    -2.066772  0.032880886   -2.7940928   0.72732079   424551 
 4272000   0.60665834   -2.7941283   -2.7941283   -2.0664529  0.034234873   -2.7941283   0.72767536   424551 
 4273000    0.6068217   -2.7953221   -2.7953221   -2.0674508   0.02449859   -2.7953221    0.7278713   424551 
 4274000    0.6061976   -2.7944009   -2.7944009   -2.0672782   0.02765552   -2.7944009    0.7271227   424551 
 4275000   0.60559213   -2.7942018   -2.7942018   -2.0678053  0.025809665   -2.7942018   0.72639646   424551 
 4276000   0.60653768   -2.7951105   -2.7951105   -2.0675799  0.026227177   -2.7951105   0.72753062   424551 
 4277000   0.60568845   -2.7936355   -2.7936355   -2.0671235  0.031425488   -2.7936355   0.72651199   424551 
 4278000   0.60539512   -2.7935269   -2.7935269   -2.0673667  0.029964963   -2.7935269   0.72616015   424551 
 4279000   0.60535494   -2.7945948   -2.7945948   -2.0684829  0.036063649   -2.7945948   0.72611196   424551 
 4280000   0.60586377   -2.7943977   -2.7943977   -2.0676754  0.033957391   -2.7943977   0.72672229   424551 
 4281000   0.60619215    -2.795165    -2.795165   -2.0680489  0.031609334    -2.795165   0.72711617   424551 
 4282000    0.6049148   -2.7934011   -2.7934011    -2.067817  0.047884619   -2.7934011   0.72558401   424551 
 4283000   0.60722862   -2.7950814   -2.7950814    -2.066722  0.040242717   -2.7950814   0.72835939   424551 
 4284000   0.60668356   -2.7940258   -2.7940258   -2.0663202  0.043812209   -2.7940258   0.72770561   424551 
 4285000   0.60744456   -2.7956943   -2.7956943   -2.0670759  0.035378105   -2.7956943   0.72861842   424551 
 4286000   0.60667996   -2.7942415   -2.7942415   -2.0665402  0.034257237   -2.7942415   0.72770129   424551 
 4287000   0.60641956   -2.7946278   -2.7946278   -2.0672388  0.038024852   -2.7946278   0.72738894   424551 
 4288000   0.60678081   -2.7957856   -2.7957856   -2.0679634  0.042573028   -2.7957856   0.72782226   424551 
 4289000   0.60720589   -2.7962084   -2.7962084   -2.0678763  0.046888572   -2.7962084   0.72833214   424551 
 4290000   0.60747405    -2.796835    -2.796835   -2.0681812  0.034662655    -2.796835   0.72865378   424551 
 4291000   0.60781397   -2.7973251   -2.7973251   -2.0682636  0.044085757   -2.7973251   0.72906151   424551 
 4292000   0.60644022    -2.796191    -2.796191   -2.0687772  0.031496839    -2.796191   0.72741373   424551 
 4293000   0.60655042    -2.796009    -2.796009   -2.0684631  0.032765027    -2.796009    0.7275459   424551 
 4294000    0.6066466   -2.7962709   -2.7962709   -2.0686096  0.035863214   -2.7962709   0.72766128   424551 
 4295000   0.60646456    -2.795964    -2.795964   -2.0685211  0.033188622    -2.795964   0.72744292   424551 
 4296000   0.60488176    -2.793832    -2.793832   -2.0682876  0.033235217    -2.793832   0.72554438   424551 
 4297000   0.60614517   -2.7951836   -2.7951836   -2.0681237  0.034684152   -2.7951836   0.72705982   424551 
 4298000   0.60693015   -2.7955573   -2.7955573   -2.0675559  0.040053773   -2.7955573   0.72800139   424551 
 4299000   0.60621295   -2.7952865   -2.7952865   -2.0681454  0.036312624   -2.7952865   0.72714112   424551 
 4300000   0.60599058   -2.7951555   -2.7951555   -2.0682812  0.033952884   -2.7951555   0.72687439   424551 
 4301000   0.60643898   -2.7954825   -2.7954825   -2.0680703  0.030791854   -2.7954825   0.72741223   424551 
 4302000   0.60763828   -2.7959532   -2.7959532   -2.0671024   0.02898542   -2.7959532   0.72885077   424551 
 4303000   0.60626182   -2.7949295   -2.7949295   -2.0677298  0.038471351   -2.7949295   0.72719974   424551 
 4304000    0.6060793    -2.795109    -2.795109   -2.0681282  0.033632085    -2.795109   0.72698081   424551 
 4305000   0.60828164   -2.7963231   -2.7963231   -2.0667006  0.036488537   -2.7963231   0.72962247   424551 
 4306000   0.60591785   -2.7946231   -2.7946231    -2.067836  0.035156678   -2.7946231   0.72678715   424551 
 4307000   0.60593737   -2.7955406   -2.7955406     -2.06873  0.042336411   -2.7955406   0.72681056   424551 
 4308000   0.60578544   -2.7954711   -2.7954711   -2.0688428  0.035082146   -2.7954711   0.72662833   424551 
 4309000   0.60661394   -2.7965609   -2.7965609   -2.0689388  0.030142148   -2.7965609    0.7276221   424551 
 4310000   0.60541543   -2.7945106   -2.7945106   -2.0683261  0.038463126   -2.7945106   0.72618451   424551 
 4311000   0.60562567   -2.7951443   -2.7951443   -2.0687076  0.028611518   -2.7951443   0.72643668   424551 
 4312000   0.60503511   -2.7938339   -2.7938339   -2.0681056  0.037830116   -2.7938339   0.72572832   424551 
 4313000    0.6057158   -2.7948772   -2.7948772   -2.0683324  0.026796229   -2.7948772    0.7265448   424551 
 4314000   0.60565881   -2.7942205   -2.7942205   -2.0677441  0.034207249   -2.7942205   0.72647644   424551 
 4315000   0.60544529   -2.7941376   -2.7941376   -2.0679173  0.035623718   -2.7941376   0.72622033   424551 
 4316000   0.60685243   -2.7952749   -2.7952749   -2.0673668  0.031918776   -2.7952749   0.72790816   424551 
 4317000   0.60609817   -2.7943437   -2.7943437   -2.0673402  0.039898818   -2.7943437   0.72700344   424551 
 4318000   0.60629353    -2.795529    -2.795529   -2.0682912  0.040479077    -2.795529   0.72723777   424551 
 4319000   0.60678989   -2.7949432   -2.7949432   -2.0671101  0.040525131   -2.7949432   0.72783315   424551 
 4320000   0.60654535   -2.7945187   -2.7945187   -2.0669789  0.036822637   -2.7945187   0.72753982   424551 
 4321000   0.60752085   -2.7963267   -2.7963267   -2.0676168  0.027276792   -2.7963267   0.72870992   424551 
 4322000   0.60755152   -2.7966131   -2.7966131   -2.0678664  0.038825402   -2.7966131   0.72874671   424551 
 4323000    0.6062665   -2.7956068   -2.7956068   -2.0684014   0.04569521   -2.7956068   0.72720535   424551 
 4324000   0.60636621   -2.7959291   -2.7959291   -2.0686042  0.040298582   -2.7959291   0.72732495   424551 
 4325000   0.60629378     -2.79678     -2.79678   -2.0695419  0.038936625     -2.79678   0.72723807   424551 
 4326000    0.6073881   -2.7984663   -2.7984663   -2.0699156   0.03581501   -2.7984663   0.72855069   424551 
 4327000   0.60534422    -2.796389    -2.796389     -2.07029  0.039803139    -2.796389   0.72609909   424551 
 4328000   0.60574601   -2.7967833   -2.7967833   -2.0702022   0.03401909   -2.7967833   0.72658104   424551 
 4329000   0.60592378   -2.7966173   -2.7966173    -2.069823  0.037330212   -2.7966173   0.72679427   424551 
 4330000   0.60699226    -2.797823    -2.797823   -2.0697472  0.035042577    -2.797823   0.72807588   424551 
 4331000   0.60697809   -2.7977308   -2.7977308   -2.0696719  0.025564462   -2.7977308   0.72805889   424551 
 4332000   0.60647791   -2.7977015   -2.7977015   -2.0702425  0.034562709   -2.7977015   0.72745893   424551 
 4333000     0.605224   -2.7959869   -2.7959869    -2.070032  0.048400554   -2.7959869   0.72595489   424551 
 4334000   0.60617626   -2.7964758   -2.7964758   -2.0693787  0.027767966   -2.7964758   0.72709711   424551 
 4335000   0.60553649   -2.7960902   -2.7960902   -2.0697605   0.03542026   -2.7960902   0.72632971   424551 
 4336000   0.60602332   -2.7962657   -2.7962657    -2.069352  0.037570605   -2.7962657   0.72691366   424551 
 4337000   0.60616819   -2.7965857   -2.7965857   -2.0694983  0.030412039   -2.7965857   0.72708742   424551 
 4338000   0.60748445   -2.7981405   -2.7981405   -2.0694743  0.036803238   -2.7981405   0.72866626   424551 
 4339000   0.60580369   -2.7955634   -2.7955634   -2.0689132  0.032978215   -2.7955634   0.72665022   424551 
 4340000   0.60806531    -2.798411    -2.798411    -2.069048   0.03036932    -2.798411   0.72936299   424551 
 4341000   0.60569147   -2.7960905   -2.7960905   -2.0695749  0.041484934   -2.7960905   0.72651561   424551 
 4342000   0.60553516   -2.7962998   -2.7962998   -2.0699717  0.039719641   -2.7962998   0.72632812   424551 
 4343000   0.60608486    -2.797104    -2.797104   -2.0701166  0.038140469    -2.797104   0.72698747   424551 
 4344000   0.60621321   -2.7970868   -2.7970868   -2.0699454   0.03812011   -2.7970868   0.72714143   424551 
 4345000   0.60547598   -2.7958433   -2.7958433   -2.0695861  0.039303642   -2.7958433   0.72625714   424551 
 4346000   0.60708448   -2.7976117   -2.7976117   -2.0694252  0.026586882   -2.7976117    0.7281865   424551 
 4347000   0.60530914   -2.7955104   -2.7955104   -2.0694534  0.042797447   -2.7955104   0.72605702   424551 
 4348000   0.60616834   -2.7964115   -2.7964115   -2.0693238  0.034323624   -2.7964115    0.7270876   424551 
 4349000   0.60747113   -2.7975205   -2.7975205   -2.0688702  0.044154166   -2.7975205   0.72865028   424551 
 4350000   0.60689339     -2.79718     -2.79718   -2.0692227  0.038908777     -2.79718   0.72795729   424551 
 4351000   0.60721458   -2.7969684   -2.7969684   -2.0686258  0.038980238   -2.7969684   0.72834256   424551 
 4352000   0.60591785    -2.795842    -2.795842   -2.0690549  0.036137832    -2.795842   0.72678716   424551 
 4353000   0.60764428   -2.7978318   -2.7978318   -2.0689739  0.038043625   -2.7978318   0.72885797   424551 
 4354000   0.60607978   -2.7957641   -2.7957641   -2.0687827   0.03582101   -2.7957641   0.72698138   424551 
 4355000   0.60685214    -2.797575    -2.797575   -2.0696672  0.035277622    -2.797575   0.72790782   424551 
 4356000   0.60646273   -2.7974333   -2.7974333   -2.0699926  0.030293958   -2.7974333   0.72744073   424551 
 4357000   0.60687196   -2.7980782   -2.7980782   -2.0701466  0.038188325   -2.7980782   0.72793159   424551 
 4358000   0.60562821   -2.7971288   -2.7971288   -2.0706891  0.033302536   -2.7971288   0.72643973   424551 
 4359000   0.60489478   -2.7964216   -2.7964216   -2.0708616  0.048679064   -2.7964216      0.72556   424551 
 4360000   0.60525694   -2.7969448   -2.7969448   -2.0709504  0.033741466   -2.7969448    0.7259944   424551 
 4361000   0.60554862   -2.7973233   -2.7973233    -2.070979  0.037391452   -2.7973233   0.72634426   424551 
 4362000   0.60493675   -2.7966704   -2.7966704     -2.07106  0.032458134   -2.7966704   0.72561034   424551 
 4363000   0.60592845   -2.7977393   -2.7977393   -2.0709395  0.034194394   -2.7977393   0.72679986   424551 
 4364000   0.60667704   -2.7982678   -2.7982678     -2.07057  0.032979877   -2.7982678   0.72769779   424551 
 4365000   0.60575476   -2.7968088   -2.7968088   -2.0702173  0.029233312   -2.7968088   0.72659152   424551 
 4366000   0.60658406   -2.7981844   -2.7981844   -2.0705982  0.035703512   -2.7981844   0.72758626   424551 
 4367000   0.60594692   -2.7969451   -2.7969451    -2.070123    0.0377746   -2.7969451   0.72682202   424551 
 4368000   0.60756349   -2.7981758   -2.7981758   -2.0694148   0.03461284   -2.7981758   0.72876106   424551 
 4369000   0.60639232   -2.7977887   -2.7977887   -2.0704324  0.037740246   -2.7977887   0.72735626   424551 
 4370000   0.60629023   -2.7975358   -2.7975358    -2.070302  0.037224237   -2.7975358   0.72723382   424551 
 4371000   0.60618402    -2.798034    -2.798034   -2.0709276  0.037668232    -2.798034   0.72710642   424551 
 4372000   0.60698232   -2.7988759   -2.7988759    -2.070812  0.036912462   -2.7988759   0.72806397   424551 
 4373000   0.60701466   -2.7988231   -2.7988231   -2.0707203  0.039154016   -2.7988231   0.72810275   424551 
 4374000   0.60596667   -2.7975798   -2.7975798   -2.0707341  0.036840339   -2.7975798    0.7268457   424551 
 4375000   0.60562213   -2.7978753   -2.7978753   -2.0714428  0.045820184   -2.7978753   0.72643245   424551 
 4376000   0.60579457    -2.798016    -2.798016   -2.0713768  0.040521587    -2.798016   0.72663927   424551 
 4377000   0.60560009   -2.7980403   -2.7980403   -2.0716343  0.035012695   -2.7980403     0.726406   424551 
 4378000   0.60681222   -2.7992194   -2.7992194   -2.0713595  0.029635874   -2.7992194   0.72785993   424551 
 4379000   0.60662967   -2.7989434   -2.7989434   -2.0713024  0.029643305   -2.7989434   0.72764097   424551 
 4380000   0.60616356   -2.7987786   -2.7987786   -2.0716967  0.041318312   -2.7987786   0.72708187   424551 
 4381000   0.60762242   -2.8006079   -2.8006079   -2.0717761   0.03770628   -2.8006079   0.72883175   424551 
 4382000   0.60726819   -2.7999391   -2.7999391   -2.0715323  0.034592811   -2.7999391   0.72840685   424551 
 4383000   0.60561484   -2.7987046   -2.7987046   -2.0722809  0.042487255   -2.7987046    0.7264237   424551 
 4384000    0.6061803   -2.7990397   -2.7990397   -2.0719378  0.030446909   -2.7990397   0.72710196   424551 
 4385000   0.60651652    -2.799691    -2.799691   -2.0721858  0.048051101    -2.799691   0.72750524   424551 
 4386000   0.60679786   -2.7997518   -2.7997518   -2.0719091  0.034850655   -2.7997518    0.7278427   424551 
 4387000   0.60582764    -2.798983    -2.798983    -2.072304  0.039746886    -2.798983   0.72667894   424551 
 4388000   0.60620117   -2.7982863   -2.7982863   -2.0711593  0.032806158   -2.7982863   0.72712699   424551 
 4389000   0.60575331   -2.7978378   -2.7978378    -2.071248  0.038786547   -2.7978378   0.72658979   424551 
 4390000   0.60643512   -2.7988706   -2.7988706    -2.071463  0.032555946   -2.7988706    0.7274076   424551 
 4391000   0.60577402   -2.7972408   -2.7972408   -2.0706262  0.031334149   -2.7972408   0.72661463   424551 
 4392000   0.60647847    -2.797896    -2.797896   -2.0704364  0.034503088    -2.797896    0.7274596   424551 
 4393000   0.60706381   -2.7986243   -2.7986243   -2.0704626  0.039974054   -2.7986243    0.7281617   424551 
 4394000   0.60632737   -2.7973967   -2.7973967   -2.0701183  0.040518954   -2.7973967   0.72727836   424551 
 4395000    0.6054198   -2.7969481   -2.7969481   -2.0707583   0.03290299   -2.7969481   0.72618974   424551 
 4396000   0.60532389    -2.796476    -2.796476   -2.0704013  0.032129815    -2.796476   0.72607471   424551 
 4397000   0.60681789   -2.7981706   -2.7981706   -2.0703039  0.037444208   -2.7981706   0.72786673   424551 
 4398000   0.60673857   -2.7976389   -2.7976389   -2.0698673  0.034636479   -2.7976389   0.72777158   424551 
 4399000   0.60612432   -2.7973445   -2.7973445   -2.0703097  0.034246804   -2.7973445    0.7270348   424551 
 4400000   0.60653377   -2.7975628   -2.7975628   -2.0700368  0.043080004   -2.7975628   0.72752593   424551 
 4401000   0.60615376   -2.7971343   -2.7971343   -2.0700642  0.028633391   -2.7971343   0.72707012   424551 
 4402000   0.60629293   -2.7974288   -2.7974288   -2.0701918  0.027400881   -2.7974288   0.72723705   424551 
 4403000   0.60656464   -2.7976939   -2.7976939    -2.070131  0.032475633   -2.7976939   0.72756297   424551 
 4404000   0.60712565    -2.798074    -2.798074   -2.0698381  0.040061081    -2.798074   0.72823589   424551 
 4405000   0.60668193   -2.7975377   -2.7975377   -2.0698341  0.039691779   -2.7975377   0.72770365   424551 
 4406000   0.60783125   -2.7985499   -2.7985499   -2.0694677  0.043069989   -2.7985499   0.72908224   424551 
 4407000   0.60798399   -2.7987141   -2.7987141   -2.0694486  0.034046431   -2.7987141   0.72926545   424551 
 4408000    0.6076096   -2.7981858   -2.7981858   -2.0693694  0.034689303   -2.7981858   0.72881637   424551 
 4409000   0.60728193    -2.797207    -2.797207   -2.0687837  0.036893473    -2.797207   0.72842335   424551 
 4410000   0.60664626   -2.7974239   -2.7974239    -2.069763  0.029399251   -2.7974239   0.72766086   424551 
 4411000   0.60576271   -2.7970899   -2.7970899   -2.0704889  0.030732296   -2.7970899   0.72660106   424551 
 4412000   0.60650115   -2.7986258   -2.7986258    -2.071139  0.034319126   -2.7986258   0.72748681   424551 
 4413000   0.60555828    -2.796946    -2.796946   -2.0705902  0.038891757    -2.796946   0.72635585   424551 
 4414000   0.60629832   -2.7975489   -2.7975489   -2.0703053   0.03779868   -2.7975489   0.72724352   424551 
 4415000   0.60633324   -2.7974102   -2.7974102   -2.0701248  0.031028475   -2.7974102   0.72728541   424551 
 4416000   0.60660653   -2.7974511   -2.7974511   -2.0698379  0.032453656   -2.7974511   0.72761321   424551 
 4417000   0.60819095   -2.7987546   -2.7987546   -2.0692409   0.02833156   -2.7987546   0.72951369   424551 
 4418000   0.60899886   -2.7997172   -2.7997172   -2.0692344  0.040308035   -2.7997172   0.73048277   424551 
 4419000   0.60727344   -2.7980303   -2.7980303   -2.0696171  0.032932986   -2.7980303   0.72841315   424551 
 4420000   0.60807474    -2.798999    -2.798999   -2.0696247  0.040747079    -2.798999    0.7293743   424551 
 4421000   0.60812178   -2.7986022   -2.7986022   -2.0691714  0.038289163   -2.7986022   0.72943072   424551 
 4422000   0.60678492   -2.7968674   -2.7968674   -2.0690402  0.037544892   -2.7968674   0.72782719   424551 
 4423000   0.60700332   -2.7968208   -2.7968208   -2.0687316  0.044776113   -2.7968208   0.72808915   424551 
 4424000    0.6050085   -2.7960279   -2.7960279   -2.0703314  0.031802852   -2.7960279   0.72569641   424551 
 4425000   0.60579464   -2.7967186   -2.7967186   -2.0700793  0.039591578   -2.7967186   0.72663937   424551 
 4426000   0.60548656   -2.7969435   -2.7969435   -2.0706736  0.037378158   -2.7969435   0.72626983   424551 
 4427000   0.60560016   -2.7976356   -2.7976356   -2.0712295  0.030537207   -2.7976356   0.72640609   424551 
 4428000   0.60597449   -2.7971532   -2.7971532   -2.0702981  0.036656673   -2.7971532   0.72685509   424551 
 4429000   0.60592419    -2.796762    -2.796762   -2.0699672  0.035250987    -2.796762   0.72679476   424551 
 4430000   0.60694396   -2.7972898   -2.7972898   -2.0692718  0.031815485   -2.7972898   0.72801795   424551 
 4431000   0.60610327   -2.7969243   -2.7969243   -2.0699148  0.036559579   -2.7969243   0.72700956   424551 
 4432000   0.60704188   -2.7977576   -2.7977576   -2.0696222   0.03285501   -2.7977576    0.7281354   424551 
 4433000   0.60667793   -2.7970585   -2.7970585   -2.0693596  0.040038937   -2.7970585   0.72769885   424551 
 4434000   0.60637022   -2.7975275   -2.7975275   -2.0701978  0.029613457   -2.7975275   0.72732976   424551 
 4435000   0.60694706   -2.7983087   -2.7983087   -2.0702871  0.034653487   -2.7983087   0.72802167   424551 
 4436000   0.60645427   -2.7974136   -2.7974136   -2.0699831  0.030587043   -2.7974136   0.72743057   424551 
 4437000   0.60724447    -2.797657    -2.797657   -2.0692786  0.035321267    -2.797657   0.72837841   424551 
 4438000   0.60613649   -2.7967707   -2.7967707   -2.0697213  0.035754882   -2.7967707    0.7270494   424551 
 4439000   0.60700141   -2.7973972   -2.7973972   -2.0693103  0.037117893   -2.7973972   0.72808686   424551 
 4440000   0.60720678   -2.7969589   -2.7969589   -2.0686257  0.045562874   -2.7969589    0.7283332   424551 
 4441000   0.60790378   -2.7980453   -2.7980453   -2.0688761  0.036565233   -2.7980453   0.72916924   424551 
 4442000   0.60817865   -2.7986129   -2.7986129    -2.069114  0.037916001   -2.7986129   0.72949894   424551 
 4443000    0.6066502   -2.7966286   -2.7966286    -2.068963  0.041206955   -2.7966286   0.72766559   424551 
 4444000   0.60615571   -2.7964736   -2.7964736   -2.0694011  0.030986817   -2.7964736   0.72707246   424551 
 4445000   0.60513719   -2.7955329   -2.7955329   -2.0696821  0.035647515   -2.7955329   0.72585076   424551 
 4446000   0.60608662   -2.7963921   -2.7963921   -2.0694025  0.029025361   -2.7963921   0.72698958   424551 
 4447000   0.60597322   -2.7960817   -2.7960817   -2.0692281  0.032923641   -2.7960817   0.72685357   424551 
 4448000   0.60654427   -2.7970638   -2.7970638   -2.0695253  0.023840732   -2.7970638   0.72753853   424551 
 4449000   0.60606514   -2.7965691   -2.7965691   -2.0696053  0.032554443   -2.7965691   0.72696382   424551 
 4450000   0.60667611   -2.7973308   -2.7973308   -2.0696342  0.037614601   -2.7973308   0.72769667   424551 
 4451000   0.60639693   -2.7968919   -2.7968919   -2.0695301  0.030547685   -2.7968919    0.7273618   424551 
 4452000    0.6060356   -2.7964596   -2.7964596   -2.0695312  0.033801657   -2.7964596   0.72692839   424551 
 4453000   0.60607102   -2.7967285   -2.7967285   -2.0697577   0.03284529   -2.7967285   0.72697087   424551 
 4454000   0.60663414   -2.7979168   -2.7979168   -2.0702705  0.038417583   -2.7979168   0.72764633   424551 
 4455000   0.60614499   -2.7977113   -2.7977113   -2.0706517  0.027812854   -2.7977113    0.7270596   424551 
 4456000   0.60663356   -2.7979416   -2.7979416   -2.0702959  0.042277481   -2.7979416   0.72764564   424551 
 4457000   0.60630333   -2.7978248   -2.7978248   -2.0705753  0.038258799   -2.7978248   0.72724953   424551 
 4458000   0.60669258    -2.797595    -2.797595   -2.0698786  0.032685811    -2.797595   0.72771643   424551 
 4459000   0.60721623   -2.7983949   -2.7983949   -2.0700503  0.036509835   -2.7983949   0.72834454   424551 
 4460000   0.60634608   -2.7975002   -2.7975002   -2.0701994  0.027312658   -2.7975002   0.72730081   424551 
 4461000   0.60730095   -2.7979617   -2.7979617   -2.0695156  0.036315085   -2.7979617   0.72844616   424551 
 4462000   0.60660932   -2.7978761   -2.7978761   -2.0702596  0.025764536   -2.7978761   0.72761656   424551 
 4463000   0.60683192   -2.7977226   -2.7977226   -2.0698391  0.031240106   -2.7977226   0.72788356   424551 
 4464000    0.6055347   -2.7971273   -2.7971273   -2.0707998  0.035494867   -2.7971273   0.72632757   424551 
 4465000   0.60545498   -2.7967699   -2.7967699    -2.070538  0.041239053   -2.7967699   0.72623194   424551 
 4466000   0.60637469   -2.7980716   -2.7980716   -2.0707365  0.026767382   -2.7980716   0.72733513   424551 
 4467000   0.60685638   -2.7986084   -2.7986084   -2.0706955   0.03176651   -2.7986084    0.7279129   424551 
 4468000   0.60641904   -2.7979038   -2.7979038   -2.0705155  0.038740714   -2.7979038   0.72738831   424551 
 4469000   0.60647652    -2.798041    -2.798041   -2.0705837  0.039093304    -2.798041   0.72745726   424551 
 4470000   0.60679644   -2.7984987   -2.7984987   -2.0706577  0.037375531   -2.7984987     0.727841   424551 
 4471000   0.60706742   -2.7989231   -2.7989231    -2.070757   0.03418388   -2.7989231   0.72816604   424551 
 4472000   0.60657381   -2.7987288   -2.7987288   -2.0711549  0.033319167   -2.7987288   0.72757396   424551 
 4473000   0.60738107   -2.7994225   -2.7994225   -2.0708803   0.03640263   -2.7994225   0.72854225   424551 
 4474000   0.60583271   -2.7977762   -2.7977762   -2.0710912  0.041693342   -2.7977762   0.72668502   424551 
 4475000   0.60571096   -2.7976243   -2.7976243   -2.0710853  0.037430867   -2.7976243     0.726539   424551 
 4476000   0.60502469   -2.7971962   -2.7971962   -2.0714804  0.037437652   -2.7971962   0.72571582   424551 
 4477000   0.60535417    -2.797188    -2.797188    -2.071077  0.036672247    -2.797188   0.72611103   424551 
 4478000    0.6064355   -2.7986617   -2.7986617   -2.0712536  0.036236239   -2.7986617   0.72740806   424551 
 4479000   0.60606024   -2.7982645   -2.7982645   -2.0713066  0.036800646   -2.7982645   0.72695794   424551 
 4480000    0.6058095   -2.7979446   -2.7979446   -2.0712874  0.033251133   -2.7979446   0.72665719   424551 
 4481000   0.60623108   -2.7984963   -2.7984963   -2.0713335  0.024911195   -2.7984963   0.72716286   424551 
 4482000   0.60609982   -2.7976941   -2.7976941   -2.0706887  0.033567361   -2.7976941   0.72700543   424551 
 4483000   0.60534496   -2.7967657   -2.7967657   -2.0706657  0.039113348   -2.7967657   0.72609998   424551 
 4484000   0.60524137   -2.7968651   -2.7968651   -2.0708894  0.042310681   -2.7968651   0.72597573   424551 
 4485000   0.60512845   -2.7973389   -2.7973389   -2.0714986  0.033996179   -2.7973389   0.72584028   424551 
 4486000   0.60762748   -2.7994973   -2.7994973   -2.0706595  0.036511749   -2.7994973   0.72883782   424551 
 4487000   0.60543812   -2.7973483   -2.7973483   -2.0711365  0.034595786   -2.7973483   0.72621172   424551 
 4488000   0.60599429    -2.798479    -2.798479   -2.0716002   0.03256865    -2.798479   0.72687884   424551 
 4489000   0.60488309    -2.797247    -2.797247    -2.071701   0.02806299    -2.797247   0.72554598   424551 
 4490000   0.60671138   -2.7994096   -2.7994096   -2.0716706  0.034529226   -2.7994096   0.72773898   424551 
 4491000   0.60593832   -2.7985604   -2.7985604   -2.0717487  0.031671395   -2.7985604    0.7268117   424551 
 4492000   0.60744626   -2.7998473   -2.7998473   -2.0712269  0.037005737   -2.7998473   0.72862046   424551 
 4493000   0.60693544   -2.7999198   -2.7999198   -2.0719121  0.032824225   -2.7999198   0.72800773   424551 
 4494000   0.60696891   -2.8002255   -2.8002255   -2.0721776  0.031449191   -2.8002255   0.72804788   424551 
 4495000   0.60637393   -2.7998641   -2.7998641   -2.0725298  0.040205756   -2.7998641   0.72733421   424551 
 4496000   0.60489853   -2.7994584   -2.7994584   -2.0738939  0.044220548   -2.7994584    0.7255645   424551 
 4497000   0.60520763    -2.800256    -2.800256   -2.0743208   0.04102149    -2.800256   0.72593526   424551 
 4498000   0.60661967   -2.8012867   -2.8012867   -2.0736577  0.036586056   -2.8012867   0.72762897   424551 
 4499000   0.60711696   -2.8018342   -2.8018342   -2.0736087  0.028847951   -2.8018342   0.72822546   424551 
 4500000   0.60655738    -2.800815    -2.800815   -2.0732608  0.037774049    -2.800815   0.72755425   424551 
 4501000   0.60611457   -2.7998846   -2.7998846   -2.0728614  0.032308304   -2.7998846   0.72702311   424551 
 4502000   0.60625427   -2.8007387   -2.8007387    -2.073548  0.037383373   -2.8007387   0.72719067   424551 
 4503000   0.60677822   -2.8015841   -2.8015841   -2.0737649  0.034588384   -2.8015841   0.72781915   424551 
 4504000   0.60696869   -2.8013714   -2.8013714   -2.0733238  0.029820838   -2.8013714   0.72804762   424551 
 4505000   0.60634901   -2.8012605   -2.8012605   -2.0739562    0.0331964   -2.8012605   0.72730432   424551 
 4506000   0.60627688   -2.8010968   -2.8010968    -2.073879  0.044257812   -2.8010968   0.72721781   424551 
 4507000    0.6067391   -2.8023132   -2.8023132   -2.0745409  0.034792757   -2.8023132   0.72777222   424551 
 4508000    0.6059917   -2.8011966   -2.8011966   -2.0743209  0.039480551   -2.8011966   0.72687573   424551 
 4509000   0.60559701   -2.8003787   -2.8003787   -2.0739764  0.042223136   -2.8003787   0.72640231   424551 
 4510000   0.60728558   -2.8021125   -2.8021125   -2.0736848  0.027025246   -2.8021125   0.72842771   424551 
 4511000   0.60760222   -2.8028152   -2.8028152   -2.0740076  0.029020015   -2.8028152   0.72880753   424551 
 4512000   0.60673328   -2.8024565   -2.8024565   -2.0746912  0.025216397   -2.8024565   0.72776524   424551 
 4513000   0.60658162   -2.8019877   -2.8019877   -2.0744043  0.038690488   -2.8019877   0.72758333   424551 
 4514000   0.60631863   -2.8015749   -2.8015749    -2.074307  0.035891383   -2.8015749   0.72726787   424551 
 4515000   0.60667973   -2.8016125   -2.8016125   -2.0739114  0.037850094   -2.8016125   0.72770102   424551 
 4516000   0.60654595   -2.8009926   -2.8009926    -2.073452  0.044119653   -2.8009926   0.72754055   424551 
 4517000   0.60798259   -2.8027902   -2.8027902   -2.0735265    0.0308152   -2.8027902   0.72926376   424551 
 4518000    0.6066316   -2.8014282   -2.8014282    -2.073785  0.037496649   -2.8014282   0.72764328   424551 
 4519000   0.60616423   -2.8011438   -2.8011438   -2.0740611   0.03343363   -2.8011438   0.72708268   424551 
 4520000   0.60601849   -2.8007424   -2.8007424   -2.0738345  0.038826143   -2.8007424   0.72690787   424551 
 4521000   0.60628194   -2.8013322   -2.8013322   -2.0741083  0.026316024   -2.8013322   0.72722387   424551 
 4522000    0.6063566   -2.8015291   -2.8015291   -2.0742157  0.034575193   -2.8015291   0.72731342   424551 
 4523000   0.60642952   -2.8009191   -2.8009191   -2.0735182  0.036116483   -2.8009191   0.72740089   424551 
 4524000   0.60685255   -2.8018075   -2.8018075   -2.0738992  0.034673646   -2.8018075   0.72790831   424551 
 4525000   0.60588966   -2.8007672   -2.8007672   -2.0740139  0.035125654   -2.8007672   0.72675333   424551 
 4526000   0.60540358   -2.8005343   -2.8005343    -2.074364  0.027046348   -2.8005343    0.7261703   424551 
 4527000   0.60651367    -2.801147    -2.801147   -2.0736452  0.037101793    -2.801147   0.72750183   424551 
 4528000   0.60572314   -2.8003258   -2.8003258   -2.0737722  0.033678126   -2.8003258    0.7265536   424551 
 4529000   0.60711662   -2.8017516   -2.8017516   -2.0735266  0.038409725   -2.8017516   0.72822505   424551 
 4530000   0.60589399   -2.8003622   -2.8003622   -2.0736037  0.031578215   -2.8003622   0.72675853   424551 
 4531000   0.60494064   -2.7996458   -2.7996458   -2.0740308  0.034178623   -2.7996458   0.72561501   424551 
 4532000   0.60442947    -2.799239    -2.799239   -2.0742372  0.038878006    -2.799239   0.72500187   424551 
 4533000   0.60570337   -2.8004113   -2.8004113   -2.0738814  0.041984005   -2.8004113   0.72652989   424551 
 4534000   0.60606644    -2.801357    -2.801357   -2.0743917  0.037806253    -2.801357   0.72696538   424551 
 4535000   0.60598627   -2.8007514   -2.8007514   -2.0738822  0.033903772   -2.8007514   0.72686922   424551 
 4536000   0.60601186   -2.8008591   -2.8008591   -2.0739592   0.03172913   -2.8008591   0.72689991   424551 
 4537000   0.60530103   -2.7989265   -2.7989265   -2.0728792  0.037408914   -2.7989265   0.72604729   424551 
 4538000    0.6079218   -2.8022711   -2.8022711   -2.0730802  0.045855907   -2.8022711   0.72919086   424551 
 4539000   0.60645285   -2.8016305   -2.8016305   -2.0742016  0.032882354   -2.8016305   0.72742888   424551 
 4540000   0.60612742   -2.8013674   -2.8013674   -2.0743289  0.036346638   -2.8013674   0.72703853   424551 
 4541000   0.60478401   -2.7993449   -2.7993449   -2.0739178  0.046991649   -2.7993449   0.72542714   424551 
 4542000   0.60657752    -2.801415    -2.801415   -2.0738366   0.03702764    -2.801415   0.72757841   424551 
 4543000   0.60560993   -2.8005647   -2.8005647   -2.0741469  0.038478278   -2.8005647    0.7264178   424551 
 4544000   0.60501446   -2.8000036   -2.8000036   -2.0743001  0.029784458   -2.8000036   0.72570356   424551 
 4545000   0.60655828   -2.8021881   -2.8021881   -2.0746327  0.032357668   -2.8021881   0.72755533   424551 
 4546000   0.60524758   -2.8011807   -2.8011807   -2.0751975  0.037244329   -2.8011807   0.72598318   424551 
 4547000   0.60588717   -2.8021906   -2.8021906   -2.0754402  0.038474776   -2.8021906   0.72675035   424551 
 4548000   0.60507771   -2.8015856   -2.8015856   -2.0758062  0.033652613   -2.8015856   0.72577942   424551 
 4549000   0.60460706   -2.8009339   -2.8009339    -2.075719   0.03819452   -2.8009339   0.72521488   424551 
 4550000   0.60677414   -2.8033792   -2.8033792   -2.0755649  0.041837797   -2.8033792   0.72781425   424551 
 4551000   0.60568537   -2.8019662   -2.8019662   -2.0754579  0.032851127   -2.8019662    0.7265083   424551 
 4552000   0.60570501   -2.8021658   -2.8021658    -2.075634  0.040036416   -2.8021658   0.72653186   424551 
 4553000   0.60581832   -2.8019138   -2.8019138   -2.0752461  0.036054251   -2.8019138   0.72666777   424551 
 4554000   0.60520116   -2.8017238   -2.8017238   -2.0757963   0.03499094   -2.8017238    0.7259275   424551 
 4555000   0.60634507   -2.8034862   -2.8034862   -2.0761866  0.029003654   -2.8034862    0.7272996   424551 
 4556000    0.6051973   -2.8021846   -2.8021846   -2.0762617  0.034654928   -2.8021846   0.72592287   424551 
 4557000   0.60570249    -2.802596    -2.802596   -2.0760671  0.038752655    -2.802596   0.72652883   424551 
 4558000   0.60576181   -2.8031602   -2.8031602   -2.0765602   0.03809291   -2.8031602   0.72659998   424551 
 4559000   0.60615799   -2.8036172   -2.8036172    -2.076542  0.033327781   -2.8036172    0.7270752   424551 
 4560000   0.60533746    -2.803286    -2.803286    -2.077195  0.042276712    -2.803286   0.72609099   424551 
 4561000   0.60505283   -2.8032292   -2.8032292   -2.0774796  0.024871569   -2.8032292   0.72574957   424551 
 4562000   0.60661028   -2.8044304   -2.8044304   -2.0768127  0.041069763   -2.8044304   0.72761771   424551 
 4563000   0.60552849   -2.8025333   -2.8025333   -2.0762132  0.031099856   -2.8025333   0.72632012   424551 
 4564000   0.60720242   -2.8036651   -2.8036651   -2.0753371   0.02696532   -2.8036651   0.72832797   424551 
 4565000   0.60618618   -2.8021492   -2.8021492   -2.0750402  0.038889269   -2.8021492   0.72710901   424551 
 4566000   0.60559437   -2.8016693   -2.8016693   -2.0752702  0.038814588   -2.8016693   0.72639914   424551 
 4567000   0.60556402   -2.8018252   -2.8018252   -2.0754624  0.038126396   -2.8018252   0.72636274   424551 
 4568000   0.60615766    -2.802884    -2.802884   -2.0758092  0.041096066    -2.802884    0.7270748   424551 
 4569000   0.60558825   -2.8025188   -2.8025188    -2.076127  0.042681463   -2.8025188    0.7263918   424551 
 4570000   0.60533736    -2.802449    -2.802449   -2.0763581   0.03539948    -2.802449   0.72609087   424551 
 4571000   0.60706134   -2.8039505   -2.8039505   -2.0757918  0.040941371   -2.8039505   0.72815875   424551 
 4572000   0.60585267    -2.802209    -2.802209      -2.0755   0.02147064    -2.802209   0.72670897   424551 
 4573000   0.60514795   -2.8021184   -2.8021184   -2.0762547  0.032943297   -2.8021184   0.72586367   424551 
 4574000   0.60525911   -2.8013437   -2.8013437   -2.0753467  0.035843699   -2.8013437     0.725997   424551 
 4575000    0.6069555    -2.803204    -2.803204   -2.0751722  0.031535449    -2.803204   0.72803179   424551 
 4576000   0.60562567   -2.8017464   -2.8017464   -2.0753097  0.033858035   -2.8017464   0.72643668   424551 
 4577000   0.60491682   -2.8013437   -2.8013437   -2.0757573  0.034688057   -2.8013437   0.72558644   424551 
 4578000   0.60571171   -2.8022646   -2.8022646   -2.0757247  0.030675849   -2.8022646   0.72653989   424551 
 4579000    0.6050724   -2.8020248   -2.8020248   -2.0762518  0.024128262   -2.8020248   0.72577305   424551 
 4580000   0.60646225   -2.8028259   -2.8028259   -2.0753858  0.032580698   -2.8028259   0.72744015   424551 
 4581000   0.60538374   -2.8015227   -2.8015227   -2.0753762  0.028761372   -2.8015227   0.72614649   424551 
 4582000   0.60529743    -2.801214    -2.801214    -2.075171  0.032785762    -2.801214   0.72604297   424551 
 4583000   0.60630424   -2.8019734   -2.8019734   -2.0747228  0.041473222   -2.8019734   0.72725062   424551 
 4584000    0.6074017   -2.8033585   -2.8033585   -2.0747915  0.043459969   -2.8033585     0.728567   424551 
 4585000    0.6062148     -2.80186     -2.80186   -2.0747166  0.035805438     -2.80186   0.72714334   424551 
 4586000   0.60761914   -2.8042112   -2.8042112   -2.0753834  0.046917308   -2.8042112   0.72882782   424551 
 4587000   0.60466908    -2.801354    -2.801354   -2.0760648  0.031505135    -2.801354   0.72528927   424551 
 4588000   0.60602658   -2.8027572   -2.8027572   -2.0758396  0.038419715   -2.8027572   0.72691757   424551 
 4589000    0.6059204   -2.8032069   -2.8032069   -2.0764167  0.036043574   -2.8032069   0.72679021   424551 
 4590000   0.60580897   -2.8030612   -2.8030612   -2.0764046  0.046287357   -2.8030612   0.72665656   424551 
 4591000   0.60540155   -2.8028332   -2.8028332   -2.0766654  0.037660441   -2.8028332   0.72616786   424551 
 4592000   0.60600213   -2.8035215   -2.8035215   -2.0766332    0.0377467   -2.8035215   0.72688825   424551 
 4593000   0.60565102   -2.8038598   -2.8038598   -2.0773927  0.033436849   -2.8038598   0.72646709   424551 
 4594000    0.6061473   -2.8038747   -2.8038747   -2.0768123  0.038760834   -2.8038747   0.72706238   424551 
 4595000   0.60519529   -2.8022377   -2.8022377   -2.0763172  0.027662964   -2.8022377   0.72592046   424551 
 4596000   0.60543752   -2.8017541   -2.8017541   -2.0755431  0.039202946   -2.8017541   0.72621101   424551 
 4597000   0.60614874    -2.803093    -2.803093   -2.0760289  0.044269932    -2.803093    0.7270641   424551 
 4598000   0.60722136   -2.8043798   -2.8043798   -2.0760291  0.037388352   -2.8043798   0.72835068   424551 
 4599000   0.60783001   -2.8041582   -2.8041582   -2.0750775  0.035048505   -2.8041582   0.72908076   424551 
 4600000   0.60579651   -2.8015869   -2.8015869   -2.0749453  0.042240045   -2.8015869   0.72664161   424551 
 4601000   0.60548867   -2.8013285   -2.8013285   -2.0750561  0.034944965   -2.8013285   0.72627236   424551 
 4602000    0.6059167   -2.8016659   -2.8016659   -2.0748802  0.027952518   -2.8016659   0.72678577   424551 
 4603000   0.60713103   -2.8032919   -2.8032919   -2.0750496  0.035435888   -2.8032919   0.72824233   424551 
 4604000   0.60545735   -2.8022258   -2.8022258    -2.075991  0.033424364   -2.8022258   0.72623479   424551 
 4605000   0.60559588   -2.8027544   -2.8027544   -2.0763535   0.03676615   -2.8027544   0.72640096   424551 
 4606000   0.60427768   -2.8017133   -2.8017133   -2.0768935  0.028160906   -2.8017133    0.7248198   424551 
 4607000    0.6051157   -2.8029667   -2.8029667   -2.0771417  0.039211111   -2.8029667   0.72582499   424551 
 4608000   0.60540383   -2.8037909   -2.8037909   -2.0776203  0.033598971   -2.8037909   0.72617059   424551 
 4609000   0.60505835   -2.8021538   -2.8021538   -2.0763976  0.032576447   -2.8021538   0.72575619   424551 
 4610000   0.60520588   -2.8027761   -2.8027761    -2.076843  0.030295668   -2.8027761   0.72593316   424551 
 4611000   0.60689533   -2.8041298   -2.8041298   -2.0761702  0.036637169   -2.8041298   0.72795962   424551 
 4612000   0.60631456   -2.8043737   -2.8043737   -2.0771107  0.040532021   -2.8043737     0.727263   424551 
 4613000   0.60617543   -2.8040955   -2.8040955   -2.0769994  0.042237949   -2.8040955   0.72709612   424551 
 4614000   0.60624508   -2.8042538   -2.8042538   -2.0770742  0.043527726   -2.8042538   0.72717966   424551 
 4615000   0.60670174   -2.8050732   -2.8050732   -2.0773457  0.033269058   -2.8050732   0.72772741   424551 
 4616000   0.60574685   -2.8040184   -2.8040184   -2.0774364   0.03834292   -2.8040184   0.72658204   424551 
 4617000     0.606447   -2.8053603   -2.8053603   -2.0779385  0.037234559   -2.8053603   0.72742186   424551 
 4618000   0.60588144   -2.8054742   -2.8054742   -2.0787307   0.03764921   -2.8054742   0.72674348   424551 
 4619000   0.60579016   -2.8050026   -2.8050026   -2.0783686  0.044367711   -2.8050026   0.72663399   424551 
 4620000   0.60632788   -2.8058836   -2.8058836   -2.0786046  0.035835458   -2.8058836   0.72727898   424551 
 4621000   0.60567692   -2.8043197   -2.8043197   -2.0778215  0.030405777   -2.8043197   0.72649816   424551 
 4622000   0.60548411   -2.8040575   -2.8040575   -2.0777906  0.046556643   -2.8040575   0.72626689   424551 
 4623000   0.60417662   -2.8028666   -2.8028666    -2.078168  0.043064304   -2.8028666   0.72469858   424551 
 4624000     0.605197   -2.8035957   -2.8035957   -2.0776732  0.041331109   -2.8035957   0.72592251   424551 
 4625000    0.6041318   -2.8014567   -2.8014567   -2.0768119  0.026920559   -2.8014567   0.72464482   424551 
 4626000   0.60439129   -2.8009998   -2.8009998   -2.0760438  0.029916023   -2.8009998   0.72495607   424551 
 4627000   0.60370968   -2.8003367   -2.8003367   -2.0761982  0.035132627   -2.8003367   0.72413849   424551 
 4628000   0.60428853   -2.8005713   -2.8005713   -2.0757385   0.02985183   -2.8005713   0.72483281   424551 
 4629000   0.60505229   -2.8010217   -2.8010217   -2.0752728  0.036458248   -2.8010217   0.72574892   424551 
 4630000   0.60534031   -2.8015201   -2.8015201   -2.0754257  0.033150583   -2.8015201   0.72609441   424551 
 4631000   0.60449028   -2.8008187   -2.8008187   -2.0757439  0.029052381   -2.8008187   0.72507481   424551 
 4632000   0.60490816   -2.8015351   -2.8015351   -2.0759591  0.034332192   -2.8015351   0.72557605   424551 
 4633000   0.60538978   -2.8021651   -2.8021651   -2.0760114   0.04333597   -2.8021651   0.72615374   424551 
 4634000   0.60585567   -2.8030988   -2.8030988   -2.0763862  0.026859764   -2.8030988   0.72671256   424551 
 4635000   0.60419743   -2.8008896   -2.8008896   -2.0761661  0.031870231   -2.8008896   0.72472354   424551 
 4636000   0.60607206   -2.8030648   -2.8030648   -2.0760927  0.022731465   -2.8030648   0.72697212   424551 
 4637000   0.60562647   -2.8019398   -2.8019398   -2.0755021  0.043632789   -2.8019398   0.72643764   424551 
 4638000   0.60543592    -2.801946    -2.801946    -2.075737  0.035351257    -2.801946   0.72620908   424551 
 4639000   0.60497351   -2.8016847   -2.8016847   -2.0760302  0.041386638   -2.8016847   0.72565444   424551 
 4640000   0.60533663   -2.8015656   -2.8015656   -2.0754756  0.034280835   -2.8015656   0.72608999   424551 
 4641000   0.60532203   -2.8021574   -2.8021574   -2.0760849   0.04138808   -2.8021574   0.72607247   424551 
 4642000   0.60595091    -2.802803    -2.802803   -2.0759762  0.028673507    -2.802803    0.7268268   424551 
 4643000   0.60724311   -2.8041503   -2.8041503   -2.0757735  0.033027073   -2.8041503   0.72837678   424551 
 4644000    0.6065391   -2.8035012   -2.8035012   -2.0759689  0.039871543   -2.8035012   0.72753233   424551 
 4645000   0.60731277   -2.8039033   -2.8039033    -2.075443  0.029900319   -2.8039033   0.72846033   424551 
 4646000   0.60659666   -2.8029262   -2.8029262   -2.0753248  0.035537436   -2.8029262   0.72760138   424551 
 4647000   0.60585362   -2.8017444   -2.8017444   -2.0750343  0.036458387   -2.8017444   0.72671011   424551 
 4648000   0.60719248   -2.8037185   -2.8037185   -2.0754025  0.033153965   -2.8037185   0.72831605   424551 
 4649000   0.60659828   -2.8037602   -2.8037602   -2.0761569  0.037053038   -2.8037602   0.72760331   424551 
 4650000   0.60542794   -2.8022255   -2.8022255    -2.076026  0.040702046   -2.8022255   0.72619951   424551 
 4651000   0.60600071   -2.8026819   -2.8026819   -2.0757953  0.034970154   -2.8026819   0.72688655   424551 
 4652000   0.60562311    -2.802097    -2.802097   -2.0756633  0.040990339    -2.802097   0.72643361   424551 
 4653000   0.60605209   -2.8027761   -2.8027761   -2.0758279  0.027651378   -2.8027761   0.72694817   424551 
 4654000   0.60601581   -2.8035227   -2.8035227    -2.076618  0.026185167   -2.8035227   0.72690465   424551 
 4655000   0.60535034   -2.8026482   -2.8026482   -2.0765417  0.026694539   -2.8026482   0.72610644   424551 
 4656000   0.60621228   -2.8027755   -2.8027755   -2.0756351  0.037158024   -2.8027755   0.72714031   424551 
 4657000   0.60659527   -2.8031814   -2.8031814   -2.0755817  0.030460722   -2.8031814   0.72759971   424551 
 4658000   0.60684713   -2.8035702   -2.8035702   -2.0756684  0.034907785   -2.8035702   0.72790181   424551 
 4659000   0.60580875    -2.802787    -2.802787   -2.0761307  0.034271204    -2.802787   0.72665629   424551 
 4660000    0.6064357   -2.8033249   -2.8033249   -2.0759166  0.028659091   -2.8033249   0.72740831   424551 
 4661000   0.60662307   -2.8038502   -2.8038502   -2.0762172   0.03500932   -2.8038502   0.72763305   424551 
 4662000    0.6070453   -2.8044856   -2.8044856   -2.0763461  0.026618706   -2.8044856    0.7281395   424551 
 4663000   0.60540819   -2.8028347   -2.8028347   -2.0766589  0.028991305   -2.8028347   0.72617582   424551 
 4664000   0.60495639   -2.8016985   -2.8016985   -2.0760646  0.034704017   -2.8016985    0.7256339   424551 
 4665000   0.60606704   -2.8027677   -2.8027677   -2.0758016  0.032812549   -2.8027677    0.7269661   424551 
 4666000   0.60629337   -2.8030618   -2.8030618   -2.0758242  0.043013635   -2.8030618   0.72723757   424551 
 4667000   0.60562649   -2.8019217   -2.8019217    -2.075484  0.033249088   -2.8019217   0.72643768   424551 
 4668000   0.60608939    -2.802347    -2.802347   -2.0753541  0.025934182    -2.802347   0.72699291   424551 
 4669000    0.6059323   -2.8027926   -2.8027926   -2.0759881  0.032640813   -2.8027926   0.72680449   424551 
 4670000   0.60624102   -2.8035662   -2.8035662   -2.0763914  0.037461557   -2.8035662   0.72717478   424551 
 4671000   0.60574078   -2.8026581   -2.8026581   -2.0760834  0.034311758   -2.8026581   0.72657476   424551 
 4672000   0.60553571   -2.8022742   -2.8022742   -2.0759454  0.043829639   -2.8022742   0.72632878   424551 
 4673000    0.6049856   -2.8015559   -2.8015559    -2.075887  0.042948818   -2.8015559   0.72566893   424551 
 4674000   0.60575829   -2.8028233   -2.8028233   -2.0762275  0.030978343   -2.8028233   0.72659576   424551 
 4675000   0.60655942   -2.8036581   -2.8036581   -2.0761014  0.025840837   -2.8036581    0.7275567   424551 
 4676000   0.60576216   -2.8028877   -2.8028877   -2.0762873  0.042063334   -2.8028877    0.7266004   424551 
 4677000   0.60611173   -2.8030935   -2.8030935   -2.0760738  0.025878929   -2.8030935   0.72701971   424551 
 4678000    0.6051525   -2.8016538   -2.8016538   -2.0757847  0.031954545   -2.8016538   0.72586913   424551 
 4679000   0.60578349   -2.8023113   -2.8023113   -2.0756853  0.033922386   -2.8023113   0.72662599   424551 
 4680000   0.60536464   -2.8012718   -2.8012718   -2.0751482  0.034236943   -2.8012718   0.72612359   424551 
 4681000   0.60586517   -2.8014785   -2.8014785   -2.0747546  0.040385393   -2.8014785   0.72672396   424551 
 4682000   0.60602883   -2.8009107   -2.8009107   -2.0739904  0.038245967   -2.8009107   0.72692027   424551 
 4683000   0.60601576   -2.8016172   -2.8016172   -2.0747126  0.035850877   -2.8016172    0.7269046   424551 
 4684000   0.60605363   -2.8015249   -2.8015249   -2.0745749   0.03287057   -2.8015249   0.72695002   424551 
 4685000    0.6049405   -2.8013144   -2.8013144   -2.0756995  0.030253703   -2.8013144   0.72561484   424551 
 4686000   0.60524089     -2.80135     -2.80135   -2.0753749  0.036259053     -2.80135   0.72597515   424551 
 4687000   0.60569398   -2.8020103   -2.8020103   -2.0754917  0.030133984   -2.8020103   0.72651862   424551 
 4688000   0.60535904   -2.8019792   -2.8019792   -2.0758624  0.037363736   -2.8019792   0.72611686   424551 
 4689000   0.60598243   -2.8032269   -2.8032269   -2.0763623  0.036575713   -2.8032269   0.72686461   424551 
 4690000   0.60575726   -2.8025221   -2.8025221   -2.0759276  0.031729994   -2.8025221   0.72659452   424551 
 4691000   0.60684576   -2.8041286   -2.8041286   -2.0762284  0.029918674   -2.8041286   0.72790016   424551 
 4692000   0.60615633   -2.8040437   -2.8040437   -2.0769705  0.040784298   -2.8040437    0.7270732   424551 
 4693000   0.60709148   -2.8047486   -2.8047486   -2.0765537  0.044561157   -2.8047486    0.7281949   424551 
 4694000   0.60624281   -2.8037792   -2.8037792   -2.0766022   0.04290332   -2.8037792   0.72717694   424551 
 4695000   0.60606722   -2.8036165   -2.8036165   -2.0766502  0.037922292   -2.8036165   0.72696632   424551 
 4696000   0.60566024   -2.8031164   -2.8031164   -2.0766382  0.032227416   -2.8031164   0.72647816   424551 
 4697000   0.60664176   -2.8042361   -2.8042361   -2.0765807  0.031260926   -2.8042361   0.72765547   424551 
 4698000   0.60532948   -2.8028012   -2.8028012   -2.0767198  0.030601847   -2.8028012   0.72608141   424551 
 4699000   0.60513598   -2.8025189   -2.8025189   -2.0766696  0.040618063   -2.8025189   0.72584931   424551 
 4700000   0.60576286   -2.8031238   -2.8031238   -2.0765225  0.036860232   -2.8031238   0.72660124   424551 
 4701000   0.60574306   -2.8034872   -2.8034872   -2.0769097  0.037881305   -2.8034872    0.7265775   424551 
 4702000    0.6066294   -2.8047564   -2.8047564   -2.0771158   0.03275569   -2.8047564   0.72764065   424551 
 4703000   0.60541897   -2.8033874   -2.8033874   -2.0771986  0.040032827   -2.8033874   0.72618875   424551 
 4704000   0.60533076   -2.8028794   -2.8028794   -2.0767965  0.026414503   -2.8028794   0.72608295   424551 
 4705000   0.60381253   -2.8012823   -2.8012823   -2.0770205  0.036862161   -2.8012823   0.72426186   424551 
 4706000   0.60457264   -2.8021543   -2.8021543   -2.0769807  0.028654889   -2.8021543    0.7251736   424551 
 4707000   0.60504396   -2.8026398   -2.8026398   -2.0769009  0.030352351   -2.8026398   0.72573893   424551 
 4708000   0.60496007   -2.8024825   -2.8024825   -2.0768442  0.041514279   -2.8024825   0.72563831   424551 
 4709000   0.60521573   -2.8033679   -2.8033679   -2.0774229  0.039378686   -2.8033679   0.72594498   424551 
 4710000   0.60667449   -2.8052391   -2.8052391   -2.0775444  0.032306897   -2.8052391   0.72769473   424551 
 4711000   0.60539691   -2.8034662   -2.8034662    -2.077304  0.040635809   -2.8034662   0.72616229   424551 
 4712000   0.60527085   -2.8025808   -2.8025808   -2.0765697  0.038996001   -2.8025808   0.72601108   424551 
 4713000   0.60513969   -2.8021997   -2.8021997    -2.076346  0.033142939   -2.8021997   0.72585376   424551 
 4714000   0.60508002   -2.8025618   -2.8025618   -2.0767796  0.035568384   -2.8025618   0.72578219   424551 
 4715000   0.60571421   -2.8033197   -2.8033197   -2.0767768  0.039211705   -2.8033197   0.72654289   424551 
 4716000   0.60670784    -2.804978    -2.804978   -2.0772433  0.029676112    -2.804978   0.72773473   424551 
 4717000   0.60593172   -2.8037183   -2.8037183   -2.0769146  0.039506319   -2.8037183   0.72680379   424551 
 4718000   0.60635925   -2.8046131   -2.8046131   -2.0772965  0.029543498   -2.8046131    0.7273166   424551 
 4719000   0.60655486   -2.8049868   -2.8049868   -2.0774356  0.025466029   -2.8049868   0.72755123   424551 
 4720000   0.60647787   -2.8048631   -2.8048631   -2.0774042  0.035393961   -2.8048631   0.72745888   424551 
 4721000   0.60668146   -2.8052698   -2.8052698   -2.0775667  0.040299277   -2.8052698   0.72770308   424551 
 4722000   0.60451385   -2.8029716   -2.8029716   -2.0778685  0.036159337   -2.8029716   0.72510307   424551 
 4723000   0.60561176   -2.8044354   -2.8044354   -2.0780154  0.033157942   -2.8044354      0.72642   424551 
 4724000   0.60493275   -2.8042813   -2.8042813   -2.0786757   0.02524773   -2.8042813   0.72560554   424551 
 4725000   0.60551905   -2.8047803   -2.8047803   -2.0784715  0.037840709   -2.8047803    0.7263088   424551 
 4726000      0.60516   -2.8043659   -2.8043659   -2.0784878  0.035894803   -2.8043659   0.72587812   424551 
 4727000   0.60553872   -2.8045974   -2.8045974    -2.078265  0.033978423   -2.8045974   0.72633239   424551 
 4728000   0.60519163   -2.8038218   -2.8038218   -2.0779058   0.03029767   -2.8038218   0.72591607   424551 
 4729000   0.60602911   -2.8046665   -2.8046665   -2.0777459  0.042126428   -2.8046665   0.72692061   424551 
 4730000    0.6058289   -2.8043553   -2.8043553   -2.0776748  0.038050468   -2.8043553   0.72668046   424551 
 4731000   0.60616046   -2.8046078   -2.8046078   -2.0775296  0.033406366   -2.8046078   0.72707815   424551 
 4732000   0.60578931   -2.8041016   -2.8041016   -2.0774687  0.034646272   -2.8041016   0.72663297   424551 
 4733000   0.60686518   -2.8058076   -2.8058076   -2.0778842  0.036884973   -2.8058076   0.72792345   424551 
 4734000   0.60686203   -2.8055894   -2.8055894   -2.0776698  0.029842837   -2.8055894   0.72791968   424551 
 4735000   0.60551376    -2.804581    -2.804581   -2.0782785  0.043953706    -2.804581   0.72630245   424551 
 4736000   0.60479383   -2.8035206   -2.8035206   -2.0780817  0.027206503   -2.8035206   0.72543892   424551 
 4737000   0.60567512   -2.8043719   -2.8043719   -2.0778759  0.036441743   -2.8043719     0.726496   424551 
 4738000    0.6043848   -2.8036356   -2.8036356   -2.0786874  0.033735944   -2.8036356   0.72494829   424551 
 4739000   0.60562202   -2.8046179   -2.8046179   -2.0781856  0.034161789   -2.8046179   0.72643231   424551 
 4740000   0.60552112   -2.8041296   -2.8041296   -2.0778183  0.030324235   -2.8041296   0.72631128   424551 
 4741000    0.6062269   -2.8048808   -2.8048808   -2.0777229  0.040653706   -2.8048808   0.72715785   424551 
 4742000   0.60609942   -2.8049218   -2.8049218   -2.0779169  0.034654676   -2.8049218   0.72700494   424551 
 4743000   0.60477446   -2.8024327   -2.8024327    -2.077017  0.045080407   -2.8024327   0.72541568   424551 
 4744000   0.60513096   -2.8035893   -2.8035893    -2.077746  0.035097573   -2.8035893   0.72584329   424551 
 4745000   0.60583604    -2.804363    -2.804363   -2.0776739  0.037124486    -2.804363   0.72668902   424551 
 4746000   0.60653308   -2.8054241   -2.8054241    -2.077899  0.030879746   -2.8054241   0.72752511   424551 
 4747000   0.60586006   -2.8044426   -2.8044426   -2.0777247  0.038611649   -2.8044426   0.72671783   424551 
 4748000   0.60618742   -2.8057048   -2.8057048   -2.0785943  0.034294581   -2.8057048    0.7271105   424551 
 4749000   0.60628265    -2.806183    -2.806183   -2.0789583  0.035411464    -2.806183   0.72722472   424551 
 4750000   0.60549075   -2.8055304   -2.8055304   -2.0792556  0.044243127   -2.8055304   0.72627485   424551 
 4751000    0.6067005   -2.8075489   -2.8075489    -2.079823  0.041054898   -2.8075489   0.72772592   424551 
 4752000   0.60717392   -2.8074617   -2.8074617    -2.079168  0.039525241   -2.8074617   0.72829378   424551 
 4753000   0.60557498   -2.8061238   -2.8061238   -2.0797479  0.031369832   -2.8061238   0.72637588   424551 
 4754000   0.60610824   -2.8069346   -2.8069346   -2.0799191  0.037848664   -2.8069346   0.72701552   424551 
 4755000   0.60618559   -2.8071488   -2.8071488   -2.0800405  0.043467247   -2.8071488    0.7271083   424551 
 4756000    0.6067049     -2.80842     -2.80842   -2.0806888   0.03174337     -2.80842    0.7277312   424551 
 4757000   0.60541987    -2.806842    -2.806842   -2.0806522  0.033426518    -2.806842   0.72618983   424551 
 4758000   0.60620064   -2.8077362   -2.8077362   -2.0806098  0.037454244   -2.8077362   0.72712635   424551 
 4759000   0.60519305   -2.8064002   -2.8064002   -2.0804824  0.037345844   -2.8064002   0.72591777   424551 
 4760000   0.60645056   -2.8076275   -2.8076275   -2.0802014  0.024415633   -2.8076275   0.72742612   424551 
 4761000   0.60470253   -2.8058586   -2.8058586   -2.0805292  0.027488714   -2.8058586    0.7253294   424551 
 4762000   0.60383746    -2.805134    -2.805134   -2.0808423   0.02731784    -2.805134   0.72429176   424551 
 4763000   0.60470368   -2.8062122   -2.8062122   -2.0808814  0.036323156   -2.8062122   0.72533078   424551 
 4764000   0.60488272   -2.8065117   -2.8065117   -2.0809662  0.037886173   -2.8065117   0.72554553   424551 
 4765000   0.60738937   -2.8086801   -2.8086801   -2.0801279  0.039978601   -2.8086801   0.72855222   424551 
 4766000   0.60621834   -2.8067528   -2.8067528   -2.0796053  0.045338023   -2.8067528   0.72714758   424551 
 4767000   0.60675041   -2.8081242   -2.8081242   -2.0803384  0.032589112   -2.8081242   0.72778579   424551 
 4768000   0.60581688   -2.8070556   -2.8070556   -2.0803896   0.03202161   -2.8070556   0.72666603   424551 
 4769000   0.60701836   -2.8079456   -2.8079456   -2.0798384  0.038629279   -2.8079456   0.72810719   424551 
 4770000    0.6057336   -2.8063267   -2.8063267   -2.0797605  0.040946219   -2.8063267   0.72656614   424551 
 4771000   0.60626412   -2.8070839   -2.8070839   -2.0798815  0.034870863   -2.8070839   0.72720249   424551 
 4772000   0.60555962    -2.806492    -2.806492   -2.0801345  0.045095844    -2.806492   0.72635746   424551 
 4773000   0.60634017   -2.8075532   -2.8075532   -2.0802595  0.039093113   -2.8075532   0.72729371   424551 
 4774000   0.60658375    -2.808082    -2.808082   -2.0804961  0.040248258    -2.808082   0.72758589   424551 
 4775000   0.60526679   -2.8068267   -2.8068267   -2.0808205  0.030055276   -2.8068267   0.72600621   424551 
 4776000   0.60505624   -2.8064805   -2.8064805   -2.0807269   0.02901648   -2.8064805   0.72575366   424551 
 4777000   0.60490499   -2.8056368   -2.8056368   -2.0800646  0.038883254   -2.8056368   0.72557225   424551 
 4778000   0.60456277   -2.8049473   -2.8049473   -2.0797855  0.040489664   -2.8049473   0.72516175   424551 
 4779000   0.60586455   -2.8062507   -2.8062507   -2.0795274  0.027688266   -2.8062507   0.72672321   424551 
 4780000   0.60501113   -2.8053144   -2.8053144   -2.0796148  0.032873669   -2.8053144   0.72569956   424551 
 4781000   0.60513442   -2.8054796   -2.8054796   -2.0796322  0.025728718   -2.8054796   0.72584744   424551 
 4782000   0.60563412     -2.80656     -2.80656   -2.0801132   0.03214067     -2.80656   0.72644682   424551 
 4783000   0.60553153   -2.8059471   -2.8059471   -2.0796233  0.025751349   -2.8059471   0.72632377   424551 
 4784000   0.60496183   -2.8057932   -2.8057932   -2.0801528  0.031407701   -2.8057932   0.72564042   424551 
 4785000   0.60460751   -2.8054912   -2.8054912   -2.0802758  0.036217575   -2.8054912   0.72521542   424551 
 4786000   0.60518083   -2.8063919   -2.8063919   -2.0804888  0.051727922   -2.8063919   0.72590311   424551 
 4787000   0.60466809   -2.8050772   -2.8050772   -2.0797891  0.028902842   -2.8050772   0.72528809   424551 
 4788000   0.60432285   -2.8050555   -2.8050555   -2.0801816  0.042034243   -2.8050555   0.72487398   424551 
 4789000   0.60490324   -2.8056046   -2.8056046   -2.0800345  0.031701456   -2.8056046   0.72557014   424551 
 4790000   0.60592452   -2.8069406   -2.8069406   -2.0801454  0.033943446   -2.8069406   0.72679516   424551 
 4791000   0.60487567   -2.8052522   -2.8052522   -2.0797152  0.036380303   -2.8052522   0.72553707   424551 
 4792000   0.60548671   -2.8062325   -2.8062325   -2.0799625  0.047112418   -2.8062325      0.72627   424551 
 4793000   0.60640296   -2.8072173   -2.8072173   -2.0798483  0.038991929   -2.8072173   0.72736903   424551 
 4794000   0.60575511   -2.8061682   -2.8061682   -2.0795762  0.040735193   -2.8061682   0.72659194   424551 
 4795000   0.60550873   -2.8062026   -2.8062026   -2.0799062  0.038896959   -2.8062026   0.72629642   424551 
 4796000   0.60622757   -2.8066392   -2.8066392   -2.0794806  0.027481375   -2.8066392   0.72715866   424551 
 4797000   0.60558471   -2.8061701   -2.8061701   -2.0797825  0.033288362   -2.8061701   0.72638756   424551 
 4798000   0.60573722   -2.8066674   -2.8066674   -2.0800969   0.03511219   -2.8066674   0.72657049   424551 
 4799000   0.60560115    -2.806911    -2.806911   -2.0805037  0.037831128    -2.806911   0.72640727   424551 
 4800000   0.60542107   -2.8077141   -2.8077141   -2.0815228  0.038691455   -2.8077141   0.72619127   424551 
 4801000   0.60584407   -2.8070602   -2.8070602   -2.0803615  0.037117533   -2.8070602   0.72669865   424551 
 4802000   0.60463119   -2.8055852   -2.8055852   -2.0803413  0.030803213   -2.8055852   0.72524383   424551 
 4803000   0.60452766   -2.8062621   -2.8062621   -2.0811425  0.029940116   -2.8062621   0.72511964   424551 
 4804000   0.60534157   -2.8073413   -2.8073413   -2.0812454  0.033756646   -2.8073413   0.72609592   424551 
 4805000   0.60447344   -2.8057789   -2.8057789   -2.0807243   0.03673705   -2.8057789    0.7250546   424551 
 4806000   0.60525435   -2.8058893   -2.8058893    -2.079898   0.03321512   -2.8058893    0.7259913   424551 
 4807000   0.60705113   -2.8074985   -2.8074985    -2.079352  0.031842467   -2.8074985    0.7281465   424551 
 4808000    0.6057627   -2.8055595   -2.8055595   -2.0789584   0.02933108   -2.8055595   0.72660105   424551 
 4809000   0.60579789    -2.805655    -2.805655   -2.0790118  0.030585517    -2.805655   0.72664326   424551 
 4810000   0.60427105   -2.8052683   -2.8052683   -2.0804565  0.042339677   -2.8052683   0.72481184   424551 
 4811000   0.60653773   -2.8076687   -2.8076687    -2.080138   0.02795461   -2.8076687   0.72753069   424551 
 4812000   0.60573203   -2.8058749   -2.8058749   -2.0793106   0.04549978   -2.8058749   0.72656427   424551 
 4813000   0.60561144   -2.8063766   -2.8063766   -2.0799569  0.046477873   -2.8063766   0.72641962   424551 
 4814000   0.60594698   -2.8067451   -2.8067451    -2.079923  0.038212811   -2.8067451   0.72682209   424551 
 4815000   0.60513162   -2.8060304   -2.8060304   -2.0801863  0.036330249   -2.8060304   0.72584408   424551 
 4816000   0.60595764   -2.8070434   -2.8070434   -2.0802086  0.037197482   -2.8070434   0.72683488   424551 
 4817000   0.60544119    -2.805937    -2.805937   -2.0797216  0.041353105    -2.805937    0.7262154   424551 
 4818000   0.60508467   -2.8049317   -2.8049317    -2.079144  0.036922687   -2.8049317   0.72578776   424551 
 4819000   0.60480766   -2.8051572   -2.8051572   -2.0797017  0.034030454   -2.8051572    0.7254555   424551 
 4820000   0.60532894   -2.8056331   -2.8056331   -2.0795523  0.038429076   -2.8056331   0.72608077   424551 
 4821000   0.60558834    -2.806327    -2.806327   -2.0799351  0.042491709    -2.806327   0.72639191   424551 
 4822000   0.60580514   -2.8063041   -2.8063041   -2.0796521  0.029484922   -2.8063041   0.72665196   424551 
 4823000   0.60539346   -2.8054965   -2.8054965   -2.0793384  0.031644638   -2.8054965   0.72615816   424551 
 4824000   0.60468096   -2.8045456   -2.8045456    -2.079242  0.036495518   -2.8045456   0.72530353   424551 
 4825000   0.60416261   -2.8046069   -2.8046069   -2.0799251  0.036247949   -2.8046069   0.72468178   424551 
 4826000    0.6051754    -2.806198    -2.806198   -2.0803014  0.028492438    -2.806198    0.7258966   424551 
 4827000   0.60477324   -2.8054119   -2.8054119   -2.0799977  0.039345867   -2.8054119   0.72541421   424551 
 4828000   0.60594359   -2.8058476   -2.8058476   -2.0790296  0.035125828   -2.8058476   0.72681803   424551 
 4829000   0.60483125   -2.8051199   -2.8051199   -2.0796362  0.033472807   -2.8051199   0.72548379   424551 
 4830000   0.60435659   -2.8040802   -2.8040802   -2.0791658  0.023249226   -2.8040802   0.72491444   424551 
 4831000   0.60421364   -2.8041318   -2.8041318   -2.0793888  0.038127197   -2.8041318   0.72474299   424551 
 4832000    0.6048145   -2.8052822   -2.8052822   -2.0798185  0.041216838   -2.8052822    0.7254637   424551 
 4833000   0.60514874   -2.8049667   -2.8049667   -2.0791021   0.03488501   -2.8049667   0.72586462   424551 
 4834000   0.60489797   -2.8048807   -2.8048807   -2.0793168  0.031781223   -2.8048807   0.72556382   424551 
 4835000   0.60480747   -2.8045287   -2.8045287   -2.0790734  0.042200177   -2.8045287   0.72545527   424551 
 4836000   0.60715866   -2.8078652   -2.8078652   -2.0795897  0.039296662   -2.8078652   0.72827548   424551 
 4837000   0.60595203   -2.8069666   -2.8069666   -2.0801385  0.040725009   -2.8069666   0.72682815   424551 
 4838000   0.60619436   -2.8065265   -2.8065265   -2.0794076  0.036254159   -2.8065265   0.72711882   424551 
 4839000   0.60525763   -2.8052909   -2.8052909   -2.0792957  0.031573754   -2.8052909   0.72599523   424551 
 4840000   0.60536277   -2.8049104   -2.8049104   -2.0787891   0.03659944   -2.8049104   0.72612135   424551 
 4841000   0.60629779     -2.80549     -2.80549   -2.0782471  0.029929421     -2.80549   0.72724288   424551 
 4842000   0.60602796   -2.8052144   -2.8052144   -2.0782951   0.03574501   -2.8052144   0.72691923   424551 
 4843000   0.60493858   -2.8044948   -2.8044948   -2.0788822  0.031626719   -2.8044948   0.72561253   424551 
 4844000   0.60392637   -2.8033128   -2.8033128   -2.0789144   0.03960729   -2.8033128   0.72439841   424551 
 4845000   0.60463605   -2.8041199   -2.8041199   -2.0788703  0.037084655   -2.8041199   0.72524965   424551 
 4846000   0.60450177   -2.8033827   -2.8033827   -2.0782941  0.038476893   -2.8033827   0.72508859   424551 
 4847000   0.60452156   -2.8034868   -2.8034868   -2.0783744   0.03478944   -2.8034868   0.72511232   424551 
 4848000    0.6042564   -2.8034926   -2.8034926   -2.0786983  0.035769585   -2.8034926   0.72479427   424551 
 4849000   0.60466328   -2.8032869   -2.8032869   -2.0780046   0.03136681   -2.8032869   0.72528232   424551 
 4850000   0.60488618   -2.8038125   -2.8038125   -2.0782628  0.037020842   -2.8038125   0.72554968   424551 
 4851000   0.60617105    -2.805827    -2.805827   -2.0787361  0.049369722    -2.805827   0.72709085   424551 
 4852000    0.6060021   -2.8055739   -2.8055739   -2.0786857  0.038044739   -2.8055739    0.7268882   424551 
 4853000   0.60627255   -2.8052478   -2.8052478   -2.0780352  0.031282928   -2.8052478   0.72721261   424551 
 4854000   0.60590826   -2.8048453   -2.8048453   -2.0780696   0.03480741   -2.8048453   0.72677564   424551 
 4855000   0.60684027   -2.8063144   -2.8063144   -2.0784208  0.021719267   -2.8063144   0.72789357   424551 
 4856000   0.60613183   -2.8049392   -2.8049392   -2.0778954  0.033345784   -2.8049392   0.72704382   424551 
 4857000   0.60533782   -2.8046604   -2.8046604    -2.078569  0.037820572   -2.8046604   0.72609142   424551 
 4858000   0.60496762   -2.8050496   -2.8050496   -2.0794022  0.038001007   -2.8050496   0.72564737   424551 
 4859000   0.60478764   -2.8046562   -2.8046562   -2.0792247   0.03046957   -2.8046562   0.72543149   424551 
 4860000   0.60591934   -2.8057575   -2.8057575   -2.0789685  0.040443243   -2.8057575   0.72678893   424551 
 4861000   0.60561766   -2.8052942   -2.8052942   -2.0788672  0.036187394   -2.8052942   0.72642708   424551 
 4862000   0.60523207   -2.8048565   -2.8048565    -2.078892  0.028643514   -2.8048565   0.72596457   424551 
 4863000   0.60628421   -2.8061622   -2.8061622   -2.0789356   0.03353122   -2.8061622   0.72722659   424551 
 4864000    0.6046988   -2.8054118   -2.8054118   -2.0800868  0.027571308   -2.8054118   0.72532493   424551 
 4865000   0.60320182   -2.8033545   -2.8033545   -2.0798251  0.040071836   -2.8033545   0.72352932   424551 
 4866000   0.60533118   -2.8052318   -2.8052318   -2.0791483  0.026802092   -2.8052318   0.72608345   424551 
 4867000   0.60530178   -2.8048294   -2.8048294   -2.0787812  0.031674226   -2.8048294   0.72604819   424551 
 4868000   0.60519527   -2.8053322   -2.8053322   -2.0794117  0.035199932   -2.8053322   0.72592043   424551 
 4869000   0.60485506   -2.8048872   -2.8048872   -2.0793749  0.033074016   -2.8048872   0.72551235   424551 
 4870000   0.60605688   -2.8062238   -2.8062238   -2.0792699  0.037293455   -2.8062238   0.72695392   424551 
 4871000   0.60488899   -2.8052909   -2.8052909   -2.0797378  0.040704343   -2.8052909   0.72555306   424551 
 4872000   0.60472433   -2.8049936   -2.8049936   -2.0796381  0.033913919   -2.8049936   0.72535555   424551 
 4873000   0.60603139   -2.8065954   -2.8065954    -2.079672  0.037249792   -2.8065954   0.72692334   424551 
 4874000   0.60533248    -2.806629    -2.806629    -2.080544  0.038975459    -2.806629   0.72608501   424551 
 4875000   0.60432296    -2.805357    -2.805357   -2.0804829  0.039829152    -2.805357   0.72487411   424551 
 4876000   0.60520965   -2.8061066   -2.8061066   -2.0801689   0.04671601   -2.8061066   0.72593768   424551 
 4877000   0.60620465    -2.807174    -2.807174   -2.0800429    0.0346184    -2.807174   0.72713116   424551 
 4878000   0.60594723   -2.8072794   -2.8072794    -2.080457  0.028406813   -2.8072794   0.72682239   424551 
 4879000   0.60567418   -2.8071643   -2.8071643   -2.0806695   0.03352933   -2.8071643   0.72649487   424551 
 4880000    0.6051218   -2.8062784   -2.8062784   -2.0804461  0.030550481   -2.8062784    0.7258323   424551 
 4881000   0.60517231   -2.8059527   -2.8059527   -2.0800598  0.038368945   -2.8059527   0.72589289   424551 
 4882000   0.60581207   -2.8060171   -2.8060171   -2.0793568  0.037223832   -2.8060171   0.72666028   424551 
 4883000   0.60569578   -2.8066274   -2.8066274   -2.0801066  0.043818761   -2.8066274   0.72652078   424551 
 4884000    0.6058898   -2.8069987   -2.8069987   -2.0802452  0.034619076   -2.8069987   0.72675351   424551 
 4885000   0.60575691   -2.8062057   -2.8062057   -2.0796116  0.032359291   -2.8062057   0.72659411   424551 
 4886000   0.60548969   -2.8058719   -2.8058719   -2.0795983   0.03931398   -2.8058719   0.72627358   424551 
 4887000   0.60573999   -2.8063072   -2.8063072   -2.0797334  0.032661052   -2.8063072   0.72657381   424551 
 4888000   0.60495975   -2.8057014   -2.8057014   -2.0800635  0.021140135   -2.8057014   0.72563793   424551 
 4889000   0.60528881    -2.806034    -2.806034   -2.0800014  0.032113883    -2.806034   0.72603263   424551 
 4890000   0.60481917   -2.8056591   -2.8056591   -2.0801898  0.036456933   -2.8056591    0.7254693   424551 
 4891000   0.60583233   -2.8064549   -2.8064549   -2.0797703  0.023633973   -2.8064549   0.72668457   424551 
 4892000   0.60463613   -2.8048368   -2.8048368   -2.0795871  0.036148585   -2.8048368   0.72524975   424551 
 4893000   0.60563149   -2.8058659   -2.8058659   -2.0794223  0.044811044   -2.8058659   0.72644367   424551 
 4894000   0.60541808   -2.8058766   -2.8058766   -2.0796889   0.03264563   -2.8058766   0.72618769   424551 
 4895000   0.60663648   -2.8072832   -2.8072832   -2.0796341  0.032023715   -2.8072832   0.72764913   424551 
 4896000   0.60743574   -2.8080033   -2.8080033   -2.0793955  0.035544404   -2.8080033   0.72860783   424551 
 4897000   0.60547149   -2.8053189   -2.8053189   -2.0790671  0.044611239   -2.8053189   0.72625174   424551 
 4898000   0.60536958   -2.8055944   -2.8055944   -2.0794649  0.030326663   -2.8055944   0.72612951   424551 
 4899000   0.60644964   -2.8072562   -2.8072562   -2.0798311  0.030536309   -2.8072562   0.72742502   424551 
 4900000   0.60425133   -2.8042934   -2.8042934   -2.0795052  0.031754494   -2.8042934   0.72478819   424551 
 4901000   0.60584425    -2.805668    -2.805668   -2.0789692   0.03857869    -2.805668   0.72669887   424551 
 4902000   0.60646945    -2.806797    -2.806797   -2.0793482   0.03768565    -2.806797   0.72744879   424551 
 4903000   0.60461085   -2.8050485   -2.8050485   -2.0798291  0.033500065   -2.8050485   0.72521943   424551 
 4904000   0.60530683   -2.8059865   -2.8059865   -2.0799322  0.038511273   -2.8059865   0.72605425   424551 
 4905000   0.60501614   -2.8053346   -2.8053346   -2.0796291  0.040582278   -2.8053346   0.72570556   424551 
 4906000   0.60427995   -2.8041065   -2.8041065    -2.079284  0.038881413   -2.8041065   0.72482252   424551 
 4907000   0.60531868   -2.8053519   -2.8053519   -2.0792835  0.029349407   -2.8053519   0.72606846   424551 
 4908000    0.6059323   -2.8066194   -2.8066194   -2.0798149  0.035932177   -2.8066194   0.72680449   424551 
 4909000   0.60642565   -2.8066508   -2.8066508   -2.0792545  0.042952643   -2.8066508   0.72739624   424551 
 4910000   0.60544046    -2.805446    -2.805446   -2.0792315   0.03482518    -2.805446   0.72621453   424551 
 4911000   0.60574911   -2.8064453   -2.8064453   -2.0798606  0.030165055   -2.8064453   0.72658475   424551 
 4912000    0.6051159     -2.80663     -2.80663   -2.0808048  0.033887921     -2.80663   0.72582523   424551 
 4913000    0.6055406   -2.8071703   -2.8071703   -2.0808357  0.031880818   -2.8071703   0.72633465   424551 
 4914000   0.60420513   -2.8053809   -2.8053809   -2.0806481  0.043285606   -2.8053809   0.72473277   424551 
 4915000   0.60495394   -2.8061948   -2.8061948   -2.0805638  0.036591031   -2.8061948   0.72563096   424551 
 4916000   0.60420305   -2.8048698   -2.8048698   -2.0801395  0.031377132   -2.8048698   0.72473028   424551 
 4917000   0.60590502   -2.8069973   -2.8069973   -2.0802255  0.028969485   -2.8069973   0.72677176   424551 
 4918000   0.60529248   -2.8069797   -2.8069797   -2.0809426  0.027359028   -2.8069797   0.72603703   424551 
 4919000   0.60449113    -2.806667    -2.806667   -2.0815912  0.035644482    -2.806667   0.72507583   424551 
 4920000   0.60517271   -2.8074899   -2.8074899   -2.0815965  0.037159715   -2.8074899   0.72589337   424551 
 4921000   0.60447697   -2.8073215   -2.8073215   -2.0822626  0.039696162   -2.8073215   0.72505884   424551 
 4922000   0.60505416   -2.8076307   -2.8076307   -2.0818796  0.022218135   -2.8076307   0.72575117   424551 
 4923000   0.60520399   -2.8075423   -2.8075423   -2.0816114  0.037078145   -2.8075423   0.72593089   424551 
 4924000     0.604964   -2.8066664   -2.8066664   -2.0810234  0.032654885   -2.8066664   0.72564302   424551 
 4925000   0.60587663     -2.80719     -2.80719   -2.0804523  0.033200229     -2.80719   0.72673771   424551 
 4926000   0.60631526   -2.8078744   -2.8078744   -2.0806105  0.038941566   -2.8078744   0.72726383   424551 
 4927000   0.60591389   -2.8069583   -2.8069583   -2.0801759  0.041141194   -2.8069583    0.7267824   424551 
 4928000   0.60719389    -2.807669    -2.807669   -2.0793513  0.029588238    -2.807669   0.72831774   424551 
 4929000   0.60674603   -2.8067743   -2.8067743   -2.0789938  0.043015639   -2.8067743   0.72778054   424551 
 4930000    0.6059626   -2.8066527   -2.8066527   -2.0798119  0.035748448   -2.8066527   0.72684083   424551 
 4931000   0.60750445   -2.8079794   -2.8079794   -2.0792891  0.039146993   -2.8079794   0.72869024   424551 
 4932000   0.60640736   -2.8069319   -2.8069319   -2.0795576  0.033512667   -2.8069319   0.72737432   424551 
 4933000    0.6068627   -2.8072324   -2.8072324   -2.0793119  0.035600137   -2.8072324   0.72792048   424551 
 4934000   0.60639225    -2.806862    -2.806862   -2.0795058  0.037084177    -2.806862   0.72735619   424551 
 4935000    0.6068633   -2.8072929   -2.8072929   -2.0793717  0.030164139   -2.8072929    0.7279212   424551 
 4936000    0.6064068   -2.8066556   -2.8066556   -2.0792819  0.040976296   -2.8066556   0.72737363   424551 
 4937000   0.60776735   -2.8083718   -2.8083718   -2.0793662  0.043628518   -2.8083718   0.72900559   424551 
 4938000   0.60601764   -2.8066051   -2.8066051   -2.0796982  0.035804505   -2.8066051   0.72690684   424551 
 4939000   0.60680229   -2.8070304   -2.8070304   -2.0791824  0.030387663   -2.8070304   0.72784802   424551 
 4940000   0.60447378   -2.8046842   -2.8046842   -2.0796291  0.040020707   -2.8046842   0.72505502   424551 
 4941000   0.60627801    -2.806962    -2.806962   -2.0797428  0.037823183    -2.806962   0.72721915   424551 
 4942000   0.60545398   -2.8066089   -2.8066089   -2.0803782  0.038572484   -2.8066089   0.72623075   424551 
 4943000   0.60460677   -2.8058179   -2.8058179   -2.0806034  0.032960252   -2.8058179   0.72521454   424551 
 4944000   0.60511721   -2.8061365   -2.8061365   -2.0803097  0.033382106   -2.8061365    0.7258268   424551 
 4945000   0.60587908   -2.8070467   -2.8070467   -2.0803061  0.034929279   -2.8070467   0.72674064   424551 
 4946000   0.60417931   -2.8056521   -2.8056521   -2.0809503  0.027399048   -2.8056521    0.7247018   424551 
 4947000   0.60481111   -2.8061955   -2.8061955   -2.0807358  0.033514992   -2.8061955   0.72545964   424551 
 4948000   0.60526608   -2.8060717   -2.8060717   -2.0800664  0.038297441   -2.8060717   0.72600537   424551 
 4949000   0.60631179    -2.807299    -2.807299   -2.0800393  0.033621829    -2.807299   0.72725968   424551 
 4950000   0.60411438   -2.8051128   -2.8051128   -2.0804889  0.036980194   -2.8051128   0.72462392   424551 
 4951000   0.60455032   -2.8055348   -2.8055348   -2.0803879  0.037883081   -2.8055348   0.72514683   424551 
 4952000   0.60463942   -2.8052183   -2.8052183   -2.0799646  0.030919358   -2.8052183    0.7252537   424551 
 4953000   0.60525046   -2.8061314   -2.8061314   -2.0801448  0.029947748   -2.8061314   0.72598663   424551 
 4954000    0.6055558   -2.8064363   -2.8064363   -2.0800834  0.028916958   -2.8064363   0.72635288   424551 
 4955000   0.60598335    -2.806773    -2.806773   -2.0799073  0.030250767    -2.806773   0.72686572   424551 
 4956000    0.6048632   -2.8065046   -2.8065046   -2.0809825   0.03567023   -2.8065046   0.72552211   424551 
 4957000   0.60604805   -2.8070639   -2.8070639   -2.0801206  0.041653259   -2.8070639   0.72694332   424551 
 4958000   0.60666854   -2.8075763   -2.8075763   -2.0798887  0.034232131   -2.8075763   0.72768759   424551 
 4959000   0.60646377     -2.80833     -2.80833    -2.080888  0.035692896     -2.80833   0.72744198   424551 
 4960000    0.6056221    -2.807443    -2.807443   -2.0810106  0.038000288    -2.807443    0.7264324   424551 
 4961000   0.60573713   -2.8077787   -2.8077787   -2.0812083  0.038215598   -2.8077787   0.72657038   424551 
 4962000   0.60635996   -2.8084104   -2.8084104   -2.0810929   0.04328491   -2.8084104   0.72731746   424551 
 4963000   0.60623993   -2.8073822   -2.8073822   -2.0802087  0.037101688   -2.8073822   0.72717348   424551 
 4964000   0.60636884   -2.8075948   -2.8075948   -2.0802667  0.034825812   -2.8075948   0.72732811   424551 
 4965000   0.60545588   -2.8060604   -2.8060604   -2.0798274  0.033173275   -2.8060604   0.72623303   424551 
 4966000   0.60573225   -2.8060587   -2.8060587   -2.0794941  0.041396575   -2.8060587   0.72656453   424551 
 4967000   0.60605663   -2.8065058   -2.8065058   -2.0795522  0.042638184   -2.8065058   0.72695362   424551 
 4968000   0.60384308   -2.8046609   -2.8046609   -2.0803624  0.033069581   -2.8046609    0.7242985   424551 
 4969000   0.60495214   -2.8051427   -2.8051427   -2.0795139  0.038838916   -2.8051427    0.7256288   424551 
 4970000   0.60468683   -2.8040092   -2.8040092   -2.0786986  0.024621867   -2.8040092   0.72531057   424551 
 4971000   0.60544802   -2.8046045   -2.8046045   -2.0783809  0.032936554   -2.8046045    0.7262236   424551 
 4972000   0.60545703   -2.8045008   -2.8045008   -2.0782664  0.031653019   -2.8045008   0.72623441   424551 
 4973000    0.6047489   -2.8040701   -2.8040701   -2.0786851  0.036517873   -2.8040701   0.72538501   424551 
 4974000   0.60539473   -2.8054453   -2.8054453   -2.0792857   0.02153096   -2.8054453   0.72615968   424551 
 4975000   0.60499245   -2.8045056   -2.8045056   -2.0788285   0.02982325   -2.8045056   0.72567715   424551 
 4976000    0.6052336   -2.8038514   -2.8038514    -2.077885  0.028192136   -2.8038514    0.7259664   424551 
 4977000   0.60465426   -2.8035477   -2.8035477   -2.0782762  0.029715286   -2.8035477    0.7252715   424551 
 4978000   0.60578388   -2.8047106   -2.8047106   -2.0780841  0.023679762   -2.8047106   0.72662646   424551 
 4979000   0.60500524   -2.8032792   -2.8032792   -2.0775867  0.033981485   -2.8032792   0.72569249   424551 
 4980000   0.60492018   -2.8040867   -2.8040867   -2.0784962  0.025241239   -2.8040867   0.72559046   424551 
 4981000    0.6048665   -2.8039984   -2.8039984   -2.0784723   0.03294688   -2.8039984   0.72552608   424551 
 4982000   0.60465308    -2.804579    -2.804579   -2.0793089   0.03516607    -2.804579   0.72527009   424551 
 4983000   0.60560321   -2.8050432   -2.8050432   -2.0786335  0.037383304   -2.8050432   0.72640974   424551 
 4984000   0.60511679   -2.8035468   -2.8035468   -2.0777205  0.026307292   -2.8035468   0.72582629   424551 
 4985000   0.60566637   -2.8046824   -2.8046824   -2.0781969  0.029162609   -2.8046824    0.7264855   424551 
 4986000   0.60659323   -2.8050332   -2.8050332    -2.077436  0.038336227   -2.8050332   0.72759726   424551 
 4987000   0.60664952   -2.8054557   -2.8054557   -2.0777909  0.037177524   -2.8054557   0.72766477   424551 
 4988000   0.60578204   -2.8054855   -2.8054855   -2.0788612  0.029045593   -2.8054855   0.72662425   424551 
 4989000   0.60624852   -2.8056049   -2.8056049   -2.0784211  0.039982363   -2.8056049   0.72718378   424551 
 4990000    0.6058433   -2.8049469   -2.8049469   -2.0782492  0.043133149   -2.8049469   0.72669773   424551 
 4991000   0.60676452   -2.8054671   -2.8054671   -2.0776643  0.037937511   -2.8054671   0.72780272   424551 
 4992000   0.60591467   -2.8048673   -2.8048673    -2.078084  0.040884877   -2.8048673   0.72678333   424551 
 4993000   0.60660162    -2.804788    -2.804788   -2.0771807   0.04304618    -2.804788   0.72760732   424551 
 4994000   0.60417532   -2.8024071   -2.8024071   -2.0777101  0.034213012   -2.8024071   0.72469702   424551 
 4995000   0.60564551   -2.8044745   -2.8044745   -2.0780141  0.036191078   -2.8044745   0.72646048   424551 
 4996000   0.60507289   -2.8039427   -2.8039427   -2.0781691  0.037464466   -2.8039427   0.72577363   424551 
 4997000   0.60461437   -2.8030078   -2.8030078   -2.0777841  0.031671159   -2.8030078   0.72522365   424551 
 4998000   0.60470716    -2.803825    -2.803825   -2.0784901  0.030605898    -2.803825   0.72533495   424551 
 4999000   0.60488316   -2.8046401   -2.8046401    -2.079094  0.024100505   -2.8046401   0.72554606   424551 
 5000000   0.60522867   -2.8048985   -2.8048985    -2.078938  0.040379504   -2.8048985   0.72596049   424551 
Loop time of 12944.3 on 288 procs for 5000000 steps with 424551 atoms

Performance: 166868.588 tau/day, 386.270 timesteps/s
92.9% CPU use with 288 MPI tasks x 1 OpenMP threads

MPI task timing breakdown:
Section |  min time  |  avg time  |  max time  |%varavg|  %CPU | %total
-----------------------------------------------------------------------
Pair    | 434.24     | 2096.2     | 3467.2     |1557.2 |  94.9 | 16.19
Bond    | 3.1519     | 3.4122     | 3.8704     |   5.0 | 100.0 |  0.03
Neigh   | 923.19     | 3131.2     | 4480.1     |1491.4 |  99.2 | 24.19
Comm    | 3140.8     | 5101.7     | 8608.4     |1616.9 |  91.1 | 39.41
Output  | 605.26     | 606.95     | 610.47     |   7.3 |  88.2 |  4.69
Modify  | 1007       | 1881.8     | 5391.5     |1531.5 |  91.4 | 14.54
Other   |            | 123.1      |            |       |       |  0.95

Nlocal:        1474.14 ave        1932 max        1111 min
Histogram: 2 5 24 81 89 60 13 9 4 1
Nghost:        6517.91 ave       10169 max        2473 min
Histogram: 11 12 16 21 44 70 70 33 10 1
Neighs:        32721.9 ave       58322 max        3185 min
Histogram: 22 2 6 31 61 53 36 53 17 7

Total # of neighbors = 9423896
Ave neighs/atom = 22.197324
Ave special neighs/atom = 0.0000000
Neighbor list builds = 497625
Dangerous builds = 450963

Total wall time: 3:35:49
