LAMMPS (24 Dec 2020)
OMP_NUM_THREADS environment is not set. Defaulting to 1 thread. (src/comm.cpp:94)
  using 1 OpenMP thread(s) per MPI task
units		lj
atom_style	full
dimension 	3
boundary	p p f
pair_style	lj/smooth/linear 2.0

variable 	sigma		equal 1.0
variable 	epsilon 	equal 1.0

region		box block 0 120 0 120 0 240
create_box 	3 box
Created orthogonal box = (0.0000000 0.0000000 0.0000000) to (120.00000 120.00000 240.00000)
  4 by 6 by 12 MPI processor grid



lattice 	sc 0.66
Lattice spacing in x,y,z = 1.1485556 1.1485556 1.1485556
region		fluid block EDGE EDGE EDGE EDGE 2 160 units box
create_atoms 	1 region fluid
Created 1521450 atoms
  create_atoms CPU = 0.126 seconds

lattice 	sc 0.045
Lattice spacing in x,y,z = 2.8114422 2.8114422 2.8114422
region		gas block EDGE EDGE EDGE EDGE 161 238 units box
create_atoms    1 region gas
Created 49923 atoms
  create_atoms CPU = 0.002 seconds

group		solvent type 1
1571373 atoms in group solvent

mass		1 1.0
mass		2 1.0
mass		3 1.0



neighbor 	0.4 bin

pair_coeff	1 1 1.0 1.0
pair_coeff	2 2 0.0 0.0
pair_coeff	3 3 0.0 0.0
pair_coeff	2 3 0.0 0.0
pair_coeff	1 2*3 0.0 0.0

pair_modify 	shift yes

delete_atoms	overlap 0.5 solvent solvent
System init for delete_atoms ...
Neighbor list info ...
  update every 1 steps, delay 10 steps, check yes
  max neighbors/atom: 2000, page size: 100000
  master list distance cutoff = 2.4
  ghost atom cutoff = 2.4
  binsize = 1.2, bins = 100 100 200
  2 neighbor lists, perpetual/occasional/extra = 1 1 0
  (1) command delete_atoms, occasional
      attributes: full, newton on
      pair build: full/bin
      stencil: full/bin/3d
      bin: standard
  (2) pair lj/smooth/linear, perpetual
      attributes: half, newton on
      pair build: half/bin/newton
      stencil: half/bin/3d/newton
      bin: standard
WARNING: Ignoring 'compress yes' for molecular system (src/delete_atoms.cpp:125)
Deleted 0 atoms, new total = 1571373

velocity 	solvent create ${startTemp} 563435 loop geom
velocity 	solvent create .65 563435 loop geom

balance 	1.05 shift z 10 1.05
Balancing ...
Neighbor list info ...
  update every 1 steps, delay 10 steps, check yes
  max neighbors/atom: 2000, page size: 100000
  master list distance cutoff = 2.4
  ghost atom cutoff = 2.4
  binsize = 1.2, bins = 100 100 200
  1 neighbor lists, perpetual/occasional/extra = 1 0 0
  (1) pair lj/smooth/linear, perpetual
      attributes: half, newton on
      pair build: half/bin/newton
      stencil: half/bin/3d/newton
      bin: standard
 rebalancing time: 0.012 seconds
  iteration count = 9
  initial/final maximal load/proc = 8748.0000 6318.0000
  initial/final imbalance factor  = 1.6033265 1.1579580
  x cuts: 0.0000000 0.25000000 0.50000000 0.75000000 1.0000000
  y cuts: 0.0000000 0.16666667 0.33333333 0.50000000 0.66666667 0.83333333 1.0000000
  z cuts: 0.0000000 0.062337240 0.11962891 0.17692057 0.23470052 0.29199219 0.34928385 0.40706380 0.46402995 0.51708984 0.57486979 0.63216146 1.0000000


####################### WALLS ###########################


variable       epsilonWall equal 2*${epsilon}
variable       epsilonWall equal 2*1

variable       cutoffTop   equal   0.7147*${sigma}
variable       cutoffTop   equal   0.7147*1

variable       cutoffLow   equal   3*${sigma}
variable       cutoffLow   equal   3*1


fix            topWall all wall/lj93 zhi EDGE                ${epsilonWall} ${sigma} ${cutoffTop} units box
fix            topWall all wall/lj93 zhi EDGE                2 ${sigma} ${cutoffTop} units box
fix            topWall all wall/lj93 zhi EDGE                2 1 ${cutoffTop} units box
fix            topWall all wall/lj93 zhi EDGE                2 1 0.7147 units box

fix            lowWall all wall/lj93 zlo EDGE                ${epsilonWall} ${sigma} ${cutoffLow} units box
fix            lowWall all wall/lj93 zlo EDGE                2 ${sigma} ${cutoffLow} units box
fix            lowWall all wall/lj93 zlo EDGE                2 1 ${cutoffLow} units box
fix            lowWall all wall/lj93 zlo EDGE                2 1 3 units box

###################### COMPUTES ##########################

compute        bin1 solvent chunk/atom bin/1d z lower 1.0 units box
compute        bin3 solvent chunk/atom bin/3d x lower 5.0 y lower 5.0 z lower 5.0 units box

compute         pe solvent         pe/atom
compute         pe2 all            pe/atom

######################  FIXES ############################


fix             peclet solvent ave/chunk 10 10 10000 bin1 density/number norm                  none ave one file density.profile

fix              temp solvent ave/chunk 10 10 10000 bin1 temp norm                  none ave one file temp.profile

fix              dens solvent ave/chunk 10 10 500000 bin3 density/number norm                  none ave one file dens3.profile

fix              temp2 solvent ave/chunk 10 10 500000 bin3 temp norm none ave one file temp3.profile

fix             pe solvent ave/chunk 1 1 500000 bin3 c_pe norm none ave one file pe3.profile


## Thermostat


region		regthermo block EDGE EDGE EDGE EDGE 0 20 units box

group 		thermo dynamic solvent region regthermo every 1000
dynamic group thermo defined

fix 		3 thermo langevin ${startTemp} ${temp} 10 156453
fix 		3 thermo langevin .65 ${temp} 10 156453
fix 		3 thermo langevin .65 .65 10 156453


#### Load balancing


fix 		bal all balance 1000 1.05 shift z 10 1.05


############### Diagnostics and computes ###################
#compute 	com cube	  rigid/local	1 mol x y z
#compute 	quat cube	  rigid/local	1 mol quatw quati quatj quatk

thermo 		1000
thermo_style 	custom step temp epair evdwl etotal press pe ke atoms

dump		1 all custom 100000 dump.lammpstrj id mol type x y z
dump 		2 all image 10000 image.*.png type type
dump 		3 all movie 1000 movie.avi type type

#dump 		com cube local 1000 dump.*.xyz c_com[*]
#dump		quat cube      local 1000 dump.*.quat c_quat[*]


restart 	1000000 restart.dat
timestep 	0.005
timer 		full
New timer settings: style=full  mode=nosync  timeout=off

run		5000000
Per MPI rank memory allocation (min/avg/max) = 11.54 | 11.71 | 12.32 Mbytes
Step Temp E_pair E_vdwl TotEng Press PotEng KinEng Atoms 
       0         0.65    90.492435    90.492435    91.467434    170.87561    90.492435   0.97499938  1571373 
    1000         0.65    90.492435    90.492435    91.467434    170.87561    90.492435   0.97499938  1571373 
    2000         0.65    90.492435    90.492435    91.467434    170.87561    90.492435   0.97499938  1571373 
    3000         0.65    90.492435    90.492435    91.467434    170.87561    90.492435   0.97499938  1571373 
    4000         0.65    90.492435    90.492435    91.467434    170.87561    90.492435   0.97499938  1571373 
    5000         0.65    90.492435    90.492435    91.467434    170.87561    90.492435   0.97499938  1571373 
    6000         0.65    90.492435    90.492435    91.467434    170.87561    90.492435   0.97499938  1571373 
    7000         0.65    90.492435    90.492435    91.467434    170.87561    90.492435   0.97499938  1571373 
    8000         0.65    90.492435    90.492435    91.467434    170.87561    90.492435   0.97499938  1571373 
    9000         0.65    90.492435    90.492435    91.467434    170.87561    90.492435   0.97499938  1571373 
   10000         0.65    90.492435    90.492435    91.467434    170.87561    90.492435   0.97499938  1571373 
   11000         0.65    90.492435    90.492435    91.467434    170.87561    90.492435   0.97499938  1571373 
   12000         0.65    90.492435    90.492435    91.467434    170.87561    90.492435   0.97499938  1571373 
   13000         0.65    90.492435    90.492435    91.467434    170.87561    90.492435   0.97499938  1571373 
   14000         0.65    90.492435    90.492435    91.467434    170.87561    90.492435   0.97499938  1571373 
   15000         0.65    90.492435    90.492435    91.467434    170.87561    90.492435   0.97499938  1571373 
   16000         0.65    90.492435    90.492435    91.467434    170.87561    90.492435   0.97499938  1571373 
   17000         0.65    90.492435    90.492435    91.467434    170.87561    90.492435   0.97499938  1571373 
   18000         0.65    90.492435    90.492435    91.467434    170.87561    90.492435   0.97499938  1571373 
   19000         0.65    90.492435    90.492435    91.467434    170.87561    90.492435   0.97499938  1571373 
   20000         0.65    90.492435    90.492435    91.467434    170.87561    90.492435   0.97499938  1571373 
   21000         0.65    90.492435    90.492435    91.467434    170.87561    90.492435   0.97499938  1571373 
   22000         0.65    90.492435    90.492435    91.467434    170.87561    90.492435   0.97499938  1571373 
   23000         0.65    90.492435    90.492435    91.467434    170.87561    90.492435   0.97499938  1571373 
   24000         0.65    90.492435    90.492435    91.467434    170.87561    90.492435   0.97499938  1571373 
   25000         0.65    90.492435    90.492435    91.467434    170.87561    90.492435   0.97499938  1571373 
   26000         0.65    90.492435    90.492435    91.467434    170.87561    90.492435   0.97499938  1571373 
   27000         0.65    90.492435    90.492435    91.467434    170.87561    90.492435   0.97499938  1571373 
   28000         0.65    90.492435    90.492435    91.467434    170.87561    90.492435   0.97499938  1571373 
   29000         0.65    90.492435    90.492435    91.467434    170.87561    90.492435   0.97499938  1571373 
   30000         0.65    90.492435    90.492435    91.467434    170.87561    90.492435   0.97499938  1571373 
   31000         0.65    90.492435    90.492435    91.467434    170.87561    90.492435   0.97499938  1571373 
   32000         0.65    90.492435    90.492435    91.467434    170.87561    90.492435   0.97499938  1571373 
   33000         0.65    90.492435    90.492435    91.467434    170.87561    90.492435   0.97499938  1571373 
   34000         0.65    90.492435    90.492435    91.467434    170.87561    90.492435   0.97499938  1571373 
   35000         0.65    90.492435    90.492435    91.467434    170.87561    90.492435   0.97499938  1571373 
   36000         0.65    90.492435    90.492435    91.467434    170.87561    90.492435   0.97499938  1571373 
   37000         0.65    90.492435    90.492435    91.467434    170.87561    90.492435   0.97499938  1571373 
   38000         0.65    90.492435    90.492435    91.467434    170.87561    90.492435   0.97499938  1571373 
   39000         0.65    90.492435    90.492435    91.467434    170.87561    90.492435   0.97499938  1571373 
   40000         0.65    90.492435    90.492435    91.467434    170.87561    90.492435   0.97499938  1571373 
   41000         0.65    90.492435    90.492435    91.467434    170.87561    90.492435   0.97499938  1571373 
   42000         0.65    90.492435    90.492435    91.467434    170.87561    90.492435   0.97499938  1571373 
   43000         0.65    90.492435    90.492435    91.467434    170.87561    90.492435   0.97499938  1571373 
   44000         0.65    90.492435    90.492435    91.467434    170.87561    90.492435   0.97499938  1571373 
   45000         0.65    90.492435    90.492435    91.467434    170.87561    90.492435   0.97499938  1571373 
   46000         0.65    90.492435    90.492435    91.467434    170.87561    90.492435   0.97499938  1571373 
   47000         0.65    90.492435    90.492435    91.467434    170.87561    90.492435   0.97499938  1571373 
   48000         0.65    90.492435    90.492435    91.467434    170.87561    90.492435   0.97499938  1571373 
   49000         0.65    90.492435    90.492435    91.467434    170.87561    90.492435   0.97499938  1571373 
   50000         0.65    90.492435    90.492435    91.467434    170.87561    90.492435   0.97499938  1571373 
   51000         0.65    90.492435    90.492435    91.467434    170.87561    90.492435   0.97499938  1571373 
   52000         0.65    90.492435    90.492435    91.467434    170.87561    90.492435   0.97499938  1571373 
   53000         0.65    90.492435    90.492435    91.467434    170.87561    90.492435   0.97499938  1571373 
   54000         0.65    90.492435    90.492435    91.467434    170.87561    90.492435   0.97499938  1571373 
   55000         0.65    90.492435    90.492435    91.467434    170.87561    90.492435   0.97499938  1571373 
   56000         0.65    90.492435    90.492435    91.467434    170.87561    90.492435   0.97499938  1571373 
   57000         0.65    90.492435    90.492435    91.467434    170.87561    90.492435   0.97499938  1571373 
   58000         0.65    90.492435    90.492435    91.467434    170.87561    90.492435   0.97499938  1571373 
   59000         0.65    90.492435    90.492435    91.467434    170.87561    90.492435   0.97499938  1571373 
   60000         0.65    90.492435    90.492435    91.467434    170.87561    90.492435   0.97499938  1571373 
   61000         0.65    90.492435    90.492435    91.467434    170.87561    90.492435   0.97499938  1571373 
   62000         0.65    90.492435    90.492435    91.467434    170.87561    90.492435   0.97499938  1571373 
   63000         0.65    90.492435    90.492435    91.467434    170.87561    90.492435   0.97499938  1571373 
   64000         0.65    90.492435    90.492435    91.467434    170.87561    90.492435   0.97499938  1571373 
   65000         0.65    90.492435    90.492435    91.467434    170.87561    90.492435   0.97499938  1571373 
   66000         0.65    90.492435    90.492435    91.467434    170.87561    90.492435   0.97499938  1571373 
   67000         0.65    90.492435    90.492435    91.467434    170.87561    90.492435   0.97499938  1571373 
   68000         0.65    90.492435    90.492435    91.467434    170.87561    90.492435   0.97499938  1571373 
   69000         0.65    90.492435    90.492435    91.467434    170.87561    90.492435   0.97499938  1571373 
   70000         0.65    90.492435    90.492435    91.467434    170.87561    90.492435   0.97499938  1571373 
   71000         0.65    90.492435    90.492435    91.467434    170.87561    90.492435   0.97499938  1571373 
   72000         0.65    90.492435    90.492435    91.467434    170.87561    90.492435   0.97499938  1571373 
   73000         0.65    90.492435    90.492435    91.467434    170.87561    90.492435   0.97499938  1571373 
   74000         0.65    90.492435    90.492435    91.467434    170.87561    90.492435   0.97499938  1571373 
   75000         0.65    90.492435    90.492435    91.467434    170.87561    90.492435   0.97499938  1571373 
   76000         0.65    90.492435    90.492435    91.467434    170.87561    90.492435   0.97499938  1571373 
   77000         0.65    90.492435    90.492435    91.467434    170.87561    90.492435   0.97499938  1571373 
   78000         0.65    90.492435    90.492435    91.467434    170.87561    90.492435   0.97499938  1571373 
   79000         0.65    90.492435    90.492435    91.467434    170.87561    90.492435   0.97499938  1571373 
   80000         0.65    90.492435    90.492435    91.467434    170.87561    90.492435   0.97499938  1571373 
   81000         0.65    90.492435    90.492435    91.467434    170.87561    90.492435   0.97499938  1571373 
   82000         0.65    90.492435    90.492435    91.467434    170.87561    90.492435   0.97499938  1571373 
   83000         0.65    90.492435    90.492435    91.467434    170.87561    90.492435   0.97499938  1571373 
   84000         0.65    90.492435    90.492435    91.467434    170.87561    90.492435   0.97499938  1571373 
   85000         0.65    90.492435    90.492435    91.467434    170.87561    90.492435   0.97499938  1571373 
   86000         0.65    90.492435    90.492435    91.467434    170.87561    90.492435   0.97499938  1571373 
   87000         0.65    90.492435    90.492435    91.467434    170.87561    90.492435   0.97499938  1571373 
   88000         0.65    90.492435    90.492435    91.467434    170.87561    90.492435   0.97499938  1571373 
   89000         0.65    90.492435    90.492435    91.467434    170.87561    90.492435   0.97499938  1571373 
   90000         0.65    90.492435    90.492435    91.467434    170.87561    90.492435   0.97499938  1571373 
   91000         0.65    90.492435    90.492435    91.467434    170.87561    90.492435   0.97499938  1571373 
   92000         0.65    90.492435    90.492435    91.467434    170.87561    90.492435   0.97499938  1571373 
   93000         0.65    90.492435    90.492435    91.467434    170.87561    90.492435   0.97499938  1571373 
   94000         0.65    90.492435    90.492435    91.467434    170.87561    90.492435   0.97499938  1571373 
   95000         0.65    90.492435    90.492435    91.467434    170.87561    90.492435   0.97499938  1571373 
   96000         0.65    90.492435    90.492435    91.467434    170.87561    90.492435   0.97499938  1571373 
   97000         0.65    90.492435    90.492435    91.467434    170.87561    90.492435   0.97499938  1571373 
   98000         0.65    90.492435    90.492435    91.467434    170.87561    90.492435   0.97499938  1571373 
   99000         0.65    90.492435    90.492435    91.467434    170.87561    90.492435   0.97499938  1571373 
  100000         0.65    90.492435    90.492435    91.467434    170.87561    90.492435   0.97499938  1571373 
  101000         0.65    90.492435    90.492435    91.467434    170.87561    90.492435   0.97499938  1571373 
  102000         0.65    90.492435    90.492435    91.467434    170.87561    90.492435   0.97499938  1571373 
  103000         0.65    90.492435    90.492435    91.467434    170.87561    90.492435   0.97499938  1571373 
  104000         0.65    90.492435    90.492435    91.467434    170.87561    90.492435   0.97499938  1571373 
  105000         0.65    90.492435    90.492435    91.467434    170.87561    90.492435   0.97499938  1571373 
  106000         0.65    90.492435    90.492435    91.467434    170.87561    90.492435   0.97499938  1571373 
  107000         0.65    90.492435    90.492435    91.467434    170.87561    90.492435   0.97499938  1571373 
  108000         0.65    90.492435    90.492435    91.467434    170.87561    90.492435   0.97499938  1571373 
  109000         0.65    90.492435    90.492435    91.467434    170.87561    90.492435   0.97499938  1571373 
  110000         0.65    90.492435    90.492435    91.467434    170.87561    90.492435   0.97499938  1571373 
  111000         0.65    90.492435    90.492435    91.467434    170.87561    90.492435   0.97499938  1571373 
  112000         0.65    90.492435    90.492435    91.467434    170.87561    90.492435   0.97499938  1571373 
  113000         0.65    90.492435    90.492435    91.467434    170.87561    90.492435   0.97499938  1571373 
  114000         0.65    90.492435    90.492435    91.467434    170.87561    90.492435   0.97499938  1571373 
  115000         0.65    90.492435    90.492435    91.467434    170.87561    90.492435   0.97499938  1571373 
  116000         0.65    90.492435    90.492435    91.467434    170.87561    90.492435   0.97499938  1571373 
  117000         0.65    90.492435    90.492435    91.467434    170.87561    90.492435   0.97499938  1571373 
  118000         0.65    90.492435    90.492435    91.467434    170.87561    90.492435   0.97499938  1571373 
  119000         0.65    90.492435    90.492435    91.467434    170.87561    90.492435   0.97499938  1571373 
  120000         0.65    90.492435    90.492435    91.467434    170.87561    90.492435   0.97499938  1571373 
  121000         0.65    90.492435    90.492435    91.467434    170.87561    90.492435   0.97499938  1571373 
  122000         0.65    90.492435    90.492435    91.467434    170.87561    90.492435   0.97499938  1571373 
  123000         0.65    90.492435    90.492435    91.467434    170.87561    90.492435   0.97499938  1571373 
  124000         0.65    90.492435    90.492435    91.467434    170.87561    90.492435   0.97499938  1571373 
  125000         0.65    90.492435    90.492435    91.467434    170.87561    90.492435   0.97499938  1571373 
  126000         0.65    90.492435    90.492435    91.467434    170.87561    90.492435   0.97499938  1571373 
  127000         0.65    90.492435    90.492435    91.467434    170.87561    90.492435   0.97499938  1571373 
  128000         0.65    90.492435    90.492435    91.467434    170.87561    90.492435   0.97499938  1571373 
  129000         0.65    90.492435    90.492435    91.467434    170.87561    90.492435   0.97499938  1571373 
  130000         0.65    90.492435    90.492435    91.467434    170.87561    90.492435   0.97499938  1571373 
  131000         0.65    90.492435    90.492435    91.467434    170.87561    90.492435   0.97499938  1571373 
  132000         0.65    90.492435    90.492435    91.467434    170.87561    90.492435   0.97499938  1571373 
  133000         0.65    90.492435    90.492435    91.467434    170.87561    90.492435   0.97499938  1571373 
  134000         0.65    90.492435    90.492435    91.467434    170.87561    90.492435   0.97499938  1571373 
  135000         0.65    90.492435    90.492435    91.467434    170.87561    90.492435   0.97499938  1571373 
  136000         0.65    90.492435    90.492435    91.467434    170.87561    90.492435   0.97499938  1571373 
  137000         0.65    90.492435    90.492435    91.467434    170.87561    90.492435   0.97499938  1571373 
  138000         0.65    90.492435    90.492435    91.467434    170.87561    90.492435   0.97499938  1571373 
  139000         0.65    90.492435    90.492435    91.467434    170.87561    90.492435   0.97499938  1571373 
  140000         0.65    90.492435    90.492435    91.467434    170.87561    90.492435   0.97499938  1571373 
  141000         0.65    90.492435    90.492435    91.467434    170.87561    90.492435   0.97499938  1571373 
  142000         0.65    90.492435    90.492435    91.467434    170.87561    90.492435   0.97499938  1571373 
  143000         0.65    90.492435    90.492435    91.467434    170.87561    90.492435   0.97499938  1571373 
  144000         0.65    90.492435    90.492435    91.467434    170.87561    90.492435   0.97499938  1571373 
  145000         0.65    90.492435    90.492435    91.467434    170.87561    90.492435   0.97499938  1571373 
  146000         0.65    90.492435    90.492435    91.467434    170.87561    90.492435   0.97499938  1571373 
  147000         0.65    90.492435    90.492435    91.467434    170.87561    90.492435   0.97499938  1571373 
  148000         0.65    90.492435    90.492435    91.467434    170.87561    90.492435   0.97499938  1571373 
  149000         0.65    90.492435    90.492435    91.467434    170.87561    90.492435   0.97499938  1571373 
  150000         0.65    90.492435    90.492435    91.467434    170.87561    90.492435   0.97499938  1571373 
  151000         0.65    90.492435    90.492435    91.467434    170.87561    90.492435   0.97499938  1571373 
  152000         0.65    90.492435    90.492435    91.467434    170.87561    90.492435   0.97499938  1571373 
  153000         0.65    90.492435    90.492435    91.467434    170.87561    90.492435   0.97499938  1571373 
  154000         0.65    90.492435    90.492435    91.467434    170.87561    90.492435   0.97499938  1571373 
  155000         0.65    90.492435    90.492435    91.467434    170.87561    90.492435   0.97499938  1571373 
  156000         0.65    90.492435    90.492435    91.467434    170.87561    90.492435   0.97499938  1571373 
  157000         0.65    90.492435    90.492435    91.467434    170.87561    90.492435   0.97499938  1571373 
  158000         0.65    90.492435    90.492435    91.467434    170.87561    90.492435   0.97499938  1571373 
  159000         0.65    90.492435    90.492435    91.467434    170.87561    90.492435   0.97499938  1571373 
  160000         0.65    90.492435    90.492435    91.467434    170.87561    90.492435   0.97499938  1571373 
  161000         0.65    90.492435    90.492435    91.467434    170.87561    90.492435   0.97499938  1571373 
  162000         0.65    90.492435    90.492435    91.467434    170.87561    90.492435   0.97499938  1571373 
  163000         0.65    90.492435    90.492435    91.467434    170.87561    90.492435   0.97499938  1571373 
  164000         0.65    90.492435    90.492435    91.467434    170.87561    90.492435   0.97499938  1571373 
  165000         0.65    90.492435    90.492435    91.467434    170.87561    90.492435   0.97499938  1571373 
  166000         0.65    90.492435    90.492435    91.467434    170.87561    90.492435   0.97499938  1571373 
  167000         0.65    90.492435    90.492435    91.467434    170.87561    90.492435   0.97499938  1571373 
  168000         0.65    90.492435    90.492435    91.467434    170.87561    90.492435   0.97499938  1571373 
  169000         0.65    90.492435    90.492435    91.467434    170.87561    90.492435   0.97499938  1571373 
  170000         0.65    90.492435    90.492435    91.467434    170.87561    90.492435   0.97499938  1571373 
  171000         0.65    90.492435    90.492435    91.467434    170.87561    90.492435   0.97499938  1571373 
  172000         0.65    90.492435    90.492435    91.467434    170.87561    90.492435   0.97499938  1571373 
  173000         0.65    90.492435    90.492435    91.467434    170.87561    90.492435   0.97499938  1571373 
  174000         0.65    90.492435    90.492435    91.467434    170.87561    90.492435   0.97499938  1571373 
  175000         0.65    90.492435    90.492435    91.467434    170.87561    90.492435   0.97499938  1571373 
  176000         0.65    90.492435    90.492435    91.467434    170.87561    90.492435   0.97499938  1571373 
  177000         0.65    90.492435    90.492435    91.467434    170.87561    90.492435   0.97499938  1571373 
  178000         0.65    90.492435    90.492435    91.467434    170.87561    90.492435   0.97499938  1571373 
  179000         0.65    90.492435    90.492435    91.467434    170.87561    90.492435   0.97499938  1571373 
  180000         0.65    90.492435    90.492435    91.467434    170.87561    90.492435   0.97499938  1571373 
  181000         0.65    90.492435    90.492435    91.467434    170.87561    90.492435   0.97499938  1571373 
  182000         0.65    90.492435    90.492435    91.467434    170.87561    90.492435   0.97499938  1571373 
  183000         0.65    90.492435    90.492435    91.467434    170.87561    90.492435   0.97499938  1571373 
  184000         0.65    90.492435    90.492435    91.467434    170.87561    90.492435   0.97499938  1571373 
  185000         0.65    90.492435    90.492435    91.467434    170.87561    90.492435   0.97499938  1571373 
  186000         0.65    90.492435    90.492435    91.467434    170.87561    90.492435   0.97499938  1571373 
  187000         0.65    90.492435    90.492435    91.467434    170.87561    90.492435   0.97499938  1571373 
  188000         0.65    90.492435    90.492435    91.467434    170.87561    90.492435   0.97499938  1571373 
  189000         0.65    90.492435    90.492435    91.467434    170.87561    90.492435   0.97499938  1571373 
  190000         0.65    90.492435    90.492435    91.467434    170.87561    90.492435   0.97499938  1571373 
  191000         0.65    90.492435    90.492435    91.467434    170.87561    90.492435   0.97499938  1571373 
  192000         0.65    90.492435    90.492435    91.467434    170.87561    90.492435   0.97499938  1571373 
  193000         0.65    90.492435    90.492435    91.467434    170.87561    90.492435   0.97499938  1571373 
  194000         0.65    90.492435    90.492435    91.467434    170.87561    90.492435   0.97499938  1571373 
  195000         0.65    90.492435    90.492435    91.467434    170.87561    90.492435   0.97499938  1571373 
  196000         0.65    90.492435    90.492435    91.467434    170.87561    90.492435   0.97499938  1571373 
  197000         0.65    90.492435    90.492435    91.467434    170.87561    90.492435   0.97499938  1571373 
  198000         0.65    90.492435    90.492435    91.467434    170.87561    90.492435   0.97499938  1571373 
  199000         0.65    90.492435    90.492435    91.467434    170.87561    90.492435   0.97499938  1571373 
  200000         0.65    90.492435    90.492435    91.467434    170.87561    90.492435   0.97499938  1571373 
  201000         0.65    90.492435    90.492435    91.467434    170.87561    90.492435   0.97499938  1571373 
  202000         0.65    90.492435    90.492435    91.467434    170.87561    90.492435   0.97499938  1571373 
  203000         0.65    90.492435    90.492435    91.467434    170.87561    90.492435   0.97499938  1571373 
  204000         0.65    90.492435    90.492435    91.467434    170.87561    90.492435   0.97499938  1571373 
  205000         0.65    90.492435    90.492435    91.467434    170.87561    90.492435   0.97499938  1571373 
  206000         0.65    90.492435    90.492435    91.467434    170.87561    90.492435   0.97499938  1571373 
  207000         0.65    90.492435    90.492435    91.467434    170.87561    90.492435   0.97499938  1571373 
  208000         0.65    90.492435    90.492435    91.467434    170.87561    90.492435   0.97499938  1571373 
  209000         0.65    90.492435    90.492435    91.467434    170.87561    90.492435   0.97499938  1571373 
  210000         0.65    90.492435    90.492435    91.467434    170.87561    90.492435   0.97499938  1571373 
  211000         0.65    90.492435    90.492435    91.467434    170.87561    90.492435   0.97499938  1571373 
  212000         0.65    90.492435    90.492435    91.467434    170.87561    90.492435   0.97499938  1571373 
  213000         0.65    90.492435    90.492435    91.467434    170.87561    90.492435   0.97499938  1571373 
  214000         0.65    90.492435    90.492435    91.467434    170.87561    90.492435   0.97499938  1571373 
  215000         0.65    90.492435    90.492435    91.467434    170.87561    90.492435   0.97499938  1571373 
  216000         0.65    90.492435    90.492435    91.467434    170.87561    90.492435   0.97499938  1571373 
  217000         0.65    90.492435    90.492435    91.467434    170.87561    90.492435   0.97499938  1571373 
  218000         0.65    90.492435    90.492435    91.467434    170.87561    90.492435   0.97499938  1571373 
  219000         0.65    90.492435    90.492435    91.467434    170.87561    90.492435   0.97499938  1571373 
  220000         0.65    90.492435    90.492435    91.467434    170.87561    90.492435   0.97499938  1571373 
  221000         0.65    90.492435    90.492435    91.467434    170.87561    90.492435   0.97499938  1571373 
  222000         0.65    90.492435    90.492435    91.467434    170.87561    90.492435   0.97499938  1571373 
  223000         0.65    90.492435    90.492435    91.467434    170.87561    90.492435   0.97499938  1571373 
  224000         0.65    90.492435    90.492435    91.467434    170.87561    90.492435   0.97499938  1571373 
  225000         0.65    90.492435    90.492435    91.467434    170.87561    90.492435   0.97499938  1571373 
  226000         0.65    90.492435    90.492435    91.467434    170.87561    90.492435   0.97499938  1571373 
  227000         0.65    90.492435    90.492435    91.467434    170.87561    90.492435   0.97499938  1571373 
  228000         0.65    90.492435    90.492435    91.467434    170.87561    90.492435   0.97499938  1571373 
  229000         0.65    90.492435    90.492435    91.467434    170.87561    90.492435   0.97499938  1571373 
  230000         0.65    90.492435    90.492435    91.467434    170.87561    90.492435   0.97499938  1571373 
  231000         0.65    90.492435    90.492435    91.467434    170.87561    90.492435   0.97499938  1571373 
  232000         0.65    90.492435    90.492435    91.467434    170.87561    90.492435   0.97499938  1571373 
  233000         0.65    90.492435    90.492435    91.467434    170.87561    90.492435   0.97499938  1571373 
  234000         0.65    90.492435    90.492435    91.467434    170.87561    90.492435   0.97499938  1571373 
  235000         0.65    90.492435    90.492435    91.467434    170.87561    90.492435   0.97499938  1571373 
  236000         0.65    90.492435    90.492435    91.467434    170.87561    90.492435   0.97499938  1571373 
  237000         0.65    90.492435    90.492435    91.467434    170.87561    90.492435   0.97499938  1571373 
  238000         0.65    90.492435    90.492435    91.467434    170.87561    90.492435   0.97499938  1571373 
  239000         0.65    90.492435    90.492435    91.467434    170.87561    90.492435   0.97499938  1571373 
  240000         0.65    90.492435    90.492435    91.467434    170.87561    90.492435   0.97499938  1571373 
  241000         0.65    90.492435    90.492435    91.467434    170.87561    90.492435   0.97499938  1571373 
  242000         0.65    90.492435    90.492435    91.467434    170.87561    90.492435   0.97499938  1571373 
  243000         0.65    90.492435    90.492435    91.467434    170.87561    90.492435   0.97499938  1571373 
  244000         0.65    90.492435    90.492435    91.467434    170.87561    90.492435   0.97499938  1571373 
  245000         0.65    90.492435    90.492435    91.467434    170.87561    90.492435   0.97499938  1571373 
  246000         0.65    90.492435    90.492435    91.467434    170.87561    90.492435   0.97499938  1571373 
  247000         0.65    90.492435    90.492435    91.467434    170.87561    90.492435   0.97499938  1571373 
  248000         0.65    90.492435    90.492435    91.467434    170.87561    90.492435   0.97499938  1571373 
  249000         0.65    90.492435    90.492435    91.467434    170.87561    90.492435   0.97499938  1571373 
  250000         0.65    90.492435    90.492435    91.467434    170.87561    90.492435   0.97499938  1571373 
  251000         0.65    90.492435    90.492435    91.467434    170.87561    90.492435   0.97499938  1571373 
  252000         0.65    90.492435    90.492435    91.467434    170.87561    90.492435   0.97499938  1571373 
  253000         0.65    90.492435    90.492435    91.467434    170.87561    90.492435   0.97499938  1571373 
  254000         0.65    90.492435    90.492435    91.467434    170.87561    90.492435   0.97499938  1571373 
  255000         0.65    90.492435    90.492435    91.467434    170.87561    90.492435   0.97499938  1571373 
  256000         0.65    90.492435    90.492435    91.467434    170.87561    90.492435   0.97499938  1571373 
  257000         0.65    90.492435    90.492435    91.467434    170.87561    90.492435   0.97499938  1571373 
  258000         0.65    90.492435    90.492435    91.467434    170.87561    90.492435   0.97499938  1571373 
  259000         0.65    90.492435    90.492435    91.467434    170.87561    90.492435   0.97499938  1571373 
  260000         0.65    90.492435    90.492435    91.467434    170.87561    90.492435   0.97499938  1571373 
  261000         0.65    90.492435    90.492435    91.467434    170.87561    90.492435   0.97499938  1571373 
  262000         0.65    90.492435    90.492435    91.467434    170.87561    90.492435   0.97499938  1571373 
  263000         0.65    90.492435    90.492435    91.467434    170.87561    90.492435   0.97499938  1571373 
  264000         0.65    90.492435    90.492435    91.467434    170.87561    90.492435   0.97499938  1571373 
  265000         0.65    90.492435    90.492435    91.467434    170.87561    90.492435   0.97499938  1571373 
  266000         0.65    90.492435    90.492435    91.467434    170.87561    90.492435   0.97499938  1571373 
  267000         0.65    90.492435    90.492435    91.467434    170.87561    90.492435   0.97499938  1571373 
  268000         0.65    90.492435    90.492435    91.467434    170.87561    90.492435   0.97499938  1571373 
  269000         0.65    90.492435    90.492435    91.467434    170.87561    90.492435   0.97499938  1571373 
  270000         0.65    90.492435    90.492435    91.467434    170.87561    90.492435   0.97499938  1571373 
  271000         0.65    90.492435    90.492435    91.467434    170.87561    90.492435   0.97499938  1571373 
  272000         0.65    90.492435    90.492435    91.467434    170.87561    90.492435   0.97499938  1571373 
  273000         0.65    90.492435    90.492435    91.467434    170.87561    90.492435   0.97499938  1571373 
  274000         0.65    90.492435    90.492435    91.467434    170.87561    90.492435   0.97499938  1571373 
  275000         0.65    90.492435    90.492435    91.467434    170.87561    90.492435   0.97499938  1571373 
  276000         0.65    90.492435    90.492435    91.467434    170.87561    90.492435   0.97499938  1571373 
  277000         0.65    90.492435    90.492435    91.467434    170.87561    90.492435   0.97499938  1571373 
  278000         0.65    90.492435    90.492435    91.467434    170.87561    90.492435   0.97499938  1571373 
  279000         0.65    90.492435    90.492435    91.467434    170.87561    90.492435   0.97499938  1571373 
  280000         0.65    90.492435    90.492435    91.467434    170.87561    90.492435   0.97499938  1571373 
  281000         0.65    90.492435    90.492435    91.467434    170.87561    90.492435   0.97499938  1571373 
  282000         0.65    90.492435    90.492435    91.467434    170.87561    90.492435   0.97499938  1571373 
  283000         0.65    90.492435    90.492435    91.467434    170.87561    90.492435   0.97499938  1571373 
  284000         0.65    90.492435    90.492435    91.467434    170.87561    90.492435   0.97499938  1571373 
  285000         0.65    90.492435    90.492435    91.467434    170.87561    90.492435   0.97499938  1571373 
  286000         0.65    90.492435    90.492435    91.467434    170.87561    90.492435   0.97499938  1571373 
  287000         0.65    90.492435    90.492435    91.467434    170.87561    90.492435   0.97499938  1571373 
  288000         0.65    90.492435    90.492435    91.467434    170.87561    90.492435   0.97499938  1571373 
  289000         0.65    90.492435    90.492435    91.467434    170.87561    90.492435   0.97499938  1571373 
  290000         0.65    90.492435    90.492435    91.467434    170.87561    90.492435   0.97499938  1571373 
  291000         0.65    90.492435    90.492435    91.467434    170.87561    90.492435   0.97499938  1571373 
  292000         0.65    90.492435    90.492435    91.467434    170.87561    90.492435   0.97499938  1571373 
  293000         0.65    90.492435    90.492435    91.467434    170.87561    90.492435   0.97499938  1571373 
  294000         0.65    90.492435    90.492435    91.467434    170.87561    90.492435   0.97499938  1571373 
  295000         0.65    90.492435    90.492435    91.467434    170.87561    90.492435   0.97499938  1571373 
  296000         0.65    90.492435    90.492435    91.467434    170.87561    90.492435   0.97499938  1571373 
  297000         0.65    90.492435    90.492435    91.467434    170.87561    90.492435   0.97499938  1571373 
  298000         0.65    90.492435    90.492435    91.467434    170.87561    90.492435   0.97499938  1571373 
  299000         0.65    90.492435    90.492435    91.467434    170.87561    90.492435   0.97499938  1571373 
  300000         0.65    90.492435    90.492435    91.467434    170.87561    90.492435   0.97499938  1571373 
  301000         0.65    90.492435    90.492435    91.467434    170.87561    90.492435   0.97499938  1571373 
  302000         0.65    90.492435    90.492435    91.467434    170.87561    90.492435   0.97499938  1571373 
  303000         0.65    90.492435    90.492435    91.467434    170.87561    90.492435   0.97499938  1571373 
  304000         0.65    90.492435    90.492435    91.467434    170.87561    90.492435   0.97499938  1571373 
  305000         0.65    90.492435    90.492435    91.467434    170.87561    90.492435   0.97499938  1571373 
  306000         0.65    90.492435    90.492435    91.467434    170.87561    90.492435   0.97499938  1571373 
  307000         0.65    90.492435    90.492435    91.467434    170.87561    90.492435   0.97499938  1571373 
  308000         0.65    90.492435    90.492435    91.467434    170.87561    90.492435   0.97499938  1571373 
  309000         0.65    90.492435    90.492435    91.467434    170.87561    90.492435   0.97499938  1571373 
  310000         0.65    90.492435    90.492435    91.467434    170.87561    90.492435   0.97499938  1571373 
  311000         0.65    90.492435    90.492435    91.467434    170.87561    90.492435   0.97499938  1571373 
  312000         0.65    90.492435    90.492435    91.467434    170.87561    90.492435   0.97499938  1571373 
  313000         0.65    90.492435    90.492435    91.467434    170.87561    90.492435   0.97499938  1571373 
  314000         0.65    90.492435    90.492435    91.467434    170.87561    90.492435   0.97499938  1571373 
  315000         0.65    90.492435    90.492435    91.467434    170.87561    90.492435   0.97499938  1571373 
  316000         0.65    90.492435    90.492435    91.467434    170.87561    90.492435   0.97499938  1571373 
  317000         0.65    90.492435    90.492435    91.467434    170.87561    90.492435   0.97499938  1571373 
  318000         0.65    90.492435    90.492435    91.467434    170.87561    90.492435   0.97499938  1571373 
  319000         0.65    90.492435    90.492435    91.467434    170.87561    90.492435   0.97499938  1571373 
  320000         0.65    90.492435    90.492435    91.467434    170.87561    90.492435   0.97499938  1571373 
  321000         0.65    90.492435    90.492435    91.467434    170.87561    90.492435   0.97499938  1571373 
  322000         0.65    90.492435    90.492435    91.467434    170.87561    90.492435   0.97499938  1571373 
  323000         0.65    90.492435    90.492435    91.467434    170.87561    90.492435   0.97499938  1571373 
  324000         0.65    90.492435    90.492435    91.467434    170.87561    90.492435   0.97499938  1571373 
  325000         0.65    90.492435    90.492435    91.467434    170.87561    90.492435   0.97499938  1571373 
  326000         0.65    90.492435    90.492435    91.467434    170.87561    90.492435   0.97499938  1571373 
  327000         0.65    90.492435    90.492435    91.467434    170.87561    90.492435   0.97499938  1571373 
  328000         0.65    90.492435    90.492435    91.467434    170.87561    90.492435   0.97499938  1571373 
  329000         0.65    90.492435    90.492435    91.467434    170.87561    90.492435   0.97499938  1571373 
  330000         0.65    90.492435    90.492435    91.467434    170.87561    90.492435   0.97499938  1571373 
  331000         0.65    90.492435    90.492435    91.467434    170.87561    90.492435   0.97499938  1571373 
  332000         0.65    90.492435    90.492435    91.467434    170.87561    90.492435   0.97499938  1571373 
  333000         0.65    90.492435    90.492435    91.467434    170.87561    90.492435   0.97499938  1571373 
  334000         0.65    90.492435    90.492435    91.467434    170.87561    90.492435   0.97499938  1571373 
  335000         0.65    90.492435    90.492435    91.467434    170.87561    90.492435   0.97499938  1571373 
  336000         0.65    90.492435    90.492435    91.467434    170.87561    90.492435   0.97499938  1571373 
  337000         0.65    90.492435    90.492435    91.467434    170.87561    90.492435   0.97499938  1571373 
  338000         0.65    90.492435    90.492435    91.467434    170.87561    90.492435   0.97499938  1571373 
  339000         0.65    90.492435    90.492435    91.467434    170.87561    90.492435   0.97499938  1571373 
  340000         0.65    90.492435    90.492435    91.467434    170.87561    90.492435   0.97499938  1571373 
  341000         0.65    90.492435    90.492435    91.467434    170.87561    90.492435   0.97499938  1571373 
  342000         0.65    90.492435    90.492435    91.467434    170.87561    90.492435   0.97499938  1571373 
  343000         0.65    90.492435    90.492435    91.467434    170.87561    90.492435   0.97499938  1571373 
  344000         0.65    90.492435    90.492435    91.467434    170.87561    90.492435   0.97499938  1571373 
  345000         0.65    90.492435    90.492435    91.467434    170.87561    90.492435   0.97499938  1571373 
  346000         0.65    90.492435    90.492435    91.467434    170.87561    90.492435   0.97499938  1571373 
  347000         0.65    90.492435    90.492435    91.467434    170.87561    90.492435   0.97499938  1571373 
  348000         0.65    90.492435    90.492435    91.467434    170.87561    90.492435   0.97499938  1571373 
  349000         0.65    90.492435    90.492435    91.467434    170.87561    90.492435   0.97499938  1571373 
  350000         0.65    90.492435    90.492435    91.467434    170.87561    90.492435   0.97499938  1571373 
  351000         0.65    90.492435    90.492435    91.467434    170.87561    90.492435   0.97499938  1571373 
  352000         0.65    90.492435    90.492435    91.467434    170.87561    90.492435   0.97499938  1571373 
  353000         0.65    90.492435    90.492435    91.467434    170.87561    90.492435   0.97499938  1571373 
  354000         0.65    90.492435    90.492435    91.467434    170.87561    90.492435   0.97499938  1571373 
  355000         0.65    90.492435    90.492435    91.467434    170.87561    90.492435   0.97499938  1571373 
  356000         0.65    90.492435    90.492435    91.467434    170.87561    90.492435   0.97499938  1571373 
  357000         0.65    90.492435    90.492435    91.467434    170.87561    90.492435   0.97499938  1571373 
  358000         0.65    90.492435    90.492435    91.467434    170.87561    90.492435   0.97499938  1571373 
  359000         0.65    90.492435    90.492435    91.467434    170.87561    90.492435   0.97499938  1571373 
  360000         0.65    90.492435    90.492435    91.467434    170.87561    90.492435   0.97499938  1571373 
  361000         0.65    90.492435    90.492435    91.467434    170.87561    90.492435   0.97499938  1571373 
  362000         0.65    90.492435    90.492435    91.467434    170.87561    90.492435   0.97499938  1571373 
  363000         0.65    90.492435    90.492435    91.467434    170.87561    90.492435   0.97499938  1571373 
  364000         0.65    90.492435    90.492435    91.467434    170.87561    90.492435   0.97499938  1571373 
  365000         0.65    90.492435    90.492435    91.467434    170.87561    90.492435   0.97499938  1571373 
  366000         0.65    90.492435    90.492435    91.467434    170.87561    90.492435   0.97499938  1571373 
  367000         0.65    90.492435    90.492435    91.467434    170.87561    90.492435   0.97499938  1571373 
  368000         0.65    90.492435    90.492435    91.467434    170.87561    90.492435   0.97499938  1571373 
  369000         0.65    90.492435    90.492435    91.467434    170.87561    90.492435   0.97499938  1571373 
  370000         0.65    90.492435    90.492435    91.467434    170.87561    90.492435   0.97499938  1571373 
  371000         0.65    90.492435    90.492435    91.467434    170.87561    90.492435   0.97499938  1571373 
  372000         0.65    90.492435    90.492435    91.467434    170.87561    90.492435   0.97499938  1571373 
  373000         0.65    90.492435    90.492435    91.467434    170.87561    90.492435   0.97499938  1571373 
  374000         0.65    90.492435    90.492435    91.467434    170.87561    90.492435   0.97499938  1571373 
  375000         0.65    90.492435    90.492435    91.467434    170.87561    90.492435   0.97499938  1571373 
  376000         0.65    90.492435    90.492435    91.467434    170.87561    90.492435   0.97499938  1571373 
  377000         0.65    90.492435    90.492435    91.467434    170.87561    90.492435   0.97499938  1571373 
  378000         0.65    90.492435    90.492435    91.467434    170.87561    90.492435   0.97499938  1571373 
  379000         0.65    90.492435    90.492435    91.467434    170.87561    90.492435   0.97499938  1571373 
  380000         0.65    90.492435    90.492435    91.467434    170.87561    90.492435   0.97499938  1571373 
  381000         0.65    90.492435    90.492435    91.467434    170.87561    90.492435   0.97499938  1571373 
  382000         0.65    90.492435    90.492435    91.467434    170.87561    90.492435   0.97499938  1571373 
  383000         0.65    90.492435    90.492435    91.467434    170.87561    90.492435   0.97499938  1571373 
  384000         0.65    90.492435    90.492435    91.467434    170.87561    90.492435   0.97499938  1571373 
  385000         0.65    90.492435    90.492435    91.467434    170.87561    90.492435   0.97499938  1571373 
  386000         0.65    90.492435    90.492435    91.467434    170.87561    90.492435   0.97499938  1571373 
  387000         0.65    90.492435    90.492435    91.467434    170.87561    90.492435   0.97499938  1571373 
  388000         0.65    90.492435    90.492435    91.467434    170.87561    90.492435   0.97499938  1571373 
  389000         0.65    90.492435    90.492435    91.467434    170.87561    90.492435   0.97499938  1571373 
  390000         0.65    90.492435    90.492435    91.467434    170.87561    90.492435   0.97499938  1571373 
  391000         0.65    90.492435    90.492435    91.467434    170.87561    90.492435   0.97499938  1571373 
  392000         0.65    90.492435    90.492435    91.467434    170.87561    90.492435   0.97499938  1571373 
  393000         0.65    90.492435    90.492435    91.467434    170.87561    90.492435   0.97499938  1571373 
  394000         0.65    90.492435    90.492435    91.467434    170.87561    90.492435   0.97499938  1571373 
  395000         0.65    90.492435    90.492435    91.467434    170.87561    90.492435   0.97499938  1571373 
  396000         0.65    90.492435    90.492435    91.467434    170.87561    90.492435   0.97499938  1571373 
  397000         0.65    90.492435    90.492435    91.467434    170.87561    90.492435   0.97499938  1571373 
  398000         0.65    90.492435    90.492435    91.467434    170.87561    90.492435   0.97499938  1571373 
  399000         0.65    90.492435    90.492435    91.467434    170.87561    90.492435   0.97499938  1571373 
  400000         0.65    90.492435    90.492435    91.467434    170.87561    90.492435   0.97499938  1571373 
  401000         0.65    90.492435    90.492435    91.467434    170.87561    90.492435   0.97499938  1571373 
  402000         0.65    90.492435    90.492435    91.467434    170.87561    90.492435   0.97499938  1571373 
  403000         0.65    90.492435    90.492435    91.467434    170.87561    90.492435   0.97499938  1571373 
  404000         0.65    90.492435    90.492435    91.467434    170.87561    90.492435   0.97499938  1571373 
  405000         0.65    90.492435    90.492435    91.467434    170.87561    90.492435   0.97499938  1571373 
  406000         0.65    90.492435    90.492435    91.467434    170.87561    90.492435   0.97499938  1571373 
  407000         0.65    90.492435    90.492435    91.467434    170.87561    90.492435   0.97499938  1571373 
  408000         0.65    90.492435    90.492435    91.467434    170.87561    90.492435   0.97499938  1571373 
  409000         0.65    90.492435    90.492435    91.467434    170.87561    90.492435   0.97499938  1571373 
  410000         0.65    90.492435    90.492435    91.467434    170.87561    90.492435   0.97499938  1571373 
  411000         0.65    90.492435    90.492435    91.467434    170.87561    90.492435   0.97499938  1571373 
  412000         0.65    90.492435    90.492435    91.467434    170.87561    90.492435   0.97499938  1571373 
  413000         0.65    90.492435    90.492435    91.467434    170.87561    90.492435   0.97499938  1571373 
  414000         0.65    90.492435    90.492435    91.467434    170.87561    90.492435   0.97499938  1571373 
  415000         0.65    90.492435    90.492435    91.467434    170.87561    90.492435   0.97499938  1571373 
  416000         0.65    90.492435    90.492435    91.467434    170.87561    90.492435   0.97499938  1571373 
  417000         0.65    90.492435    90.492435    91.467434    170.87561    90.492435   0.97499938  1571373 
  418000         0.65    90.492435    90.492435    91.467434    170.87561    90.492435   0.97499938  1571373 
  419000         0.65    90.492435    90.492435    91.467434    170.87561    90.492435   0.97499938  1571373 
  420000         0.65    90.492435    90.492435    91.467434    170.87561    90.492435   0.97499938  1571373 
  421000         0.65    90.492435    90.492435    91.467434    170.87561    90.492435   0.97499938  1571373 
  422000         0.65    90.492435    90.492435    91.467434    170.87561    90.492435   0.97499938  1571373 
  423000         0.65    90.492435    90.492435    91.467434    170.87561    90.492435   0.97499938  1571373 
  424000         0.65    90.492435    90.492435    91.467434    170.87561    90.492435   0.97499938  1571373 
  425000         0.65    90.492435    90.492435    91.467434    170.87561    90.492435   0.97499938  1571373 
  426000         0.65    90.492435    90.492435    91.467434    170.87561    90.492435   0.97499938  1571373 
  427000         0.65    90.492435    90.492435    91.467434    170.87561    90.492435   0.97499938  1571373 
  428000         0.65    90.492435    90.492435    91.467434    170.87561    90.492435   0.97499938  1571373 
  429000         0.65    90.492435    90.492435    91.467434    170.87561    90.492435   0.97499938  1571373 
  430000         0.65    90.492435    90.492435    91.467434    170.87561    90.492435   0.97499938  1571373 
  431000         0.65    90.492435    90.492435    91.467434    170.87561    90.492435   0.97499938  1571373 
  432000         0.65    90.492435    90.492435    91.467434    170.87561    90.492435   0.97499938  1571373 
  433000         0.65    90.492435    90.492435    91.467434    170.87561    90.492435   0.97499938  1571373 
  434000         0.65    90.492435    90.492435    91.467434    170.87561    90.492435   0.97499938  1571373 
  435000         0.65    90.492435    90.492435    91.467434    170.87561    90.492435   0.97499938  1571373 
  436000         0.65    90.492435    90.492435    91.467434    170.87561    90.492435   0.97499938  1571373 
  437000         0.65    90.492435    90.492435    91.467434    170.87561    90.492435   0.97499938  1571373 
  438000         0.65    90.492435    90.492435    91.467434    170.87561    90.492435   0.97499938  1571373 
  439000         0.65    90.492435    90.492435    91.467434    170.87561    90.492435   0.97499938  1571373 
  440000         0.65    90.492435    90.492435    91.467434    170.87561    90.492435   0.97499938  1571373 
  441000         0.65    90.492435    90.492435    91.467434    170.87561    90.492435   0.97499938  1571373 
  442000         0.65    90.492435    90.492435    91.467434    170.87561    90.492435   0.97499938  1571373 
  443000         0.65    90.492435    90.492435    91.467434    170.87561    90.492435   0.97499938  1571373 
  444000         0.65    90.492435    90.492435    91.467434    170.87561    90.492435   0.97499938  1571373 
  445000         0.65    90.492435    90.492435    91.467434    170.87561    90.492435   0.97499938  1571373 
  446000         0.65    90.492435    90.492435    91.467434    170.87561    90.492435   0.97499938  1571373 
  447000         0.65    90.492435    90.492435    91.467434    170.87561    90.492435   0.97499938  1571373 
  448000         0.65    90.492435    90.492435    91.467434    170.87561    90.492435   0.97499938  1571373 
  449000         0.65    90.492435    90.492435    91.467434    170.87561    90.492435   0.97499938  1571373 
  450000         0.65    90.492435    90.492435    91.467434    170.87561    90.492435   0.97499938  1571373 
  451000         0.65    90.492435    90.492435    91.467434    170.87561    90.492435   0.97499938  1571373 
  452000         0.65    90.492435    90.492435    91.467434    170.87561    90.492435   0.97499938  1571373 
  453000         0.65    90.492435    90.492435    91.467434    170.87561    90.492435   0.97499938  1571373 
  454000         0.65    90.492435    90.492435    91.467434    170.87561    90.492435   0.97499938  1571373 
  455000         0.65    90.492435    90.492435    91.467434    170.87561    90.492435   0.97499938  1571373 
  456000         0.65    90.492435    90.492435    91.467434    170.87561    90.492435   0.97499938  1571373 
  457000         0.65    90.492435    90.492435    91.467434    170.87561    90.492435   0.97499938  1571373 
  458000         0.65    90.492435    90.492435    91.467434    170.87561    90.492435   0.97499938  1571373 
  459000         0.65    90.492435    90.492435    91.467434    170.87561    90.492435   0.97499938  1571373 
  460000         0.65    90.492435    90.492435    91.467434    170.87561    90.492435   0.97499938  1571373 
  461000         0.65    90.492435    90.492435    91.467434    170.87561    90.492435   0.97499938  1571373 
  462000         0.65    90.492435    90.492435    91.467434    170.87561    90.492435   0.97499938  1571373 
  463000         0.65    90.492435    90.492435    91.467434    170.87561    90.492435   0.97499938  1571373 
  464000         0.65    90.492435    90.492435    91.467434    170.87561    90.492435   0.97499938  1571373 
  465000         0.65    90.492435    90.492435    91.467434    170.87561    90.492435   0.97499938  1571373 
  466000         0.65    90.492435    90.492435    91.467434    170.87561    90.492435   0.97499938  1571373 
  467000         0.65    90.492435    90.492435    91.467434    170.87561    90.492435   0.97499938  1571373 
  468000         0.65    90.492435    90.492435    91.467434    170.87561    90.492435   0.97499938  1571373 
  469000         0.65    90.492435    90.492435    91.467434    170.87561    90.492435   0.97499938  1571373 
  470000         0.65    90.492435    90.492435    91.467434    170.87561    90.492435   0.97499938  1571373 
  471000         0.65    90.492435    90.492435    91.467434    170.87561    90.492435   0.97499938  1571373 
  472000         0.65    90.492435    90.492435    91.467434    170.87561    90.492435   0.97499938  1571373 
  473000         0.65    90.492435    90.492435    91.467434    170.87561    90.492435   0.97499938  1571373 
  474000         0.65    90.492435    90.492435    91.467434    170.87561    90.492435   0.97499938  1571373 
  475000         0.65    90.492435    90.492435    91.467434    170.87561    90.492435   0.97499938  1571373 
  476000         0.65    90.492435    90.492435    91.467434    170.87561    90.492435   0.97499938  1571373 
  477000         0.65    90.492435    90.492435    91.467434    170.87561    90.492435   0.97499938  1571373 
  478000         0.65    90.492435    90.492435    91.467434    170.87561    90.492435   0.97499938  1571373 
  479000         0.65    90.492435    90.492435    91.467434    170.87561    90.492435   0.97499938  1571373 
  480000         0.65    90.492435    90.492435    91.467434    170.87561    90.492435   0.97499938  1571373 
  481000         0.65    90.492435    90.492435    91.467434    170.87561    90.492435   0.97499938  1571373 
  482000         0.65    90.492435    90.492435    91.467434    170.87561    90.492435   0.97499938  1571373 
  483000         0.65    90.492435    90.492435    91.467434    170.87561    90.492435   0.97499938  1571373 
  484000         0.65    90.492435    90.492435    91.467434    170.87561    90.492435   0.97499938  1571373 
  485000         0.65    90.492435    90.492435    91.467434    170.87561    90.492435   0.97499938  1571373 
  486000         0.65    90.492435    90.492435    91.467434    170.87561    90.492435   0.97499938  1571373 
  487000         0.65    90.492435    90.492435    91.467434    170.87561    90.492435   0.97499938  1571373 
  488000         0.65    90.492435    90.492435    91.467434    170.87561    90.492435   0.97499938  1571373 
  489000         0.65    90.492435    90.492435    91.467434    170.87561    90.492435   0.97499938  1571373 
  490000         0.65    90.492435    90.492435    91.467434    170.87561    90.492435   0.97499938  1571373 
  491000         0.65    90.492435    90.492435    91.467434    170.87561    90.492435   0.97499938  1571373 
  492000         0.65    90.492435    90.492435    91.467434    170.87561    90.492435   0.97499938  1571373 
  493000         0.65    90.492435    90.492435    91.467434    170.87561    90.492435   0.97499938  1571373 
  494000         0.65    90.492435    90.492435    91.467434    170.87561    90.492435   0.97499938  1571373 
  495000         0.65    90.492435    90.492435    91.467434    170.87561    90.492435   0.97499938  1571373 
  496000         0.65    90.492435    90.492435    91.467434    170.87561    90.492435   0.97499938  1571373 
  497000         0.65    90.492435    90.492435    91.467434    170.87561    90.492435   0.97499938  1571373 
  498000         0.65    90.492435    90.492435    91.467434    170.87561    90.492435   0.97499938  1571373 
  499000         0.65    90.492435    90.492435    91.467434    170.87561    90.492435   0.97499938  1571373 
  500000         0.65    90.492435    90.492435    91.467434    170.87561    90.492435   0.97499938  1571373 
  501000         0.65    90.492435    90.492435    91.467434    170.87561    90.492435   0.97499938  1571373 
  502000         0.65    90.492435    90.492435    91.467434    170.87561    90.492435   0.97499938  1571373 
  503000         0.65    90.492435    90.492435    91.467434    170.87561    90.492435   0.97499938  1571373 
  504000         0.65    90.492435    90.492435    91.467434    170.87561    90.492435   0.97499938  1571373 
  505000         0.65    90.492435    90.492435    91.467434    170.87561    90.492435   0.97499938  1571373 
  506000         0.65    90.492435    90.492435    91.467434    170.87561    90.492435   0.97499938  1571373 
  507000         0.65    90.492435    90.492435    91.467434    170.87561    90.492435   0.97499938  1571373 
  508000         0.65    90.492435    90.492435    91.467434    170.87561    90.492435   0.97499938  1571373 
  509000         0.65    90.492435    90.492435    91.467434    170.87561    90.492435   0.97499938  1571373 
  510000         0.65    90.492435    90.492435    91.467434    170.87561    90.492435   0.97499938  1571373 
  511000         0.65    90.492435    90.492435    91.467434    170.87561    90.492435   0.97499938  1571373 
  512000         0.65    90.492435    90.492435    91.467434    170.87561    90.492435   0.97499938  1571373 
  513000         0.65    90.492435    90.492435    91.467434    170.87561    90.492435   0.97499938  1571373 
  514000         0.65    90.492435    90.492435    91.467434    170.87561    90.492435   0.97499938  1571373 
  515000         0.65    90.492435    90.492435    91.467434    170.87561    90.492435   0.97499938  1571373 
  516000         0.65    90.492435    90.492435    91.467434    170.87561    90.492435   0.97499938  1571373 
  517000         0.65    90.492435    90.492435    91.467434    170.87561    90.492435   0.97499938  1571373 
  518000         0.65    90.492435    90.492435    91.467434    170.87561    90.492435   0.97499938  1571373 
  519000         0.65    90.492435    90.492435    91.467434    170.87561    90.492435   0.97499938  1571373 
  520000         0.65    90.492435    90.492435    91.467434    170.87561    90.492435   0.97499938  1571373 
  521000         0.65    90.492435    90.492435    91.467434    170.87561    90.492435   0.97499938  1571373 
  522000         0.65    90.492435    90.492435    91.467434    170.87561    90.492435   0.97499938  1571373 
  523000         0.65    90.492435    90.492435    91.467434    170.87561    90.492435   0.97499938  1571373 
  524000         0.65    90.492435    90.492435    91.467434    170.87561    90.492435   0.97499938  1571373 
  525000         0.65    90.492435    90.492435    91.467434    170.87561    90.492435   0.97499938  1571373 
  526000         0.65    90.492435    90.492435    91.467434    170.87561    90.492435   0.97499938  1571373 
  527000         0.65    90.492435    90.492435    91.467434    170.87561    90.492435   0.97499938  1571373 
  528000         0.65    90.492435    90.492435    91.467434    170.87561    90.492435   0.97499938  1571373 
  529000         0.65    90.492435    90.492435    91.467434    170.87561    90.492435   0.97499938  1571373 
  530000         0.65    90.492435    90.492435    91.467434    170.87561    90.492435   0.97499938  1571373 
  531000         0.65    90.492435    90.492435    91.467434    170.87561    90.492435   0.97499938  1571373 
  532000         0.65    90.492435    90.492435    91.467434    170.87561    90.492435   0.97499938  1571373 
  533000         0.65    90.492435    90.492435    91.467434    170.87561    90.492435   0.97499938  1571373 
  534000         0.65    90.492435    90.492435    91.467434    170.87561    90.492435   0.97499938  1571373 
  535000         0.65    90.492435    90.492435    91.467434    170.87561    90.492435   0.97499938  1571373 
  536000         0.65    90.492435    90.492435    91.467434    170.87561    90.492435   0.97499938  1571373 
  537000         0.65    90.492435    90.492435    91.467434    170.87561    90.492435   0.97499938  1571373 
  538000         0.65    90.492435    90.492435    91.467434    170.87561    90.492435   0.97499938  1571373 
  539000         0.65    90.492435    90.492435    91.467434    170.87561    90.492435   0.97499938  1571373 
  540000         0.65    90.492435    90.492435    91.467434    170.87561    90.492435   0.97499938  1571373 
  541000         0.65    90.492435    90.492435    91.467434    170.87561    90.492435   0.97499938  1571373 
  542000         0.65    90.492435    90.492435    91.467434    170.87561    90.492435   0.97499938  1571373 
  543000         0.65    90.492435    90.492435    91.467434    170.87561    90.492435   0.97499938  1571373 
  544000         0.65    90.492435    90.492435    91.467434    170.87561    90.492435   0.97499938  1571373 
  545000         0.65    90.492435    90.492435    91.467434    170.87561    90.492435   0.97499938  1571373 
  546000         0.65    90.492435    90.492435    91.467434    170.87561    90.492435   0.97499938  1571373 
  547000         0.65    90.492435    90.492435    91.467434    170.87561    90.492435   0.97499938  1571373 
  548000         0.65    90.492435    90.492435    91.467434    170.87561    90.492435   0.97499938  1571373 
  549000         0.65    90.492435    90.492435    91.467434    170.87561    90.492435   0.97499938  1571373 
  550000         0.65    90.492435    90.492435    91.467434    170.87561    90.492435   0.97499938  1571373 
  551000         0.65    90.492435    90.492435    91.467434    170.87561    90.492435   0.97499938  1571373 
  552000         0.65    90.492435    90.492435    91.467434    170.87561    90.492435   0.97499938  1571373 
  553000         0.65    90.492435    90.492435    91.467434    170.87561    90.492435   0.97499938  1571373 
  554000         0.65    90.492435    90.492435    91.467434    170.87561    90.492435   0.97499938  1571373 
  555000         0.65    90.492435    90.492435    91.467434    170.87561    90.492435   0.97499938  1571373 
  556000         0.65    90.492435    90.492435    91.467434    170.87561    90.492435   0.97499938  1571373 
  557000         0.65    90.492435    90.492435    91.467434    170.87561    90.492435   0.97499938  1571373 
  558000         0.65    90.492435    90.492435    91.467434    170.87561    90.492435   0.97499938  1571373 
  559000         0.65    90.492435    90.492435    91.467434    170.87561    90.492435   0.97499938  1571373 
  560000         0.65    90.492435    90.492435    91.467434    170.87561    90.492435   0.97499938  1571373 
  561000         0.65    90.492435    90.492435    91.467434    170.87561    90.492435   0.97499938  1571373 
  562000         0.65    90.492435    90.492435    91.467434    170.87561    90.492435   0.97499938  1571373 
  563000         0.65    90.492435    90.492435    91.467434    170.87561    90.492435   0.97499938  1571373 
  564000         0.65    90.492435    90.492435    91.467434    170.87561    90.492435   0.97499938  1571373 
  565000         0.65    90.492435    90.492435    91.467434    170.87561    90.492435   0.97499938  1571373 
  566000         0.65    90.492435    90.492435    91.467434    170.87561    90.492435   0.97499938  1571373 
  567000         0.65    90.492435    90.492435    91.467434    170.87561    90.492435   0.97499938  1571373 
  568000         0.65    90.492435    90.492435    91.467434    170.87561    90.492435   0.97499938  1571373 
  569000         0.65    90.492435    90.492435    91.467434    170.87561    90.492435   0.97499938  1571373 
  570000         0.65    90.492435    90.492435    91.467434    170.87561    90.492435   0.97499938  1571373 
  571000         0.65    90.492435    90.492435    91.467434    170.87561    90.492435   0.97499938  1571373 
  572000         0.65    90.492435    90.492435    91.467434    170.87561    90.492435   0.97499938  1571373 
  573000         0.65    90.492435    90.492435    91.467434    170.87561    90.492435   0.97499938  1571373 
  574000         0.65    90.492435    90.492435    91.467434    170.87561    90.492435   0.97499938  1571373 
  575000         0.65    90.492435    90.492435    91.467434    170.87561    90.492435   0.97499938  1571373 
  576000         0.65    90.492435    90.492435    91.467434    170.87561    90.492435   0.97499938  1571373 
  577000         0.65    90.492435    90.492435    91.467434    170.87561    90.492435   0.97499938  1571373 
  578000         0.65    90.492435    90.492435    91.467434    170.87561    90.492435   0.97499938  1571373 
  579000         0.65    90.492435    90.492435    91.467434    170.87561    90.492435   0.97499938  1571373 
  580000         0.65    90.492435    90.492435    91.467434    170.87561    90.492435   0.97499938  1571373 
  581000         0.65    90.492435    90.492435    91.467434    170.87561    90.492435   0.97499938  1571373 
  582000         0.65    90.492435    90.492435    91.467434    170.87561    90.492435   0.97499938  1571373 
  583000         0.65    90.492435    90.492435    91.467434    170.87561    90.492435   0.97499938  1571373 
  584000         0.65    90.492435    90.492435    91.467434    170.87561    90.492435   0.97499938  1571373 
  585000         0.65    90.492435    90.492435    91.467434    170.87561    90.492435   0.97499938  1571373 
  586000         0.65    90.492435    90.492435    91.467434    170.87561    90.492435   0.97499938  1571373 
  587000         0.65    90.492435    90.492435    91.467434    170.87561    90.492435   0.97499938  1571373 
  588000         0.65    90.492435    90.492435    91.467434    170.87561    90.492435   0.97499938  1571373 
  589000         0.65    90.492435    90.492435    91.467434    170.87561    90.492435   0.97499938  1571373 
  590000         0.65    90.492435    90.492435    91.467434    170.87561    90.492435   0.97499938  1571373 
  591000         0.65    90.492435    90.492435    91.467434    170.87561    90.492435   0.97499938  1571373 
  592000         0.65    90.492435    90.492435    91.467434    170.87561    90.492435   0.97499938  1571373 
  593000         0.65    90.492435    90.492435    91.467434    170.87561    90.492435   0.97499938  1571373 
  594000         0.65    90.492435    90.492435    91.467434    170.87561    90.492435   0.97499938  1571373 
  595000         0.65    90.492435    90.492435    91.467434    170.87561    90.492435   0.97499938  1571373 
  596000         0.65    90.492435    90.492435    91.467434    170.87561    90.492435   0.97499938  1571373 
  597000         0.65    90.492435    90.492435    91.467434    170.87561    90.492435   0.97499938  1571373 
  598000         0.65    90.492435    90.492435    91.467434    170.87561    90.492435   0.97499938  1571373 
  599000         0.65    90.492435    90.492435    91.467434    170.87561    90.492435   0.97499938  1571373 
  600000         0.65    90.492435    90.492435    91.467434    170.87561    90.492435   0.97499938  1571373 
  601000         0.65    90.492435    90.492435    91.467434    170.87561    90.492435   0.97499938  1571373 
  602000         0.65    90.492435    90.492435    91.467434    170.87561    90.492435   0.97499938  1571373 
  603000         0.65    90.492435    90.492435    91.467434    170.87561    90.492435   0.97499938  1571373 
  604000         0.65    90.492435    90.492435    91.467434    170.87561    90.492435   0.97499938  1571373 
  605000         0.65    90.492435    90.492435    91.467434    170.87561    90.492435   0.97499938  1571373 
  606000         0.65    90.492435    90.492435    91.467434    170.87561    90.492435   0.97499938  1571373 
  607000         0.65    90.492435    90.492435    91.467434    170.87561    90.492435   0.97499938  1571373 
  608000         0.65    90.492435    90.492435    91.467434    170.87561    90.492435   0.97499938  1571373 
  609000         0.65    90.492435    90.492435    91.467434    170.87561    90.492435   0.97499938  1571373 
  610000         0.65    90.492435    90.492435    91.467434    170.87561    90.492435   0.97499938  1571373 
  611000         0.65    90.492435    90.492435    91.467434    170.87561    90.492435   0.97499938  1571373 
  612000         0.65    90.492435    90.492435    91.467434    170.87561    90.492435   0.97499938  1571373 
  613000         0.65    90.492435    90.492435    91.467434    170.87561    90.492435   0.97499938  1571373 
  614000         0.65    90.492435    90.492435    91.467434    170.87561    90.492435   0.97499938  1571373 
  615000         0.65    90.492435    90.492435    91.467434    170.87561    90.492435   0.97499938  1571373 
  616000         0.65    90.492435    90.492435    91.467434    170.87561    90.492435   0.97499938  1571373 
  617000         0.65    90.492435    90.492435    91.467434    170.87561    90.492435   0.97499938  1571373 
  618000         0.65    90.492435    90.492435    91.467434    170.87561    90.492435   0.97499938  1571373 
  619000         0.65    90.492435    90.492435    91.467434    170.87561    90.492435   0.97499938  1571373 
  620000         0.65    90.492435    90.492435    91.467434    170.87561    90.492435   0.97499938  1571373 
  621000         0.65    90.492435    90.492435    91.467434    170.87561    90.492435   0.97499938  1571373 
  622000         0.65    90.492435    90.492435    91.467434    170.87561    90.492435   0.97499938  1571373 
  623000         0.65    90.492435    90.492435    91.467434    170.87561    90.492435   0.97499938  1571373 
  624000         0.65    90.492435    90.492435    91.467434    170.87561    90.492435   0.97499938  1571373 
  625000         0.65    90.492435    90.492435    91.467434    170.87561    90.492435   0.97499938  1571373 
  626000         0.65    90.492435    90.492435    91.467434    170.87561    90.492435   0.97499938  1571373 
  627000         0.65    90.492435    90.492435    91.467434    170.87561    90.492435   0.97499938  1571373 
  628000         0.65    90.492435    90.492435    91.467434    170.87561    90.492435   0.97499938  1571373 
  629000         0.65    90.492435    90.492435    91.467434    170.87561    90.492435   0.97499938  1571373 
  630000         0.65    90.492435    90.492435    91.467434    170.87561    90.492435   0.97499938  1571373 
  631000         0.65    90.492435    90.492435    91.467434    170.87561    90.492435   0.97499938  1571373 
  632000         0.65    90.492435    90.492435    91.467434    170.87561    90.492435   0.97499938  1571373 
  633000         0.65    90.492435    90.492435    91.467434    170.87561    90.492435   0.97499938  1571373 
  634000         0.65    90.492435    90.492435    91.467434    170.87561    90.492435   0.97499938  1571373 
  635000         0.65    90.492435    90.492435    91.467434    170.87561    90.492435   0.97499938  1571373 
  636000         0.65    90.492435    90.492435    91.467434    170.87561    90.492435   0.97499938  1571373 
  637000         0.65    90.492435    90.492435    91.467434    170.87561    90.492435   0.97499938  1571373 
  638000         0.65    90.492435    90.492435    91.467434    170.87561    90.492435   0.97499938  1571373 
  639000         0.65    90.492435    90.492435    91.467434    170.87561    90.492435   0.97499938  1571373 
  640000         0.65    90.492435    90.492435    91.467434    170.87561    90.492435   0.97499938  1571373 
  641000         0.65    90.492435    90.492435    91.467434    170.87561    90.492435   0.97499938  1571373 
  642000         0.65    90.492435    90.492435    91.467434    170.87561    90.492435   0.97499938  1571373 
  643000         0.65    90.492435    90.492435    91.467434    170.87561    90.492435   0.97499938  1571373 
  644000         0.65    90.492435    90.492435    91.467434    170.87561    90.492435   0.97499938  1571373 
  645000         0.65    90.492435    90.492435    91.467434    170.87561    90.492435   0.97499938  1571373 
  646000         0.65    90.492435    90.492435    91.467434    170.87561    90.492435   0.97499938  1571373 
  647000         0.65    90.492435    90.492435    91.467434    170.87561    90.492435   0.97499938  1571373 
  648000         0.65    90.492435    90.492435    91.467434    170.87561    90.492435   0.97499938  1571373 
  649000         0.65    90.492435    90.492435    91.467434    170.87561    90.492435   0.97499938  1571373 
  650000         0.65    90.492435    90.492435    91.467434    170.87561    90.492435   0.97499938  1571373 
  651000         0.65    90.492435    90.492435    91.467434    170.87561    90.492435   0.97499938  1571373 
  652000         0.65    90.492435    90.492435    91.467434    170.87561    90.492435   0.97499938  1571373 
  653000         0.65    90.492435    90.492435    91.467434    170.87561    90.492435   0.97499938  1571373 
  654000         0.65    90.492435    90.492435    91.467434    170.87561    90.492435   0.97499938  1571373 
  655000         0.65    90.492435    90.492435    91.467434    170.87561    90.492435   0.97499938  1571373 
  656000         0.65    90.492435    90.492435    91.467434    170.87561    90.492435   0.97499938  1571373 
  657000         0.65    90.492435    90.492435    91.467434    170.87561    90.492435   0.97499938  1571373 
  658000         0.65    90.492435    90.492435    91.467434    170.87561    90.492435   0.97499938  1571373 
  659000         0.65    90.492435    90.492435    91.467434    170.87561    90.492435   0.97499938  1571373 
  660000         0.65    90.492435    90.492435    91.467434    170.87561    90.492435   0.97499938  1571373 
  661000         0.65    90.492435    90.492435    91.467434    170.87561    90.492435   0.97499938  1571373 
  662000         0.65    90.492435    90.492435    91.467434    170.87561    90.492435   0.97499938  1571373 
  663000         0.65    90.492435    90.492435    91.467434    170.87561    90.492435   0.97499938  1571373 
  664000         0.65    90.492435    90.492435    91.467434    170.87561    90.492435   0.97499938  1571373 
  665000         0.65    90.492435    90.492435    91.467434    170.87561    90.492435   0.97499938  1571373 
  666000         0.65    90.492435    90.492435    91.467434    170.87561    90.492435   0.97499938  1571373 
  667000         0.65    90.492435    90.492435    91.467434    170.87561    90.492435   0.97499938  1571373 
  668000         0.65    90.492435    90.492435    91.467434    170.87561    90.492435   0.97499938  1571373 
  669000         0.65    90.492435    90.492435    91.467434    170.87561    90.492435   0.97499938  1571373 
  670000         0.65    90.492435    90.492435    91.467434    170.87561    90.492435   0.97499938  1571373 
  671000         0.65    90.492435    90.492435    91.467434    170.87561    90.492435   0.97499938  1571373 
  672000         0.65    90.492435    90.492435    91.467434    170.87561    90.492435   0.97499938  1571373 
  673000         0.65    90.492435    90.492435    91.467434    170.87561    90.492435   0.97499938  1571373 
  674000         0.65    90.492435    90.492435    91.467434    170.87561    90.492435   0.97499938  1571373 
  675000         0.65    90.492435    90.492435    91.467434    170.87561    90.492435   0.97499938  1571373 
  676000         0.65    90.492435    90.492435    91.467434    170.87561    90.492435   0.97499938  1571373 
  677000         0.65    90.492435    90.492435    91.467434    170.87561    90.492435   0.97499938  1571373 
  678000         0.65    90.492435    90.492435    91.467434    170.87561    90.492435   0.97499938  1571373 
  679000         0.65    90.492435    90.492435    91.467434    170.87561    90.492435   0.97499938  1571373 
  680000         0.65    90.492435    90.492435    91.467434    170.87561    90.492435   0.97499938  1571373 
  681000         0.65    90.492435    90.492435    91.467434    170.87561    90.492435   0.97499938  1571373 
  682000         0.65    90.492435    90.492435    91.467434    170.87561    90.492435   0.97499938  1571373 
  683000         0.65    90.492435    90.492435    91.467434    170.87561    90.492435   0.97499938  1571373 
  684000         0.65    90.492435    90.492435    91.467434    170.87561    90.492435   0.97499938  1571373 
  685000         0.65    90.492435    90.492435    91.467434    170.87561    90.492435   0.97499938  1571373 
  686000         0.65    90.492435    90.492435    91.467434    170.87561    90.492435   0.97499938  1571373 
  687000         0.65    90.492435    90.492435    91.467434    170.87561    90.492435   0.97499938  1571373 
  688000         0.65    90.492435    90.492435    91.467434    170.87561    90.492435   0.97499938  1571373 
  689000         0.65    90.492435    90.492435    91.467434    170.87561    90.492435   0.97499938  1571373 
  690000         0.65    90.492435    90.492435    91.467434    170.87561    90.492435   0.97499938  1571373 
  691000         0.65    90.492435    90.492435    91.467434    170.87561    90.492435   0.97499938  1571373 
  692000         0.65    90.492435    90.492435    91.467434    170.87561    90.492435   0.97499938  1571373 
  693000         0.65    90.492435    90.492435    91.467434    170.87561    90.492435   0.97499938  1571373 
  694000         0.65    90.492435    90.492435    91.467434    170.87561    90.492435   0.97499938  1571373 
  695000         0.65    90.492435    90.492435    91.467434    170.87561    90.492435   0.97499938  1571373 
  696000         0.65    90.492435    90.492435    91.467434    170.87561    90.492435   0.97499938  1571373 
  697000         0.65    90.492435    90.492435    91.467434    170.87561    90.492435   0.97499938  1571373 
  698000         0.65    90.492435    90.492435    91.467434    170.87561    90.492435   0.97499938  1571373 
  699000         0.65    90.492435    90.492435    91.467434    170.87561    90.492435   0.97499938  1571373 
  700000         0.65    90.492435    90.492435    91.467434    170.87561    90.492435   0.97499938  1571373 
  701000         0.65    90.492435    90.492435    91.467434    170.87561    90.492435   0.97499938  1571373 
  702000         0.65    90.492435    90.492435    91.467434    170.87561    90.492435   0.97499938  1571373 
  703000         0.65    90.492435    90.492435    91.467434    170.87561    90.492435   0.97499938  1571373 
  704000         0.65    90.492435    90.492435    91.467434    170.87561    90.492435   0.97499938  1571373 
  705000         0.65    90.492435    90.492435    91.467434    170.87561    90.492435   0.97499938  1571373 
  706000         0.65    90.492435    90.492435    91.467434    170.87561    90.492435   0.97499938  1571373 
  707000         0.65    90.492435    90.492435    91.467434    170.87561    90.492435   0.97499938  1571373 
  708000         0.65    90.492435    90.492435    91.467434    170.87561    90.492435   0.97499938  1571373 
  709000         0.65    90.492435    90.492435    91.467434    170.87561    90.492435   0.97499938  1571373 
  710000         0.65    90.492435    90.492435    91.467434    170.87561    90.492435   0.97499938  1571373 
  711000         0.65    90.492435    90.492435    91.467434    170.87561    90.492435   0.97499938  1571373 
  712000         0.65    90.492435    90.492435    91.467434    170.87561    90.492435   0.97499938  1571373 
  713000         0.65    90.492435    90.492435    91.467434    170.87561    90.492435   0.97499938  1571373 
  714000         0.65    90.492435    90.492435    91.467434    170.87561    90.492435   0.97499938  1571373 
  715000         0.65    90.492435    90.492435    91.467434    170.87561    90.492435   0.97499938  1571373 
  716000         0.65    90.492435    90.492435    91.467434    170.87561    90.492435   0.97499938  1571373 
  717000         0.65    90.492435    90.492435    91.467434    170.87561    90.492435   0.97499938  1571373 
  718000         0.65    90.492435    90.492435    91.467434    170.87561    90.492435   0.97499938  1571373 
  719000         0.65    90.492435    90.492435    91.467434    170.87561    90.492435   0.97499938  1571373 
  720000         0.65    90.492435    90.492435    91.467434    170.87561    90.492435   0.97499938  1571373 
  721000         0.65    90.492435    90.492435    91.467434    170.87561    90.492435   0.97499938  1571373 
  722000         0.65    90.492435    90.492435    91.467434    170.87561    90.492435   0.97499938  1571373 
  723000         0.65    90.492435    90.492435    91.467434    170.87561    90.492435   0.97499938  1571373 
  724000         0.65    90.492435    90.492435    91.467434    170.87561    90.492435   0.97499938  1571373 
  725000         0.65    90.492435    90.492435    91.467434    170.87561    90.492435   0.97499938  1571373 
  726000         0.65    90.492435    90.492435    91.467434    170.87561    90.492435   0.97499938  1571373 
  727000         0.65    90.492435    90.492435    91.467434    170.87561    90.492435   0.97499938  1571373 
  728000         0.65    90.492435    90.492435    91.467434    170.87561    90.492435   0.97499938  1571373 
  729000         0.65    90.492435    90.492435    91.467434    170.87561    90.492435   0.97499938  1571373 
  730000         0.65    90.492435    90.492435    91.467434    170.87561    90.492435   0.97499938  1571373 
  731000         0.65    90.492435    90.492435    91.467434    170.87561    90.492435   0.97499938  1571373 
  732000         0.65    90.492435    90.492435    91.467434    170.87561    90.492435   0.97499938  1571373 
  733000         0.65    90.492435    90.492435    91.467434    170.87561    90.492435   0.97499938  1571373 
  734000         0.65    90.492435    90.492435    91.467434    170.87561    90.492435   0.97499938  1571373 
  735000         0.65    90.492435    90.492435    91.467434    170.87561    90.492435   0.97499938  1571373 
  736000         0.65    90.492435    90.492435    91.467434    170.87561    90.492435   0.97499938  1571373 
  737000         0.65    90.492435    90.492435    91.467434    170.87561    90.492435   0.97499938  1571373 
  738000         0.65    90.492435    90.492435    91.467434    170.87561    90.492435   0.97499938  1571373 
  739000         0.65    90.492435    90.492435    91.467434    170.87561    90.492435   0.97499938  1571373 
  740000         0.65    90.492435    90.492435    91.467434    170.87561    90.492435   0.97499938  1571373 
  741000         0.65    90.492435    90.492435    91.467434    170.87561    90.492435   0.97499938  1571373 
  742000         0.65    90.492435    90.492435    91.467434    170.87561    90.492435   0.97499938  1571373 
  743000         0.65    90.492435    90.492435    91.467434    170.87561    90.492435   0.97499938  1571373 
  744000         0.65    90.492435    90.492435    91.467434    170.87561    90.492435   0.97499938  1571373 
  745000         0.65    90.492435    90.492435    91.467434    170.87561    90.492435   0.97499938  1571373 
  746000         0.65    90.492435    90.492435    91.467434    170.87561    90.492435   0.97499938  1571373 
  747000         0.65    90.492435    90.492435    91.467434    170.87561    90.492435   0.97499938  1571373 
  748000         0.65    90.492435    90.492435    91.467434    170.87561    90.492435   0.97499938  1571373 
  749000         0.65    90.492435    90.492435    91.467434    170.87561    90.492435   0.97499938  1571373 
  750000         0.65    90.492435    90.492435    91.467434    170.87561    90.492435   0.97499938  1571373 
  751000         0.65    90.492435    90.492435    91.467434    170.87561    90.492435   0.97499938  1571373 
  752000         0.65    90.492435    90.492435    91.467434    170.87561    90.492435   0.97499938  1571373 
  753000         0.65    90.492435    90.492435    91.467434    170.87561    90.492435   0.97499938  1571373 
  754000         0.65    90.492435    90.492435    91.467434    170.87561    90.492435   0.97499938  1571373 
  755000         0.65    90.492435    90.492435    91.467434    170.87561    90.492435   0.97499938  1571373 
  756000         0.65    90.492435    90.492435    91.467434    170.87561    90.492435   0.97499938  1571373 
  757000         0.65    90.492435    90.492435    91.467434    170.87561    90.492435   0.97499938  1571373 
  758000         0.65    90.492435    90.492435    91.467434    170.87561    90.492435   0.97499938  1571373 
  759000         0.65    90.492435    90.492435    91.467434    170.87561    90.492435   0.97499938  1571373 
  760000         0.65    90.492435    90.492435    91.467434    170.87561    90.492435   0.97499938  1571373 
  761000         0.65    90.492435    90.492435    91.467434    170.87561    90.492435   0.97499938  1571373 
  762000         0.65    90.492435    90.492435    91.467434    170.87561    90.492435   0.97499938  1571373 
  763000         0.65    90.492435    90.492435    91.467434    170.87561    90.492435   0.97499938  1571373 
  764000         0.65    90.492435    90.492435    91.467434    170.87561    90.492435   0.97499938  1571373 
  765000         0.65    90.492435    90.492435    91.467434    170.87561    90.492435   0.97499938  1571373 
  766000         0.65    90.492435    90.492435    91.467434    170.87561    90.492435   0.97499938  1571373 
  767000         0.65    90.492435    90.492435    91.467434    170.87561    90.492435   0.97499938  1571373 
  768000         0.65    90.492435    90.492435    91.467434    170.87561    90.492435   0.97499938  1571373 
  769000         0.65    90.492435    90.492435    91.467434    170.87561    90.492435   0.97499938  1571373 
  770000         0.65    90.492435    90.492435    91.467434    170.87561    90.492435   0.97499938  1571373 
  771000         0.65    90.492435    90.492435    91.467434    170.87561    90.492435   0.97499938  1571373 
  772000         0.65    90.492435    90.492435    91.467434    170.87561    90.492435   0.97499938  1571373 
  773000         0.65    90.492435    90.492435    91.467434    170.87561    90.492435   0.97499938  1571373 
  774000         0.65    90.492435    90.492435    91.467434    170.87561    90.492435   0.97499938  1571373 
  775000         0.65    90.492435    90.492435    91.467434    170.87561    90.492435   0.97499938  1571373 
  776000         0.65    90.492435    90.492435    91.467434    170.87561    90.492435   0.97499938  1571373 
  777000         0.65    90.492435    90.492435    91.467434    170.87561    90.492435   0.97499938  1571373 
  778000         0.65    90.492435    90.492435    91.467434    170.87561    90.492435   0.97499938  1571373 
  779000         0.65    90.492435    90.492435    91.467434    170.87561    90.492435   0.97499938  1571373 
  780000         0.65    90.492435    90.492435    91.467434    170.87561    90.492435   0.97499938  1571373 
  781000         0.65    90.492435    90.492435    91.467434    170.87561    90.492435   0.97499938  1571373 
  782000         0.65    90.492435    90.492435    91.467434    170.87561    90.492435   0.97499938  1571373 
  783000         0.65    90.492435    90.492435    91.467434    170.87561    90.492435   0.97499938  1571373 
  784000         0.65    90.492435    90.492435    91.467434    170.87561    90.492435   0.97499938  1571373 
  785000         0.65    90.492435    90.492435    91.467434    170.87561    90.492435   0.97499938  1571373 
  786000         0.65    90.492435    90.492435    91.467434    170.87561    90.492435   0.97499938  1571373 
  787000         0.65    90.492435    90.492435    91.467434    170.87561    90.492435   0.97499938  1571373 
  788000         0.65    90.492435    90.492435    91.467434    170.87561    90.492435   0.97499938  1571373 
  789000         0.65    90.492435    90.492435    91.467434    170.87561    90.492435   0.97499938  1571373 
  790000         0.65    90.492435    90.492435    91.467434    170.87561    90.492435   0.97499938  1571373 
  791000         0.65    90.492435    90.492435    91.467434    170.87561    90.492435   0.97499938  1571373 
  792000         0.65    90.492435    90.492435    91.467434    170.87561    90.492435   0.97499938  1571373 
  793000         0.65    90.492435    90.492435    91.467434    170.87561    90.492435   0.97499938  1571373 
  794000         0.65    90.492435    90.492435    91.467434    170.87561    90.492435   0.97499938  1571373 
  795000         0.65    90.492435    90.492435    91.467434    170.87561    90.492435   0.97499938  1571373 
  796000         0.65    90.492435    90.492435    91.467434    170.87561    90.492435   0.97499938  1571373 
  797000         0.65    90.492435    90.492435    91.467434    170.87561    90.492435   0.97499938  1571373 
  798000         0.65    90.492435    90.492435    91.467434    170.87561    90.492435   0.97499938  1571373 
  799000         0.65    90.492435    90.492435    91.467434    170.87561    90.492435   0.97499938  1571373 
  800000         0.65    90.492435    90.492435    91.467434    170.87561    90.492435   0.97499938  1571373 
  801000         0.65    90.492435    90.492435    91.467434    170.87561    90.492435   0.97499938  1571373 
  802000         0.65    90.492435    90.492435    91.467434    170.87561    90.492435   0.97499938  1571373 
  803000         0.65    90.492435    90.492435    91.467434    170.87561    90.492435   0.97499938  1571373 
  804000         0.65    90.492435    90.492435    91.467434    170.87561    90.492435   0.97499938  1571373 
  805000         0.65    90.492435    90.492435    91.467434    170.87561    90.492435   0.97499938  1571373 
  806000         0.65    90.492435    90.492435    91.467434    170.87561    90.492435   0.97499938  1571373 
  807000         0.65    90.492435    90.492435    91.467434    170.87561    90.492435   0.97499938  1571373 
  808000         0.65    90.492435    90.492435    91.467434    170.87561    90.492435   0.97499938  1571373 
  809000         0.65    90.492435    90.492435    91.467434    170.87561    90.492435   0.97499938  1571373 
  810000         0.65    90.492435    90.492435    91.467434    170.87561    90.492435   0.97499938  1571373 
  811000         0.65    90.492435    90.492435    91.467434    170.87561    90.492435   0.97499938  1571373 
  812000         0.65    90.492435    90.492435    91.467434    170.87561    90.492435   0.97499938  1571373 
  813000         0.65    90.492435    90.492435    91.467434    170.87561    90.492435   0.97499938  1571373 
  814000         0.65    90.492435    90.492435    91.467434    170.87561    90.492435   0.97499938  1571373 
  815000         0.65    90.492435    90.492435    91.467434    170.87561    90.492435   0.97499938  1571373 
  816000         0.65    90.492435    90.492435    91.467434    170.87561    90.492435   0.97499938  1571373 
  817000         0.65    90.492435    90.492435    91.467434    170.87561    90.492435   0.97499938  1571373 
  818000         0.65    90.492435    90.492435    91.467434    170.87561    90.492435   0.97499938  1571373 
  819000         0.65    90.492435    90.492435    91.467434    170.87561    90.492435   0.97499938  1571373 
  820000         0.65    90.492435    90.492435    91.467434    170.87561    90.492435   0.97499938  1571373 
  821000         0.65    90.492435    90.492435    91.467434    170.87561    90.492435   0.97499938  1571373 
  822000         0.65    90.492435    90.492435    91.467434    170.87561    90.492435   0.97499938  1571373 
  823000         0.65    90.492435    90.492435    91.467434    170.87561    90.492435   0.97499938  1571373 
  824000         0.65    90.492435    90.492435    91.467434    170.87561    90.492435   0.97499938  1571373 
  825000         0.65    90.492435    90.492435    91.467434    170.87561    90.492435   0.97499938  1571373 
  826000         0.65    90.492435    90.492435    91.467434    170.87561    90.492435   0.97499938  1571373 
  827000         0.65    90.492435    90.492435    91.467434    170.87561    90.492435   0.97499938  1571373 
  828000         0.65    90.492435    90.492435    91.467434    170.87561    90.492435   0.97499938  1571373 
  829000         0.65    90.492435    90.492435    91.467434    170.87561    90.492435   0.97499938  1571373 
  830000         0.65    90.492435    90.492435    91.467434    170.87561    90.492435   0.97499938  1571373 
  831000         0.65    90.492435    90.492435    91.467434    170.87561    90.492435   0.97499938  1571373 
  832000         0.65    90.492435    90.492435    91.467434    170.87561    90.492435   0.97499938  1571373 
  833000         0.65    90.492435    90.492435    91.467434    170.87561    90.492435   0.97499938  1571373 
  834000         0.65    90.492435    90.492435    91.467434    170.87561    90.492435   0.97499938  1571373 
  835000         0.65    90.492435    90.492435    91.467434    170.87561    90.492435   0.97499938  1571373 
  836000         0.65    90.492435    90.492435    91.467434    170.87561    90.492435   0.97499938  1571373 
  837000         0.65    90.492435    90.492435    91.467434    170.87561    90.492435   0.97499938  1571373 
  838000         0.65    90.492435    90.492435    91.467434    170.87561    90.492435   0.97499938  1571373 
  839000         0.65    90.492435    90.492435    91.467434    170.87561    90.492435   0.97499938  1571373 
  840000         0.65    90.492435    90.492435    91.467434    170.87561    90.492435   0.97499938  1571373 
  841000         0.65    90.492435    90.492435    91.467434    170.87561    90.492435   0.97499938  1571373 
  842000         0.65    90.492435    90.492435    91.467434    170.87561    90.492435   0.97499938  1571373 
  843000         0.65    90.492435    90.492435    91.467434    170.87561    90.492435   0.97499938  1571373 
  844000         0.65    90.492435    90.492435    91.467434    170.87561    90.492435   0.97499938  1571373 
  845000         0.65    90.492435    90.492435    91.467434    170.87561    90.492435   0.97499938  1571373 
  846000         0.65    90.492435    90.492435    91.467434    170.87561    90.492435   0.97499938  1571373 
  847000         0.65    90.492435    90.492435    91.467434    170.87561    90.492435   0.97499938  1571373 
  848000         0.65    90.492435    90.492435    91.467434    170.87561    90.492435   0.97499938  1571373 
  849000         0.65    90.492435    90.492435    91.467434    170.87561    90.492435   0.97499938  1571373 
  850000         0.65    90.492435    90.492435    91.467434    170.87561    90.492435   0.97499938  1571373 
  851000         0.65    90.492435    90.492435    91.467434    170.87561    90.492435   0.97499938  1571373 
  852000         0.65    90.492435    90.492435    91.467434    170.87561    90.492435   0.97499938  1571373 
  853000         0.65    90.492435    90.492435    91.467434    170.87561    90.492435   0.97499938  1571373 
  854000         0.65    90.492435    90.492435    91.467434    170.87561    90.492435   0.97499938  1571373 
  855000         0.65    90.492435    90.492435    91.467434    170.87561    90.492435   0.97499938  1571373 
  856000         0.65    90.492435    90.492435    91.467434    170.87561    90.492435   0.97499938  1571373 
  857000         0.65    90.492435    90.492435    91.467434    170.87561    90.492435   0.97499938  1571373 
  858000         0.65    90.492435    90.492435    91.467434    170.87561    90.492435   0.97499938  1571373 
  859000         0.65    90.492435    90.492435    91.467434    170.87561    90.492435   0.97499938  1571373 
  860000         0.65    90.492435    90.492435    91.467434    170.87561    90.492435   0.97499938  1571373 
  861000         0.65    90.492435    90.492435    91.467434    170.87561    90.492435   0.97499938  1571373 
  862000         0.65    90.492435    90.492435    91.467434    170.87561    90.492435   0.97499938  1571373 
  863000         0.65    90.492435    90.492435    91.467434    170.87561    90.492435   0.97499938  1571373 
  864000         0.65    90.492435    90.492435    91.467434    170.87561    90.492435   0.97499938  1571373 
  865000         0.65    90.492435    90.492435    91.467434    170.87561    90.492435   0.97499938  1571373 
  866000         0.65    90.492435    90.492435    91.467434    170.87561    90.492435   0.97499938  1571373 
  867000         0.65    90.492435    90.492435    91.467434    170.87561    90.492435   0.97499938  1571373 
  868000         0.65    90.492435    90.492435    91.467434    170.87561    90.492435   0.97499938  1571373 
  869000         0.65    90.492435    90.492435    91.467434    170.87561    90.492435   0.97499938  1571373 
  870000         0.65    90.492435    90.492435    91.467434    170.87561    90.492435   0.97499938  1571373 
  871000         0.65    90.492435    90.492435    91.467434    170.87561    90.492435   0.97499938  1571373 
  872000         0.65    90.492435    90.492435    91.467434    170.87561    90.492435   0.97499938  1571373 
  873000         0.65    90.492435    90.492435    91.467434    170.87561    90.492435   0.97499938  1571373 
  874000         0.65    90.492435    90.492435    91.467434    170.87561    90.492435   0.97499938  1571373 
  875000         0.65    90.492435    90.492435    91.467434    170.87561    90.492435   0.97499938  1571373 
  876000         0.65    90.492435    90.492435    91.467434    170.87561    90.492435   0.97499938  1571373 
  877000         0.65    90.492435    90.492435    91.467434    170.87561    90.492435   0.97499938  1571373 
  878000         0.65    90.492435    90.492435    91.467434    170.87561    90.492435   0.97499938  1571373 
  879000         0.65    90.492435    90.492435    91.467434    170.87561    90.492435   0.97499938  1571373 
  880000         0.65    90.492435    90.492435    91.467434    170.87561    90.492435   0.97499938  1571373 
  881000         0.65    90.492435    90.492435    91.467434    170.87561    90.492435   0.97499938  1571373 
  882000         0.65    90.492435    90.492435    91.467434    170.87561    90.492435   0.97499938  1571373 
  883000         0.65    90.492435    90.492435    91.467434    170.87561    90.492435   0.97499938  1571373 
  884000         0.65    90.492435    90.492435    91.467434    170.87561    90.492435   0.97499938  1571373 
  885000         0.65    90.492435    90.492435    91.467434    170.87561    90.492435   0.97499938  1571373 
  886000         0.65    90.492435    90.492435    91.467434    170.87561    90.492435   0.97499938  1571373 
  887000         0.65    90.492435    90.492435    91.467434    170.87561    90.492435   0.97499938  1571373 
  888000         0.65    90.492435    90.492435    91.467434    170.87561    90.492435   0.97499938  1571373 
  889000         0.65    90.492435    90.492435    91.467434    170.87561    90.492435   0.97499938  1571373 
  890000         0.65    90.492435    90.492435    91.467434    170.87561    90.492435   0.97499938  1571373 
  891000         0.65    90.492435    90.492435    91.467434    170.87561    90.492435   0.97499938  1571373 
  892000         0.65    90.492435    90.492435    91.467434    170.87561    90.492435   0.97499938  1571373 
  893000         0.65    90.492435    90.492435    91.467434    170.87561    90.492435   0.97499938  1571373 
  894000         0.65    90.492435    90.492435    91.467434    170.87561    90.492435   0.97499938  1571373 
  895000         0.65    90.492435    90.492435    91.467434    170.87561    90.492435   0.97499938  1571373 
  896000         0.65    90.492435    90.492435    91.467434    170.87561    90.492435   0.97499938  1571373 
  897000         0.65    90.492435    90.492435    91.467434    170.87561    90.492435   0.97499938  1571373 
  898000         0.65    90.492435    90.492435    91.467434    170.87561    90.492435   0.97499938  1571373 
  899000         0.65    90.492435    90.492435    91.467434    170.87561    90.492435   0.97499938  1571373 
  900000         0.65    90.492435    90.492435    91.467434    170.87561    90.492435   0.97499938  1571373 
  901000         0.65    90.492435    90.492435    91.467434    170.87561    90.492435   0.97499938  1571373 
  902000         0.65    90.492435    90.492435    91.467434    170.87561    90.492435   0.97499938  1571373 
  903000         0.65    90.492435    90.492435    91.467434    170.87561    90.492435   0.97499938  1571373 
  904000         0.65    90.492435    90.492435    91.467434    170.87561    90.492435   0.97499938  1571373 
  905000         0.65    90.492435    90.492435    91.467434    170.87561    90.492435   0.97499938  1571373 
  906000         0.65    90.492435    90.492435    91.467434    170.87561    90.492435   0.97499938  1571373 
  907000         0.65    90.492435    90.492435    91.467434    170.87561    90.492435   0.97499938  1571373 
  908000         0.65    90.492435    90.492435    91.467434    170.87561    90.492435   0.97499938  1571373 
  909000         0.65    90.492435    90.492435    91.467434    170.87561    90.492435   0.97499938  1571373 
  910000         0.65    90.492435    90.492435    91.467434    170.87561    90.492435   0.97499938  1571373 
  911000         0.65    90.492435    90.492435    91.467434    170.87561    90.492435   0.97499938  1571373 
  912000         0.65    90.492435    90.492435    91.467434    170.87561    90.492435   0.97499938  1571373 
  913000         0.65    90.492435    90.492435    91.467434    170.87561    90.492435   0.97499938  1571373 
  914000         0.65    90.492435    90.492435    91.467434    170.87561    90.492435   0.97499938  1571373 
  915000         0.65    90.492435    90.492435    91.467434    170.87561    90.492435   0.97499938  1571373 
  916000         0.65    90.492435    90.492435    91.467434    170.87561    90.492435   0.97499938  1571373 
  917000         0.65    90.492435    90.492435    91.467434    170.87561    90.492435   0.97499938  1571373 
  918000         0.65    90.492435    90.492435    91.467434    170.87561    90.492435   0.97499938  1571373 
  919000         0.65    90.492435    90.492435    91.467434    170.87561    90.492435   0.97499938  1571373 
  920000         0.65    90.492435    90.492435    91.467434    170.87561    90.492435   0.97499938  1571373 
  921000         0.65    90.492435    90.492435    91.467434    170.87561    90.492435   0.97499938  1571373 
  922000         0.65    90.492435    90.492435    91.467434    170.87561    90.492435   0.97499938  1571373 
  923000         0.65    90.492435    90.492435    91.467434    170.87561    90.492435   0.97499938  1571373 
  924000         0.65    90.492435    90.492435    91.467434    170.87561    90.492435   0.97499938  1571373 
  925000         0.65    90.492435    90.492435    91.467434    170.87561    90.492435   0.97499938  1571373 
  926000         0.65    90.492435    90.492435    91.467434    170.87561    90.492435   0.97499938  1571373 
  927000         0.65    90.492435    90.492435    91.467434    170.87561    90.492435   0.97499938  1571373 
  928000         0.65    90.492435    90.492435    91.467434    170.87561    90.492435   0.97499938  1571373 
  929000         0.65    90.492435    90.492435    91.467434    170.87561    90.492435   0.97499938  1571373 
  930000         0.65    90.492435    90.492435    91.467434    170.87561    90.492435   0.97499938  1571373 
  931000         0.65    90.492435    90.492435    91.467434    170.87561    90.492435   0.97499938  1571373 
  932000         0.65    90.492435    90.492435    91.467434    170.87561    90.492435   0.97499938  1571373 
  933000         0.65    90.492435    90.492435    91.467434    170.87561    90.492435   0.97499938  1571373 
  934000         0.65    90.492435    90.492435    91.467434    170.87561    90.492435   0.97499938  1571373 
  935000         0.65    90.492435    90.492435    91.467434    170.87561    90.492435   0.97499938  1571373 
  936000         0.65    90.492435    90.492435    91.467434    170.87561    90.492435   0.97499938  1571373 
  937000         0.65    90.492435    90.492435    91.467434    170.87561    90.492435   0.97499938  1571373 
  938000         0.65    90.492435    90.492435    91.467434    170.87561    90.492435   0.97499938  1571373 
  939000         0.65    90.492435    90.492435    91.467434    170.87561    90.492435   0.97499938  1571373 
  940000         0.65    90.492435    90.492435    91.467434    170.87561    90.492435   0.97499938  1571373 
  941000         0.65    90.492435    90.492435    91.467434    170.87561    90.492435   0.97499938  1571373 
  942000         0.65    90.492435    90.492435    91.467434    170.87561    90.492435   0.97499938  1571373 
  943000         0.65    90.492435    90.492435    91.467434    170.87561    90.492435   0.97499938  1571373 
  944000         0.65    90.492435    90.492435    91.467434    170.87561    90.492435   0.97499938  1571373 
  945000         0.65    90.492435    90.492435    91.467434    170.87561    90.492435   0.97499938  1571373 
  946000         0.65    90.492435    90.492435    91.467434    170.87561    90.492435   0.97499938  1571373 
  947000         0.65    90.492435    90.492435    91.467434    170.87561    90.492435   0.97499938  1571373 
  948000         0.65    90.492435    90.492435    91.467434    170.87561    90.492435   0.97499938  1571373 
  949000         0.65    90.492435    90.492435    91.467434    170.87561    90.492435   0.97499938  1571373 
  950000         0.65    90.492435    90.492435    91.467434    170.87561    90.492435   0.97499938  1571373 
  951000         0.65    90.492435    90.492435    91.467434    170.87561    90.492435   0.97499938  1571373 
  952000         0.65    90.492435    90.492435    91.467434    170.87561    90.492435   0.97499938  1571373 
  953000         0.65    90.492435    90.492435    91.467434    170.87561    90.492435   0.97499938  1571373 
  954000         0.65    90.492435    90.492435    91.467434    170.87561    90.492435   0.97499938  1571373 
  955000         0.65    90.492435    90.492435    91.467434    170.87561    90.492435   0.97499938  1571373 
  956000         0.65    90.492435    90.492435    91.467434    170.87561    90.492435   0.97499938  1571373 
  957000         0.65    90.492435    90.492435    91.467434    170.87561    90.492435   0.97499938  1571373 
  958000         0.65    90.492435    90.492435    91.467434    170.87561    90.492435   0.97499938  1571373 
  959000         0.65    90.492435    90.492435    91.467434    170.87561    90.492435   0.97499938  1571373 
  960000         0.65    90.492435    90.492435    91.467434    170.87561    90.492435   0.97499938  1571373 
  961000         0.65    90.492435    90.492435    91.467434    170.87561    90.492435   0.97499938  1571373 
  962000         0.65    90.492435    90.492435    91.467434    170.87561    90.492435   0.97499938  1571373 
  963000         0.65    90.492435    90.492435    91.467434    170.87561    90.492435   0.97499938  1571373 
  964000         0.65    90.492435    90.492435    91.467434    170.87561    90.492435   0.97499938  1571373 
  965000         0.65    90.492435    90.492435    91.467434    170.87561    90.492435   0.97499938  1571373 
  966000         0.65    90.492435    90.492435    91.467434    170.87561    90.492435   0.97499938  1571373 
  967000         0.65    90.492435    90.492435    91.467434    170.87561    90.492435   0.97499938  1571373 
  968000         0.65    90.492435    90.492435    91.467434    170.87561    90.492435   0.97499938  1571373 
  969000         0.65    90.492435    90.492435    91.467434    170.87561    90.492435   0.97499938  1571373 
  970000         0.65    90.492435    90.492435    91.467434    170.87561    90.492435   0.97499938  1571373 
  971000         0.65    90.492435    90.492435    91.467434    170.87561    90.492435   0.97499938  1571373 
  972000         0.65    90.492435    90.492435    91.467434    170.87561    90.492435   0.97499938  1571373 
  973000         0.65    90.492435    90.492435    91.467434    170.87561    90.492435   0.97499938  1571373 
  974000         0.65    90.492435    90.492435    91.467434    170.87561    90.492435   0.97499938  1571373 
  975000         0.65    90.492435    90.492435    91.467434    170.87561    90.492435   0.97499938  1571373 
  976000         0.65    90.492435    90.492435    91.467434    170.87561    90.492435   0.97499938  1571373 
  977000         0.65    90.492435    90.492435    91.467434    170.87561    90.492435   0.97499938  1571373 
  978000         0.65    90.492435    90.492435    91.467434    170.87561    90.492435   0.97499938  1571373 
  979000         0.65    90.492435    90.492435    91.467434    170.87561    90.492435   0.97499938  1571373 
  980000         0.65    90.492435    90.492435    91.467434    170.87561    90.492435   0.97499938  1571373 
  981000         0.65    90.492435    90.492435    91.467434    170.87561    90.492435   0.97499938  1571373 
  982000         0.65    90.492435    90.492435    91.467434    170.87561    90.492435   0.97499938  1571373 
  983000         0.65    90.492435    90.492435    91.467434    170.87561    90.492435   0.97499938  1571373 
  984000         0.65    90.492435    90.492435    91.467434    170.87561    90.492435   0.97499938  1571373 
  985000         0.65    90.492435    90.492435    91.467434    170.87561    90.492435   0.97499938  1571373 
  986000         0.65    90.492435    90.492435    91.467434    170.87561    90.492435   0.97499938  1571373 
  987000         0.65    90.492435    90.492435    91.467434    170.87561    90.492435   0.97499938  1571373 
  988000         0.65    90.492435    90.492435    91.467434    170.87561    90.492435   0.97499938  1571373 
  989000         0.65    90.492435    90.492435    91.467434    170.87561    90.492435   0.97499938  1571373 
  990000         0.65    90.492435    90.492435    91.467434    170.87561    90.492435   0.97499938  1571373 
  991000         0.65    90.492435    90.492435    91.467434    170.87561    90.492435   0.97499938  1571373 
  992000         0.65    90.492435    90.492435    91.467434    170.87561    90.492435   0.97499938  1571373 
  993000         0.65    90.492435    90.492435    91.467434    170.87561    90.492435   0.97499938  1571373 
  994000         0.65    90.492435    90.492435    91.467434    170.87561    90.492435   0.97499938  1571373 
  995000         0.65    90.492435    90.492435    91.467434    170.87561    90.492435   0.97499938  1571373 
  996000         0.65    90.492435    90.492435    91.467434    170.87561    90.492435   0.97499938  1571373 
  997000         0.65    90.492435    90.492435    91.467434    170.87561    90.492435   0.97499938  1571373 
  998000         0.65    90.492435    90.492435    91.467434    170.87561    90.492435   0.97499938  1571373 
  999000         0.65    90.492435    90.492435    91.467434    170.87561    90.492435   0.97499938  1571373 
 1000000         0.65    90.492435    90.492435    91.467434    170.87561    90.492435   0.97499938  1571373 
 1001000         0.65    90.492435    90.492435    91.467434    170.87561    90.492435   0.97499938  1571373 
 1002000         0.65    90.492435    90.492435    91.467434    170.87561    90.492435   0.97499938  1571373 
 1003000         0.65    90.492435    90.492435    91.467434    170.87561    90.492435   0.97499938  1571373 
 1004000         0.65    90.492435    90.492435    91.467434    170.87561    90.492435   0.97499938  1571373 
 1005000         0.65    90.492435    90.492435    91.467434    170.87561    90.492435   0.97499938  1571373 
 1006000         0.65    90.492435    90.492435    91.467434    170.87561    90.492435   0.97499938  1571373 
 1007000         0.65    90.492435    90.492435    91.467434    170.87561    90.492435   0.97499938  1571373 
 1008000         0.65    90.492435    90.492435    91.467434    170.87561    90.492435   0.97499938  1571373 
 1009000         0.65    90.492435    90.492435    91.467434    170.87561    90.492435   0.97499938  1571373 
 1010000         0.65    90.492435    90.492435    91.467434    170.87561    90.492435   0.97499938  1571373 
 1011000         0.65    90.492435    90.492435    91.467434    170.87561    90.492435   0.97499938  1571373 
 1012000         0.65    90.492435    90.492435    91.467434    170.87561    90.492435   0.97499938  1571373 
 1013000         0.65    90.492435    90.492435    91.467434    170.87561    90.492435   0.97499938  1571373 
 1014000         0.65    90.492435    90.492435    91.467434    170.87561    90.492435   0.97499938  1571373 
 1015000         0.65    90.492435    90.492435    91.467434    170.87561    90.492435   0.97499938  1571373 
 1016000         0.65    90.492435    90.492435    91.467434    170.87561    90.492435   0.97499938  1571373 
 1017000         0.65    90.492435    90.492435    91.467434    170.87561    90.492435   0.97499938  1571373 
 1018000         0.65    90.492435    90.492435    91.467434    170.87561    90.492435   0.97499938  1571373 
 1019000         0.65    90.492435    90.492435    91.467434    170.87561    90.492435   0.97499938  1571373 
 1020000         0.65    90.492435    90.492435    91.467434    170.87561    90.492435   0.97499938  1571373 
 1021000         0.65    90.492435    90.492435    91.467434    170.87561    90.492435   0.97499938  1571373 
 1022000         0.65    90.492435    90.492435    91.467434    170.87561    90.492435   0.97499938  1571373 
 1023000         0.65    90.492435    90.492435    91.467434    170.87561    90.492435   0.97499938  1571373 
 1024000         0.65    90.492435    90.492435    91.467434    170.87561    90.492435   0.97499938  1571373 
 1025000         0.65    90.492435    90.492435    91.467434    170.87561    90.492435   0.97499938  1571373 
 1026000         0.65    90.492435    90.492435    91.467434    170.87561    90.492435   0.97499938  1571373 
 1027000         0.65    90.492435    90.492435    91.467434    170.87561    90.492435   0.97499938  1571373 
 1028000         0.65    90.492435    90.492435    91.467434    170.87561    90.492435   0.97499938  1571373 
 1029000         0.65    90.492435    90.492435    91.467434    170.87561    90.492435   0.97499938  1571373 
 1030000         0.65    90.492435    90.492435    91.467434    170.87561    90.492435   0.97499938  1571373 
 1031000         0.65    90.492435    90.492435    91.467434    170.87561    90.492435   0.97499938  1571373 
 1032000         0.65    90.492435    90.492435    91.467434    170.87561    90.492435   0.97499938  1571373 
 1033000         0.65    90.492435    90.492435    91.467434    170.87561    90.492435   0.97499938  1571373 
 1034000         0.65    90.492435    90.492435    91.467434    170.87561    90.492435   0.97499938  1571373 
 1035000         0.65    90.492435    90.492435    91.467434    170.87561    90.492435   0.97499938  1571373 
 1036000         0.65    90.492435    90.492435    91.467434    170.87561    90.492435   0.97499938  1571373 
 1037000         0.65    90.492435    90.492435    91.467434    170.87561    90.492435   0.97499938  1571373 
 1038000         0.65    90.492435    90.492435    91.467434    170.87561    90.492435   0.97499938  1571373 
 1039000         0.65    90.492435    90.492435    91.467434    170.87561    90.492435   0.97499938  1571373 
 1040000         0.65    90.492435    90.492435    91.467434    170.87561    90.492435   0.97499938  1571373 
 1041000         0.65    90.492435    90.492435    91.467434    170.87561    90.492435   0.97499938  1571373 
 1042000         0.65    90.492435    90.492435    91.467434    170.87561    90.492435   0.97499938  1571373 
 1043000         0.65    90.492435    90.492435    91.467434    170.87561    90.492435   0.97499938  1571373 
 1044000         0.65    90.492435    90.492435    91.467434    170.87561    90.492435   0.97499938  1571373 
 1045000         0.65    90.492435    90.492435    91.467434    170.87561    90.492435   0.97499938  1571373 
 1046000         0.65    90.492435    90.492435    91.467434    170.87561    90.492435   0.97499938  1571373 
 1047000         0.65    90.492435    90.492435    91.467434    170.87561    90.492435   0.97499938  1571373 
 1048000         0.65    90.492435    90.492435    91.467434    170.87561    90.492435   0.97499938  1571373 
 1049000         0.65    90.492435    90.492435    91.467434    170.87561    90.492435   0.97499938  1571373 
 1050000         0.65    90.492435    90.492435    91.467434    170.87561    90.492435   0.97499938  1571373 
 1051000         0.65    90.492435    90.492435    91.467434    170.87561    90.492435   0.97499938  1571373 
 1052000         0.65    90.492435    90.492435    91.467434    170.87561    90.492435   0.97499938  1571373 
 1053000         0.65    90.492435    90.492435    91.467434    170.87561    90.492435   0.97499938  1571373 
 1054000         0.65    90.492435    90.492435    91.467434    170.87561    90.492435   0.97499938  1571373 
 1055000         0.65    90.492435    90.492435    91.467434    170.87561    90.492435   0.97499938  1571373 
 1056000         0.65    90.492435    90.492435    91.467434    170.87561    90.492435   0.97499938  1571373 
 1057000         0.65    90.492435    90.492435    91.467434    170.87561    90.492435   0.97499938  1571373 
 1058000         0.65    90.492435    90.492435    91.467434    170.87561    90.492435   0.97499938  1571373 
 1059000         0.65    90.492435    90.492435    91.467434    170.87561    90.492435   0.97499938  1571373 
 1060000         0.65    90.492435    90.492435    91.467434    170.87561    90.492435   0.97499938  1571373 
 1061000         0.65    90.492435    90.492435    91.467434    170.87561    90.492435   0.97499938  1571373 
 1062000         0.65    90.492435    90.492435    91.467434    170.87561    90.492435   0.97499938  1571373 
 1063000         0.65    90.492435    90.492435    91.467434    170.87561    90.492435   0.97499938  1571373 
 1064000         0.65    90.492435    90.492435    91.467434    170.87561    90.492435   0.97499938  1571373 
 1065000         0.65    90.492435    90.492435    91.467434    170.87561    90.492435   0.97499938  1571373 
 1066000         0.65    90.492435    90.492435    91.467434    170.87561    90.492435   0.97499938  1571373 
 1067000         0.65    90.492435    90.492435    91.467434    170.87561    90.492435   0.97499938  1571373 
 1068000         0.65    90.492435    90.492435    91.467434    170.87561    90.492435   0.97499938  1571373 
 1069000         0.65    90.492435    90.492435    91.467434    170.87561    90.492435   0.97499938  1571373 
 1070000         0.65    90.492435    90.492435    91.467434    170.87561    90.492435   0.97499938  1571373 
 1071000         0.65    90.492435    90.492435    91.467434    170.87561    90.492435   0.97499938  1571373 
 1072000         0.65    90.492435    90.492435    91.467434    170.87561    90.492435   0.97499938  1571373 
 1073000         0.65    90.492435    90.492435    91.467434    170.87561    90.492435   0.97499938  1571373 
 1074000         0.65    90.492435    90.492435    91.467434    170.87561    90.492435   0.97499938  1571373 
 1075000         0.65    90.492435    90.492435    91.467434    170.87561    90.492435   0.97499938  1571373 
 1076000         0.65    90.492435    90.492435    91.467434    170.87561    90.492435   0.97499938  1571373 
 1077000         0.65    90.492435    90.492435    91.467434    170.87561    90.492435   0.97499938  1571373 
 1078000         0.65    90.492435    90.492435    91.467434    170.87561    90.492435   0.97499938  1571373 
 1079000         0.65    90.492435    90.492435    91.467434    170.87561    90.492435   0.97499938  1571373 
 1080000         0.65    90.492435    90.492435    91.467434    170.87561    90.492435   0.97499938  1571373 
 1081000         0.65    90.492435    90.492435    91.467434    170.87561    90.492435   0.97499938  1571373 
 1082000         0.65    90.492435    90.492435    91.467434    170.87561    90.492435   0.97499938  1571373 
 1083000         0.65    90.492435    90.492435    91.467434    170.87561    90.492435   0.97499938  1571373 
 1084000         0.65    90.492435    90.492435    91.467434    170.87561    90.492435   0.97499938  1571373 
 1085000         0.65    90.492435    90.492435    91.467434    170.87561    90.492435   0.97499938  1571373 
 1086000         0.65    90.492435    90.492435    91.467434    170.87561    90.492435   0.97499938  1571373 
 1087000         0.65    90.492435    90.492435    91.467434    170.87561    90.492435   0.97499938  1571373 
 1088000         0.65    90.492435    90.492435    91.467434    170.87561    90.492435   0.97499938  1571373 
 1089000         0.65    90.492435    90.492435    91.467434    170.87561    90.492435   0.97499938  1571373 
 1090000         0.65    90.492435    90.492435    91.467434    170.87561    90.492435   0.97499938  1571373 
 1091000         0.65    90.492435    90.492435    91.467434    170.87561    90.492435   0.97499938  1571373 
 1092000         0.65    90.492435    90.492435    91.467434    170.87561    90.492435   0.97499938  1571373 
 1093000         0.65    90.492435    90.492435    91.467434    170.87561    90.492435   0.97499938  1571373 
 1094000         0.65    90.492435    90.492435    91.467434    170.87561    90.492435   0.97499938  1571373 
 1095000         0.65    90.492435    90.492435    91.467434    170.87561    90.492435   0.97499938  1571373 
 1096000         0.65    90.492435    90.492435    91.467434    170.87561    90.492435   0.97499938  1571373 
 1097000         0.65    90.492435    90.492435    91.467434    170.87561    90.492435   0.97499938  1571373 
 1098000         0.65    90.492435    90.492435    91.467434    170.87561    90.492435   0.97499938  1571373 
 1099000         0.65    90.492435    90.492435    91.467434    170.87561    90.492435   0.97499938  1571373 
 1100000         0.65    90.492435    90.492435    91.467434    170.87561    90.492435   0.97499938  1571373 
 1101000         0.65    90.492435    90.492435    91.467434    170.87561    90.492435   0.97499938  1571373 
 1102000         0.65    90.492435    90.492435    91.467434    170.87561    90.492435   0.97499938  1571373 
 1103000         0.65    90.492435    90.492435    91.467434    170.87561    90.492435   0.97499938  1571373 
 1104000         0.65    90.492435    90.492435    91.467434    170.87561    90.492435   0.97499938  1571373 
 1105000         0.65    90.492435    90.492435    91.467434    170.87561    90.492435   0.97499938  1571373 
 1106000         0.65    90.492435    90.492435    91.467434    170.87561    90.492435   0.97499938  1571373 
 1107000         0.65    90.492435    90.492435    91.467434    170.87561    90.492435   0.97499938  1571373 
 1108000         0.65    90.492435    90.492435    91.467434    170.87561    90.492435   0.97499938  1571373 
 1109000         0.65    90.492435    90.492435    91.467434    170.87561    90.492435   0.97499938  1571373 
 1110000         0.65    90.492435    90.492435    91.467434    170.87561    90.492435   0.97499938  1571373 
 1111000         0.65    90.492435    90.492435    91.467434    170.87561    90.492435   0.97499938  1571373 
 1112000         0.65    90.492435    90.492435    91.467434    170.87561    90.492435   0.97499938  1571373 
 1113000         0.65    90.492435    90.492435    91.467434    170.87561    90.492435   0.97499938  1571373 
 1114000         0.65    90.492435    90.492435    91.467434    170.87561    90.492435   0.97499938  1571373 
 1115000         0.65    90.492435    90.492435    91.467434    170.87561    90.492435   0.97499938  1571373 
 1116000         0.65    90.492435    90.492435    91.467434    170.87561    90.492435   0.97499938  1571373 
 1117000         0.65    90.492435    90.492435    91.467434    170.87561    90.492435   0.97499938  1571373 
 1118000         0.65    90.492435    90.492435    91.467434    170.87561    90.492435   0.97499938  1571373 
 1119000         0.65    90.492435    90.492435    91.467434    170.87561    90.492435   0.97499938  1571373 
 1120000         0.65    90.492435    90.492435    91.467434    170.87561    90.492435   0.97499938  1571373 
 1121000         0.65    90.492435    90.492435    91.467434    170.87561    90.492435   0.97499938  1571373 
 1122000         0.65    90.492435    90.492435    91.467434    170.87561    90.492435   0.97499938  1571373 
 1123000         0.65    90.492435    90.492435    91.467434    170.87561    90.492435   0.97499938  1571373 
 1124000         0.65    90.492435    90.492435    91.467434    170.87561    90.492435   0.97499938  1571373 
 1125000         0.65    90.492435    90.492435    91.467434    170.87561    90.492435   0.97499938  1571373 
 1126000         0.65    90.492435    90.492435    91.467434    170.87561    90.492435   0.97499938  1571373 
 1127000         0.65    90.492435    90.492435    91.467434    170.87561    90.492435   0.97499938  1571373 
 1128000         0.65    90.492435    90.492435    91.467434    170.87561    90.492435   0.97499938  1571373 
 1129000         0.65    90.492435    90.492435    91.467434    170.87561    90.492435   0.97499938  1571373 
 1130000         0.65    90.492435    90.492435    91.467434    170.87561    90.492435   0.97499938  1571373 
 1131000         0.65    90.492435    90.492435    91.467434    170.87561    90.492435   0.97499938  1571373 
 1132000         0.65    90.492435    90.492435    91.467434    170.87561    90.492435   0.97499938  1571373 
 1133000         0.65    90.492435    90.492435    91.467434    170.87561    90.492435   0.97499938  1571373 
 1134000         0.65    90.492435    90.492435    91.467434    170.87561    90.492435   0.97499938  1571373 
 1135000         0.65    90.492435    90.492435    91.467434    170.87561    90.492435   0.97499938  1571373 
 1136000         0.65    90.492435    90.492435    91.467434    170.87561    90.492435   0.97499938  1571373 
 1137000         0.65    90.492435    90.492435    91.467434    170.87561    90.492435   0.97499938  1571373 
 1138000         0.65    90.492435    90.492435    91.467434    170.87561    90.492435   0.97499938  1571373 
 1139000         0.65    90.492435    90.492435    91.467434    170.87561    90.492435   0.97499938  1571373 
 1140000         0.65    90.492435    90.492435    91.467434    170.87561    90.492435   0.97499938  1571373 
 1141000         0.65    90.492435    90.492435    91.467434    170.87561    90.492435   0.97499938  1571373 
 1142000         0.65    90.492435    90.492435    91.467434    170.87561    90.492435   0.97499938  1571373 
 1143000         0.65    90.492435    90.492435    91.467434    170.87561    90.492435   0.97499938  1571373 
 1144000         0.65    90.492435    90.492435    91.467434    170.87561    90.492435   0.97499938  1571373 
 1145000         0.65    90.492435    90.492435    91.467434    170.87561    90.492435   0.97499938  1571373 
 1146000         0.65    90.492435    90.492435    91.467434    170.87561    90.492435   0.97499938  1571373 
 1147000         0.65    90.492435    90.492435    91.467434    170.87561    90.492435   0.97499938  1571373 
 1148000         0.65    90.492435    90.492435    91.467434    170.87561    90.492435   0.97499938  1571373 
 1149000         0.65    90.492435    90.492435    91.467434    170.87561    90.492435   0.97499938  1571373 
 1150000         0.65    90.492435    90.492435    91.467434    170.87561    90.492435   0.97499938  1571373 
 1151000         0.65    90.492435    90.492435    91.467434    170.87561    90.492435   0.97499938  1571373 
 1152000         0.65    90.492435    90.492435    91.467434    170.87561    90.492435   0.97499938  1571373 
 1153000         0.65    90.492435    90.492435    91.467434    170.87561    90.492435   0.97499938  1571373 
 1154000         0.65    90.492435    90.492435    91.467434    170.87561    90.492435   0.97499938  1571373 
 1155000         0.65    90.492435    90.492435    91.467434    170.87561    90.492435   0.97499938  1571373 
 1156000         0.65    90.492435    90.492435    91.467434    170.87561    90.492435   0.97499938  1571373 
 1157000         0.65    90.492435    90.492435    91.467434    170.87561    90.492435   0.97499938  1571373 
 1158000         0.65    90.492435    90.492435    91.467434    170.87561    90.492435   0.97499938  1571373 
 1159000         0.65    90.492435    90.492435    91.467434    170.87561    90.492435   0.97499938  1571373 
 1160000         0.65    90.492435    90.492435    91.467434    170.87561    90.492435   0.97499938  1571373 
 1161000         0.65    90.492435    90.492435    91.467434    170.87561    90.492435   0.97499938  1571373 
 1162000         0.65    90.492435    90.492435    91.467434    170.87561    90.492435   0.97499938  1571373 
 1163000         0.65    90.492435    90.492435    91.467434    170.87561    90.492435   0.97499938  1571373 
 1164000         0.65    90.492435    90.492435    91.467434    170.87561    90.492435   0.97499938  1571373 
 1165000         0.65    90.492435    90.492435    91.467434    170.87561    90.492435   0.97499938  1571373 
 1166000         0.65    90.492435    90.492435    91.467434    170.87561    90.492435   0.97499938  1571373 
 1167000         0.65    90.492435    90.492435    91.467434    170.87561    90.492435   0.97499938  1571373 
 1168000         0.65    90.492435    90.492435    91.467434    170.87561    90.492435   0.97499938  1571373 
 1169000         0.65    90.492435    90.492435    91.467434    170.87561    90.492435   0.97499938  1571373 
 1170000         0.65    90.492435    90.492435    91.467434    170.87561    90.492435   0.97499938  1571373 
 1171000         0.65    90.492435    90.492435    91.467434    170.87561    90.492435   0.97499938  1571373 
 1172000         0.65    90.492435    90.492435    91.467434    170.87561    90.492435   0.97499938  1571373 
 1173000         0.65    90.492435    90.492435    91.467434    170.87561    90.492435   0.97499938  1571373 
 1174000         0.65    90.492435    90.492435    91.467434    170.87561    90.492435   0.97499938  1571373 
 1175000         0.65    90.492435    90.492435    91.467434    170.87561    90.492435   0.97499938  1571373 
 1176000         0.65    90.492435    90.492435    91.467434    170.87561    90.492435   0.97499938  1571373 
 1177000         0.65    90.492435    90.492435    91.467434    170.87561    90.492435   0.97499938  1571373 
 1178000         0.65    90.492435    90.492435    91.467434    170.87561    90.492435   0.97499938  1571373 
 1179000         0.65    90.492435    90.492435    91.467434    170.87561    90.492435   0.97499938  1571373 
 1180000         0.65    90.492435    90.492435    91.467434    170.87561    90.492435   0.97499938  1571373 
 1181000         0.65    90.492435    90.492435    91.467434    170.87561    90.492435   0.97499938  1571373 
 1182000         0.65    90.492435    90.492435    91.467434    170.87561    90.492435   0.97499938  1571373 
 1183000         0.65    90.492435    90.492435    91.467434    170.87561    90.492435   0.97499938  1571373 
 1184000         0.65    90.492435    90.492435    91.467434    170.87561    90.492435   0.97499938  1571373 
 1185000         0.65    90.492435    90.492435    91.467434    170.87561    90.492435   0.97499938  1571373 
 1186000         0.65    90.492435    90.492435    91.467434    170.87561    90.492435   0.97499938  1571373 
 1187000         0.65    90.492435    90.492435    91.467434    170.87561    90.492435   0.97499938  1571373 
 1188000         0.65    90.492435    90.492435    91.467434    170.87561    90.492435   0.97499938  1571373 
 1189000         0.65    90.492435    90.492435    91.467434    170.87561    90.492435   0.97499938  1571373 
 1190000         0.65    90.492435    90.492435    91.467434    170.87561    90.492435   0.97499938  1571373 
 1191000         0.65    90.492435    90.492435    91.467434    170.87561    90.492435   0.97499938  1571373 
 1192000         0.65    90.492435    90.492435    91.467434    170.87561    90.492435   0.97499938  1571373 
 1193000         0.65    90.492435    90.492435    91.467434    170.87561    90.492435   0.97499938  1571373 
 1194000         0.65    90.492435    90.492435    91.467434    170.87561    90.492435   0.97499938  1571373 
 1195000         0.65    90.492435    90.492435    91.467434    170.87561    90.492435   0.97499938  1571373 
 1196000         0.65    90.492435    90.492435    91.467434    170.87561    90.492435   0.97499938  1571373 
 1197000         0.65    90.492435    90.492435    91.467434    170.87561    90.492435   0.97499938  1571373 
 1198000         0.65    90.492435    90.492435    91.467434    170.87561    90.492435   0.97499938  1571373 
 1199000         0.65    90.492435    90.492435    91.467434    170.87561    90.492435   0.97499938  1571373 
 1200000         0.65    90.492435    90.492435    91.467434    170.87561    90.492435   0.97499938  1571373 
 1201000         0.65    90.492435    90.492435    91.467434    170.87561    90.492435   0.97499938  1571373 
 1202000         0.65    90.492435    90.492435    91.467434    170.87561    90.492435   0.97499938  1571373 
 1203000         0.65    90.492435    90.492435    91.467434    170.87561    90.492435   0.97499938  1571373 
 1204000         0.65    90.492435    90.492435    91.467434    170.87561    90.492435   0.97499938  1571373 
 1205000         0.65    90.492435    90.492435    91.467434    170.87561    90.492435   0.97499938  1571373 
 1206000         0.65    90.492435    90.492435    91.467434    170.87561    90.492435   0.97499938  1571373 
 1207000         0.65    90.492435    90.492435    91.467434    170.87561    90.492435   0.97499938  1571373 
 1208000         0.65    90.492435    90.492435    91.467434    170.87561    90.492435   0.97499938  1571373 
 1209000         0.65    90.492435    90.492435    91.467434    170.87561    90.492435   0.97499938  1571373 
 1210000         0.65    90.492435    90.492435    91.467434    170.87561    90.492435   0.97499938  1571373 
 1211000         0.65    90.492435    90.492435    91.467434    170.87561    90.492435   0.97499938  1571373 
 1212000         0.65    90.492435    90.492435    91.467434    170.87561    90.492435   0.97499938  1571373 
 1213000         0.65    90.492435    90.492435    91.467434    170.87561    90.492435   0.97499938  1571373 
 1214000         0.65    90.492435    90.492435    91.467434    170.87561    90.492435   0.97499938  1571373 
 1215000         0.65    90.492435    90.492435    91.467434    170.87561    90.492435   0.97499938  1571373 
 1216000         0.65    90.492435    90.492435    91.467434    170.87561    90.492435   0.97499938  1571373 
 1217000         0.65    90.492435    90.492435    91.467434    170.87561    90.492435   0.97499938  1571373 
 1218000         0.65    90.492435    90.492435    91.467434    170.87561    90.492435   0.97499938  1571373 
 1219000         0.65    90.492435    90.492435    91.467434    170.87561    90.492435   0.97499938  1571373 
 1220000         0.65    90.492435    90.492435    91.467434    170.87561    90.492435   0.97499938  1571373 
 1221000         0.65    90.492435    90.492435    91.467434    170.87561    90.492435   0.97499938  1571373 
 1222000         0.65    90.492435    90.492435    91.467434    170.87561    90.492435   0.97499938  1571373 
 1223000         0.65    90.492435    90.492435    91.467434    170.87561    90.492435   0.97499938  1571373 
 1224000         0.65    90.492435    90.492435    91.467434    170.87561    90.492435   0.97499938  1571373 
 1225000         0.65    90.492435    90.492435    91.467434    170.87561    90.492435   0.97499938  1571373 
 1226000         0.65    90.492435    90.492435    91.467434    170.87561    90.492435   0.97499938  1571373 
 1227000         0.65    90.492435    90.492435    91.467434    170.87561    90.492435   0.97499938  1571373 
 1228000         0.65    90.492435    90.492435    91.467434    170.87561    90.492435   0.97499938  1571373 
 1229000         0.65    90.492435    90.492435    91.467434    170.87561    90.492435   0.97499938  1571373 
 1230000         0.65    90.492435    90.492435    91.467434    170.87561    90.492435   0.97499938  1571373 
 1231000         0.65    90.492435    90.492435    91.467434    170.87561    90.492435   0.97499938  1571373 
 1232000         0.65    90.492435    90.492435    91.467434    170.87561    90.492435   0.97499938  1571373 
 1233000         0.65    90.492435    90.492435    91.467434    170.87561    90.492435   0.97499938  1571373 
 1234000         0.65    90.492435    90.492435    91.467434    170.87561    90.492435   0.97499938  1571373 
 1235000         0.65    90.492435    90.492435    91.467434    170.87561    90.492435   0.97499938  1571373 
 1236000         0.65    90.492435    90.492435    91.467434    170.87561    90.492435   0.97499938  1571373 
 1237000         0.65    90.492435    90.492435    91.467434    170.87561    90.492435   0.97499938  1571373 
 1238000         0.65    90.492435    90.492435    91.467434    170.87561    90.492435   0.97499938  1571373 
 1239000         0.65    90.492435    90.492435    91.467434    170.87561    90.492435   0.97499938  1571373 
 1240000         0.65    90.492435    90.492435    91.467434    170.87561    90.492435   0.97499938  1571373 
 1241000         0.65    90.492435    90.492435    91.467434    170.87561    90.492435   0.97499938  1571373 
 1242000         0.65    90.492435    90.492435    91.467434    170.87561    90.492435   0.97499938  1571373 
 1243000         0.65    90.492435    90.492435    91.467434    170.87561    90.492435   0.97499938  1571373 
 1244000         0.65    90.492435    90.492435    91.467434    170.87561    90.492435   0.97499938  1571373 
 1245000         0.65    90.492435    90.492435    91.467434    170.87561    90.492435   0.97499938  1571373 
 1246000         0.65    90.492435    90.492435    91.467434    170.87561    90.492435   0.97499938  1571373 
 1247000         0.65    90.492435    90.492435    91.467434    170.87561    90.492435   0.97499938  1571373 
 1248000         0.65    90.492435    90.492435    91.467434    170.87561    90.492435   0.97499938  1571373 
 1249000         0.65    90.492435    90.492435    91.467434    170.87561    90.492435   0.97499938  1571373 
 1250000         0.65    90.492435    90.492435    91.467434    170.87561    90.492435   0.97499938  1571373 
 1251000         0.65    90.492435    90.492435    91.467434    170.87561    90.492435   0.97499938  1571373 
 1252000         0.65    90.492435    90.492435    91.467434    170.87561    90.492435   0.97499938  1571373 
 1253000         0.65    90.492435    90.492435    91.467434    170.87561    90.492435   0.97499938  1571373 
 1254000         0.65    90.492435    90.492435    91.467434    170.87561    90.492435   0.97499938  1571373 
 1255000         0.65    90.492435    90.492435    91.467434    170.87561    90.492435   0.97499938  1571373 
 1256000         0.65    90.492435    90.492435    91.467434    170.87561    90.492435   0.97499938  1571373 
 1257000         0.65    90.492435    90.492435    91.467434    170.87561    90.492435   0.97499938  1571373 
 1258000         0.65    90.492435    90.492435    91.467434    170.87561    90.492435   0.97499938  1571373 
 1259000         0.65    90.492435    90.492435    91.467434    170.87561    90.492435   0.97499938  1571373 
 1260000         0.65    90.492435    90.492435    91.467434    170.87561    90.492435   0.97499938  1571373 
 1261000         0.65    90.492435    90.492435    91.467434    170.87561    90.492435   0.97499938  1571373 
 1262000         0.65    90.492435    90.492435    91.467434    170.87561    90.492435   0.97499938  1571373 
 1263000         0.65    90.492435    90.492435    91.467434    170.87561    90.492435   0.97499938  1571373 
 1264000         0.65    90.492435    90.492435    91.467434    170.87561    90.492435   0.97499938  1571373 
 1265000         0.65    90.492435    90.492435    91.467434    170.87561    90.492435   0.97499938  1571373 
 1266000         0.65    90.492435    90.492435    91.467434    170.87561    90.492435   0.97499938  1571373 
 1267000         0.65    90.492435    90.492435    91.467434    170.87561    90.492435   0.97499938  1571373 
 1268000         0.65    90.492435    90.492435    91.467434    170.87561    90.492435   0.97499938  1571373 
 1269000         0.65    90.492435    90.492435    91.467434    170.87561    90.492435   0.97499938  1571373 
 1270000         0.65    90.492435    90.492435    91.467434    170.87561    90.492435   0.97499938  1571373 
 1271000         0.65    90.492435    90.492435    91.467434    170.87561    90.492435   0.97499938  1571373 
 1272000         0.65    90.492435    90.492435    91.467434    170.87561    90.492435   0.97499938  1571373 
 1273000         0.65    90.492435    90.492435    91.467434    170.87561    90.492435   0.97499938  1571373 
 1274000         0.65    90.492435    90.492435    91.467434    170.87561    90.492435   0.97499938  1571373 
 1275000         0.65    90.492435    90.492435    91.467434    170.87561    90.492435   0.97499938  1571373 
 1276000         0.65    90.492435    90.492435    91.467434    170.87561    90.492435   0.97499938  1571373 
 1277000         0.65    90.492435    90.492435    91.467434    170.87561    90.492435   0.97499938  1571373 
 1278000         0.65    90.492435    90.492435    91.467434    170.87561    90.492435   0.97499938  1571373 
 1279000         0.65    90.492435    90.492435    91.467434    170.87561    90.492435   0.97499938  1571373 
 1280000         0.65    90.492435    90.492435    91.467434    170.87561    90.492435   0.97499938  1571373 
 1281000         0.65    90.492435    90.492435    91.467434    170.87561    90.492435   0.97499938  1571373 
 1282000         0.65    90.492435    90.492435    91.467434    170.87561    90.492435   0.97499938  1571373 
 1283000         0.65    90.492435    90.492435    91.467434    170.87561    90.492435   0.97499938  1571373 
 1284000         0.65    90.492435    90.492435    91.467434    170.87561    90.492435   0.97499938  1571373 
 1285000         0.65    90.492435    90.492435    91.467434    170.87561    90.492435   0.97499938  1571373 
 1286000         0.65    90.492435    90.492435    91.467434    170.87561    90.492435   0.97499938  1571373 
 1287000         0.65    90.492435    90.492435    91.467434    170.87561    90.492435   0.97499938  1571373 
 1288000         0.65    90.492435    90.492435    91.467434    170.87561    90.492435   0.97499938  1571373 
 1289000         0.65    90.492435    90.492435    91.467434    170.87561    90.492435   0.97499938  1571373 
 1290000         0.65    90.492435    90.492435    91.467434    170.87561    90.492435   0.97499938  1571373 
 1291000         0.65    90.492435    90.492435    91.467434    170.87561    90.492435   0.97499938  1571373 
 1292000         0.65    90.492435    90.492435    91.467434    170.87561    90.492435   0.97499938  1571373 
 1293000         0.65    90.492435    90.492435    91.467434    170.87561    90.492435   0.97499938  1571373 
 1294000         0.65    90.492435    90.492435    91.467434    170.87561    90.492435   0.97499938  1571373 
 1295000         0.65    90.492435    90.492435    91.467434    170.87561    90.492435   0.97499938  1571373 
 1296000         0.65    90.492435    90.492435    91.467434    170.87561    90.492435   0.97499938  1571373 
 1297000         0.65    90.492435    90.492435    91.467434    170.87561    90.492435   0.97499938  1571373 
 1298000         0.65    90.492435    90.492435    91.467434    170.87561    90.492435   0.97499938  1571373 
 1299000         0.65    90.492435    90.492435    91.467434    170.87561    90.492435   0.97499938  1571373 
 1300000         0.65    90.492435    90.492435    91.467434    170.87561    90.492435   0.97499938  1571373 
 1301000         0.65    90.492435    90.492435    91.467434    170.87561    90.492435   0.97499938  1571373 
 1302000         0.65    90.492435    90.492435    91.467434    170.87561    90.492435   0.97499938  1571373 
 1303000         0.65    90.492435    90.492435    91.467434    170.87561    90.492435   0.97499938  1571373 
 1304000         0.65    90.492435    90.492435    91.467434    170.87561    90.492435   0.97499938  1571373 
 1305000         0.65    90.492435    90.492435    91.467434    170.87561    90.492435   0.97499938  1571373 
 1306000         0.65    90.492435    90.492435    91.467434    170.87561    90.492435   0.97499938  1571373 
 1307000         0.65    90.492435    90.492435    91.467434    170.87561    90.492435   0.97499938  1571373 
 1308000         0.65    90.492435    90.492435    91.467434    170.87561    90.492435   0.97499938  1571373 
 1309000         0.65    90.492435    90.492435    91.467434    170.87561    90.492435   0.97499938  1571373 
 1310000         0.65    90.492435    90.492435    91.467434    170.87561    90.492435   0.97499938  1571373 
 1311000         0.65    90.492435    90.492435    91.467434    170.87561    90.492435   0.97499938  1571373 
 1312000         0.65    90.492435    90.492435    91.467434    170.87561    90.492435   0.97499938  1571373 
 1313000         0.65    90.492435    90.492435    91.467434    170.87561    90.492435   0.97499938  1571373 
 1314000         0.65    90.492435    90.492435    91.467434    170.87561    90.492435   0.97499938  1571373 
 1315000         0.65    90.492435    90.492435    91.467434    170.87561    90.492435   0.97499938  1571373 
 1316000         0.65    90.492435    90.492435    91.467434    170.87561    90.492435   0.97499938  1571373 
 1317000         0.65    90.492435    90.492435    91.467434    170.87561    90.492435   0.97499938  1571373 
 1318000         0.65    90.492435    90.492435    91.467434    170.87561    90.492435   0.97499938  1571373 
 1319000         0.65    90.492435    90.492435    91.467434    170.87561    90.492435   0.97499938  1571373 
 1320000         0.65    90.492435    90.492435    91.467434    170.87561    90.492435   0.97499938  1571373 
 1321000         0.65    90.492435    90.492435    91.467434    170.87561    90.492435   0.97499938  1571373 
 1322000         0.65    90.492435    90.492435    91.467434    170.87561    90.492435   0.97499938  1571373 
 1323000         0.65    90.492435    90.492435    91.467434    170.87561    90.492435   0.97499938  1571373 
 1324000         0.65    90.492435    90.492435    91.467434    170.87561    90.492435   0.97499938  1571373 
 1325000         0.65    90.492435    90.492435    91.467434    170.87561    90.492435   0.97499938  1571373 
 1326000         0.65    90.492435    90.492435    91.467434    170.87561    90.492435   0.97499938  1571373 
 1327000         0.65    90.492435    90.492435    91.467434    170.87561    90.492435   0.97499938  1571373 
 1328000         0.65    90.492435    90.492435    91.467434    170.87561    90.492435   0.97499938  1571373 
 1329000         0.65    90.492435    90.492435    91.467434    170.87561    90.492435   0.97499938  1571373 
 1330000         0.65    90.492435    90.492435    91.467434    170.87561    90.492435   0.97499938  1571373 
 1331000         0.65    90.492435    90.492435    91.467434    170.87561    90.492435   0.97499938  1571373 
 1332000         0.65    90.492435    90.492435    91.467434    170.87561    90.492435   0.97499938  1571373 
 1333000         0.65    90.492435    90.492435    91.467434    170.87561    90.492435   0.97499938  1571373 
 1334000         0.65    90.492435    90.492435    91.467434    170.87561    90.492435   0.97499938  1571373 
 1335000         0.65    90.492435    90.492435    91.467434    170.87561    90.492435   0.97499938  1571373 
 1336000         0.65    90.492435    90.492435    91.467434    170.87561    90.492435   0.97499938  1571373 
 1337000         0.65    90.492435    90.492435    91.467434    170.87561    90.492435   0.97499938  1571373 
 1338000         0.65    90.492435    90.492435    91.467434    170.87561    90.492435   0.97499938  1571373 
 1339000         0.65    90.492435    90.492435    91.467434    170.87561    90.492435   0.97499938  1571373 
 1340000         0.65    90.492435    90.492435    91.467434    170.87561    90.492435   0.97499938  1571373 
 1341000         0.65    90.492435    90.492435    91.467434    170.87561    90.492435   0.97499938  1571373 
 1342000         0.65    90.492435    90.492435    91.467434    170.87561    90.492435   0.97499938  1571373 
 1343000         0.65    90.492435    90.492435    91.467434    170.87561    90.492435   0.97499938  1571373 
 1344000         0.65    90.492435    90.492435    91.467434    170.87561    90.492435   0.97499938  1571373 
 1345000         0.65    90.492435    90.492435    91.467434    170.87561    90.492435   0.97499938  1571373 
 1346000         0.65    90.492435    90.492435    91.467434    170.87561    90.492435   0.97499938  1571373 
 1347000         0.65    90.492435    90.492435    91.467434    170.87561    90.492435   0.97499938  1571373 
 1348000         0.65    90.492435    90.492435    91.467434    170.87561    90.492435   0.97499938  1571373 
 1349000         0.65    90.492435    90.492435    91.467434    170.87561    90.492435   0.97499938  1571373 
 1350000         0.65    90.492435    90.492435    91.467434    170.87561    90.492435   0.97499938  1571373 
 1351000         0.65    90.492435    90.492435    91.467434    170.87561    90.492435   0.97499938  1571373 
 1352000         0.65    90.492435    90.492435    91.467434    170.87561    90.492435   0.97499938  1571373 
 1353000         0.65    90.492435    90.492435    91.467434    170.87561    90.492435   0.97499938  1571373 
 1354000         0.65    90.492435    90.492435    91.467434    170.87561    90.492435   0.97499938  1571373 
 1355000         0.65    90.492435    90.492435    91.467434    170.87561    90.492435   0.97499938  1571373 
 1356000         0.65    90.492435    90.492435    91.467434    170.87561    90.492435   0.97499938  1571373 
 1357000         0.65    90.492435    90.492435    91.467434    170.87561    90.492435   0.97499938  1571373 
 1358000         0.65    90.492435    90.492435    91.467434    170.87561    90.492435   0.97499938  1571373 
 1359000         0.65    90.492435    90.492435    91.467434    170.87561    90.492435   0.97499938  1571373 
 1360000         0.65    90.492435    90.492435    91.467434    170.87561    90.492435   0.97499938  1571373 
 1361000         0.65    90.492435    90.492435    91.467434    170.87561    90.492435   0.97499938  1571373 
 1362000         0.65    90.492435    90.492435    91.467434    170.87561    90.492435   0.97499938  1571373 
 1363000         0.65    90.492435    90.492435    91.467434    170.87561    90.492435   0.97499938  1571373 
 1364000         0.65    90.492435    90.492435    91.467434    170.87561    90.492435   0.97499938  1571373 
 1365000         0.65    90.492435    90.492435    91.467434    170.87561    90.492435   0.97499938  1571373 
 1366000         0.65    90.492435    90.492435    91.467434    170.87561    90.492435   0.97499938  1571373 
 1367000         0.65    90.492435    90.492435    91.467434    170.87561    90.492435   0.97499938  1571373 
 1368000         0.65    90.492435    90.492435    91.467434    170.87561    90.492435   0.97499938  1571373 
 1369000         0.65    90.492435    90.492435    91.467434    170.87561    90.492435   0.97499938  1571373 
 1370000         0.65    90.492435    90.492435    91.467434    170.87561    90.492435   0.97499938  1571373 
 1371000         0.65    90.492435    90.492435    91.467434    170.87561    90.492435   0.97499938  1571373 
 1372000         0.65    90.492435    90.492435    91.467434    170.87561    90.492435   0.97499938  1571373 
 1373000         0.65    90.492435    90.492435    91.467434    170.87561    90.492435   0.97499938  1571373 
 1374000         0.65    90.492435    90.492435    91.467434    170.87561    90.492435   0.97499938  1571373 
 1375000         0.65    90.492435    90.492435    91.467434    170.87561    90.492435   0.97499938  1571373 
 1376000         0.65    90.492435    90.492435    91.467434    170.87561    90.492435   0.97499938  1571373 
 1377000         0.65    90.492435    90.492435    91.467434    170.87561    90.492435   0.97499938  1571373 
 1378000         0.65    90.492435    90.492435    91.467434    170.87561    90.492435   0.97499938  1571373 
 1379000         0.65    90.492435    90.492435    91.467434    170.87561    90.492435   0.97499938  1571373 
 1380000         0.65    90.492435    90.492435    91.467434    170.87561    90.492435   0.97499938  1571373 
 1381000         0.65    90.492435    90.492435    91.467434    170.87561    90.492435   0.97499938  1571373 
 1382000         0.65    90.492435    90.492435    91.467434    170.87561    90.492435   0.97499938  1571373 
 1383000         0.65    90.492435    90.492435    91.467434    170.87561    90.492435   0.97499938  1571373 
 1384000         0.65    90.492435    90.492435    91.467434    170.87561    90.492435   0.97499938  1571373 
 1385000         0.65    90.492435    90.492435    91.467434    170.87561    90.492435   0.97499938  1571373 
 1386000         0.65    90.492435    90.492435    91.467434    170.87561    90.492435   0.97499938  1571373 
 1387000         0.65    90.492435    90.492435    91.467434    170.87561    90.492435   0.97499938  1571373 
 1388000         0.65    90.492435    90.492435    91.467434    170.87561    90.492435   0.97499938  1571373 
 1389000         0.65    90.492435    90.492435    91.467434    170.87561    90.492435   0.97499938  1571373 
 1390000         0.65    90.492435    90.492435    91.467434    170.87561    90.492435   0.97499938  1571373 
 1391000         0.65    90.492435    90.492435    91.467434    170.87561    90.492435   0.97499938  1571373 
 1392000         0.65    90.492435    90.492435    91.467434    170.87561    90.492435   0.97499938  1571373 
 1393000         0.65    90.492435    90.492435    91.467434    170.87561    90.492435   0.97499938  1571373 
 1394000         0.65    90.492435    90.492435    91.467434    170.87561    90.492435   0.97499938  1571373 
 1395000         0.65    90.492435    90.492435    91.467434    170.87561    90.492435   0.97499938  1571373 
 1396000         0.65    90.492435    90.492435    91.467434    170.87561    90.492435   0.97499938  1571373 
 1397000         0.65    90.492435    90.492435    91.467434    170.87561    90.492435   0.97499938  1571373 
 1398000         0.65    90.492435    90.492435    91.467434    170.87561    90.492435   0.97499938  1571373 
 1399000         0.65    90.492435    90.492435    91.467434    170.87561    90.492435   0.97499938  1571373 
 1400000         0.65    90.492435    90.492435    91.467434    170.87561    90.492435   0.97499938  1571373 
 1401000         0.65    90.492435    90.492435    91.467434    170.87561    90.492435   0.97499938  1571373 
 1402000         0.65    90.492435    90.492435    91.467434    170.87561    90.492435   0.97499938  1571373 
 1403000         0.65    90.492435    90.492435    91.467434    170.87561    90.492435   0.97499938  1571373 
 1404000         0.65    90.492435    90.492435    91.467434    170.87561    90.492435   0.97499938  1571373 
 1405000         0.65    90.492435    90.492435    91.467434    170.87561    90.492435   0.97499938  1571373 
 1406000         0.65    90.492435    90.492435    91.467434    170.87561    90.492435   0.97499938  1571373 
 1407000         0.65    90.492435    90.492435    91.467434    170.87561    90.492435   0.97499938  1571373 
 1408000         0.65    90.492435    90.492435    91.467434    170.87561    90.492435   0.97499938  1571373 
 1409000         0.65    90.492435    90.492435    91.467434    170.87561    90.492435   0.97499938  1571373 
 1410000         0.65    90.492435    90.492435    91.467434    170.87561    90.492435   0.97499938  1571373 
 1411000         0.65    90.492435    90.492435    91.467434    170.87561    90.492435   0.97499938  1571373 
 1412000         0.65    90.492435    90.492435    91.467434    170.87561    90.492435   0.97499938  1571373 
 1413000         0.65    90.492435    90.492435    91.467434    170.87561    90.492435   0.97499938  1571373 
 1414000         0.65    90.492435    90.492435    91.467434    170.87561    90.492435   0.97499938  1571373 
 1415000         0.65    90.492435    90.492435    91.467434    170.87561    90.492435   0.97499938  1571373 
 1416000         0.65    90.492435    90.492435    91.467434    170.87561    90.492435   0.97499938  1571373 
 1417000         0.65    90.492435    90.492435    91.467434    170.87561    90.492435   0.97499938  1571373 
 1418000         0.65    90.492435    90.492435    91.467434    170.87561    90.492435   0.97499938  1571373 
 1419000         0.65    90.492435    90.492435    91.467434    170.87561    90.492435   0.97499938  1571373 
 1420000         0.65    90.492435    90.492435    91.467434    170.87561    90.492435   0.97499938  1571373 
 1421000         0.65    90.492435    90.492435    91.467434    170.87561    90.492435   0.97499938  1571373 
 1422000         0.65    90.492435    90.492435    91.467434    170.87561    90.492435   0.97499938  1571373 
 1423000         0.65    90.492435    90.492435    91.467434    170.87561    90.492435   0.97499938  1571373 
 1424000         0.65    90.492435    90.492435    91.467434    170.87561    90.492435   0.97499938  1571373 
 1425000         0.65    90.492435    90.492435    91.467434    170.87561    90.492435   0.97499938  1571373 
 1426000         0.65    90.492435    90.492435    91.467434    170.87561    90.492435   0.97499938  1571373 
 1427000         0.65    90.492435    90.492435    91.467434    170.87561    90.492435   0.97499938  1571373 
 1428000         0.65    90.492435    90.492435    91.467434    170.87561    90.492435   0.97499938  1571373 
 1429000         0.65    90.492435    90.492435    91.467434    170.87561    90.492435   0.97499938  1571373 
 1430000         0.65    90.492435    90.492435    91.467434    170.87561    90.492435   0.97499938  1571373 
 1431000         0.65    90.492435    90.492435    91.467434    170.87561    90.492435   0.97499938  1571373 
 1432000         0.65    90.492435    90.492435    91.467434    170.87561    90.492435   0.97499938  1571373 
 1433000         0.65    90.492435    90.492435    91.467434    170.87561    90.492435   0.97499938  1571373 
 1434000         0.65    90.492435    90.492435    91.467434    170.87561    90.492435   0.97499938  1571373 
 1435000         0.65    90.492435    90.492435    91.467434    170.87561    90.492435   0.97499938  1571373 
 1436000         0.65    90.492435    90.492435    91.467434    170.87561    90.492435   0.97499938  1571373 
 1437000         0.65    90.492435    90.492435    91.467434    170.87561    90.492435   0.97499938  1571373 
 1438000         0.65    90.492435    90.492435    91.467434    170.87561    90.492435   0.97499938  1571373 
 1439000         0.65    90.492435    90.492435    91.467434    170.87561    90.492435   0.97499938  1571373 
 1440000         0.65    90.492435    90.492435    91.467434    170.87561    90.492435   0.97499938  1571373 
 1441000         0.65    90.492435    90.492435    91.467434    170.87561    90.492435   0.97499938  1571373 
 1442000         0.65    90.492435    90.492435    91.467434    170.87561    90.492435   0.97499938  1571373 
 1443000         0.65    90.492435    90.492435    91.467434    170.87561    90.492435   0.97499938  1571373 
 1444000         0.65    90.492435    90.492435    91.467434    170.87561    90.492435   0.97499938  1571373 
 1445000         0.65    90.492435    90.492435    91.467434    170.87561    90.492435   0.97499938  1571373 
 1446000         0.65    90.492435    90.492435    91.467434    170.87561    90.492435   0.97499938  1571373 
 1447000         0.65    90.492435    90.492435    91.467434    170.87561    90.492435   0.97499938  1571373 
 1448000         0.65    90.492435    90.492435    91.467434    170.87561    90.492435   0.97499938  1571373 
 1449000         0.65    90.492435    90.492435    91.467434    170.87561    90.492435   0.97499938  1571373 
 1450000         0.65    90.492435    90.492435    91.467434    170.87561    90.492435   0.97499938  1571373 
 1451000         0.65    90.492435    90.492435    91.467434    170.87561    90.492435   0.97499938  1571373 
 1452000         0.65    90.492435    90.492435    91.467434    170.87561    90.492435   0.97499938  1571373 
 1453000         0.65    90.492435    90.492435    91.467434    170.87561    90.492435   0.97499938  1571373 
 1454000         0.65    90.492435    90.492435    91.467434    170.87561    90.492435   0.97499938  1571373 
 1455000         0.65    90.492435    90.492435    91.467434    170.87561    90.492435   0.97499938  1571373 
 1456000         0.65    90.492435    90.492435    91.467434    170.87561    90.492435   0.97499938  1571373 
 1457000         0.65    90.492435    90.492435    91.467434    170.87561    90.492435   0.97499938  1571373 
 1458000         0.65    90.492435    90.492435    91.467434    170.87561    90.492435   0.97499938  1571373 
 1459000         0.65    90.492435    90.492435    91.467434    170.87561    90.492435   0.97499938  1571373 
 1460000         0.65    90.492435    90.492435    91.467434    170.87561    90.492435   0.97499938  1571373 
 1461000         0.65    90.492435    90.492435    91.467434    170.87561    90.492435   0.97499938  1571373 
 1462000         0.65    90.492435    90.492435    91.467434    170.87561    90.492435   0.97499938  1571373 
 1463000         0.65    90.492435    90.492435    91.467434    170.87561    90.492435   0.97499938  1571373 
 1464000         0.65    90.492435    90.492435    91.467434    170.87561    90.492435   0.97499938  1571373 
 1465000         0.65    90.492435    90.492435    91.467434    170.87561    90.492435   0.97499938  1571373 
 1466000         0.65    90.492435    90.492435    91.467434    170.87561    90.492435   0.97499938  1571373 
 1467000         0.65    90.492435    90.492435    91.467434    170.87561    90.492435   0.97499938  1571373 
 1468000         0.65    90.492435    90.492435    91.467434    170.87561    90.492435   0.97499938  1571373 
 1469000         0.65    90.492435    90.492435    91.467434    170.87561    90.492435   0.97499938  1571373 
 1470000         0.65    90.492435    90.492435    91.467434    170.87561    90.492435   0.97499938  1571373 
 1471000         0.65    90.492435    90.492435    91.467434    170.87561    90.492435   0.97499938  1571373 
 1472000         0.65    90.492435    90.492435    91.467434    170.87561    90.492435   0.97499938  1571373 
 1473000         0.65    90.492435    90.492435    91.467434    170.87561    90.492435   0.97499938  1571373 
 1474000         0.65    90.492435    90.492435    91.467434    170.87561    90.492435   0.97499938  1571373 
 1475000         0.65    90.492435    90.492435    91.467434    170.87561    90.492435   0.97499938  1571373 
 1476000         0.65    90.492435    90.492435    91.467434    170.87561    90.492435   0.97499938  1571373 
 1477000         0.65    90.492435    90.492435    91.467434    170.87561    90.492435   0.97499938  1571373 
 1478000         0.65    90.492435    90.492435    91.467434    170.87561    90.492435   0.97499938  1571373 
 1479000         0.65    90.492435    90.492435    91.467434    170.87561    90.492435   0.97499938  1571373 
 1480000         0.65    90.492435    90.492435    91.467434    170.87561    90.492435   0.97499938  1571373 
 1481000         0.65    90.492435    90.492435    91.467434    170.87561    90.492435   0.97499938  1571373 
 1482000         0.65    90.492435    90.492435    91.467434    170.87561    90.492435   0.97499938  1571373 
 1483000         0.65    90.492435    90.492435    91.467434    170.87561    90.492435   0.97499938  1571373 
 1484000         0.65    90.492435    90.492435    91.467434    170.87561    90.492435   0.97499938  1571373 
 1485000         0.65    90.492435    90.492435    91.467434    170.87561    90.492435   0.97499938  1571373 
 1486000         0.65    90.492435    90.492435    91.467434    170.87561    90.492435   0.97499938  1571373 
 1487000         0.65    90.492435    90.492435    91.467434    170.87561    90.492435   0.97499938  1571373 
 1488000         0.65    90.492435    90.492435    91.467434    170.87561    90.492435   0.97499938  1571373 
 1489000         0.65    90.492435    90.492435    91.467434    170.87561    90.492435   0.97499938  1571373 
 1490000         0.65    90.492435    90.492435    91.467434    170.87561    90.492435   0.97499938  1571373 
 1491000         0.65    90.492435    90.492435    91.467434    170.87561    90.492435   0.97499938  1571373 
 1492000         0.65    90.492435    90.492435    91.467434    170.87561    90.492435   0.97499938  1571373 
 1493000         0.65    90.492435    90.492435    91.467434    170.87561    90.492435   0.97499938  1571373 
 1494000         0.65    90.492435    90.492435    91.467434    170.87561    90.492435   0.97499938  1571373 
 1495000         0.65    90.492435    90.492435    91.467434    170.87561    90.492435   0.97499938  1571373 
 1496000         0.65    90.492435    90.492435    91.467434    170.87561    90.492435   0.97499938  1571373 
 1497000         0.65    90.492435    90.492435    91.467434    170.87561    90.492435   0.97499938  1571373 
 1498000         0.65    90.492435    90.492435    91.467434    170.87561    90.492435   0.97499938  1571373 
 1499000         0.65    90.492435    90.492435    91.467434    170.87561    90.492435   0.97499938  1571373 
 1500000         0.65    90.492435    90.492435    91.467434    170.87561    90.492435   0.97499938  1571373 
 1501000         0.65    90.492435    90.492435    91.467434    170.87561    90.492435   0.97499938  1571373 
 1502000         0.65    90.492435    90.492435    91.467434    170.87561    90.492435   0.97499938  1571373 
 1503000         0.65    90.492435    90.492435    91.467434    170.87561    90.492435   0.97499938  1571373 
 1504000         0.65    90.492435    90.492435    91.467434    170.87561    90.492435   0.97499938  1571373 
 1505000         0.65    90.492435    90.492435    91.467434    170.87561    90.492435   0.97499938  1571373 
 1506000         0.65    90.492435    90.492435    91.467434    170.87561    90.492435   0.97499938  1571373 
 1507000         0.65    90.492435    90.492435    91.467434    170.87561    90.492435   0.97499938  1571373 
 1508000         0.65    90.492435    90.492435    91.467434    170.87561    90.492435   0.97499938  1571373 
 1509000         0.65    90.492435    90.492435    91.467434    170.87561    90.492435   0.97499938  1571373 
 1510000         0.65    90.492435    90.492435    91.467434    170.87561    90.492435   0.97499938  1571373 
 1511000         0.65    90.492435    90.492435    91.467434    170.87561    90.492435   0.97499938  1571373 
 1512000         0.65    90.492435    90.492435    91.467434    170.87561    90.492435   0.97499938  1571373 
 1513000         0.65    90.492435    90.492435    91.467434    170.87561    90.492435   0.97499938  1571373 
 1514000         0.65    90.492435    90.492435    91.467434    170.87561    90.492435   0.97499938  1571373 
 1515000         0.65    90.492435    90.492435    91.467434    170.87561    90.492435   0.97499938  1571373 
 1516000         0.65    90.492435    90.492435    91.467434    170.87561    90.492435   0.97499938  1571373 
 1517000         0.65    90.492435    90.492435    91.467434    170.87561    90.492435   0.97499938  1571373 
 1518000         0.65    90.492435    90.492435    91.467434    170.87561    90.492435   0.97499938  1571373 
 1519000         0.65    90.492435    90.492435    91.467434    170.87561    90.492435   0.97499938  1571373 
 1520000         0.65    90.492435    90.492435    91.467434    170.87561    90.492435   0.97499938  1571373 
 1521000         0.65    90.492435    90.492435    91.467434    170.87561    90.492435   0.97499938  1571373 
 1522000         0.65    90.492435    90.492435    91.467434    170.87561    90.492435   0.97499938  1571373 
 1523000         0.65    90.492435    90.492435    91.467434    170.87561    90.492435   0.97499938  1571373 
 1524000         0.65    90.492435    90.492435    91.467434    170.87561    90.492435   0.97499938  1571373 
 1525000         0.65    90.492435    90.492435    91.467434    170.87561    90.492435   0.97499938  1571373 
 1526000         0.65    90.492435    90.492435    91.467434    170.87561    90.492435   0.97499938  1571373 
 1527000         0.65    90.492435    90.492435    91.467434    170.87561    90.492435   0.97499938  1571373 
 1528000         0.65    90.492435    90.492435    91.467434    170.87561    90.492435   0.97499938  1571373 
 1529000         0.65    90.492435    90.492435    91.467434    170.87561    90.492435   0.97499938  1571373 
 1530000         0.65    90.492435    90.492435    91.467434    170.87561    90.492435   0.97499938  1571373 
 1531000         0.65    90.492435    90.492435    91.467434    170.87561    90.492435   0.97499938  1571373 
 1532000         0.65    90.492435    90.492435    91.467434    170.87561    90.492435   0.97499938  1571373 
 1533000         0.65    90.492435    90.492435    91.467434    170.87561    90.492435   0.97499938  1571373 
 1534000         0.65    90.492435    90.492435    91.467434    170.87561    90.492435   0.97499938  1571373 
 1535000         0.65    90.492435    90.492435    91.467434    170.87561    90.492435   0.97499938  1571373 
 1536000         0.65    90.492435    90.492435    91.467434    170.87561    90.492435   0.97499938  1571373 
 1537000         0.65    90.492435    90.492435    91.467434    170.87561    90.492435   0.97499938  1571373 
 1538000         0.65    90.492435    90.492435    91.467434    170.87561    90.492435   0.97499938  1571373 
 1539000         0.65    90.492435    90.492435    91.467434    170.87561    90.492435   0.97499938  1571373 
 1540000         0.65    90.492435    90.492435    91.467434    170.87561    90.492435   0.97499938  1571373 
 1541000         0.65    90.492435    90.492435    91.467434    170.87561    90.492435   0.97499938  1571373 
 1542000         0.65    90.492435    90.492435    91.467434    170.87561    90.492435   0.97499938  1571373 
 1543000         0.65    90.492435    90.492435    91.467434    170.87561    90.492435   0.97499938  1571373 
 1544000         0.65    90.492435    90.492435    91.467434    170.87561    90.492435   0.97499938  1571373 
 1545000         0.65    90.492435    90.492435    91.467434    170.87561    90.492435   0.97499938  1571373 
 1546000         0.65    90.492435    90.492435    91.467434    170.87561    90.492435   0.97499938  1571373 
 1547000         0.65    90.492435    90.492435    91.467434    170.87561    90.492435   0.97499938  1571373 
 1548000         0.65    90.492435    90.492435    91.467434    170.87561    90.492435   0.97499938  1571373 
 1549000         0.65    90.492435    90.492435    91.467434    170.87561    90.492435   0.97499938  1571373 
 1550000         0.65    90.492435    90.492435    91.467434    170.87561    90.492435   0.97499938  1571373 
 1551000         0.65    90.492435    90.492435    91.467434    170.87561    90.492435   0.97499938  1571373 
 1552000         0.65    90.492435    90.492435    91.467434    170.87561    90.492435   0.97499938  1571373 
 1553000         0.65    90.492435    90.492435    91.467434    170.87561    90.492435   0.97499938  1571373 
 1554000         0.65    90.492435    90.492435    91.467434    170.87561    90.492435   0.97499938  1571373 
 1555000         0.65    90.492435    90.492435    91.467434    170.87561    90.492435   0.97499938  1571373 
 1556000         0.65    90.492435    90.492435    91.467434    170.87561    90.492435   0.97499938  1571373 
 1557000         0.65    90.492435    90.492435    91.467434    170.87561    90.492435   0.97499938  1571373 
 1558000         0.65    90.492435    90.492435    91.467434    170.87561    90.492435   0.97499938  1571373 
 1559000         0.65    90.492435    90.492435    91.467434    170.87561    90.492435   0.97499938  1571373 
 1560000         0.65    90.492435    90.492435    91.467434    170.87561    90.492435   0.97499938  1571373 
 1561000         0.65    90.492435    90.492435    91.467434    170.87561    90.492435   0.97499938  1571373 
 1562000         0.65    90.492435    90.492435    91.467434    170.87561    90.492435   0.97499938  1571373 
 1563000         0.65    90.492435    90.492435    91.467434    170.87561    90.492435   0.97499938  1571373 
 1564000         0.65    90.492435    90.492435    91.467434    170.87561    90.492435   0.97499938  1571373 
 1565000         0.65    90.492435    90.492435    91.467434    170.87561    90.492435   0.97499938  1571373 
 1566000         0.65    90.492435    90.492435    91.467434    170.87561    90.492435   0.97499938  1571373 
 1567000         0.65    90.492435    90.492435    91.467434    170.87561    90.492435   0.97499938  1571373 
 1568000         0.65    90.492435    90.492435    91.467434    170.87561    90.492435   0.97499938  1571373 
 1569000         0.65    90.492435    90.492435    91.467434    170.87561    90.492435   0.97499938  1571373 
 1570000         0.65    90.492435    90.492435    91.467434    170.87561    90.492435   0.97499938  1571373 
 1571000         0.65    90.492435    90.492435    91.467434    170.87561    90.492435   0.97499938  1571373 
 1572000         0.65    90.492435    90.492435    91.467434    170.87561    90.492435   0.97499938  1571373 
 1573000         0.65    90.492435    90.492435    91.467434    170.87561    90.492435   0.97499938  1571373 
 1574000         0.65    90.492435    90.492435    91.467434    170.87561    90.492435   0.97499938  1571373 
 1575000         0.65    90.492435    90.492435    91.467434    170.87561    90.492435   0.97499938  1571373 
 1576000         0.65    90.492435    90.492435    91.467434    170.87561    90.492435   0.97499938  1571373 
 1577000         0.65    90.492435    90.492435    91.467434    170.87561    90.492435   0.97499938  1571373 
 1578000         0.65    90.492435    90.492435    91.467434    170.87561    90.492435   0.97499938  1571373 
 1579000         0.65    90.492435    90.492435    91.467434    170.87561    90.492435   0.97499938  1571373 
 1580000         0.65    90.492435    90.492435    91.467434    170.87561    90.492435   0.97499938  1571373 
 1581000         0.65    90.492435    90.492435    91.467434    170.87561    90.492435   0.97499938  1571373 
 1582000         0.65    90.492435    90.492435    91.467434    170.87561    90.492435   0.97499938  1571373 
 1583000         0.65    90.492435    90.492435    91.467434    170.87561    90.492435   0.97499938  1571373 
 1584000         0.65    90.492435    90.492435    91.467434    170.87561    90.492435   0.97499938  1571373 
 1585000         0.65    90.492435    90.492435    91.467434    170.87561    90.492435   0.97499938  1571373 
 1586000         0.65    90.492435    90.492435    91.467434    170.87561    90.492435   0.97499938  1571373 
 1587000         0.65    90.492435    90.492435    91.467434    170.87561    90.492435   0.97499938  1571373 
 1588000         0.65    90.492435    90.492435    91.467434    170.87561    90.492435   0.97499938  1571373 
 1589000         0.65    90.492435    90.492435    91.467434    170.87561    90.492435   0.97499938  1571373 
 1590000         0.65    90.492435    90.492435    91.467434    170.87561    90.492435   0.97499938  1571373 
 1591000         0.65    90.492435    90.492435    91.467434    170.87561    90.492435   0.97499938  1571373 
 1592000         0.65    90.492435    90.492435    91.467434    170.87561    90.492435   0.97499938  1571373 
 1593000         0.65    90.492435    90.492435    91.467434    170.87561    90.492435   0.97499938  1571373 
 1594000         0.65    90.492435    90.492435    91.467434    170.87561    90.492435   0.97499938  1571373 
 1595000         0.65    90.492435    90.492435    91.467434    170.87561    90.492435   0.97499938  1571373 
 1596000         0.65    90.492435    90.492435    91.467434    170.87561    90.492435   0.97499938  1571373 
 1597000         0.65    90.492435    90.492435    91.467434    170.87561    90.492435   0.97499938  1571373 
 1598000         0.65    90.492435    90.492435    91.467434    170.87561    90.492435   0.97499938  1571373 
 1599000         0.65    90.492435    90.492435    91.467434    170.87561    90.492435   0.97499938  1571373 
 1600000         0.65    90.492435    90.492435    91.467434    170.87561    90.492435   0.97499938  1571373 
 1601000         0.65    90.492435    90.492435    91.467434    170.87561    90.492435   0.97499938  1571373 
 1602000         0.65    90.492435    90.492435    91.467434    170.87561    90.492435   0.97499938  1571373 
 1603000         0.65    90.492435    90.492435    91.467434    170.87561    90.492435   0.97499938  1571373 
 1604000         0.65    90.492435    90.492435    91.467434    170.87561    90.492435   0.97499938  1571373 
 1605000         0.65    90.492435    90.492435    91.467434    170.87561    90.492435   0.97499938  1571373 
 1606000         0.65    90.492435    90.492435    91.467434    170.87561    90.492435   0.97499938  1571373 
 1607000         0.65    90.492435    90.492435    91.467434    170.87561    90.492435   0.97499938  1571373 
 1608000         0.65    90.492435    90.492435    91.467434    170.87561    90.492435   0.97499938  1571373 
 1609000         0.65    90.492435    90.492435    91.467434    170.87561    90.492435   0.97499938  1571373 
 1610000         0.65    90.492435    90.492435    91.467434    170.87561    90.492435   0.97499938  1571373 
 1611000         0.65    90.492435    90.492435    91.467434    170.87561    90.492435   0.97499938  1571373 
 1612000         0.65    90.492435    90.492435    91.467434    170.87561    90.492435   0.97499938  1571373 
 1613000         0.65    90.492435    90.492435    91.467434    170.87561    90.492435   0.97499938  1571373 
 1614000         0.65    90.492435    90.492435    91.467434    170.87561    90.492435   0.97499938  1571373 
 1615000         0.65    90.492435    90.492435    91.467434    170.87561    90.492435   0.97499938  1571373 
 1616000         0.65    90.492435    90.492435    91.467434    170.87561    90.492435   0.97499938  1571373 
 1617000         0.65    90.492435    90.492435    91.467434    170.87561    90.492435   0.97499938  1571373 
 1618000         0.65    90.492435    90.492435    91.467434    170.87561    90.492435   0.97499938  1571373 
 1619000         0.65    90.492435    90.492435    91.467434    170.87561    90.492435   0.97499938  1571373 
 1620000         0.65    90.492435    90.492435    91.467434    170.87561    90.492435   0.97499938  1571373 
 1621000         0.65    90.492435    90.492435    91.467434    170.87561    90.492435   0.97499938  1571373 
 1622000         0.65    90.492435    90.492435    91.467434    170.87561    90.492435   0.97499938  1571373 
 1623000         0.65    90.492435    90.492435    91.467434    170.87561    90.492435   0.97499938  1571373 
 1624000         0.65    90.492435    90.492435    91.467434    170.87561    90.492435   0.97499938  1571373 
 1625000         0.65    90.492435    90.492435    91.467434    170.87561    90.492435   0.97499938  1571373 
 1626000         0.65    90.492435    90.492435    91.467434    170.87561    90.492435   0.97499938  1571373 
 1627000         0.65    90.492435    90.492435    91.467434    170.87561    90.492435   0.97499938  1571373 
 1628000         0.65    90.492435    90.492435    91.467434    170.87561    90.492435   0.97499938  1571373 
 1629000         0.65    90.492435    90.492435    91.467434    170.87561    90.492435   0.97499938  1571373 
 1630000         0.65    90.492435    90.492435    91.467434    170.87561    90.492435   0.97499938  1571373 
 1631000         0.65    90.492435    90.492435    91.467434    170.87561    90.492435   0.97499938  1571373 
 1632000         0.65    90.492435    90.492435    91.467434    170.87561    90.492435   0.97499938  1571373 
 1633000         0.65    90.492435    90.492435    91.467434    170.87561    90.492435   0.97499938  1571373 
 1634000         0.65    90.492435    90.492435    91.467434    170.87561    90.492435   0.97499938  1571373 
 1635000         0.65    90.492435    90.492435    91.467434    170.87561    90.492435   0.97499938  1571373 
 1636000         0.65    90.492435    90.492435    91.467434    170.87561    90.492435   0.97499938  1571373 
 1637000         0.65    90.492435    90.492435    91.467434    170.87561    90.492435   0.97499938  1571373 
 1638000         0.65    90.492435    90.492435    91.467434    170.87561    90.492435   0.97499938  1571373 
 1639000         0.65    90.492435    90.492435    91.467434    170.87561    90.492435   0.97499938  1571373 
 1640000         0.65    90.492435    90.492435    91.467434    170.87561    90.492435   0.97499938  1571373 
 1641000         0.65    90.492435    90.492435    91.467434    170.87561    90.492435   0.97499938  1571373 
 1642000         0.65    90.492435    90.492435    91.467434    170.87561    90.492435   0.97499938  1571373 
 1643000         0.65    90.492435    90.492435    91.467434    170.87561    90.492435   0.97499938  1571373 
 1644000         0.65    90.492435    90.492435    91.467434    170.87561    90.492435   0.97499938  1571373 
 1645000         0.65    90.492435    90.492435    91.467434    170.87561    90.492435   0.97499938  1571373 
 1646000         0.65    90.492435    90.492435    91.467434    170.87561    90.492435   0.97499938  1571373 
 1647000         0.65    90.492435    90.492435    91.467434    170.87561    90.492435   0.97499938  1571373 
 1648000         0.65    90.492435    90.492435    91.467434    170.87561    90.492435   0.97499938  1571373 
 1649000         0.65    90.492435    90.492435    91.467434    170.87561    90.492435   0.97499938  1571373 
 1650000         0.65    90.492435    90.492435    91.467434    170.87561    90.492435   0.97499938  1571373 
 1651000         0.65    90.492435    90.492435    91.467434    170.87561    90.492435   0.97499938  1571373 
 1652000         0.65    90.492435    90.492435    91.467434    170.87561    90.492435   0.97499938  1571373 
 1653000         0.65    90.492435    90.492435    91.467434    170.87561    90.492435   0.97499938  1571373 
 1654000         0.65    90.492435    90.492435    91.467434    170.87561    90.492435   0.97499938  1571373 
 1655000         0.65    90.492435    90.492435    91.467434    170.87561    90.492435   0.97499938  1571373 
 1656000         0.65    90.492435    90.492435    91.467434    170.87561    90.492435   0.97499938  1571373 
 1657000         0.65    90.492435    90.492435    91.467434    170.87561    90.492435   0.97499938  1571373 
 1658000         0.65    90.492435    90.492435    91.467434    170.87561    90.492435   0.97499938  1571373 
 1659000         0.65    90.492435    90.492435    91.467434    170.87561    90.492435   0.97499938  1571373 
 1660000         0.65    90.492435    90.492435    91.467434    170.87561    90.492435   0.97499938  1571373 
 1661000         0.65    90.492435    90.492435    91.467434    170.87561    90.492435   0.97499938  1571373 
 1662000         0.65    90.492435    90.492435    91.467434    170.87561    90.492435   0.97499938  1571373 
 1663000         0.65    90.492435    90.492435    91.467434    170.87561    90.492435   0.97499938  1571373 
 1664000         0.65    90.492435    90.492435    91.467434    170.87561    90.492435   0.97499938  1571373 
 1665000         0.65    90.492435    90.492435    91.467434    170.87561    90.492435   0.97499938  1571373 
 1666000         0.65    90.492435    90.492435    91.467434    170.87561    90.492435   0.97499938  1571373 
 1667000         0.65    90.492435    90.492435    91.467434    170.87561    90.492435   0.97499938  1571373 
 1668000         0.65    90.492435    90.492435    91.467434    170.87561    90.492435   0.97499938  1571373 
 1669000         0.65    90.492435    90.492435    91.467434    170.87561    90.492435   0.97499938  1571373 
 1670000         0.65    90.492435    90.492435    91.467434    170.87561    90.492435   0.97499938  1571373 
 1671000         0.65    90.492435    90.492435    91.467434    170.87561    90.492435   0.97499938  1571373 
 1672000         0.65    90.492435    90.492435    91.467434    170.87561    90.492435   0.97499938  1571373 
 1673000         0.65    90.492435    90.492435    91.467434    170.87561    90.492435   0.97499938  1571373 
 1674000         0.65    90.492435    90.492435    91.467434    170.87561    90.492435   0.97499938  1571373 
 1675000         0.65    90.492435    90.492435    91.467434    170.87561    90.492435   0.97499938  1571373 
 1676000         0.65    90.492435    90.492435    91.467434    170.87561    90.492435   0.97499938  1571373 
 1677000         0.65    90.492435    90.492435    91.467434    170.87561    90.492435   0.97499938  1571373 
 1678000         0.65    90.492435    90.492435    91.467434    170.87561    90.492435   0.97499938  1571373 
 1679000         0.65    90.492435    90.492435    91.467434    170.87561    90.492435   0.97499938  1571373 
 1680000         0.65    90.492435    90.492435    91.467434    170.87561    90.492435   0.97499938  1571373 
 1681000         0.65    90.492435    90.492435    91.467434    170.87561    90.492435   0.97499938  1571373 
 1682000         0.65    90.492435    90.492435    91.467434    170.87561    90.492435   0.97499938  1571373 
 1683000         0.65    90.492435    90.492435    91.467434    170.87561    90.492435   0.97499938  1571373 
 1684000         0.65    90.492435    90.492435    91.467434    170.87561    90.492435   0.97499938  1571373 
 1685000         0.65    90.492435    90.492435    91.467434    170.87561    90.492435   0.97499938  1571373 
 1686000         0.65    90.492435    90.492435    91.467434    170.87561    90.492435   0.97499938  1571373 
 1687000         0.65    90.492435    90.492435    91.467434    170.87561    90.492435   0.97499938  1571373 
 1688000         0.65    90.492435    90.492435    91.467434    170.87561    90.492435   0.97499938  1571373 
 1689000         0.65    90.492435    90.492435    91.467434    170.87561    90.492435   0.97499938  1571373 
 1690000         0.65    90.492435    90.492435    91.467434    170.87561    90.492435   0.97499938  1571373 
 1691000         0.65    90.492435    90.492435    91.467434    170.87561    90.492435   0.97499938  1571373 
 1692000         0.65    90.492435    90.492435    91.467434    170.87561    90.492435   0.97499938  1571373 
 1693000         0.65    90.492435    90.492435    91.467434    170.87561    90.492435   0.97499938  1571373 
 1694000         0.65    90.492435    90.492435    91.467434    170.87561    90.492435   0.97499938  1571373 
 1695000         0.65    90.492435    90.492435    91.467434    170.87561    90.492435   0.97499938  1571373 
 1696000         0.65    90.492435    90.492435    91.467434    170.87561    90.492435   0.97499938  1571373 
 1697000         0.65    90.492435    90.492435    91.467434    170.87561    90.492435   0.97499938  1571373 
 1698000         0.65    90.492435    90.492435    91.467434    170.87561    90.492435   0.97499938  1571373 
 1699000         0.65    90.492435    90.492435    91.467434    170.87561    90.492435   0.97499938  1571373 
 1700000         0.65    90.492435    90.492435    91.467434    170.87561    90.492435   0.97499938  1571373 
 1701000         0.65    90.492435    90.492435    91.467434    170.87561    90.492435   0.97499938  1571373 
 1702000         0.65    90.492435    90.492435    91.467434    170.87561    90.492435   0.97499938  1571373 
 1703000         0.65    90.492435    90.492435    91.467434    170.87561    90.492435   0.97499938  1571373 
 1704000         0.65    90.492435    90.492435    91.467434    170.87561    90.492435   0.97499938  1571373 
 1705000         0.65    90.492435    90.492435    91.467434    170.87561    90.492435   0.97499938  1571373 
 1706000         0.65    90.492435    90.492435    91.467434    170.87561    90.492435   0.97499938  1571373 
 1707000         0.65    90.492435    90.492435    91.467434    170.87561    90.492435   0.97499938  1571373 
 1708000         0.65    90.492435    90.492435    91.467434    170.87561    90.492435   0.97499938  1571373 
 1709000         0.65    90.492435    90.492435    91.467434    170.87561    90.492435   0.97499938  1571373 
 1710000         0.65    90.492435    90.492435    91.467434    170.87561    90.492435   0.97499938  1571373 
 1711000         0.65    90.492435    90.492435    91.467434    170.87561    90.492435   0.97499938  1571373 
 1712000         0.65    90.492435    90.492435    91.467434    170.87561    90.492435   0.97499938  1571373 
 1713000         0.65    90.492435    90.492435    91.467434    170.87561    90.492435   0.97499938  1571373 
 1714000         0.65    90.492435    90.492435    91.467434    170.87561    90.492435   0.97499938  1571373 
 1715000         0.65    90.492435    90.492435    91.467434    170.87561    90.492435   0.97499938  1571373 
 1716000         0.65    90.492435    90.492435    91.467434    170.87561    90.492435   0.97499938  1571373 
 1717000         0.65    90.492435    90.492435    91.467434    170.87561    90.492435   0.97499938  1571373 
 1718000         0.65    90.492435    90.492435    91.467434    170.87561    90.492435   0.97499938  1571373 
 1719000         0.65    90.492435    90.492435    91.467434    170.87561    90.492435   0.97499938  1571373 
 1720000         0.65    90.492435    90.492435    91.467434    170.87561    90.492435   0.97499938  1571373 
 1721000         0.65    90.492435    90.492435    91.467434    170.87561    90.492435   0.97499938  1571373 
 1722000         0.65    90.492435    90.492435    91.467434    170.87561    90.492435   0.97499938  1571373 
 1723000         0.65    90.492435    90.492435    91.467434    170.87561    90.492435   0.97499938  1571373 
 1724000         0.65    90.492435    90.492435    91.467434    170.87561    90.492435   0.97499938  1571373 
 1725000         0.65    90.492435    90.492435    91.467434    170.87561    90.492435   0.97499938  1571373 
 1726000         0.65    90.492435    90.492435    91.467434    170.87561    90.492435   0.97499938  1571373 
 1727000         0.65    90.492435    90.492435    91.467434    170.87561    90.492435   0.97499938  1571373 
 1728000         0.65    90.492435    90.492435    91.467434    170.87561    90.492435   0.97499938  1571373 
 1729000         0.65    90.492435    90.492435    91.467434    170.87561    90.492435   0.97499938  1571373 
 1730000         0.65    90.492435    90.492435    91.467434    170.87561    90.492435   0.97499938  1571373 
 1731000         0.65    90.492435    90.492435    91.467434    170.87561    90.492435   0.97499938  1571373 
 1732000         0.65    90.492435    90.492435    91.467434    170.87561    90.492435   0.97499938  1571373 
 1733000         0.65    90.492435    90.492435    91.467434    170.87561    90.492435   0.97499938  1571373 
 1734000         0.65    90.492435    90.492435    91.467434    170.87561    90.492435   0.97499938  1571373 
 1735000         0.65    90.492435    90.492435    91.467434    170.87561    90.492435   0.97499938  1571373 
 1736000         0.65    90.492435    90.492435    91.467434    170.87561    90.492435   0.97499938  1571373 
 1737000         0.65    90.492435    90.492435    91.467434    170.87561    90.492435   0.97499938  1571373 
 1738000         0.65    90.492435    90.492435    91.467434    170.87561    90.492435   0.97499938  1571373 
 1739000         0.65    90.492435    90.492435    91.467434    170.87561    90.492435   0.97499938  1571373 
 1740000         0.65    90.492435    90.492435    91.467434    170.87561    90.492435   0.97499938  1571373 
 1741000         0.65    90.492435    90.492435    91.467434    170.87561    90.492435   0.97499938  1571373 
 1742000         0.65    90.492435    90.492435    91.467434    170.87561    90.492435   0.97499938  1571373 
 1743000         0.65    90.492435    90.492435    91.467434    170.87561    90.492435   0.97499938  1571373 
 1744000         0.65    90.492435    90.492435    91.467434    170.87561    90.492435   0.97499938  1571373 
 1745000         0.65    90.492435    90.492435    91.467434    170.87561    90.492435   0.97499938  1571373 
 1746000         0.65    90.492435    90.492435    91.467434    170.87561    90.492435   0.97499938  1571373 
 1747000         0.65    90.492435    90.492435    91.467434    170.87561    90.492435   0.97499938  1571373 
 1748000         0.65    90.492435    90.492435    91.467434    170.87561    90.492435   0.97499938  1571373 
 1749000         0.65    90.492435    90.492435    91.467434    170.87561    90.492435   0.97499938  1571373 
 1750000         0.65    90.492435    90.492435    91.467434    170.87561    90.492435   0.97499938  1571373 
 1751000         0.65    90.492435    90.492435    91.467434    170.87561    90.492435   0.97499938  1571373 
 1752000         0.65    90.492435    90.492435    91.467434    170.87561    90.492435   0.97499938  1571373 
 1753000         0.65    90.492435    90.492435    91.467434    170.87561    90.492435   0.97499938  1571373 
 1754000         0.65    90.492435    90.492435    91.467434    170.87561    90.492435   0.97499938  1571373 
 1755000         0.65    90.492435    90.492435    91.467434    170.87561    90.492435   0.97499938  1571373 
 1756000         0.65    90.492435    90.492435    91.467434    170.87561    90.492435   0.97499938  1571373 
 1757000         0.65    90.492435    90.492435    91.467434    170.87561    90.492435   0.97499938  1571373 
 1758000         0.65    90.492435    90.492435    91.467434    170.87561    90.492435   0.97499938  1571373 
 1759000         0.65    90.492435    90.492435    91.467434    170.87561    90.492435   0.97499938  1571373 
 1760000         0.65    90.492435    90.492435    91.467434    170.87561    90.492435   0.97499938  1571373 
 1761000         0.65    90.492435    90.492435    91.467434    170.87561    90.492435   0.97499938  1571373 
 1762000         0.65    90.492435    90.492435    91.467434    170.87561    90.492435   0.97499938  1571373 
 1763000         0.65    90.492435    90.492435    91.467434    170.87561    90.492435   0.97499938  1571373 
 1764000         0.65    90.492435    90.492435    91.467434    170.87561    90.492435   0.97499938  1571373 
 1765000         0.65    90.492435    90.492435    91.467434    170.87561    90.492435   0.97499938  1571373 
 1766000         0.65    90.492435    90.492435    91.467434    170.87561    90.492435   0.97499938  1571373 
 1767000         0.65    90.492435    90.492435    91.467434    170.87561    90.492435   0.97499938  1571373 
 1768000         0.65    90.492435    90.492435    91.467434    170.87561    90.492435   0.97499938  1571373 
 1769000         0.65    90.492435    90.492435    91.467434    170.87561    90.492435   0.97499938  1571373 
 1770000         0.65    90.492435    90.492435    91.467434    170.87561    90.492435   0.97499938  1571373 
 1771000         0.65    90.492435    90.492435    91.467434    170.87561    90.492435   0.97499938  1571373 
 1772000         0.65    90.492435    90.492435    91.467434    170.87561    90.492435   0.97499938  1571373 
 1773000         0.65    90.492435    90.492435    91.467434    170.87561    90.492435   0.97499938  1571373 
 1774000         0.65    90.492435    90.492435    91.467434    170.87561    90.492435   0.97499938  1571373 
 1775000         0.65    90.492435    90.492435    91.467434    170.87561    90.492435   0.97499938  1571373 
 1776000         0.65    90.492435    90.492435    91.467434    170.87561    90.492435   0.97499938  1571373 
 1777000         0.65    90.492435    90.492435    91.467434    170.87561    90.492435   0.97499938  1571373 
 1778000         0.65    90.492435    90.492435    91.467434    170.87561    90.492435   0.97499938  1571373 
 1779000         0.65    90.492435    90.492435    91.467434    170.87561    90.492435   0.97499938  1571373 
 1780000         0.65    90.492435    90.492435    91.467434    170.87561    90.492435   0.97499938  1571373 
 1781000         0.65    90.492435    90.492435    91.467434    170.87561    90.492435   0.97499938  1571373 
 1782000         0.65    90.492435    90.492435    91.467434    170.87561    90.492435   0.97499938  1571373 
 1783000         0.65    90.492435    90.492435    91.467434    170.87561    90.492435   0.97499938  1571373 
 1784000         0.65    90.492435    90.492435    91.467434    170.87561    90.492435   0.97499938  1571373 
 1785000         0.65    90.492435    90.492435    91.467434    170.87561    90.492435   0.97499938  1571373 
 1786000         0.65    90.492435    90.492435    91.467434    170.87561    90.492435   0.97499938  1571373 
 1787000         0.65    90.492435    90.492435    91.467434    170.87561    90.492435   0.97499938  1571373 
 1788000         0.65    90.492435    90.492435    91.467434    170.87561    90.492435   0.97499938  1571373 
 1789000         0.65    90.492435    90.492435    91.467434    170.87561    90.492435   0.97499938  1571373 
 1790000         0.65    90.492435    90.492435    91.467434    170.87561    90.492435   0.97499938  1571373 
 1791000         0.65    90.492435    90.492435    91.467434    170.87561    90.492435   0.97499938  1571373 
 1792000         0.65    90.492435    90.492435    91.467434    170.87561    90.492435   0.97499938  1571373 
 1793000         0.65    90.492435    90.492435    91.467434    170.87561    90.492435   0.97499938  1571373 
 1794000         0.65    90.492435    90.492435    91.467434    170.87561    90.492435   0.97499938  1571373 
 1795000         0.65    90.492435    90.492435    91.467434    170.87561    90.492435   0.97499938  1571373 
 1796000         0.65    90.492435    90.492435    91.467434    170.87561    90.492435   0.97499938  1571373 
 1797000         0.65    90.492435    90.492435    91.467434    170.87561    90.492435   0.97499938  1571373 
 1798000         0.65    90.492435    90.492435    91.467434    170.87561    90.492435   0.97499938  1571373 
 1799000         0.65    90.492435    90.492435    91.467434    170.87561    90.492435   0.97499938  1571373 
 1800000         0.65    90.492435    90.492435    91.467434    170.87561    90.492435   0.97499938  1571373 
 1801000         0.65    90.492435    90.492435    91.467434    170.87561    90.492435   0.97499938  1571373 
 1802000         0.65    90.492435    90.492435    91.467434    170.87561    90.492435   0.97499938  1571373 
 1803000         0.65    90.492435    90.492435    91.467434    170.87561    90.492435   0.97499938  1571373 
 1804000         0.65    90.492435    90.492435    91.467434    170.87561    90.492435   0.97499938  1571373 
 1805000         0.65    90.492435    90.492435    91.467434    170.87561    90.492435   0.97499938  1571373 
 1806000         0.65    90.492435    90.492435    91.467434    170.87561    90.492435   0.97499938  1571373 
 1807000         0.65    90.492435    90.492435    91.467434    170.87561    90.492435   0.97499938  1571373 
 1808000         0.65    90.492435    90.492435    91.467434    170.87561    90.492435   0.97499938  1571373 
 1809000         0.65    90.492435    90.492435    91.467434    170.87561    90.492435   0.97499938  1571373 
 1810000         0.65    90.492435    90.492435    91.467434    170.87561    90.492435   0.97499938  1571373 
 1811000         0.65    90.492435    90.492435    91.467434    170.87561    90.492435   0.97499938  1571373 
 1812000         0.65    90.492435    90.492435    91.467434    170.87561    90.492435   0.97499938  1571373 
 1813000         0.65    90.492435    90.492435    91.467434    170.87561    90.492435   0.97499938  1571373 
 1814000         0.65    90.492435    90.492435    91.467434    170.87561    90.492435   0.97499938  1571373 
 1815000         0.65    90.492435    90.492435    91.467434    170.87561    90.492435   0.97499938  1571373 
 1816000         0.65    90.492435    90.492435    91.467434    170.87561    90.492435   0.97499938  1571373 
 1817000         0.65    90.492435    90.492435    91.467434    170.87561    90.492435   0.97499938  1571373 
 1818000         0.65    90.492435    90.492435    91.467434    170.87561    90.492435   0.97499938  1571373 
 1819000         0.65    90.492435    90.492435    91.467434    170.87561    90.492435   0.97499938  1571373 
 1820000         0.65    90.492435    90.492435    91.467434    170.87561    90.492435   0.97499938  1571373 
 1821000         0.65    90.492435    90.492435    91.467434    170.87561    90.492435   0.97499938  1571373 
 1822000         0.65    90.492435    90.492435    91.467434    170.87561    90.492435   0.97499938  1571373 
 1823000         0.65    90.492435    90.492435    91.467434    170.87561    90.492435   0.97499938  1571373 
 1824000         0.65    90.492435    90.492435    91.467434    170.87561    90.492435   0.97499938  1571373 
 1825000         0.65    90.492435    90.492435    91.467434    170.87561    90.492435   0.97499938  1571373 
 1826000         0.65    90.492435    90.492435    91.467434    170.87561    90.492435   0.97499938  1571373 
 1827000         0.65    90.492435    90.492435    91.467434    170.87561    90.492435   0.97499938  1571373 
 1828000         0.65    90.492435    90.492435    91.467434    170.87561    90.492435   0.97499938  1571373 
 1829000         0.65    90.492435    90.492435    91.467434    170.87561    90.492435   0.97499938  1571373 
 1830000         0.65    90.492435    90.492435    91.467434    170.87561    90.492435   0.97499938  1571373 
 1831000         0.65    90.492435    90.492435    91.467434    170.87561    90.492435   0.97499938  1571373 
 1832000         0.65    90.492435    90.492435    91.467434    170.87561    90.492435   0.97499938  1571373 
 1833000         0.65    90.492435    90.492435    91.467434    170.87561    90.492435   0.97499938  1571373 
 1834000         0.65    90.492435    90.492435    91.467434    170.87561    90.492435   0.97499938  1571373 
 1835000         0.65    90.492435    90.492435    91.467434    170.87561    90.492435   0.97499938  1571373 
 1836000         0.65    90.492435    90.492435    91.467434    170.87561    90.492435   0.97499938  1571373 
 1837000         0.65    90.492435    90.492435    91.467434    170.87561    90.492435   0.97499938  1571373 
 1838000         0.65    90.492435    90.492435    91.467434    170.87561    90.492435   0.97499938  1571373 
 1839000         0.65    90.492435    90.492435    91.467434    170.87561    90.492435   0.97499938  1571373 
 1840000         0.65    90.492435    90.492435    91.467434    170.87561    90.492435   0.97499938  1571373 
 1841000         0.65    90.492435    90.492435    91.467434    170.87561    90.492435   0.97499938  1571373 
 1842000         0.65    90.492435    90.492435    91.467434    170.87561    90.492435   0.97499938  1571373 
 1843000         0.65    90.492435    90.492435    91.467434    170.87561    90.492435   0.97499938  1571373 
 1844000         0.65    90.492435    90.492435    91.467434    170.87561    90.492435   0.97499938  1571373 
 1845000         0.65    90.492435    90.492435    91.467434    170.87561    90.492435   0.97499938  1571373 
 1846000         0.65    90.492435    90.492435    91.467434    170.87561    90.492435   0.97499938  1571373 
 1847000         0.65    90.492435    90.492435    91.467434    170.87561    90.492435   0.97499938  1571373 
 1848000         0.65    90.492435    90.492435    91.467434    170.87561    90.492435   0.97499938  1571373 
 1849000         0.65    90.492435    90.492435    91.467434    170.87561    90.492435   0.97499938  1571373 
 1850000         0.65    90.492435    90.492435    91.467434    170.87561    90.492435   0.97499938  1571373 
 1851000         0.65    90.492435    90.492435    91.467434    170.87561    90.492435   0.97499938  1571373 
 1852000         0.65    90.492435    90.492435    91.467434    170.87561    90.492435   0.97499938  1571373 
 1853000         0.65    90.492435    90.492435    91.467434    170.87561    90.492435   0.97499938  1571373 
 1854000         0.65    90.492435    90.492435    91.467434    170.87561    90.492435   0.97499938  1571373 
 1855000         0.65    90.492435    90.492435    91.467434    170.87561    90.492435   0.97499938  1571373 
 1856000         0.65    90.492435    90.492435    91.467434    170.87561    90.492435   0.97499938  1571373 
 1857000         0.65    90.492435    90.492435    91.467434    170.87561    90.492435   0.97499938  1571373 
 1858000         0.65    90.492435    90.492435    91.467434    170.87561    90.492435   0.97499938  1571373 
 1859000         0.65    90.492435    90.492435    91.467434    170.87561    90.492435   0.97499938  1571373 
 1860000         0.65    90.492435    90.492435    91.467434    170.87561    90.492435   0.97499938  1571373 
 1861000         0.65    90.492435    90.492435    91.467434    170.87561    90.492435   0.97499938  1571373 
 1862000         0.65    90.492435    90.492435    91.467434    170.87561    90.492435   0.97499938  1571373 
 1863000         0.65    90.492435    90.492435    91.467434    170.87561    90.492435   0.97499938  1571373 
 1864000         0.65    90.492435    90.492435    91.467434    170.87561    90.492435   0.97499938  1571373 
 1865000         0.65    90.492435    90.492435    91.467434    170.87561    90.492435   0.97499938  1571373 
 1866000         0.65    90.492435    90.492435    91.467434    170.87561    90.492435   0.97499938  1571373 
 1867000         0.65    90.492435    90.492435    91.467434    170.87561    90.492435   0.97499938  1571373 
 1868000         0.65    90.492435    90.492435    91.467434    170.87561    90.492435   0.97499938  1571373 
 1869000         0.65    90.492435    90.492435    91.467434    170.87561    90.492435   0.97499938  1571373 
 1870000         0.65    90.492435    90.492435    91.467434    170.87561    90.492435   0.97499938  1571373 
 1871000         0.65    90.492435    90.492435    91.467434    170.87561    90.492435   0.97499938  1571373 
 1872000         0.65    90.492435    90.492435    91.467434    170.87561    90.492435   0.97499938  1571373 
 1873000         0.65    90.492435    90.492435    91.467434    170.87561    90.492435   0.97499938  1571373 
 1874000         0.65    90.492435    90.492435    91.467434    170.87561    90.492435   0.97499938  1571373 
 1875000         0.65    90.492435    90.492435    91.467434    170.87561    90.492435   0.97499938  1571373 
 1876000         0.65    90.492435    90.492435    91.467434    170.87561    90.492435   0.97499938  1571373 
 1877000         0.65    90.492435    90.492435    91.467434    170.87561    90.492435   0.97499938  1571373 
 1878000         0.65    90.492435    90.492435    91.467434    170.87561    90.492435   0.97499938  1571373 
 1879000         0.65    90.492435    90.492435    91.467434    170.87561    90.492435   0.97499938  1571373 
 1880000         0.65    90.492435    90.492435    91.467434    170.87561    90.492435   0.97499938  1571373 
 1881000         0.65    90.492435    90.492435    91.467434    170.87561    90.492435   0.97499938  1571373 
 1882000         0.65    90.492435    90.492435    91.467434    170.87561    90.492435   0.97499938  1571373 
 1883000         0.65    90.492435    90.492435    91.467434    170.87561    90.492435   0.97499938  1571373 
 1884000         0.65    90.492435    90.492435    91.467434    170.87561    90.492435   0.97499938  1571373 
 1885000         0.65    90.492435    90.492435    91.467434    170.87561    90.492435   0.97499938  1571373 
 1886000         0.65    90.492435    90.492435    91.467434    170.87561    90.492435   0.97499938  1571373 
 1887000         0.65    90.492435    90.492435    91.467434    170.87561    90.492435   0.97499938  1571373 
 1888000         0.65    90.492435    90.492435    91.467434    170.87561    90.492435   0.97499938  1571373 
 1889000         0.65    90.492435    90.492435    91.467434    170.87561    90.492435   0.97499938  1571373 
 1890000         0.65    90.492435    90.492435    91.467434    170.87561    90.492435   0.97499938  1571373 
 1891000         0.65    90.492435    90.492435    91.467434    170.87561    90.492435   0.97499938  1571373 
 1892000         0.65    90.492435    90.492435    91.467434    170.87561    90.492435   0.97499938  1571373 
 1893000         0.65    90.492435    90.492435    91.467434    170.87561    90.492435   0.97499938  1571373 
 1894000         0.65    90.492435    90.492435    91.467434    170.87561    90.492435   0.97499938  1571373 
 1895000         0.65    90.492435    90.492435    91.467434    170.87561    90.492435   0.97499938  1571373 
 1896000         0.65    90.492435    90.492435    91.467434    170.87561    90.492435   0.97499938  1571373 
 1897000         0.65    90.492435    90.492435    91.467434    170.87561    90.492435   0.97499938  1571373 
 1898000         0.65    90.492435    90.492435    91.467434    170.87561    90.492435   0.97499938  1571373 
 1899000         0.65    90.492435    90.492435    91.467434    170.87561    90.492435   0.97499938  1571373 
 1900000         0.65    90.492435    90.492435    91.467434    170.87561    90.492435   0.97499938  1571373 
 1901000         0.65    90.492435    90.492435    91.467434    170.87561    90.492435   0.97499938  1571373 
 1902000         0.65    90.492435    90.492435    91.467434    170.87561    90.492435   0.97499938  1571373 
 1903000         0.65    90.492435    90.492435    91.467434    170.87561    90.492435   0.97499938  1571373 
 1904000         0.65    90.492435    90.492435    91.467434    170.87561    90.492435   0.97499938  1571373 
 1905000         0.65    90.492435    90.492435    91.467434    170.87561    90.492435   0.97499938  1571373 
 1906000         0.65    90.492435    90.492435    91.467434    170.87561    90.492435   0.97499938  1571373 
 1907000         0.65    90.492435    90.492435    91.467434    170.87561    90.492435   0.97499938  1571373 
 1908000         0.65    90.492435    90.492435    91.467434    170.87561    90.492435   0.97499938  1571373 
 1909000         0.65    90.492435    90.492435    91.467434    170.87561    90.492435   0.97499938  1571373 
 1910000         0.65    90.492435    90.492435    91.467434    170.87561    90.492435   0.97499938  1571373 
 1911000         0.65    90.492435    90.492435    91.467434    170.87561    90.492435   0.97499938  1571373 
 1912000         0.65    90.492435    90.492435    91.467434    170.87561    90.492435   0.97499938  1571373 
 1913000         0.65    90.492435    90.492435    91.467434    170.87561    90.492435   0.97499938  1571373 
 1914000         0.65    90.492435    90.492435    91.467434    170.87561    90.492435   0.97499938  1571373 
 1915000         0.65    90.492435    90.492435    91.467434    170.87561    90.492435   0.97499938  1571373 
 1916000         0.65    90.492435    90.492435    91.467434    170.87561    90.492435   0.97499938  1571373 
 1917000         0.65    90.492435    90.492435    91.467434    170.87561    90.492435   0.97499938  1571373 
 1918000         0.65    90.492435    90.492435    91.467434    170.87561    90.492435   0.97499938  1571373 
 1919000         0.65    90.492435    90.492435    91.467434    170.87561    90.492435   0.97499938  1571373 
 1920000         0.65    90.492435    90.492435    91.467434    170.87561    90.492435   0.97499938  1571373 
 1921000         0.65    90.492435    90.492435    91.467434    170.87561    90.492435   0.97499938  1571373 
 1922000         0.65    90.492435    90.492435    91.467434    170.87561    90.492435   0.97499938  1571373 
 1923000         0.65    90.492435    90.492435    91.467434    170.87561    90.492435   0.97499938  1571373 
 1924000         0.65    90.492435    90.492435    91.467434    170.87561    90.492435   0.97499938  1571373 
 1925000         0.65    90.492435    90.492435    91.467434    170.87561    90.492435   0.97499938  1571373 
 1926000         0.65    90.492435    90.492435    91.467434    170.87561    90.492435   0.97499938  1571373 
 1927000         0.65    90.492435    90.492435    91.467434    170.87561    90.492435   0.97499938  1571373 
 1928000         0.65    90.492435    90.492435    91.467434    170.87561    90.492435   0.97499938  1571373 
 1929000         0.65    90.492435    90.492435    91.467434    170.87561    90.492435   0.97499938  1571373 
 1930000         0.65    90.492435    90.492435    91.467434    170.87561    90.492435   0.97499938  1571373 
 1931000         0.65    90.492435    90.492435    91.467434    170.87561    90.492435   0.97499938  1571373 
 1932000         0.65    90.492435    90.492435    91.467434    170.87561    90.492435   0.97499938  1571373 
 1933000         0.65    90.492435    90.492435    91.467434    170.87561    90.492435   0.97499938  1571373 
 1934000         0.65    90.492435    90.492435    91.467434    170.87561    90.492435   0.97499938  1571373 
 1935000         0.65    90.492435    90.492435    91.467434    170.87561    90.492435   0.97499938  1571373 
 1936000         0.65    90.492435    90.492435    91.467434    170.87561    90.492435   0.97499938  1571373 
 1937000         0.65    90.492435    90.492435    91.467434    170.87561    90.492435   0.97499938  1571373 
 1938000         0.65    90.492435    90.492435    91.467434    170.87561    90.492435   0.97499938  1571373 
 1939000         0.65    90.492435    90.492435    91.467434    170.87561    90.492435   0.97499938  1571373 
 1940000         0.65    90.492435    90.492435    91.467434    170.87561    90.492435   0.97499938  1571373 
 1941000         0.65    90.492435    90.492435    91.467434    170.87561    90.492435   0.97499938  1571373 
 1942000         0.65    90.492435    90.492435    91.467434    170.87561    90.492435   0.97499938  1571373 
 1943000         0.65    90.492435    90.492435    91.467434    170.87561    90.492435   0.97499938  1571373 
 1944000         0.65    90.492435    90.492435    91.467434    170.87561    90.492435   0.97499938  1571373 
 1945000         0.65    90.492435    90.492435    91.467434    170.87561    90.492435   0.97499938  1571373 
 1946000         0.65    90.492435    90.492435    91.467434    170.87561    90.492435   0.97499938  1571373 
 1947000         0.65    90.492435    90.492435    91.467434    170.87561    90.492435   0.97499938  1571373 
 1948000         0.65    90.492435    90.492435    91.467434    170.87561    90.492435   0.97499938  1571373 
 1949000         0.65    90.492435    90.492435    91.467434    170.87561    90.492435   0.97499938  1571373 
 1950000         0.65    90.492435    90.492435    91.467434    170.87561    90.492435   0.97499938  1571373 
 1951000         0.65    90.492435    90.492435    91.467434    170.87561    90.492435   0.97499938  1571373 
 1952000         0.65    90.492435    90.492435    91.467434    170.87561    90.492435   0.97499938  1571373 
 1953000         0.65    90.492435    90.492435    91.467434    170.87561    90.492435   0.97499938  1571373 
 1954000         0.65    90.492435    90.492435    91.467434    170.87561    90.492435   0.97499938  1571373 
 1955000         0.65    90.492435    90.492435    91.467434    170.87561    90.492435   0.97499938  1571373 
 1956000         0.65    90.492435    90.492435    91.467434    170.87561    90.492435   0.97499938  1571373 
 1957000         0.65    90.492435    90.492435    91.467434    170.87561    90.492435   0.97499938  1571373 
 1958000         0.65    90.492435    90.492435    91.467434    170.87561    90.492435   0.97499938  1571373 
 1959000         0.65    90.492435    90.492435    91.467434    170.87561    90.492435   0.97499938  1571373 
 1960000         0.65    90.492435    90.492435    91.467434    170.87561    90.492435   0.97499938  1571373 
 1961000         0.65    90.492435    90.492435    91.467434    170.87561    90.492435   0.97499938  1571373 
 1962000         0.65    90.492435    90.492435    91.467434    170.87561    90.492435   0.97499938  1571373 
 1963000         0.65    90.492435    90.492435    91.467434    170.87561    90.492435   0.97499938  1571373 
 1964000         0.65    90.492435    90.492435    91.467434    170.87561    90.492435   0.97499938  1571373 
 1965000         0.65    90.492435    90.492435    91.467434    170.87561    90.492435   0.97499938  1571373 
 1966000         0.65    90.492435    90.492435    91.467434    170.87561    90.492435   0.97499938  1571373 
 1967000         0.65    90.492435    90.492435    91.467434    170.87561    90.492435   0.97499938  1571373 
 1968000         0.65    90.492435    90.492435    91.467434    170.87561    90.492435   0.97499938  1571373 
 1969000         0.65    90.492435    90.492435    91.467434    170.87561    90.492435   0.97499938  1571373 
 1970000         0.65    90.492435    90.492435    91.467434    170.87561    90.492435   0.97499938  1571373 
 1971000         0.65    90.492435    90.492435    91.467434    170.87561    90.492435   0.97499938  1571373 
 1972000         0.65    90.492435    90.492435    91.467434    170.87561    90.492435   0.97499938  1571373 
 1973000         0.65    90.492435    90.492435    91.467434    170.87561    90.492435   0.97499938  1571373 
 1974000         0.65    90.492435    90.492435    91.467434    170.87561    90.492435   0.97499938  1571373 
 1975000         0.65    90.492435    90.492435    91.467434    170.87561    90.492435   0.97499938  1571373 
 1976000         0.65    90.492435    90.492435    91.467434    170.87561    90.492435   0.97499938  1571373 
 1977000         0.65    90.492435    90.492435    91.467434    170.87561    90.492435   0.97499938  1571373 
 1978000         0.65    90.492435    90.492435    91.467434    170.87561    90.492435   0.97499938  1571373 
 1979000         0.65    90.492435    90.492435    91.467434    170.87561    90.492435   0.97499938  1571373 
 1980000         0.65    90.492435    90.492435    91.467434    170.87561    90.492435   0.97499938  1571373 
 1981000         0.65    90.492435    90.492435    91.467434    170.87561    90.492435   0.97499938  1571373 
 1982000         0.65    90.492435    90.492435    91.467434    170.87561    90.492435   0.97499938  1571373 
 1983000         0.65    90.492435    90.492435    91.467434    170.87561    90.492435   0.97499938  1571373 
 1984000         0.65    90.492435    90.492435    91.467434    170.87561    90.492435   0.97499938  1571373 
 1985000         0.65    90.492435    90.492435    91.467434    170.87561    90.492435   0.97499938  1571373 
 1986000         0.65    90.492435    90.492435    91.467434    170.87561    90.492435   0.97499938  1571373 
 1987000         0.65    90.492435    90.492435    91.467434    170.87561    90.492435   0.97499938  1571373 
 1988000         0.65    90.492435    90.492435    91.467434    170.87561    90.492435   0.97499938  1571373 
 1989000         0.65    90.492435    90.492435    91.467434    170.87561    90.492435   0.97499938  1571373 
 1990000         0.65    90.492435    90.492435    91.467434    170.87561    90.492435   0.97499938  1571373 
 1991000         0.65    90.492435    90.492435    91.467434    170.87561    90.492435   0.97499938  1571373 
 1992000         0.65    90.492435    90.492435    91.467434    170.87561    90.492435   0.97499938  1571373 
 1993000         0.65    90.492435    90.492435    91.467434    170.87561    90.492435   0.97499938  1571373 
 1994000         0.65    90.492435    90.492435    91.467434    170.87561    90.492435   0.97499938  1571373 
 1995000         0.65    90.492435    90.492435    91.467434    170.87561    90.492435   0.97499938  1571373 
 1996000         0.65    90.492435    90.492435    91.467434    170.87561    90.492435   0.97499938  1571373 
 1997000         0.65    90.492435    90.492435    91.467434    170.87561    90.492435   0.97499938  1571373 
 1998000         0.65    90.492435    90.492435    91.467434    170.87561    90.492435   0.97499938  1571373 
 1999000         0.65    90.492435    90.492435    91.467434    170.87561    90.492435   0.97499938  1571373 
 2000000         0.65    90.492435    90.492435    91.467434    170.87561    90.492435   0.97499938  1571373 
 2001000         0.65    90.492435    90.492435    91.467434    170.87561    90.492435   0.97499938  1571373 
 2002000         0.65    90.492435    90.492435    91.467434    170.87561    90.492435   0.97499938  1571373 
 2003000         0.65    90.492435    90.492435    91.467434    170.87561    90.492435   0.97499938  1571373 
 2004000         0.65    90.492435    90.492435    91.467434    170.87561    90.492435   0.97499938  1571373 
 2005000         0.65    90.492435    90.492435    91.467434    170.87561    90.492435   0.97499938  1571373 
 2006000         0.65    90.492435    90.492435    91.467434    170.87561    90.492435   0.97499938  1571373 
 2007000         0.65    90.492435    90.492435    91.467434    170.87561    90.492435   0.97499938  1571373 
 2008000         0.65    90.492435    90.492435    91.467434    170.87561    90.492435   0.97499938  1571373 
 2009000         0.65    90.492435    90.492435    91.467434    170.87561    90.492435   0.97499938  1571373 
 2010000         0.65    90.492435    90.492435    91.467434    170.87561    90.492435   0.97499938  1571373 
 2011000         0.65    90.492435    90.492435    91.467434    170.87561    90.492435   0.97499938  1571373 
 2012000         0.65    90.492435    90.492435    91.467434    170.87561    90.492435   0.97499938  1571373 
 2013000         0.65    90.492435    90.492435    91.467434    170.87561    90.492435   0.97499938  1571373 
 2014000         0.65    90.492435    90.492435    91.467434    170.87561    90.492435   0.97499938  1571373 
 2015000         0.65    90.492435    90.492435    91.467434    170.87561    90.492435   0.97499938  1571373 
 2016000         0.65    90.492435    90.492435    91.467434    170.87561    90.492435   0.97499938  1571373 
 2017000         0.65    90.492435    90.492435    91.467434    170.87561    90.492435   0.97499938  1571373 
 2018000         0.65    90.492435    90.492435    91.467434    170.87561    90.492435   0.97499938  1571373 
 2019000         0.65    90.492435    90.492435    91.467434    170.87561    90.492435   0.97499938  1571373 
 2020000         0.65    90.492435    90.492435    91.467434    170.87561    90.492435   0.97499938  1571373 
 2021000         0.65    90.492435    90.492435    91.467434    170.87561    90.492435   0.97499938  1571373 
 2022000         0.65    90.492435    90.492435    91.467434    170.87561    90.492435   0.97499938  1571373 
 2023000         0.65    90.492435    90.492435    91.467434    170.87561    90.492435   0.97499938  1571373 
 2024000         0.65    90.492435    90.492435    91.467434    170.87561    90.492435   0.97499938  1571373 
 2025000         0.65    90.492435    90.492435    91.467434    170.87561    90.492435   0.97499938  1571373 
 2026000         0.65    90.492435    90.492435    91.467434    170.87561    90.492435   0.97499938  1571373 
 2027000         0.65    90.492435    90.492435    91.467434    170.87561    90.492435   0.97499938  1571373 
 2028000         0.65    90.492435    90.492435    91.467434    170.87561    90.492435   0.97499938  1571373 
 2029000         0.65    90.492435    90.492435    91.467434    170.87561    90.492435   0.97499938  1571373 
 2030000         0.65    90.492435    90.492435    91.467434    170.87561    90.492435   0.97499938  1571373 
 2031000         0.65    90.492435    90.492435    91.467434    170.87561    90.492435   0.97499938  1571373 
 2032000         0.65    90.492435    90.492435    91.467434    170.87561    90.492435   0.97499938  1571373 
 2033000         0.65    90.492435    90.492435    91.467434    170.87561    90.492435   0.97499938  1571373 
 2034000         0.65    90.492435    90.492435    91.467434    170.87561    90.492435   0.97499938  1571373 
 2035000         0.65    90.492435    90.492435    91.467434    170.87561    90.492435   0.97499938  1571373 
 2036000         0.65    90.492435    90.492435    91.467434    170.87561    90.492435   0.97499938  1571373 
 2037000         0.65    90.492435    90.492435    91.467434    170.87561    90.492435   0.97499938  1571373 
 2038000         0.65    90.492435    90.492435    91.467434    170.87561    90.492435   0.97499938  1571373 
 2039000         0.65    90.492435    90.492435    91.467434    170.87561    90.492435   0.97499938  1571373 
 2040000         0.65    90.492435    90.492435    91.467434    170.87561    90.492435   0.97499938  1571373 
 2041000         0.65    90.492435    90.492435    91.467434    170.87561    90.492435   0.97499938  1571373 
 2042000         0.65    90.492435    90.492435    91.467434    170.87561    90.492435   0.97499938  1571373 
 2043000         0.65    90.492435    90.492435    91.467434    170.87561    90.492435   0.97499938  1571373 
 2044000         0.65    90.492435    90.492435    91.467434    170.87561    90.492435   0.97499938  1571373 
 2045000         0.65    90.492435    90.492435    91.467434    170.87561    90.492435   0.97499938  1571373 
 2046000         0.65    90.492435    90.492435    91.467434    170.87561    90.492435   0.97499938  1571373 
 2047000         0.65    90.492435    90.492435    91.467434    170.87561    90.492435   0.97499938  1571373 
 2048000         0.65    90.492435    90.492435    91.467434    170.87561    90.492435   0.97499938  1571373 
 2049000         0.65    90.492435    90.492435    91.467434    170.87561    90.492435   0.97499938  1571373 
 2050000         0.65    90.492435    90.492435    91.467434    170.87561    90.492435   0.97499938  1571373 
 2051000         0.65    90.492435    90.492435    91.467434    170.87561    90.492435   0.97499938  1571373 
 2052000         0.65    90.492435    90.492435    91.467434    170.87561    90.492435   0.97499938  1571373 
 2053000         0.65    90.492435    90.492435    91.467434    170.87561    90.492435   0.97499938  1571373 
 2054000         0.65    90.492435    90.492435    91.467434    170.87561    90.492435   0.97499938  1571373 
 2055000         0.65    90.492435    90.492435    91.467434    170.87561    90.492435   0.97499938  1571373 
 2056000         0.65    90.492435    90.492435    91.467434    170.87561    90.492435   0.97499938  1571373 
 2057000         0.65    90.492435    90.492435    91.467434    170.87561    90.492435   0.97499938  1571373 
 2058000         0.65    90.492435    90.492435    91.467434    170.87561    90.492435   0.97499938  1571373 
 2059000         0.65    90.492435    90.492435    91.467434    170.87561    90.492435   0.97499938  1571373 
 2060000         0.65    90.492435    90.492435    91.467434    170.87561    90.492435   0.97499938  1571373 
 2061000         0.65    90.492435    90.492435    91.467434    170.87561    90.492435   0.97499938  1571373 
 2062000         0.65    90.492435    90.492435    91.467434    170.87561    90.492435   0.97499938  1571373 
 2063000         0.65    90.492435    90.492435    91.467434    170.87561    90.492435   0.97499938  1571373 
 2064000         0.65    90.492435    90.492435    91.467434    170.87561    90.492435   0.97499938  1571373 
 2065000         0.65    90.492435    90.492435    91.467434    170.87561    90.492435   0.97499938  1571373 
 2066000         0.65    90.492435    90.492435    91.467434    170.87561    90.492435   0.97499938  1571373 
 2067000         0.65    90.492435    90.492435    91.467434    170.87561    90.492435   0.97499938  1571373 
 2068000         0.65    90.492435    90.492435    91.467434    170.87561    90.492435   0.97499938  1571373 
 2069000         0.65    90.492435    90.492435    91.467434    170.87561    90.492435   0.97499938  1571373 
 2070000         0.65    90.492435    90.492435    91.467434    170.87561    90.492435   0.97499938  1571373 
 2071000         0.65    90.492435    90.492435    91.467434    170.87561    90.492435   0.97499938  1571373 
 2072000         0.65    90.492435    90.492435    91.467434    170.87561    90.492435   0.97499938  1571373 
 2073000         0.65    90.492435    90.492435    91.467434    170.87561    90.492435   0.97499938  1571373 
 2074000         0.65    90.492435    90.492435    91.467434    170.87561    90.492435   0.97499938  1571373 
 2075000         0.65    90.492435    90.492435    91.467434    170.87561    90.492435   0.97499938  1571373 
 2076000         0.65    90.492435    90.492435    91.467434    170.87561    90.492435   0.97499938  1571373 
 2077000         0.65    90.492435    90.492435    91.467434    170.87561    90.492435   0.97499938  1571373 
 2078000         0.65    90.492435    90.492435    91.467434    170.87561    90.492435   0.97499938  1571373 
 2079000         0.65    90.492435    90.492435    91.467434    170.87561    90.492435   0.97499938  1571373 
 2080000         0.65    90.492435    90.492435    91.467434    170.87561    90.492435   0.97499938  1571373 
 2081000         0.65    90.492435    90.492435    91.467434    170.87561    90.492435   0.97499938  1571373 
 2082000         0.65    90.492435    90.492435    91.467434    170.87561    90.492435   0.97499938  1571373 
 2083000         0.65    90.492435    90.492435    91.467434    170.87561    90.492435   0.97499938  1571373 
 2084000         0.65    90.492435    90.492435    91.467434    170.87561    90.492435   0.97499938  1571373 
 2085000         0.65    90.492435    90.492435    91.467434    170.87561    90.492435   0.97499938  1571373 
 2086000         0.65    90.492435    90.492435    91.467434    170.87561    90.492435   0.97499938  1571373 
 2087000         0.65    90.492435    90.492435    91.467434    170.87561    90.492435   0.97499938  1571373 
 2088000         0.65    90.492435    90.492435    91.467434    170.87561    90.492435   0.97499938  1571373 
 2089000         0.65    90.492435    90.492435    91.467434    170.87561    90.492435   0.97499938  1571373 
 2090000         0.65    90.492435    90.492435    91.467434    170.87561    90.492435   0.97499938  1571373 
 2091000         0.65    90.492435    90.492435    91.467434    170.87561    90.492435   0.97499938  1571373 
 2092000         0.65    90.492435    90.492435    91.467434    170.87561    90.492435   0.97499938  1571373 
 2093000         0.65    90.492435    90.492435    91.467434    170.87561    90.492435   0.97499938  1571373 
 2094000         0.65    90.492435    90.492435    91.467434    170.87561    90.492435   0.97499938  1571373 
 2095000         0.65    90.492435    90.492435    91.467434    170.87561    90.492435   0.97499938  1571373 
 2096000         0.65    90.492435    90.492435    91.467434    170.87561    90.492435   0.97499938  1571373 
 2097000         0.65    90.492435    90.492435    91.467434    170.87561    90.492435   0.97499938  1571373 
 2098000         0.65    90.492435    90.492435    91.467434    170.87561    90.492435   0.97499938  1571373 
 2099000         0.65    90.492435    90.492435    91.467434    170.87561    90.492435   0.97499938  1571373 
 2100000         0.65    90.492435    90.492435    91.467434    170.87561    90.492435   0.97499938  1571373 
 2101000         0.65    90.492435    90.492435    91.467434    170.87561    90.492435   0.97499938  1571373 
 2102000         0.65    90.492435    90.492435    91.467434    170.87561    90.492435   0.97499938  1571373 
 2103000         0.65    90.492435    90.492435    91.467434    170.87561    90.492435   0.97499938  1571373 
 2104000         0.65    90.492435    90.492435    91.467434    170.87561    90.492435   0.97499938  1571373 
 2105000         0.65    90.492435    90.492435    91.467434    170.87561    90.492435   0.97499938  1571373 
 2106000         0.65    90.492435    90.492435    91.467434    170.87561    90.492435   0.97499938  1571373 
 2107000         0.65    90.492435    90.492435    91.467434    170.87561    90.492435   0.97499938  1571373 
 2108000         0.65    90.492435    90.492435    91.467434    170.87561    90.492435   0.97499938  1571373 
 2109000         0.65    90.492435    90.492435    91.467434    170.87561    90.492435   0.97499938  1571373 
 2110000         0.65    90.492435    90.492435    91.467434    170.87561    90.492435   0.97499938  1571373 
 2111000         0.65    90.492435    90.492435    91.467434    170.87561    90.492435   0.97499938  1571373 
 2112000         0.65    90.492435    90.492435    91.467434    170.87561    90.492435   0.97499938  1571373 
 2113000         0.65    90.492435    90.492435    91.467434    170.87561    90.492435   0.97499938  1571373 
 2114000         0.65    90.492435    90.492435    91.467434    170.87561    90.492435   0.97499938  1571373 
 2115000         0.65    90.492435    90.492435    91.467434    170.87561    90.492435   0.97499938  1571373 
 2116000         0.65    90.492435    90.492435    91.467434    170.87561    90.492435   0.97499938  1571373 
 2117000         0.65    90.492435    90.492435    91.467434    170.87561    90.492435   0.97499938  1571373 
 2118000         0.65    90.492435    90.492435    91.467434    170.87561    90.492435   0.97499938  1571373 
 2119000         0.65    90.492435    90.492435    91.467434    170.87561    90.492435   0.97499938  1571373 
 2120000         0.65    90.492435    90.492435    91.467434    170.87561    90.492435   0.97499938  1571373 
 2121000         0.65    90.492435    90.492435    91.467434    170.87561    90.492435   0.97499938  1571373 
 2122000         0.65    90.492435    90.492435    91.467434    170.87561    90.492435   0.97499938  1571373 
 2123000         0.65    90.492435    90.492435    91.467434    170.87561    90.492435   0.97499938  1571373 
 2124000         0.65    90.492435    90.492435    91.467434    170.87561    90.492435   0.97499938  1571373 
 2125000         0.65    90.492435    90.492435    91.467434    170.87561    90.492435   0.97499938  1571373 
 2126000         0.65    90.492435    90.492435    91.467434    170.87561    90.492435   0.97499938  1571373 
 2127000         0.65    90.492435    90.492435    91.467434    170.87561    90.492435   0.97499938  1571373 
 2128000         0.65    90.492435    90.492435    91.467434    170.87561    90.492435   0.97499938  1571373 
 2129000         0.65    90.492435    90.492435    91.467434    170.87561    90.492435   0.97499938  1571373 
 2130000         0.65    90.492435    90.492435    91.467434    170.87561    90.492435   0.97499938  1571373 
 2131000         0.65    90.492435    90.492435    91.467434    170.87561    90.492435   0.97499938  1571373 
 2132000         0.65    90.492435    90.492435    91.467434    170.87561    90.492435   0.97499938  1571373 
 2133000         0.65    90.492435    90.492435    91.467434    170.87561    90.492435   0.97499938  1571373 
 2134000         0.65    90.492435    90.492435    91.467434    170.87561    90.492435   0.97499938  1571373 
 2135000         0.65    90.492435    90.492435    91.467434    170.87561    90.492435   0.97499938  1571373 
 2136000         0.65    90.492435    90.492435    91.467434    170.87561    90.492435   0.97499938  1571373 
 2137000         0.65    90.492435    90.492435    91.467434    170.87561    90.492435   0.97499938  1571373 
 2138000         0.65    90.492435    90.492435    91.467434    170.87561    90.492435   0.97499938  1571373 
 2139000         0.65    90.492435    90.492435    91.467434    170.87561    90.492435   0.97499938  1571373 
 2140000         0.65    90.492435    90.492435    91.467434    170.87561    90.492435   0.97499938  1571373 
 2141000         0.65    90.492435    90.492435    91.467434    170.87561    90.492435   0.97499938  1571373 
 2142000         0.65    90.492435    90.492435    91.467434    170.87561    90.492435   0.97499938  1571373 
 2143000         0.65    90.492435    90.492435    91.467434    170.87561    90.492435   0.97499938  1571373 
 2144000         0.65    90.492435    90.492435    91.467434    170.87561    90.492435   0.97499938  1571373 
 2145000         0.65    90.492435    90.492435    91.467434    170.87561    90.492435   0.97499938  1571373 
 2146000         0.65    90.492435    90.492435    91.467434    170.87561    90.492435   0.97499938  1571373 
 2147000         0.65    90.492435    90.492435    91.467434    170.87561    90.492435   0.97499938  1571373 
 2148000         0.65    90.492435    90.492435    91.467434    170.87561    90.492435   0.97499938  1571373 
 2149000         0.65    90.492435    90.492435    91.467434    170.87561    90.492435   0.97499938  1571373 
 2150000         0.65    90.492435    90.492435    91.467434    170.87561    90.492435   0.97499938  1571373 
 2151000         0.65    90.492435    90.492435    91.467434    170.87561    90.492435   0.97499938  1571373 
 2152000         0.65    90.492435    90.492435    91.467434    170.87561    90.492435   0.97499938  1571373 
 2153000         0.65    90.492435    90.492435    91.467434    170.87561    90.492435   0.97499938  1571373 
 2154000         0.65    90.492435    90.492435    91.467434    170.87561    90.492435   0.97499938  1571373 
 2155000         0.65    90.492435    90.492435    91.467434    170.87561    90.492435   0.97499938  1571373 
 2156000         0.65    90.492435    90.492435    91.467434    170.87561    90.492435   0.97499938  1571373 
 2157000         0.65    90.492435    90.492435    91.467434    170.87561    90.492435   0.97499938  1571373 
 2158000         0.65    90.492435    90.492435    91.467434    170.87561    90.492435   0.97499938  1571373 
 2159000         0.65    90.492435    90.492435    91.467434    170.87561    90.492435   0.97499938  1571373 
 2160000         0.65    90.492435    90.492435    91.467434    170.87561    90.492435   0.97499938  1571373 
 2161000         0.65    90.492435    90.492435    91.467434    170.87561    90.492435   0.97499938  1571373 
 2162000         0.65    90.492435    90.492435    91.467434    170.87561    90.492435   0.97499938  1571373 
 2163000         0.65    90.492435    90.492435    91.467434    170.87561    90.492435   0.97499938  1571373 
 2164000         0.65    90.492435    90.492435    91.467434    170.87561    90.492435   0.97499938  1571373 
 2165000         0.65    90.492435    90.492435    91.467434    170.87561    90.492435   0.97499938  1571373 
 2166000         0.65    90.492435    90.492435    91.467434    170.87561    90.492435   0.97499938  1571373 
 2167000         0.65    90.492435    90.492435    91.467434    170.87561    90.492435   0.97499938  1571373 
 2168000         0.65    90.492435    90.492435    91.467434    170.87561    90.492435   0.97499938  1571373 
 2169000         0.65    90.492435    90.492435    91.467434    170.87561    90.492435   0.97499938  1571373 
 2170000         0.65    90.492435    90.492435    91.467434    170.87561    90.492435   0.97499938  1571373 
 2171000         0.65    90.492435    90.492435    91.467434    170.87561    90.492435   0.97499938  1571373 
 2172000         0.65    90.492435    90.492435    91.467434    170.87561    90.492435   0.97499938  1571373 
 2173000         0.65    90.492435    90.492435    91.467434    170.87561    90.492435   0.97499938  1571373 
 2174000         0.65    90.492435    90.492435    91.467434    170.87561    90.492435   0.97499938  1571373 
 2175000         0.65    90.492435    90.492435    91.467434    170.87561    90.492435   0.97499938  1571373 
 2176000         0.65    90.492435    90.492435    91.467434    170.87561    90.492435   0.97499938  1571373 
 2177000         0.65    90.492435    90.492435    91.467434    170.87561    90.492435   0.97499938  1571373 
 2178000         0.65    90.492435    90.492435    91.467434    170.87561    90.492435   0.97499938  1571373 
 2179000         0.65    90.492435    90.492435    91.467434    170.87561    90.492435   0.97499938  1571373 
 2180000         0.65    90.492435    90.492435    91.467434    170.87561    90.492435   0.97499938  1571373 
 2181000         0.65    90.492435    90.492435    91.467434    170.87561    90.492435   0.97499938  1571373 
 2182000         0.65    90.492435    90.492435    91.467434    170.87561    90.492435   0.97499938  1571373 
 2183000         0.65    90.492435    90.492435    91.467434    170.87561    90.492435   0.97499938  1571373 
 2184000         0.65    90.492435    90.492435    91.467434    170.87561    90.492435   0.97499938  1571373 
 2185000         0.65    90.492435    90.492435    91.467434    170.87561    90.492435   0.97499938  1571373 
 2186000         0.65    90.492435    90.492435    91.467434    170.87561    90.492435   0.97499938  1571373 
 2187000         0.65    90.492435    90.492435    91.467434    170.87561    90.492435   0.97499938  1571373 
 2188000         0.65    90.492435    90.492435    91.467434    170.87561    90.492435   0.97499938  1571373 
 2189000         0.65    90.492435    90.492435    91.467434    170.87561    90.492435   0.97499938  1571373 
 2190000         0.65    90.492435    90.492435    91.467434    170.87561    90.492435   0.97499938  1571373 
 2191000         0.65    90.492435    90.492435    91.467434    170.87561    90.492435   0.97499938  1571373 
 2192000         0.65    90.492435    90.492435    91.467434    170.87561    90.492435   0.97499938  1571373 
 2193000         0.65    90.492435    90.492435    91.467434    170.87561    90.492435   0.97499938  1571373 
 2194000         0.65    90.492435    90.492435    91.467434    170.87561    90.492435   0.97499938  1571373 
 2195000         0.65    90.492435    90.492435    91.467434    170.87561    90.492435   0.97499938  1571373 
 2196000         0.65    90.492435    90.492435    91.467434    170.87561    90.492435   0.97499938  1571373 
 2197000         0.65    90.492435    90.492435    91.467434    170.87561    90.492435   0.97499938  1571373 
 2198000         0.65    90.492435    90.492435    91.467434    170.87561    90.492435   0.97499938  1571373 
 2199000         0.65    90.492435    90.492435    91.467434    170.87561    90.492435   0.97499938  1571373 
 2200000         0.65    90.492435    90.492435    91.467434    170.87561    90.492435   0.97499938  1571373 
 2201000         0.65    90.492435    90.492435    91.467434    170.87561    90.492435   0.97499938  1571373 
 2202000         0.65    90.492435    90.492435    91.467434    170.87561    90.492435   0.97499938  1571373 
 2203000         0.65    90.492435    90.492435    91.467434    170.87561    90.492435   0.97499938  1571373 
 2204000         0.65    90.492435    90.492435    91.467434    170.87561    90.492435   0.97499938  1571373 
 2205000         0.65    90.492435    90.492435    91.467434    170.87561    90.492435   0.97499938  1571373 
 2206000         0.65    90.492435    90.492435    91.467434    170.87561    90.492435   0.97499938  1571373 
 2207000         0.65    90.492435    90.492435    91.467434    170.87561    90.492435   0.97499938  1571373 
 2208000         0.65    90.492435    90.492435    91.467434    170.87561    90.492435   0.97499938  1571373 
 2209000         0.65    90.492435    90.492435    91.467434    170.87561    90.492435   0.97499938  1571373 
 2210000         0.65    90.492435    90.492435    91.467434    170.87561    90.492435   0.97499938  1571373 
 2211000         0.65    90.492435    90.492435    91.467434    170.87561    90.492435   0.97499938  1571373 
 2212000         0.65    90.492435    90.492435    91.467434    170.87561    90.492435   0.97499938  1571373 
 2213000         0.65    90.492435    90.492435    91.467434    170.87561    90.492435   0.97499938  1571373 
 2214000         0.65    90.492435    90.492435    91.467434    170.87561    90.492435   0.97499938  1571373 
 2215000         0.65    90.492435    90.492435    91.467434    170.87561    90.492435   0.97499938  1571373 
 2216000         0.65    90.492435    90.492435    91.467434    170.87561    90.492435   0.97499938  1571373 
 2217000         0.65    90.492435    90.492435    91.467434    170.87561    90.492435   0.97499938  1571373 
 2218000         0.65    90.492435    90.492435    91.467434    170.87561    90.492435   0.97499938  1571373 
 2219000         0.65    90.492435    90.492435    91.467434    170.87561    90.492435   0.97499938  1571373 
 2220000         0.65    90.492435    90.492435    91.467434    170.87561    90.492435   0.97499938  1571373 
 2221000         0.65    90.492435    90.492435    91.467434    170.87561    90.492435   0.97499938  1571373 
 2222000         0.65    90.492435    90.492435    91.467434    170.87561    90.492435   0.97499938  1571373 
 2223000         0.65    90.492435    90.492435    91.467434    170.87561    90.492435   0.97499938  1571373 
 2224000         0.65    90.492435    90.492435    91.467434    170.87561    90.492435   0.97499938  1571373 
 2225000         0.65    90.492435    90.492435    91.467434    170.87561    90.492435   0.97499938  1571373 
 2226000         0.65    90.492435    90.492435    91.467434    170.87561    90.492435   0.97499938  1571373 
 2227000         0.65    90.492435    90.492435    91.467434    170.87561    90.492435   0.97499938  1571373 
 2228000         0.65    90.492435    90.492435    91.467434    170.87561    90.492435   0.97499938  1571373 
 2229000         0.65    90.492435    90.492435    91.467434    170.87561    90.492435   0.97499938  1571373 
 2230000         0.65    90.492435    90.492435    91.467434    170.87561    90.492435   0.97499938  1571373 
 2231000         0.65    90.492435    90.492435    91.467434    170.87561    90.492435   0.97499938  1571373 
 2232000         0.65    90.492435    90.492435    91.467434    170.87561    90.492435   0.97499938  1571373 
 2233000         0.65    90.492435    90.492435    91.467434    170.87561    90.492435   0.97499938  1571373 
 2234000         0.65    90.492435    90.492435    91.467434    170.87561    90.492435   0.97499938  1571373 
 2235000         0.65    90.492435    90.492435    91.467434    170.87561    90.492435   0.97499938  1571373 
 2236000         0.65    90.492435    90.492435    91.467434    170.87561    90.492435   0.97499938  1571373 
 2237000         0.65    90.492435    90.492435    91.467434    170.87561    90.492435   0.97499938  1571373 
 2238000         0.65    90.492435    90.492435    91.467434    170.87561    90.492435   0.97499938  1571373 
 2239000         0.65    90.492435    90.492435    91.467434    170.87561    90.492435   0.97499938  1571373 
 2240000         0.65    90.492435    90.492435    91.467434    170.87561    90.492435   0.97499938  1571373 
 2241000         0.65    90.492435    90.492435    91.467434    170.87561    90.492435   0.97499938  1571373 
 2242000         0.65    90.492435    90.492435    91.467434    170.87561    90.492435   0.97499938  1571373 
 2243000         0.65    90.492435    90.492435    91.467434    170.87561    90.492435   0.97499938  1571373 
 2244000         0.65    90.492435    90.492435    91.467434    170.87561    90.492435   0.97499938  1571373 
 2245000         0.65    90.492435    90.492435    91.467434    170.87561    90.492435   0.97499938  1571373 
 2246000         0.65    90.492435    90.492435    91.467434    170.87561    90.492435   0.97499938  1571373 
 2247000         0.65    90.492435    90.492435    91.467434    170.87561    90.492435   0.97499938  1571373 
 2248000         0.65    90.492435    90.492435    91.467434    170.87561    90.492435   0.97499938  1571373 
 2249000         0.65    90.492435    90.492435    91.467434    170.87561    90.492435   0.97499938  1571373 
 2250000         0.65    90.492435    90.492435    91.467434    170.87561    90.492435   0.97499938  1571373 
 2251000         0.65    90.492435    90.492435    91.467434    170.87561    90.492435   0.97499938  1571373 
 2252000         0.65    90.492435    90.492435    91.467434    170.87561    90.492435   0.97499938  1571373 
 2253000         0.65    90.492435    90.492435    91.467434    170.87561    90.492435   0.97499938  1571373 
 2254000         0.65    90.492435    90.492435    91.467434    170.87561    90.492435   0.97499938  1571373 
 2255000         0.65    90.492435    90.492435    91.467434    170.87561    90.492435   0.97499938  1571373 
 2256000         0.65    90.492435    90.492435    91.467434    170.87561    90.492435   0.97499938  1571373 
 2257000         0.65    90.492435    90.492435    91.467434    170.87561    90.492435   0.97499938  1571373 
 2258000         0.65    90.492435    90.492435    91.467434    170.87561    90.492435   0.97499938  1571373 
 2259000         0.65    90.492435    90.492435    91.467434    170.87561    90.492435   0.97499938  1571373 
 2260000         0.65    90.492435    90.492435    91.467434    170.87561    90.492435   0.97499938  1571373 
 2261000         0.65    90.492435    90.492435    91.467434    170.87561    90.492435   0.97499938  1571373 
 2262000         0.65    90.492435    90.492435    91.467434    170.87561    90.492435   0.97499938  1571373 
 2263000         0.65    90.492435    90.492435    91.467434    170.87561    90.492435   0.97499938  1571373 
 2264000         0.65    90.492435    90.492435    91.467434    170.87561    90.492435   0.97499938  1571373 
 2265000         0.65    90.492435    90.492435    91.467434    170.87561    90.492435   0.97499938  1571373 
 2266000         0.65    90.492435    90.492435    91.467434    170.87561    90.492435   0.97499938  1571373 
 2267000         0.65    90.492435    90.492435    91.467434    170.87561    90.492435   0.97499938  1571373 
 2268000         0.65    90.492435    90.492435    91.467434    170.87561    90.492435   0.97499938  1571373 
 2269000         0.65    90.492435    90.492435    91.467434    170.87561    90.492435   0.97499938  1571373 
 2270000         0.65    90.492435    90.492435    91.467434    170.87561    90.492435   0.97499938  1571373 
 2271000         0.65    90.492435    90.492435    91.467434    170.87561    90.492435   0.97499938  1571373 
 2272000         0.65    90.492435    90.492435    91.467434    170.87561    90.492435   0.97499938  1571373 
 2273000         0.65    90.492435    90.492435    91.467434    170.87561    90.492435   0.97499938  1571373 
 2274000         0.65    90.492435    90.492435    91.467434    170.87561    90.492435   0.97499938  1571373 
 2275000         0.65    90.492435    90.492435    91.467434    170.87561    90.492435   0.97499938  1571373 
 2276000         0.65    90.492435    90.492435    91.467434    170.87561    90.492435   0.97499938  1571373 
 2277000         0.65    90.492435    90.492435    91.467434    170.87561    90.492435   0.97499938  1571373 
 2278000         0.65    90.492435    90.492435    91.467434    170.87561    90.492435   0.97499938  1571373 
 2279000         0.65    90.492435    90.492435    91.467434    170.87561    90.492435   0.97499938  1571373 
 2280000         0.65    90.492435    90.492435    91.467434    170.87561    90.492435   0.97499938  1571373 
 2281000         0.65    90.492435    90.492435    91.467434    170.87561    90.492435   0.97499938  1571373 
 2282000         0.65    90.492435    90.492435    91.467434    170.87561    90.492435   0.97499938  1571373 
 2283000         0.65    90.492435    90.492435    91.467434    170.87561    90.492435   0.97499938  1571373 
 2284000         0.65    90.492435    90.492435    91.467434    170.87561    90.492435   0.97499938  1571373 
 2285000         0.65    90.492435    90.492435    91.467434    170.87561    90.492435   0.97499938  1571373 
 2286000         0.65    90.492435    90.492435    91.467434    170.87561    90.492435   0.97499938  1571373 
 2287000         0.65    90.492435    90.492435    91.467434    170.87561    90.492435   0.97499938  1571373 
 2288000         0.65    90.492435    90.492435    91.467434    170.87561    90.492435   0.97499938  1571373 
 2289000         0.65    90.492435    90.492435    91.467434    170.87561    90.492435   0.97499938  1571373 
 2290000         0.65    90.492435    90.492435    91.467434    170.87561    90.492435   0.97499938  1571373 
 2291000         0.65    90.492435    90.492435    91.467434    170.87561    90.492435   0.97499938  1571373 
 2292000         0.65    90.492435    90.492435    91.467434    170.87561    90.492435   0.97499938  1571373 
 2293000         0.65    90.492435    90.492435    91.467434    170.87561    90.492435   0.97499938  1571373 
 2294000         0.65    90.492435    90.492435    91.467434    170.87561    90.492435   0.97499938  1571373 
 2295000         0.65    90.492435    90.492435    91.467434    170.87561    90.492435   0.97499938  1571373 
 2296000         0.65    90.492435    90.492435    91.467434    170.87561    90.492435   0.97499938  1571373 
 2297000         0.65    90.492435    90.492435    91.467434    170.87561    90.492435   0.97499938  1571373 
 2298000         0.65    90.492435    90.492435    91.467434    170.87561    90.492435   0.97499938  1571373 
 2299000         0.65    90.492435    90.492435    91.467434    170.87561    90.492435   0.97499938  1571373 
 2300000         0.65    90.492435    90.492435    91.467434    170.87561    90.492435   0.97499938  1571373 
 2301000         0.65    90.492435    90.492435    91.467434    170.87561    90.492435   0.97499938  1571373 
 2302000         0.65    90.492435    90.492435    91.467434    170.87561    90.492435   0.97499938  1571373 
 2303000         0.65    90.492435    90.492435    91.467434    170.87561    90.492435   0.97499938  1571373 
 2304000         0.65    90.492435    90.492435    91.467434    170.87561    90.492435   0.97499938  1571373 
 2305000         0.65    90.492435    90.492435    91.467434    170.87561    90.492435   0.97499938  1571373 
 2306000         0.65    90.492435    90.492435    91.467434    170.87561    90.492435   0.97499938  1571373 
 2307000         0.65    90.492435    90.492435    91.467434    170.87561    90.492435   0.97499938  1571373 
 2308000         0.65    90.492435    90.492435    91.467434    170.87561    90.492435   0.97499938  1571373 
 2309000         0.65    90.492435    90.492435    91.467434    170.87561    90.492435   0.97499938  1571373 
 2310000         0.65    90.492435    90.492435    91.467434    170.87561    90.492435   0.97499938  1571373 
 2311000         0.65    90.492435    90.492435    91.467434    170.87561    90.492435   0.97499938  1571373 
 2312000         0.65    90.492435    90.492435    91.467434    170.87561    90.492435   0.97499938  1571373 
 2313000         0.65    90.492435    90.492435    91.467434    170.87561    90.492435   0.97499938  1571373 
 2314000         0.65    90.492435    90.492435    91.467434    170.87561    90.492435   0.97499938  1571373 
 2315000         0.65    90.492435    90.492435    91.467434    170.87561    90.492435   0.97499938  1571373 
 2316000         0.65    90.492435    90.492435    91.467434    170.87561    90.492435   0.97499938  1571373 
 2317000         0.65    90.492435    90.492435    91.467434    170.87561    90.492435   0.97499938  1571373 
 2318000         0.65    90.492435    90.492435    91.467434    170.87561    90.492435   0.97499938  1571373 
 2319000         0.65    90.492435    90.492435    91.467434    170.87561    90.492435   0.97499938  1571373 
 2320000         0.65    90.492435    90.492435    91.467434    170.87561    90.492435   0.97499938  1571373 
 2321000         0.65    90.492435    90.492435    91.467434    170.87561    90.492435   0.97499938  1571373 
 2322000         0.65    90.492435    90.492435    91.467434    170.87561    90.492435   0.97499938  1571373 
 2323000         0.65    90.492435    90.492435    91.467434    170.87561    90.492435   0.97499938  1571373 
 2324000         0.65    90.492435    90.492435    91.467434    170.87561    90.492435   0.97499938  1571373 
 2325000         0.65    90.492435    90.492435    91.467434    170.87561    90.492435   0.97499938  1571373 
 2326000         0.65    90.492435    90.492435    91.467434    170.87561    90.492435   0.97499938  1571373 
 2327000         0.65    90.492435    90.492435    91.467434    170.87561    90.492435   0.97499938  1571373 
 2328000         0.65    90.492435    90.492435    91.467434    170.87561    90.492435   0.97499938  1571373 
 2329000         0.65    90.492435    90.492435    91.467434    170.87561    90.492435   0.97499938  1571373 
 2330000         0.65    90.492435    90.492435    91.467434    170.87561    90.492435   0.97499938  1571373 
 2331000         0.65    90.492435    90.492435    91.467434    170.87561    90.492435   0.97499938  1571373 
 2332000         0.65    90.492435    90.492435    91.467434    170.87561    90.492435   0.97499938  1571373 
 2333000         0.65    90.492435    90.492435    91.467434    170.87561    90.492435   0.97499938  1571373 
 2334000         0.65    90.492435    90.492435    91.467434    170.87561    90.492435   0.97499938  1571373 
 2335000         0.65    90.492435    90.492435    91.467434    170.87561    90.492435   0.97499938  1571373 
 2336000         0.65    90.492435    90.492435    91.467434    170.87561    90.492435   0.97499938  1571373 
 2337000         0.65    90.492435    90.492435    91.467434    170.87561    90.492435   0.97499938  1571373 
 2338000         0.65    90.492435    90.492435    91.467434    170.87561    90.492435   0.97499938  1571373 
 2339000         0.65    90.492435    90.492435    91.467434    170.87561    90.492435   0.97499938  1571373 
 2340000         0.65    90.492435    90.492435    91.467434    170.87561    90.492435   0.97499938  1571373 
 2341000         0.65    90.492435    90.492435    91.467434    170.87561    90.492435   0.97499938  1571373 
 2342000         0.65    90.492435    90.492435    91.467434    170.87561    90.492435   0.97499938  1571373 
 2343000         0.65    90.492435    90.492435    91.467434    170.87561    90.492435   0.97499938  1571373 
 2344000         0.65    90.492435    90.492435    91.467434    170.87561    90.492435   0.97499938  1571373 
 2345000         0.65    90.492435    90.492435    91.467434    170.87561    90.492435   0.97499938  1571373 
 2346000         0.65    90.492435    90.492435    91.467434    170.87561    90.492435   0.97499938  1571373 
 2347000         0.65    90.492435    90.492435    91.467434    170.87561    90.492435   0.97499938  1571373 
 2348000         0.65    90.492435    90.492435    91.467434    170.87561    90.492435   0.97499938  1571373 
 2349000         0.65    90.492435    90.492435    91.467434    170.87561    90.492435   0.97499938  1571373 
 2350000         0.65    90.492435    90.492435    91.467434    170.87561    90.492435   0.97499938  1571373 
 2351000         0.65    90.492435    90.492435    91.467434    170.87561    90.492435   0.97499938  1571373 
 2352000         0.65    90.492435    90.492435    91.467434    170.87561    90.492435   0.97499938  1571373 
 2353000         0.65    90.492435    90.492435    91.467434    170.87561    90.492435   0.97499938  1571373 
 2354000         0.65    90.492435    90.492435    91.467434    170.87561    90.492435   0.97499938  1571373 
 2355000         0.65    90.492435    90.492435    91.467434    170.87561    90.492435   0.97499938  1571373 
 2356000         0.65    90.492435    90.492435    91.467434    170.87561    90.492435   0.97499938  1571373 
 2357000         0.65    90.492435    90.492435    91.467434    170.87561    90.492435   0.97499938  1571373 
 2358000         0.65    90.492435    90.492435    91.467434    170.87561    90.492435   0.97499938  1571373 
 2359000         0.65    90.492435    90.492435    91.467434    170.87561    90.492435   0.97499938  1571373 
 2360000         0.65    90.492435    90.492435    91.467434    170.87561    90.492435   0.97499938  1571373 
 2361000         0.65    90.492435    90.492435    91.467434    170.87561    90.492435   0.97499938  1571373 
 2362000         0.65    90.492435    90.492435    91.467434    170.87561    90.492435   0.97499938  1571373 
 2363000         0.65    90.492435    90.492435    91.467434    170.87561    90.492435   0.97499938  1571373 
 2364000         0.65    90.492435    90.492435    91.467434    170.87561    90.492435   0.97499938  1571373 
 2365000         0.65    90.492435    90.492435    91.467434    170.87561    90.492435   0.97499938  1571373 
 2366000         0.65    90.492435    90.492435    91.467434    170.87561    90.492435   0.97499938  1571373 
 2367000         0.65    90.492435    90.492435    91.467434    170.87561    90.492435   0.97499938  1571373 
 2368000         0.65    90.492435    90.492435    91.467434    170.87561    90.492435   0.97499938  1571373 
 2369000         0.65    90.492435    90.492435    91.467434    170.87561    90.492435   0.97499938  1571373 
 2370000         0.65    90.492435    90.492435    91.467434    170.87561    90.492435   0.97499938  1571373 
 2371000         0.65    90.492435    90.492435    91.467434    170.87561    90.492435   0.97499938  1571373 
 2372000         0.65    90.492435    90.492435    91.467434    170.87561    90.492435   0.97499938  1571373 
 2373000         0.65    90.492435    90.492435    91.467434    170.87561    90.492435   0.97499938  1571373 
 2374000         0.65    90.492435    90.492435    91.467434    170.87561    90.492435   0.97499938  1571373 
 2375000         0.65    90.492435    90.492435    91.467434    170.87561    90.492435   0.97499938  1571373 
 2376000         0.65    90.492435    90.492435    91.467434    170.87561    90.492435   0.97499938  1571373 
 2377000         0.65    90.492435    90.492435    91.467434    170.87561    90.492435   0.97499938  1571373 
 2378000         0.65    90.492435    90.492435    91.467434    170.87561    90.492435   0.97499938  1571373 
 2379000         0.65    90.492435    90.492435    91.467434    170.87561    90.492435   0.97499938  1571373 
 2380000         0.65    90.492435    90.492435    91.467434    170.87561    90.492435   0.97499938  1571373 
 2381000         0.65    90.492435    90.492435    91.467434    170.87561    90.492435   0.97499938  1571373 
 2382000         0.65    90.492435    90.492435    91.467434    170.87561    90.492435   0.97499938  1571373 
 2383000         0.65    90.492435    90.492435    91.467434    170.87561    90.492435   0.97499938  1571373 
 2384000         0.65    90.492435    90.492435    91.467434    170.87561    90.492435   0.97499938  1571373 
 2385000         0.65    90.492435    90.492435    91.467434    170.87561    90.492435   0.97499938  1571373 
 2386000         0.65    90.492435    90.492435    91.467434    170.87561    90.492435   0.97499938  1571373 
 2387000         0.65    90.492435    90.492435    91.467434    170.87561    90.492435   0.97499938  1571373 
 2388000         0.65    90.492435    90.492435    91.467434    170.87561    90.492435   0.97499938  1571373 
 2389000         0.65    90.492435    90.492435    91.467434    170.87561    90.492435   0.97499938  1571373 
 2390000         0.65    90.492435    90.492435    91.467434    170.87561    90.492435   0.97499938  1571373 
 2391000         0.65    90.492435    90.492435    91.467434    170.87561    90.492435   0.97499938  1571373 
 2392000         0.65    90.492435    90.492435    91.467434    170.87561    90.492435   0.97499938  1571373 
 2393000         0.65    90.492435    90.492435    91.467434    170.87561    90.492435   0.97499938  1571373 
 2394000         0.65    90.492435    90.492435    91.467434    170.87561    90.492435   0.97499938  1571373 
 2395000         0.65    90.492435    90.492435    91.467434    170.87561    90.492435   0.97499938  1571373 
 2396000         0.65    90.492435    90.492435    91.467434    170.87561    90.492435   0.97499938  1571373 
 2397000         0.65    90.492435    90.492435    91.467434    170.87561    90.492435   0.97499938  1571373 
 2398000         0.65    90.492435    90.492435    91.467434    170.87561    90.492435   0.97499938  1571373 
 2399000         0.65    90.492435    90.492435    91.467434    170.87561    90.492435   0.97499938  1571373 
 2400000         0.65    90.492435    90.492435    91.467434    170.87561    90.492435   0.97499938  1571373 
 2401000         0.65    90.492435    90.492435    91.467434    170.87561    90.492435   0.97499938  1571373 
 2402000         0.65    90.492435    90.492435    91.467434    170.87561    90.492435   0.97499938  1571373 
 2403000         0.65    90.492435    90.492435    91.467434    170.87561    90.492435   0.97499938  1571373 
 2404000         0.65    90.492435    90.492435    91.467434    170.87561    90.492435   0.97499938  1571373 
 2405000         0.65    90.492435    90.492435    91.467434    170.87561    90.492435   0.97499938  1571373 
 2406000         0.65    90.492435    90.492435    91.467434    170.87561    90.492435   0.97499938  1571373 
 2407000         0.65    90.492435    90.492435    91.467434    170.87561    90.492435   0.97499938  1571373 
 2408000         0.65    90.492435    90.492435    91.467434    170.87561    90.492435   0.97499938  1571373 
 2409000         0.65    90.492435    90.492435    91.467434    170.87561    90.492435   0.97499938  1571373 
 2410000         0.65    90.492435    90.492435    91.467434    170.87561    90.492435   0.97499938  1571373 
 2411000         0.65    90.492435    90.492435    91.467434    170.87561    90.492435   0.97499938  1571373 
 2412000         0.65    90.492435    90.492435    91.467434    170.87561    90.492435   0.97499938  1571373 
 2413000         0.65    90.492435    90.492435    91.467434    170.87561    90.492435   0.97499938  1571373 
 2414000         0.65    90.492435    90.492435    91.467434    170.87561    90.492435   0.97499938  1571373 
 2415000         0.65    90.492435    90.492435    91.467434    170.87561    90.492435   0.97499938  1571373 
 2416000         0.65    90.492435    90.492435    91.467434    170.87561    90.492435   0.97499938  1571373 
 2417000         0.65    90.492435    90.492435    91.467434    170.87561    90.492435   0.97499938  1571373 
 2418000         0.65    90.492435    90.492435    91.467434    170.87561    90.492435   0.97499938  1571373 
 2419000         0.65    90.492435    90.492435    91.467434    170.87561    90.492435   0.97499938  1571373 
 2420000         0.65    90.492435    90.492435    91.467434    170.87561    90.492435   0.97499938  1571373 
 2421000         0.65    90.492435    90.492435    91.467434    170.87561    90.492435   0.97499938  1571373 
 2422000         0.65    90.492435    90.492435    91.467434    170.87561    90.492435   0.97499938  1571373 
 2423000         0.65    90.492435    90.492435    91.467434    170.87561    90.492435   0.97499938  1571373 
 2424000         0.65    90.492435    90.492435    91.467434    170.87561    90.492435   0.97499938  1571373 
 2425000         0.65    90.492435    90.492435    91.467434    170.87561    90.492435   0.97499938  1571373 
 2426000         0.65    90.492435    90.492435    91.467434    170.87561    90.492435   0.97499938  1571373 
 2427000         0.65    90.492435    90.492435    91.467434    170.87561    90.492435   0.97499938  1571373 
 2428000         0.65    90.492435    90.492435    91.467434    170.87561    90.492435   0.97499938  1571373 
 2429000         0.65    90.492435    90.492435    91.467434    170.87561    90.492435   0.97499938  1571373 
 2430000         0.65    90.492435    90.492435    91.467434    170.87561    90.492435   0.97499938  1571373 
 2431000         0.65    90.492435    90.492435    91.467434    170.87561    90.492435   0.97499938  1571373 
 2432000         0.65    90.492435    90.492435    91.467434    170.87561    90.492435   0.97499938  1571373 
 2433000         0.65    90.492435    90.492435    91.467434    170.87561    90.492435   0.97499938  1571373 
 2434000         0.65    90.492435    90.492435    91.467434    170.87561    90.492435   0.97499938  1571373 
 2435000         0.65    90.492435    90.492435    91.467434    170.87561    90.492435   0.97499938  1571373 
 2436000         0.65    90.492435    90.492435    91.467434    170.87561    90.492435   0.97499938  1571373 
 2437000         0.65    90.492435    90.492435    91.467434    170.87561    90.492435   0.97499938  1571373 
 2438000         0.65    90.492435    90.492435    91.467434    170.87561    90.492435   0.97499938  1571373 
 2439000         0.65    90.492435    90.492435    91.467434    170.87561    90.492435   0.97499938  1571373 
 2440000         0.65    90.492435    90.492435    91.467434    170.87561    90.492435   0.97499938  1571373 
 2441000         0.65    90.492435    90.492435    91.467434    170.87561    90.492435   0.97499938  1571373 
 2442000         0.65    90.492435    90.492435    91.467434    170.87561    90.492435   0.97499938  1571373 
 2443000         0.65    90.492435    90.492435    91.467434    170.87561    90.492435   0.97499938  1571373 
 2444000         0.65    90.492435    90.492435    91.467434    170.87561    90.492435   0.97499938  1571373 
 2445000         0.65    90.492435    90.492435    91.467434    170.87561    90.492435   0.97499938  1571373 
 2446000         0.65    90.492435    90.492435    91.467434    170.87561    90.492435   0.97499938  1571373 
 2447000         0.65    90.492435    90.492435    91.467434    170.87561    90.492435   0.97499938  1571373 
 2448000         0.65    90.492435    90.492435    91.467434    170.87561    90.492435   0.97499938  1571373 
 2449000         0.65    90.492435    90.492435    91.467434    170.87561    90.492435   0.97499938  1571373 
 2450000         0.65    90.492435    90.492435    91.467434    170.87561    90.492435   0.97499938  1571373 
 2451000         0.65    90.492435    90.492435    91.467434    170.87561    90.492435   0.97499938  1571373 
 2452000         0.65    90.492435    90.492435    91.467434    170.87561    90.492435   0.97499938  1571373 
 2453000         0.65    90.492435    90.492435    91.467434    170.87561    90.492435   0.97499938  1571373 
 2454000         0.65    90.492435    90.492435    91.467434    170.87561    90.492435   0.97499938  1571373 
 2455000         0.65    90.492435    90.492435    91.467434    170.87561    90.492435   0.97499938  1571373 
 2456000         0.65    90.492435    90.492435    91.467434    170.87561    90.492435   0.97499938  1571373 
 2457000         0.65    90.492435    90.492435    91.467434    170.87561    90.492435   0.97499938  1571373 
 2458000         0.65    90.492435    90.492435    91.467434    170.87561    90.492435   0.97499938  1571373 
 2459000         0.65    90.492435    90.492435    91.467434    170.87561    90.492435   0.97499938  1571373 
 2460000         0.65    90.492435    90.492435    91.467434    170.87561    90.492435   0.97499938  1571373 
 2461000         0.65    90.492435    90.492435    91.467434    170.87561    90.492435   0.97499938  1571373 
 2462000         0.65    90.492435    90.492435    91.467434    170.87561    90.492435   0.97499938  1571373 
 2463000         0.65    90.492435    90.492435    91.467434    170.87561    90.492435   0.97499938  1571373 
 2464000         0.65    90.492435    90.492435    91.467434    170.87561    90.492435   0.97499938  1571373 
 2465000         0.65    90.492435    90.492435    91.467434    170.87561    90.492435   0.97499938  1571373 
 2466000         0.65    90.492435    90.492435    91.467434    170.87561    90.492435   0.97499938  1571373 
 2467000         0.65    90.492435    90.492435    91.467434    170.87561    90.492435   0.97499938  1571373 
 2468000         0.65    90.492435    90.492435    91.467434    170.87561    90.492435   0.97499938  1571373 
 2469000         0.65    90.492435    90.492435    91.467434    170.87561    90.492435   0.97499938  1571373 
 2470000         0.65    90.492435    90.492435    91.467434    170.87561    90.492435   0.97499938  1571373 
 2471000         0.65    90.492435    90.492435    91.467434    170.87561    90.492435   0.97499938  1571373 
 2472000         0.65    90.492435    90.492435    91.467434    170.87561    90.492435   0.97499938  1571373 
 2473000         0.65    90.492435    90.492435    91.467434    170.87561    90.492435   0.97499938  1571373 
 2474000         0.65    90.492435    90.492435    91.467434    170.87561    90.492435   0.97499938  1571373 
 2475000         0.65    90.492435    90.492435    91.467434    170.87561    90.492435   0.97499938  1571373 
 2476000         0.65    90.492435    90.492435    91.467434    170.87561    90.492435   0.97499938  1571373 
 2477000         0.65    90.492435    90.492435    91.467434    170.87561    90.492435   0.97499938  1571373 
 2478000         0.65    90.492435    90.492435    91.467434    170.87561    90.492435   0.97499938  1571373 
 2479000         0.65    90.492435    90.492435    91.467434    170.87561    90.492435   0.97499938  1571373 
 2480000         0.65    90.492435    90.492435    91.467434    170.87561    90.492435   0.97499938  1571373 
 2481000         0.65    90.492435    90.492435    91.467434    170.87561    90.492435   0.97499938  1571373 
 2482000         0.65    90.492435    90.492435    91.467434    170.87561    90.492435   0.97499938  1571373 
 2483000         0.65    90.492435    90.492435    91.467434    170.87561    90.492435   0.97499938  1571373 
 2484000         0.65    90.492435    90.492435    91.467434    170.87561    90.492435   0.97499938  1571373 
 2485000         0.65    90.492435    90.492435    91.467434    170.87561    90.492435   0.97499938  1571373 
 2486000         0.65    90.492435    90.492435    91.467434    170.87561    90.492435   0.97499938  1571373 
 2487000         0.65    90.492435    90.492435    91.467434    170.87561    90.492435   0.97499938  1571373 
 2488000         0.65    90.492435    90.492435    91.467434    170.87561    90.492435   0.97499938  1571373 
 2489000         0.65    90.492435    90.492435    91.467434    170.87561    90.492435   0.97499938  1571373 
 2490000         0.65    90.492435    90.492435    91.467434    170.87561    90.492435   0.97499938  1571373 
 2491000         0.65    90.492435    90.492435    91.467434    170.87561    90.492435   0.97499938  1571373 
 2492000         0.65    90.492435    90.492435    91.467434    170.87561    90.492435   0.97499938  1571373 
 2493000         0.65    90.492435    90.492435    91.467434    170.87561    90.492435   0.97499938  1571373 
 2494000         0.65    90.492435    90.492435    91.467434    170.87561    90.492435   0.97499938  1571373 
 2495000         0.65    90.492435    90.492435    91.467434    170.87561    90.492435   0.97499938  1571373 
 2496000         0.65    90.492435    90.492435    91.467434    170.87561    90.492435   0.97499938  1571373 
 2497000         0.65    90.492435    90.492435    91.467434    170.87561    90.492435   0.97499938  1571373 
 2498000         0.65    90.492435    90.492435    91.467434    170.87561    90.492435   0.97499938  1571373 
 2499000         0.65    90.492435    90.492435    91.467434    170.87561    90.492435   0.97499938  1571373 
 2500000         0.65    90.492435    90.492435    91.467434    170.87561    90.492435   0.97499938  1571373 
 2501000         0.65    90.492435    90.492435    91.467434    170.87561    90.492435   0.97499938  1571373 
 2502000         0.65    90.492435    90.492435    91.467434    170.87561    90.492435   0.97499938  1571373 
 2503000         0.65    90.492435    90.492435    91.467434    170.87561    90.492435   0.97499938  1571373 
 2504000         0.65    90.492435    90.492435    91.467434    170.87561    90.492435   0.97499938  1571373 
 2505000         0.65    90.492435    90.492435    91.467434    170.87561    90.492435   0.97499938  1571373 
 2506000         0.65    90.492435    90.492435    91.467434    170.87561    90.492435   0.97499938  1571373 
 2507000         0.65    90.492435    90.492435    91.467434    170.87561    90.492435   0.97499938  1571373 
 2508000         0.65    90.492435    90.492435    91.467434    170.87561    90.492435   0.97499938  1571373 
 2509000         0.65    90.492435    90.492435    91.467434    170.87561    90.492435   0.97499938  1571373 
 2510000         0.65    90.492435    90.492435    91.467434    170.87561    90.492435   0.97499938  1571373 
 2511000         0.65    90.492435    90.492435    91.467434    170.87561    90.492435   0.97499938  1571373 
 2512000         0.65    90.492435    90.492435    91.467434    170.87561    90.492435   0.97499938  1571373 
 2513000         0.65    90.492435    90.492435    91.467434    170.87561    90.492435   0.97499938  1571373 
 2514000         0.65    90.492435    90.492435    91.467434    170.87561    90.492435   0.97499938  1571373 
 2515000         0.65    90.492435    90.492435    91.467434    170.87561    90.492435   0.97499938  1571373 
 2516000         0.65    90.492435    90.492435    91.467434    170.87561    90.492435   0.97499938  1571373 
 2517000         0.65    90.492435    90.492435    91.467434    170.87561    90.492435   0.97499938  1571373 
 2518000         0.65    90.492435    90.492435    91.467434    170.87561    90.492435   0.97499938  1571373 
 2519000         0.65    90.492435    90.492435    91.467434    170.87561    90.492435   0.97499938  1571373 
 2520000         0.65    90.492435    90.492435    91.467434    170.87561    90.492435   0.97499938  1571373 
 2521000         0.65    90.492435    90.492435    91.467434    170.87561    90.492435   0.97499938  1571373 
 2522000         0.65    90.492435    90.492435    91.467434    170.87561    90.492435   0.97499938  1571373 
 2523000         0.65    90.492435    90.492435    91.467434    170.87561    90.492435   0.97499938  1571373 
 2524000         0.65    90.492435    90.492435    91.467434    170.87561    90.492435   0.97499938  1571373 
 2525000         0.65    90.492435    90.492435    91.467434    170.87561    90.492435   0.97499938  1571373 
 2526000         0.65    90.492435    90.492435    91.467434    170.87561    90.492435   0.97499938  1571373 
 2527000         0.65    90.492435    90.492435    91.467434    170.87561    90.492435   0.97499938  1571373 
 2528000         0.65    90.492435    90.492435    91.467434    170.87561    90.492435   0.97499938  1571373 
 2529000         0.65    90.492435    90.492435    91.467434    170.87561    90.492435   0.97499938  1571373 
 2530000         0.65    90.492435    90.492435    91.467434    170.87561    90.492435   0.97499938  1571373 
 2531000         0.65    90.492435    90.492435    91.467434    170.87561    90.492435   0.97499938  1571373 
 2532000         0.65    90.492435    90.492435    91.467434    170.87561    90.492435   0.97499938  1571373 
 2533000         0.65    90.492435    90.492435    91.467434    170.87561    90.492435   0.97499938  1571373 
 2534000         0.65    90.492435    90.492435    91.467434    170.87561    90.492435   0.97499938  1571373 
 2535000         0.65    90.492435    90.492435    91.467434    170.87561    90.492435   0.97499938  1571373 
 2536000         0.65    90.492435    90.492435    91.467434    170.87561    90.492435   0.97499938  1571373 
 2537000         0.65    90.492435    90.492435    91.467434    170.87561    90.492435   0.97499938  1571373 
 2538000         0.65    90.492435    90.492435    91.467434    170.87561    90.492435   0.97499938  1571373 
 2539000         0.65    90.492435    90.492435    91.467434    170.87561    90.492435   0.97499938  1571373 
 2540000         0.65    90.492435    90.492435    91.467434    170.87561    90.492435   0.97499938  1571373 
 2541000         0.65    90.492435    90.492435    91.467434    170.87561    90.492435   0.97499938  1571373 
 2542000         0.65    90.492435    90.492435    91.467434    170.87561    90.492435   0.97499938  1571373 
 2543000         0.65    90.492435    90.492435    91.467434    170.87561    90.492435   0.97499938  1571373 
 2544000         0.65    90.492435    90.492435    91.467434    170.87561    90.492435   0.97499938  1571373 
 2545000         0.65    90.492435    90.492435    91.467434    170.87561    90.492435   0.97499938  1571373 
 2546000         0.65    90.492435    90.492435    91.467434    170.87561    90.492435   0.97499938  1571373 
 2547000         0.65    90.492435    90.492435    91.467434    170.87561    90.492435   0.97499938  1571373 
 2548000         0.65    90.492435    90.492435    91.467434    170.87561    90.492435   0.97499938  1571373 
 2549000         0.65    90.492435    90.492435    91.467434    170.87561    90.492435   0.97499938  1571373 
 2550000         0.65    90.492435    90.492435    91.467434    170.87561    90.492435   0.97499938  1571373 
 2551000         0.65    90.492435    90.492435    91.467434    170.87561    90.492435   0.97499938  1571373 
 2552000         0.65    90.492435    90.492435    91.467434    170.87561    90.492435   0.97499938  1571373 
 2553000         0.65    90.492435    90.492435    91.467434    170.87561    90.492435   0.97499938  1571373 
 2554000         0.65    90.492435    90.492435    91.467434    170.87561    90.492435   0.97499938  1571373 
 2555000         0.65    90.492435    90.492435    91.467434    170.87561    90.492435   0.97499938  1571373 
 2556000         0.65    90.492435    90.492435    91.467434    170.87561    90.492435   0.97499938  1571373 
 2557000         0.65    90.492435    90.492435    91.467434    170.87561    90.492435   0.97499938  1571373 
 2558000         0.65    90.492435    90.492435    91.467434    170.87561    90.492435   0.97499938  1571373 
 2559000         0.65    90.492435    90.492435    91.467434    170.87561    90.492435   0.97499938  1571373 
 2560000         0.65    90.492435    90.492435    91.467434    170.87561    90.492435   0.97499938  1571373 
 2561000         0.65    90.492435    90.492435    91.467434    170.87561    90.492435   0.97499938  1571373 
 2562000         0.65    90.492435    90.492435    91.467434    170.87561    90.492435   0.97499938  1571373 
 2563000         0.65    90.492435    90.492435    91.467434    170.87561    90.492435   0.97499938  1571373 
 2564000         0.65    90.492435    90.492435    91.467434    170.87561    90.492435   0.97499938  1571373 
 2565000         0.65    90.492435    90.492435    91.467434    170.87561    90.492435   0.97499938  1571373 
 2566000         0.65    90.492435    90.492435    91.467434    170.87561    90.492435   0.97499938  1571373 
 2567000         0.65    90.492435    90.492435    91.467434    170.87561    90.492435   0.97499938  1571373 
 2568000         0.65    90.492435    90.492435    91.467434    170.87561    90.492435   0.97499938  1571373 
 2569000         0.65    90.492435    90.492435    91.467434    170.87561    90.492435   0.97499938  1571373 
 2570000         0.65    90.492435    90.492435    91.467434    170.87561    90.492435   0.97499938  1571373 
 2571000         0.65    90.492435    90.492435    91.467434    170.87561    90.492435   0.97499938  1571373 
 2572000         0.65    90.492435    90.492435    91.467434    170.87561    90.492435   0.97499938  1571373 
 2573000         0.65    90.492435    90.492435    91.467434    170.87561    90.492435   0.97499938  1571373 
 2574000         0.65    90.492435    90.492435    91.467434    170.87561    90.492435   0.97499938  1571373 
 2575000         0.65    90.492435    90.492435    91.467434    170.87561    90.492435   0.97499938  1571373 
 2576000         0.65    90.492435    90.492435    91.467434    170.87561    90.492435   0.97499938  1571373 
 2577000         0.65    90.492435    90.492435    91.467434    170.87561    90.492435   0.97499938  1571373 
 2578000         0.65    90.492435    90.492435    91.467434    170.87561    90.492435   0.97499938  1571373 
 2579000         0.65    90.492435    90.492435    91.467434    170.87561    90.492435   0.97499938  1571373 
 2580000         0.65    90.492435    90.492435    91.467434    170.87561    90.492435   0.97499938  1571373 
 2581000         0.65    90.492435    90.492435    91.467434    170.87561    90.492435   0.97499938  1571373 
 2582000         0.65    90.492435    90.492435    91.467434    170.87561    90.492435   0.97499938  1571373 
 2583000         0.65    90.492435    90.492435    91.467434    170.87561    90.492435   0.97499938  1571373 
 2584000         0.65    90.492435    90.492435    91.467434    170.87561    90.492435   0.97499938  1571373 
 2585000         0.65    90.492435    90.492435    91.467434    170.87561    90.492435   0.97499938  1571373 
 2586000         0.65    90.492435    90.492435    91.467434    170.87561    90.492435   0.97499938  1571373 
 2587000         0.65    90.492435    90.492435    91.467434    170.87561    90.492435   0.97499938  1571373 
 2588000         0.65    90.492435    90.492435    91.467434    170.87561    90.492435   0.97499938  1571373 
 2589000         0.65    90.492435    90.492435    91.467434    170.87561    90.492435   0.97499938  1571373 
 2590000         0.65    90.492435    90.492435    91.467434    170.87561    90.492435   0.97499938  1571373 
 2591000         0.65    90.492435    90.492435    91.467434    170.87561    90.492435   0.97499938  1571373 
 2592000         0.65    90.492435    90.492435    91.467434    170.87561    90.492435   0.97499938  1571373 
 2593000         0.65    90.492435    90.492435    91.467434    170.87561    90.492435   0.97499938  1571373 
 2594000         0.65    90.492435    90.492435    91.467434    170.87561    90.492435   0.97499938  1571373 
 2595000         0.65    90.492435    90.492435    91.467434    170.87561    90.492435   0.97499938  1571373 
 2596000         0.65    90.492435    90.492435    91.467434    170.87561    90.492435   0.97499938  1571373 
 2597000         0.65    90.492435    90.492435    91.467434    170.87561    90.492435   0.97499938  1571373 
 2598000         0.65    90.492435    90.492435    91.467434    170.87561    90.492435   0.97499938  1571373 
 2599000         0.65    90.492435    90.492435    91.467434    170.87561    90.492435   0.97499938  1571373 
 2600000         0.65    90.492435    90.492435    91.467434    170.87561    90.492435   0.97499938  1571373 
 2601000         0.65    90.492435    90.492435    91.467434    170.87561    90.492435   0.97499938  1571373 
 2602000         0.65    90.492435    90.492435    91.467434    170.87561    90.492435   0.97499938  1571373 
 2603000         0.65    90.492435    90.492435    91.467434    170.87561    90.492435   0.97499938  1571373 
 2604000         0.65    90.492435    90.492435    91.467434    170.87561    90.492435   0.97499938  1571373 
 2605000         0.65    90.492435    90.492435    91.467434    170.87561    90.492435   0.97499938  1571373 
 2606000         0.65    90.492435    90.492435    91.467434    170.87561    90.492435   0.97499938  1571373 
 2607000         0.65    90.492435    90.492435    91.467434    170.87561    90.492435   0.97499938  1571373 
 2608000         0.65    90.492435    90.492435    91.467434    170.87561    90.492435   0.97499938  1571373 
 2609000         0.65    90.492435    90.492435    91.467434    170.87561    90.492435   0.97499938  1571373 
 2610000         0.65    90.492435    90.492435    91.467434    170.87561    90.492435   0.97499938  1571373 
 2611000         0.65    90.492435    90.492435    91.467434    170.87561    90.492435   0.97499938  1571373 
 2612000         0.65    90.492435    90.492435    91.467434    170.87561    90.492435   0.97499938  1571373 
 2613000         0.65    90.492435    90.492435    91.467434    170.87561    90.492435   0.97499938  1571373 
 2614000         0.65    90.492435    90.492435    91.467434    170.87561    90.492435   0.97499938  1571373 
 2615000         0.65    90.492435    90.492435    91.467434    170.87561    90.492435   0.97499938  1571373 
 2616000         0.65    90.492435    90.492435    91.467434    170.87561    90.492435   0.97499938  1571373 
 2617000         0.65    90.492435    90.492435    91.467434    170.87561    90.492435   0.97499938  1571373 
 2618000         0.65    90.492435    90.492435    91.467434    170.87561    90.492435   0.97499938  1571373 
 2619000         0.65    90.492435    90.492435    91.467434    170.87561    90.492435   0.97499938  1571373 
 2620000         0.65    90.492435    90.492435    91.467434    170.87561    90.492435   0.97499938  1571373 
 2621000         0.65    90.492435    90.492435    91.467434    170.87561    90.492435   0.97499938  1571373 
 2622000         0.65    90.492435    90.492435    91.467434    170.87561    90.492435   0.97499938  1571373 
 2623000         0.65    90.492435    90.492435    91.467434    170.87561    90.492435   0.97499938  1571373 
 2624000         0.65    90.492435    90.492435    91.467434    170.87561    90.492435   0.97499938  1571373 
 2625000         0.65    90.492435    90.492435    91.467434    170.87561    90.492435   0.97499938  1571373 
 2626000         0.65    90.492435    90.492435    91.467434    170.87561    90.492435   0.97499938  1571373 
 2627000         0.65    90.492435    90.492435    91.467434    170.87561    90.492435   0.97499938  1571373 
 2628000         0.65    90.492435    90.492435    91.467434    170.87561    90.492435   0.97499938  1571373 
 2629000         0.65    90.492435    90.492435    91.467434    170.87561    90.492435   0.97499938  1571373 
 2630000         0.65    90.492435    90.492435    91.467434    170.87561    90.492435   0.97499938  1571373 
 2631000         0.65    90.492435    90.492435    91.467434    170.87561    90.492435   0.97499938  1571373 
 2632000         0.65    90.492435    90.492435    91.467434    170.87561    90.492435   0.97499938  1571373 
 2633000         0.65    90.492435    90.492435    91.467434    170.87561    90.492435   0.97499938  1571373 
 2634000         0.65    90.492435    90.492435    91.467434    170.87561    90.492435   0.97499938  1571373 
 2635000         0.65    90.492435    90.492435    91.467434    170.87561    90.492435   0.97499938  1571373 
 2636000         0.65    90.492435    90.492435    91.467434    170.87561    90.492435   0.97499938  1571373 
 2637000         0.65    90.492435    90.492435    91.467434    170.87561    90.492435   0.97499938  1571373 
 2638000         0.65    90.492435    90.492435    91.467434    170.87561    90.492435   0.97499938  1571373 
 2639000         0.65    90.492435    90.492435    91.467434    170.87561    90.492435   0.97499938  1571373 
 2640000         0.65    90.492435    90.492435    91.467434    170.87561    90.492435   0.97499938  1571373 
 2641000         0.65    90.492435    90.492435    91.467434    170.87561    90.492435   0.97499938  1571373 
 2642000         0.65    90.492435    90.492435    91.467434    170.87561    90.492435   0.97499938  1571373 
 2643000         0.65    90.492435    90.492435    91.467434    170.87561    90.492435   0.97499938  1571373 
 2644000         0.65    90.492435    90.492435    91.467434    170.87561    90.492435   0.97499938  1571373 
 2645000         0.65    90.492435    90.492435    91.467434    170.87561    90.492435   0.97499938  1571373 
 2646000         0.65    90.492435    90.492435    91.467434    170.87561    90.492435   0.97499938  1571373 
 2647000         0.65    90.492435    90.492435    91.467434    170.87561    90.492435   0.97499938  1571373 
 2648000         0.65    90.492435    90.492435    91.467434    170.87561    90.492435   0.97499938  1571373 
 2649000         0.65    90.492435    90.492435    91.467434    170.87561    90.492435   0.97499938  1571373 
 2650000         0.65    90.492435    90.492435    91.467434    170.87561    90.492435   0.97499938  1571373 
 2651000         0.65    90.492435    90.492435    91.467434    170.87561    90.492435   0.97499938  1571373 
 2652000         0.65    90.492435    90.492435    91.467434    170.87561    90.492435   0.97499938  1571373 
 2653000         0.65    90.492435    90.492435    91.467434    170.87561    90.492435   0.97499938  1571373 
 2654000         0.65    90.492435    90.492435    91.467434    170.87561    90.492435   0.97499938  1571373 
 2655000         0.65    90.492435    90.492435    91.467434    170.87561    90.492435   0.97499938  1571373 
 2656000         0.65    90.492435    90.492435    91.467434    170.87561    90.492435   0.97499938  1571373 
 2657000         0.65    90.492435    90.492435    91.467434    170.87561    90.492435   0.97499938  1571373 
 2658000         0.65    90.492435    90.492435    91.467434    170.87561    90.492435   0.97499938  1571373 
 2659000         0.65    90.492435    90.492435    91.467434    170.87561    90.492435   0.97499938  1571373 
 2660000         0.65    90.492435    90.492435    91.467434    170.87561    90.492435   0.97499938  1571373 
 2661000         0.65    90.492435    90.492435    91.467434    170.87561    90.492435   0.97499938  1571373 
 2662000         0.65    90.492435    90.492435    91.467434    170.87561    90.492435   0.97499938  1571373 
 2663000         0.65    90.492435    90.492435    91.467434    170.87561    90.492435   0.97499938  1571373 
 2664000         0.65    90.492435    90.492435    91.467434    170.87561    90.492435   0.97499938  1571373 
 2665000         0.65    90.492435    90.492435    91.467434    170.87561    90.492435   0.97499938  1571373 
 2666000         0.65    90.492435    90.492435    91.467434    170.87561    90.492435   0.97499938  1571373 
 2667000         0.65    90.492435    90.492435    91.467434    170.87561    90.492435   0.97499938  1571373 
 2668000         0.65    90.492435    90.492435    91.467434    170.87561    90.492435   0.97499938  1571373 
 2669000         0.65    90.492435    90.492435    91.467434    170.87561    90.492435   0.97499938  1571373 
 2670000         0.65    90.492435    90.492435    91.467434    170.87561    90.492435   0.97499938  1571373 
 2671000         0.65    90.492435    90.492435    91.467434    170.87561    90.492435   0.97499938  1571373 
 2672000         0.65    90.492435    90.492435    91.467434    170.87561    90.492435   0.97499938  1571373 
 2673000         0.65    90.492435    90.492435    91.467434    170.87561    90.492435   0.97499938  1571373 
 2674000         0.65    90.492435    90.492435    91.467434    170.87561    90.492435   0.97499938  1571373 
 2675000         0.65    90.492435    90.492435    91.467434    170.87561    90.492435   0.97499938  1571373 
 2676000         0.65    90.492435    90.492435    91.467434    170.87561    90.492435   0.97499938  1571373 
 2677000         0.65    90.492435    90.492435    91.467434    170.87561    90.492435   0.97499938  1571373 
 2678000         0.65    90.492435    90.492435    91.467434    170.87561    90.492435   0.97499938  1571373 
 2679000         0.65    90.492435    90.492435    91.467434    170.87561    90.492435   0.97499938  1571373 
 2680000         0.65    90.492435    90.492435    91.467434    170.87561    90.492435   0.97499938  1571373 
 2681000         0.65    90.492435    90.492435    91.467434    170.87561    90.492435   0.97499938  1571373 
 2682000         0.65    90.492435    90.492435    91.467434    170.87561    90.492435   0.97499938  1571373 
 2683000         0.65    90.492435    90.492435    91.467434    170.87561    90.492435   0.97499938  1571373 
 2684000         0.65    90.492435    90.492435    91.467434    170.87561    90.492435   0.97499938  1571373 
 2685000         0.65    90.492435    90.492435    91.467434    170.87561    90.492435   0.97499938  1571373 
 2686000         0.65    90.492435    90.492435    91.467434    170.87561    90.492435   0.97499938  1571373 
 2687000         0.65    90.492435    90.492435    91.467434    170.87561    90.492435   0.97499938  1571373 
 2688000         0.65    90.492435    90.492435    91.467434    170.87561    90.492435   0.97499938  1571373 
 2689000         0.65    90.492435    90.492435    91.467434    170.87561    90.492435   0.97499938  1571373 
 2690000         0.65    90.492435    90.492435    91.467434    170.87561    90.492435   0.97499938  1571373 
 2691000         0.65    90.492435    90.492435    91.467434    170.87561    90.492435   0.97499938  1571373 
 2692000         0.65    90.492435    90.492435    91.467434    170.87561    90.492435   0.97499938  1571373 
 2693000         0.65    90.492435    90.492435    91.467434    170.87561    90.492435   0.97499938  1571373 
 2694000         0.65    90.492435    90.492435    91.467434    170.87561    90.492435   0.97499938  1571373 
 2695000         0.65    90.492435    90.492435    91.467434    170.87561    90.492435   0.97499938  1571373 
 2696000         0.65    90.492435    90.492435    91.467434    170.87561    90.492435   0.97499938  1571373 
 2697000         0.65    90.492435    90.492435    91.467434    170.87561    90.492435   0.97499938  1571373 
 2698000         0.65    90.492435    90.492435    91.467434    170.87561    90.492435   0.97499938  1571373 
 2699000         0.65    90.492435    90.492435    91.467434    170.87561    90.492435   0.97499938  1571373 
 2700000         0.65    90.492435    90.492435    91.467434    170.87561    90.492435   0.97499938  1571373 
 2701000         0.65    90.492435    90.492435    91.467434    170.87561    90.492435   0.97499938  1571373 
 2702000         0.65    90.492435    90.492435    91.467434    170.87561    90.492435   0.97499938  1571373 
 2703000         0.65    90.492435    90.492435    91.467434    170.87561    90.492435   0.97499938  1571373 
 2704000         0.65    90.492435    90.492435    91.467434    170.87561    90.492435   0.97499938  1571373 
 2705000         0.65    90.492435    90.492435    91.467434    170.87561    90.492435   0.97499938  1571373 
 2706000         0.65    90.492435    90.492435    91.467434    170.87561    90.492435   0.97499938  1571373 
 2707000         0.65    90.492435    90.492435    91.467434    170.87561    90.492435   0.97499938  1571373 
 2708000         0.65    90.492435    90.492435    91.467434    170.87561    90.492435   0.97499938  1571373 
 2709000         0.65    90.492435    90.492435    91.467434    170.87561    90.492435   0.97499938  1571373 
 2710000         0.65    90.492435    90.492435    91.467434    170.87561    90.492435   0.97499938  1571373 
 2711000         0.65    90.492435    90.492435    91.467434    170.87561    90.492435   0.97499938  1571373 
 2712000         0.65    90.492435    90.492435    91.467434    170.87561    90.492435   0.97499938  1571373 
 2713000         0.65    90.492435    90.492435    91.467434    170.87561    90.492435   0.97499938  1571373 
 2714000         0.65    90.492435    90.492435    91.467434    170.87561    90.492435   0.97499938  1571373 
 2715000         0.65    90.492435    90.492435    91.467434    170.87561    90.492435   0.97499938  1571373 
 2716000         0.65    90.492435    90.492435    91.467434    170.87561    90.492435   0.97499938  1571373 
 2717000         0.65    90.492435    90.492435    91.467434    170.87561    90.492435   0.97499938  1571373 
 2718000         0.65    90.492435    90.492435    91.467434    170.87561    90.492435   0.97499938  1571373 
 2719000         0.65    90.492435    90.492435    91.467434    170.87561    90.492435   0.97499938  1571373 
 2720000         0.65    90.492435    90.492435    91.467434    170.87561    90.492435   0.97499938  1571373 
 2721000         0.65    90.492435    90.492435    91.467434    170.87561    90.492435   0.97499938  1571373 
 2722000         0.65    90.492435    90.492435    91.467434    170.87561    90.492435   0.97499938  1571373 
 2723000         0.65    90.492435    90.492435    91.467434    170.87561    90.492435   0.97499938  1571373 
 2724000         0.65    90.492435    90.492435    91.467434    170.87561    90.492435   0.97499938  1571373 
 2725000         0.65    90.492435    90.492435    91.467434    170.87561    90.492435   0.97499938  1571373 
 2726000         0.65    90.492435    90.492435    91.467434    170.87561    90.492435   0.97499938  1571373 
 2727000         0.65    90.492435    90.492435    91.467434    170.87561    90.492435   0.97499938  1571373 
 2728000         0.65    90.492435    90.492435    91.467434    170.87561    90.492435   0.97499938  1571373 
 2729000         0.65    90.492435    90.492435    91.467434    170.87561    90.492435   0.97499938  1571373 
 2730000         0.65    90.492435    90.492435    91.467434    170.87561    90.492435   0.97499938  1571373 
 2731000         0.65    90.492435    90.492435    91.467434    170.87561    90.492435   0.97499938  1571373 
 2732000         0.65    90.492435    90.492435    91.467434    170.87561    90.492435   0.97499938  1571373 
 2733000         0.65    90.492435    90.492435    91.467434    170.87561    90.492435   0.97499938  1571373 
 2734000         0.65    90.492435    90.492435    91.467434    170.87561    90.492435   0.97499938  1571373 
 2735000         0.65    90.492435    90.492435    91.467434    170.87561    90.492435   0.97499938  1571373 
 2736000         0.65    90.492435    90.492435    91.467434    170.87561    90.492435   0.97499938  1571373 
 2737000         0.65    90.492435    90.492435    91.467434    170.87561    90.492435   0.97499938  1571373 
 2738000         0.65    90.492435    90.492435    91.467434    170.87561    90.492435   0.97499938  1571373 
 2739000         0.65    90.492435    90.492435    91.467434    170.87561    90.492435   0.97499938  1571373 
 2740000         0.65    90.492435    90.492435    91.467434    170.87561    90.492435   0.97499938  1571373 
 2741000         0.65    90.492435    90.492435    91.467434    170.87561    90.492435   0.97499938  1571373 
 2742000         0.65    90.492435    90.492435    91.467434    170.87561    90.492435   0.97499938  1571373 
 2743000         0.65    90.492435    90.492435    91.467434    170.87561    90.492435   0.97499938  1571373 
 2744000         0.65    90.492435    90.492435    91.467434    170.87561    90.492435   0.97499938  1571373 
 2745000         0.65    90.492435    90.492435    91.467434    170.87561    90.492435   0.97499938  1571373 
 2746000         0.65    90.492435    90.492435    91.467434    170.87561    90.492435   0.97499938  1571373 
 2747000         0.65    90.492435    90.492435    91.467434    170.87561    90.492435   0.97499938  1571373 
 2748000         0.65    90.492435    90.492435    91.467434    170.87561    90.492435   0.97499938  1571373 
 2749000         0.65    90.492435    90.492435    91.467434    170.87561    90.492435   0.97499938  1571373 
 2750000         0.65    90.492435    90.492435    91.467434    170.87561    90.492435   0.97499938  1571373 
 2751000         0.65    90.492435    90.492435    91.467434    170.87561    90.492435   0.97499938  1571373 
 2752000         0.65    90.492435    90.492435    91.467434    170.87561    90.492435   0.97499938  1571373 
 2753000         0.65    90.492435    90.492435    91.467434    170.87561    90.492435   0.97499938  1571373 
 2754000         0.65    90.492435    90.492435    91.467434    170.87561    90.492435   0.97499938  1571373 
 2755000         0.65    90.492435    90.492435    91.467434    170.87561    90.492435   0.97499938  1571373 
 2756000         0.65    90.492435    90.492435    91.467434    170.87561    90.492435   0.97499938  1571373 
 2757000         0.65    90.492435    90.492435    91.467434    170.87561    90.492435   0.97499938  1571373 
 2758000         0.65    90.492435    90.492435    91.467434    170.87561    90.492435   0.97499938  1571373 
 2759000         0.65    90.492435    90.492435    91.467434    170.87561    90.492435   0.97499938  1571373 
 2760000         0.65    90.492435    90.492435    91.467434    170.87561    90.492435   0.97499938  1571373 
 2761000         0.65    90.492435    90.492435    91.467434    170.87561    90.492435   0.97499938  1571373 
 2762000         0.65    90.492435    90.492435    91.467434    170.87561    90.492435   0.97499938  1571373 
 2763000         0.65    90.492435    90.492435    91.467434    170.87561    90.492435   0.97499938  1571373 
 2764000         0.65    90.492435    90.492435    91.467434    170.87561    90.492435   0.97499938  1571373 
 2765000         0.65    90.492435    90.492435    91.467434    170.87561    90.492435   0.97499938  1571373 
 2766000         0.65    90.492435    90.492435    91.467434    170.87561    90.492435   0.97499938  1571373 
 2767000         0.65    90.492435    90.492435    91.467434    170.87561    90.492435   0.97499938  1571373 
 2768000         0.65    90.492435    90.492435    91.467434    170.87561    90.492435   0.97499938  1571373 
 2769000         0.65    90.492435    90.492435    91.467434    170.87561    90.492435   0.97499938  1571373 
 2770000         0.65    90.492435    90.492435    91.467434    170.87561    90.492435   0.97499938  1571373 
 2771000         0.65    90.492435    90.492435    91.467434    170.87561    90.492435   0.97499938  1571373 
 2772000         0.65    90.492435    90.492435    91.467434    170.87561    90.492435   0.97499938  1571373 
 2773000         0.65    90.492435    90.492435    91.467434    170.87561    90.492435   0.97499938  1571373 
 2774000         0.65    90.492435    90.492435    91.467434    170.87561    90.492435   0.97499938  1571373 
 2775000         0.65    90.492435    90.492435    91.467434    170.87561    90.492435   0.97499938  1571373 
 2776000         0.65    90.492435    90.492435    91.467434    170.87561    90.492435   0.97499938  1571373 
 2777000         0.65    90.492435    90.492435    91.467434    170.87561    90.492435   0.97499938  1571373 
 2778000         0.65    90.492435    90.492435    91.467434    170.87561    90.492435   0.97499938  1571373 
 2779000         0.65    90.492435    90.492435    91.467434    170.87561    90.492435   0.97499938  1571373 
 2780000         0.65    90.492435    90.492435    91.467434    170.87561    90.492435   0.97499938  1571373 
 2781000         0.65    90.492435    90.492435    91.467434    170.87561    90.492435   0.97499938  1571373 
 2782000         0.65    90.492435    90.492435    91.467434    170.87561    90.492435   0.97499938  1571373 
 2783000         0.65    90.492435    90.492435    91.467434    170.87561    90.492435   0.97499938  1571373 
 2784000         0.65    90.492435    90.492435    91.467434    170.87561    90.492435   0.97499938  1571373 
 2785000         0.65    90.492435    90.492435    91.467434    170.87561    90.492435   0.97499938  1571373 
 2786000         0.65    90.492435    90.492435    91.467434    170.87561    90.492435   0.97499938  1571373 
 2787000         0.65    90.492435    90.492435    91.467434    170.87561    90.492435   0.97499938  1571373 
 2788000         0.65    90.492435    90.492435    91.467434    170.87561    90.492435   0.97499938  1571373 
 2789000         0.65    90.492435    90.492435    91.467434    170.87561    90.492435   0.97499938  1571373 
 2790000         0.65    90.492435    90.492435    91.467434    170.87561    90.492435   0.97499938  1571373 
 2791000         0.65    90.492435    90.492435    91.467434    170.87561    90.492435   0.97499938  1571373 
 2792000         0.65    90.492435    90.492435    91.467434    170.87561    90.492435   0.97499938  1571373 
 2793000         0.65    90.492435    90.492435    91.467434    170.87561    90.492435   0.97499938  1571373 
 2794000         0.65    90.492435    90.492435    91.467434    170.87561    90.492435   0.97499938  1571373 
 2795000         0.65    90.492435    90.492435    91.467434    170.87561    90.492435   0.97499938  1571373 
 2796000         0.65    90.492435    90.492435    91.467434    170.87561    90.492435   0.97499938  1571373 
 2797000         0.65    90.492435    90.492435    91.467434    170.87561    90.492435   0.97499938  1571373 
 2798000         0.65    90.492435    90.492435    91.467434    170.87561    90.492435   0.97499938  1571373 
 2799000         0.65    90.492435    90.492435    91.467434    170.87561    90.492435   0.97499938  1571373 
 2800000         0.65    90.492435    90.492435    91.467434    170.87561    90.492435   0.97499938  1571373 
 2801000         0.65    90.492435    90.492435    91.467434    170.87561    90.492435   0.97499938  1571373 
 2802000         0.65    90.492435    90.492435    91.467434    170.87561    90.492435   0.97499938  1571373 
 2803000         0.65    90.492435    90.492435    91.467434    170.87561    90.492435   0.97499938  1571373 
 2804000         0.65    90.492435    90.492435    91.467434    170.87561    90.492435   0.97499938  1571373 
 2805000         0.65    90.492435    90.492435    91.467434    170.87561    90.492435   0.97499938  1571373 
 2806000         0.65    90.492435    90.492435    91.467434    170.87561    90.492435   0.97499938  1571373 
 2807000         0.65    90.492435    90.492435    91.467434    170.87561    90.492435   0.97499938  1571373 
 2808000         0.65    90.492435    90.492435    91.467434    170.87561    90.492435   0.97499938  1571373 
 2809000         0.65    90.492435    90.492435    91.467434    170.87561    90.492435   0.97499938  1571373 
 2810000         0.65    90.492435    90.492435    91.467434    170.87561    90.492435   0.97499938  1571373 
 2811000         0.65    90.492435    90.492435    91.467434    170.87561    90.492435   0.97499938  1571373 
 2812000         0.65    90.492435    90.492435    91.467434    170.87561    90.492435   0.97499938  1571373 
 2813000         0.65    90.492435    90.492435    91.467434    170.87561    90.492435   0.97499938  1571373 
 2814000         0.65    90.492435    90.492435    91.467434    170.87561    90.492435   0.97499938  1571373 
 2815000         0.65    90.492435    90.492435    91.467434    170.87561    90.492435   0.97499938  1571373 
 2816000         0.65    90.492435    90.492435    91.467434    170.87561    90.492435   0.97499938  1571373 
 2817000         0.65    90.492435    90.492435    91.467434    170.87561    90.492435   0.97499938  1571373 
 2818000         0.65    90.492435    90.492435    91.467434    170.87561    90.492435   0.97499938  1571373 
 2819000         0.65    90.492435    90.492435    91.467434    170.87561    90.492435   0.97499938  1571373 
 2820000         0.65    90.492435    90.492435    91.467434    170.87561    90.492435   0.97499938  1571373 
 2821000         0.65    90.492435    90.492435    91.467434    170.87561    90.492435   0.97499938  1571373 
 2822000         0.65    90.492435    90.492435    91.467434    170.87561    90.492435   0.97499938  1571373 
 2823000         0.65    90.492435    90.492435    91.467434    170.87561    90.492435   0.97499938  1571373 
 2824000         0.65    90.492435    90.492435    91.467434    170.87561    90.492435   0.97499938  1571373 
 2825000         0.65    90.492435    90.492435    91.467434    170.87561    90.492435   0.97499938  1571373 
 2826000         0.65    90.492435    90.492435    91.467434    170.87561    90.492435   0.97499938  1571373 
 2827000         0.65    90.492435    90.492435    91.467434    170.87561    90.492435   0.97499938  1571373 
 2828000         0.65    90.492435    90.492435    91.467434    170.87561    90.492435   0.97499938  1571373 
 2829000         0.65    90.492435    90.492435    91.467434    170.87561    90.492435   0.97499938  1571373 
 2830000         0.65    90.492435    90.492435    91.467434    170.87561    90.492435   0.97499938  1571373 
 2831000         0.65    90.492435    90.492435    91.467434    170.87561    90.492435   0.97499938  1571373 
 2832000         0.65    90.492435    90.492435    91.467434    170.87561    90.492435   0.97499938  1571373 
 2833000         0.65    90.492435    90.492435    91.467434    170.87561    90.492435   0.97499938  1571373 
 2834000         0.65    90.492435    90.492435    91.467434    170.87561    90.492435   0.97499938  1571373 
 2835000         0.65    90.492435    90.492435    91.467434    170.87561    90.492435   0.97499938  1571373 
 2836000         0.65    90.492435    90.492435    91.467434    170.87561    90.492435   0.97499938  1571373 
 2837000         0.65    90.492435    90.492435    91.467434    170.87561    90.492435   0.97499938  1571373 
 2838000         0.65    90.492435    90.492435    91.467434    170.87561    90.492435   0.97499938  1571373 
 2839000         0.65    90.492435    90.492435    91.467434    170.87561    90.492435   0.97499938  1571373 
 2840000         0.65    90.492435    90.492435    91.467434    170.87561    90.492435   0.97499938  1571373 
 2841000         0.65    90.492435    90.492435    91.467434    170.87561    90.492435   0.97499938  1571373 
 2842000         0.65    90.492435    90.492435    91.467434    170.87561    90.492435   0.97499938  1571373 
 2843000         0.65    90.492435    90.492435    91.467434    170.87561    90.492435   0.97499938  1571373 
 2844000         0.65    90.492435    90.492435    91.467434    170.87561    90.492435   0.97499938  1571373 
 2845000         0.65    90.492435    90.492435    91.467434    170.87561    90.492435   0.97499938  1571373 
 2846000         0.65    90.492435    90.492435    91.467434    170.87561    90.492435   0.97499938  1571373 
 2847000         0.65    90.492435    90.492435    91.467434    170.87561    90.492435   0.97499938  1571373 
 2848000         0.65    90.492435    90.492435    91.467434    170.87561    90.492435   0.97499938  1571373 
 2849000         0.65    90.492435    90.492435    91.467434    170.87561    90.492435   0.97499938  1571373 
 2850000         0.65    90.492435    90.492435    91.467434    170.87561    90.492435   0.97499938  1571373 
 2851000         0.65    90.492435    90.492435    91.467434    170.87561    90.492435   0.97499938  1571373 
 2852000         0.65    90.492435    90.492435    91.467434    170.87561    90.492435   0.97499938  1571373 
 2853000         0.65    90.492435    90.492435    91.467434    170.87561    90.492435   0.97499938  1571373 
 2854000         0.65    90.492435    90.492435    91.467434    170.87561    90.492435   0.97499938  1571373 
 2855000         0.65    90.492435    90.492435    91.467434    170.87561    90.492435   0.97499938  1571373 
 2856000         0.65    90.492435    90.492435    91.467434    170.87561    90.492435   0.97499938  1571373 
 2857000         0.65    90.492435    90.492435    91.467434    170.87561    90.492435   0.97499938  1571373 
 2858000         0.65    90.492435    90.492435    91.467434    170.87561    90.492435   0.97499938  1571373 
 2859000         0.65    90.492435    90.492435    91.467434    170.87561    90.492435   0.97499938  1571373 
 2860000         0.65    90.492435    90.492435    91.467434    170.87561    90.492435   0.97499938  1571373 
 2861000         0.65    90.492435    90.492435    91.467434    170.87561    90.492435   0.97499938  1571373 
 2862000         0.65    90.492435    90.492435    91.467434    170.87561    90.492435   0.97499938  1571373 
 2863000         0.65    90.492435    90.492435    91.467434    170.87561    90.492435   0.97499938  1571373 
 2864000         0.65    90.492435    90.492435    91.467434    170.87561    90.492435   0.97499938  1571373 
 2865000         0.65    90.492435    90.492435    91.467434    170.87561    90.492435   0.97499938  1571373 
 2866000         0.65    90.492435    90.492435    91.467434    170.87561    90.492435   0.97499938  1571373 
 2867000         0.65    90.492435    90.492435    91.467434    170.87561    90.492435   0.97499938  1571373 
 2868000         0.65    90.492435    90.492435    91.467434    170.87561    90.492435   0.97499938  1571373 
 2869000         0.65    90.492435    90.492435    91.467434    170.87561    90.492435   0.97499938  1571373 
 2870000         0.65    90.492435    90.492435    91.467434    170.87561    90.492435   0.97499938  1571373 
 2871000         0.65    90.492435    90.492435    91.467434    170.87561    90.492435   0.97499938  1571373 
 2872000         0.65    90.492435    90.492435    91.467434    170.87561    90.492435   0.97499938  1571373 
 2873000         0.65    90.492435    90.492435    91.467434    170.87561    90.492435   0.97499938  1571373 
 2874000         0.65    90.492435    90.492435    91.467434    170.87561    90.492435   0.97499938  1571373 
 2875000         0.65    90.492435    90.492435    91.467434    170.87561    90.492435   0.97499938  1571373 
 2876000         0.65    90.492435    90.492435    91.467434    170.87561    90.492435   0.97499938  1571373 
 2877000         0.65    90.492435    90.492435    91.467434    170.87561    90.492435   0.97499938  1571373 
 2878000         0.65    90.492435    90.492435    91.467434    170.87561    90.492435   0.97499938  1571373 
 2879000         0.65    90.492435    90.492435    91.467434    170.87561    90.492435   0.97499938  1571373 
 2880000         0.65    90.492435    90.492435    91.467434    170.87561    90.492435   0.97499938  1571373 
 2881000         0.65    90.492435    90.492435    91.467434    170.87561    90.492435   0.97499938  1571373 
 2882000         0.65    90.492435    90.492435    91.467434    170.87561    90.492435   0.97499938  1571373 
 2883000         0.65    90.492435    90.492435    91.467434    170.87561    90.492435   0.97499938  1571373 
 2884000         0.65    90.492435    90.492435    91.467434    170.87561    90.492435   0.97499938  1571373 
 2885000         0.65    90.492435    90.492435    91.467434    170.87561    90.492435   0.97499938  1571373 
 2886000         0.65    90.492435    90.492435    91.467434    170.87561    90.492435   0.97499938  1571373 
 2887000         0.65    90.492435    90.492435    91.467434    170.87561    90.492435   0.97499938  1571373 
 2888000         0.65    90.492435    90.492435    91.467434    170.87561    90.492435   0.97499938  1571373 
 2889000         0.65    90.492435    90.492435    91.467434    170.87561    90.492435   0.97499938  1571373 
 2890000         0.65    90.492435    90.492435    91.467434    170.87561    90.492435   0.97499938  1571373 
 2891000         0.65    90.492435    90.492435    91.467434    170.87561    90.492435   0.97499938  1571373 
 2892000         0.65    90.492435    90.492435    91.467434    170.87561    90.492435   0.97499938  1571373 
 2893000         0.65    90.492435    90.492435    91.467434    170.87561    90.492435   0.97499938  1571373 
 2894000         0.65    90.492435    90.492435    91.467434    170.87561    90.492435   0.97499938  1571373 
 2895000         0.65    90.492435    90.492435    91.467434    170.87561    90.492435   0.97499938  1571373 
 2896000         0.65    90.492435    90.492435    91.467434    170.87561    90.492435   0.97499938  1571373 
 2897000         0.65    90.492435    90.492435    91.467434    170.87561    90.492435   0.97499938  1571373 
 2898000         0.65    90.492435    90.492435    91.467434    170.87561    90.492435   0.97499938  1571373 
 2899000         0.65    90.492435    90.492435    91.467434    170.87561    90.492435   0.97499938  1571373 
 2900000         0.65    90.492435    90.492435    91.467434    170.87561    90.492435   0.97499938  1571373 
 2901000         0.65    90.492435    90.492435    91.467434    170.87561    90.492435   0.97499938  1571373 
 2902000         0.65    90.492435    90.492435    91.467434    170.87561    90.492435   0.97499938  1571373 
 2903000         0.65    90.492435    90.492435    91.467434    170.87561    90.492435   0.97499938  1571373 
 2904000         0.65    90.492435    90.492435    91.467434    170.87561    90.492435   0.97499938  1571373 
 2905000         0.65    90.492435    90.492435    91.467434    170.87561    90.492435   0.97499938  1571373 
 2906000         0.65    90.492435    90.492435    91.467434    170.87561    90.492435   0.97499938  1571373 
 2907000         0.65    90.492435    90.492435    91.467434    170.87561    90.492435   0.97499938  1571373 
 2908000         0.65    90.492435    90.492435    91.467434    170.87561    90.492435   0.97499938  1571373 
 2909000         0.65    90.492435    90.492435    91.467434    170.87561    90.492435   0.97499938  1571373 
 2910000         0.65    90.492435    90.492435    91.467434    170.87561    90.492435   0.97499938  1571373 
 2911000         0.65    90.492435    90.492435    91.467434    170.87561    90.492435   0.97499938  1571373 
 2912000         0.65    90.492435    90.492435    91.467434    170.87561    90.492435   0.97499938  1571373 
 2913000         0.65    90.492435    90.492435    91.467434    170.87561    90.492435   0.97499938  1571373 
 2914000         0.65    90.492435    90.492435    91.467434    170.87561    90.492435   0.97499938  1571373 
 2915000         0.65    90.492435    90.492435    91.467434    170.87561    90.492435   0.97499938  1571373 
 2916000         0.65    90.492435    90.492435    91.467434    170.87561    90.492435   0.97499938  1571373 
 2917000         0.65    90.492435    90.492435    91.467434    170.87561    90.492435   0.97499938  1571373 
 2918000         0.65    90.492435    90.492435    91.467434    170.87561    90.492435   0.97499938  1571373 
 2919000         0.65    90.492435    90.492435    91.467434    170.87561    90.492435   0.97499938  1571373 
 2920000         0.65    90.492435    90.492435    91.467434    170.87561    90.492435   0.97499938  1571373 
 2921000         0.65    90.492435    90.492435    91.467434    170.87561    90.492435   0.97499938  1571373 
 2922000         0.65    90.492435    90.492435    91.467434    170.87561    90.492435   0.97499938  1571373 
 2923000         0.65    90.492435    90.492435    91.467434    170.87561    90.492435   0.97499938  1571373 
 2924000         0.65    90.492435    90.492435    91.467434    170.87561    90.492435   0.97499938  1571373 
 2925000         0.65    90.492435    90.492435    91.467434    170.87561    90.492435   0.97499938  1571373 
 2926000         0.65    90.492435    90.492435    91.467434    170.87561    90.492435   0.97499938  1571373 
 2927000         0.65    90.492435    90.492435    91.467434    170.87561    90.492435   0.97499938  1571373 
 2928000         0.65    90.492435    90.492435    91.467434    170.87561    90.492435   0.97499938  1571373 
 2929000         0.65    90.492435    90.492435    91.467434    170.87561    90.492435   0.97499938  1571373 
 2930000         0.65    90.492435    90.492435    91.467434    170.87561    90.492435   0.97499938  1571373 
 2931000         0.65    90.492435    90.492435    91.467434    170.87561    90.492435   0.97499938  1571373 
 2932000         0.65    90.492435    90.492435    91.467434    170.87561    90.492435   0.97499938  1571373 
 2933000         0.65    90.492435    90.492435    91.467434    170.87561    90.492435   0.97499938  1571373 
 2934000         0.65    90.492435    90.492435    91.467434    170.87561    90.492435   0.97499938  1571373 
 2935000         0.65    90.492435    90.492435    91.467434    170.87561    90.492435   0.97499938  1571373 
 2936000         0.65    90.492435    90.492435    91.467434    170.87561    90.492435   0.97499938  1571373 
 2937000         0.65    90.492435    90.492435    91.467434    170.87561    90.492435   0.97499938  1571373 
 2938000         0.65    90.492435    90.492435    91.467434    170.87561    90.492435   0.97499938  1571373 
 2939000         0.65    90.492435    90.492435    91.467434    170.87561    90.492435   0.97499938  1571373 
 2940000         0.65    90.492435    90.492435    91.467434    170.87561    90.492435   0.97499938  1571373 
 2941000         0.65    90.492435    90.492435    91.467434    170.87561    90.492435   0.97499938  1571373 
 2942000         0.65    90.492435    90.492435    91.467434    170.87561    90.492435   0.97499938  1571373 
 2943000         0.65    90.492435    90.492435    91.467434    170.87561    90.492435   0.97499938  1571373 
 2944000         0.65    90.492435    90.492435    91.467434    170.87561    90.492435   0.97499938  1571373 
 2945000         0.65    90.492435    90.492435    91.467434    170.87561    90.492435   0.97499938  1571373 
 2946000         0.65    90.492435    90.492435    91.467434    170.87561    90.492435   0.97499938  1571373 
 2947000         0.65    90.492435    90.492435    91.467434    170.87561    90.492435   0.97499938  1571373 
 2948000         0.65    90.492435    90.492435    91.467434    170.87561    90.492435   0.97499938  1571373 
 2949000         0.65    90.492435    90.492435    91.467434    170.87561    90.492435   0.97499938  1571373 
 2950000         0.65    90.492435    90.492435    91.467434    170.87561    90.492435   0.97499938  1571373 
 2951000         0.65    90.492435    90.492435    91.467434    170.87561    90.492435   0.97499938  1571373 
 2952000         0.65    90.492435    90.492435    91.467434    170.87561    90.492435   0.97499938  1571373 
 2953000         0.65    90.492435    90.492435    91.467434    170.87561    90.492435   0.97499938  1571373 
 2954000         0.65    90.492435    90.492435    91.467434    170.87561    90.492435   0.97499938  1571373 
 2955000         0.65    90.492435    90.492435    91.467434    170.87561    90.492435   0.97499938  1571373 
 2956000         0.65    90.492435    90.492435    91.467434    170.87561    90.492435   0.97499938  1571373 
 2957000         0.65    90.492435    90.492435    91.467434    170.87561    90.492435   0.97499938  1571373 
 2958000         0.65    90.492435    90.492435    91.467434    170.87561    90.492435   0.97499938  1571373 
 2959000         0.65    90.492435    90.492435    91.467434    170.87561    90.492435   0.97499938  1571373 
 2960000         0.65    90.492435    90.492435    91.467434    170.87561    90.492435   0.97499938  1571373 
 2961000         0.65    90.492435    90.492435    91.467434    170.87561    90.492435   0.97499938  1571373 
 2962000         0.65    90.492435    90.492435    91.467434    170.87561    90.492435   0.97499938  1571373 
 2963000         0.65    90.492435    90.492435    91.467434    170.87561    90.492435   0.97499938  1571373 
 2964000         0.65    90.492435    90.492435    91.467434    170.87561    90.492435   0.97499938  1571373 
 2965000         0.65    90.492435    90.492435    91.467434    170.87561    90.492435   0.97499938  1571373 
 2966000         0.65    90.492435    90.492435    91.467434    170.87561    90.492435   0.97499938  1571373 
 2967000         0.65    90.492435    90.492435    91.467434    170.87561    90.492435   0.97499938  1571373 
 2968000         0.65    90.492435    90.492435    91.467434    170.87561    90.492435   0.97499938  1571373 
 2969000         0.65    90.492435    90.492435    91.467434    170.87561    90.492435   0.97499938  1571373 
 2970000         0.65    90.492435    90.492435    91.467434    170.87561    90.492435   0.97499938  1571373 
 2971000         0.65    90.492435    90.492435    91.467434    170.87561    90.492435   0.97499938  1571373 
 2972000         0.65    90.492435    90.492435    91.467434    170.87561    90.492435   0.97499938  1571373 
 2973000         0.65    90.492435    90.492435    91.467434    170.87561    90.492435   0.97499938  1571373 
 2974000         0.65    90.492435    90.492435    91.467434    170.87561    90.492435   0.97499938  1571373 
 2975000         0.65    90.492435    90.492435    91.467434    170.87561    90.492435   0.97499938  1571373 
 2976000         0.65    90.492435    90.492435    91.467434    170.87561    90.492435   0.97499938  1571373 
 2977000         0.65    90.492435    90.492435    91.467434    170.87561    90.492435   0.97499938  1571373 
 2978000         0.65    90.492435    90.492435    91.467434    170.87561    90.492435   0.97499938  1571373 
 2979000         0.65    90.492435    90.492435    91.467434    170.87561    90.492435   0.97499938  1571373 
 2980000         0.65    90.492435    90.492435    91.467434    170.87561    90.492435   0.97499938  1571373 
 2981000         0.65    90.492435    90.492435    91.467434    170.87561    90.492435   0.97499938  1571373 
 2982000         0.65    90.492435    90.492435    91.467434    170.87561    90.492435   0.97499938  1571373 
 2983000         0.65    90.492435    90.492435    91.467434    170.87561    90.492435   0.97499938  1571373 
 2984000         0.65    90.492435    90.492435    91.467434    170.87561    90.492435   0.97499938  1571373 
 2985000         0.65    90.492435    90.492435    91.467434    170.87561    90.492435   0.97499938  1571373 
 2986000         0.65    90.492435    90.492435    91.467434    170.87561    90.492435   0.97499938  1571373 
 2987000         0.65    90.492435    90.492435    91.467434    170.87561    90.492435   0.97499938  1571373 
 2988000         0.65    90.492435    90.492435    91.467434    170.87561    90.492435   0.97499938  1571373 
 2989000         0.65    90.492435    90.492435    91.467434    170.87561    90.492435   0.97499938  1571373 
 2990000         0.65    90.492435    90.492435    91.467434    170.87561    90.492435   0.97499938  1571373 
 2991000         0.65    90.492435    90.492435    91.467434    170.87561    90.492435   0.97499938  1571373 
 2992000         0.65    90.492435    90.492435    91.467434    170.87561    90.492435   0.97499938  1571373 
 2993000         0.65    90.492435    90.492435    91.467434    170.87561    90.492435   0.97499938  1571373 
 2994000         0.65    90.492435    90.492435    91.467434    170.87561    90.492435   0.97499938  1571373 
 2995000         0.65    90.492435    90.492435    91.467434    170.87561    90.492435   0.97499938  1571373 
 2996000         0.65    90.492435    90.492435    91.467434    170.87561    90.492435   0.97499938  1571373 
 2997000         0.65    90.492435    90.492435    91.467434    170.87561    90.492435   0.97499938  1571373 
 2998000         0.65    90.492435    90.492435    91.467434    170.87561    90.492435   0.97499938  1571373 
 2999000         0.65    90.492435    90.492435    91.467434    170.87561    90.492435   0.97499938  1571373 
 3000000         0.65    90.492435    90.492435    91.467434    170.87561    90.492435   0.97499938  1571373 
 3001000         0.65    90.492435    90.492435    91.467434    170.87561    90.492435   0.97499938  1571373 
 3002000         0.65    90.492435    90.492435    91.467434    170.87561    90.492435   0.97499938  1571373 
 3003000         0.65    90.492435    90.492435    91.467434    170.87561    90.492435   0.97499938  1571373 
 3004000         0.65    90.492435    90.492435    91.467434    170.87561    90.492435   0.97499938  1571373 
 3005000         0.65    90.492435    90.492435    91.467434    170.87561    90.492435   0.97499938  1571373 
 3006000         0.65    90.492435    90.492435    91.467434    170.87561    90.492435   0.97499938  1571373 
 3007000         0.65    90.492435    90.492435    91.467434    170.87561    90.492435   0.97499938  1571373 
 3008000         0.65    90.492435    90.492435    91.467434    170.87561    90.492435   0.97499938  1571373 
 3009000         0.65    90.492435    90.492435    91.467434    170.87561    90.492435   0.97499938  1571373 
 3010000         0.65    90.492435    90.492435    91.467434    170.87561    90.492435   0.97499938  1571373 
 3011000         0.65    90.492435    90.492435    91.467434    170.87561    90.492435   0.97499938  1571373 
 3012000         0.65    90.492435    90.492435    91.467434    170.87561    90.492435   0.97499938  1571373 
 3013000         0.65    90.492435    90.492435    91.467434    170.87561    90.492435   0.97499938  1571373 
 3014000         0.65    90.492435    90.492435    91.467434    170.87561    90.492435   0.97499938  1571373 
 3015000         0.65    90.492435    90.492435    91.467434    170.87561    90.492435   0.97499938  1571373 
 3016000         0.65    90.492435    90.492435    91.467434    170.87561    90.492435   0.97499938  1571373 
 3017000         0.65    90.492435    90.492435    91.467434    170.87561    90.492435   0.97499938  1571373 
 3018000         0.65    90.492435    90.492435    91.467434    170.87561    90.492435   0.97499938  1571373 
 3019000         0.65    90.492435    90.492435    91.467434    170.87561    90.492435   0.97499938  1571373 
 3020000         0.65    90.492435    90.492435    91.467434    170.87561    90.492435   0.97499938  1571373 
 3021000         0.65    90.492435    90.492435    91.467434    170.87561    90.492435   0.97499938  1571373 
 3022000         0.65    90.492435    90.492435    91.467434    170.87561    90.492435   0.97499938  1571373 
 3023000         0.65    90.492435    90.492435    91.467434    170.87561    90.492435   0.97499938  1571373 
 3024000         0.65    90.492435    90.492435    91.467434    170.87561    90.492435   0.97499938  1571373 
 3025000         0.65    90.492435    90.492435    91.467434    170.87561    90.492435   0.97499938  1571373 
 3026000         0.65    90.492435    90.492435    91.467434    170.87561    90.492435   0.97499938  1571373 
 3027000         0.65    90.492435    90.492435    91.467434    170.87561    90.492435   0.97499938  1571373 
 3028000         0.65    90.492435    90.492435    91.467434    170.87561    90.492435   0.97499938  1571373 
 3029000         0.65    90.492435    90.492435    91.467434    170.87561    90.492435   0.97499938  1571373 
 3030000         0.65    90.492435    90.492435    91.467434    170.87561    90.492435   0.97499938  1571373 
 3031000         0.65    90.492435    90.492435    91.467434    170.87561    90.492435   0.97499938  1571373 
 3032000         0.65    90.492435    90.492435    91.467434    170.87561    90.492435   0.97499938  1571373 
 3033000         0.65    90.492435    90.492435    91.467434    170.87561    90.492435   0.97499938  1571373 
 3034000         0.65    90.492435    90.492435    91.467434    170.87561    90.492435   0.97499938  1571373 
 3035000         0.65    90.492435    90.492435    91.467434    170.87561    90.492435   0.97499938  1571373 
 3036000         0.65    90.492435    90.492435    91.467434    170.87561    90.492435   0.97499938  1571373 
 3037000         0.65    90.492435    90.492435    91.467434    170.87561    90.492435   0.97499938  1571373 
 3038000         0.65    90.492435    90.492435    91.467434    170.87561    90.492435   0.97499938  1571373 
 3039000         0.65    90.492435    90.492435    91.467434    170.87561    90.492435   0.97499938  1571373 
 3040000         0.65    90.492435    90.492435    91.467434    170.87561    90.492435   0.97499938  1571373 
 3041000         0.65    90.492435    90.492435    91.467434    170.87561    90.492435   0.97499938  1571373 
 3042000         0.65    90.492435    90.492435    91.467434    170.87561    90.492435   0.97499938  1571373 
 3043000         0.65    90.492435    90.492435    91.467434    170.87561    90.492435   0.97499938  1571373 
 3044000         0.65    90.492435    90.492435    91.467434    170.87561    90.492435   0.97499938  1571373 
 3045000         0.65    90.492435    90.492435    91.467434    170.87561    90.492435   0.97499938  1571373 
 3046000         0.65    90.492435    90.492435    91.467434    170.87561    90.492435   0.97499938  1571373 
 3047000         0.65    90.492435    90.492435    91.467434    170.87561    90.492435   0.97499938  1571373 
 3048000         0.65    90.492435    90.492435    91.467434    170.87561    90.492435   0.97499938  1571373 
 3049000         0.65    90.492435    90.492435    91.467434    170.87561    90.492435   0.97499938  1571373 
 3050000         0.65    90.492435    90.492435    91.467434    170.87561    90.492435   0.97499938  1571373 
 3051000         0.65    90.492435    90.492435    91.467434    170.87561    90.492435   0.97499938  1571373 
 3052000         0.65    90.492435    90.492435    91.467434    170.87561    90.492435   0.97499938  1571373 
 3053000         0.65    90.492435    90.492435    91.467434    170.87561    90.492435   0.97499938  1571373 
 3054000         0.65    90.492435    90.492435    91.467434    170.87561    90.492435   0.97499938  1571373 
 3055000         0.65    90.492435    90.492435    91.467434    170.87561    90.492435   0.97499938  1571373 
 3056000         0.65    90.492435    90.492435    91.467434    170.87561    90.492435   0.97499938  1571373 
 3057000         0.65    90.492435    90.492435    91.467434    170.87561    90.492435   0.97499938  1571373 
 3058000         0.65    90.492435    90.492435    91.467434    170.87561    90.492435   0.97499938  1571373 
 3059000         0.65    90.492435    90.492435    91.467434    170.87561    90.492435   0.97499938  1571373 
 3060000         0.65    90.492435    90.492435    91.467434    170.87561    90.492435   0.97499938  1571373 
 3061000         0.65    90.492435    90.492435    91.467434    170.87561    90.492435   0.97499938  1571373 
 3062000         0.65    90.492435    90.492435    91.467434    170.87561    90.492435   0.97499938  1571373 
 3063000         0.65    90.492435    90.492435    91.467434    170.87561    90.492435   0.97499938  1571373 
 3064000         0.65    90.492435    90.492435    91.467434    170.87561    90.492435   0.97499938  1571373 
 3065000         0.65    90.492435    90.492435    91.467434    170.87561    90.492435   0.97499938  1571373 
 3066000         0.65    90.492435    90.492435    91.467434    170.87561    90.492435   0.97499938  1571373 
 3067000         0.65    90.492435    90.492435    91.467434    170.87561    90.492435   0.97499938  1571373 
 3068000         0.65    90.492435    90.492435    91.467434    170.87561    90.492435   0.97499938  1571373 
 3069000         0.65    90.492435    90.492435    91.467434    170.87561    90.492435   0.97499938  1571373 
 3070000         0.65    90.492435    90.492435    91.467434    170.87561    90.492435   0.97499938  1571373 
 3071000         0.65    90.492435    90.492435    91.467434    170.87561    90.492435   0.97499938  1571373 
 3072000         0.65    90.492435    90.492435    91.467434    170.87561    90.492435   0.97499938  1571373 
 3073000         0.65    90.492435    90.492435    91.467434    170.87561    90.492435   0.97499938  1571373 
 3074000         0.65    90.492435    90.492435    91.467434    170.87561    90.492435   0.97499938  1571373 
 3075000         0.65    90.492435    90.492435    91.467434    170.87561    90.492435   0.97499938  1571373 
 3076000         0.65    90.492435    90.492435    91.467434    170.87561    90.492435   0.97499938  1571373 
 3077000         0.65    90.492435    90.492435    91.467434    170.87561    90.492435   0.97499938  1571373 
 3078000         0.65    90.492435    90.492435    91.467434    170.87561    90.492435   0.97499938  1571373 
 3079000         0.65    90.492435    90.492435    91.467434    170.87561    90.492435   0.97499938  1571373 
 3080000         0.65    90.492435    90.492435    91.467434    170.87561    90.492435   0.97499938  1571373 
 3081000         0.65    90.492435    90.492435    91.467434    170.87561    90.492435   0.97499938  1571373 
 3082000         0.65    90.492435    90.492435    91.467434    170.87561    90.492435   0.97499938  1571373 
 3083000         0.65    90.492435    90.492435    91.467434    170.87561    90.492435   0.97499938  1571373 
 3084000         0.65    90.492435    90.492435    91.467434    170.87561    90.492435   0.97499938  1571373 
 3085000         0.65    90.492435    90.492435    91.467434    170.87561    90.492435   0.97499938  1571373 
 3086000         0.65    90.492435    90.492435    91.467434    170.87561    90.492435   0.97499938  1571373 
 3087000         0.65    90.492435    90.492435    91.467434    170.87561    90.492435   0.97499938  1571373 
 3088000         0.65    90.492435    90.492435    91.467434    170.87561    90.492435   0.97499938  1571373 
 3089000         0.65    90.492435    90.492435    91.467434    170.87561    90.492435   0.97499938  1571373 
 3090000         0.65    90.492435    90.492435    91.467434    170.87561    90.492435   0.97499938  1571373 
 3091000         0.65    90.492435    90.492435    91.467434    170.87561    90.492435   0.97499938  1571373 
 3092000         0.65    90.492435    90.492435    91.467434    170.87561    90.492435   0.97499938  1571373 
 3093000         0.65    90.492435    90.492435    91.467434    170.87561    90.492435   0.97499938  1571373 
 3094000         0.65    90.492435    90.492435    91.467434    170.87561    90.492435   0.97499938  1571373 
 3095000         0.65    90.492435    90.492435    91.467434    170.87561    90.492435   0.97499938  1571373 
 3096000         0.65    90.492435    90.492435    91.467434    170.87561    90.492435   0.97499938  1571373 
 3097000         0.65    90.492435    90.492435    91.467434    170.87561    90.492435   0.97499938  1571373 
 3098000         0.65    90.492435    90.492435    91.467434    170.87561    90.492435   0.97499938  1571373 
 3099000         0.65    90.492435    90.492435    91.467434    170.87561    90.492435   0.97499938  1571373 
 3100000         0.65    90.492435    90.492435    91.467434    170.87561    90.492435   0.97499938  1571373 
 3101000         0.65    90.492435    90.492435    91.467434    170.87561    90.492435   0.97499938  1571373 
 3102000         0.65    90.492435    90.492435    91.467434    170.87561    90.492435   0.97499938  1571373 
 3103000         0.65    90.492435    90.492435    91.467434    170.87561    90.492435   0.97499938  1571373 
 3104000         0.65    90.492435    90.492435    91.467434    170.87561    90.492435   0.97499938  1571373 
 3105000         0.65    90.492435    90.492435    91.467434    170.87561    90.492435   0.97499938  1571373 
 3106000         0.65    90.492435    90.492435    91.467434    170.87561    90.492435   0.97499938  1571373 
 3107000         0.65    90.492435    90.492435    91.467434    170.87561    90.492435   0.97499938  1571373 
 3108000         0.65    90.492435    90.492435    91.467434    170.87561    90.492435   0.97499938  1571373 
 3109000         0.65    90.492435    90.492435    91.467434    170.87561    90.492435   0.97499938  1571373 
 3110000         0.65    90.492435    90.492435    91.467434    170.87561    90.492435   0.97499938  1571373 
 3111000         0.65    90.492435    90.492435    91.467434    170.87561    90.492435   0.97499938  1571373 
 3112000         0.65    90.492435    90.492435    91.467434    170.87561    90.492435   0.97499938  1571373 
 3113000         0.65    90.492435    90.492435    91.467434    170.87561    90.492435   0.97499938  1571373 
 3114000         0.65    90.492435    90.492435    91.467434    170.87561    90.492435   0.97499938  1571373 
 3115000         0.65    90.492435    90.492435    91.467434    170.87561    90.492435   0.97499938  1571373 
 3116000         0.65    90.492435    90.492435    91.467434    170.87561    90.492435   0.97499938  1571373 
 3117000         0.65    90.492435    90.492435    91.467434    170.87561    90.492435   0.97499938  1571373 
 3118000         0.65    90.492435    90.492435    91.467434    170.87561    90.492435   0.97499938  1571373 
 3119000         0.65    90.492435    90.492435    91.467434    170.87561    90.492435   0.97499938  1571373 
 3120000         0.65    90.492435    90.492435    91.467434    170.87561    90.492435   0.97499938  1571373 
 3121000         0.65    90.492435    90.492435    91.467434    170.87561    90.492435   0.97499938  1571373 
 3122000         0.65    90.492435    90.492435    91.467434    170.87561    90.492435   0.97499938  1571373 
 3123000         0.65    90.492435    90.492435    91.467434    170.87561    90.492435   0.97499938  1571373 
 3124000         0.65    90.492435    90.492435    91.467434    170.87561    90.492435   0.97499938  1571373 
 3125000         0.65    90.492435    90.492435    91.467434    170.87561    90.492435   0.97499938  1571373 
 3126000         0.65    90.492435    90.492435    91.467434    170.87561    90.492435   0.97499938  1571373 
 3127000         0.65    90.492435    90.492435    91.467434    170.87561    90.492435   0.97499938  1571373 
 3128000         0.65    90.492435    90.492435    91.467434    170.87561    90.492435   0.97499938  1571373 
 3129000         0.65    90.492435    90.492435    91.467434    170.87561    90.492435   0.97499938  1571373 
 3130000         0.65    90.492435    90.492435    91.467434    170.87561    90.492435   0.97499938  1571373 
 3131000         0.65    90.492435    90.492435    91.467434    170.87561    90.492435   0.97499938  1571373 
 3132000         0.65    90.492435    90.492435    91.467434    170.87561    90.492435   0.97499938  1571373 
 3133000         0.65    90.492435    90.492435    91.467434    170.87561    90.492435   0.97499938  1571373 
 3134000         0.65    90.492435    90.492435    91.467434    170.87561    90.492435   0.97499938  1571373 
 3135000         0.65    90.492435    90.492435    91.467434    170.87561    90.492435   0.97499938  1571373 
 3136000         0.65    90.492435    90.492435    91.467434    170.87561    90.492435   0.97499938  1571373 
 3137000         0.65    90.492435    90.492435    91.467434    170.87561    90.492435   0.97499938  1571373 
 3138000         0.65    90.492435    90.492435    91.467434    170.87561    90.492435   0.97499938  1571373 
 3139000         0.65    90.492435    90.492435    91.467434    170.87561    90.492435   0.97499938  1571373 
 3140000         0.65    90.492435    90.492435    91.467434    170.87561    90.492435   0.97499938  1571373 
 3141000         0.65    90.492435    90.492435    91.467434    170.87561    90.492435   0.97499938  1571373 
 3142000         0.65    90.492435    90.492435    91.467434    170.87561    90.492435   0.97499938  1571373 
 3143000         0.65    90.492435    90.492435    91.467434    170.87561    90.492435   0.97499938  1571373 
 3144000         0.65    90.492435    90.492435    91.467434    170.87561    90.492435   0.97499938  1571373 
 3145000         0.65    90.492435    90.492435    91.467434    170.87561    90.492435   0.97499938  1571373 
 3146000         0.65    90.492435    90.492435    91.467434    170.87561    90.492435   0.97499938  1571373 
 3147000         0.65    90.492435    90.492435    91.467434    170.87561    90.492435   0.97499938  1571373 
 3148000         0.65    90.492435    90.492435    91.467434    170.87561    90.492435   0.97499938  1571373 
 3149000         0.65    90.492435    90.492435    91.467434    170.87561    90.492435   0.97499938  1571373 
 3150000         0.65    90.492435    90.492435    91.467434    170.87561    90.492435   0.97499938  1571373 
 3151000         0.65    90.492435    90.492435    91.467434    170.87561    90.492435   0.97499938  1571373 
 3152000         0.65    90.492435    90.492435    91.467434    170.87561    90.492435   0.97499938  1571373 
 3153000         0.65    90.492435    90.492435    91.467434    170.87561    90.492435   0.97499938  1571373 
 3154000         0.65    90.492435    90.492435    91.467434    170.87561    90.492435   0.97499938  1571373 
 3155000         0.65    90.492435    90.492435    91.467434    170.87561    90.492435   0.97499938  1571373 
 3156000         0.65    90.492435    90.492435    91.467434    170.87561    90.492435   0.97499938  1571373 
 3157000         0.65    90.492435    90.492435    91.467434    170.87561    90.492435   0.97499938  1571373 
 3158000         0.65    90.492435    90.492435    91.467434    170.87561    90.492435   0.97499938  1571373 
 3159000         0.65    90.492435    90.492435    91.467434    170.87561    90.492435   0.97499938  1571373 
 3160000         0.65    90.492435    90.492435    91.467434    170.87561    90.492435   0.97499938  1571373 
 3161000         0.65    90.492435    90.492435    91.467434    170.87561    90.492435   0.97499938  1571373 
 3162000         0.65    90.492435    90.492435    91.467434    170.87561    90.492435   0.97499938  1571373 
 3163000         0.65    90.492435    90.492435    91.467434    170.87561    90.492435   0.97499938  1571373 
 3164000         0.65    90.492435    90.492435    91.467434    170.87561    90.492435   0.97499938  1571373 
 3165000         0.65    90.492435    90.492435    91.467434    170.87561    90.492435   0.97499938  1571373 
 3166000         0.65    90.492435    90.492435    91.467434    170.87561    90.492435   0.97499938  1571373 
 3167000         0.65    90.492435    90.492435    91.467434    170.87561    90.492435   0.97499938  1571373 
 3168000         0.65    90.492435    90.492435    91.467434    170.87561    90.492435   0.97499938  1571373 
 3169000         0.65    90.492435    90.492435    91.467434    170.87561    90.492435   0.97499938  1571373 
 3170000         0.65    90.492435    90.492435    91.467434    170.87561    90.492435   0.97499938  1571373 
 3171000         0.65    90.492435    90.492435    91.467434    170.87561    90.492435   0.97499938  1571373 
 3172000         0.65    90.492435    90.492435    91.467434    170.87561    90.492435   0.97499938  1571373 
 3173000         0.65    90.492435    90.492435    91.467434    170.87561    90.492435   0.97499938  1571373 
 3174000         0.65    90.492435    90.492435    91.467434    170.87561    90.492435   0.97499938  1571373 
 3175000         0.65    90.492435    90.492435    91.467434    170.87561    90.492435   0.97499938  1571373 
 3176000         0.65    90.492435    90.492435    91.467434    170.87561    90.492435   0.97499938  1571373 
 3177000         0.65    90.492435    90.492435    91.467434    170.87561    90.492435   0.97499938  1571373 
 3178000         0.65    90.492435    90.492435    91.467434    170.87561    90.492435   0.97499938  1571373 
 3179000         0.65    90.492435    90.492435    91.467434    170.87561    90.492435   0.97499938  1571373 
 3180000         0.65    90.492435    90.492435    91.467434    170.87561    90.492435   0.97499938  1571373 
 3181000         0.65    90.492435    90.492435    91.467434    170.87561    90.492435   0.97499938  1571373 
 3182000         0.65    90.492435    90.492435    91.467434    170.87561    90.492435   0.97499938  1571373 
 3183000         0.65    90.492435    90.492435    91.467434    170.87561    90.492435   0.97499938  1571373 
 3184000         0.65    90.492435    90.492435    91.467434    170.87561    90.492435   0.97499938  1571373 
 3185000         0.65    90.492435    90.492435    91.467434    170.87561    90.492435   0.97499938  1571373 
 3186000         0.65    90.492435    90.492435    91.467434    170.87561    90.492435   0.97499938  1571373 
 3187000         0.65    90.492435    90.492435    91.467434    170.87561    90.492435   0.97499938  1571373 
 3188000         0.65    90.492435    90.492435    91.467434    170.87561    90.492435   0.97499938  1571373 
 3189000         0.65    90.492435    90.492435    91.467434    170.87561    90.492435   0.97499938  1571373 
 3190000         0.65    90.492435    90.492435    91.467434    170.87561    90.492435   0.97499938  1571373 
 3191000         0.65    90.492435    90.492435    91.467434    170.87561    90.492435   0.97499938  1571373 
 3192000         0.65    90.492435    90.492435    91.467434    170.87561    90.492435   0.97499938  1571373 
 3193000         0.65    90.492435    90.492435    91.467434    170.87561    90.492435   0.97499938  1571373 
 3194000         0.65    90.492435    90.492435    91.467434    170.87561    90.492435   0.97499938  1571373 
 3195000         0.65    90.492435    90.492435    91.467434    170.87561    90.492435   0.97499938  1571373 
 3196000         0.65    90.492435    90.492435    91.467434    170.87561    90.492435   0.97499938  1571373 
 3197000         0.65    90.492435    90.492435    91.467434    170.87561    90.492435   0.97499938  1571373 
 3198000         0.65    90.492435    90.492435    91.467434    170.87561    90.492435   0.97499938  1571373 
 3199000         0.65    90.492435    90.492435    91.467434    170.87561    90.492435   0.97499938  1571373 
 3200000         0.65    90.492435    90.492435    91.467434    170.87561    90.492435   0.97499938  1571373 
 3201000         0.65    90.492435    90.492435    91.467434    170.87561    90.492435   0.97499938  1571373 
 3202000         0.65    90.492435    90.492435    91.467434    170.87561    90.492435   0.97499938  1571373 
 3203000         0.65    90.492435    90.492435    91.467434    170.87561    90.492435   0.97499938  1571373 
 3204000         0.65    90.492435    90.492435    91.467434    170.87561    90.492435   0.97499938  1571373 
 3205000         0.65    90.492435    90.492435    91.467434    170.87561    90.492435   0.97499938  1571373 
 3206000         0.65    90.492435    90.492435    91.467434    170.87561    90.492435   0.97499938  1571373 
 3207000         0.65    90.492435    90.492435    91.467434    170.87561    90.492435   0.97499938  1571373 
 3208000         0.65    90.492435    90.492435    91.467434    170.87561    90.492435   0.97499938  1571373 
 3209000         0.65    90.492435    90.492435    91.467434    170.87561    90.492435   0.97499938  1571373 
 3210000         0.65    90.492435    90.492435    91.467434    170.87561    90.492435   0.97499938  1571373 
 3211000         0.65    90.492435    90.492435    91.467434    170.87561    90.492435   0.97499938  1571373 
 3212000         0.65    90.492435    90.492435    91.467434    170.87561    90.492435   0.97499938  1571373 
 3213000         0.65    90.492435    90.492435    91.467434    170.87561    90.492435   0.97499938  1571373 
 3214000         0.65    90.492435    90.492435    91.467434    170.87561    90.492435   0.97499938  1571373 
 3215000         0.65    90.492435    90.492435    91.467434    170.87561    90.492435   0.97499938  1571373 
 3216000         0.65    90.492435    90.492435    91.467434    170.87561    90.492435   0.97499938  1571373 
 3217000         0.65    90.492435    90.492435    91.467434    170.87561    90.492435   0.97499938  1571373 
 3218000         0.65    90.492435    90.492435    91.467434    170.87561    90.492435   0.97499938  1571373 
 3219000         0.65    90.492435    90.492435    91.467434    170.87561    90.492435   0.97499938  1571373 
 3220000         0.65    90.492435    90.492435    91.467434    170.87561    90.492435   0.97499938  1571373 
 3221000         0.65    90.492435    90.492435    91.467434    170.87561    90.492435   0.97499938  1571373 
 3222000         0.65    90.492435    90.492435    91.467434    170.87561    90.492435   0.97499938  1571373 
 3223000         0.65    90.492435    90.492435    91.467434    170.87561    90.492435   0.97499938  1571373 
 3224000         0.65    90.492435    90.492435    91.467434    170.87561    90.492435   0.97499938  1571373 
 3225000         0.65    90.492435    90.492435    91.467434    170.87561    90.492435   0.97499938  1571373 
 3226000         0.65    90.492435    90.492435    91.467434    170.87561    90.492435   0.97499938  1571373 
 3227000         0.65    90.492435    90.492435    91.467434    170.87561    90.492435   0.97499938  1571373 
 3228000         0.65    90.492435    90.492435    91.467434    170.87561    90.492435   0.97499938  1571373 
 3229000         0.65    90.492435    90.492435    91.467434    170.87561    90.492435   0.97499938  1571373 
 3230000         0.65    90.492435    90.492435    91.467434    170.87561    90.492435   0.97499938  1571373 
 3231000         0.65    90.492435    90.492435    91.467434    170.87561    90.492435   0.97499938  1571373 
 3232000         0.65    90.492435    90.492435    91.467434    170.87561    90.492435   0.97499938  1571373 
 3233000         0.65    90.492435    90.492435    91.467434    170.87561    90.492435   0.97499938  1571373 
 3234000         0.65    90.492435    90.492435    91.467434    170.87561    90.492435   0.97499938  1571373 
 3235000         0.65    90.492435    90.492435    91.467434    170.87561    90.492435   0.97499938  1571373 
 3236000         0.65    90.492435    90.492435    91.467434    170.87561    90.492435   0.97499938  1571373 
 3237000         0.65    90.492435    90.492435    91.467434    170.87561    90.492435   0.97499938  1571373 
 3238000         0.65    90.492435    90.492435    91.467434    170.87561    90.492435   0.97499938  1571373 
 3239000         0.65    90.492435    90.492435    91.467434    170.87561    90.492435   0.97499938  1571373 
 3240000         0.65    90.492435    90.492435    91.467434    170.87561    90.492435   0.97499938  1571373 
 3241000         0.65    90.492435    90.492435    91.467434    170.87561    90.492435   0.97499938  1571373 
 3242000         0.65    90.492435    90.492435    91.467434    170.87561    90.492435   0.97499938  1571373 
 3243000         0.65    90.492435    90.492435    91.467434    170.87561    90.492435   0.97499938  1571373 
 3244000         0.65    90.492435    90.492435    91.467434    170.87561    90.492435   0.97499938  1571373 
 3245000         0.65    90.492435    90.492435    91.467434    170.87561    90.492435   0.97499938  1571373 
 3246000         0.65    90.492435    90.492435    91.467434    170.87561    90.492435   0.97499938  1571373 
 3247000         0.65    90.492435    90.492435    91.467434    170.87561    90.492435   0.97499938  1571373 
 3248000         0.65    90.492435    90.492435    91.467434    170.87561    90.492435   0.97499938  1571373 
 3249000         0.65    90.492435    90.492435    91.467434    170.87561    90.492435   0.97499938  1571373 
 3250000         0.65    90.492435    90.492435    91.467434    170.87561    90.492435   0.97499938  1571373 
 3251000         0.65    90.492435    90.492435    91.467434    170.87561    90.492435   0.97499938  1571373 
 3252000         0.65    90.492435    90.492435    91.467434    170.87561    90.492435   0.97499938  1571373 
 3253000         0.65    90.492435    90.492435    91.467434    170.87561    90.492435   0.97499938  1571373 
 3254000         0.65    90.492435    90.492435    91.467434    170.87561    90.492435   0.97499938  1571373 
 3255000         0.65    90.492435    90.492435    91.467434    170.87561    90.492435   0.97499938  1571373 
 3256000         0.65    90.492435    90.492435    91.467434    170.87561    90.492435   0.97499938  1571373 
 3257000         0.65    90.492435    90.492435    91.467434    170.87561    90.492435   0.97499938  1571373 
 3258000         0.65    90.492435    90.492435    91.467434    170.87561    90.492435   0.97499938  1571373 
 3259000         0.65    90.492435    90.492435    91.467434    170.87561    90.492435   0.97499938  1571373 
 3260000         0.65    90.492435    90.492435    91.467434    170.87561    90.492435   0.97499938  1571373 
 3261000         0.65    90.492435    90.492435    91.467434    170.87561    90.492435   0.97499938  1571373 
 3262000         0.65    90.492435    90.492435    91.467434    170.87561    90.492435   0.97499938  1571373 
 3263000         0.65    90.492435    90.492435    91.467434    170.87561    90.492435   0.97499938  1571373 
 3264000         0.65    90.492435    90.492435    91.467434    170.87561    90.492435   0.97499938  1571373 
 3265000         0.65    90.492435    90.492435    91.467434    170.87561    90.492435   0.97499938  1571373 
 3266000         0.65    90.492435    90.492435    91.467434    170.87561    90.492435   0.97499938  1571373 
 3267000         0.65    90.492435    90.492435    91.467434    170.87561    90.492435   0.97499938  1571373 
 3268000         0.65    90.492435    90.492435    91.467434    170.87561    90.492435   0.97499938  1571373 
 3269000         0.65    90.492435    90.492435    91.467434    170.87561    90.492435   0.97499938  1571373 
 3270000         0.65    90.492435    90.492435    91.467434    170.87561    90.492435   0.97499938  1571373 
 3271000         0.65    90.492435    90.492435    91.467434    170.87561    90.492435   0.97499938  1571373 
 3272000         0.65    90.492435    90.492435    91.467434    170.87561    90.492435   0.97499938  1571373 
 3273000         0.65    90.492435    90.492435    91.467434    170.87561    90.492435   0.97499938  1571373 
 3274000         0.65    90.492435    90.492435    91.467434    170.87561    90.492435   0.97499938  1571373 
 3275000         0.65    90.492435    90.492435    91.467434    170.87561    90.492435   0.97499938  1571373 
 3276000         0.65    90.492435    90.492435    91.467434    170.87561    90.492435   0.97499938  1571373 
 3277000         0.65    90.492435    90.492435    91.467434    170.87561    90.492435   0.97499938  1571373 
 3278000         0.65    90.492435    90.492435    91.467434    170.87561    90.492435   0.97499938  1571373 
 3279000         0.65    90.492435    90.492435    91.467434    170.87561    90.492435   0.97499938  1571373 
 3280000         0.65    90.492435    90.492435    91.467434    170.87561    90.492435   0.97499938  1571373 
 3281000         0.65    90.492435    90.492435    91.467434    170.87561    90.492435   0.97499938  1571373 
 3282000         0.65    90.492435    90.492435    91.467434    170.87561    90.492435   0.97499938  1571373 
 3283000         0.65    90.492435    90.492435    91.467434    170.87561    90.492435   0.97499938  1571373 
 3284000         0.65    90.492435    90.492435    91.467434    170.87561    90.492435   0.97499938  1571373 
 3285000         0.65    90.492435    90.492435    91.467434    170.87561    90.492435   0.97499938  1571373 
 3286000         0.65    90.492435    90.492435    91.467434    170.87561    90.492435   0.97499938  1571373 
 3287000         0.65    90.492435    90.492435    91.467434    170.87561    90.492435   0.97499938  1571373 
 3288000         0.65    90.492435    90.492435    91.467434    170.87561    90.492435   0.97499938  1571373 
 3289000         0.65    90.492435    90.492435    91.467434    170.87561    90.492435   0.97499938  1571373 
 3290000         0.65    90.492435    90.492435    91.467434    170.87561    90.492435   0.97499938  1571373 
 3291000         0.65    90.492435    90.492435    91.467434    170.87561    90.492435   0.97499938  1571373 
 3292000         0.65    90.492435    90.492435    91.467434    170.87561    90.492435   0.97499938  1571373 
 3293000         0.65    90.492435    90.492435    91.467434    170.87561    90.492435   0.97499938  1571373 
 3294000         0.65    90.492435    90.492435    91.467434    170.87561    90.492435   0.97499938  1571373 
 3295000         0.65    90.492435    90.492435    91.467434    170.87561    90.492435   0.97499938  1571373 
 3296000         0.65    90.492435    90.492435    91.467434    170.87561    90.492435   0.97499938  1571373 
 3297000         0.65    90.492435    90.492435    91.467434    170.87561    90.492435   0.97499938  1571373 
 3298000         0.65    90.492435    90.492435    91.467434    170.87561    90.492435   0.97499938  1571373 
 3299000         0.65    90.492435    90.492435    91.467434    170.87561    90.492435   0.97499938  1571373 
 3300000         0.65    90.492435    90.492435    91.467434    170.87561    90.492435   0.97499938  1571373 
 3301000         0.65    90.492435    90.492435    91.467434    170.87561    90.492435   0.97499938  1571373 
 3302000         0.65    90.492435    90.492435    91.467434    170.87561    90.492435   0.97499938  1571373 
 3303000         0.65    90.492435    90.492435    91.467434    170.87561    90.492435   0.97499938  1571373 
 3304000         0.65    90.492435    90.492435    91.467434    170.87561    90.492435   0.97499938  1571373 
 3305000         0.65    90.492435    90.492435    91.467434    170.87561    90.492435   0.97499938  1571373 
 3306000         0.65    90.492435    90.492435    91.467434    170.87561    90.492435   0.97499938  1571373 
 3307000         0.65    90.492435    90.492435    91.467434    170.87561    90.492435   0.97499938  1571373 
 3308000         0.65    90.492435    90.492435    91.467434    170.87561    90.492435   0.97499938  1571373 
 3309000         0.65    90.492435    90.492435    91.467434    170.87561    90.492435   0.97499938  1571373 
 3310000         0.65    90.492435    90.492435    91.467434    170.87561    90.492435   0.97499938  1571373 
 3311000         0.65    90.492435    90.492435    91.467434    170.87561    90.492435   0.97499938  1571373 
 3312000         0.65    90.492435    90.492435    91.467434    170.87561    90.492435   0.97499938  1571373 
 3313000         0.65    90.492435    90.492435    91.467434    170.87561    90.492435   0.97499938  1571373 
 3314000         0.65    90.492435    90.492435    91.467434    170.87561    90.492435   0.97499938  1571373 
 3315000         0.65    90.492435    90.492435    91.467434    170.87561    90.492435   0.97499938  1571373 
 3316000         0.65    90.492435    90.492435    91.467434    170.87561    90.492435   0.97499938  1571373 
 3317000         0.65    90.492435    90.492435    91.467434    170.87561    90.492435   0.97499938  1571373 
 3318000         0.65    90.492435    90.492435    91.467434    170.87561    90.492435   0.97499938  1571373 
 3319000         0.65    90.492435    90.492435    91.467434    170.87561    90.492435   0.97499938  1571373 
 3320000         0.65    90.492435    90.492435    91.467434    170.87561    90.492435   0.97499938  1571373 
 3321000         0.65    90.492435    90.492435    91.467434    170.87561    90.492435   0.97499938  1571373 
 3322000         0.65    90.492435    90.492435    91.467434    170.87561    90.492435   0.97499938  1571373 
 3323000         0.65    90.492435    90.492435    91.467434    170.87561    90.492435   0.97499938  1571373 
 3324000         0.65    90.492435    90.492435    91.467434    170.87561    90.492435   0.97499938  1571373 
 3325000         0.65    90.492435    90.492435    91.467434    170.87561    90.492435   0.97499938  1571373 
 3326000         0.65    90.492435    90.492435    91.467434    170.87561    90.492435   0.97499938  1571373 
 3327000         0.65    90.492435    90.492435    91.467434    170.87561    90.492435   0.97499938  1571373 
 3328000         0.65    90.492435    90.492435    91.467434    170.87561    90.492435   0.97499938  1571373 
 3329000         0.65    90.492435    90.492435    91.467434    170.87561    90.492435   0.97499938  1571373 
 3330000         0.65    90.492435    90.492435    91.467434    170.87561    90.492435   0.97499938  1571373 
 3331000         0.65    90.492435    90.492435    91.467434    170.87561    90.492435   0.97499938  1571373 
 3332000         0.65    90.492435    90.492435    91.467434    170.87561    90.492435   0.97499938  1571373 
 3333000         0.65    90.492435    90.492435    91.467434    170.87561    90.492435   0.97499938  1571373 
 3334000         0.65    90.492435    90.492435    91.467434    170.87561    90.492435   0.97499938  1571373 
 3335000         0.65    90.492435    90.492435    91.467434    170.87561    90.492435   0.97499938  1571373 
 3336000         0.65    90.492435    90.492435    91.467434    170.87561    90.492435   0.97499938  1571373 
 3337000         0.65    90.492435    90.492435    91.467434    170.87561    90.492435   0.97499938  1571373 
 3338000         0.65    90.492435    90.492435    91.467434    170.87561    90.492435   0.97499938  1571373 
 3339000         0.65    90.492435    90.492435    91.467434    170.87561    90.492435   0.97499938  1571373 
 3340000         0.65    90.492435    90.492435    91.467434    170.87561    90.492435   0.97499938  1571373 
 3341000         0.65    90.492435    90.492435    91.467434    170.87561    90.492435   0.97499938  1571373 
 3342000         0.65    90.492435    90.492435    91.467434    170.87561    90.492435   0.97499938  1571373 
 3343000         0.65    90.492435    90.492435    91.467434    170.87561    90.492435   0.97499938  1571373 
 3344000         0.65    90.492435    90.492435    91.467434    170.87561    90.492435   0.97499938  1571373 
 3345000         0.65    90.492435    90.492435    91.467434    170.87561    90.492435   0.97499938  1571373 
 3346000         0.65    90.492435    90.492435    91.467434    170.87561    90.492435   0.97499938  1571373 
 3347000         0.65    90.492435    90.492435    91.467434    170.87561    90.492435   0.97499938  1571373 
 3348000         0.65    90.492435    90.492435    91.467434    170.87561    90.492435   0.97499938  1571373 
 3349000         0.65    90.492435    90.492435    91.467434    170.87561    90.492435   0.97499938  1571373 
 3350000         0.65    90.492435    90.492435    91.467434    170.87561    90.492435   0.97499938  1571373 
 3351000         0.65    90.492435    90.492435    91.467434    170.87561    90.492435   0.97499938  1571373 
 3352000         0.65    90.492435    90.492435    91.467434    170.87561    90.492435   0.97499938  1571373 
 3353000         0.65    90.492435    90.492435    91.467434    170.87561    90.492435   0.97499938  1571373 
 3354000         0.65    90.492435    90.492435    91.467434    170.87561    90.492435   0.97499938  1571373 
 3355000         0.65    90.492435    90.492435    91.467434    170.87561    90.492435   0.97499938  1571373 
 3356000         0.65    90.492435    90.492435    91.467434    170.87561    90.492435   0.97499938  1571373 
 3357000         0.65    90.492435    90.492435    91.467434    170.87561    90.492435   0.97499938  1571373 
 3358000         0.65    90.492435    90.492435    91.467434    170.87561    90.492435   0.97499938  1571373 
 3359000         0.65    90.492435    90.492435    91.467434    170.87561    90.492435   0.97499938  1571373 
 3360000         0.65    90.492435    90.492435    91.467434    170.87561    90.492435   0.97499938  1571373 
 3361000         0.65    90.492435    90.492435    91.467434    170.87561    90.492435   0.97499938  1571373 
 3362000         0.65    90.492435    90.492435    91.467434    170.87561    90.492435   0.97499938  1571373 
 3363000         0.65    90.492435    90.492435    91.467434    170.87561    90.492435   0.97499938  1571373 
 3364000         0.65    90.492435    90.492435    91.467434    170.87561    90.492435   0.97499938  1571373 
 3365000         0.65    90.492435    90.492435    91.467434    170.87561    90.492435   0.97499938  1571373 
 3366000         0.65    90.492435    90.492435    91.467434    170.87561    90.492435   0.97499938  1571373 
 3367000         0.65    90.492435    90.492435    91.467434    170.87561    90.492435   0.97499938  1571373 
 3368000         0.65    90.492435    90.492435    91.467434    170.87561    90.492435   0.97499938  1571373 
 3369000         0.65    90.492435    90.492435    91.467434    170.87561    90.492435   0.97499938  1571373 
 3370000         0.65    90.492435    90.492435    91.467434    170.87561    90.492435   0.97499938  1571373 
 3371000         0.65    90.492435    90.492435    91.467434    170.87561    90.492435   0.97499938  1571373 
 3372000         0.65    90.492435    90.492435    91.467434    170.87561    90.492435   0.97499938  1571373 
 3373000         0.65    90.492435    90.492435    91.467434    170.87561    90.492435   0.97499938  1571373 
 3374000         0.65    90.492435    90.492435    91.467434    170.87561    90.492435   0.97499938  1571373 
 3375000         0.65    90.492435    90.492435    91.467434    170.87561    90.492435   0.97499938  1571373 
 3376000         0.65    90.492435    90.492435    91.467434    170.87561    90.492435   0.97499938  1571373 
 3377000         0.65    90.492435    90.492435    91.467434    170.87561    90.492435   0.97499938  1571373 
 3378000         0.65    90.492435    90.492435    91.467434    170.87561    90.492435   0.97499938  1571373 
 3379000         0.65    90.492435    90.492435    91.467434    170.87561    90.492435   0.97499938  1571373 
 3380000         0.65    90.492435    90.492435    91.467434    170.87561    90.492435   0.97499938  1571373 
 3381000         0.65    90.492435    90.492435    91.467434    170.87561    90.492435   0.97499938  1571373 
 3382000         0.65    90.492435    90.492435    91.467434    170.87561    90.492435   0.97499938  1571373 
 3383000         0.65    90.492435    90.492435    91.467434    170.87561    90.492435   0.97499938  1571373 
 3384000         0.65    90.492435    90.492435    91.467434    170.87561    90.492435   0.97499938  1571373 
 3385000         0.65    90.492435    90.492435    91.467434    170.87561    90.492435   0.97499938  1571373 
 3386000         0.65    90.492435    90.492435    91.467434    170.87561    90.492435   0.97499938  1571373 
 3387000         0.65    90.492435    90.492435    91.467434    170.87561    90.492435   0.97499938  1571373 
 3388000         0.65    90.492435    90.492435    91.467434    170.87561    90.492435   0.97499938  1571373 
 3389000         0.65    90.492435    90.492435    91.467434    170.87561    90.492435   0.97499938  1571373 
 3390000         0.65    90.492435    90.492435    91.467434    170.87561    90.492435   0.97499938  1571373 
 3391000         0.65    90.492435    90.492435    91.467434    170.87561    90.492435   0.97499938  1571373 
 3392000         0.65    90.492435    90.492435    91.467434    170.87561    90.492435   0.97499938  1571373 
 3393000         0.65    90.492435    90.492435    91.467434    170.87561    90.492435   0.97499938  1571373 
 3394000         0.65    90.492435    90.492435    91.467434    170.87561    90.492435   0.97499938  1571373 
 3395000         0.65    90.492435    90.492435    91.467434    170.87561    90.492435   0.97499938  1571373 
 3396000         0.65    90.492435    90.492435    91.467434    170.87561    90.492435   0.97499938  1571373 
 3397000         0.65    90.492435    90.492435    91.467434    170.87561    90.492435   0.97499938  1571373 
 3398000         0.65    90.492435    90.492435    91.467434    170.87561    90.492435   0.97499938  1571373 
 3399000         0.65    90.492435    90.492435    91.467434    170.87561    90.492435   0.97499938  1571373 
 3400000         0.65    90.492435    90.492435    91.467434    170.87561    90.492435   0.97499938  1571373 
 3401000         0.65    90.492435    90.492435    91.467434    170.87561    90.492435   0.97499938  1571373 
 3402000         0.65    90.492435    90.492435    91.467434    170.87561    90.492435   0.97499938  1571373 
 3403000         0.65    90.492435    90.492435    91.467434    170.87561    90.492435   0.97499938  1571373 
 3404000         0.65    90.492435    90.492435    91.467434    170.87561    90.492435   0.97499938  1571373 
 3405000         0.65    90.492435    90.492435    91.467434    170.87561    90.492435   0.97499938  1571373 
 3406000         0.65    90.492435    90.492435    91.467434    170.87561    90.492435   0.97499938  1571373 
 3407000         0.65    90.492435    90.492435    91.467434    170.87561    90.492435   0.97499938  1571373 
 3408000         0.65    90.492435    90.492435    91.467434    170.87561    90.492435   0.97499938  1571373 
 3409000         0.65    90.492435    90.492435    91.467434    170.87561    90.492435   0.97499938  1571373 
 3410000         0.65    90.492435    90.492435    91.467434    170.87561    90.492435   0.97499938  1571373 
 3411000         0.65    90.492435    90.492435    91.467434    170.87561    90.492435   0.97499938  1571373 
 3412000         0.65    90.492435    90.492435    91.467434    170.87561    90.492435   0.97499938  1571373 
 3413000         0.65    90.492435    90.492435    91.467434    170.87561    90.492435   0.97499938  1571373 
 3414000         0.65    90.492435    90.492435    91.467434    170.87561    90.492435   0.97499938  1571373 
 3415000         0.65    90.492435    90.492435    91.467434    170.87561    90.492435   0.97499938  1571373 
 3416000         0.65    90.492435    90.492435    91.467434    170.87561    90.492435   0.97499938  1571373 
 3417000         0.65    90.492435    90.492435    91.467434    170.87561    90.492435   0.97499938  1571373 
 3418000         0.65    90.492435    90.492435    91.467434    170.87561    90.492435   0.97499938  1571373 
 3419000         0.65    90.492435    90.492435    91.467434    170.87561    90.492435   0.97499938  1571373 
 3420000         0.65    90.492435    90.492435    91.467434    170.87561    90.492435   0.97499938  1571373 
 3421000         0.65    90.492435    90.492435    91.467434    170.87561    90.492435   0.97499938  1571373 
 3422000         0.65    90.492435    90.492435    91.467434    170.87561    90.492435   0.97499938  1571373 
 3423000         0.65    90.492435    90.492435    91.467434    170.87561    90.492435   0.97499938  1571373 
 3424000         0.65    90.492435    90.492435    91.467434    170.87561    90.492435   0.97499938  1571373 
 3425000         0.65    90.492435    90.492435    91.467434    170.87561    90.492435   0.97499938  1571373 
 3426000         0.65    90.492435    90.492435    91.467434    170.87561    90.492435   0.97499938  1571373 
 3427000         0.65    90.492435    90.492435    91.467434    170.87561    90.492435   0.97499938  1571373 
 3428000         0.65    90.492435    90.492435    91.467434    170.87561    90.492435   0.97499938  1571373 
 3429000         0.65    90.492435    90.492435    91.467434    170.87561    90.492435   0.97499938  1571373 
 3430000         0.65    90.492435    90.492435    91.467434    170.87561    90.492435   0.97499938  1571373 
 3431000         0.65    90.492435    90.492435    91.467434    170.87561    90.492435   0.97499938  1571373 
 3432000         0.65    90.492435    90.492435    91.467434    170.87561    90.492435   0.97499938  1571373 
 3433000         0.65    90.492435    90.492435    91.467434    170.87561    90.492435   0.97499938  1571373 
 3434000         0.65    90.492435    90.492435    91.467434    170.87561    90.492435   0.97499938  1571373 
 3435000         0.65    90.492435    90.492435    91.467434    170.87561    90.492435   0.97499938  1571373 
 3436000         0.65    90.492435    90.492435    91.467434    170.87561    90.492435   0.97499938  1571373 
 3437000         0.65    90.492435    90.492435    91.467434    170.87561    90.492435   0.97499938  1571373 
 3438000         0.65    90.492435    90.492435    91.467434    170.87561    90.492435   0.97499938  1571373 
 3439000         0.65    90.492435    90.492435    91.467434    170.87561    90.492435   0.97499938  1571373 
 3440000         0.65    90.492435    90.492435    91.467434    170.87561    90.492435   0.97499938  1571373 
 3441000         0.65    90.492435    90.492435    91.467434    170.87561    90.492435   0.97499938  1571373 
 3442000         0.65    90.492435    90.492435    91.467434    170.87561    90.492435   0.97499938  1571373 
 3443000         0.65    90.492435    90.492435    91.467434    170.87561    90.492435   0.97499938  1571373 
 3444000         0.65    90.492435    90.492435    91.467434    170.87561    90.492435   0.97499938  1571373 
 3445000         0.65    90.492435    90.492435    91.467434    170.87561    90.492435   0.97499938  1571373 
 3446000         0.65    90.492435    90.492435    91.467434    170.87561    90.492435   0.97499938  1571373 
 3447000         0.65    90.492435    90.492435    91.467434    170.87561    90.492435   0.97499938  1571373 
 3448000         0.65    90.492435    90.492435    91.467434    170.87561    90.492435   0.97499938  1571373 
 3449000         0.65    90.492435    90.492435    91.467434    170.87561    90.492435   0.97499938  1571373 
 3450000         0.65    90.492435    90.492435    91.467434    170.87561    90.492435   0.97499938  1571373 
 3451000         0.65    90.492435    90.492435    91.467434    170.87561    90.492435   0.97499938  1571373 
 3452000         0.65    90.492435    90.492435    91.467434    170.87561    90.492435   0.97499938  1571373 
 3453000         0.65    90.492435    90.492435    91.467434    170.87561    90.492435   0.97499938  1571373 
 3454000         0.65    90.492435    90.492435    91.467434    170.87561    90.492435   0.97499938  1571373 
 3455000         0.65    90.492435    90.492435    91.467434    170.87561    90.492435   0.97499938  1571373 
 3456000         0.65    90.492435    90.492435    91.467434    170.87561    90.492435   0.97499938  1571373 
 3457000         0.65    90.492435    90.492435    91.467434    170.87561    90.492435   0.97499938  1571373 
 3458000         0.65    90.492435    90.492435    91.467434    170.87561    90.492435   0.97499938  1571373 
 3459000         0.65    90.492435    90.492435    91.467434    170.87561    90.492435   0.97499938  1571373 
 3460000         0.65    90.492435    90.492435    91.467434    170.87561    90.492435   0.97499938  1571373 
 3461000         0.65    90.492435    90.492435    91.467434    170.87561    90.492435   0.97499938  1571373 
 3462000         0.65    90.492435    90.492435    91.467434    170.87561    90.492435   0.97499938  1571373 
 3463000         0.65    90.492435    90.492435    91.467434    170.87561    90.492435   0.97499938  1571373 
 3464000         0.65    90.492435    90.492435    91.467434    170.87561    90.492435   0.97499938  1571373 
 3465000         0.65    90.492435    90.492435    91.467434    170.87561    90.492435   0.97499938  1571373 
 3466000         0.65    90.492435    90.492435    91.467434    170.87561    90.492435   0.97499938  1571373 
 3467000         0.65    90.492435    90.492435    91.467434    170.87561    90.492435   0.97499938  1571373 
 3468000         0.65    90.492435    90.492435    91.467434    170.87561    90.492435   0.97499938  1571373 
 3469000         0.65    90.492435    90.492435    91.467434    170.87561    90.492435   0.97499938  1571373 
 3470000         0.65    90.492435    90.492435    91.467434    170.87561    90.492435   0.97499938  1571373 
 3471000         0.65    90.492435    90.492435    91.467434    170.87561    90.492435   0.97499938  1571373 
 3472000         0.65    90.492435    90.492435    91.467434    170.87561    90.492435   0.97499938  1571373 
 3473000         0.65    90.492435    90.492435    91.467434    170.87561    90.492435   0.97499938  1571373 
 3474000         0.65    90.492435    90.492435    91.467434    170.87561    90.492435   0.97499938  1571373 
 3475000         0.65    90.492435    90.492435    91.467434    170.87561    90.492435   0.97499938  1571373 
 3476000         0.65    90.492435    90.492435    91.467434    170.87561    90.492435   0.97499938  1571373 
 3477000         0.65    90.492435    90.492435    91.467434    170.87561    90.492435   0.97499938  1571373 
 3478000         0.65    90.492435    90.492435    91.467434    170.87561    90.492435   0.97499938  1571373 
 3479000         0.65    90.492435    90.492435    91.467434    170.87561    90.492435   0.97499938  1571373 
 3480000         0.65    90.492435    90.492435    91.467434    170.87561    90.492435   0.97499938  1571373 
 3481000         0.65    90.492435    90.492435    91.467434    170.87561    90.492435   0.97499938  1571373 
 3482000         0.65    90.492435    90.492435    91.467434    170.87561    90.492435   0.97499938  1571373 
 3483000         0.65    90.492435    90.492435    91.467434    170.87561    90.492435   0.97499938  1571373 
 3484000         0.65    90.492435    90.492435    91.467434    170.87561    90.492435   0.97499938  1571373 
 3485000         0.65    90.492435    90.492435    91.467434    170.87561    90.492435   0.97499938  1571373 
 3486000         0.65    90.492435    90.492435    91.467434    170.87561    90.492435   0.97499938  1571373 
 3487000         0.65    90.492435    90.492435    91.467434    170.87561    90.492435   0.97499938  1571373 
 3488000         0.65    90.492435    90.492435    91.467434    170.87561    90.492435   0.97499938  1571373 
 3489000         0.65    90.492435    90.492435    91.467434    170.87561    90.492435   0.97499938  1571373 
 3490000         0.65    90.492435    90.492435    91.467434    170.87561    90.492435   0.97499938  1571373 
 3491000         0.65    90.492435    90.492435    91.467434    170.87561    90.492435   0.97499938  1571373 
 3492000         0.65    90.492435    90.492435    91.467434    170.87561    90.492435   0.97499938  1571373 
 3493000         0.65    90.492435    90.492435    91.467434    170.87561    90.492435   0.97499938  1571373 
 3494000         0.65    90.492435    90.492435    91.467434    170.87561    90.492435   0.97499938  1571373 
 3495000         0.65    90.492435    90.492435    91.467434    170.87561    90.492435   0.97499938  1571373 
 3496000         0.65    90.492435    90.492435    91.467434    170.87561    90.492435   0.97499938  1571373 
 3497000         0.65    90.492435    90.492435    91.467434    170.87561    90.492435   0.97499938  1571373 
 3498000         0.65    90.492435    90.492435    91.467434    170.87561    90.492435   0.97499938  1571373 
 3499000         0.65    90.492435    90.492435    91.467434    170.87561    90.492435   0.97499938  1571373 
 3500000         0.65    90.492435    90.492435    91.467434    170.87561    90.492435   0.97499938  1571373 
 3501000         0.65    90.492435    90.492435    91.467434    170.87561    90.492435   0.97499938  1571373 
 3502000         0.65    90.492435    90.492435    91.467434    170.87561    90.492435   0.97499938  1571373 
 3503000         0.65    90.492435    90.492435    91.467434    170.87561    90.492435   0.97499938  1571373 
 3504000         0.65    90.492435    90.492435    91.467434    170.87561    90.492435   0.97499938  1571373 
 3505000         0.65    90.492435    90.492435    91.467434    170.87561    90.492435   0.97499938  1571373 
 3506000         0.65    90.492435    90.492435    91.467434    170.87561    90.492435   0.97499938  1571373 
 3507000         0.65    90.492435    90.492435    91.467434    170.87561    90.492435   0.97499938  1571373 
 3508000         0.65    90.492435    90.492435    91.467434    170.87561    90.492435   0.97499938  1571373 
 3509000         0.65    90.492435    90.492435    91.467434    170.87561    90.492435   0.97499938  1571373 
 3510000         0.65    90.492435    90.492435    91.467434    170.87561    90.492435   0.97499938  1571373 
 3511000         0.65    90.492435    90.492435    91.467434    170.87561    90.492435   0.97499938  1571373 
 3512000         0.65    90.492435    90.492435    91.467434    170.87561    90.492435   0.97499938  1571373 
 3513000         0.65    90.492435    90.492435    91.467434    170.87561    90.492435   0.97499938  1571373 
 3514000         0.65    90.492435    90.492435    91.467434    170.87561    90.492435   0.97499938  1571373 
 3515000         0.65    90.492435    90.492435    91.467434    170.87561    90.492435   0.97499938  1571373 
 3516000         0.65    90.492435    90.492435    91.467434    170.87561    90.492435   0.97499938  1571373 
 3517000         0.65    90.492435    90.492435    91.467434    170.87561    90.492435   0.97499938  1571373 
 3518000         0.65    90.492435    90.492435    91.467434    170.87561    90.492435   0.97499938  1571373 
 3519000         0.65    90.492435    90.492435    91.467434    170.87561    90.492435   0.97499938  1571373 
 3520000         0.65    90.492435    90.492435    91.467434    170.87561    90.492435   0.97499938  1571373 
 3521000         0.65    90.492435    90.492435    91.467434    170.87561    90.492435   0.97499938  1571373 
 3522000         0.65    90.492435    90.492435    91.467434    170.87561    90.492435   0.97499938  1571373 
 3523000         0.65    90.492435    90.492435    91.467434    170.87561    90.492435   0.97499938  1571373 
 3524000         0.65    90.492435    90.492435    91.467434    170.87561    90.492435   0.97499938  1571373 
 3525000         0.65    90.492435    90.492435    91.467434    170.87561    90.492435   0.97499938  1571373 
 3526000         0.65    90.492435    90.492435    91.467434    170.87561    90.492435   0.97499938  1571373 
 3527000         0.65    90.492435    90.492435    91.467434    170.87561    90.492435   0.97499938  1571373 
 3528000         0.65    90.492435    90.492435    91.467434    170.87561    90.492435   0.97499938  1571373 
 3529000         0.65    90.492435    90.492435    91.467434    170.87561    90.492435   0.97499938  1571373 
 3530000         0.65    90.492435    90.492435    91.467434    170.87561    90.492435   0.97499938  1571373 
 3531000         0.65    90.492435    90.492435    91.467434    170.87561    90.492435   0.97499938  1571373 
 3532000         0.65    90.492435    90.492435    91.467434    170.87561    90.492435   0.97499938  1571373 
 3533000         0.65    90.492435    90.492435    91.467434    170.87561    90.492435   0.97499938  1571373 
 3534000         0.65    90.492435    90.492435    91.467434    170.87561    90.492435   0.97499938  1571373 
 3535000         0.65    90.492435    90.492435    91.467434    170.87561    90.492435   0.97499938  1571373 
 3536000         0.65    90.492435    90.492435    91.467434    170.87561    90.492435   0.97499938  1571373 
 3537000         0.65    90.492435    90.492435    91.467434    170.87561    90.492435   0.97499938  1571373 
 3538000         0.65    90.492435    90.492435    91.467434    170.87561    90.492435   0.97499938  1571373 
 3539000         0.65    90.492435    90.492435    91.467434    170.87561    90.492435   0.97499938  1571373 
 3540000         0.65    90.492435    90.492435    91.467434    170.87561    90.492435   0.97499938  1571373 
 3541000         0.65    90.492435    90.492435    91.467434    170.87561    90.492435   0.97499938  1571373 
 3542000         0.65    90.492435    90.492435    91.467434    170.87561    90.492435   0.97499938  1571373 
 3543000         0.65    90.492435    90.492435    91.467434    170.87561    90.492435   0.97499938  1571373 
 3544000         0.65    90.492435    90.492435    91.467434    170.87561    90.492435   0.97499938  1571373 
 3545000         0.65    90.492435    90.492435    91.467434    170.87561    90.492435   0.97499938  1571373 
 3546000         0.65    90.492435    90.492435    91.467434    170.87561    90.492435   0.97499938  1571373 
 3547000         0.65    90.492435    90.492435    91.467434    170.87561    90.492435   0.97499938  1571373 
 3548000         0.65    90.492435    90.492435    91.467434    170.87561    90.492435   0.97499938  1571373 
 3549000         0.65    90.492435    90.492435    91.467434    170.87561    90.492435   0.97499938  1571373 
 3550000         0.65    90.492435    90.492435    91.467434    170.87561    90.492435   0.97499938  1571373 
 3551000         0.65    90.492435    90.492435    91.467434    170.87561    90.492435   0.97499938  1571373 
 3552000         0.65    90.492435    90.492435    91.467434    170.87561    90.492435   0.97499938  1571373 
 3553000         0.65    90.492435    90.492435    91.467434    170.87561    90.492435   0.97499938  1571373 
 3554000         0.65    90.492435    90.492435    91.467434    170.87561    90.492435   0.97499938  1571373 
 3555000         0.65    90.492435    90.492435    91.467434    170.87561    90.492435   0.97499938  1571373 
 3556000         0.65    90.492435    90.492435    91.467434    170.87561    90.492435   0.97499938  1571373 
 3557000         0.65    90.492435    90.492435    91.467434    170.87561    90.492435   0.97499938  1571373 
 3558000         0.65    90.492435    90.492435    91.467434    170.87561    90.492435   0.97499938  1571373 
 3559000         0.65    90.492435    90.492435    91.467434    170.87561    90.492435   0.97499938  1571373 
 3560000         0.65    90.492435    90.492435    91.467434    170.87561    90.492435   0.97499938  1571373 
 3561000         0.65    90.492435    90.492435    91.467434    170.87561    90.492435   0.97499938  1571373 
 3562000         0.65    90.492435    90.492435    91.467434    170.87561    90.492435   0.97499938  1571373 
 3563000         0.65    90.492435    90.492435    91.467434    170.87561    90.492435   0.97499938  1571373 
 3564000         0.65    90.492435    90.492435    91.467434    170.87561    90.492435   0.97499938  1571373 
 3565000         0.65    90.492435    90.492435    91.467434    170.87561    90.492435   0.97499938  1571373 
 3566000         0.65    90.492435    90.492435    91.467434    170.87561    90.492435   0.97499938  1571373 
 3567000         0.65    90.492435    90.492435    91.467434    170.87561    90.492435   0.97499938  1571373 
 3568000         0.65    90.492435    90.492435    91.467434    170.87561    90.492435   0.97499938  1571373 
 3569000         0.65    90.492435    90.492435    91.467434    170.87561    90.492435   0.97499938  1571373 
 3570000         0.65    90.492435    90.492435    91.467434    170.87561    90.492435   0.97499938  1571373 
 3571000         0.65    90.492435    90.492435    91.467434    170.87561    90.492435   0.97499938  1571373 
 3572000         0.65    90.492435    90.492435    91.467434    170.87561    90.492435   0.97499938  1571373 
 3573000         0.65    90.492435    90.492435    91.467434    170.87561    90.492435   0.97499938  1571373 
 3574000         0.65    90.492435    90.492435    91.467434    170.87561    90.492435   0.97499938  1571373 
 3575000         0.65    90.492435    90.492435    91.467434    170.87561    90.492435   0.97499938  1571373 
 3576000         0.65    90.492435    90.492435    91.467434    170.87561    90.492435   0.97499938  1571373 
 3577000         0.65    90.492435    90.492435    91.467434    170.87561    90.492435   0.97499938  1571373 
 3578000         0.65    90.492435    90.492435    91.467434    170.87561    90.492435   0.97499938  1571373 
 3579000         0.65    90.492435    90.492435    91.467434    170.87561    90.492435   0.97499938  1571373 
 3580000         0.65    90.492435    90.492435    91.467434    170.87561    90.492435   0.97499938  1571373 
 3581000         0.65    90.492435    90.492435    91.467434    170.87561    90.492435   0.97499938  1571373 
 3582000         0.65    90.492435    90.492435    91.467434    170.87561    90.492435   0.97499938  1571373 
 3583000         0.65    90.492435    90.492435    91.467434    170.87561    90.492435   0.97499938  1571373 
 3584000         0.65    90.492435    90.492435    91.467434    170.87561    90.492435   0.97499938  1571373 
 3585000         0.65    90.492435    90.492435    91.467434    170.87561    90.492435   0.97499938  1571373 
 3586000         0.65    90.492435    90.492435    91.467434    170.87561    90.492435   0.97499938  1571373 
 3587000         0.65    90.492435    90.492435    91.467434    170.87561    90.492435   0.97499938  1571373 
 3588000         0.65    90.492435    90.492435    91.467434    170.87561    90.492435   0.97499938  1571373 
 3589000         0.65    90.492435    90.492435    91.467434    170.87561    90.492435   0.97499938  1571373 
 3590000         0.65    90.492435    90.492435    91.467434    170.87561    90.492435   0.97499938  1571373 
 3591000         0.65    90.492435    90.492435    91.467434    170.87561    90.492435   0.97499938  1571373 
 3592000         0.65    90.492435    90.492435    91.467434    170.87561    90.492435   0.97499938  1571373 
 3593000         0.65    90.492435    90.492435    91.467434    170.87561    90.492435   0.97499938  1571373 
 3594000         0.65    90.492435    90.492435    91.467434    170.87561    90.492435   0.97499938  1571373 
 3595000         0.65    90.492435    90.492435    91.467434    170.87561    90.492435   0.97499938  1571373 
 3596000         0.65    90.492435    90.492435    91.467434    170.87561    90.492435   0.97499938  1571373 
 3597000         0.65    90.492435    90.492435    91.467434    170.87561    90.492435   0.97499938  1571373 
 3598000         0.65    90.492435    90.492435    91.467434    170.87561    90.492435   0.97499938  1571373 
 3599000         0.65    90.492435    90.492435    91.467434    170.87561    90.492435   0.97499938  1571373 
 3600000         0.65    90.492435    90.492435    91.467434    170.87561    90.492435   0.97499938  1571373 
 3601000         0.65    90.492435    90.492435    91.467434    170.87561    90.492435   0.97499938  1571373 
 3602000         0.65    90.492435    90.492435    91.467434    170.87561    90.492435   0.97499938  1571373 
 3603000         0.65    90.492435    90.492435    91.467434    170.87561    90.492435   0.97499938  1571373 
 3604000         0.65    90.492435    90.492435    91.467434    170.87561    90.492435   0.97499938  1571373 
 3605000         0.65    90.492435    90.492435    91.467434    170.87561    90.492435   0.97499938  1571373 
 3606000         0.65    90.492435    90.492435    91.467434    170.87561    90.492435   0.97499938  1571373 
 3607000         0.65    90.492435    90.492435    91.467434    170.87561    90.492435   0.97499938  1571373 
 3608000         0.65    90.492435    90.492435    91.467434    170.87561    90.492435   0.97499938  1571373 
 3609000         0.65    90.492435    90.492435    91.467434    170.87561    90.492435   0.97499938  1571373 
 3610000         0.65    90.492435    90.492435    91.467434    170.87561    90.492435   0.97499938  1571373 
 3611000         0.65    90.492435    90.492435    91.467434    170.87561    90.492435   0.97499938  1571373 
 3612000         0.65    90.492435    90.492435    91.467434    170.87561    90.492435   0.97499938  1571373 
 3613000         0.65    90.492435    90.492435    91.467434    170.87561    90.492435   0.97499938  1571373 
 3614000         0.65    90.492435    90.492435    91.467434    170.87561    90.492435   0.97499938  1571373 
 3615000         0.65    90.492435    90.492435    91.467434    170.87561    90.492435   0.97499938  1571373 
 3616000         0.65    90.492435    90.492435    91.467434    170.87561    90.492435   0.97499938  1571373 
 3617000         0.65    90.492435    90.492435    91.467434    170.87561    90.492435   0.97499938  1571373 
 3618000         0.65    90.492435    90.492435    91.467434    170.87561    90.492435   0.97499938  1571373 
 3619000         0.65    90.492435    90.492435    91.467434    170.87561    90.492435   0.97499938  1571373 
 3620000         0.65    90.492435    90.492435    91.467434    170.87561    90.492435   0.97499938  1571373 
 3621000         0.65    90.492435    90.492435    91.467434    170.87561    90.492435   0.97499938  1571373 
 3622000         0.65    90.492435    90.492435    91.467434    170.87561    90.492435   0.97499938  1571373 
 3623000         0.65    90.492435    90.492435    91.467434    170.87561    90.492435   0.97499938  1571373 
 3624000         0.65    90.492435    90.492435    91.467434    170.87561    90.492435   0.97499938  1571373 
 3625000         0.65    90.492435    90.492435    91.467434    170.87561    90.492435   0.97499938  1571373 
 3626000         0.65    90.492435    90.492435    91.467434    170.87561    90.492435   0.97499938  1571373 
 3627000         0.65    90.492435    90.492435    91.467434    170.87561    90.492435   0.97499938  1571373 
 3628000         0.65    90.492435    90.492435    91.467434    170.87561    90.492435   0.97499938  1571373 
 3629000         0.65    90.492435    90.492435    91.467434    170.87561    90.492435   0.97499938  1571373 
 3630000         0.65    90.492435    90.492435    91.467434    170.87561    90.492435   0.97499938  1571373 
 3631000         0.65    90.492435    90.492435    91.467434    170.87561    90.492435   0.97499938  1571373 
 3632000         0.65    90.492435    90.492435    91.467434    170.87561    90.492435   0.97499938  1571373 
 3633000         0.65    90.492435    90.492435    91.467434    170.87561    90.492435   0.97499938  1571373 
 3634000         0.65    90.492435    90.492435    91.467434    170.87561    90.492435   0.97499938  1571373 
 3635000         0.65    90.492435    90.492435    91.467434    170.87561    90.492435   0.97499938  1571373 
 3636000         0.65    90.492435    90.492435    91.467434    170.87561    90.492435   0.97499938  1571373 
 3637000         0.65    90.492435    90.492435    91.467434    170.87561    90.492435   0.97499938  1571373 
 3638000         0.65    90.492435    90.492435    91.467434    170.87561    90.492435   0.97499938  1571373 
 3639000         0.65    90.492435    90.492435    91.467434    170.87561    90.492435   0.97499938  1571373 
 3640000         0.65    90.492435    90.492435    91.467434    170.87561    90.492435   0.97499938  1571373 
 3641000         0.65    90.492435    90.492435    91.467434    170.87561    90.492435   0.97499938  1571373 
 3642000         0.65    90.492435    90.492435    91.467434    170.87561    90.492435   0.97499938  1571373 
 3643000         0.65    90.492435    90.492435    91.467434    170.87561    90.492435   0.97499938  1571373 
 3644000         0.65    90.492435    90.492435    91.467434    170.87561    90.492435   0.97499938  1571373 
 3645000         0.65    90.492435    90.492435    91.467434    170.87561    90.492435   0.97499938  1571373 
 3646000         0.65    90.492435    90.492435    91.467434    170.87561    90.492435   0.97499938  1571373 
 3647000         0.65    90.492435    90.492435    91.467434    170.87561    90.492435   0.97499938  1571373 
 3648000         0.65    90.492435    90.492435    91.467434    170.87561    90.492435   0.97499938  1571373 
 3649000         0.65    90.492435    90.492435    91.467434    170.87561    90.492435   0.97499938  1571373 
 3650000         0.65    90.492435    90.492435    91.467434    170.87561    90.492435   0.97499938  1571373 
 3651000         0.65    90.492435    90.492435    91.467434    170.87561    90.492435   0.97499938  1571373 
 3652000         0.65    90.492435    90.492435    91.467434    170.87561    90.492435   0.97499938  1571373 
 3653000         0.65    90.492435    90.492435    91.467434    170.87561    90.492435   0.97499938  1571373 
 3654000         0.65    90.492435    90.492435    91.467434    170.87561    90.492435   0.97499938  1571373 
 3655000         0.65    90.492435    90.492435    91.467434    170.87561    90.492435   0.97499938  1571373 
 3656000         0.65    90.492435    90.492435    91.467434    170.87561    90.492435   0.97499938  1571373 
 3657000         0.65    90.492435    90.492435    91.467434    170.87561    90.492435   0.97499938  1571373 
 3658000         0.65    90.492435    90.492435    91.467434    170.87561    90.492435   0.97499938  1571373 
 3659000         0.65    90.492435    90.492435    91.467434    170.87561    90.492435   0.97499938  1571373 
 3660000         0.65    90.492435    90.492435    91.467434    170.87561    90.492435   0.97499938  1571373 
 3661000         0.65    90.492435    90.492435    91.467434    170.87561    90.492435   0.97499938  1571373 
 3662000         0.65    90.492435    90.492435    91.467434    170.87561    90.492435   0.97499938  1571373 
 3663000         0.65    90.492435    90.492435    91.467434    170.87561    90.492435   0.97499938  1571373 
 3664000         0.65    90.492435    90.492435    91.467434    170.87561    90.492435   0.97499938  1571373 
 3665000         0.65    90.492435    90.492435    91.467434    170.87561    90.492435   0.97499938  1571373 
 3666000         0.65    90.492435    90.492435    91.467434    170.87561    90.492435   0.97499938  1571373 
 3667000         0.65    90.492435    90.492435    91.467434    170.87561    90.492435   0.97499938  1571373 
 3668000         0.65    90.492435    90.492435    91.467434    170.87561    90.492435   0.97499938  1571373 
 3669000         0.65    90.492435    90.492435    91.467434    170.87561    90.492435   0.97499938  1571373 
 3670000         0.65    90.492435    90.492435    91.467434    170.87561    90.492435   0.97499938  1571373 
 3671000         0.65    90.492435    90.492435    91.467434    170.87561    90.492435   0.97499938  1571373 
 3672000         0.65    90.492435    90.492435    91.467434    170.87561    90.492435   0.97499938  1571373 
 3673000         0.65    90.492435    90.492435    91.467434    170.87561    90.492435   0.97499938  1571373 
 3674000         0.65    90.492435    90.492435    91.467434    170.87561    90.492435   0.97499938  1571373 
 3675000         0.65    90.492435    90.492435    91.467434    170.87561    90.492435   0.97499938  1571373 
 3676000         0.65    90.492435    90.492435    91.467434    170.87561    90.492435   0.97499938  1571373 
 3677000         0.65    90.492435    90.492435    91.467434    170.87561    90.492435   0.97499938  1571373 
 3678000         0.65    90.492435    90.492435    91.467434    170.87561    90.492435   0.97499938  1571373 
 3679000         0.65    90.492435    90.492435    91.467434    170.87561    90.492435   0.97499938  1571373 
 3680000         0.65    90.492435    90.492435    91.467434    170.87561    90.492435   0.97499938  1571373 
 3681000         0.65    90.492435    90.492435    91.467434    170.87561    90.492435   0.97499938  1571373 
 3682000         0.65    90.492435    90.492435    91.467434    170.87561    90.492435   0.97499938  1571373 
 3683000         0.65    90.492435    90.492435    91.467434    170.87561    90.492435   0.97499938  1571373 
 3684000         0.65    90.492435    90.492435    91.467434    170.87561    90.492435   0.97499938  1571373 
 3685000         0.65    90.492435    90.492435    91.467434    170.87561    90.492435   0.97499938  1571373 
 3686000         0.65    90.492435    90.492435    91.467434    170.87561    90.492435   0.97499938  1571373 
 3687000         0.65    90.492435    90.492435    91.467434    170.87561    90.492435   0.97499938  1571373 
 3688000         0.65    90.492435    90.492435    91.467434    170.87561    90.492435   0.97499938  1571373 
 3689000         0.65    90.492435    90.492435    91.467434    170.87561    90.492435   0.97499938  1571373 
 3690000         0.65    90.492435    90.492435    91.467434    170.87561    90.492435   0.97499938  1571373 
 3691000         0.65    90.492435    90.492435    91.467434    170.87561    90.492435   0.97499938  1571373 
 3692000         0.65    90.492435    90.492435    91.467434    170.87561    90.492435   0.97499938  1571373 
 3693000         0.65    90.492435    90.492435    91.467434    170.87561    90.492435   0.97499938  1571373 
 3694000         0.65    90.492435    90.492435    91.467434    170.87561    90.492435   0.97499938  1571373 
 3695000         0.65    90.492435    90.492435    91.467434    170.87561    90.492435   0.97499938  1571373 
 3696000         0.65    90.492435    90.492435    91.467434    170.87561    90.492435   0.97499938  1571373 
 3697000         0.65    90.492435    90.492435    91.467434    170.87561    90.492435   0.97499938  1571373 
 3698000         0.65    90.492435    90.492435    91.467434    170.87561    90.492435   0.97499938  1571373 
 3699000         0.65    90.492435    90.492435    91.467434    170.87561    90.492435   0.97499938  1571373 
 3700000         0.65    90.492435    90.492435    91.467434    170.87561    90.492435   0.97499938  1571373 
 3701000         0.65    90.492435    90.492435    91.467434    170.87561    90.492435   0.97499938  1571373 
 3702000         0.65    90.492435    90.492435    91.467434    170.87561    90.492435   0.97499938  1571373 
 3703000         0.65    90.492435    90.492435    91.467434    170.87561    90.492435   0.97499938  1571373 
 3704000         0.65    90.492435    90.492435    91.467434    170.87561    90.492435   0.97499938  1571373 
 3705000         0.65    90.492435    90.492435    91.467434    170.87561    90.492435   0.97499938  1571373 
 3706000         0.65    90.492435    90.492435    91.467434    170.87561    90.492435   0.97499938  1571373 
 3707000         0.65    90.492435    90.492435    91.467434    170.87561    90.492435   0.97499938  1571373 
 3708000         0.65    90.492435    90.492435    91.467434    170.87561    90.492435   0.97499938  1571373 
 3709000         0.65    90.492435    90.492435    91.467434    170.87561    90.492435   0.97499938  1571373 
 3710000         0.65    90.492435    90.492435    91.467434    170.87561    90.492435   0.97499938  1571373 
 3711000         0.65    90.492435    90.492435    91.467434    170.87561    90.492435   0.97499938  1571373 
 3712000         0.65    90.492435    90.492435    91.467434    170.87561    90.492435   0.97499938  1571373 
 3713000         0.65    90.492435    90.492435    91.467434    170.87561    90.492435   0.97499938  1571373 
 3714000         0.65    90.492435    90.492435    91.467434    170.87561    90.492435   0.97499938  1571373 
 3715000         0.65    90.492435    90.492435    91.467434    170.87561    90.492435   0.97499938  1571373 
 3716000         0.65    90.492435    90.492435    91.467434    170.87561    90.492435   0.97499938  1571373 
 3717000         0.65    90.492435    90.492435    91.467434    170.87561    90.492435   0.97499938  1571373 
 3718000         0.65    90.492435    90.492435    91.467434    170.87561    90.492435   0.97499938  1571373 
 3719000         0.65    90.492435    90.492435    91.467434    170.87561    90.492435   0.97499938  1571373 
 3720000         0.65    90.492435    90.492435    91.467434    170.87561    90.492435   0.97499938  1571373 
 3721000         0.65    90.492435    90.492435    91.467434    170.87561    90.492435   0.97499938  1571373 
 3722000         0.65    90.492435    90.492435    91.467434    170.87561    90.492435   0.97499938  1571373 
 3723000         0.65    90.492435    90.492435    91.467434    170.87561    90.492435   0.97499938  1571373 
 3724000         0.65    90.492435    90.492435    91.467434    170.87561    90.492435   0.97499938  1571373 
 3725000         0.65    90.492435    90.492435    91.467434    170.87561    90.492435   0.97499938  1571373 
 3726000         0.65    90.492435    90.492435    91.467434    170.87561    90.492435   0.97499938  1571373 
 3727000         0.65    90.492435    90.492435    91.467434    170.87561    90.492435   0.97499938  1571373 
 3728000         0.65    90.492435    90.492435    91.467434    170.87561    90.492435   0.97499938  1571373 
 3729000         0.65    90.492435    90.492435    91.467434    170.87561    90.492435   0.97499938  1571373 
 3730000         0.65    90.492435    90.492435    91.467434    170.87561    90.492435   0.97499938  1571373 
 3731000         0.65    90.492435    90.492435    91.467434    170.87561    90.492435   0.97499938  1571373 
 3732000         0.65    90.492435    90.492435    91.467434    170.87561    90.492435   0.97499938  1571373 
 3733000         0.65    90.492435    90.492435    91.467434    170.87561    90.492435   0.97499938  1571373 
 3734000         0.65    90.492435    90.492435    91.467434    170.87561    90.492435   0.97499938  1571373 
 3735000         0.65    90.492435    90.492435    91.467434    170.87561    90.492435   0.97499938  1571373 
 3736000         0.65    90.492435    90.492435    91.467434    170.87561    90.492435   0.97499938  1571373 
 3737000         0.65    90.492435    90.492435    91.467434    170.87561    90.492435   0.97499938  1571373 
 3738000         0.65    90.492435    90.492435    91.467434    170.87561    90.492435   0.97499938  1571373 
 3739000         0.65    90.492435    90.492435    91.467434    170.87561    90.492435   0.97499938  1571373 
 3740000         0.65    90.492435    90.492435    91.467434    170.87561    90.492435   0.97499938  1571373 
 3741000         0.65    90.492435    90.492435    91.467434    170.87561    90.492435   0.97499938  1571373 
 3742000         0.65    90.492435    90.492435    91.467434    170.87561    90.492435   0.97499938  1571373 
 3743000         0.65    90.492435    90.492435    91.467434    170.87561    90.492435   0.97499938  1571373 
 3744000         0.65    90.492435    90.492435    91.467434    170.87561    90.492435   0.97499938  1571373 
 3745000         0.65    90.492435    90.492435    91.467434    170.87561    90.492435   0.97499938  1571373 
 3746000         0.65    90.492435    90.492435    91.467434    170.87561    90.492435   0.97499938  1571373 
 3747000         0.65    90.492435    90.492435    91.467434    170.87561    90.492435   0.97499938  1571373 
 3748000         0.65    90.492435    90.492435    91.467434    170.87561    90.492435   0.97499938  1571373 
 3749000         0.65    90.492435    90.492435    91.467434    170.87561    90.492435   0.97499938  1571373 
 3750000         0.65    90.492435    90.492435    91.467434    170.87561    90.492435   0.97499938  1571373 
 3751000         0.65    90.492435    90.492435    91.467434    170.87561    90.492435   0.97499938  1571373 
 3752000         0.65    90.492435    90.492435    91.467434    170.87561    90.492435   0.97499938  1571373 
 3753000         0.65    90.492435    90.492435    91.467434    170.87561    90.492435   0.97499938  1571373 
 3754000         0.65    90.492435    90.492435    91.467434    170.87561    90.492435   0.97499938  1571373 
 3755000         0.65    90.492435    90.492435    91.467434    170.87561    90.492435   0.97499938  1571373 
 3756000         0.65    90.492435    90.492435    91.467434    170.87561    90.492435   0.97499938  1571373 
 3757000         0.65    90.492435    90.492435    91.467434    170.87561    90.492435   0.97499938  1571373 
 3758000         0.65    90.492435    90.492435    91.467434    170.87561    90.492435   0.97499938  1571373 
 3759000         0.65    90.492435    90.492435    91.467434    170.87561    90.492435   0.97499938  1571373 
 3760000         0.65    90.492435    90.492435    91.467434    170.87561    90.492435   0.97499938  1571373 
 3761000         0.65    90.492435    90.492435    91.467434    170.87561    90.492435   0.97499938  1571373 
 3762000         0.65    90.492435    90.492435    91.467434    170.87561    90.492435   0.97499938  1571373 
 3763000         0.65    90.492435    90.492435    91.467434    170.87561    90.492435   0.97499938  1571373 
 3764000         0.65    90.492435    90.492435    91.467434    170.87561    90.492435   0.97499938  1571373 
 3765000         0.65    90.492435    90.492435    91.467434    170.87561    90.492435   0.97499938  1571373 
 3766000         0.65    90.492435    90.492435    91.467434    170.87561    90.492435   0.97499938  1571373 
 3767000         0.65    90.492435    90.492435    91.467434    170.87561    90.492435   0.97499938  1571373 
 3768000         0.65    90.492435    90.492435    91.467434    170.87561    90.492435   0.97499938  1571373 
 3769000         0.65    90.492435    90.492435    91.467434    170.87561    90.492435   0.97499938  1571373 
 3770000         0.65    90.492435    90.492435    91.467434    170.87561    90.492435   0.97499938  1571373 
 3771000         0.65    90.492435    90.492435    91.467434    170.87561    90.492435   0.97499938  1571373 
 3772000         0.65    90.492435    90.492435    91.467434    170.87561    90.492435   0.97499938  1571373 
 3773000         0.65    90.492435    90.492435    91.467434    170.87561    90.492435   0.97499938  1571373 
 3774000         0.65    90.492435    90.492435    91.467434    170.87561    90.492435   0.97499938  1571373 
 3775000         0.65    90.492435    90.492435    91.467434    170.87561    90.492435   0.97499938  1571373 
 3776000         0.65    90.492435    90.492435    91.467434    170.87561    90.492435   0.97499938  1571373 
 3777000         0.65    90.492435    90.492435    91.467434    170.87561    90.492435   0.97499938  1571373 
 3778000         0.65    90.492435    90.492435    91.467434    170.87561    90.492435   0.97499938  1571373 
 3779000         0.65    90.492435    90.492435    91.467434    170.87561    90.492435   0.97499938  1571373 
 3780000         0.65    90.492435    90.492435    91.467434    170.87561    90.492435   0.97499938  1571373 
 3781000         0.65    90.492435    90.492435    91.467434    170.87561    90.492435   0.97499938  1571373 
 3782000         0.65    90.492435    90.492435    91.467434    170.87561    90.492435   0.97499938  1571373 
 3783000         0.65    90.492435    90.492435    91.467434    170.87561    90.492435   0.97499938  1571373 
 3784000         0.65    90.492435    90.492435    91.467434    170.87561    90.492435   0.97499938  1571373 
 3785000         0.65    90.492435    90.492435    91.467434    170.87561    90.492435   0.97499938  1571373 
 3786000         0.65    90.492435    90.492435    91.467434    170.87561    90.492435   0.97499938  1571373 
 3787000         0.65    90.492435    90.492435    91.467434    170.87561    90.492435   0.97499938  1571373 
 3788000         0.65    90.492435    90.492435    91.467434    170.87561    90.492435   0.97499938  1571373 
 3789000         0.65    90.492435    90.492435    91.467434    170.87561    90.492435   0.97499938  1571373 
 3790000         0.65    90.492435    90.492435    91.467434    170.87561    90.492435   0.97499938  1571373 
 3791000         0.65    90.492435    90.492435    91.467434    170.87561    90.492435   0.97499938  1571373 
 3792000         0.65    90.492435    90.492435    91.467434    170.87561    90.492435   0.97499938  1571373 
 3793000         0.65    90.492435    90.492435    91.467434    170.87561    90.492435   0.97499938  1571373 
 3794000         0.65    90.492435    90.492435    91.467434    170.87561    90.492435   0.97499938  1571373 
 3795000         0.65    90.492435    90.492435    91.467434    170.87561    90.492435   0.97499938  1571373 
 3796000         0.65    90.492435    90.492435    91.467434    170.87561    90.492435   0.97499938  1571373 
 3797000         0.65    90.492435    90.492435    91.467434    170.87561    90.492435   0.97499938  1571373 
 3798000         0.65    90.492435    90.492435    91.467434    170.87561    90.492435   0.97499938  1571373 
 3799000         0.65    90.492435    90.492435    91.467434    170.87561    90.492435   0.97499938  1571373 
 3800000         0.65    90.492435    90.492435    91.467434    170.87561    90.492435   0.97499938  1571373 
 3801000         0.65    90.492435    90.492435    91.467434    170.87561    90.492435   0.97499938  1571373 
 3802000         0.65    90.492435    90.492435    91.467434    170.87561    90.492435   0.97499938  1571373 
 3803000         0.65    90.492435    90.492435    91.467434    170.87561    90.492435   0.97499938  1571373 
 3804000         0.65    90.492435    90.492435    91.467434    170.87561    90.492435   0.97499938  1571373 
 3805000         0.65    90.492435    90.492435    91.467434    170.87561    90.492435   0.97499938  1571373 
 3806000         0.65    90.492435    90.492435    91.467434    170.87561    90.492435   0.97499938  1571373 
 3807000         0.65    90.492435    90.492435    91.467434    170.87561    90.492435   0.97499938  1571373 
 3808000         0.65    90.492435    90.492435    91.467434    170.87561    90.492435   0.97499938  1571373 
 3809000         0.65    90.492435    90.492435    91.467434    170.87561    90.492435   0.97499938  1571373 
 3810000         0.65    90.492435    90.492435    91.467434    170.87561    90.492435   0.97499938  1571373 
 3811000         0.65    90.492435    90.492435    91.467434    170.87561    90.492435   0.97499938  1571373 
 3812000         0.65    90.492435    90.492435    91.467434    170.87561    90.492435   0.97499938  1571373 
 3813000         0.65    90.492435    90.492435    91.467434    170.87561    90.492435   0.97499938  1571373 
 3814000         0.65    90.492435    90.492435    91.467434    170.87561    90.492435   0.97499938  1571373 
 3815000         0.65    90.492435    90.492435    91.467434    170.87561    90.492435   0.97499938  1571373 
 3816000         0.65    90.492435    90.492435    91.467434    170.87561    90.492435   0.97499938  1571373 
 3817000         0.65    90.492435    90.492435    91.467434    170.87561    90.492435   0.97499938  1571373 
 3818000         0.65    90.492435    90.492435    91.467434    170.87561    90.492435   0.97499938  1571373 
 3819000         0.65    90.492435    90.492435    91.467434    170.87561    90.492435   0.97499938  1571373 
 3820000         0.65    90.492435    90.492435    91.467434    170.87561    90.492435   0.97499938  1571373 
 3821000         0.65    90.492435    90.492435    91.467434    170.87561    90.492435   0.97499938  1571373 
 3822000         0.65    90.492435    90.492435    91.467434    170.87561    90.492435   0.97499938  1571373 
 3823000         0.65    90.492435    90.492435    91.467434    170.87561    90.492435   0.97499938  1571373 
 3824000         0.65    90.492435    90.492435    91.467434    170.87561    90.492435   0.97499938  1571373 
 3825000         0.65    90.492435    90.492435    91.467434    170.87561    90.492435   0.97499938  1571373 
 3826000         0.65    90.492435    90.492435    91.467434    170.87561    90.492435   0.97499938  1571373 
 3827000         0.65    90.492435    90.492435    91.467434    170.87561    90.492435   0.97499938  1571373 
 3828000         0.65    90.492435    90.492435    91.467434    170.87561    90.492435   0.97499938  1571373 
 3829000         0.65    90.492435    90.492435    91.467434    170.87561    90.492435   0.97499938  1571373 
 3830000         0.65    90.492435    90.492435    91.467434    170.87561    90.492435   0.97499938  1571373 
 3831000         0.65    90.492435    90.492435    91.467434    170.87561    90.492435   0.97499938  1571373 
 3832000         0.65    90.492435    90.492435    91.467434    170.87561    90.492435   0.97499938  1571373 
 3833000         0.65    90.492435    90.492435    91.467434    170.87561    90.492435   0.97499938  1571373 
 3834000         0.65    90.492435    90.492435    91.467434    170.87561    90.492435   0.97499938  1571373 
 3835000         0.65    90.492435    90.492435    91.467434    170.87561    90.492435   0.97499938  1571373 
 3836000         0.65    90.492435    90.492435    91.467434    170.87561    90.492435   0.97499938  1571373 
 3837000         0.65    90.492435    90.492435    91.467434    170.87561    90.492435   0.97499938  1571373 
 3838000         0.65    90.492435    90.492435    91.467434    170.87561    90.492435   0.97499938  1571373 
 3839000         0.65    90.492435    90.492435    91.467434    170.87561    90.492435   0.97499938  1571373 
 3840000         0.65    90.492435    90.492435    91.467434    170.87561    90.492435   0.97499938  1571373 
 3841000         0.65    90.492435    90.492435    91.467434    170.87561    90.492435   0.97499938  1571373 
 3842000         0.65    90.492435    90.492435    91.467434    170.87561    90.492435   0.97499938  1571373 
 3843000         0.65    90.492435    90.492435    91.467434    170.87561    90.492435   0.97499938  1571373 
 3844000         0.65    90.492435    90.492435    91.467434    170.87561    90.492435   0.97499938  1571373 
 3845000         0.65    90.492435    90.492435    91.467434    170.87561    90.492435   0.97499938  1571373 
 3846000         0.65    90.492435    90.492435    91.467434    170.87561    90.492435   0.97499938  1571373 
 3847000         0.65    90.492435    90.492435    91.467434    170.87561    90.492435   0.97499938  1571373 
 3848000         0.65    90.492435    90.492435    91.467434    170.87561    90.492435   0.97499938  1571373 
 3849000         0.65    90.492435    90.492435    91.467434    170.87561    90.492435   0.97499938  1571373 
 3850000         0.65    90.492435    90.492435    91.467434    170.87561    90.492435   0.97499938  1571373 
 3851000         0.65    90.492435    90.492435    91.467434    170.87561    90.492435   0.97499938  1571373 
 3852000         0.65    90.492435    90.492435    91.467434    170.87561    90.492435   0.97499938  1571373 
 3853000         0.65    90.492435    90.492435    91.467434    170.87561    90.492435   0.97499938  1571373 
 3854000         0.65    90.492435    90.492435    91.467434    170.87561    90.492435   0.97499938  1571373 
 3855000         0.65    90.492435    90.492435    91.467434    170.87561    90.492435   0.97499938  1571373 
 3856000         0.65    90.492435    90.492435    91.467434    170.87561    90.492435   0.97499938  1571373 
 3857000         0.65    90.492435    90.492435    91.467434    170.87561    90.492435   0.97499938  1571373 
 3858000         0.65    90.492435    90.492435    91.467434    170.87561    90.492435   0.97499938  1571373 
 3859000         0.65    90.492435    90.492435    91.467434    170.87561    90.492435   0.97499938  1571373 
 3860000         0.65    90.492435    90.492435    91.467434    170.87561    90.492435   0.97499938  1571373 
 3861000         0.65    90.492435    90.492435    91.467434    170.87561    90.492435   0.97499938  1571373 
 3862000         0.65    90.492435    90.492435    91.467434    170.87561    90.492435   0.97499938  1571373 
 3863000         0.65    90.492435    90.492435    91.467434    170.87561    90.492435   0.97499938  1571373 
 3864000         0.65    90.492435    90.492435    91.467434    170.87561    90.492435   0.97499938  1571373 
 3865000         0.65    90.492435    90.492435    91.467434    170.87561    90.492435   0.97499938  1571373 
 3866000         0.65    90.492435    90.492435    91.467434    170.87561    90.492435   0.97499938  1571373 
 3867000         0.65    90.492435    90.492435    91.467434    170.87561    90.492435   0.97499938  1571373 
 3868000         0.65    90.492435    90.492435    91.467434    170.87561    90.492435   0.97499938  1571373 
 3869000         0.65    90.492435    90.492435    91.467434    170.87561    90.492435   0.97499938  1571373 
 3870000         0.65    90.492435    90.492435    91.467434    170.87561    90.492435   0.97499938  1571373 
 3871000         0.65    90.492435    90.492435    91.467434    170.87561    90.492435   0.97499938  1571373 
 3872000         0.65    90.492435    90.492435    91.467434    170.87561    90.492435   0.97499938  1571373 
 3873000         0.65    90.492435    90.492435    91.467434    170.87561    90.492435   0.97499938  1571373 
 3874000         0.65    90.492435    90.492435    91.467434    170.87561    90.492435   0.97499938  1571373 
 3875000         0.65    90.492435    90.492435    91.467434    170.87561    90.492435   0.97499938  1571373 
 3876000         0.65    90.492435    90.492435    91.467434    170.87561    90.492435   0.97499938  1571373 
 3877000         0.65    90.492435    90.492435    91.467434    170.87561    90.492435   0.97499938  1571373 
 3878000         0.65    90.492435    90.492435    91.467434    170.87561    90.492435   0.97499938  1571373 
 3879000         0.65    90.492435    90.492435    91.467434    170.87561    90.492435   0.97499938  1571373 
 3880000         0.65    90.492435    90.492435    91.467434    170.87561    90.492435   0.97499938  1571373 
 3881000         0.65    90.492435    90.492435    91.467434    170.87561    90.492435   0.97499938  1571373 
 3882000         0.65    90.492435    90.492435    91.467434    170.87561    90.492435   0.97499938  1571373 
 3883000         0.65    90.492435    90.492435    91.467434    170.87561    90.492435   0.97499938  1571373 
 3884000         0.65    90.492435    90.492435    91.467434    170.87561    90.492435   0.97499938  1571373 
 3885000         0.65    90.492435    90.492435    91.467434    170.87561    90.492435   0.97499938  1571373 
 3886000         0.65    90.492435    90.492435    91.467434    170.87561    90.492435   0.97499938  1571373 
 3887000         0.65    90.492435    90.492435    91.467434    170.87561    90.492435   0.97499938  1571373 
 3888000         0.65    90.492435    90.492435    91.467434    170.87561    90.492435   0.97499938  1571373 
 3889000         0.65    90.492435    90.492435    91.467434    170.87561    90.492435   0.97499938  1571373 
 3890000         0.65    90.492435    90.492435    91.467434    170.87561    90.492435   0.97499938  1571373 
 3891000         0.65    90.492435    90.492435    91.467434    170.87561    90.492435   0.97499938  1571373 
 3892000         0.65    90.492435    90.492435    91.467434    170.87561    90.492435   0.97499938  1571373 
 3893000         0.65    90.492435    90.492435    91.467434    170.87561    90.492435   0.97499938  1571373 
 3894000         0.65    90.492435    90.492435    91.467434    170.87561    90.492435   0.97499938  1571373 
 3895000         0.65    90.492435    90.492435    91.467434    170.87561    90.492435   0.97499938  1571373 
 3896000         0.65    90.492435    90.492435    91.467434    170.87561    90.492435   0.97499938  1571373 
 3897000         0.65    90.492435    90.492435    91.467434    170.87561    90.492435   0.97499938  1571373 
 3898000         0.65    90.492435    90.492435    91.467434    170.87561    90.492435   0.97499938  1571373 
 3899000         0.65    90.492435    90.492435    91.467434    170.87561    90.492435   0.97499938  1571373 
 3900000         0.65    90.492435    90.492435    91.467434    170.87561    90.492435   0.97499938  1571373 
 3901000         0.65    90.492435    90.492435    91.467434    170.87561    90.492435   0.97499938  1571373 
 3902000         0.65    90.492435    90.492435    91.467434    170.87561    90.492435   0.97499938  1571373 
 3903000         0.65    90.492435    90.492435    91.467434    170.87561    90.492435   0.97499938  1571373 
 3904000         0.65    90.492435    90.492435    91.467434    170.87561    90.492435   0.97499938  1571373 
 3905000         0.65    90.492435    90.492435    91.467434    170.87561    90.492435   0.97499938  1571373 
 3906000         0.65    90.492435    90.492435    91.467434    170.87561    90.492435   0.97499938  1571373 
 3907000         0.65    90.492435    90.492435    91.467434    170.87561    90.492435   0.97499938  1571373 
 3908000         0.65    90.492435    90.492435    91.467434    170.87561    90.492435   0.97499938  1571373 
 3909000         0.65    90.492435    90.492435    91.467434    170.87561    90.492435   0.97499938  1571373 
 3910000         0.65    90.492435    90.492435    91.467434    170.87561    90.492435   0.97499938  1571373 
 3911000         0.65    90.492435    90.492435    91.467434    170.87561    90.492435   0.97499938  1571373 
 3912000         0.65    90.492435    90.492435    91.467434    170.87561    90.492435   0.97499938  1571373 
 3913000         0.65    90.492435    90.492435    91.467434    170.87561    90.492435   0.97499938  1571373 
 3914000         0.65    90.492435    90.492435    91.467434    170.87561    90.492435   0.97499938  1571373 
 3915000         0.65    90.492435    90.492435    91.467434    170.87561    90.492435   0.97499938  1571373 
 3916000         0.65    90.492435    90.492435    91.467434    170.87561    90.492435   0.97499938  1571373 
 3917000         0.65    90.492435    90.492435    91.467434    170.87561    90.492435   0.97499938  1571373 
 3918000         0.65    90.492435    90.492435    91.467434    170.87561    90.492435   0.97499938  1571373 
 3919000         0.65    90.492435    90.492435    91.467434    170.87561    90.492435   0.97499938  1571373 
 3920000         0.65    90.492435    90.492435    91.467434    170.87561    90.492435   0.97499938  1571373 
 3921000         0.65    90.492435    90.492435    91.467434    170.87561    90.492435   0.97499938  1571373 
 3922000         0.65    90.492435    90.492435    91.467434    170.87561    90.492435   0.97499938  1571373 
 3923000         0.65    90.492435    90.492435    91.467434    170.87561    90.492435   0.97499938  1571373 
 3924000         0.65    90.492435    90.492435    91.467434    170.87561    90.492435   0.97499938  1571373 
 3925000         0.65    90.492435    90.492435    91.467434    170.87561    90.492435   0.97499938  1571373 
 3926000         0.65    90.492435    90.492435    91.467434    170.87561    90.492435   0.97499938  1571373 
 3927000         0.65    90.492435    90.492435    91.467434    170.87561    90.492435   0.97499938  1571373 
 3928000         0.65    90.492435    90.492435    91.467434    170.87561    90.492435   0.97499938  1571373 
 3929000         0.65    90.492435    90.492435    91.467434    170.87561    90.492435   0.97499938  1571373 
 3930000         0.65    90.492435    90.492435    91.467434    170.87561    90.492435   0.97499938  1571373 
 3931000         0.65    90.492435    90.492435    91.467434    170.87561    90.492435   0.97499938  1571373 
 3932000         0.65    90.492435    90.492435    91.467434    170.87561    90.492435   0.97499938  1571373 
 3933000         0.65    90.492435    90.492435    91.467434    170.87561    90.492435   0.97499938  1571373 
 3934000         0.65    90.492435    90.492435    91.467434    170.87561    90.492435   0.97499938  1571373 
 3935000         0.65    90.492435    90.492435    91.467434    170.87561    90.492435   0.97499938  1571373 
 3936000         0.65    90.492435    90.492435    91.467434    170.87561    90.492435   0.97499938  1571373 
 3937000         0.65    90.492435    90.492435    91.467434    170.87561    90.492435   0.97499938  1571373 
 3938000         0.65    90.492435    90.492435    91.467434    170.87561    90.492435   0.97499938  1571373 
 3939000         0.65    90.492435    90.492435    91.467434    170.87561    90.492435   0.97499938  1571373 
 3940000         0.65    90.492435    90.492435    91.467434    170.87561    90.492435   0.97499938  1571373 
 3941000         0.65    90.492435    90.492435    91.467434    170.87561    90.492435   0.97499938  1571373 
 3942000         0.65    90.492435    90.492435    91.467434    170.87561    90.492435   0.97499938  1571373 
 3943000         0.65    90.492435    90.492435    91.467434    170.87561    90.492435   0.97499938  1571373 
 3944000         0.65    90.492435    90.492435    91.467434    170.87561    90.492435   0.97499938  1571373 
 3945000         0.65    90.492435    90.492435    91.467434    170.87561    90.492435   0.97499938  1571373 
 3946000         0.65    90.492435    90.492435    91.467434    170.87561    90.492435   0.97499938  1571373 
 3947000         0.65    90.492435    90.492435    91.467434    170.87561    90.492435   0.97499938  1571373 
 3948000         0.65    90.492435    90.492435    91.467434    170.87561    90.492435   0.97499938  1571373 
 3949000         0.65    90.492435    90.492435    91.467434    170.87561    90.492435   0.97499938  1571373 
 3950000         0.65    90.492435    90.492435    91.467434    170.87561    90.492435   0.97499938  1571373 
 3951000         0.65    90.492435    90.492435    91.467434    170.87561    90.492435   0.97499938  1571373 
 3952000         0.65    90.492435    90.492435    91.467434    170.87561    90.492435   0.97499938  1571373 
 3953000         0.65    90.492435    90.492435    91.467434    170.87561    90.492435   0.97499938  1571373 
 3954000         0.65    90.492435    90.492435    91.467434    170.87561    90.492435   0.97499938  1571373 
 3955000         0.65    90.492435    90.492435    91.467434    170.87561    90.492435   0.97499938  1571373 
 3956000         0.65    90.492435    90.492435    91.467434    170.87561    90.492435   0.97499938  1571373 
 3957000         0.65    90.492435    90.492435    91.467434    170.87561    90.492435   0.97499938  1571373 
 3958000         0.65    90.492435    90.492435    91.467434    170.87561    90.492435   0.97499938  1571373 
 3959000         0.65    90.492435    90.492435    91.467434    170.87561    90.492435   0.97499938  1571373 
 3960000         0.65    90.492435    90.492435    91.467434    170.87561    90.492435   0.97499938  1571373 
 3961000         0.65    90.492435    90.492435    91.467434    170.87561    90.492435   0.97499938  1571373 
 3962000         0.65    90.492435    90.492435    91.467434    170.87561    90.492435   0.97499938  1571373 
 3963000         0.65    90.492435    90.492435    91.467434    170.87561    90.492435   0.97499938  1571373 
 3964000         0.65    90.492435    90.492435    91.467434    170.87561    90.492435   0.97499938  1571373 
 3965000         0.65    90.492435    90.492435    91.467434    170.87561    90.492435   0.97499938  1571373 
 3966000         0.65    90.492435    90.492435    91.467434    170.87561    90.492435   0.97499938  1571373 
 3967000         0.65    90.492435    90.492435    91.467434    170.87561    90.492435   0.97499938  1571373 
 3968000         0.65    90.492435    90.492435    91.467434    170.87561    90.492435   0.97499938  1571373 
 3969000         0.65    90.492435    90.492435    91.467434    170.87561    90.492435   0.97499938  1571373 
 3970000         0.65    90.492435    90.492435    91.467434    170.87561    90.492435   0.97499938  1571373 
 3971000         0.65    90.492435    90.492435    91.467434    170.87561    90.492435   0.97499938  1571373 
 3972000         0.65    90.492435    90.492435    91.467434    170.87561    90.492435   0.97499938  1571373 
 3973000         0.65    90.492435    90.492435    91.467434    170.87561    90.492435   0.97499938  1571373 
 3974000         0.65    90.492435    90.492435    91.467434    170.87561    90.492435   0.97499938  1571373 
 3975000         0.65    90.492435    90.492435    91.467434    170.87561    90.492435   0.97499938  1571373 
 3976000         0.65    90.492435    90.492435    91.467434    170.87561    90.492435   0.97499938  1571373 
 3977000         0.65    90.492435    90.492435    91.467434    170.87561    90.492435   0.97499938  1571373 
 3978000         0.65    90.492435    90.492435    91.467434    170.87561    90.492435   0.97499938  1571373 
 3979000         0.65    90.492435    90.492435    91.467434    170.87561    90.492435   0.97499938  1571373 
 3980000         0.65    90.492435    90.492435    91.467434    170.87561    90.492435   0.97499938  1571373 
 3981000         0.65    90.492435    90.492435    91.467434    170.87561    90.492435   0.97499938  1571373 
 3982000         0.65    90.492435    90.492435    91.467434    170.87561    90.492435   0.97499938  1571373 
 3983000         0.65    90.492435    90.492435    91.467434    170.87561    90.492435   0.97499938  1571373 
 3984000         0.65    90.492435    90.492435    91.467434    170.87561    90.492435   0.97499938  1571373 
 3985000         0.65    90.492435    90.492435    91.467434    170.87561    90.492435   0.97499938  1571373 
 3986000         0.65    90.492435    90.492435    91.467434    170.87561    90.492435   0.97499938  1571373 
 3987000         0.65    90.492435    90.492435    91.467434    170.87561    90.492435   0.97499938  1571373 
 3988000         0.65    90.492435    90.492435    91.467434    170.87561    90.492435   0.97499938  1571373 
 3989000         0.65    90.492435    90.492435    91.467434    170.87561    90.492435   0.97499938  1571373 
 3990000         0.65    90.492435    90.492435    91.467434    170.87561    90.492435   0.97499938  1571373 
 3991000         0.65    90.492435    90.492435    91.467434    170.87561    90.492435   0.97499938  1571373 
 3992000         0.65    90.492435    90.492435    91.467434    170.87561    90.492435   0.97499938  1571373 
 3993000         0.65    90.492435    90.492435    91.467434    170.87561    90.492435   0.97499938  1571373 
 3994000         0.65    90.492435    90.492435    91.467434    170.87561    90.492435   0.97499938  1571373 
 3995000         0.65    90.492435    90.492435    91.467434    170.87561    90.492435   0.97499938  1571373 
 3996000         0.65    90.492435    90.492435    91.467434    170.87561    90.492435   0.97499938  1571373 
 3997000         0.65    90.492435    90.492435    91.467434    170.87561    90.492435   0.97499938  1571373 
 3998000         0.65    90.492435    90.492435    91.467434    170.87561    90.492435   0.97499938  1571373 
 3999000         0.65    90.492435    90.492435    91.467434    170.87561    90.492435   0.97499938  1571373 
 4000000         0.65    90.492435    90.492435    91.467434    170.87561    90.492435   0.97499938  1571373 
 4001000         0.65    90.492435    90.492435    91.467434    170.87561    90.492435   0.97499938  1571373 
 4002000         0.65    90.492435    90.492435    91.467434    170.87561    90.492435   0.97499938  1571373 
 4003000         0.65    90.492435    90.492435    91.467434    170.87561    90.492435   0.97499938  1571373 
 4004000         0.65    90.492435    90.492435    91.467434    170.87561    90.492435   0.97499938  1571373 
 4005000         0.65    90.492435    90.492435    91.467434    170.87561    90.492435   0.97499938  1571373 
 4006000         0.65    90.492435    90.492435    91.467434    170.87561    90.492435   0.97499938  1571373 
 4007000         0.65    90.492435    90.492435    91.467434    170.87561    90.492435   0.97499938  1571373 
 4008000         0.65    90.492435    90.492435    91.467434    170.87561    90.492435   0.97499938  1571373 
 4009000         0.65    90.492435    90.492435    91.467434    170.87561    90.492435   0.97499938  1571373 
 4010000         0.65    90.492435    90.492435    91.467434    170.87561    90.492435   0.97499938  1571373 
 4011000         0.65    90.492435    90.492435    91.467434    170.87561    90.492435   0.97499938  1571373 
 4012000         0.65    90.492435    90.492435    91.467434    170.87561    90.492435   0.97499938  1571373 
 4013000         0.65    90.492435    90.492435    91.467434    170.87561    90.492435   0.97499938  1571373 
 4014000         0.65    90.492435    90.492435    91.467434    170.87561    90.492435   0.97499938  1571373 
 4015000         0.65    90.492435    90.492435    91.467434    170.87561    90.492435   0.97499938  1571373 
 4016000         0.65    90.492435    90.492435    91.467434    170.87561    90.492435   0.97499938  1571373 
 4017000         0.65    90.492435    90.492435    91.467434    170.87561    90.492435   0.97499938  1571373 
 4018000         0.65    90.492435    90.492435    91.467434    170.87561    90.492435   0.97499938  1571373 
 4019000         0.65    90.492435    90.492435    91.467434    170.87561    90.492435   0.97499938  1571373 
 4020000         0.65    90.492435    90.492435    91.467434    170.87561    90.492435   0.97499938  1571373 
 4021000         0.65    90.492435    90.492435    91.467434    170.87561    90.492435   0.97499938  1571373 
 4022000         0.65    90.492435    90.492435    91.467434    170.87561    90.492435   0.97499938  1571373 
 4023000         0.65    90.492435    90.492435    91.467434    170.87561    90.492435   0.97499938  1571373 
 4024000         0.65    90.492435    90.492435    91.467434    170.87561    90.492435   0.97499938  1571373 
 4025000         0.65    90.492435    90.492435    91.467434    170.87561    90.492435   0.97499938  1571373 
 4026000         0.65    90.492435    90.492435    91.467434    170.87561    90.492435   0.97499938  1571373 
 4027000         0.65    90.492435    90.492435    91.467434    170.87561    90.492435   0.97499938  1571373 
 4028000         0.65    90.492435    90.492435    91.467434    170.87561    90.492435   0.97499938  1571373 
 4029000         0.65    90.492435    90.492435    91.467434    170.87561    90.492435   0.97499938  1571373 
 4030000         0.65    90.492435    90.492435    91.467434    170.87561    90.492435   0.97499938  1571373 
 4031000         0.65    90.492435    90.492435    91.467434    170.87561    90.492435   0.97499938  1571373 
 4032000         0.65    90.492435    90.492435    91.467434    170.87561    90.492435   0.97499938  1571373 
 4033000         0.65    90.492435    90.492435    91.467434    170.87561    90.492435   0.97499938  1571373 
 4034000         0.65    90.492435    90.492435    91.467434    170.87561    90.492435   0.97499938  1571373 
 4035000         0.65    90.492435    90.492435    91.467434    170.87561    90.492435   0.97499938  1571373 
 4036000         0.65    90.492435    90.492435    91.467434    170.87561    90.492435   0.97499938  1571373 
 4037000         0.65    90.492435    90.492435    91.467434    170.87561    90.492435   0.97499938  1571373 
 4038000         0.65    90.492435    90.492435    91.467434    170.87561    90.492435   0.97499938  1571373 
 4039000         0.65    90.492435    90.492435    91.467434    170.87561    90.492435   0.97499938  1571373 
 4040000         0.65    90.492435    90.492435    91.467434    170.87561    90.492435   0.97499938  1571373 
 4041000         0.65    90.492435    90.492435    91.467434    170.87561    90.492435   0.97499938  1571373 
 4042000         0.65    90.492435    90.492435    91.467434    170.87561    90.492435   0.97499938  1571373 
 4043000         0.65    90.492435    90.492435    91.467434    170.87561    90.492435   0.97499938  1571373 
 4044000         0.65    90.492435    90.492435    91.467434    170.87561    90.492435   0.97499938  1571373 
 4045000         0.65    90.492435    90.492435    91.467434    170.87561    90.492435   0.97499938  1571373 
 4046000         0.65    90.492435    90.492435    91.467434    170.87561    90.492435   0.97499938  1571373 
 4047000         0.65    90.492435    90.492435    91.467434    170.87561    90.492435   0.97499938  1571373 
 4048000         0.65    90.492435    90.492435    91.467434    170.87561    90.492435   0.97499938  1571373 
 4049000         0.65    90.492435    90.492435    91.467434    170.87561    90.492435   0.97499938  1571373 
 4050000         0.65    90.492435    90.492435    91.467434    170.87561    90.492435   0.97499938  1571373 
 4051000         0.65    90.492435    90.492435    91.467434    170.87561    90.492435   0.97499938  1571373 
 4052000         0.65    90.492435    90.492435    91.467434    170.87561    90.492435   0.97499938  1571373 
 4053000         0.65    90.492435    90.492435    91.467434    170.87561    90.492435   0.97499938  1571373 
 4054000         0.65    90.492435    90.492435    91.467434    170.87561    90.492435   0.97499938  1571373 
 4055000         0.65    90.492435    90.492435    91.467434    170.87561    90.492435   0.97499938  1571373 
 4056000         0.65    90.492435    90.492435    91.467434    170.87561    90.492435   0.97499938  1571373 
 4057000         0.65    90.492435    90.492435    91.467434    170.87561    90.492435   0.97499938  1571373 
 4058000         0.65    90.492435    90.492435    91.467434    170.87561    90.492435   0.97499938  1571373 
 4059000         0.65    90.492435    90.492435    91.467434    170.87561    90.492435   0.97499938  1571373 
 4060000         0.65    90.492435    90.492435    91.467434    170.87561    90.492435   0.97499938  1571373 
 4061000         0.65    90.492435    90.492435    91.467434    170.87561    90.492435   0.97499938  1571373 
 4062000         0.65    90.492435    90.492435    91.467434    170.87561    90.492435   0.97499938  1571373 
 4063000         0.65    90.492435    90.492435    91.467434    170.87561    90.492435   0.97499938  1571373 
 4064000         0.65    90.492435    90.492435    91.467434    170.87561    90.492435   0.97499938  1571373 
 4065000         0.65    90.492435    90.492435    91.467434    170.87561    90.492435   0.97499938  1571373 
 4066000         0.65    90.492435    90.492435    91.467434    170.87561    90.492435   0.97499938  1571373 
 4067000         0.65    90.492435    90.492435    91.467434    170.87561    90.492435   0.97499938  1571373 
 4068000         0.65    90.492435    90.492435    91.467434    170.87561    90.492435   0.97499938  1571373 
 4069000         0.65    90.492435    90.492435    91.467434    170.87561    90.492435   0.97499938  1571373 
 4070000         0.65    90.492435    90.492435    91.467434    170.87561    90.492435   0.97499938  1571373 
 4071000         0.65    90.492435    90.492435    91.467434    170.87561    90.492435   0.97499938  1571373 
 4072000         0.65    90.492435    90.492435    91.467434    170.87561    90.492435   0.97499938  1571373 
 4073000         0.65    90.492435    90.492435    91.467434    170.87561    90.492435   0.97499938  1571373 
 4074000         0.65    90.492435    90.492435    91.467434    170.87561    90.492435   0.97499938  1571373 
 4075000         0.65    90.492435    90.492435    91.467434    170.87561    90.492435   0.97499938  1571373 
 4076000         0.65    90.492435    90.492435    91.467434    170.87561    90.492435   0.97499938  1571373 
 4077000         0.65    90.492435    90.492435    91.467434    170.87561    90.492435   0.97499938  1571373 
 4078000         0.65    90.492435    90.492435    91.467434    170.87561    90.492435   0.97499938  1571373 
 4079000         0.65    90.492435    90.492435    91.467434    170.87561    90.492435   0.97499938  1571373 
 4080000         0.65    90.492435    90.492435    91.467434    170.87561    90.492435   0.97499938  1571373 
 4081000         0.65    90.492435    90.492435    91.467434    170.87561    90.492435   0.97499938  1571373 
 4082000         0.65    90.492435    90.492435    91.467434    170.87561    90.492435   0.97499938  1571373 
 4083000         0.65    90.492435    90.492435    91.467434    170.87561    90.492435   0.97499938  1571373 
 4084000         0.65    90.492435    90.492435    91.467434    170.87561    90.492435   0.97499938  1571373 
 4085000         0.65    90.492435    90.492435    91.467434    170.87561    90.492435   0.97499938  1571373 
 4086000         0.65    90.492435    90.492435    91.467434    170.87561    90.492435   0.97499938  1571373 
 4087000         0.65    90.492435    90.492435    91.467434    170.87561    90.492435   0.97499938  1571373 
 4088000         0.65    90.492435    90.492435    91.467434    170.87561    90.492435   0.97499938  1571373 
 4089000         0.65    90.492435    90.492435    91.467434    170.87561    90.492435   0.97499938  1571373 
 4090000         0.65    90.492435    90.492435    91.467434    170.87561    90.492435   0.97499938  1571373 
 4091000         0.65    90.492435    90.492435    91.467434    170.87561    90.492435   0.97499938  1571373 
 4092000         0.65    90.492435    90.492435    91.467434    170.87561    90.492435   0.97499938  1571373 
 4093000         0.65    90.492435    90.492435    91.467434    170.87561    90.492435   0.97499938  1571373 
 4094000         0.65    90.492435    90.492435    91.467434    170.87561    90.492435   0.97499938  1571373 
 4095000         0.65    90.492435    90.492435    91.467434    170.87561    90.492435   0.97499938  1571373 
 4096000         0.65    90.492435    90.492435    91.467434    170.87561    90.492435   0.97499938  1571373 
 4097000         0.65    90.492435    90.492435    91.467434    170.87561    90.492435   0.97499938  1571373 
 4098000         0.65    90.492435    90.492435    91.467434    170.87561    90.492435   0.97499938  1571373 
 4099000         0.65    90.492435    90.492435    91.467434    170.87561    90.492435   0.97499938  1571373 
 4100000         0.65    90.492435    90.492435    91.467434    170.87561    90.492435   0.97499938  1571373 
 4101000         0.65    90.492435    90.492435    91.467434    170.87561    90.492435   0.97499938  1571373 
 4102000         0.65    90.492435    90.492435    91.467434    170.87561    90.492435   0.97499938  1571373 
 4103000         0.65    90.492435    90.492435    91.467434    170.87561    90.492435   0.97499938  1571373 
 4104000         0.65    90.492435    90.492435    91.467434    170.87561    90.492435   0.97499938  1571373 
 4105000         0.65    90.492435    90.492435    91.467434    170.87561    90.492435   0.97499938  1571373 
 4106000         0.65    90.492435    90.492435    91.467434    170.87561    90.492435   0.97499938  1571373 
 4107000         0.65    90.492435    90.492435    91.467434    170.87561    90.492435   0.97499938  1571373 
 4108000         0.65    90.492435    90.492435    91.467434    170.87561    90.492435   0.97499938  1571373 
 4109000         0.65    90.492435    90.492435    91.467434    170.87561    90.492435   0.97499938  1571373 
 4110000         0.65    90.492435    90.492435    91.467434    170.87561    90.492435   0.97499938  1571373 
 4111000         0.65    90.492435    90.492435    91.467434    170.87561    90.492435   0.97499938  1571373 
 4112000         0.65    90.492435    90.492435    91.467434    170.87561    90.492435   0.97499938  1571373 
 4113000         0.65    90.492435    90.492435    91.467434    170.87561    90.492435   0.97499938  1571373 
 4114000         0.65    90.492435    90.492435    91.467434    170.87561    90.492435   0.97499938  1571373 
 4115000         0.65    90.492435    90.492435    91.467434    170.87561    90.492435   0.97499938  1571373 
 4116000         0.65    90.492435    90.492435    91.467434    170.87561    90.492435   0.97499938  1571373 
 4117000         0.65    90.492435    90.492435    91.467434    170.87561    90.492435   0.97499938  1571373 
 4118000         0.65    90.492435    90.492435    91.467434    170.87561    90.492435   0.97499938  1571373 
 4119000         0.65    90.492435    90.492435    91.467434    170.87561    90.492435   0.97499938  1571373 
 4120000         0.65    90.492435    90.492435    91.467434    170.87561    90.492435   0.97499938  1571373 
 4121000         0.65    90.492435    90.492435    91.467434    170.87561    90.492435   0.97499938  1571373 
 4122000         0.65    90.492435    90.492435    91.467434    170.87561    90.492435   0.97499938  1571373 
 4123000         0.65    90.492435    90.492435    91.467434    170.87561    90.492435   0.97499938  1571373 
 4124000         0.65    90.492435    90.492435    91.467434    170.87561    90.492435   0.97499938  1571373 
 4125000         0.65    90.492435    90.492435    91.467434    170.87561    90.492435   0.97499938  1571373 
 4126000         0.65    90.492435    90.492435    91.467434    170.87561    90.492435   0.97499938  1571373 
 4127000         0.65    90.492435    90.492435    91.467434    170.87561    90.492435   0.97499938  1571373 
 4128000         0.65    90.492435    90.492435    91.467434    170.87561    90.492435   0.97499938  1571373 
 4129000         0.65    90.492435    90.492435    91.467434    170.87561    90.492435   0.97499938  1571373 
 4130000         0.65    90.492435    90.492435    91.467434    170.87561    90.492435   0.97499938  1571373 
 4131000         0.65    90.492435    90.492435    91.467434    170.87561    90.492435   0.97499938  1571373 
 4132000         0.65    90.492435    90.492435    91.467434    170.87561    90.492435   0.97499938  1571373 
 4133000         0.65    90.492435    90.492435    91.467434    170.87561    90.492435   0.97499938  1571373 
 4134000         0.65    90.492435    90.492435    91.467434    170.87561    90.492435   0.97499938  1571373 
 4135000         0.65    90.492435    90.492435    91.467434    170.87561    90.492435   0.97499938  1571373 
 4136000         0.65    90.492435    90.492435    91.467434    170.87561    90.492435   0.97499938  1571373 
 4137000         0.65    90.492435    90.492435    91.467434    170.87561    90.492435   0.97499938  1571373 
 4138000         0.65    90.492435    90.492435    91.467434    170.87561    90.492435   0.97499938  1571373 
 4139000         0.65    90.492435    90.492435    91.467434    170.87561    90.492435   0.97499938  1571373 
 4140000         0.65    90.492435    90.492435    91.467434    170.87561    90.492435   0.97499938  1571373 
 4141000         0.65    90.492435    90.492435    91.467434    170.87561    90.492435   0.97499938  1571373 
 4142000         0.65    90.492435    90.492435    91.467434    170.87561    90.492435   0.97499938  1571373 
 4143000         0.65    90.492435    90.492435    91.467434    170.87561    90.492435   0.97499938  1571373 
 4144000         0.65    90.492435    90.492435    91.467434    170.87561    90.492435   0.97499938  1571373 
 4145000         0.65    90.492435    90.492435    91.467434    170.87561    90.492435   0.97499938  1571373 
 4146000         0.65    90.492435    90.492435    91.467434    170.87561    90.492435   0.97499938  1571373 
 4147000         0.65    90.492435    90.492435    91.467434    170.87561    90.492435   0.97499938  1571373 
 4148000         0.65    90.492435    90.492435    91.467434    170.87561    90.492435   0.97499938  1571373 
 4149000         0.65    90.492435    90.492435    91.467434    170.87561    90.492435   0.97499938  1571373 
 4150000         0.65    90.492435    90.492435    91.467434    170.87561    90.492435   0.97499938  1571373 
 4151000         0.65    90.492435    90.492435    91.467434    170.87561    90.492435   0.97499938  1571373 
 4152000         0.65    90.492435    90.492435    91.467434    170.87561    90.492435   0.97499938  1571373 
 4153000         0.65    90.492435    90.492435    91.467434    170.87561    90.492435   0.97499938  1571373 
 4154000         0.65    90.492435    90.492435    91.467434    170.87561    90.492435   0.97499938  1571373 
 4155000         0.65    90.492435    90.492435    91.467434    170.87561    90.492435   0.97499938  1571373 
 4156000         0.65    90.492435    90.492435    91.467434    170.87561    90.492435   0.97499938  1571373 
 4157000         0.65    90.492435    90.492435    91.467434    170.87561    90.492435   0.97499938  1571373 
 4158000         0.65    90.492435    90.492435    91.467434    170.87561    90.492435   0.97499938  1571373 
 4159000         0.65    90.492435    90.492435    91.467434    170.87561    90.492435   0.97499938  1571373 
 4160000         0.65    90.492435    90.492435    91.467434    170.87561    90.492435   0.97499938  1571373 
 4161000         0.65    90.492435    90.492435    91.467434    170.87561    90.492435   0.97499938  1571373 
 4162000         0.65    90.492435    90.492435    91.467434    170.87561    90.492435   0.97499938  1571373 
 4163000         0.65    90.492435    90.492435    91.467434    170.87561    90.492435   0.97499938  1571373 
 4164000         0.65    90.492435    90.492435    91.467434    170.87561    90.492435   0.97499938  1571373 
 4165000         0.65    90.492435    90.492435    91.467434    170.87561    90.492435   0.97499938  1571373 
 4166000         0.65    90.492435    90.492435    91.467434    170.87561    90.492435   0.97499938  1571373 
 4167000         0.65    90.492435    90.492435    91.467434    170.87561    90.492435   0.97499938  1571373 
 4168000         0.65    90.492435    90.492435    91.467434    170.87561    90.492435   0.97499938  1571373 
 4169000         0.65    90.492435    90.492435    91.467434    170.87561    90.492435   0.97499938  1571373 
 4170000         0.65    90.492435    90.492435    91.467434    170.87561    90.492435   0.97499938  1571373 
 4171000         0.65    90.492435    90.492435    91.467434    170.87561    90.492435   0.97499938  1571373 
 4172000         0.65    90.492435    90.492435    91.467434    170.87561    90.492435   0.97499938  1571373 
 4173000         0.65    90.492435    90.492435    91.467434    170.87561    90.492435   0.97499938  1571373 
 4174000         0.65    90.492435    90.492435    91.467434    170.87561    90.492435   0.97499938  1571373 
 4175000         0.65    90.492435    90.492435    91.467434    170.87561    90.492435   0.97499938  1571373 
 4176000         0.65    90.492435    90.492435    91.467434    170.87561    90.492435   0.97499938  1571373 
 4177000         0.65    90.492435    90.492435    91.467434    170.87561    90.492435   0.97499938  1571373 
 4178000         0.65    90.492435    90.492435    91.467434    170.87561    90.492435   0.97499938  1571373 
 4179000         0.65    90.492435    90.492435    91.467434    170.87561    90.492435   0.97499938  1571373 
 4180000         0.65    90.492435    90.492435    91.467434    170.87561    90.492435   0.97499938  1571373 
 4181000         0.65    90.492435    90.492435    91.467434    170.87561    90.492435   0.97499938  1571373 
 4182000         0.65    90.492435    90.492435    91.467434    170.87561    90.492435   0.97499938  1571373 
 4183000         0.65    90.492435    90.492435    91.467434    170.87561    90.492435   0.97499938  1571373 
 4184000         0.65    90.492435    90.492435    91.467434    170.87561    90.492435   0.97499938  1571373 
 4185000         0.65    90.492435    90.492435    91.467434    170.87561    90.492435   0.97499938  1571373 
 4186000         0.65    90.492435    90.492435    91.467434    170.87561    90.492435   0.97499938  1571373 
 4187000         0.65    90.492435    90.492435    91.467434    170.87561    90.492435   0.97499938  1571373 
 4188000         0.65    90.492435    90.492435    91.467434    170.87561    90.492435   0.97499938  1571373 
 4189000         0.65    90.492435    90.492435    91.467434    170.87561    90.492435   0.97499938  1571373 
 4190000         0.65    90.492435    90.492435    91.467434    170.87561    90.492435   0.97499938  1571373 
 4191000         0.65    90.492435    90.492435    91.467434    170.87561    90.492435   0.97499938  1571373 
 4192000         0.65    90.492435    90.492435    91.467434    170.87561    90.492435   0.97499938  1571373 
 4193000         0.65    90.492435    90.492435    91.467434    170.87561    90.492435   0.97499938  1571373 
 4194000         0.65    90.492435    90.492435    91.467434    170.87561    90.492435   0.97499938  1571373 
 4195000         0.65    90.492435    90.492435    91.467434    170.87561    90.492435   0.97499938  1571373 
 4196000         0.65    90.492435    90.492435    91.467434    170.87561    90.492435   0.97499938  1571373 
 4197000         0.65    90.492435    90.492435    91.467434    170.87561    90.492435   0.97499938  1571373 
 4198000         0.65    90.492435    90.492435    91.467434    170.87561    90.492435   0.97499938  1571373 
 4199000         0.65    90.492435    90.492435    91.467434    170.87561    90.492435   0.97499938  1571373 
 4200000         0.65    90.492435    90.492435    91.467434    170.87561    90.492435   0.97499938  1571373 
 4201000         0.65    90.492435    90.492435    91.467434    170.87561    90.492435   0.97499938  1571373 
 4202000         0.65    90.492435    90.492435    91.467434    170.87561    90.492435   0.97499938  1571373 
 4203000         0.65    90.492435    90.492435    91.467434    170.87561    90.492435   0.97499938  1571373 
 4204000         0.65    90.492435    90.492435    91.467434    170.87561    90.492435   0.97499938  1571373 
 4205000         0.65    90.492435    90.492435    91.467434    170.87561    90.492435   0.97499938  1571373 
 4206000         0.65    90.492435    90.492435    91.467434    170.87561    90.492435   0.97499938  1571373 
 4207000         0.65    90.492435    90.492435    91.467434    170.87561    90.492435   0.97499938  1571373 
 4208000         0.65    90.492435    90.492435    91.467434    170.87561    90.492435   0.97499938  1571373 
 4209000         0.65    90.492435    90.492435    91.467434    170.87561    90.492435   0.97499938  1571373 
 4210000         0.65    90.492435    90.492435    91.467434    170.87561    90.492435   0.97499938  1571373 
 4211000         0.65    90.492435    90.492435    91.467434    170.87561    90.492435   0.97499938  1571373 
 4212000         0.65    90.492435    90.492435    91.467434    170.87561    90.492435   0.97499938  1571373 
 4213000         0.65    90.492435    90.492435    91.467434    170.87561    90.492435   0.97499938  1571373 
 4214000         0.65    90.492435    90.492435    91.467434    170.87561    90.492435   0.97499938  1571373 
 4215000         0.65    90.492435    90.492435    91.467434    170.87561    90.492435   0.97499938  1571373 
 4216000         0.65    90.492435    90.492435    91.467434    170.87561    90.492435   0.97499938  1571373 
 4217000         0.65    90.492435    90.492435    91.467434    170.87561    90.492435   0.97499938  1571373 
 4218000         0.65    90.492435    90.492435    91.467434    170.87561    90.492435   0.97499938  1571373 
 4219000         0.65    90.492435    90.492435    91.467434    170.87561    90.492435   0.97499938  1571373 
 4220000         0.65    90.492435    90.492435    91.467434    170.87561    90.492435   0.97499938  1571373 
 4221000         0.65    90.492435    90.492435    91.467434    170.87561    90.492435   0.97499938  1571373 
 4222000         0.65    90.492435    90.492435    91.467434    170.87561    90.492435   0.97499938  1571373 
 4223000         0.65    90.492435    90.492435    91.467434    170.87561    90.492435   0.97499938  1571373 
 4224000         0.65    90.492435    90.492435    91.467434    170.87561    90.492435   0.97499938  1571373 
 4225000         0.65    90.492435    90.492435    91.467434    170.87561    90.492435   0.97499938  1571373 
 4226000         0.65    90.492435    90.492435    91.467434    170.87561    90.492435   0.97499938  1571373 
 4227000         0.65    90.492435    90.492435    91.467434    170.87561    90.492435   0.97499938  1571373 
 4228000         0.65    90.492435    90.492435    91.467434    170.87561    90.492435   0.97499938  1571373 
 4229000         0.65    90.492435    90.492435    91.467434    170.87561    90.492435   0.97499938  1571373 
 4230000         0.65    90.492435    90.492435    91.467434    170.87561    90.492435   0.97499938  1571373 
 4231000         0.65    90.492435    90.492435    91.467434    170.87561    90.492435   0.97499938  1571373 
 4232000         0.65    90.492435    90.492435    91.467434    170.87561    90.492435   0.97499938  1571373 
 4233000         0.65    90.492435    90.492435    91.467434    170.87561    90.492435   0.97499938  1571373 
 4234000         0.65    90.492435    90.492435    91.467434    170.87561    90.492435   0.97499938  1571373 
 4235000         0.65    90.492435    90.492435    91.467434    170.87561    90.492435   0.97499938  1571373 
 4236000         0.65    90.492435    90.492435    91.467434    170.87561    90.492435   0.97499938  1571373 
 4237000         0.65    90.492435    90.492435    91.467434    170.87561    90.492435   0.97499938  1571373 
 4238000         0.65    90.492435    90.492435    91.467434    170.87561    90.492435   0.97499938  1571373 
 4239000         0.65    90.492435    90.492435    91.467434    170.87561    90.492435   0.97499938  1571373 
 4240000         0.65    90.492435    90.492435    91.467434    170.87561    90.492435   0.97499938  1571373 
 4241000         0.65    90.492435    90.492435    91.467434    170.87561    90.492435   0.97499938  1571373 
 4242000         0.65    90.492435    90.492435    91.467434    170.87561    90.492435   0.97499938  1571373 
 4243000         0.65    90.492435    90.492435    91.467434    170.87561    90.492435   0.97499938  1571373 
 4244000         0.65    90.492435    90.492435    91.467434    170.87561    90.492435   0.97499938  1571373 
 4245000         0.65    90.492435    90.492435    91.467434    170.87561    90.492435   0.97499938  1571373 
 4246000         0.65    90.492435    90.492435    91.467434    170.87561    90.492435   0.97499938  1571373 
 4247000         0.65    90.492435    90.492435    91.467434    170.87561    90.492435   0.97499938  1571373 
 4248000         0.65    90.492435    90.492435    91.467434    170.87561    90.492435   0.97499938  1571373 
 4249000         0.65    90.492435    90.492435    91.467434    170.87561    90.492435   0.97499938  1571373 
 4250000         0.65    90.492435    90.492435    91.467434    170.87561    90.492435   0.97499938  1571373 
 4251000         0.65    90.492435    90.492435    91.467434    170.87561    90.492435   0.97499938  1571373 
 4252000         0.65    90.492435    90.492435    91.467434    170.87561    90.492435   0.97499938  1571373 
 4253000         0.65    90.492435    90.492435    91.467434    170.87561    90.492435   0.97499938  1571373 
 4254000         0.65    90.492435    90.492435    91.467434    170.87561    90.492435   0.97499938  1571373 
 4255000         0.65    90.492435    90.492435    91.467434    170.87561    90.492435   0.97499938  1571373 
 4256000         0.65    90.492435    90.492435    91.467434    170.87561    90.492435   0.97499938  1571373 
 4257000         0.65    90.492435    90.492435    91.467434    170.87561    90.492435   0.97499938  1571373 
 4258000         0.65    90.492435    90.492435    91.467434    170.87561    90.492435   0.97499938  1571373 
 4259000         0.65    90.492435    90.492435    91.467434    170.87561    90.492435   0.97499938  1571373 
 4260000         0.65    90.492435    90.492435    91.467434    170.87561    90.492435   0.97499938  1571373 
 4261000         0.65    90.492435    90.492435    91.467434    170.87561    90.492435   0.97499938  1571373 
 4262000         0.65    90.492435    90.492435    91.467434    170.87561    90.492435   0.97499938  1571373 
 4263000         0.65    90.492435    90.492435    91.467434    170.87561    90.492435   0.97499938  1571373 
 4264000         0.65    90.492435    90.492435    91.467434    170.87561    90.492435   0.97499938  1571373 
 4265000         0.65    90.492435    90.492435    91.467434    170.87561    90.492435   0.97499938  1571373 
 4266000         0.65    90.492435    90.492435    91.467434    170.87561    90.492435   0.97499938  1571373 
 4267000         0.65    90.492435    90.492435    91.467434    170.87561    90.492435   0.97499938  1571373 
 4268000         0.65    90.492435    90.492435    91.467434    170.87561    90.492435   0.97499938  1571373 
 4269000         0.65    90.492435    90.492435    91.467434    170.87561    90.492435   0.97499938  1571373 
 4270000         0.65    90.492435    90.492435    91.467434    170.87561    90.492435   0.97499938  1571373 
 4271000         0.65    90.492435    90.492435    91.467434    170.87561    90.492435   0.97499938  1571373 
 4272000         0.65    90.492435    90.492435    91.467434    170.87561    90.492435   0.97499938  1571373 
 4273000         0.65    90.492435    90.492435    91.467434    170.87561    90.492435   0.97499938  1571373 
 4274000         0.65    90.492435    90.492435    91.467434    170.87561    90.492435   0.97499938  1571373 
 4275000         0.65    90.492435    90.492435    91.467434    170.87561    90.492435   0.97499938  1571373 
 4276000         0.65    90.492435    90.492435    91.467434    170.87561    90.492435   0.97499938  1571373 
 4277000         0.65    90.492435    90.492435    91.467434    170.87561    90.492435   0.97499938  1571373 
 4278000         0.65    90.492435    90.492435    91.467434    170.87561    90.492435   0.97499938  1571373 
 4279000         0.65    90.492435    90.492435    91.467434    170.87561    90.492435   0.97499938  1571373 
 4280000         0.65    90.492435    90.492435    91.467434    170.87561    90.492435   0.97499938  1571373 
 4281000         0.65    90.492435    90.492435    91.467434    170.87561    90.492435   0.97499938  1571373 
 4282000         0.65    90.492435    90.492435    91.467434    170.87561    90.492435   0.97499938  1571373 
 4283000         0.65    90.492435    90.492435    91.467434    170.87561    90.492435   0.97499938  1571373 
 4284000         0.65    90.492435    90.492435    91.467434    170.87561    90.492435   0.97499938  1571373 
 4285000         0.65    90.492435    90.492435    91.467434    170.87561    90.492435   0.97499938  1571373 
 4286000         0.65    90.492435    90.492435    91.467434    170.87561    90.492435   0.97499938  1571373 
 4287000         0.65    90.492435    90.492435    91.467434    170.87561    90.492435   0.97499938  1571373 
 4288000         0.65    90.492435    90.492435    91.467434    170.87561    90.492435   0.97499938  1571373 
 4289000         0.65    90.492435    90.492435    91.467434    170.87561    90.492435   0.97499938  1571373 
 4290000         0.65    90.492435    90.492435    91.467434    170.87561    90.492435   0.97499938  1571373 
 4291000         0.65    90.492435    90.492435    91.467434    170.87561    90.492435   0.97499938  1571373 
 4292000         0.65    90.492435    90.492435    91.467434    170.87561    90.492435   0.97499938  1571373 
 4293000         0.65    90.492435    90.492435    91.467434    170.87561    90.492435   0.97499938  1571373 
 4294000         0.65    90.492435    90.492435    91.467434    170.87561    90.492435   0.97499938  1571373 
 4295000         0.65    90.492435    90.492435    91.467434    170.87561    90.492435   0.97499938  1571373 
 4296000         0.65    90.492435    90.492435    91.467434    170.87561    90.492435   0.97499938  1571373 
 4297000         0.65    90.492435    90.492435    91.467434    170.87561    90.492435   0.97499938  1571373 
 4298000         0.65    90.492435    90.492435    91.467434    170.87561    90.492435   0.97499938  1571373 
 4299000         0.65    90.492435    90.492435    91.467434    170.87561    90.492435   0.97499938  1571373 
 4300000         0.65    90.492435    90.492435    91.467434    170.87561    90.492435   0.97499938  1571373 
 4301000         0.65    90.492435    90.492435    91.467434    170.87561    90.492435   0.97499938  1571373 
 4302000         0.65    90.492435    90.492435    91.467434    170.87561    90.492435   0.97499938  1571373 
 4303000         0.65    90.492435    90.492435    91.467434    170.87561    90.492435   0.97499938  1571373 
 4304000         0.65    90.492435    90.492435    91.467434    170.87561    90.492435   0.97499938  1571373 
 4305000         0.65    90.492435    90.492435    91.467434    170.87561    90.492435   0.97499938  1571373 
 4306000         0.65    90.492435    90.492435    91.467434    170.87561    90.492435   0.97499938  1571373 
 4307000         0.65    90.492435    90.492435    91.467434    170.87561    90.492435   0.97499938  1571373 
 4308000         0.65    90.492435    90.492435    91.467434    170.87561    90.492435   0.97499938  1571373 
 4309000         0.65    90.492435    90.492435    91.467434    170.87561    90.492435   0.97499938  1571373 
 4310000         0.65    90.492435    90.492435    91.467434    170.87561    90.492435   0.97499938  1571373 
 4311000         0.65    90.492435    90.492435    91.467434    170.87561    90.492435   0.97499938  1571373 
 4312000         0.65    90.492435    90.492435    91.467434    170.87561    90.492435   0.97499938  1571373 
 4313000         0.65    90.492435    90.492435    91.467434    170.87561    90.492435   0.97499938  1571373 
 4314000         0.65    90.492435    90.492435    91.467434    170.87561    90.492435   0.97499938  1571373 
 4315000         0.65    90.492435    90.492435    91.467434    170.87561    90.492435   0.97499938  1571373 
 4316000         0.65    90.492435    90.492435    91.467434    170.87561    90.492435   0.97499938  1571373 
 4317000         0.65    90.492435    90.492435    91.467434    170.87561    90.492435   0.97499938  1571373 
 4318000         0.65    90.492435    90.492435    91.467434    170.87561    90.492435   0.97499938  1571373 
 4319000         0.65    90.492435    90.492435    91.467434    170.87561    90.492435   0.97499938  1571373 
 4320000         0.65    90.492435    90.492435    91.467434    170.87561    90.492435   0.97499938  1571373 
 4321000         0.65    90.492435    90.492435    91.467434    170.87561    90.492435   0.97499938  1571373 
 4322000         0.65    90.492435    90.492435    91.467434    170.87561    90.492435   0.97499938  1571373 
 4323000         0.65    90.492435    90.492435    91.467434    170.87561    90.492435   0.97499938  1571373 
 4324000         0.65    90.492435    90.492435    91.467434    170.87561    90.492435   0.97499938  1571373 
 4325000         0.65    90.492435    90.492435    91.467434    170.87561    90.492435   0.97499938  1571373 
 4326000         0.65    90.492435    90.492435    91.467434    170.87561    90.492435   0.97499938  1571373 
 4327000         0.65    90.492435    90.492435    91.467434    170.87561    90.492435   0.97499938  1571373 
 4328000         0.65    90.492435    90.492435    91.467434    170.87561    90.492435   0.97499938  1571373 
 4329000         0.65    90.492435    90.492435    91.467434    170.87561    90.492435   0.97499938  1571373 
 4330000         0.65    90.492435    90.492435    91.467434    170.87561    90.492435   0.97499938  1571373 
 4331000         0.65    90.492435    90.492435    91.467434    170.87561    90.492435   0.97499938  1571373 
 4332000         0.65    90.492435    90.492435    91.467434    170.87561    90.492435   0.97499938  1571373 
 4333000         0.65    90.492435    90.492435    91.467434    170.87561    90.492435   0.97499938  1571373 
 4334000         0.65    90.492435    90.492435    91.467434    170.87561    90.492435   0.97499938  1571373 
 4335000         0.65    90.492435    90.492435    91.467434    170.87561    90.492435   0.97499938  1571373 
 4336000         0.65    90.492435    90.492435    91.467434    170.87561    90.492435   0.97499938  1571373 
 4337000         0.65    90.492435    90.492435    91.467434    170.87561    90.492435   0.97499938  1571373 
 4338000         0.65    90.492435    90.492435    91.467434    170.87561    90.492435   0.97499938  1571373 
 4339000         0.65    90.492435    90.492435    91.467434    170.87561    90.492435   0.97499938  1571373 
 4340000         0.65    90.492435    90.492435    91.467434    170.87561    90.492435   0.97499938  1571373 
 4341000         0.65    90.492435    90.492435    91.467434    170.87561    90.492435   0.97499938  1571373 
 4342000         0.65    90.492435    90.492435    91.467434    170.87561    90.492435   0.97499938  1571373 
 4343000         0.65    90.492435    90.492435    91.467434    170.87561    90.492435   0.97499938  1571373 
 4344000         0.65    90.492435    90.492435    91.467434    170.87561    90.492435   0.97499938  1571373 
 4345000         0.65    90.492435    90.492435    91.467434    170.87561    90.492435   0.97499938  1571373 
 4346000         0.65    90.492435    90.492435    91.467434    170.87561    90.492435   0.97499938  1571373 
 4347000         0.65    90.492435    90.492435    91.467434    170.87561    90.492435   0.97499938  1571373 
 4348000         0.65    90.492435    90.492435    91.467434    170.87561    90.492435   0.97499938  1571373 
 4349000         0.65    90.492435    90.492435    91.467434    170.87561    90.492435   0.97499938  1571373 
 4350000         0.65    90.492435    90.492435    91.467434    170.87561    90.492435   0.97499938  1571373 
 4351000         0.65    90.492435    90.492435    91.467434    170.87561    90.492435   0.97499938  1571373 
 4352000         0.65    90.492435    90.492435    91.467434    170.87561    90.492435   0.97499938  1571373 
 4353000         0.65    90.492435    90.492435    91.467434    170.87561    90.492435   0.97499938  1571373 
 4354000         0.65    90.492435    90.492435    91.467434    170.87561    90.492435   0.97499938  1571373 
 4355000         0.65    90.492435    90.492435    91.467434    170.87561    90.492435   0.97499938  1571373 
 4356000         0.65    90.492435    90.492435    91.467434    170.87561    90.492435   0.97499938  1571373 
 4357000         0.65    90.492435    90.492435    91.467434    170.87561    90.492435   0.97499938  1571373 
 4358000         0.65    90.492435    90.492435    91.467434    170.87561    90.492435   0.97499938  1571373 
 4359000         0.65    90.492435    90.492435    91.467434    170.87561    90.492435   0.97499938  1571373 
 4360000         0.65    90.492435    90.492435    91.467434    170.87561    90.492435   0.97499938  1571373 
 4361000         0.65    90.492435    90.492435    91.467434    170.87561    90.492435   0.97499938  1571373 
 4362000         0.65    90.492435    90.492435    91.467434    170.87561    90.492435   0.97499938  1571373 
 4363000         0.65    90.492435    90.492435    91.467434    170.87561    90.492435   0.97499938  1571373 
 4364000         0.65    90.492435    90.492435    91.467434    170.87561    90.492435   0.97499938  1571373 
 4365000         0.65    90.492435    90.492435    91.467434    170.87561    90.492435   0.97499938  1571373 
 4366000         0.65    90.492435    90.492435    91.467434    170.87561    90.492435   0.97499938  1571373 
 4367000         0.65    90.492435    90.492435    91.467434    170.87561    90.492435   0.97499938  1571373 
 4368000         0.65    90.492435    90.492435    91.467434    170.87561    90.492435   0.97499938  1571373 
 4369000         0.65    90.492435    90.492435    91.467434    170.87561    90.492435   0.97499938  1571373 
 4370000         0.65    90.492435    90.492435    91.467434    170.87561    90.492435   0.97499938  1571373 
 4371000         0.65    90.492435    90.492435    91.467434    170.87561    90.492435   0.97499938  1571373 
 4372000         0.65    90.492435    90.492435    91.467434    170.87561    90.492435   0.97499938  1571373 
 4373000         0.65    90.492435    90.492435    91.467434    170.87561    90.492435   0.97499938  1571373 
 4374000         0.65    90.492435    90.492435    91.467434    170.87561    90.492435   0.97499938  1571373 
 4375000         0.65    90.492435    90.492435    91.467434    170.87561    90.492435   0.97499938  1571373 
 4376000         0.65    90.492435    90.492435    91.467434    170.87561    90.492435   0.97499938  1571373 
 4377000         0.65    90.492435    90.492435    91.467434    170.87561    90.492435   0.97499938  1571373 
 4378000         0.65    90.492435    90.492435    91.467434    170.87561    90.492435   0.97499938  1571373 
 4379000         0.65    90.492435    90.492435    91.467434    170.87561    90.492435   0.97499938  1571373 
 4380000         0.65    90.492435    90.492435    91.467434    170.87561    90.492435   0.97499938  1571373 
 4381000         0.65    90.492435    90.492435    91.467434    170.87561    90.492435   0.97499938  1571373 
 4382000         0.65    90.492435    90.492435    91.467434    170.87561    90.492435   0.97499938  1571373 
 4383000         0.65    90.492435    90.492435    91.467434    170.87561    90.492435   0.97499938  1571373 
 4384000         0.65    90.492435    90.492435    91.467434    170.87561    90.492435   0.97499938  1571373 
 4385000         0.65    90.492435    90.492435    91.467434    170.87561    90.492435   0.97499938  1571373 
 4386000         0.65    90.492435    90.492435    91.467434    170.87561    90.492435   0.97499938  1571373 
 4387000         0.65    90.492435    90.492435    91.467434    170.87561    90.492435   0.97499938  1571373 
 4388000         0.65    90.492435    90.492435    91.467434    170.87561    90.492435   0.97499938  1571373 
 4389000         0.65    90.492435    90.492435    91.467434    170.87561    90.492435   0.97499938  1571373 
 4390000         0.65    90.492435    90.492435    91.467434    170.87561    90.492435   0.97499938  1571373 
 4391000         0.65    90.492435    90.492435    91.467434    170.87561    90.492435   0.97499938  1571373 
 4392000         0.65    90.492435    90.492435    91.467434    170.87561    90.492435   0.97499938  1571373 
 4393000         0.65    90.492435    90.492435    91.467434    170.87561    90.492435   0.97499938  1571373 
 4394000         0.65    90.492435    90.492435    91.467434    170.87561    90.492435   0.97499938  1571373 
 4395000         0.65    90.492435    90.492435    91.467434    170.87561    90.492435   0.97499938  1571373 
 4396000         0.65    90.492435    90.492435    91.467434    170.87561    90.492435   0.97499938  1571373 
 4397000         0.65    90.492435    90.492435    91.467434    170.87561    90.492435   0.97499938  1571373 
 4398000         0.65    90.492435    90.492435    91.467434    170.87561    90.492435   0.97499938  1571373 
 4399000         0.65    90.492435    90.492435    91.467434    170.87561    90.492435   0.97499938  1571373 
 4400000         0.65    90.492435    90.492435    91.467434    170.87561    90.492435   0.97499938  1571373 
 4401000         0.65    90.492435    90.492435    91.467434    170.87561    90.492435   0.97499938  1571373 
 4402000         0.65    90.492435    90.492435    91.467434    170.87561    90.492435   0.97499938  1571373 
 4403000         0.65    90.492435    90.492435    91.467434    170.87561    90.492435   0.97499938  1571373 
 4404000         0.65    90.492435    90.492435    91.467434    170.87561    90.492435   0.97499938  1571373 
 4405000         0.65    90.492435    90.492435    91.467434    170.87561    90.492435   0.97499938  1571373 
 4406000         0.65    90.492435    90.492435    91.467434    170.87561    90.492435   0.97499938  1571373 
 4407000         0.65    90.492435    90.492435    91.467434    170.87561    90.492435   0.97499938  1571373 
 4408000         0.65    90.492435    90.492435    91.467434    170.87561    90.492435   0.97499938  1571373 
 4409000         0.65    90.492435    90.492435    91.467434    170.87561    90.492435   0.97499938  1571373 
 4410000         0.65    90.492435    90.492435    91.467434    170.87561    90.492435   0.97499938  1571373 
 4411000         0.65    90.492435    90.492435    91.467434    170.87561    90.492435   0.97499938  1571373 
 4412000         0.65    90.492435    90.492435    91.467434    170.87561    90.492435   0.97499938  1571373 
 4413000         0.65    90.492435    90.492435    91.467434    170.87561    90.492435   0.97499938  1571373 
 4414000         0.65    90.492435    90.492435    91.467434    170.87561    90.492435   0.97499938  1571373 
 4415000         0.65    90.492435    90.492435    91.467434    170.87561    90.492435   0.97499938  1571373 
 4416000         0.65    90.492435    90.492435    91.467434    170.87561    90.492435   0.97499938  1571373 
 4417000         0.65    90.492435    90.492435    91.467434    170.87561    90.492435   0.97499938  1571373 
 4418000         0.65    90.492435    90.492435    91.467434    170.87561    90.492435   0.97499938  1571373 
 4419000         0.65    90.492435    90.492435    91.467434    170.87561    90.492435   0.97499938  1571373 
 4420000         0.65    90.492435    90.492435    91.467434    170.87561    90.492435   0.97499938  1571373 
 4421000         0.65    90.492435    90.492435    91.467434    170.87561    90.492435   0.97499938  1571373 
 4422000         0.65    90.492435    90.492435    91.467434    170.87561    90.492435   0.97499938  1571373 
 4423000         0.65    90.492435    90.492435    91.467434    170.87561    90.492435   0.97499938  1571373 
 4424000         0.65    90.492435    90.492435    91.467434    170.87561    90.492435   0.97499938  1571373 
 4425000         0.65    90.492435    90.492435    91.467434    170.87561    90.492435   0.97499938  1571373 
 4426000         0.65    90.492435    90.492435    91.467434    170.87561    90.492435   0.97499938  1571373 
 4427000         0.65    90.492435    90.492435    91.467434    170.87561    90.492435   0.97499938  1571373 
 4428000         0.65    90.492435    90.492435    91.467434    170.87561    90.492435   0.97499938  1571373 
 4429000         0.65    90.492435    90.492435    91.467434    170.87561    90.492435   0.97499938  1571373 
 4430000         0.65    90.492435    90.492435    91.467434    170.87561    90.492435   0.97499938  1571373 
 4431000         0.65    90.492435    90.492435    91.467434    170.87561    90.492435   0.97499938  1571373 
 4432000         0.65    90.492435    90.492435    91.467434    170.87561    90.492435   0.97499938  1571373 
 4433000         0.65    90.492435    90.492435    91.467434    170.87561    90.492435   0.97499938  1571373 
 4434000         0.65    90.492435    90.492435    91.467434    170.87561    90.492435   0.97499938  1571373 
 4435000         0.65    90.492435    90.492435    91.467434    170.87561    90.492435   0.97499938  1571373 
 4436000         0.65    90.492435    90.492435    91.467434    170.87561    90.492435   0.97499938  1571373 
 4437000         0.65    90.492435    90.492435    91.467434    170.87561    90.492435   0.97499938  1571373 
 4438000         0.65    90.492435    90.492435    91.467434    170.87561    90.492435   0.97499938  1571373 
 4439000         0.65    90.492435    90.492435    91.467434    170.87561    90.492435   0.97499938  1571373 
 4440000         0.65    90.492435    90.492435    91.467434    170.87561    90.492435   0.97499938  1571373 
 4441000         0.65    90.492435    90.492435    91.467434    170.87561    90.492435   0.97499938  1571373 
 4442000         0.65    90.492435    90.492435    91.467434    170.87561    90.492435   0.97499938  1571373 
 4443000         0.65    90.492435    90.492435    91.467434    170.87561    90.492435   0.97499938  1571373 
 4444000         0.65    90.492435    90.492435    91.467434    170.87561    90.492435   0.97499938  1571373 
 4445000         0.65    90.492435    90.492435    91.467434    170.87561    90.492435   0.97499938  1571373 
 4446000         0.65    90.492435    90.492435    91.467434    170.87561    90.492435   0.97499938  1571373 
 4447000         0.65    90.492435    90.492435    91.467434    170.87561    90.492435   0.97499938  1571373 
 4448000         0.65    90.492435    90.492435    91.467434    170.87561    90.492435   0.97499938  1571373 
 4449000         0.65    90.492435    90.492435    91.467434    170.87561    90.492435   0.97499938  1571373 
 4450000         0.65    90.492435    90.492435    91.467434    170.87561    90.492435   0.97499938  1571373 
 4451000         0.65    90.492435    90.492435    91.467434    170.87561    90.492435   0.97499938  1571373 
 4452000         0.65    90.492435    90.492435    91.467434    170.87561    90.492435   0.97499938  1571373 
 4453000         0.65    90.492435    90.492435    91.467434    170.87561    90.492435   0.97499938  1571373 
 4454000         0.65    90.492435    90.492435    91.467434    170.87561    90.492435   0.97499938  1571373 
 4455000         0.65    90.492435    90.492435    91.467434    170.87561    90.492435   0.97499938  1571373 
 4456000         0.65    90.492435    90.492435    91.467434    170.87561    90.492435   0.97499938  1571373 
 4457000         0.65    90.492435    90.492435    91.467434    170.87561    90.492435   0.97499938  1571373 
 4458000         0.65    90.492435    90.492435    91.467434    170.87561    90.492435   0.97499938  1571373 
 4459000         0.65    90.492435    90.492435    91.467434    170.87561    90.492435   0.97499938  1571373 
 4460000         0.65    90.492435    90.492435    91.467434    170.87561    90.492435   0.97499938  1571373 
 4461000         0.65    90.492435    90.492435    91.467434    170.87561    90.492435   0.97499938  1571373 
 4462000         0.65    90.492435    90.492435    91.467434    170.87561    90.492435   0.97499938  1571373 
 4463000         0.65    90.492435    90.492435    91.467434    170.87561    90.492435   0.97499938  1571373 
 4464000         0.65    90.492435    90.492435    91.467434    170.87561    90.492435   0.97499938  1571373 
 4465000         0.65    90.492435    90.492435    91.467434    170.87561    90.492435   0.97499938  1571373 
 4466000         0.65    90.492435    90.492435    91.467434    170.87561    90.492435   0.97499938  1571373 
 4467000         0.65    90.492435    90.492435    91.467434    170.87561    90.492435   0.97499938  1571373 
 4468000         0.65    90.492435    90.492435    91.467434    170.87561    90.492435   0.97499938  1571373 
 4469000         0.65    90.492435    90.492435    91.467434    170.87561    90.492435   0.97499938  1571373 
 4470000         0.65    90.492435    90.492435    91.467434    170.87561    90.492435   0.97499938  1571373 
 4471000         0.65    90.492435    90.492435    91.467434    170.87561    90.492435   0.97499938  1571373 
 4472000         0.65    90.492435    90.492435    91.467434    170.87561    90.492435   0.97499938  1571373 
 4473000         0.65    90.492435    90.492435    91.467434    170.87561    90.492435   0.97499938  1571373 
 4474000         0.65    90.492435    90.492435    91.467434    170.87561    90.492435   0.97499938  1571373 
 4475000         0.65    90.492435    90.492435    91.467434    170.87561    90.492435   0.97499938  1571373 
 4476000         0.65    90.492435    90.492435    91.467434    170.87561    90.492435   0.97499938  1571373 
 4477000         0.65    90.492435    90.492435    91.467434    170.87561    90.492435   0.97499938  1571373 
 4478000         0.65    90.492435    90.492435    91.467434    170.87561    90.492435   0.97499938  1571373 
 4479000         0.65    90.492435    90.492435    91.467434    170.87561    90.492435   0.97499938  1571373 
 4480000         0.65    90.492435    90.492435    91.467434    170.87561    90.492435   0.97499938  1571373 
 4481000         0.65    90.492435    90.492435    91.467434    170.87561    90.492435   0.97499938  1571373 
 4482000         0.65    90.492435    90.492435    91.467434    170.87561    90.492435   0.97499938  1571373 
 4483000         0.65    90.492435    90.492435    91.467434    170.87561    90.492435   0.97499938  1571373 
 4484000         0.65    90.492435    90.492435    91.467434    170.87561    90.492435   0.97499938  1571373 
 4485000         0.65    90.492435    90.492435    91.467434    170.87561    90.492435   0.97499938  1571373 
 4486000         0.65    90.492435    90.492435    91.467434    170.87561    90.492435   0.97499938  1571373 
 4487000         0.65    90.492435    90.492435    91.467434    170.87561    90.492435   0.97499938  1571373 
 4488000         0.65    90.492435    90.492435    91.467434    170.87561    90.492435   0.97499938  1571373 
 4489000         0.65    90.492435    90.492435    91.467434    170.87561    90.492435   0.97499938  1571373 
 4490000         0.65    90.492435    90.492435    91.467434    170.87561    90.492435   0.97499938  1571373 
 4491000         0.65    90.492435    90.492435    91.467434    170.87561    90.492435   0.97499938  1571373 
 4492000         0.65    90.492435    90.492435    91.467434    170.87561    90.492435   0.97499938  1571373 
 4493000         0.65    90.492435    90.492435    91.467434    170.87561    90.492435   0.97499938  1571373 
 4494000         0.65    90.492435    90.492435    91.467434    170.87561    90.492435   0.97499938  1571373 
 4495000         0.65    90.492435    90.492435    91.467434    170.87561    90.492435   0.97499938  1571373 
 4496000         0.65    90.492435    90.492435    91.467434    170.87561    90.492435   0.97499938  1571373 
 4497000         0.65    90.492435    90.492435    91.467434    170.87561    90.492435   0.97499938  1571373 
 4498000         0.65    90.492435    90.492435    91.467434    170.87561    90.492435   0.97499938  1571373 
 4499000         0.65    90.492435    90.492435    91.467434    170.87561    90.492435   0.97499938  1571373 
 4500000         0.65    90.492435    90.492435    91.467434    170.87561    90.492435   0.97499938  1571373 
 4501000         0.65    90.492435    90.492435    91.467434    170.87561    90.492435   0.97499938  1571373 
 4502000         0.65    90.492435    90.492435    91.467434    170.87561    90.492435   0.97499938  1571373 
 4503000         0.65    90.492435    90.492435    91.467434    170.87561    90.492435   0.97499938  1571373 
 4504000         0.65    90.492435    90.492435    91.467434    170.87561    90.492435   0.97499938  1571373 
 4505000         0.65    90.492435    90.492435    91.467434    170.87561    90.492435   0.97499938  1571373 
 4506000         0.65    90.492435    90.492435    91.467434    170.87561    90.492435   0.97499938  1571373 
 4507000         0.65    90.492435    90.492435    91.467434    170.87561    90.492435   0.97499938  1571373 
 4508000         0.65    90.492435    90.492435    91.467434    170.87561    90.492435   0.97499938  1571373 
 4509000         0.65    90.492435    90.492435    91.467434    170.87561    90.492435   0.97499938  1571373 
 4510000         0.65    90.492435    90.492435    91.467434    170.87561    90.492435   0.97499938  1571373 
 4511000         0.65    90.492435    90.492435    91.467434    170.87561    90.492435   0.97499938  1571373 
 4512000         0.65    90.492435    90.492435    91.467434    170.87561    90.492435   0.97499938  1571373 
 4513000         0.65    90.492435    90.492435    91.467434    170.87561    90.492435   0.97499938  1571373 
 4514000         0.65    90.492435    90.492435    91.467434    170.87561    90.492435   0.97499938  1571373 
 4515000         0.65    90.492435    90.492435    91.467434    170.87561    90.492435   0.97499938  1571373 
 4516000         0.65    90.492435    90.492435    91.467434    170.87561    90.492435   0.97499938  1571373 
 4517000         0.65    90.492435    90.492435    91.467434    170.87561    90.492435   0.97499938  1571373 
 4518000         0.65    90.492435    90.492435    91.467434    170.87561    90.492435   0.97499938  1571373 
 4519000         0.65    90.492435    90.492435    91.467434    170.87561    90.492435   0.97499938  1571373 
 4520000         0.65    90.492435    90.492435    91.467434    170.87561    90.492435   0.97499938  1571373 
 4521000         0.65    90.492435    90.492435    91.467434    170.87561    90.492435   0.97499938  1571373 
 4522000         0.65    90.492435    90.492435    91.467434    170.87561    90.492435   0.97499938  1571373 
 4523000         0.65    90.492435    90.492435    91.467434    170.87561    90.492435   0.97499938  1571373 
 4524000         0.65    90.492435    90.492435    91.467434    170.87561    90.492435   0.97499938  1571373 
 4525000         0.65    90.492435    90.492435    91.467434    170.87561    90.492435   0.97499938  1571373 
 4526000         0.65    90.492435    90.492435    91.467434    170.87561    90.492435   0.97499938  1571373 
 4527000         0.65    90.492435    90.492435    91.467434    170.87561    90.492435   0.97499938  1571373 
 4528000         0.65    90.492435    90.492435    91.467434    170.87561    90.492435   0.97499938  1571373 
 4529000         0.65    90.492435    90.492435    91.467434    170.87561    90.492435   0.97499938  1571373 
 4530000         0.65    90.492435    90.492435    91.467434    170.87561    90.492435   0.97499938  1571373 
 4531000         0.65    90.492435    90.492435    91.467434    170.87561    90.492435   0.97499938  1571373 
 4532000         0.65    90.492435    90.492435    91.467434    170.87561    90.492435   0.97499938  1571373 
 4533000         0.65    90.492435    90.492435    91.467434    170.87561    90.492435   0.97499938  1571373 
 4534000         0.65    90.492435    90.492435    91.467434    170.87561    90.492435   0.97499938  1571373 
 4535000         0.65    90.492435    90.492435    91.467434    170.87561    90.492435   0.97499938  1571373 
 4536000         0.65    90.492435    90.492435    91.467434    170.87561    90.492435   0.97499938  1571373 
 4537000         0.65    90.492435    90.492435    91.467434    170.87561    90.492435   0.97499938  1571373 
 4538000         0.65    90.492435    90.492435    91.467434    170.87561    90.492435   0.97499938  1571373 
 4539000         0.65    90.492435    90.492435    91.467434    170.87561    90.492435   0.97499938  1571373 
 4540000         0.65    90.492435    90.492435    91.467434    170.87561    90.492435   0.97499938  1571373 
 4541000         0.65    90.492435    90.492435    91.467434    170.87561    90.492435   0.97499938  1571373 
 4542000         0.65    90.492435    90.492435    91.467434    170.87561    90.492435   0.97499938  1571373 
 4543000         0.65    90.492435    90.492435    91.467434    170.87561    90.492435   0.97499938  1571373 
 4544000         0.65    90.492435    90.492435    91.467434    170.87561    90.492435   0.97499938  1571373 
 4545000         0.65    90.492435    90.492435    91.467434    170.87561    90.492435   0.97499938  1571373 
 4546000         0.65    90.492435    90.492435    91.467434    170.87561    90.492435   0.97499938  1571373 
 4547000         0.65    90.492435    90.492435    91.467434    170.87561    90.492435   0.97499938  1571373 
 4548000         0.65    90.492435    90.492435    91.467434    170.87561    90.492435   0.97499938  1571373 
 4549000         0.65    90.492435    90.492435    91.467434    170.87561    90.492435   0.97499938  1571373 
 4550000         0.65    90.492435    90.492435    91.467434    170.87561    90.492435   0.97499938  1571373 
 4551000         0.65    90.492435    90.492435    91.467434    170.87561    90.492435   0.97499938  1571373 
 4552000         0.65    90.492435    90.492435    91.467434    170.87561    90.492435   0.97499938  1571373 
 4553000         0.65    90.492435    90.492435    91.467434    170.87561    90.492435   0.97499938  1571373 
 4554000         0.65    90.492435    90.492435    91.467434    170.87561    90.492435   0.97499938  1571373 
 4555000         0.65    90.492435    90.492435    91.467434    170.87561    90.492435   0.97499938  1571373 
 4556000         0.65    90.492435    90.492435    91.467434    170.87561    90.492435   0.97499938  1571373 
 4557000         0.65    90.492435    90.492435    91.467434    170.87561    90.492435   0.97499938  1571373 
 4558000         0.65    90.492435    90.492435    91.467434    170.87561    90.492435   0.97499938  1571373 
 4559000         0.65    90.492435    90.492435    91.467434    170.87561    90.492435   0.97499938  1571373 
 4560000         0.65    90.492435    90.492435    91.467434    170.87561    90.492435   0.97499938  1571373 
 4561000         0.65    90.492435    90.492435    91.467434    170.87561    90.492435   0.97499938  1571373 
 4562000         0.65    90.492435    90.492435    91.467434    170.87561    90.492435   0.97499938  1571373 
 4563000         0.65    90.492435    90.492435    91.467434    170.87561    90.492435   0.97499938  1571373 
 4564000         0.65    90.492435    90.492435    91.467434    170.87561    90.492435   0.97499938  1571373 
 4565000         0.65    90.492435    90.492435    91.467434    170.87561    90.492435   0.97499938  1571373 
 4566000         0.65    90.492435    90.492435    91.467434    170.87561    90.492435   0.97499938  1571373 
 4567000         0.65    90.492435    90.492435    91.467434    170.87561    90.492435   0.97499938  1571373 
 4568000         0.65    90.492435    90.492435    91.467434    170.87561    90.492435   0.97499938  1571373 
 4569000         0.65    90.492435    90.492435    91.467434    170.87561    90.492435   0.97499938  1571373 
 4570000         0.65    90.492435    90.492435    91.467434    170.87561    90.492435   0.97499938  1571373 
 4571000         0.65    90.492435    90.492435    91.467434    170.87561    90.492435   0.97499938  1571373 
 4572000         0.65    90.492435    90.492435    91.467434    170.87561    90.492435   0.97499938  1571373 
 4573000         0.65    90.492435    90.492435    91.467434    170.87561    90.492435   0.97499938  1571373 
 4574000         0.65    90.492435    90.492435    91.467434    170.87561    90.492435   0.97499938  1571373 
 4575000         0.65    90.492435    90.492435    91.467434    170.87561    90.492435   0.97499938  1571373 
 4576000         0.65    90.492435    90.492435    91.467434    170.87561    90.492435   0.97499938  1571373 
 4577000         0.65    90.492435    90.492435    91.467434    170.87561    90.492435   0.97499938  1571373 
 4578000         0.65    90.492435    90.492435    91.467434    170.87561    90.492435   0.97499938  1571373 
 4579000         0.65    90.492435    90.492435    91.467434    170.87561    90.492435   0.97499938  1571373 
 4580000         0.65    90.492435    90.492435    91.467434    170.87561    90.492435   0.97499938  1571373 
 4581000         0.65    90.492435    90.492435    91.467434    170.87561    90.492435   0.97499938  1571373 
 4582000         0.65    90.492435    90.492435    91.467434    170.87561    90.492435   0.97499938  1571373 
 4583000         0.65    90.492435    90.492435    91.467434    170.87561    90.492435   0.97499938  1571373 
 4584000         0.65    90.492435    90.492435    91.467434    170.87561    90.492435   0.97499938  1571373 
 4585000         0.65    90.492435    90.492435    91.467434    170.87561    90.492435   0.97499938  1571373 
 4586000         0.65    90.492435    90.492435    91.467434    170.87561    90.492435   0.97499938  1571373 
 4587000         0.65    90.492435    90.492435    91.467434    170.87561    90.492435   0.97499938  1571373 
 4588000         0.65    90.492435    90.492435    91.467434    170.87561    90.492435   0.97499938  1571373 
 4589000         0.65    90.492435    90.492435    91.467434    170.87561    90.492435   0.97499938  1571373 
 4590000         0.65    90.492435    90.492435    91.467434    170.87561    90.492435   0.97499938  1571373 
 4591000         0.65    90.492435    90.492435    91.467434    170.87561    90.492435   0.97499938  1571373 
 4592000         0.65    90.492435    90.492435    91.467434    170.87561    90.492435   0.97499938  1571373 
 4593000         0.65    90.492435    90.492435    91.467434    170.87561    90.492435   0.97499938  1571373 
 4594000         0.65    90.492435    90.492435    91.467434    170.87561    90.492435   0.97499938  1571373 
 4595000         0.65    90.492435    90.492435    91.467434    170.87561    90.492435   0.97499938  1571373 
 4596000         0.65    90.492435    90.492435    91.467434    170.87561    90.492435   0.97499938  1571373 
 4597000         0.65    90.492435    90.492435    91.467434    170.87561    90.492435   0.97499938  1571373 
 4598000         0.65    90.492435    90.492435    91.467434    170.87561    90.492435   0.97499938  1571373 
 4599000         0.65    90.492435    90.492435    91.467434    170.87561    90.492435   0.97499938  1571373 
 4600000         0.65    90.492435    90.492435    91.467434    170.87561    90.492435   0.97499938  1571373 
 4601000         0.65    90.492435    90.492435    91.467434    170.87561    90.492435   0.97499938  1571373 
 4602000         0.65    90.492435    90.492435    91.467434    170.87561    90.492435   0.97499938  1571373 
 4603000         0.65    90.492435    90.492435    91.467434    170.87561    90.492435   0.97499938  1571373 
 4604000         0.65    90.492435    90.492435    91.467434    170.87561    90.492435   0.97499938  1571373 
 4605000         0.65    90.492435    90.492435    91.467434    170.87561    90.492435   0.97499938  1571373 
 4606000         0.65    90.492435    90.492435    91.467434    170.87561    90.492435   0.97499938  1571373 
 4607000         0.65    90.492435    90.492435    91.467434    170.87561    90.492435   0.97499938  1571373 
 4608000         0.65    90.492435    90.492435    91.467434    170.87561    90.492435   0.97499938  1571373 
 4609000         0.65    90.492435    90.492435    91.467434    170.87561    90.492435   0.97499938  1571373 
 4610000         0.65    90.492435    90.492435    91.467434    170.87561    90.492435   0.97499938  1571373 
 4611000         0.65    90.492435    90.492435    91.467434    170.87561    90.492435   0.97499938  1571373 
 4612000         0.65    90.492435    90.492435    91.467434    170.87561    90.492435   0.97499938  1571373 
 4613000         0.65    90.492435    90.492435    91.467434    170.87561    90.492435   0.97499938  1571373 
 4614000         0.65    90.492435    90.492435    91.467434    170.87561    90.492435   0.97499938  1571373 
 4615000         0.65    90.492435    90.492435    91.467434    170.87561    90.492435   0.97499938  1571373 
 4616000         0.65    90.492435    90.492435    91.467434    170.87561    90.492435   0.97499938  1571373 
 4617000         0.65    90.492435    90.492435    91.467434    170.87561    90.492435   0.97499938  1571373 
 4618000         0.65    90.492435    90.492435    91.467434    170.87561    90.492435   0.97499938  1571373 
 4619000         0.65    90.492435    90.492435    91.467434    170.87561    90.492435   0.97499938  1571373 
 4620000         0.65    90.492435    90.492435    91.467434    170.87561    90.492435   0.97499938  1571373 
 4621000         0.65    90.492435    90.492435    91.467434    170.87561    90.492435   0.97499938  1571373 
 4622000         0.65    90.492435    90.492435    91.467434    170.87561    90.492435   0.97499938  1571373 
 4623000         0.65    90.492435    90.492435    91.467434    170.87561    90.492435   0.97499938  1571373 
 4624000         0.65    90.492435    90.492435    91.467434    170.87561    90.492435   0.97499938  1571373 
 4625000         0.65    90.492435    90.492435    91.467434    170.87561    90.492435   0.97499938  1571373 
 4626000         0.65    90.492435    90.492435    91.467434    170.87561    90.492435   0.97499938  1571373 
 4627000         0.65    90.492435    90.492435    91.467434    170.87561    90.492435   0.97499938  1571373 
 4628000         0.65    90.492435    90.492435    91.467434    170.87561    90.492435   0.97499938  1571373 
 4629000         0.65    90.492435    90.492435    91.467434    170.87561    90.492435   0.97499938  1571373 
 4630000         0.65    90.492435    90.492435    91.467434    170.87561    90.492435   0.97499938  1571373 
 4631000         0.65    90.492435    90.492435    91.467434    170.87561    90.492435   0.97499938  1571373 
 4632000         0.65    90.492435    90.492435    91.467434    170.87561    90.492435   0.97499938  1571373 
 4633000         0.65    90.492435    90.492435    91.467434    170.87561    90.492435   0.97499938  1571373 
 4634000         0.65    90.492435    90.492435    91.467434    170.87561    90.492435   0.97499938  1571373 
 4635000         0.65    90.492435    90.492435    91.467434    170.87561    90.492435   0.97499938  1571373 
 4636000         0.65    90.492435    90.492435    91.467434    170.87561    90.492435   0.97499938  1571373 
 4637000         0.65    90.492435    90.492435    91.467434    170.87561    90.492435   0.97499938  1571373 
 4638000         0.65    90.492435    90.492435    91.467434    170.87561    90.492435   0.97499938  1571373 
 4639000         0.65    90.492435    90.492435    91.467434    170.87561    90.492435   0.97499938  1571373 
 4640000         0.65    90.492435    90.492435    91.467434    170.87561    90.492435   0.97499938  1571373 
 4641000         0.65    90.492435    90.492435    91.467434    170.87561    90.492435   0.97499938  1571373 
 4642000         0.65    90.492435    90.492435    91.467434    170.87561    90.492435   0.97499938  1571373 
 4643000         0.65    90.492435    90.492435    91.467434    170.87561    90.492435   0.97499938  1571373 
 4644000         0.65    90.492435    90.492435    91.467434    170.87561    90.492435   0.97499938  1571373 
 4645000         0.65    90.492435    90.492435    91.467434    170.87561    90.492435   0.97499938  1571373 
 4646000         0.65    90.492435    90.492435    91.467434    170.87561    90.492435   0.97499938  1571373 
 4647000         0.65    90.492435    90.492435    91.467434    170.87561    90.492435   0.97499938  1571373 
 4648000         0.65    90.492435    90.492435    91.467434    170.87561    90.492435   0.97499938  1571373 
 4649000         0.65    90.492435    90.492435    91.467434    170.87561    90.492435   0.97499938  1571373 
 4650000         0.65    90.492435    90.492435    91.467434    170.87561    90.492435   0.97499938  1571373 
 4651000         0.65    90.492435    90.492435    91.467434    170.87561    90.492435   0.97499938  1571373 
 4652000         0.65    90.492435    90.492435    91.467434    170.87561    90.492435   0.97499938  1571373 
 4653000         0.65    90.492435    90.492435    91.467434    170.87561    90.492435   0.97499938  1571373 
 4654000         0.65    90.492435    90.492435    91.467434    170.87561    90.492435   0.97499938  1571373 
 4655000         0.65    90.492435    90.492435    91.467434    170.87561    90.492435   0.97499938  1571373 
 4656000         0.65    90.492435    90.492435    91.467434    170.87561    90.492435   0.97499938  1571373 
 4657000         0.65    90.492435    90.492435    91.467434    170.87561    90.492435   0.97499938  1571373 
 4658000         0.65    90.492435    90.492435    91.467434    170.87561    90.492435   0.97499938  1571373 
 4659000         0.65    90.492435    90.492435    91.467434    170.87561    90.492435   0.97499938  1571373 
 4660000         0.65    90.492435    90.492435    91.467434    170.87561    90.492435   0.97499938  1571373 
 4661000         0.65    90.492435    90.492435    91.467434    170.87561    90.492435   0.97499938  1571373 
 4662000         0.65    90.492435    90.492435    91.467434    170.87561    90.492435   0.97499938  1571373 
 4663000         0.65    90.492435    90.492435    91.467434    170.87561    90.492435   0.97499938  1571373 
 4664000         0.65    90.492435    90.492435    91.467434    170.87561    90.492435   0.97499938  1571373 
 4665000         0.65    90.492435    90.492435    91.467434    170.87561    90.492435   0.97499938  1571373 
 4666000         0.65    90.492435    90.492435    91.467434    170.87561    90.492435   0.97499938  1571373 
 4667000         0.65    90.492435    90.492435    91.467434    170.87561    90.492435   0.97499938  1571373 
 4668000         0.65    90.492435    90.492435    91.467434    170.87561    90.492435   0.97499938  1571373 
 4669000         0.65    90.492435    90.492435    91.467434    170.87561    90.492435   0.97499938  1571373 
 4670000         0.65    90.492435    90.492435    91.467434    170.87561    90.492435   0.97499938  1571373 
 4671000         0.65    90.492435    90.492435    91.467434    170.87561    90.492435   0.97499938  1571373 
 4672000         0.65    90.492435    90.492435    91.467434    170.87561    90.492435   0.97499938  1571373 
 4673000         0.65    90.492435    90.492435    91.467434    170.87561    90.492435   0.97499938  1571373 
 4674000         0.65    90.492435    90.492435    91.467434    170.87561    90.492435   0.97499938  1571373 
 4675000         0.65    90.492435    90.492435    91.467434    170.87561    90.492435   0.97499938  1571373 
 4676000         0.65    90.492435    90.492435    91.467434    170.87561    90.492435   0.97499938  1571373 
 4677000         0.65    90.492435    90.492435    91.467434    170.87561    90.492435   0.97499938  1571373 
 4678000         0.65    90.492435    90.492435    91.467434    170.87561    90.492435   0.97499938  1571373 
 4679000         0.65    90.492435    90.492435    91.467434    170.87561    90.492435   0.97499938  1571373 
 4680000         0.65    90.492435    90.492435    91.467434    170.87561    90.492435   0.97499938  1571373 
 4681000         0.65    90.492435    90.492435    91.467434    170.87561    90.492435   0.97499938  1571373 
 4682000         0.65    90.492435    90.492435    91.467434    170.87561    90.492435   0.97499938  1571373 
 4683000         0.65    90.492435    90.492435    91.467434    170.87561    90.492435   0.97499938  1571373 
 4684000         0.65    90.492435    90.492435    91.467434    170.87561    90.492435   0.97499938  1571373 
 4685000         0.65    90.492435    90.492435    91.467434    170.87561    90.492435   0.97499938  1571373 
 4686000         0.65    90.492435    90.492435    91.467434    170.87561    90.492435   0.97499938  1571373 
 4687000         0.65    90.492435    90.492435    91.467434    170.87561    90.492435   0.97499938  1571373 
 4688000         0.65    90.492435    90.492435    91.467434    170.87561    90.492435   0.97499938  1571373 
 4689000         0.65    90.492435    90.492435    91.467434    170.87561    90.492435   0.97499938  1571373 
 4690000         0.65    90.492435    90.492435    91.467434    170.87561    90.492435   0.97499938  1571373 
 4691000         0.65    90.492435    90.492435    91.467434    170.87561    90.492435   0.97499938  1571373 
 4692000         0.65    90.492435    90.492435    91.467434    170.87561    90.492435   0.97499938  1571373 
 4693000         0.65    90.492435    90.492435    91.467434    170.87561    90.492435   0.97499938  1571373 
 4694000         0.65    90.492435    90.492435    91.467434    170.87561    90.492435   0.97499938  1571373 
 4695000         0.65    90.492435    90.492435    91.467434    170.87561    90.492435   0.97499938  1571373 
 4696000         0.65    90.492435    90.492435    91.467434    170.87561    90.492435   0.97499938  1571373 
 4697000         0.65    90.492435    90.492435    91.467434    170.87561    90.492435   0.97499938  1571373 
 4698000         0.65    90.492435    90.492435    91.467434    170.87561    90.492435   0.97499938  1571373 
 4699000         0.65    90.492435    90.492435    91.467434    170.87561    90.492435   0.97499938  1571373 
 4700000         0.65    90.492435    90.492435    91.467434    170.87561    90.492435   0.97499938  1571373 
 4701000         0.65    90.492435    90.492435    91.467434    170.87561    90.492435   0.97499938  1571373 
 4702000         0.65    90.492435    90.492435    91.467434    170.87561    90.492435   0.97499938  1571373 
 4703000         0.65    90.492435    90.492435    91.467434    170.87561    90.492435   0.97499938  1571373 
 4704000         0.65    90.492435    90.492435    91.467434    170.87561    90.492435   0.97499938  1571373 
 4705000         0.65    90.492435    90.492435    91.467434    170.87561    90.492435   0.97499938  1571373 
 4706000         0.65    90.492435    90.492435    91.467434    170.87561    90.492435   0.97499938  1571373 
 4707000         0.65    90.492435    90.492435    91.467434    170.87561    90.492435   0.97499938  1571373 
 4708000         0.65    90.492435    90.492435    91.467434    170.87561    90.492435   0.97499938  1571373 
 4709000         0.65    90.492435    90.492435    91.467434    170.87561    90.492435   0.97499938  1571373 
 4710000         0.65    90.492435    90.492435    91.467434    170.87561    90.492435   0.97499938  1571373 
 4711000         0.65    90.492435    90.492435    91.467434    170.87561    90.492435   0.97499938  1571373 
 4712000         0.65    90.492435    90.492435    91.467434    170.87561    90.492435   0.97499938  1571373 
 4713000         0.65    90.492435    90.492435    91.467434    170.87561    90.492435   0.97499938  1571373 
 4714000         0.65    90.492435    90.492435    91.467434    170.87561    90.492435   0.97499938  1571373 
 4715000         0.65    90.492435    90.492435    91.467434    170.87561    90.492435   0.97499938  1571373 
 4716000         0.65    90.492435    90.492435    91.467434    170.87561    90.492435   0.97499938  1571373 
 4717000         0.65    90.492435    90.492435    91.467434    170.87561    90.492435   0.97499938  1571373 
 4718000         0.65    90.492435    90.492435    91.467434    170.87561    90.492435   0.97499938  1571373 
 4719000         0.65    90.492435    90.492435    91.467434    170.87561    90.492435   0.97499938  1571373 
 4720000         0.65    90.492435    90.492435    91.467434    170.87561    90.492435   0.97499938  1571373 
 4721000         0.65    90.492435    90.492435    91.467434    170.87561    90.492435   0.97499938  1571373 
 4722000         0.65    90.492435    90.492435    91.467434    170.87561    90.492435   0.97499938  1571373 
 4723000         0.65    90.492435    90.492435    91.467434    170.87561    90.492435   0.97499938  1571373 
 4724000         0.65    90.492435    90.492435    91.467434    170.87561    90.492435   0.97499938  1571373 
 4725000         0.65    90.492435    90.492435    91.467434    170.87561    90.492435   0.97499938  1571373 
 4726000         0.65    90.492435    90.492435    91.467434    170.87561    90.492435   0.97499938  1571373 
 4727000         0.65    90.492435    90.492435    91.467434    170.87561    90.492435   0.97499938  1571373 
 4728000         0.65    90.492435    90.492435    91.467434    170.87561    90.492435   0.97499938  1571373 
 4729000         0.65    90.492435    90.492435    91.467434    170.87561    90.492435   0.97499938  1571373 
 4730000         0.65    90.492435    90.492435    91.467434    170.87561    90.492435   0.97499938  1571373 
 4731000         0.65    90.492435    90.492435    91.467434    170.87561    90.492435   0.97499938  1571373 
 4732000         0.65    90.492435    90.492435    91.467434    170.87561    90.492435   0.97499938  1571373 
 4733000         0.65    90.492435    90.492435    91.467434    170.87561    90.492435   0.97499938  1571373 
 4734000         0.65    90.492435    90.492435    91.467434    170.87561    90.492435   0.97499938  1571373 
 4735000         0.65    90.492435    90.492435    91.467434    170.87561    90.492435   0.97499938  1571373 
 4736000         0.65    90.492435    90.492435    91.467434    170.87561    90.492435   0.97499938  1571373 
 4737000         0.65    90.492435    90.492435    91.467434    170.87561    90.492435   0.97499938  1571373 
 4738000         0.65    90.492435    90.492435    91.467434    170.87561    90.492435   0.97499938  1571373 
 4739000         0.65    90.492435    90.492435    91.467434    170.87561    90.492435   0.97499938  1571373 
 4740000         0.65    90.492435    90.492435    91.467434    170.87561    90.492435   0.97499938  1571373 
 4741000         0.65    90.492435    90.492435    91.467434    170.87561    90.492435   0.97499938  1571373 
 4742000         0.65    90.492435    90.492435    91.467434    170.87561    90.492435   0.97499938  1571373 
 4743000         0.65    90.492435    90.492435    91.467434    170.87561    90.492435   0.97499938  1571373 
 4744000         0.65    90.492435    90.492435    91.467434    170.87561    90.492435   0.97499938  1571373 
 4745000         0.65    90.492435    90.492435    91.467434    170.87561    90.492435   0.97499938  1571373 
 4746000         0.65    90.492435    90.492435    91.467434    170.87561    90.492435   0.97499938  1571373 
 4747000         0.65    90.492435    90.492435    91.467434    170.87561    90.492435   0.97499938  1571373 
 4748000         0.65    90.492435    90.492435    91.467434    170.87561    90.492435   0.97499938  1571373 
 4749000         0.65    90.492435    90.492435    91.467434    170.87561    90.492435   0.97499938  1571373 
 4750000         0.65    90.492435    90.492435    91.467434    170.87561    90.492435   0.97499938  1571373 
 4751000         0.65    90.492435    90.492435    91.467434    170.87561    90.492435   0.97499938  1571373 
 4752000         0.65    90.492435    90.492435    91.467434    170.87561    90.492435   0.97499938  1571373 
 4753000         0.65    90.492435    90.492435    91.467434    170.87561    90.492435   0.97499938  1571373 
 4754000         0.65    90.492435    90.492435    91.467434    170.87561    90.492435   0.97499938  1571373 
 4755000         0.65    90.492435    90.492435    91.467434    170.87561    90.492435   0.97499938  1571373 
 4756000         0.65    90.492435    90.492435    91.467434    170.87561    90.492435   0.97499938  1571373 
 4757000         0.65    90.492435    90.492435    91.467434    170.87561    90.492435   0.97499938  1571373 
 4758000         0.65    90.492435    90.492435    91.467434    170.87561    90.492435   0.97499938  1571373 
 4759000         0.65    90.492435    90.492435    91.467434    170.87561    90.492435   0.97499938  1571373 
 4760000         0.65    90.492435    90.492435    91.467434    170.87561    90.492435   0.97499938  1571373 
 4761000         0.65    90.492435    90.492435    91.467434    170.87561    90.492435   0.97499938  1571373 
 4762000         0.65    90.492435    90.492435    91.467434    170.87561    90.492435   0.97499938  1571373 
 4763000         0.65    90.492435    90.492435    91.467434    170.87561    90.492435   0.97499938  1571373 
 4764000         0.65    90.492435    90.492435    91.467434    170.87561    90.492435   0.97499938  1571373 
 4765000         0.65    90.492435    90.492435    91.467434    170.87561    90.492435   0.97499938  1571373 
 4766000         0.65    90.492435    90.492435    91.467434    170.87561    90.492435   0.97499938  1571373 
 4767000         0.65    90.492435    90.492435    91.467434    170.87561    90.492435   0.97499938  1571373 
 4768000         0.65    90.492435    90.492435    91.467434    170.87561    90.492435   0.97499938  1571373 
 4769000         0.65    90.492435    90.492435    91.467434    170.87561    90.492435   0.97499938  1571373 
 4770000         0.65    90.492435    90.492435    91.467434    170.87561    90.492435   0.97499938  1571373 
 4771000         0.65    90.492435    90.492435    91.467434    170.87561    90.492435   0.97499938  1571373 
 4772000         0.65    90.492435    90.492435    91.467434    170.87561    90.492435   0.97499938  1571373 
 4773000         0.65    90.492435    90.492435    91.467434    170.87561    90.492435   0.97499938  1571373 
 4774000         0.65    90.492435    90.492435    91.467434    170.87561    90.492435   0.97499938  1571373 
 4775000         0.65    90.492435    90.492435    91.467434    170.87561    90.492435   0.97499938  1571373 
 4776000         0.65    90.492435    90.492435    91.467434    170.87561    90.492435   0.97499938  1571373 
 4777000         0.65    90.492435    90.492435    91.467434    170.87561    90.492435   0.97499938  1571373 
 4778000         0.65    90.492435    90.492435    91.467434    170.87561    90.492435   0.97499938  1571373 
 4779000         0.65    90.492435    90.492435    91.467434    170.87561    90.492435   0.97499938  1571373 
 4780000         0.65    90.492435    90.492435    91.467434    170.87561    90.492435   0.97499938  1571373 
 4781000         0.65    90.492435    90.492435    91.467434    170.87561    90.492435   0.97499938  1571373 
 4782000         0.65    90.492435    90.492435    91.467434    170.87561    90.492435   0.97499938  1571373 
 4783000         0.65    90.492435    90.492435    91.467434    170.87561    90.492435   0.97499938  1571373 
 4784000         0.65    90.492435    90.492435    91.467434    170.87561    90.492435   0.97499938  1571373 
 4785000         0.65    90.492435    90.492435    91.467434    170.87561    90.492435   0.97499938  1571373 
 4786000         0.65    90.492435    90.492435    91.467434    170.87561    90.492435   0.97499938  1571373 
 4787000         0.65    90.492435    90.492435    91.467434    170.87561    90.492435   0.97499938  1571373 
 4788000         0.65    90.492435    90.492435    91.467434    170.87561    90.492435   0.97499938  1571373 
 4789000         0.65    90.492435    90.492435    91.467434    170.87561    90.492435   0.97499938  1571373 
 4790000         0.65    90.492435    90.492435    91.467434    170.87561    90.492435   0.97499938  1571373 
 4791000         0.65    90.492435    90.492435    91.467434    170.87561    90.492435   0.97499938  1571373 
 4792000         0.65    90.492435    90.492435    91.467434    170.87561    90.492435   0.97499938  1571373 
 4793000         0.65    90.492435    90.492435    91.467434    170.87561    90.492435   0.97499938  1571373 
 4794000         0.65    90.492435    90.492435    91.467434    170.87561    90.492435   0.97499938  1571373 
 4795000         0.65    90.492435    90.492435    91.467434    170.87561    90.492435   0.97499938  1571373 
 4796000         0.65    90.492435    90.492435    91.467434    170.87561    90.492435   0.97499938  1571373 
 4797000         0.65    90.492435    90.492435    91.467434    170.87561    90.492435   0.97499938  1571373 
 4798000         0.65    90.492435    90.492435    91.467434    170.87561    90.492435   0.97499938  1571373 
 4799000         0.65    90.492435    90.492435    91.467434    170.87561    90.492435   0.97499938  1571373 
 4800000         0.65    90.492435    90.492435    91.467434    170.87561    90.492435   0.97499938  1571373 
 4801000         0.65    90.492435    90.492435    91.467434    170.87561    90.492435   0.97499938  1571373 
 4802000         0.65    90.492435    90.492435    91.467434    170.87561    90.492435   0.97499938  1571373 
 4803000         0.65    90.492435    90.492435    91.467434    170.87561    90.492435   0.97499938  1571373 
 4804000         0.65    90.492435    90.492435    91.467434    170.87561    90.492435   0.97499938  1571373 
 4805000         0.65    90.492435    90.492435    91.467434    170.87561    90.492435   0.97499938  1571373 
 4806000         0.65    90.492435    90.492435    91.467434    170.87561    90.492435   0.97499938  1571373 
 4807000         0.65    90.492435    90.492435    91.467434    170.87561    90.492435   0.97499938  1571373 
 4808000         0.65    90.492435    90.492435    91.467434    170.87561    90.492435   0.97499938  1571373 
 4809000         0.65    90.492435    90.492435    91.467434    170.87561    90.492435   0.97499938  1571373 
 4810000         0.65    90.492435    90.492435    91.467434    170.87561    90.492435   0.97499938  1571373 
 4811000         0.65    90.492435    90.492435    91.467434    170.87561    90.492435   0.97499938  1571373 
 4812000         0.65    90.492435    90.492435    91.467434    170.87561    90.492435   0.97499938  1571373 
 4813000         0.65    90.492435    90.492435    91.467434    170.87561    90.492435   0.97499938  1571373 
 4814000         0.65    90.492435    90.492435    91.467434    170.87561    90.492435   0.97499938  1571373 
 4815000         0.65    90.492435    90.492435    91.467434    170.87561    90.492435   0.97499938  1571373 
 4816000         0.65    90.492435    90.492435    91.467434    170.87561    90.492435   0.97499938  1571373 
 4817000         0.65    90.492435    90.492435    91.467434    170.87561    90.492435   0.97499938  1571373 
 4818000         0.65    90.492435    90.492435    91.467434    170.87561    90.492435   0.97499938  1571373 
 4819000         0.65    90.492435    90.492435    91.467434    170.87561    90.492435   0.97499938  1571373 
 4820000         0.65    90.492435    90.492435    91.467434    170.87561    90.492435   0.97499938  1571373 
 4821000         0.65    90.492435    90.492435    91.467434    170.87561    90.492435   0.97499938  1571373 
 4822000         0.65    90.492435    90.492435    91.467434    170.87561    90.492435   0.97499938  1571373 
 4823000         0.65    90.492435    90.492435    91.467434    170.87561    90.492435   0.97499938  1571373 
 4824000         0.65    90.492435    90.492435    91.467434    170.87561    90.492435   0.97499938  1571373 
 4825000         0.65    90.492435    90.492435    91.467434    170.87561    90.492435   0.97499938  1571373 
 4826000         0.65    90.492435    90.492435    91.467434    170.87561    90.492435   0.97499938  1571373 
 4827000         0.65    90.492435    90.492435    91.467434    170.87561    90.492435   0.97499938  1571373 
 4828000         0.65    90.492435    90.492435    91.467434    170.87561    90.492435   0.97499938  1571373 
 4829000         0.65    90.492435    90.492435    91.467434    170.87561    90.492435   0.97499938  1571373 
 4830000         0.65    90.492435    90.492435    91.467434    170.87561    90.492435   0.97499938  1571373 
 4831000         0.65    90.492435    90.492435    91.467434    170.87561    90.492435   0.97499938  1571373 
 4832000         0.65    90.492435    90.492435    91.467434    170.87561    90.492435   0.97499938  1571373 
 4833000         0.65    90.492435    90.492435    91.467434    170.87561    90.492435   0.97499938  1571373 
 4834000         0.65    90.492435    90.492435    91.467434    170.87561    90.492435   0.97499938  1571373 
 4835000         0.65    90.492435    90.492435    91.467434    170.87561    90.492435   0.97499938  1571373 
 4836000         0.65    90.492435    90.492435    91.467434    170.87561    90.492435   0.97499938  1571373 
 4837000         0.65    90.492435    90.492435    91.467434    170.87561    90.492435   0.97499938  1571373 
 4838000         0.65    90.492435    90.492435    91.467434    170.87561    90.492435   0.97499938  1571373 
 4839000         0.65    90.492435    90.492435    91.467434    170.87561    90.492435   0.97499938  1571373 
 4840000         0.65    90.492435    90.492435    91.467434    170.87561    90.492435   0.97499938  1571373 
 4841000         0.65    90.492435    90.492435    91.467434    170.87561    90.492435   0.97499938  1571373 
 4842000         0.65    90.492435    90.492435    91.467434    170.87561    90.492435   0.97499938  1571373 
 4843000         0.65    90.492435    90.492435    91.467434    170.87561    90.492435   0.97499938  1571373 
 4844000         0.65    90.492435    90.492435    91.467434    170.87561    90.492435   0.97499938  1571373 
 4845000         0.65    90.492435    90.492435    91.467434    170.87561    90.492435   0.97499938  1571373 
 4846000         0.65    90.492435    90.492435    91.467434    170.87561    90.492435   0.97499938  1571373 
 4847000         0.65    90.492435    90.492435    91.467434    170.87561    90.492435   0.97499938  1571373 
 4848000         0.65    90.492435    90.492435    91.467434    170.87561    90.492435   0.97499938  1571373 
 4849000         0.65    90.492435    90.492435    91.467434    170.87561    90.492435   0.97499938  1571373 
 4850000         0.65    90.492435    90.492435    91.467434    170.87561    90.492435   0.97499938  1571373 
 4851000         0.65    90.492435    90.492435    91.467434    170.87561    90.492435   0.97499938  1571373 
 4852000         0.65    90.492435    90.492435    91.467434    170.87561    90.492435   0.97499938  1571373 
 4853000         0.65    90.492435    90.492435    91.467434    170.87561    90.492435   0.97499938  1571373 
 4854000         0.65    90.492435    90.492435    91.467434    170.87561    90.492435   0.97499938  1571373 
 4855000         0.65    90.492435    90.492435    91.467434    170.87561    90.492435   0.97499938  1571373 
 4856000         0.65    90.492435    90.492435    91.467434    170.87561    90.492435   0.97499938  1571373 
 4857000         0.65    90.492435    90.492435    91.467434    170.87561    90.492435   0.97499938  1571373 
 4858000         0.65    90.492435    90.492435    91.467434    170.87561    90.492435   0.97499938  1571373 
 4859000         0.65    90.492435    90.492435    91.467434    170.87561    90.492435   0.97499938  1571373 
 4860000         0.65    90.492435    90.492435    91.467434    170.87561    90.492435   0.97499938  1571373 
 4861000         0.65    90.492435    90.492435    91.467434    170.87561    90.492435   0.97499938  1571373 
 4862000         0.65    90.492435    90.492435    91.467434    170.87561    90.492435   0.97499938  1571373 
 4863000         0.65    90.492435    90.492435    91.467434    170.87561    90.492435   0.97499938  1571373 
 4864000         0.65    90.492435    90.492435    91.467434    170.87561    90.492435   0.97499938  1571373 
 4865000         0.65    90.492435    90.492435    91.467434    170.87561    90.492435   0.97499938  1571373 
 4866000         0.65    90.492435    90.492435    91.467434    170.87561    90.492435   0.97499938  1571373 
 4867000         0.65    90.492435    90.492435    91.467434    170.87561    90.492435   0.97499938  1571373 
 4868000         0.65    90.492435    90.492435    91.467434    170.87561    90.492435   0.97499938  1571373 
 4869000         0.65    90.492435    90.492435    91.467434    170.87561    90.492435   0.97499938  1571373 
 4870000         0.65    90.492435    90.492435    91.467434    170.87561    90.492435   0.97499938  1571373 
 4871000         0.65    90.492435    90.492435    91.467434    170.87561    90.492435   0.97499938  1571373 
 4872000         0.65    90.492435    90.492435    91.467434    170.87561    90.492435   0.97499938  1571373 
 4873000         0.65    90.492435    90.492435    91.467434    170.87561    90.492435   0.97499938  1571373 
 4874000         0.65    90.492435    90.492435    91.467434    170.87561    90.492435   0.97499938  1571373 
 4875000         0.65    90.492435    90.492435    91.467434    170.87561    90.492435   0.97499938  1571373 
 4876000         0.65    90.492435    90.492435    91.467434    170.87561    90.492435   0.97499938  1571373 
 4877000         0.65    90.492435    90.492435    91.467434    170.87561    90.492435   0.97499938  1571373 
 4878000         0.65    90.492435    90.492435    91.467434    170.87561    90.492435   0.97499938  1571373 
 4879000         0.65    90.492435    90.492435    91.467434    170.87561    90.492435   0.97499938  1571373 
 4880000         0.65    90.492435    90.492435    91.467434    170.87561    90.492435   0.97499938  1571373 
 4881000         0.65    90.492435    90.492435    91.467434    170.87561    90.492435   0.97499938  1571373 
 4882000         0.65    90.492435    90.492435    91.467434    170.87561    90.492435   0.97499938  1571373 
 4883000         0.65    90.492435    90.492435    91.467434    170.87561    90.492435   0.97499938  1571373 
 4884000         0.65    90.492435    90.492435    91.467434    170.87561    90.492435   0.97499938  1571373 
 4885000         0.65    90.492435    90.492435    91.467434    170.87561    90.492435   0.97499938  1571373 
 4886000         0.65    90.492435    90.492435    91.467434    170.87561    90.492435   0.97499938  1571373 
 4887000         0.65    90.492435    90.492435    91.467434    170.87561    90.492435   0.97499938  1571373 
 4888000         0.65    90.492435    90.492435    91.467434    170.87561    90.492435   0.97499938  1571373 
 4889000         0.65    90.492435    90.492435    91.467434    170.87561    90.492435   0.97499938  1571373 
 4890000         0.65    90.492435    90.492435    91.467434    170.87561    90.492435   0.97499938  1571373 
 4891000         0.65    90.492435    90.492435    91.467434    170.87561    90.492435   0.97499938  1571373 
 4892000         0.65    90.492435    90.492435    91.467434    170.87561    90.492435   0.97499938  1571373 
 4893000         0.65    90.492435    90.492435    91.467434    170.87561    90.492435   0.97499938  1571373 
 4894000         0.65    90.492435    90.492435    91.467434    170.87561    90.492435   0.97499938  1571373 
 4895000         0.65    90.492435    90.492435    91.467434    170.87561    90.492435   0.97499938  1571373 
 4896000         0.65    90.492435    90.492435    91.467434    170.87561    90.492435   0.97499938  1571373 
 4897000         0.65    90.492435    90.492435    91.467434    170.87561    90.492435   0.97499938  1571373 
 4898000         0.65    90.492435    90.492435    91.467434    170.87561    90.492435   0.97499938  1571373 
 4899000         0.65    90.492435    90.492435    91.467434    170.87561    90.492435   0.97499938  1571373 
 4900000         0.65    90.492435    90.492435    91.467434    170.87561    90.492435   0.97499938  1571373 
 4901000         0.65    90.492435    90.492435    91.467434    170.87561    90.492435   0.97499938  1571373 
 4902000         0.65    90.492435    90.492435    91.467434    170.87561    90.492435   0.97499938  1571373 
 4903000         0.65    90.492435    90.492435    91.467434    170.87561    90.492435   0.97499938  1571373 
 4904000         0.65    90.492435    90.492435    91.467434    170.87561    90.492435   0.97499938  1571373 
 4905000         0.65    90.492435    90.492435    91.467434    170.87561    90.492435   0.97499938  1571373 
 4906000         0.65    90.492435    90.492435    91.467434    170.87561    90.492435   0.97499938  1571373 
 4907000         0.65    90.492435    90.492435    91.467434    170.87561    90.492435   0.97499938  1571373 
 4908000         0.65    90.492435    90.492435    91.467434    170.87561    90.492435   0.97499938  1571373 
 4909000         0.65    90.492435    90.492435    91.467434    170.87561    90.492435   0.97499938  1571373 
 4910000         0.65    90.492435    90.492435    91.467434    170.87561    90.492435   0.97499938  1571373 
 4911000         0.65    90.492435    90.492435    91.467434    170.87561    90.492435   0.97499938  1571373 
 4912000         0.65    90.492435    90.492435    91.467434    170.87561    90.492435   0.97499938  1571373 
 4913000         0.65    90.492435    90.492435    91.467434    170.87561    90.492435   0.97499938  1571373 
 4914000         0.65    90.492435    90.492435    91.467434    170.87561    90.492435   0.97499938  1571373 
 4915000         0.65    90.492435    90.492435    91.467434    170.87561    90.492435   0.97499938  1571373 
 4916000         0.65    90.492435    90.492435    91.467434    170.87561    90.492435   0.97499938  1571373 
 4917000         0.65    90.492435    90.492435    91.467434    170.87561    90.492435   0.97499938  1571373 
 4918000         0.65    90.492435    90.492435    91.467434    170.87561    90.492435   0.97499938  1571373 
 4919000         0.65    90.492435    90.492435    91.467434    170.87561    90.492435   0.97499938  1571373 
 4920000         0.65    90.492435    90.492435    91.467434    170.87561    90.492435   0.97499938  1571373 
 4921000         0.65    90.492435    90.492435    91.467434    170.87561    90.492435   0.97499938  1571373 
 4922000         0.65    90.492435    90.492435    91.467434    170.87561    90.492435   0.97499938  1571373 
 4923000         0.65    90.492435    90.492435    91.467434    170.87561    90.492435   0.97499938  1571373 
 4924000         0.65    90.492435    90.492435    91.467434    170.87561    90.492435   0.97499938  1571373 
 4925000         0.65    90.492435    90.492435    91.467434    170.87561    90.492435   0.97499938  1571373 
 4926000         0.65    90.492435    90.492435    91.467434    170.87561    90.492435   0.97499938  1571373 
 4927000         0.65    90.492435    90.492435    91.467434    170.87561    90.492435   0.97499938  1571373 
 4928000         0.65    90.492435    90.492435    91.467434    170.87561    90.492435   0.97499938  1571373 
 4929000         0.65    90.492435    90.492435    91.467434    170.87561    90.492435   0.97499938  1571373 
 4930000         0.65    90.492435    90.492435    91.467434    170.87561    90.492435   0.97499938  1571373 
 4931000         0.65    90.492435    90.492435    91.467434    170.87561    90.492435   0.97499938  1571373 
 4932000         0.65    90.492435    90.492435    91.467434    170.87561    90.492435   0.97499938  1571373 
 4933000         0.65    90.492435    90.492435    91.467434    170.87561    90.492435   0.97499938  1571373 
 4934000         0.65    90.492435    90.492435    91.467434    170.87561    90.492435   0.97499938  1571373 
 4935000         0.65    90.492435    90.492435    91.467434    170.87561    90.492435   0.97499938  1571373 
 4936000         0.65    90.492435    90.492435    91.467434    170.87561    90.492435   0.97499938  1571373 
 4937000         0.65    90.492435    90.492435    91.467434    170.87561    90.492435   0.97499938  1571373 
 4938000         0.65    90.492435    90.492435    91.467434    170.87561    90.492435   0.97499938  1571373 
 4939000         0.65    90.492435    90.492435    91.467434    170.87561    90.492435   0.97499938  1571373 
 4940000         0.65    90.492435    90.492435    91.467434    170.87561    90.492435   0.97499938  1571373 
 4941000         0.65    90.492435    90.492435    91.467434    170.87561    90.492435   0.97499938  1571373 
 4942000         0.65    90.492435    90.492435    91.467434    170.87561    90.492435   0.97499938  1571373 
 4943000         0.65    90.492435    90.492435    91.467434    170.87561    90.492435   0.97499938  1571373 
 4944000         0.65    90.492435    90.492435    91.467434    170.87561    90.492435   0.97499938  1571373 
 4945000         0.65    90.492435    90.492435    91.467434    170.87561    90.492435   0.97499938  1571373 
 4946000         0.65    90.492435    90.492435    91.467434    170.87561    90.492435   0.97499938  1571373 
 4947000         0.65    90.492435    90.492435    91.467434    170.87561    90.492435   0.97499938  1571373 
 4948000         0.65    90.492435    90.492435    91.467434    170.87561    90.492435   0.97499938  1571373 
 4949000         0.65    90.492435    90.492435    91.467434    170.87561    90.492435   0.97499938  1571373 
 4950000         0.65    90.492435    90.492435    91.467434    170.87561    90.492435   0.97499938  1571373 
 4951000         0.65    90.492435    90.492435    91.467434    170.87561    90.492435   0.97499938  1571373 
 4952000         0.65    90.492435    90.492435    91.467434    170.87561    90.492435   0.97499938  1571373 
 4953000         0.65    90.492435    90.492435    91.467434    170.87561    90.492435   0.97499938  1571373 
 4954000         0.65    90.492435    90.492435    91.467434    170.87561    90.492435   0.97499938  1571373 
 4955000         0.65    90.492435    90.492435    91.467434    170.87561    90.492435   0.97499938  1571373 
 4956000         0.65    90.492435    90.492435    91.467434    170.87561    90.492435   0.97499938  1571373 
 4957000         0.65    90.492435    90.492435    91.467434    170.87561    90.492435   0.97499938  1571373 
 4958000         0.65    90.492435    90.492435    91.467434    170.87561    90.492435   0.97499938  1571373 
 4959000         0.65    90.492435    90.492435    91.467434    170.87561    90.492435   0.97499938  1571373 
 4960000         0.65    90.492435    90.492435    91.467434    170.87561    90.492435   0.97499938  1571373 
 4961000         0.65    90.492435    90.492435    91.467434    170.87561    90.492435   0.97499938  1571373 
 4962000         0.65    90.492435    90.492435    91.467434    170.87561    90.492435   0.97499938  1571373 
 4963000         0.65    90.492435    90.492435    91.467434    170.87561    90.492435   0.97499938  1571373 
 4964000         0.65    90.492435    90.492435    91.467434    170.87561    90.492435   0.97499938  1571373 
 4965000         0.65    90.492435    90.492435    91.467434    170.87561    90.492435   0.97499938  1571373 
 4966000         0.65    90.492435    90.492435    91.467434    170.87561    90.492435   0.97499938  1571373 
 4967000         0.65    90.492435    90.492435    91.467434    170.87561    90.492435   0.97499938  1571373 
 4968000         0.65    90.492435    90.492435    91.467434    170.87561    90.492435   0.97499938  1571373 
 4969000         0.65    90.492435    90.492435    91.467434    170.87561    90.492435   0.97499938  1571373 
 4970000         0.65    90.492435    90.492435    91.467434    170.87561    90.492435   0.97499938  1571373 
 4971000         0.65    90.492435    90.492435    91.467434    170.87561    90.492435   0.97499938  1571373 
 4972000         0.65    90.492435    90.492435    91.467434    170.87561    90.492435   0.97499938  1571373 
 4973000         0.65    90.492435    90.492435    91.467434    170.87561    90.492435   0.97499938  1571373 
 4974000         0.65    90.492435    90.492435    91.467434    170.87561    90.492435   0.97499938  1571373 
 4975000         0.65    90.492435    90.492435    91.467434    170.87561    90.492435   0.97499938  1571373 
 4976000         0.65    90.492435    90.492435    91.467434    170.87561    90.492435   0.97499938  1571373 
 4977000         0.65    90.492435    90.492435    91.467434    170.87561    90.492435   0.97499938  1571373 
 4978000         0.65    90.492435    90.492435    91.467434    170.87561    90.492435   0.97499938  1571373 
 4979000         0.65    90.492435    90.492435    91.467434    170.87561    90.492435   0.97499938  1571373 
 4980000         0.65    90.492435    90.492435    91.467434    170.87561    90.492435   0.97499938  1571373 
 4981000         0.65    90.492435    90.492435    91.467434    170.87561    90.492435   0.97499938  1571373 
 4982000         0.65    90.492435    90.492435    91.467434    170.87561    90.492435   0.97499938  1571373 
 4983000         0.65    90.492435    90.492435    91.467434    170.87561    90.492435   0.97499938  1571373 
 4984000         0.65    90.492435    90.492435    91.467434    170.87561    90.492435   0.97499938  1571373 
 4985000         0.65    90.492435    90.492435    91.467434    170.87561    90.492435   0.97499938  1571373 
 4986000         0.65    90.492435    90.492435    91.467434    170.87561    90.492435   0.97499938  1571373 
 4987000         0.65    90.492435    90.492435    91.467434    170.87561    90.492435   0.97499938  1571373 
 4988000         0.65    90.492435    90.492435    91.467434    170.87561    90.492435   0.97499938  1571373 
 4989000         0.65    90.492435    90.492435    91.467434    170.87561    90.492435   0.97499938  1571373 
 4990000         0.65    90.492435    90.492435    91.467434    170.87561    90.492435   0.97499938  1571373 
 4991000         0.65    90.492435    90.492435    91.467434    170.87561    90.492435   0.97499938  1571373 
 4992000         0.65    90.492435    90.492435    91.467434    170.87561    90.492435   0.97499938  1571373 
 4993000         0.65    90.492435    90.492435    91.467434    170.87561    90.492435   0.97499938  1571373 
 4994000         0.65    90.492435    90.492435    91.467434    170.87561    90.492435   0.97499938  1571373 
 4995000         0.65    90.492435    90.492435    91.467434    170.87561    90.492435   0.97499938  1571373 
 4996000         0.65    90.492435    90.492435    91.467434    170.87561    90.492435   0.97499938  1571373 
 4997000         0.65    90.492435    90.492435    91.467434    170.87561    90.492435   0.97499938  1571373 
 4998000         0.65    90.492435    90.492435    91.467434    170.87561    90.492435   0.97499938  1571373 
 4999000         0.65    90.492435    90.492435    91.467434    170.87561    90.492435   0.97499938  1571373 
 5000000         0.65    90.492435    90.492435    91.467434    170.87561    90.492435   0.97499938  1571373 
Loop time of 8785.74 on 288 procs for 5000000 steps with 1571373 atoms

Performance: 245852.904 tau/day, 569.104 timesteps/s
84.3% CPU use with 288 MPI tasks x 1 OpenMP threads

MPI task timing breakdown:
Section |  min time  |  avg time  |  max time  |%varavg|  %CPU | %total
-----------------------------------------------------------------------
Pair    | 2087.8     | 3927.7     | 4525.9     | 844.9 |  89.9 | 44.71
Bond    | 3.1751     | 3.4384     | 3.8327     |   5.8 | 100.0 |  0.04
Neigh   | 7.4188     | 10.689     | 12.934     |  32.1 |  97.4 |  0.12
Comm    | 1799.5     | 2899.1     | 4718.1     | 953.0 |  81.8 | 33.00
Output  | 375.96     | 377.57     | 379.81     |   3.1 |  62.7 |  4.30
Modify  | 107.53     | 242.01     | 1304.2     |1978.0 |  86.6 |  2.75
Other   |            | 1325       |            |       |       | 15.08

Nlocal:        5456.16 ave        6318 max        4862 min
Histogram: 21 24 11 83 26 74 34 3 9 3
Nghost:        5507.13 ave        7259 max        3516 min
Histogram: 18 9 16 20 22 77 76 30 16 4
Neighs:        86109.0 ave      105859 max       44467 min
Histogram: 23 1 0 0 0 12 78 114 54 6

Total # of neighbors = 24799383
Ave neighs/atom = 15.781984
Ave special neighs/atom = 0.0000000
Neighbor list builds = 5000
Dangerous builds = 0
write_data	data.lj
System init for write_data ...


## Evaporation
#region          regevap block EDGE EDGE EDGE EDGE 140 EDGE units box
#fix             4 solvent evaporate ${evap} 1 regevap 156415

#run 		20000000
Total wall time: 2:26:33
