LAMMPS (24 Dec 2020)
OMP_NUM_THREADS environment is not set. Defaulting to 1 thread. (src/comm.cpp:94)
  using 1 OpenMP thread(s) per MPI task
#Read the equilibrated lj fluid and add nanocubes

units           lj
atom_style      full
atom_modify     map array first cubes
dimension       3
boundary        p p f
pair_style      lj/cut/opt 2.5

variable        sigma           equal 1.0
variable        epsilon         equal 1.0
read_restart 	restart.dat.1000000
Reading restart file ...
  restart file = 24 Dec 2020, LAMMPS = 24 Dec 2020
  restoring atom style full from restart
  orthogonal box = (0.0000000 0.0000000 0.0000000) to (160.00000 160.00000 320.00000)
  5 by 4 by 12 MPI processor grid
  restoring pair style lj/cut/opt from restart
  4233413 atoms
Finding 1-2 1-3 1-4 neighbors ...
  special bond factors lj:    0        0        0       
  special bond factors coul:  0        0        0       
     0 = max # of 1-2 neighbors
     0 = max # of 1-3 neighbors
     0 = max # of 1-4 neighbors
     1 = max # of special neighbors
  special bonds CPU = 1.913 seconds
  read_restart CPU = 3.691 seconds

group		solvent type 1
3648197 atoms in group solvent

neighbor      0.4 bin
neigh_modify  exclude molecule/intra cubes


pair_modify   shift yes

pair_coeff    1 1 1.0 1.0 #solvent
pair_coeff    2 2 0.6 1.0 #np
pair_coeff    3 3 0.0 0.0 0.0 #dummy
pair_coeff    2 3 0.0 0.0 0.0 #np dummy
pair_coeff    1 2 0.8 1.0 #np solvent
pair_coeff    1 3 0.0 0.0 0.0 #dummy solvent


comm_modify   mode multi cutoff/multi 1 2.5 cutoff/multi 2 2.5 cutoff/multi 3 6.95

reset_timestep 	0

balance 	1.05 shift z 10 1.05
Balancing ...
Unused restart file global fix info:
  fix style: rigid/nvt/small, fix ID: 1
  fix style: STORE, fix ID: msd_COMPUTE_STORE
Neighbor list info ...
  update every 1 steps, delay 10 steps, check yes
  max neighbors/atom: 2000, page size: 100000
  master list distance cutoff = 2.9
  ghost atom cutoff = 6.95
  binsize = 1.45, bins = 111 111 221
  1 neighbor lists, perpetual/occasional/extra = 1 0 0
  (1) pair lj/cut/opt, perpetual
      attributes: half, newton on
      pair build: half/bin/newton
      stencil: half/bin/3d/newton
      bin: standard
 rebalancing time: 0.073 seconds
  iteration count = 4
  initial/final maximal load/proc = 30528.000 25187.000
  initial/final imbalance factor  = 1.7306887 1.4278975
  x cuts: 0.0000000 0.20000000 0.40000000 0.60000000 0.80000000 1.0000000
  y cuts: 0.0000000 0.25000000 0.50000000 0.75000000 1.0000000
  z cuts: 0.0000000 0.057291667 0.10937500 0.15625000 0.21875000 0.26041667 0.32812500 0.38020833 0.43229167 0.47916667 0.52083333 0.60416667 1.0000000

####################### WALLS ###########################

variable       epsilonWall equal 2*${epsilon}
variable       epsilonWall equal 2*1

variable       cutoffTop   equal   0.7147*${sigma}
variable       cutoffTop   equal   0.7147*1

variable       cutoffLow   equal   3*${sigma}
variable       cutoffLow   equal   3*1

region         lowWall block EDGE EDGE EDGE EDGE EDGE 2


fix            topWall all wall/lj93 zhi EDGE 	       ${epsilonWall} ${sigma} ${cutoffTop} units box
fix            topWall all wall/lj93 zhi EDGE 	       2 ${sigma} ${cutoffTop} units box
fix            topWall all wall/lj93 zhi EDGE 	       2 1 ${cutoffTop} units box
fix            topWall all wall/lj93 zhi EDGE 	       2 1 0.7147 units box

fix            lowWall all wall/lj93 zlo EDGE                ${epsilonWall} ${sigma} ${cutoffLow} units box
fix            lowWall all wall/lj93 zlo EDGE                2 ${sigma} ${cutoffLow} units box
fix            lowWall all wall/lj93 zlo EDGE                2 1 ${cutoffLow} units box
fix            lowWall all wall/lj93 zlo EDGE                2 1 3 units box


######################  FIXES ############################


fix             1 cubes rigid/nvt/small molecule temp 0.8 0.8 0.25
  create bodies CPU = 0.028 seconds
  512 rigid bodies with 585216 atoms
  6.9282032 = max distance from body owner to body atom

fix             2 solvent nve


## Thermostat

region          regthermo block EDGE EDGE EDGE EDGE 0 20

group           thermo dynamic solvent region regthermo every 1000
dynamic group thermo defined

fix             3 thermo langevin ${startTemp} ${temp} 0.1 156453
fix             3 thermo langevin 0.8 ${temp} 0.1 156453
fix             3 thermo langevin 0.8 0.8 0.1 156453




#### Load balancing

fix             bal all balance 1000 1.05 shift z 10 1.05

############### Diagnostics and computes ###################

compute        com cubes          rigid/local   1 mol x y z
compute        quat cubes         rigid/local   1 mol quatw quati quatj quatk
compute 	cc2 cubes chunk/atom molecule

compute 	msd cubes msd/chunk cc2

thermo          1000
thermo_style    custom step temp epair evdwl etotal press pe ke vol

dump            1 all custom 100000 dump.lammpstrj id mol type x y z
dump            2 all image 10000 image.*.png type type
dump_modify     2 pad 8


dump		image cubes image 10000 image_cubes.*.png type type
dump_modify	image pad 8

dump            3 all movie 5000 movie.avi type type
dump		4 cubes movie 5000 movie.avi type type zoom 2.0

dump           com cubes local 1000 dump.*.xyz c_com[*]
dump           quat cubes      local 1000 dump.*.quat c_quat[*]


restart         500000 restart.dat
timestep        0.005
timer           full
New timer settings: style=full  mode=nosync  timeout=off

run            2000000
Per MPI rank memory allocation (min/avg/max) = 43.61 | 55.16 | 60.26 Mbytes
Step Temp E_pair E_vdwl TotEng Press PotEng KinEng Volume 
       0   0.79666546   -3.8702449   -3.8702449   -2.8401514 -0.0015405771   -3.8702449    1.0300935      8192000 
    1000   0.79655989   -3.8701569   -3.8701569   -2.8401998  0.029276412   -3.8701569     1.029957      8192000 
    2000   0.79671672     -3.87041     -3.87041   -2.8402502  0.028168045     -3.87041    1.0301598      8192000 
    3000   0.79696442   -3.8705279   -3.8705279   -2.8400478  0.026275469   -3.8705279    1.0304801      8192000 
    4000    0.7963216   -3.8698546   -3.8698546   -2.8402057  0.025388695   -3.8698546    1.0296489      8192000 
    5000   0.79620265    -3.869455    -3.869455   -2.8399599  0.027461533    -3.869455    1.0294951      8192000 
    6000   0.79657704   -3.8700911   -3.8700911   -2.8401119  0.023914224   -3.8700911    1.0299792      8192000 
    7000   0.79651488   -3.8700645   -3.8700645   -2.8401657  0.024702637   -3.8700645    1.0298988      8192000 
    8000   0.79600316   -3.8695966   -3.8695966   -2.8403594  0.028947828   -3.8695966    1.0292372      8192000 
    9000   0.79682055   -3.8706136   -3.8706136   -2.8403196  0.023389959   -3.8706136     1.030294      8192000 
   10000    0.7967442   -3.8704863   -3.8704863   -2.8402909  0.026202802   -3.8704863    1.0301953      8192000 
   11000   0.79672226   -3.8704831   -3.8704831   -2.8403162  0.025013892   -3.8704831     1.030167      8192000 
   12000   0.79648179    -3.869973    -3.869973   -2.8401169  0.026033291    -3.869973     1.029856      8192000 
   13000   0.79688742   -3.8702182   -3.8702182   -2.8398376  0.030089981   -3.8702182    1.0303805      8192000 
   14000   0.79688174   -3.8700265   -3.8700265   -2.8396533  0.031830667   -3.8700265    1.0303732      8192000 
   15000    0.7971072   -3.8705045   -3.8705045   -2.8398398  0.029744329   -3.8705045    1.0306647      8192000 
   16000   0.79638966   -3.8698077   -3.8698077   -2.8400707   0.02970879   -3.8698077    1.0297369      8192000 
   17000   0.79724019   -3.8708469   -3.8708469   -2.8400103  0.025515559   -3.8708469    1.0308367      8192000 
   18000   0.79698213   -3.8706186   -3.8706186   -2.8401156  0.027052332   -3.8706186     1.030503      8192000 
   19000   0.79657138   -3.8701316   -3.8701316   -2.8401597  0.030546881   -3.8701316    1.0299719      8192000 
   20000   0.79690328   -3.8705294   -3.8705294   -2.8401284  0.028938071   -3.8705294     1.030401      8192000 
   21000   0.79726277   -3.8712417   -3.8712417   -2.8403758  0.029991632   -3.8712417    1.0308658      8192000 
   22000   0.79700896    -3.870888    -3.870888   -2.8403504  0.026783755    -3.870888    1.0305377      8192000 
   23000   0.79688341   -3.8701875   -3.8701875   -2.8398122  0.028661981   -3.8701875    1.0303753      8192000 
   24000   0.79650028    -3.870035    -3.870035   -2.8401551  0.028654875    -3.870035    1.0298799      8192000 
   25000   0.79700302   -3.8711554   -3.8711554   -2.8406254  0.026363635   -3.8711554      1.03053      8192000 
   26000   0.79663386   -3.8701659   -3.8701659   -2.8401132  0.027247178   -3.8701659    1.0300527      8192000 
   27000   0.79762291   -3.8709622   -3.8709622   -2.8396307  0.026602287   -3.8709622    1.0313315      8192000 
   28000   0.79709577   -3.8706735   -3.8706735   -2.8400236   0.02512523   -3.8706735    1.0306499      8192000 
   29000   0.79694866   -3.8705061   -3.8705061   -2.8400464  0.028864558   -3.8705061    1.0304597      8192000 
   30000   0.79721265   -3.8706427   -3.8706427   -2.8398417  0.027544737   -3.8706427     1.030801      8192000 
   31000   0.79704633   -3.8700637   -3.8700637   -2.8394777  0.029206089   -3.8700637     1.030586      8192000 
   32000   0.79658719   -3.8701448   -3.8701448   -2.8401525  0.023962028   -3.8701448    1.0299923      8192000 
   33000   0.79671296   -3.8700872   -3.8700872   -2.8399323  0.027704601   -3.8700872    1.0301549      8192000 
   34000   0.79645147   -3.8699205   -3.8699205   -2.8401036  0.025458122   -3.8699205    1.0298168      8192000 
   35000   0.79681699   -3.8699912   -3.8699912   -2.8397017  0.026463199   -3.8699912    1.0302894      8192000 
   36000   0.79629745   -3.8696374   -3.8696374   -2.8400197  0.025269019   -3.8696374    1.0296177      8192000 
   37000   0.79647194   -3.8698564   -3.8698564   -2.8400131  0.027572235   -3.8698564    1.0298433      8192000 
   38000   0.79657937   -3.8697667   -3.8697667   -2.8397845  0.026369729   -3.8697667    1.0299822      8192000 
   39000    0.7965444   -3.8699066   -3.8699066   -2.8399696  0.027843182   -3.8699066     1.029937      8192000 
   40000   0.79703027   -3.8702659   -3.8702659   -2.8397007  0.028288358   -3.8702659    1.0305652      8192000 
   41000   0.79683191   -3.8698505   -3.8698505   -2.8395418  0.025758275   -3.8698505    1.0303087      8192000 
   42000   0.79665167   -3.8697306   -3.8697306   -2.8396549  0.029005751   -3.8697306    1.0300757      8192000 
   43000   0.79697237   -3.8699854   -3.8699854    -2.839495  0.027834778   -3.8699854    1.0304904      8192000 
   44000   0.79675033   -3.8698526   -3.8698526   -2.8396494  0.030127717   -3.8698526    1.0302033      8192000 
   45000   0.79673301   -3.8699053   -3.8699053   -2.8397244  0.028669053   -3.8699053    1.0301809      8192000 
   46000   0.79684855   -3.8702652   -3.8702652    -2.839935   0.02673991   -3.8702652    1.0303303      8192000 
   47000   0.79663265   -3.8698191   -3.8698191    -2.839768  0.026884703   -3.8698191    1.0300511      8192000 
   48000   0.79732463   -3.8707755   -3.8707755   -2.8398297   0.02530342   -3.8707755    1.0309458      8192000 
   49000   0.79677657   -3.8699639   -3.8699639   -2.8397267  0.029735258   -3.8699639    1.0302372      8192000 
   50000   0.79694728    -3.870274    -3.870274   -2.8398161   0.02745257    -3.870274    1.0304579      8192000 
   51000   0.79675643   -3.8699097   -3.8699097   -2.8396986  0.027437717   -3.8699097    1.0302111      8192000 
   52000   0.79676143   -3.8704582   -3.8704582   -2.8402406   0.02777734   -3.8704582    1.0302176      8192000 
   53000   0.79704499   -3.8706656   -3.8706656   -2.8400814  0.029764359   -3.8706656    1.0305843      8192000 
   54000   0.79721465   -3.8704223   -3.8704223   -2.8396187  0.030168986   -3.8704223    1.0308036      8192000 
   55000   0.79741009   -3.8708282   -3.8708282   -2.8397719  0.026756658   -3.8708282    1.0310563      8192000 
   56000   0.79713925      -3.8705      -3.8705   -2.8397939   0.03065637      -3.8705    1.0307061      8192000 
   57000   0.79692385   -3.8698718   -3.8698718   -2.8394442  0.027878757   -3.8698718    1.0304276      8192000 
   58000   0.79737535   -3.8706942   -3.8706942   -2.8396828  0.029046511   -3.8706942    1.0310114      8192000 
   59000   0.79662419   -3.8697721   -3.8697721    -2.839732  0.026301087   -3.8697721    1.0300402      8192000 
   60000   0.79720657   -3.8707507   -3.8707507   -2.8399576  0.029301637   -3.8707507    1.0307932      8192000 
   61000   0.79723685   -3.8703492   -3.8703492   -2.8395168  0.029541437   -3.8703492    1.0308323      8192000 
   62000   0.79733004   -3.8702112   -3.8702112   -2.8392584  0.027927589   -3.8702112    1.0309528      8192000 
   63000   0.79721291   -3.8704667   -3.8704667   -2.8396654  0.027353835   -3.8704667    1.0308014      8192000 
   64000   0.79732901   -3.8707782   -3.8707782   -2.8398267  0.025142376   -3.8707782    1.0309515      8192000 
   65000   0.79708509   -3.8703125   -3.8703125   -2.8396764  0.027167782   -3.8703125    1.0306361      8192000 
   66000   0.79695418   -3.8702289   -3.8702289    -2.839762  0.028355056   -3.8702289    1.0304668      8192000 
   67000   0.79684835    -3.869872    -3.869872    -2.839542   0.02915089    -3.869872      1.03033      8192000 
   68000   0.79665159   -3.8700261   -3.8700261   -2.8399505  0.025833066   -3.8700261    1.0300756      8192000 
   69000   0.79647498   -3.8698954   -3.8698954   -2.8400482  0.024468214   -3.8698954    1.0298472      8192000 
   70000     0.796836   -3.8704684   -3.8704684   -2.8401543  0.027374978   -3.8704684     1.030314      8192000 
   71000   0.79697604   -3.8702299   -3.8702299   -2.8397348  0.026172035   -3.8702299    1.0304951      8192000 
   72000   0.79655178   -3.8699363   -3.8699363   -2.8399898   0.02473121   -3.8699363    1.0299465      8192000 
   73000   0.79650746   -3.8697612   -3.8697612    -2.839872  0.028943755   -3.8697612    1.0298892      8192000 
   74000   0.79633785   -3.8694229   -3.8694229    -2.839753  0.028217456   -3.8694229    1.0296699      8192000 
   75000   0.79668507   -3.8701099   -3.8701099    -2.839991  0.026753965   -3.8701099    1.0301189      8192000 
   76000   0.79684113   -3.8702242   -3.8702242   -2.8399036  0.027367252   -3.8702242    1.0303207      8192000 
   77000    0.7966816   -3.8697755   -3.8697755   -2.8396611  0.027325392   -3.8697755    1.0301144      8192000 
   78000   0.79648523   -3.8697634   -3.8697634   -2.8399029  0.030003766   -3.8697634    1.0298605      8192000 
   79000   0.79696359   -3.8702654   -3.8702654   -2.8397864  0.025466667   -3.8702654     1.030479      8192000 
   80000   0.79676823   -3.8698676   -3.8698676   -2.8396412  0.029825375   -3.8698676    1.0302264      8192000 
   81000   0.79687674   -3.8702034   -3.8702034   -2.8398367  0.027864869   -3.8702034    1.0303667      8192000 
   82000   0.79667111   -3.8698853   -3.8698853   -2.8397845  0.031673461   -3.8698853    1.0301008      8192000 
   83000   0.79716178   -3.8706686   -3.8706686   -2.8399333   0.02773511   -3.8706686    1.0307353      8192000 
   84000   0.79691362   -3.8702795   -3.8702795   -2.8398651  0.027600826   -3.8702795    1.0304144      8192000 
   85000    0.7963905   -3.8696285   -3.8696285   -2.8398905  0.028967632   -3.8696285     1.029738      8192000 
   86000   0.79678477   -3.8706446   -3.8706446   -2.8403968  0.026407272   -3.8706446    1.0302478      8192000 
   87000   0.79634521   -3.8698526   -3.8698526   -2.8401731  0.027878243   -3.8698526    1.0296794      8192000 
   88000   0.79652174   -3.8701252   -3.8701252   -2.8402175  0.027717005   -3.8701252    1.0299077      8192000 
   89000   0.79691468   -3.8704895   -3.8704895   -2.8400737  0.026696622   -3.8704895    1.0304158      8192000 
   90000   0.79634625   -3.8703411   -3.8703411   -2.8406603  0.028976313   -3.8703411    1.0296808      8192000 
   91000   0.79729741   -3.8706796   -3.8706796    -2.839769  0.029550686   -3.8706796    1.0309106      8192000 
   92000   0.79699487   -3.8699205   -3.8699205   -2.8394011  0.031452551   -3.8699205    1.0305194      8192000 
   93000    0.7971311    -3.870612    -3.870612   -2.8399164  0.029070786    -3.870612    1.0306956      8192000 
   94000   0.79725172   -3.8706141   -3.8706141   -2.8397626   0.02898159   -3.8706141    1.0308516      8192000 
   95000   0.79712303   -3.8708268   -3.8708268   -2.8401417  0.028466648   -3.8708268    1.0306852      8192000 
   96000   0.79733626   -3.8707185   -3.8707185   -2.8397576  0.028354505   -3.8707185    1.0309609      8192000 
   97000   0.79720681   -3.8704891   -3.8704891   -2.8396956  0.028654546   -3.8704891    1.0307935      8192000 
   98000   0.79698145     -3.87023     -3.87023   -2.8397279  0.029820069     -3.87023    1.0305021      8192000 
   99000   0.79714375   -3.8703835   -3.8703835   -2.8396715  0.024138228   -3.8703835    1.0307119      8192000 
  100000   0.79700991   -3.8701946   -3.8701946   -2.8396557  0.027445869   -3.8701946    1.0305389      8192000 
  101000   0.79673385   -3.8699575   -3.8699575   -2.8397756  0.028841816   -3.8699575    1.0301819      8192000 
  102000    0.7966964   -3.8697056   -3.8697056    -2.839572  0.026620293   -3.8697056    1.0301335      8192000 
  103000   0.79695818   -3.8700939   -3.8700939   -2.8396219  0.028581436   -3.8700939     1.030472      8192000 
  104000   0.79683641   -3.8701077   -3.8701077   -2.8397931  0.025464468   -3.8701077    1.0303146      8192000 
  105000   0.79640936   -3.8693227   -3.8693227   -2.8395603  0.030014992   -3.8693227    1.0297624      8192000 
  106000   0.79697528   -3.8701424   -3.8701424   -2.8396483  0.025903908   -3.8701424    1.0304941      8192000 
  107000   0.79618177   -3.8684698   -3.8684698   -2.8390017  0.029357608   -3.8684698    1.0294681      8192000 
  108000   0.79660133   -3.8696096   -3.8696096    -2.839599  0.025678953   -3.8696096    1.0300106      8192000 
  109000   0.79644055   -3.8690996   -3.8690996   -2.8392968  0.027465386   -3.8690996    1.0298027      8192000 
  110000   0.79706061    -3.869648    -3.869648   -2.8390435  0.024751136    -3.869648    1.0306044      8192000 
  111000   0.79713772   -3.8700973   -3.8700973   -2.8393931  0.026846545   -3.8700973    1.0307042      8192000 
  112000   0.79679036   -3.8693951   -3.8693951   -2.8391401  0.026971516   -3.8693951     1.030255      8192000 
  113000   0.79694632   -3.8693216   -3.8693216   -2.8388649  0.024907012   -3.8693216    1.0304567      8192000 
  114000   0.79670878   -3.8697445   -3.8697445    -2.839595  0.027789221   -3.8697445    1.0301495      8192000 
  115000   0.79702299   -3.8698347   -3.8698347   -2.8392789  0.026982032   -3.8698347    1.0305558      8192000 
  116000    0.7967286   -3.8691801   -3.8691801    -2.839005  0.025338754   -3.8691801    1.0301752      8192000 
  117000   0.79684516    -3.869237    -3.869237   -2.8389111  0.028723852    -3.869237    1.0303259      8192000 
  118000   0.79690286   -3.8695483   -3.8695483   -2.8391478  0.027274686   -3.8695483    1.0304005      8192000 
  119000   0.79671364   -3.8693556   -3.8693556   -2.8391998  0.028127959   -3.8693556    1.0301558      8192000 
  120000   0.79717771   -3.8692709   -3.8692709   -2.8385151  0.029003827   -3.8692709    1.0307559      8192000 
  121000   0.79700199   -3.8691552   -3.8691552   -2.8386265  0.025053595   -3.8691552    1.0305287      8192000 
  122000   0.79675571   -3.8692399   -3.8692399   -2.8390297  0.028866681   -3.8692399    1.0302102      8192000 
  123000   0.79721152   -3.8697345   -3.8697345   -2.8389349  0.025787303   -3.8697345    1.0307996      8192000 
  124000    0.7969481   -3.8694827   -3.8694827   -2.8390237  0.028804249   -3.8694827     1.030459      8192000 
  125000   0.79752648   -3.8698643   -3.8698643   -2.8386575   0.02942545   -3.8698643    1.0312068      8192000 
  126000   0.79716018    -3.869722    -3.869722   -2.8389888  0.029765538    -3.869722    1.0307332      8192000 
  127000   0.79730079   -3.8697914   -3.8697914   -2.8388763  0.027403299   -3.8697914     1.030915      8192000 
  128000   0.79705813   -3.8693385   -3.8693385   -2.8387372  0.027598391   -3.8693385    1.0306012      8192000 
  129000   0.79744367   -3.8699977   -3.8699977    -2.838898  0.027270309   -3.8699977    1.0310998      8192000 
  130000    0.7970738   -3.8696514   -3.8696514   -2.8390299  0.028731109   -3.8696514    1.0306215      8192000 
  131000   0.79753222   -3.8703255   -3.8703255   -2.8391112  0.024357147   -3.8703255    1.0312142      8192000 
  132000   0.79679062   -3.8694453   -3.8694453     -2.83919  0.027310588   -3.8694453    1.0302554      8192000 
  133000   0.79712742   -3.8699579   -3.8699579   -2.8392671  0.025487667   -3.8699579    1.0306908      8192000 
  134000   0.79678157   -3.8697511   -3.8697511   -2.8395074  0.024902242   -3.8697511    1.0302437      8192000 
  135000   0.79668782   -3.8693396   -3.8693396   -2.8392172   0.02703493   -3.8693396    1.0301224      8192000 
  136000   0.79665364   -3.8697181   -3.8697181   -2.8396399  0.025868497   -3.8697181    1.0300782      8192000 
  137000   0.79678742   -3.8695585   -3.8695585   -2.8393073   0.02590099   -3.8695585    1.0302512      8192000 
  138000   0.79672728   -3.8692723   -3.8692723   -2.8390988  0.028840746   -3.8692723    1.0301735      8192000 
  139000    0.7966966   -3.8696409   -3.8696409   -2.8395071   0.02754477   -3.8696409    1.0301338      8192000 
  140000   0.79735791   -3.8695501   -3.8695501   -2.8385612  0.027441893   -3.8695501    1.0309889      8192000 
  141000   0.79717468   -3.8696574   -3.8696574   -2.8389055  0.028304975   -3.8696574    1.0307519      8192000 
  142000   0.79673428   -3.8694605   -3.8694605   -2.8392779  0.026710111   -3.8694605    1.0301825      8192000 
  143000   0.79690085   -3.8697182   -3.8697182   -2.8393203  0.026665521   -3.8697182    1.0303979      8192000 
  144000   0.79642211    -3.868929    -3.868929   -2.8391501  0.026594942    -3.868929    1.0297789      8192000 
  145000   0.79688431   -3.8696964   -3.8696964   -2.8393199  0.025373668   -3.8696964    1.0303765      8192000 
  146000   0.79686029   -3.8691505   -3.8691505    -2.838805  0.027601607   -3.8691505    1.0303454      8192000 
  147000    0.7970766   -3.8692866   -3.8692866   -2.8386615  0.027583518   -3.8692866    1.0306251      8192000 
  148000   0.79702438   -3.8692559   -3.8692559   -2.8386983  0.029180197   -3.8692559    1.0305576      8192000 
  149000   0.79654152   -3.8689497   -3.8689497   -2.8390164  0.028738312   -3.8689497    1.0299333      8192000 
  150000   0.79694587   -3.8692964   -3.8692964   -2.8388403  0.027829478   -3.8692964    1.0304561      8192000 
  151000   0.79692076   -3.8696982   -3.8696982   -2.8392746  0.025634419   -3.8696982    1.0304236      8192000 
  152000   0.79708475   -3.8697846   -3.8697846   -2.8391489  0.028240937   -3.8697846    1.0306357      8192000 
  153000   0.79726333   -3.8696905   -3.8696905   -2.8388239  0.027480317   -3.8696905    1.0308666      8192000 
  154000   0.79703993   -3.8694943   -3.8694943   -2.8389166  0.031022934   -3.8694943    1.0305777      8192000 
  155000   0.79710562   -3.8694528   -3.8694528   -2.8387902  0.028991011   -3.8694528    1.0306627      8192000 
  156000   0.79699043   -3.8692343   -3.8692343   -2.8387206  0.028947449   -3.8692343    1.0305137      8192000 
  157000   0.79696027   -3.8692198   -3.8692198   -2.8387451  0.026943406   -3.8692198    1.0304747      8192000 
  158000   0.79724505   -3.8698099   -3.8698099    -2.838967  0.026280291   -3.8698099    1.0308429      8192000 
  159000   0.79708842   -3.8694554   -3.8694554    -2.838815  0.028532254   -3.8694554    1.0306404      8192000 
  160000   0.79719166   -3.8695717   -3.8695717   -2.8387978  0.028070593   -3.8695717    1.0307739      8192000 
  161000    0.7972774   -3.8693249   -3.8693249   -2.8384402  0.027045868   -3.8693249    1.0308848      8192000 
  162000   0.79757012    -3.869965    -3.869965   -2.8387018  0.026053819    -3.869965    1.0312633      8192000 
  163000   0.79720816   -3.8698408   -3.8698408   -2.8390456  0.028245024   -3.8698408    1.0307952      8192000 
  164000   0.79690419   -3.8695108   -3.8695108   -2.8391086  0.027845405   -3.8695108    1.0304022      8192000 
  165000   0.79678295   -3.8693333   -3.8693333   -2.8390879  0.030074772   -3.8693333    1.0302454      8192000 
  166000   0.79709938   -3.8693208   -3.8693208   -2.8386662  0.027647882   -3.8693208    1.0306546      8192000 
  167000   0.79723988   -3.8696366   -3.8696366   -2.8388004  0.026407232   -3.8696366    1.0308362      8192000 
  168000   0.79665085   -3.8689913   -3.8689913   -2.8389167  0.027589049   -3.8689913    1.0300746      8192000 
  169000   0.79700518   -3.8692893   -3.8692893   -2.8387565   0.02570172   -3.8692893    1.0305328      8192000 
  170000   0.79671214   -3.8689171   -3.8689171   -2.8387633   0.02630223   -3.8689171    1.0301539      8192000 
  171000   0.79677251   -3.8691031   -3.8691031   -2.8388712  0.027696292   -3.8691031    1.0302319      8192000 
  172000   0.79649937   -3.8685955   -3.8685955   -2.8387168  0.026815522   -3.8685955    1.0298788      8192000 
  173000   0.79666161    -3.868722    -3.868722   -2.8386335  0.027879783    -3.868722    1.0300885      8192000 
  174000   0.79670319   -3.8690445   -3.8690445   -2.8389022  0.027694507   -3.8690445    1.0301423      8192000 
  175000   0.79659357   -3.8687905   -3.8687905     -2.83879  0.025735194   -3.8687905    1.0300006      8192000 
  176000   0.79682404   -3.8692223   -3.8692223   -2.8389237  0.026725733   -3.8692223    1.0302986      8192000 
  177000     0.796722   -3.8688735   -3.8688735   -2.8387069  0.028359669   -3.8688735    1.0301666      8192000 
  178000   0.79672014   -3.8687207   -3.8687207   -2.8385565  0.025224254   -3.8687207    1.0301642      8192000 
  179000   0.79662831    -3.868964    -3.868964   -2.8389185  0.025988134    -3.868964    1.0300455      8192000 
  180000   0.79694897   -3.8693651   -3.8693651    -2.838905  0.025260175   -3.8693651    1.0304601      8192000 
  181000   0.79698869   -3.8697125   -3.8697125    -2.839201   0.02399096   -3.8697125    1.0305115      8192000 
  182000    0.7969679   -3.8695776   -3.8695776    -2.839093   0.02744612   -3.8695776    1.0304846      8192000 
  183000   0.79736806   -3.8699683   -3.8699683   -2.8389663   0.02411872   -3.8699683     1.031002      8192000 
  184000   0.79725013   -3.8693426   -3.8693426   -2.8384931  0.027486694   -3.8693426    1.0308495      8192000 
  185000   0.79684119   -3.8692843   -3.8692843   -2.8389636  0.028783613   -3.8692843    1.0303207      8192000 
  186000   0.79713296   -3.8696968   -3.8696968   -2.8389989  0.028359424   -3.8696968     1.030698      8192000 
  187000   0.79720368   -3.8695094   -3.8695094     -2.83872  0.028538234   -3.8695094    1.0307894      8192000 
  188000   0.79712437   -3.8694121   -3.8694121   -2.8387252  0.030068583   -3.8694121    1.0306869      8192000 
  189000   0.79747268    -3.870322    -3.870322   -2.8391848  0.028627704    -3.870322    1.0311373      8192000 
  190000   0.79744754   -3.8698175   -3.8698175   -2.8387128   0.02951904   -3.8698175    1.0311048      8192000 
  191000   0.79712125   -3.8697457   -3.8697457   -2.8390628  0.028195636   -3.8697457    1.0306829      8192000 
  192000    0.7969841   -3.8694418   -3.8694418   -2.8389363  0.027662478   -3.8694418    1.0305055      8192000 
  193000   0.79670008   -3.8695959   -3.8695959   -2.8394576  0.028229735   -3.8695959    1.0301383      8192000 
  194000   0.79686539   -3.8694815   -3.8694815   -2.8391295  0.027042771   -3.8694815     1.030352      8192000 
  195000   0.79697857   -3.8695614   -3.8695614   -2.8390631  0.027249546   -3.8695614    1.0304984      8192000 
  196000   0.79684387   -3.8695589   -3.8695589   -2.8392346  0.029807404   -3.8695589    1.0303242      8192000 
  197000   0.79725131   -3.8701546   -3.8701546   -2.8393035  0.029249449   -3.8701546     1.030851      8192000 
  198000   0.79670355   -3.8697187   -3.8697187   -2.8395759  0.029240955   -3.8697187    1.0301428      8192000 
  199000   0.79744058   -3.8701268   -3.8701268   -2.8390311  0.027223286   -3.8701268    1.0310958      8192000 
  200000   0.79701847   -3.8702493   -3.8702493   -2.8396993  0.029718362   -3.8702493      1.03055      8192000 
  201000    0.7971349   -3.8699536   -3.8699536   -2.8392531  0.029929188   -3.8699536    1.0307005      8192000 
  202000   0.79710857   -3.8702462   -3.8702462   -2.8395798  0.028303607   -3.8702462    1.0306665      8192000 
  203000   0.79700464   -3.8696083   -3.8696083   -2.8390762  0.029305486   -3.8696083    1.0305321      8192000 
  204000   0.79664627   -3.8693292   -3.8693292   -2.8392605  0.027965495   -3.8693292    1.0300687      8192000 
  205000   0.79685714   -3.8699637   -3.8699637   -2.8396224  0.028878551   -3.8699637    1.0303414      8192000 
  206000   0.79689242   -3.8692576   -3.8692576   -2.8388706  0.028825472   -3.8692576     1.030387      8192000 
  207000   0.79673627   -3.8694247   -3.8694247   -2.8392396  0.026182583   -3.8694247    1.0301851      8192000 
  208000   0.79664199   -3.8689283   -3.8689283   -2.8388651  0.031728896   -3.8689283    1.0300632      8192000 
  209000   0.79743825   -3.8701034   -3.8701034   -2.8390106  0.025946141   -3.8701034    1.0310927      8192000 
  210000   0.79708483   -3.8698769   -3.8698769   -2.8392411  0.027444441   -3.8698769    1.0306358      8192000 
  211000   0.79726087   -3.8696666   -3.8696666   -2.8388032  0.025408632   -3.8696666    1.0308634      8192000 
  212000     0.797107   -3.8696308   -3.8696308   -2.8389664  0.027619811   -3.8696308    1.0306644      8192000 
  213000   0.79686053   -3.8690025   -3.8690025   -2.8386568  0.029196331   -3.8690025    1.0303457      8192000 
  214000   0.79713147   -3.8696126   -3.8696126   -2.8389165  0.025525003   -3.8696126    1.0306961      8192000 
  215000   0.79689633   -3.8693354   -3.8693354   -2.8389434  0.028186365   -3.8693354     1.030392      8192000 
  216000   0.79640484    -3.868877    -3.868877   -2.8391205  0.027503401    -3.868877    1.0297565      8192000 
  217000   0.79703141   -3.8689714   -3.8689714   -2.8384048  0.027639201   -3.8689714    1.0305667      8192000 
  218000   0.79660408   -3.8687359   -3.8687359   -2.8387218  0.027920577   -3.8687359    1.0300142      8192000 
  219000   0.79682571   -3.8689504   -3.8689504   -2.8386497  0.030575346   -3.8689504    1.0303007      8192000 
  220000   0.79713514   -3.8693972   -3.8693972   -2.8386964  0.026365823   -3.8693972    1.0307008      8192000 
  221000   0.79705115   -3.8690573   -3.8690573   -2.8384651  0.025548382   -3.8690573    1.0305922      8192000 
  222000   0.79679471   -3.8689356   -3.8689356   -2.8386749  0.027546716   -3.8689356    1.0302606      8192000 
  223000   0.79696269    -3.869129    -3.869129   -2.8386512  0.029651999    -3.869129    1.0304778      8192000 
  224000   0.79704115   -3.8693591   -3.8693591   -2.8387798  0.027975976   -3.8693591    1.0305793      8192000 
  225000   0.79728444   -3.8692865   -3.8692865   -2.8383926  0.026688098   -3.8692865    1.0308939      8192000 
  226000   0.79738976   -3.8693088   -3.8693088   -2.8382788  0.026467066   -3.8693088      1.03103      8192000 
  227000   0.79738528   -3.8693226   -3.8693226   -2.8382984   0.02840495   -3.8693226    1.0310243      8192000 
  228000   0.79721442   -3.8690579   -3.8690579   -2.8382546  0.028948588   -3.8690579    1.0308033      8192000 
  229000   0.79694416   -3.8690274   -3.8690274   -2.8385735  0.029093255   -3.8690274    1.0304539      8192000 
  230000   0.79730103   -3.8690868   -3.8690868   -2.8381715  0.027743419   -3.8690868    1.0309153      8192000 
  231000   0.79705557   -3.8692308   -3.8692308   -2.8386329  0.026281765   -3.8692308    1.0305979      8192000 
  232000   0.79734253    -3.869414    -3.869414   -2.8384451  0.027813346    -3.869414     1.030969      8192000 
  233000   0.79721614   -3.8689218   -3.8689218   -2.8381163  0.027256209   -3.8689218    1.0308055      8192000 
  234000   0.79736749   -3.8689774   -3.8689774   -2.8379762  0.030122879   -3.8689774    1.0310013      8192000 
  235000   0.79687216   -3.8683276   -3.8683276   -2.8379668   0.02855811   -3.8683276    1.0303608      8192000 
  236000    0.7971998    -3.869044    -3.869044   -2.8382596  0.026935102    -3.869044    1.0307844      8192000 
  237000   0.79743261   -3.8693766   -3.8693766   -2.8382912  0.028979341   -3.8693766    1.0310855      8192000 
  238000   0.79721577   -3.8693137   -3.8693137   -2.8385086  0.027703085   -3.8693137    1.0308051      8192000 
  239000   0.79732004   -3.8690935   -3.8690935   -2.8381536  0.030845025   -3.8690935    1.0309399      8192000 
  240000   0.79726244   -3.8690458   -3.8690458   -2.8381803  0.029841577   -3.8690458    1.0308654      8192000 
  241000    0.7972148    -3.869266    -3.869266   -2.8384622  0.025768187    -3.869266    1.0308038      8192000 
  242000   0.79709738   -3.8691974   -3.8691974   -2.8385454   0.02646938   -3.8691974     1.030652      8192000 
  243000   0.79706685   -3.8688094   -3.8688094   -2.8381969  0.028949671   -3.8688094    1.0306125      8192000 
  244000   0.79708543   -3.8691511   -3.8691511   -2.8385145  0.028373088   -3.8691511    1.0306365      8192000 
  245000   0.79710213   -3.8693865   -3.8693865   -2.8387284  0.026180437   -3.8693865    1.0306581      8192000 
  246000   0.79725903   -3.8692215   -3.8692215   -2.8383605  0.027977498   -3.8692215     1.030861      8192000 
  247000   0.79679262   -3.8687701   -3.8687701   -2.8385122  0.027474986   -3.8687701    1.0302579      8192000 
  248000   0.79686617   -3.8691433   -3.8691433   -2.8387903  0.024952435   -3.8691433     1.030353      8192000 
  249000   0.79671569   -3.8685603   -3.8685603   -2.8384019  0.031338528   -3.8685603    1.0301585      8192000 
  250000   0.79725873   -3.8689152   -3.8689152   -2.8380546  0.026779286   -3.8689152    1.0308606      8192000 
  251000   0.79688971   -3.8685998   -3.8685998   -2.8382164  0.028472825   -3.8685998    1.0303835      8192000 
  252000    0.7973307    -3.869184    -3.869184   -2.8382303  0.027327797    -3.869184    1.0309537      8192000 
  253000   0.79745361   -3.8692895   -3.8692895   -2.8381769  0.029576265   -3.8692895    1.0311126      8192000 
  254000   0.79710996   -3.8689236   -3.8689236   -2.8382554  0.030687325   -3.8689236    1.0306683      8192000 
  255000   0.79728735   -3.8693116   -3.8693116   -2.8384139  0.031695983   -3.8693116    1.0308976      8192000 
  256000   0.79742095   -3.8692987   -3.8692987   -2.8382284  0.029047336   -3.8692987    1.0310704      8192000 
  257000   0.79742253   -3.8692391   -3.8692391   -2.8381667  0.027957896   -3.8692391    1.0310724      8192000 
  258000   0.79744823   -3.8688597   -3.8688597   -2.8377541  0.025127124   -3.8688597    1.0311056      8192000 
  259000   0.79713797   -3.8687302   -3.8687302   -2.8380257  0.030374622   -3.8687302    1.0307045      8192000 
  260000   0.79741842   -3.8687367   -3.8687367   -2.8376696  0.030436819   -3.8687367    1.0310671      8192000 
  261000   0.79721043   -3.8688503   -3.8688503   -2.8380521  0.029534206   -3.8688503    1.0307982      8192000 
  262000   0.79786608   -3.8693298   -3.8693298   -2.8376838  0.027541198   -3.8693298    1.0316459      8192000 
  263000   0.79760296    -3.869305    -3.869305   -2.8379993    0.0279954    -3.869305    1.0313057      8192000 
  264000    0.7976455   -3.8692301   -3.8692301   -2.8378694  0.029076447   -3.8692301    1.0313607      8192000 
  265000   0.79722943   -3.8683779   -3.8683779   -2.8375551  0.029619752   -3.8683779    1.0308227      8192000 
  266000   0.79740126    -3.868676    -3.868676   -2.8376311  0.028451319    -3.868676    1.0310449      8192000 
  267000   0.79706595   -3.8687685   -3.8687685   -2.8381571  0.027623238   -3.8687685    1.0306114      8192000 
  268000   0.79716733   -3.8686303   -3.8686303   -2.8378879  0.028414319   -3.8686303    1.0307424      8192000 
  269000   0.79673087   -3.8682853   -3.8682853   -2.8381072  0.026361467   -3.8682853    1.0301781      8192000 
  270000   0.79718657   -3.8687556   -3.8687556   -2.8379883  0.025402304   -3.8687556    1.0307673      8192000 
  271000   0.79651284   -3.8678453   -3.8678453   -2.8379491  0.028057189   -3.8678453    1.0298962      8192000 
  272000   0.79687792   -3.8684741   -3.8684741   -2.8381058  0.027449325   -3.8684741    1.0303682      8192000 
  273000   0.79677118   -3.8680083   -3.8680083   -2.8377781  0.027512717   -3.8680083    1.0302302      8192000 
  274000    0.7969142   -3.8684827   -3.8684827   -2.8380676  0.024858749   -3.8684827    1.0304151      8192000 
  275000   0.79723814   -3.8684699   -3.8684699   -2.8376359  0.029533413   -3.8684699     1.030834      8192000 
  276000   0.79721399    -3.868712    -3.868712   -2.8379093  0.028419278    -3.868712    1.0308028      8192000 
  277000   0.79717359   -3.8686132   -3.8686132   -2.8378627  0.026144364   -3.8686132    1.0307505      8192000 
  278000   0.79722936   -3.8684291   -3.8684291   -2.8376065   0.02595071   -3.8684291    1.0308226      8192000 
  279000   0.79707397   -3.8685042   -3.8685042   -2.8378825  0.029347603   -3.8685042    1.0306217      8192000 
  280000   0.79715437   -3.8685645   -3.8685645   -2.8378388  0.026737354   -3.8685645    1.0307257      8192000 
  281000   0.79695592   -3.8688027   -3.8688027   -2.8383337  0.028172213   -3.8688027    1.0304691      8192000 
  282000    0.7970407   -3.8686231   -3.8686231   -2.8380444  0.028783799   -3.8686231    1.0305787      8192000 
  283000   0.79739197   -3.8690132   -3.8690132   -2.8379803  0.026643717   -3.8690132    1.0310329      8192000 
  284000   0.79702386   -3.8688207   -3.8688207   -2.8382638  0.025636349   -3.8688207    1.0305569      8192000 
  285000   0.79756963   -3.8693262   -3.8693262   -2.8380636  0.030820883   -3.8693262    1.0312626      8192000 
  286000   0.79748583   -3.8691946   -3.8691946   -2.8380403   0.02931978   -3.8691946    1.0311543      8192000 
  287000   0.79715142   -3.8690061   -3.8690061   -2.8382842  0.027792451   -3.8690061    1.0307219      8192000 
  288000   0.79767028   -3.8692046   -3.8692046   -2.8378119  0.027060053   -3.8692046    1.0313928      8192000 
  289000   0.79758828   -3.8694689   -3.8694689   -2.8381822  0.031318472   -3.8694689    1.0312867      8192000 
  290000   0.79724425   -3.8689069   -3.8689069    -2.838065  0.027795952   -3.8689069    1.0308419      8192000 
  291000   0.79712107   -3.8688185   -3.8688185   -2.8381359   0.03076899   -3.8688185    1.0306826      8192000 
  292000   0.79761024   -3.8693262   -3.8693262   -2.8380111  0.029915998   -3.8693262    1.0313151      8192000 
  293000   0.79755498   -3.8692581   -3.8692581   -2.8380144  0.028107754   -3.8692581    1.0312437      8192000 
  294000   0.79776462   -3.8688928   -3.8688928   -2.8373781  0.028174979   -3.8688928    1.0315147      8192000 
  295000   0.79702505   -3.8684249   -3.8684249   -2.8378665  0.030847159   -3.8684249    1.0305585      8192000 
  296000   0.79799759    -3.869673    -3.869673    -2.837857  0.027385803    -3.869673     1.031816      8192000 
  297000   0.79729639   -3.8686224   -3.8686224    -2.837713  0.031936542   -3.8686224    1.0309093      8192000 
  298000   0.79719844   -3.8687398   -3.8687398   -2.8379571  0.029024622   -3.8687398    1.0307827      8192000 
  299000   0.79760536   -3.8691077   -3.8691077   -2.8377989  0.025260552   -3.8691077    1.0313088      8192000 
  300000   0.79706906   -3.8683834   -3.8683834    -2.837768  0.028483515   -3.8683834    1.0306154      8192000 
  301000   0.79747562   -3.8689554   -3.8689554   -2.8378144  0.025241835   -3.8689554    1.0311411      8192000 
  302000   0.79694022   -3.8683686   -3.8683686   -2.8379198  0.026229219   -3.8683686    1.0304488      8192000 
  303000   0.79717036    -3.868536    -3.868536   -2.8377896  0.027001125    -3.868536    1.0307464      8192000 
  304000   0.79663647   -3.8678982   -3.8678982   -2.8378421  0.028103072   -3.8678982     1.030056      8192000 
  305000   0.79658607   -3.8680383   -3.8680383   -2.8380475  0.026447272   -3.8680383    1.0299909      8192000 
  306000   0.79709572   -3.8684318   -3.8684318    -2.837782  0.026255869   -3.8684318    1.0306498      8192000 
  307000   0.79738311   -3.8687782   -3.8687782   -2.8377568  0.026347433   -3.8687782    1.0310215      8192000 
  308000   0.79652786   -3.8679348   -3.8679348   -2.8380192  0.027348192   -3.8679348    1.0299156      8192000 
  309000   0.79724479   -3.8688594   -3.8688594   -2.8380168  0.026810596   -3.8688594    1.0308426      8192000 
  310000   0.79691384   -3.8684747   -3.8684747     -2.83806  0.030004364   -3.8684747    1.0304147      8192000 
  311000   0.79722605   -3.8685858   -3.8685858   -2.8377674  0.027569375   -3.8685858    1.0308184      8192000 
  312000   0.79695922   -3.8685509   -3.8685509   -2.8380775  0.029939993   -3.8685509    1.0304734      8192000 
  313000   0.79729233   -3.8687568   -3.8687568   -2.8378527  0.027400296   -3.8687568    1.0309041      8192000 
  314000   0.79719094   -3.8684929   -3.8684929     -2.83772  0.027652367   -3.8684929     1.030773      8192000 
  315000   0.79730296   -3.8686857   -3.8686857   -2.8377679  0.031544555   -3.8686857    1.0309178      8192000 
  316000    0.7973077   -3.8687956   -3.8687956   -2.8378717  0.027451725   -3.8687956    1.0309239      8192000 
  317000   0.79747716   -3.8692772   -3.8692772   -2.8381341  0.028007052   -3.8692772     1.031143      8192000 
  318000    0.7975674   -3.8692729   -3.8692729   -2.8380132  0.025163371   -3.8692729    1.0312597      8192000 
  319000   0.79705171   -3.8682731   -3.8682731   -2.8376801  0.028726034   -3.8682731    1.0305929      8192000 
  320000    0.7974842   -3.8692119   -3.8692119   -2.8380597  0.025871522   -3.8692119    1.0311522      8192000 
  321000   0.79748261   -3.8693067   -3.8693067   -2.8381566  0.025707335   -3.8693067    1.0311501      8192000 
  322000   0.79771279   -3.8695033   -3.8695033   -2.8380555   0.02918454   -3.8695033    1.0314477      8192000 
  323000   0.79767595    -3.869409    -3.869409   -2.8380089  0.030864662    -3.869409    1.0314001      8192000 
  324000   0.79772971   -3.8690015   -3.8690015   -2.8375319  0.031180128   -3.8690015    1.0314696      8192000 
  325000   0.79717595   -3.8690085   -3.8690085    -2.838255  0.028962473   -3.8690085    1.0307536      8192000 
  326000   0.79755772    -3.869117    -3.869117   -2.8378698  0.028838457    -3.869117    1.0312472      8192000 
  327000   0.79750384   -3.8688831   -3.8688831   -2.8377056  0.028991793   -3.8688831    1.0311775      8192000 
  328000   0.79770574   -3.8690725   -3.8690725   -2.8376339  0.024697173   -3.8690725    1.0314386      8192000 
  329000   0.79724754   -3.8689388   -3.8689388   -2.8380926  0.028366601   -3.8689388    1.0308462      8192000 
  330000   0.79708379     -3.86894     -3.86894   -2.8383056  0.029445359     -3.86894    1.0306344      8192000 
  331000   0.79739922   -3.8692171   -3.8692171   -2.8381748  0.026674613   -3.8692171    1.0310423      8192000 
  332000   0.79709041   -3.8688772   -3.8688772   -2.8382343  0.029798148   -3.8688772     1.030643      8192000 
  333000   0.79711857   -3.8692806   -3.8692806   -2.8386012  0.025189674   -3.8692806    1.0306794      8192000 
  334000   0.79693516   -3.8682202   -3.8682202    -2.837778  0.030543792   -3.8682202    1.0304422      8192000 
  335000   0.79714959   -3.8686132   -3.8686132   -2.8378937  0.027521216   -3.8686132    1.0307195      8192000 
  336000   0.79703965   -3.8685229   -3.8685229   -2.8379455  0.027071493   -3.8685229    1.0305774      8192000 
  337000   0.79700576   -3.8683511   -3.8683511   -2.8378176  0.029324338   -3.8683511    1.0305335      8192000 
  338000   0.79711693   -3.8683147   -3.8683147   -2.8376375  0.028901378   -3.8683147    1.0306773      8192000 
  339000   0.79723308   -3.8689508   -3.8689508   -2.8381234  0.026982275   -3.8689508    1.0308274      8192000 
  340000   0.79714437   -3.8689494   -3.8689494   -2.8382366  0.024637524   -3.8689494    1.0307127      8192000 
  341000   0.79713561   -3.8688504   -3.8688504    -2.838149  0.027158924   -3.8688504    1.0307014      8192000 
  342000   0.79683163   -3.8684701   -3.8684701   -2.8381618  0.026670707   -3.8684701    1.0303084      8192000 
  343000   0.79698296   -3.8683581   -3.8683581    -2.837854  0.025265551   -3.8683581    1.0305041      8192000 
  344000   0.79706414   -3.8680818   -3.8680818   -2.8374728  0.027326449   -3.8680818     1.030609      8192000 
  345000   0.79689802   -3.8684199   -3.8684199   -2.8380256  0.025094391   -3.8684199    1.0303942      8192000 
  346000   0.79670229   -3.8681696   -3.8681696   -2.8380284  0.027522398   -3.8681696    1.0301411      8192000 
  347000   0.79717165   -3.8686325   -3.8686325   -2.8378845   0.02844993   -3.8686325     1.030748      8192000 
  348000   0.79773039   -3.8692671   -3.8692671   -2.8377966  0.026874921   -3.8692671    1.0314705      8192000 
  349000   0.79742258    -3.868748    -3.868748   -2.8376755  0.029211016    -3.868748    1.0310725      8192000 
  350000   0.79733607    -3.868834    -3.868834   -2.8378733  0.027570985    -3.868834    1.0309606      8192000 
  351000    0.7972914   -3.8687943   -3.8687943   -2.8378914  0.028612561   -3.8687943    1.0309029      8192000 
  352000   0.79739906    -3.868932    -3.868932   -2.8378899  0.028630351    -3.868932    1.0310421      8192000 
  353000   0.79755725   -3.8689033   -3.8689033   -2.8376567  0.026453717   -3.8689033    1.0312466      8192000 
  354000   0.79721278   -3.8684235   -3.8684235   -2.8376223  0.031927782   -3.8684235    1.0308012      8192000 
  355000   0.79772077   -3.8689303   -3.8689303   -2.8374722  0.028452162   -3.8689303     1.031458      8192000 
  356000   0.79740917   -3.8686985   -3.8686985   -2.8376434  0.028494661   -3.8686985    1.0310551      8192000 
  357000   0.79754103   -3.8688088   -3.8688088   -2.8375831  0.030387873   -3.8688088    1.0312256      8192000 
  358000   0.79767479   -3.8688813   -3.8688813   -2.8374827  0.026529632   -3.8688813    1.0313986      8192000 
  359000   0.79778782   -3.8692048   -3.8692048     -2.83766  0.028946866   -3.8692048    1.0315447      8192000 
  360000   0.79757658   -3.8693281   -3.8693281   -2.8380565  0.029373312   -3.8693281    1.0312716      8192000 
  361000   0.79729294   -3.8686783   -3.8686783   -2.8377734  0.027946075   -3.8686783    1.0309048      8192000 
  362000   0.79759885   -3.8688808   -3.8688808   -2.8375804  0.026745771   -3.8688808    1.0313004      8192000 
  363000   0.79708425   -3.8686933   -3.8686933   -2.8380583  0.027104911   -3.8686933     1.030635      8192000 
  364000   0.79740638   -3.8688524   -3.8688524   -2.8378008   0.02738038   -3.8688524    1.0310515      8192000 
  365000   0.79719008   -3.8682404   -3.8682404   -2.8374685  0.028544295   -3.8682404    1.0307719      8192000 
  366000   0.79706529   -3.8684136   -3.8684136   -2.8378031  0.029295799   -3.8684136    1.0306105      8192000 
  367000   0.79763494   -3.8691927   -3.8691927   -2.8378457  0.026277047   -3.8691927    1.0313471      8192000 
  368000   0.79742863   -3.8685587   -3.8685587   -2.8374784  0.029446682   -3.8685587    1.0310803      8192000 
  369000   0.79710191    -3.868169    -3.868169   -2.8375111  0.027031723    -3.868169    1.0306579      8192000 
  370000     0.797008   -3.8679359   -3.8679359   -2.8373995  0.027290814   -3.8679359    1.0305364      8192000 
  371000   0.79693864   -3.8681969   -3.8681969   -2.8377502  0.028700959   -3.8681969    1.0304467      8192000 
  372000    0.7974051    -3.868249    -3.868249   -2.8371991  0.027101089    -3.868249    1.0310499      8192000 
  373000    0.7973431   -3.8682838   -3.8682838   -2.8373141  0.028048899   -3.8682838    1.0309697      8192000 
  374000   0.79709184   -3.8681503   -3.8681503   -2.8375055  0.028718106   -3.8681503    1.0306448      8192000 
  375000   0.79686998   -3.8677531   -3.8677531   -2.8373951  0.029301318   -3.8677531     1.030358      8192000 
  376000   0.79690827   -3.8675998   -3.8675998   -2.8371923  0.030541373   -3.8675998    1.0304075      8192000 
  377000   0.79727642   -3.8681531   -3.8681531   -2.8372696  0.027506487   -3.8681531    1.0308835      8192000 
  378000   0.79712325    -3.867974    -3.867974   -2.8372886  0.029408889    -3.867974    1.0306854      8192000 
  379000   0.79769479   -3.8684194   -3.8684194   -2.8369949  0.024709386   -3.8684194    1.0314245      8192000 
  380000   0.79774881   -3.8685312   -3.8685312   -2.8370369  0.026203332   -3.8685312    1.0314943      8192000 
  381000   0.79734978   -3.8682537   -3.8682537   -2.8372754  0.024521634   -3.8682537    1.0309784      8192000 
  382000   0.79721222    -3.867775    -3.867775   -2.8369745  0.028239494    -3.867775    1.0308005      8192000 
  383000   0.79765392   -3.8684632   -3.8684632   -2.8370916  0.025924966   -3.8684632    1.0313716      8192000 
  384000   0.79727396   -3.8680654   -3.8680654    -2.837185  0.026178193   -3.8680654    1.0308803      8192000 
  385000   0.79723314   -3.8682234   -3.8682234   -2.8373958  0.025983062   -3.8682234    1.0308275      8192000 
  386000   0.79711437   -3.8679259   -3.8679259   -2.8372519  0.027238448   -3.8679259     1.030674      8192000 
  387000   0.79730739   -3.8678567   -3.8678567   -2.8369332  0.032007852   -3.8678567    1.0309235      8192000 
  388000   0.79746101   -3.8678197   -3.8678197   -2.8366976  0.029077438   -3.8678197    1.0311222      8192000 
  389000   0.79776155   -3.8686303   -3.8686303   -2.8371196  0.025992436   -3.8686303    1.0315108      8192000 
  390000   0.79729332   -3.8680731   -3.8680731   -2.8371677  0.027568979   -3.8680731    1.0309053      8192000 
  391000   0.79732694   -3.8681127   -3.8681127   -2.8371638  0.026919539   -3.8681127    1.0309488      8192000 
  392000   0.79790296   -3.8689384   -3.8689384   -2.8372447   0.02647171   -3.8689384    1.0316936      8192000 
  393000   0.79731676   -3.8680921   -3.8680921   -2.8371564  0.028923634   -3.8680921    1.0309357      8192000 
  394000   0.79765804   -3.8681123   -3.8681123   -2.8367353  0.027318524   -3.8681123    1.0313769      8192000 
  395000   0.79699347   -3.8679446   -3.8679446    -2.837427  0.027184043   -3.8679446    1.0305176      8192000 
  396000   0.79742734   -3.8688397   -3.8688397   -2.8377611  0.025813909   -3.8688397    1.0310786      8192000 
  397000   0.79745205   -3.8687012   -3.8687012   -2.8375906  0.027488652   -3.8687012    1.0311106      8192000 
  398000   0.79741502   -3.8682608   -3.8682608   -2.8371981  0.029750304   -3.8682608    1.0310627      8192000 
  399000    0.7974801   -3.8681934   -3.8681934   -2.8370466  0.029458928   -3.8681934    1.0311469      8192000 
  400000   0.79732482   -3.8684839   -3.8684839   -2.8375378  0.026617405   -3.8684839    1.0309461      8192000 
  401000   0.79769377   -3.8686348   -3.8686348   -2.8372116  0.028265028   -3.8686348    1.0314231      8192000 
  402000   0.79748984   -3.8682889   -3.8682889   -2.8371294   0.02617674   -3.8682889    1.0311594      8192000 
  403000   0.79723689   -3.8683634   -3.8683634    -2.837531    0.0305611   -3.8683634    1.0308324      8192000 
  404000   0.79772905   -3.8686806   -3.8686806   -2.8372119     0.030404   -3.8686806    1.0314688      8192000 
  405000   0.79767178    -3.868168    -3.868168   -2.8367733  0.027672559    -3.868168    1.0313947      8192000 
  406000   0.79745286   -3.8681325   -3.8681325   -2.8370208  0.028416109   -3.8681325    1.0311116      8192000 
  407000   0.79768158    -3.868511    -3.868511   -2.8371036  0.027345933    -3.868511    1.0314074      8192000 
  408000   0.79760874   -3.8682547   -3.8682547   -2.8369415   0.02729569   -3.8682547    1.0313132      8192000 
  409000   0.79717765   -3.8680356   -3.8680356   -2.8372798  0.032381492   -3.8680356    1.0307558      8192000 
  410000   0.79719371   -3.8675332   -3.8675332   -2.8367566  0.030879762   -3.8675332    1.0307766      8192000 
  411000   0.79753334    -3.868185    -3.868185   -2.8369693  0.024796937    -3.868185    1.0312157      8192000 
  412000   0.79811229   -3.8686413   -3.8686413    -2.836677  0.028439126   -3.8686413    1.0319643      8192000 
  413000   0.79747035    -3.867939    -3.867939   -2.8368047  0.028946412    -3.867939    1.0311343      8192000 
  414000   0.79763337   -3.8678341   -3.8678341   -2.8364891  0.025954337   -3.8678341     1.031345      8192000 
  415000   0.79753496   -3.8679495   -3.8679495   -2.8367317  0.028387724   -3.8679495    1.0312178      8192000 
  416000   0.79731613    -3.867716    -3.867716   -2.8367812  0.028534505    -3.867716    1.0309348      8192000 
  417000   0.79727277   -3.8676796   -3.8676796   -2.8368008  0.027221833   -3.8676796    1.0308788      8192000 
  418000   0.79723079   -3.8680235   -3.8680235    -2.837199  0.026028899   -3.8680235    1.0308245      8192000 
  419000    0.7971406   -3.8677337   -3.8677337   -2.8370258  0.023454551   -3.8677337    1.0307079      8192000 
  420000   0.79706834   -3.8677427   -3.8677427   -2.8371282     0.028182   -3.8677427    1.0306144      8192000 
  421000   0.79692729   -3.8677153   -3.8677153   -2.8372832  0.025754412   -3.8677153    1.0304321      8192000 
  422000   0.79723225   -3.8681138   -3.8681138   -2.8372874  0.026629544   -3.8681138    1.0308264      8192000 
  423000   0.79734064   -3.8675582   -3.8675582   -2.8365917  0.025752739   -3.8675582    1.0309665      8192000 
  424000   0.79707917   -3.8675762   -3.8675762   -2.8369477  0.025321296   -3.8675762    1.0306285      8192000 
  425000   0.79738979   -3.8678406   -3.8678406   -2.8368105   0.02734064   -3.8678406    1.0310301      8192000 
  426000   0.79753694   -3.8682861   -3.8682861   -2.8370658  0.023445033   -3.8682861    1.0312204      8192000 
  427000   0.79709599   -3.8676229   -3.8676229   -2.8369727  0.027244593   -3.8676229    1.0306502      8192000 
  428000   0.79751378   -3.8680106   -3.8680106   -2.8368202   0.02612356   -3.8680106    1.0311904      8192000 
  429000   0.79723642   -3.8677602   -3.8677602   -2.8369284  0.029335113   -3.8677602    1.0308318      8192000 
  430000   0.79759657   -3.8681781   -3.8681781   -2.8368806  0.027918947   -3.8681781    1.0312974      8192000 
  431000   0.79750001   -3.8680391   -3.8680391   -2.8368665  0.026192102   -3.8680391    1.0311726      8192000 
  432000   0.79781665   -3.8681736   -3.8681736   -2.8365916  0.027974425   -3.8681736     1.031582      8192000 
  433000    0.7973119   -3.8679714   -3.8679714    -2.837042  0.030377122   -3.8679714    1.0309294      8192000 
  434000   0.79762812   -3.8681413   -3.8681413    -2.836803  0.028157579   -3.8681413    1.0313382      8192000 
  435000   0.79736822   -3.8680731   -3.8680731   -2.8370709   0.02927339   -3.8680731    1.0310022      8192000 
  436000   0.79738564   -3.8680382   -3.8680382   -2.8370134  0.029592331   -3.8680382    1.0310247      8192000 
  437000   0.79753555   -3.8680881   -3.8680881   -2.8368695  0.029650247   -3.8680881    1.0312185      8192000 
  438000   0.79728735   -3.8683609   -3.8683609   -2.8374633  0.028035926   -3.8683609    1.0308976      8192000 
  439000   0.79745956   -3.8682767   -3.8682767   -2.8371564  0.026747176   -3.8682767    1.0311203      8192000 
  440000   0.79789162    -3.868917    -3.868917   -2.8372381  0.027474723    -3.868917     1.031679      8192000 
  441000   0.79729408   -3.8679365   -3.8679365   -2.8370302  0.030222741   -3.8679365    1.0309063      8192000 
  442000   0.79788139   -3.8687299   -3.8687299   -2.8370642   0.03078794   -3.8687299    1.0316657      8192000 
  443000   0.79774237    -3.868644    -3.868644    -2.837158  0.028968032    -3.868644     1.031486      8192000 
  444000   0.79752327   -3.8682669   -3.8682669   -2.8370642  0.028945354   -3.8682669    1.0312027      8192000 
  445000   0.79732889    -3.868091    -3.868091   -2.8371397  0.030461692    -3.868091    1.0309513      8192000 
  446000   0.79754932   -3.8682022   -3.8682022   -2.8369658  0.026101738   -3.8682022    1.0312364      8192000 
  447000   0.79761828   -3.8680861   -3.8680861   -2.8367606  0.030873441   -3.8680861    1.0313255      8192000 
  448000    0.7980055   -3.8683653   -3.8683653   -2.8365391  0.030468017   -3.8683653    1.0318262      8192000 
  449000   0.79730974   -3.8678622   -3.8678622   -2.8369356  0.030275466   -3.8678622    1.0309266      8192000 
  450000   0.79762182   -3.8680117   -3.8680117   -2.8366816  0.025528043   -3.8680117    1.0313301      8192000 
  451000    0.7972733   -3.8676791   -3.8676791   -2.8367997  0.030015261   -3.8676791    1.0308795      8192000 
  452000   0.79788199   -3.8683327   -3.8683327   -2.8366662  0.026364056   -3.8683327    1.0316665      8192000 
  453000   0.79801111   -3.8685303   -3.8685303   -2.8366968  0.027613998   -3.8685303    1.0318334      8192000 
  454000    0.7972699   -3.8675889   -3.8675889   -2.8367138  0.031785435   -3.8675889    1.0308751      8192000 
  455000   0.79745141   -3.8678538   -3.8678538   -2.8367441  0.027112264   -3.8678538    1.0311098      8192000 
  456000    0.7970527   -3.8673793   -3.8673793   -2.8367851  0.031970986   -3.8673793    1.0305942      8192000 
  457000   0.79762418   -3.8680948   -3.8680948   -2.8367616  0.023398765   -3.8680948    1.0313331      8192000 
  458000    0.7973648   -3.8675728   -3.8675728    -2.836575  0.025522493   -3.8675728    1.0309978      8192000 
  459000   0.79692773   -3.8673581   -3.8673581   -2.8369254  0.026293654   -3.8673581    1.0304326      8192000 
  460000   0.79715884   -3.8670592   -3.8670592   -2.8363277  0.029559137   -3.8670592    1.0307315      8192000 
  461000   0.79718659   -3.8674948   -3.8674948   -2.8367275  0.028182858   -3.8674948    1.0307673      8192000 
  462000   0.79696896   -3.8671596   -3.8671596   -2.8366737   0.02981727   -3.8671596     1.030486      8192000 
  463000   0.79760033   -3.8676309   -3.8676309   -2.8363286  0.027162907   -3.8676309    1.0313023      8192000 
  464000   0.79775316   -3.8677619   -3.8677619    -2.836262  0.028039523   -3.8677619    1.0314999      8192000 
  465000   0.79781426    -3.868298    -3.868298   -2.8367191  0.025176941    -3.868298    1.0315789      8192000 
  466000   0.79734943   -3.8675714   -3.8675714   -2.8365935  0.028129942   -3.8675714    1.0309779      8192000 
  467000   0.79766864   -3.8676117   -3.8676117    -2.836221   0.02714007   -3.8676117    1.0313906      8192000 
  468000   0.79799023   -3.8679195   -3.8679195   -2.8361131  0.027876019   -3.8679195    1.0318064      8192000 
  469000    0.7974267   -3.8679615   -3.8679615   -2.8368837  0.025241302   -3.8679615    1.0310778      8192000 
  470000   0.79739709   -3.8674365   -3.8674365   -2.8363969  0.029573316   -3.8674365    1.0310395      8192000 
  471000   0.79772425   -3.8677058   -3.8677058   -2.8362432  0.027578186   -3.8677058    1.0314625      8192000 
  472000    0.7976407   -3.8675668   -3.8675668   -2.8362123  0.027929716   -3.8675668    1.0313545      8192000 
  473000   0.79825132   -3.8679837   -3.8679837   -2.8358397  0.025024064   -3.8679837    1.0321441      8192000 
  474000   0.79755448   -3.8671744   -3.8671744   -2.8359313  0.030034966   -3.8671744     1.031243      8192000 
  475000   0.79797889   -3.8675835   -3.8675835   -2.8357917  0.031040794   -3.8675835    1.0317918      8192000 
  476000   0.79795981   -3.8674951   -3.8674951    -2.835728  0.028742966   -3.8674951    1.0317671      8192000 
  477000   0.79780265   -3.8674437   -3.8674437   -2.8358798  0.029553251   -3.8674437    1.0315639      8192000 
  478000   0.79748231   -3.8675342   -3.8675342   -2.8363844  0.027475124   -3.8675342    1.0311497      8192000 
  479000   0.79799837   -3.8678851   -3.8678851   -2.8360682  0.026420477   -3.8678851     1.031817      8192000 
  480000   0.79750541   -3.8669547   -3.8669547   -2.8357751  0.028222498   -3.8669547    1.0311796      8192000 
  481000   0.79769276   -3.8667783   -3.8667783   -2.8353565  0.025542622   -3.8667783    1.0314218      8192000 
  482000   0.79762953   -3.8669282   -3.8669282   -2.8355881  0.027957551   -3.8669282    1.0313401      8192000 
  483000   0.79768908   -3.8670588   -3.8670588   -2.8356417  0.028789691   -3.8670588    1.0314171      8192000 
  484000   0.79741831   -3.8669412   -3.8669412   -2.8358742  0.026134619   -3.8669412     1.031067      8192000 
  485000   0.79774209   -3.8669056   -3.8669056     -2.83542    0.0277458   -3.8669056    1.0314856      8192000 
  486000   0.79745884   -3.8667174   -3.8667174    -2.835598  0.028432432   -3.8667174    1.0311194      8192000 
  487000   0.79738689   -3.8669548   -3.8669548   -2.8359285  0.029025144   -3.8669548    1.0310263      8192000 
  488000   0.79719828   -3.8667687   -3.8667687   -2.8359862  0.028866008   -3.8667687    1.0307825      8192000 
  489000   0.79720215   -3.8666987   -3.8666987   -2.8359112  0.029338523   -3.8666987    1.0307875      8192000 
  490000   0.79725284   -3.8665144   -3.8665144   -2.8356614  0.029316727   -3.8665144     1.030853      8192000 
  491000   0.79753051   -3.8669195   -3.8669195   -2.8357075  0.028624795   -3.8669195     1.031212      8192000 
  492000   0.79740959   -3.8666697   -3.8666697    -2.835614  0.026072705   -3.8666697    1.0310557      8192000 
  493000    0.7979138    -3.867367    -3.867367   -2.8356594  0.024939799    -3.867367    1.0317076      8192000 
  494000     0.797345   -3.8669393   -3.8669393   -2.8359671  0.027505958   -3.8669393    1.0309722      8192000 
  495000   0.79740541   -3.8669245   -3.8669245   -2.8358742  0.030140071   -3.8669245    1.0310503      8192000 
  496000   0.79743168   -3.8669999   -3.8669999   -2.8359156  0.026826014   -3.8669999    1.0310843      8192000 
  497000   0.79767411   -3.8669257   -3.8669257    -2.835528  0.026371279   -3.8669257    1.0313977      8192000 
  498000   0.79752518   -3.8664639   -3.8664639   -2.8352588  0.030454054   -3.8664639    1.0312051      8192000 
  499000   0.79758586   -3.8672268   -3.8672268   -2.8359432  0.026842406   -3.8672268    1.0312836      8192000 
  500000   0.79788201   -3.8667141   -3.8667141   -2.8350476  0.028219263   -3.8667141    1.0316665      8192000 
  501000   0.79841464   -3.8678447   -3.8678447   -2.8354895  0.029770787   -3.8678447    1.0323552      8192000 
  502000   0.79815982    -3.867484    -3.867484   -2.8354583  0.025605637    -3.867484    1.0320257      8192000 
  503000   0.79822082   -3.8673182   -3.8673182   -2.8352136  0.026744383   -3.8673182    1.0321046      8192000 
  504000   0.79772249   -3.8671564   -3.8671564   -2.8356962  0.027387088   -3.8671564    1.0314603      8192000 
  505000   0.79793016   -3.8670125   -3.8670125   -2.8352837  0.029630569   -3.8670125    1.0317288      8192000 
  506000   0.79790564   -3.8670774   -3.8670774   -2.8353803   0.02639489   -3.8670774    1.0316971      8192000 
  507000    0.7978254   -3.8668546   -3.8668546   -2.8352613  0.026789129   -3.8668546    1.0315933      8192000 
  508000   0.79779882   -3.8671696   -3.8671696   -2.8356107  0.026301231   -3.8671696     1.031559      8192000 
  509000    0.7975338   -3.8669004   -3.8669004   -2.8356841  0.031080329   -3.8669004    1.0312163      8192000 
  510000    0.7972652   -3.8666982   -3.8666982   -2.8358292  0.028845753   -3.8666982     1.030869      8192000 
  511000    0.7977039   -3.8674496   -3.8674496   -2.8360134  0.025594788   -3.8674496    1.0314362      8192000 
  512000   0.79737638   -3.8671016   -3.8671016   -2.8360888  0.029048257   -3.8671016    1.0310127      8192000 
  513000   0.79785644   -3.8671322   -3.8671322   -2.8354988  0.028905773   -3.8671322    1.0316335      8192000 
  514000   0.79752309   -3.8670013   -3.8670013   -2.8357988  0.027570772   -3.8670013    1.0312024      8192000 
  515000   0.79793914   -3.8673306   -3.8673306   -2.8355903  0.028174842   -3.8673306    1.0317404      8192000 
  516000    0.7976747   -3.8670652   -3.8670652   -2.8356667  0.029051273   -3.8670652    1.0313985      8192000 
  517000   0.79786677   -3.8673928   -3.8673928   -2.8357459   0.02881152   -3.8673928    1.0316468      8192000 
  518000   0.79757581   -3.8670718   -3.8670718   -2.8358011  0.028570919   -3.8670718    1.0312706      8192000 
  519000   0.79767051   -3.8673019   -3.8673019   -2.8359089  0.028745094   -3.8673019    1.0313931      8192000 
  520000   0.79782821   -3.8672141   -3.8672141   -2.8356171  0.029998042   -3.8672141     1.031597      8192000 
  521000   0.79752924   -3.8669589   -3.8669589   -2.8357485  0.028753775   -3.8669589    1.0312104      8192000 
  522000   0.79792149   -3.8668293   -3.8668293   -2.8351117  0.028630305   -3.8668293    1.0317176      8192000 
  523000   0.79769353   -3.8668995   -3.8668995   -2.8354767  0.028517825   -3.8668995    1.0314228      8192000 
  524000   0.79750171   -3.8666699   -3.8666699   -2.8354951  0.028649514   -3.8666699    1.0311748      8192000 
  525000   0.79752906   -3.8667534   -3.8667534   -2.8355433  0.029623903   -3.8667534    1.0312102      8192000 
  526000     0.797692   -3.8668699   -3.8668699   -2.8354491  0.028650207   -3.8668699    1.0314208      8192000 
  527000   0.79781832   -3.8673342   -3.8673342     -2.83575  0.026585465   -3.8673342    1.0315842      8192000 
  528000    0.7977274   -3.8671863   -3.8671863   -2.8357197  0.032062031   -3.8671863    1.0314666      8192000 
  529000   0.79718999   -3.8665753   -3.8665753   -2.8358036  0.030150001   -3.8665753    1.0307717      8192000 
  530000   0.79762916   -3.8671204   -3.8671204   -2.8357809  0.025646574   -3.8671204    1.0313396      8192000 
  531000    0.7974364   -3.8668251   -3.8668251   -2.8357348  0.027412845   -3.8668251    1.0310904      8192000 
  532000   0.79732016   -3.8667741   -3.8667741   -2.8358341  0.028018983   -3.8667741    1.0309401      8192000 
  533000    0.7971273   -3.8665925   -3.8665925   -2.8359018  0.029108806   -3.8665925    1.0306907      8192000 
  534000   0.79751347   -3.8669167   -3.8669167   -2.8357267  0.027009534   -3.8669167      1.03119      8192000 
  535000   0.79748964   -3.8669874   -3.8669874   -2.8358282  0.029030795   -3.8669874    1.0311592      8192000 
  536000   0.79787873   -3.8675434   -3.8675434   -2.8358811   0.02805291   -3.8675434    1.0316623      8192000 
  537000   0.79800113   -3.8674354   -3.8674354   -2.8356149  0.028797115   -3.8674354    1.0318205      8192000 
  538000   0.79776478   -3.8675231   -3.8675231   -2.8360082  0.028573603   -3.8675231    1.0315149      8192000 
  539000   0.79775178    -3.867206    -3.867206   -2.8357079  0.027763404    -3.867206    1.0314981      8192000 
  540000   0.79812635   -3.8674527   -3.8674527   -2.8354702   0.02951489   -3.8674527    1.0319825      8192000 
  541000   0.79745068   -3.8669181   -3.8669181   -2.8358093  0.028010754   -3.8669181    1.0311088      8192000 
  542000    0.7975355   -3.8670254   -3.8670254   -2.8358069  0.026546013   -3.8670254    1.0312185      8192000 
  543000   0.79739647   -3.8666587   -3.8666587   -2.8356199  0.027898796   -3.8666587    1.0310387      8192000 
  544000   0.79741259   -3.8667334   -3.8667334   -2.8356739  0.028063582   -3.8667334    1.0310596      8192000 
  545000   0.79742233    -3.866876    -3.866876   -2.8358038  0.026092679    -3.866876    1.0310722      8192000 
  546000   0.79755742    -3.866567    -3.866567   -2.8353202   0.02900131    -3.866567    1.0312468      8192000 
  547000    0.7979705   -3.8670563   -3.8670563   -2.8352753  0.025033846   -3.8670563    1.0317809      8192000 
  548000   0.79799793   -3.8672455   -3.8672455   -2.8354291  0.030273778   -3.8672455    1.0318164      8192000 
  549000   0.79796008    -3.867521    -3.867521   -2.8357535  0.030086034    -3.867521    1.0317675      8192000 
  550000   0.79784583   -3.8671709   -3.8671709   -2.8355511  0.029135526   -3.8671709    1.0316197      8192000 
  551000   0.79758274   -3.8670932   -3.8670932   -2.8358137  0.030225428   -3.8670932    1.0312796      8192000 
  552000   0.79756538   -3.8669176   -3.8669176   -2.8356605  0.028930005   -3.8669176    1.0312571      8192000 
  553000   0.79810003   -3.8672259   -3.8672259   -2.8352775  0.026178827   -3.8672259    1.0319484      8192000 
  554000    0.7977731   -3.8668976   -3.8668976   -2.8353719   0.02967717   -3.8668976    1.0315257      8192000 
  555000   0.79739212   -3.8670163   -3.8670163   -2.8359832  0.028335019   -3.8670163    1.0310331      8192000 
  556000   0.79771999   -3.8667978   -3.8667978   -2.8353408  0.029006171   -3.8667978     1.031457      8192000 
  557000   0.79744274   -3.8664558   -3.8664558   -2.8353573  0.026574853   -3.8664558    1.0310985      8192000 
  558000    0.7972188   -3.8664602   -3.8664602   -2.8356512  0.030858949   -3.8664602     1.030809      8192000 
  559000   0.79781238   -3.8668919   -3.8668919   -2.8353154  0.029801187   -3.8668919    1.0315765      8192000 
  560000   0.79784501   -3.8668696   -3.8668696   -2.8352509  0.029582561   -3.8668696    1.0316187      8192000 
  561000   0.79815707   -3.8674939   -3.8674939   -2.8354717   0.02957432   -3.8674939    1.0320222      8192000 
  562000   0.79770787   -3.8671977   -3.8671977   -2.8357563  0.030357125   -3.8671977    1.0314414      8192000 
  563000   0.79782408   -3.8667914   -3.8667914   -2.8351998  0.026980976   -3.8667914    1.0315916      8192000 
  564000   0.79810982   -3.8673623   -3.8673623   -2.8354012  0.028172511   -3.8673623    1.0319611      8192000 
  565000   0.79782894   -3.8668779   -3.8668779     -2.83528  0.028220568   -3.8668779    1.0315979      8192000 
  566000   0.79765297   -3.8671324   -3.8671324    -2.835762  0.028487356   -3.8671324    1.0313704      8192000 
  567000   0.79745017   -3.8666869   -3.8666869   -2.8355788  0.029010647   -3.8666869    1.0311082      8192000 
  568000   0.79749148   -3.8667815   -3.8667815   -2.8356199  0.027406133   -3.8667815    1.0311616      8192000 
  569000   0.79759654   -3.8668092   -3.8668092   -2.8355118  0.026618097   -3.8668092    1.0312974      8192000 
  570000   0.79784042   -3.8664593   -3.8664593   -2.8348466  0.026853608   -3.8664593    1.0316128      8192000 
  571000   0.79729955   -3.8665198   -3.8665198   -2.8356064  0.028560568   -3.8665198    1.0309134      8192000 
  572000   0.79740214   -3.8666115   -3.8666115   -2.8355654  0.029565406   -3.8666115     1.031046      8192000 
  573000   0.79746024   -3.8659481   -3.8659481   -2.8348269  0.030635101   -3.8659481    1.0311212      8192000 
  574000   0.79785382   -3.8666799   -3.8666799   -2.8350498  0.028302946   -3.8666799    1.0316301      8192000 
  575000   0.79782848   -3.8668445   -3.8668445   -2.8352471   0.02807734   -3.8668445    1.0315973      8192000 
  576000   0.79748375   -3.8664756   -3.8664756   -2.8353241   0.02600866   -3.8664756    1.0311516      8192000 
  577000   0.79781965   -3.8667491   -3.8667491   -2.8351632  0.027345466   -3.8667491    1.0315859      8192000 
  578000   0.79788148   -3.8669197   -3.8669197   -2.8352538  0.027313987   -3.8669197    1.0316658      8192000 
  579000   0.79767895   -3.8665901   -3.8665901   -2.8351861  0.032016069   -3.8665901     1.031404      8192000 
  580000   0.79748736   -3.8665798   -3.8665798   -2.8354236  0.029929746   -3.8665798    1.0311562      8192000 
  581000    0.7978374   -3.8671491   -3.8671491   -2.8355402   0.02789081   -3.8671491    1.0316088      8192000 
  582000   0.79798555   -3.8668383   -3.8668383   -2.8350379  0.027938468   -3.8668383    1.0318004      8192000 
  583000   0.79749467   -3.8666638   -3.8666638   -2.8354981  0.027710715   -3.8666638    1.0311657      8192000 
  584000   0.79743919   -3.8664327   -3.8664327   -2.8353388  0.025948096   -3.8664327     1.031094      8192000 
  585000   0.79764028   -3.8668064   -3.8668064   -2.8354524  0.028458076   -3.8668064     1.031354      8192000 
  586000   0.79764695   -3.8667812   -3.8667812   -2.8354186  0.029134706   -3.8667812    1.0313626      8192000 
  587000   0.79775166    -3.866795    -3.866795    -2.835297  0.028237322    -3.866795     1.031498      8192000 
  588000   0.79789062   -3.8670391   -3.8670391   -2.8353614  0.029024953   -3.8670391    1.0316777      8192000 
  589000   0.79811214   -3.8672999   -3.8672999   -2.8353358  0.028726521   -3.8672999    1.0319641      8192000 
  590000   0.79776087   -3.8668822   -3.8668822   -2.8353723    0.0299353   -3.8668822    1.0315099      8192000 
  591000   0.79755675   -3.8670528   -3.8670528   -2.8358069  0.029096112   -3.8670528     1.031246      8192000 
  592000    0.7979698   -3.8667993   -3.8667993   -2.8350193  0.029579322   -3.8667993      1.03178      8192000 
  593000   0.79770633   -3.8668721   -3.8668721   -2.8354327  0.027604499   -3.8668721    1.0314394      8192000 
  594000   0.79790977   -3.8669653   -3.8669653   -2.8352629  0.028816062   -3.8669653    1.0317024      8192000 
  595000    0.7971824   -3.8660348   -3.8660348   -2.8352729  0.027399897   -3.8660348    1.0307619      8192000 
  596000   0.79766043   -3.8661999   -3.8661999   -2.8348199  0.028958908   -3.8661999      1.03138      8192000 
  597000   0.79756461   -3.8663749   -3.8663749   -2.8351188  0.027145037   -3.8663749    1.0312561      8192000 
  598000   0.79772291   -3.8664056   -3.8664056   -2.8349448  0.027824066   -3.8664056    1.0314608      8192000 
  599000   0.79790271    -3.866509    -3.866509   -2.8348157   0.02994726    -3.866509    1.0316933      8192000 
  600000    0.7978412   -3.8664903   -3.8664903   -2.8348766  0.029739257   -3.8664903    1.0316138      8192000 
  601000   0.79799084   -3.8666428   -3.8666428   -2.8348355  0.030472012   -3.8666428    1.0318072      8192000 
  602000   0.79788589   -3.8663935   -3.8663935    -2.834722  0.027076461   -3.8663935    1.0316715      8192000 
  603000   0.79787901   -3.8662862   -3.8662862   -2.8346236  0.028222767   -3.8662862    1.0316626      8192000 
  604000   0.79753855    -3.865992    -3.865992   -2.8347696  0.028384686    -3.865992    1.0312224      8192000 
  605000   0.79761675   -3.8662266   -3.8662266    -2.834903   0.02745756   -3.8662266    1.0313235      8192000 
  606000   0.79742948   -3.8661844   -3.8661844    -2.835103  0.027007824   -3.8661844    1.0310814      8192000 
  607000   0.79749258   -3.8659358   -3.8659358   -2.8347728  0.030634501   -3.8659358     1.031163      8192000 
  608000   0.79757313   -3.8662784   -3.8662784   -2.8350112  0.026020532   -3.8662784    1.0312671      8192000 
  609000    0.7977122   -3.8661435   -3.8661435   -2.8346966  0.026540275   -3.8661435     1.031447      8192000 
  610000     0.798072   -3.8667567   -3.8667567   -2.8348445  0.027764443   -3.8667567    1.0319122      8192000 
  611000   0.79791853   -3.8663748   -3.8663748   -2.8346611   0.03021027   -3.8663748    1.0317137      8192000 
  612000   0.79824582   -3.8663884   -3.8663884   -2.8342515  0.027978692   -3.8663884    1.0321369      8192000 
  613000   0.79794628   -3.8662369   -3.8662369   -2.8344873  0.029747434   -3.8662369    1.0317496      8192000 
  614000   0.79822139   -3.8665036   -3.8665036   -2.8343982   0.02990027   -3.8665036    1.0321054      8192000 
  615000   0.79772235   -3.8657875   -3.8657875   -2.8343274  0.027842433   -3.8657875    1.0314601      8192000 
  616000   0.79763595   -3.8659719   -3.8659719   -2.8346235  0.027396934   -3.8659719    1.0313484      8192000 
  617000   0.79813762   -3.8665785   -3.8665785   -2.8345815  0.027163697   -3.8665785     1.031997      8192000 
  618000   0.79760429   -3.8658097   -3.8658097   -2.8345022  0.025990831   -3.8658097    1.0313074      8192000 
  619000   0.79761435   -3.8658957   -3.8658957   -2.8345753  0.027756453   -3.8658957    1.0313204      8192000 
  620000   0.79766568   -3.8662325   -3.8662325   -2.8348457  0.027139509   -3.8662325    1.0313868      8192000 
  621000   0.79776759   -3.8663237   -3.8663237   -2.8348051  0.026816076   -3.8663237    1.0315186      8192000 
  622000   0.79786751    -3.866072    -3.866072   -2.8344242  0.027210575    -3.866072    1.0316478      8192000 
  623000   0.79764947   -3.8659784   -3.8659784   -2.8346125  0.027313843   -3.8659784    1.0313659      8192000 
  624000   0.79850335   -3.8666717   -3.8666717   -2.8342018  0.030852476   -3.8666717    1.0324699      8192000 
  625000   0.79800272   -3.8664926   -3.8664926     -2.83467  0.032629032   -3.8664926    1.0318226      8192000 
  626000   0.79820736   -3.8662375   -3.8662375   -2.8341503  0.029512751   -3.8662375    1.0320872      8192000 
  627000   0.79810651   -3.8662239   -3.8662239   -2.8342671  0.029348828   -3.8662239    1.0319568      8192000 
  628000   0.79832351   -3.8666961   -3.8666961   -2.8344587  0.029307334   -3.8666961    1.0322374      8192000 
  629000   0.79783745   -3.8659043   -3.8659043   -2.8342954  0.027802548   -3.8659043    1.0316089      8192000 
  630000   0.79741854    -3.865739    -3.865739   -2.8346718  0.027944556    -3.865739    1.0310673      8192000 
  631000   0.79776981   -3.8661087   -3.8661087   -2.8345872  0.029233041   -3.8661087    1.0315214      8192000 
  632000   0.79769364    -3.865948    -3.865948    -2.834525  0.028966843    -3.865948     1.031423      8192000 
  633000   0.79846543   -3.8670586   -3.8670586   -2.8346377  0.026299489   -3.8670586    1.0324209      8192000 
  634000   0.79748602   -3.8663139   -3.8663139   -2.8351594  0.027804334   -3.8663139    1.0311545      8192000 
  635000    0.7979237   -3.8668936   -3.8668936   -2.8351732  0.023729967   -3.8668936    1.0317204      8192000 
  636000   0.79830854    -3.866783    -3.866783   -2.8345649  0.027615851    -3.866783     1.032218      8192000 
  637000   0.79855564   -3.8669849   -3.8669849   -2.8344473  0.028402749   -3.8669849    1.0325375      8192000 
  638000   0.79830721   -3.8668015   -3.8668015   -2.8345852  0.028780309   -3.8668015    1.0322163      8192000 
  639000   0.79834567   -3.8666897   -3.8666897   -2.8344237   0.02868284   -3.8666897     1.032266      8192000 
  640000   0.79822431    -3.866465    -3.866465   -2.8343559  0.032285278    -3.866465    1.0321091      8192000 
  641000   0.79854888   -3.8669033   -3.8669033   -2.8343746  0.027547624   -3.8669033    1.0325288      8192000 
  642000   0.79802204    -3.866198    -3.866198   -2.8343504  0.029631239    -3.866198    1.0318476      8192000 
  643000    0.7986376   -3.8668255   -3.8668255    -2.834182  0.027808623   -3.8668255    1.0326435      8192000 
  644000   0.79854381   -3.8667104   -3.8667104   -2.8341882  0.027688818   -3.8667104    1.0325222      8192000 
  645000   0.79800568   -3.8665055   -3.8665055   -2.8346791  0.028920471   -3.8665055    1.0318264      8192000 
  646000   0.79815886   -3.8663784   -3.8663784   -2.8343539   0.02848934   -3.8663784    1.0320245      8192000 
  647000   0.79817803   -3.8664257   -3.8664257   -2.8343764  0.027101606   -3.8664257    1.0320493      8192000 
  648000   0.79795491   -3.8659546   -3.8659546   -2.8341939  0.027384566   -3.8659546    1.0317608      8192000 
  649000   0.79783154   -3.8656323   -3.8656323    -2.834031  0.028159124   -3.8656323    1.0316013      8192000 
  650000   0.79796757   -3.8656517   -3.8656517   -2.8338745  0.030061436   -3.8656517    1.0317772      8192000 
  651000   0.79788078   -3.8657716   -3.8657716   -2.8341067  0.023081575   -3.8657716    1.0316649      8192000 
  652000   0.79784537   -3.8660601   -3.8660601    -2.834441  0.025895485   -3.8660601    1.0316191      8192000 
  653000   0.79831842   -3.8661105   -3.8661105   -2.8338797  0.027467097   -3.8661105    1.0322308      8192000 
  654000   0.79791455   -3.8656315   -3.8656315   -2.8339229  0.027736684   -3.8656315    1.0317086      8192000 
  655000   0.79752754   -3.8650161   -3.8650161   -2.8338079   0.02943638   -3.8650161    1.0312082      8192000 
  656000   0.79779563   -3.8652372   -3.8652372   -2.8336824  0.026723122   -3.8652372    1.0315548      8192000 
  657000   0.79768233   -3.8652364   -3.8652364   -2.8338281  0.024979836   -3.8652364    1.0314083      8192000 
  658000   0.79788292   -3.8658969   -3.8658969   -2.8342292  0.024684532   -3.8658969    1.0316677      8192000 
  659000   0.79814822   -3.8655509   -3.8655509   -2.8335402  0.030746912   -3.8655509    1.0320107      8192000 
  660000   0.79825571   -3.8662112   -3.8662112   -2.8340615   0.02477177   -3.8662112    1.0321497      8192000 
  661000    0.7976468   -3.8651221   -3.8651221   -2.8337597  0.028830848   -3.8651221    1.0313624      8192000 
  662000   0.79756177   -3.8652795   -3.8652795    -2.834027  0.028869495   -3.8652795    1.0312524      8192000 
  663000   0.79754969   -3.8652306   -3.8652306   -2.8339937  0.027338467   -3.8652306    1.0312368      8192000 
  664000   0.79797419   -3.8655407   -3.8655407   -2.8337549  0.027211918   -3.8655407    1.0317857      8192000 
  665000   0.79763288   -3.8651282   -3.8651282   -2.8337838  0.028959607   -3.8651282    1.0313444      8192000 
  666000   0.79781724   -3.8657195   -3.8657195   -2.8341367  0.027198366   -3.8657195    1.0315828      8192000 
  667000    0.7978804   -3.8658431   -3.8658431   -2.8341787  0.027451434   -3.8658431    1.0316644      8192000 
  668000   0.79804175   -3.8663467   -3.8663467   -2.8344736  0.027086861   -3.8663467    1.0318731      8192000 
  669000   0.79826237   -3.8663977   -3.8663977   -2.8342394  0.026495971   -3.8663977    1.0321583      8192000 
  670000   0.79805609   -3.8660444   -3.8660444   -2.8341527  0.028099341   -3.8660444    1.0318916      8192000 
  671000   0.79874628   -3.8667024   -3.8667024   -2.8339183  0.029488712   -3.8667024     1.032784      8192000 
  672000   0.79769206    -3.865721    -3.865721   -2.8343001  0.027441306    -3.865721    1.0314209      8192000 
  673000   0.79817035   -3.8659123   -3.8659123   -2.8338729  0.028252192   -3.8659123    1.0320393      8192000 
  674000    0.7982967   -3.8662901   -3.8662901   -2.8340874  0.031248471   -3.8662901    1.0322027      8192000 
  675000    0.7981055   -3.8662176   -3.8662176   -2.8342621  0.029358455   -3.8662176    1.0319555      8192000 
  676000   0.79871524   -3.8667398   -3.8667398   -2.8339959  0.029670489   -3.8667398    1.0327439      8192000 
  677000   0.79828701   -3.8665797   -3.8665797   -2.8343895  0.029893895   -3.8665797    1.0321902      8192000 
  678000   0.79822341   -3.8665165   -3.8665165   -2.8344086  0.028615615   -3.8665165     1.032108      8192000 
  679000   0.79826159   -3.8662218   -3.8662218   -2.8340645  0.030163558   -3.8662218    1.0321573      8192000 
  680000   0.79830462   -3.8662075   -3.8662075   -2.8339945  0.031299178   -3.8662075     1.032213      8192000 
  681000    0.7981709   -3.8660479   -3.8660479   -2.8340078  0.028561006   -3.8660479    1.0320401      8192000 
  682000   0.79877946   -3.8670804   -3.8670804   -2.8342535  0.030269638   -3.8670804    1.0328269      8192000 
  683000   0.79809665    -3.866699    -3.866699    -2.834755  0.029230569    -3.866699    1.0319441      8192000 
  684000   0.79818481   -3.8662955   -3.8662955   -2.8342375  0.025697539   -3.8662955     1.032058      8192000 
  685000   0.79776547   -3.8659284   -3.8659284   -2.8344126  0.026513148   -3.8659284    1.0315158      8192000 
  686000   0.79784629   -3.8656748   -3.8656748   -2.8340545  0.028714381   -3.8656748    1.0316203      8192000 
  687000   0.79793754   -3.8659615   -3.8659615   -2.8342231  0.025558368   -3.8659615    1.0317383      8192000 
  688000   0.79787638   -3.8661098   -3.8661098   -2.8344506  0.026564028   -3.8661098    1.0316592      8192000 
  689000   0.79810324    -3.866225    -3.866225   -2.8342725  0.026202912    -3.866225    1.0319526      8192000 
  690000   0.79761029   -3.8652531   -3.8652531   -2.8339379  0.030096669   -3.8652531    1.0313152      8192000 
  691000   0.79801314   -3.8658055   -3.8658055   -2.8339694  0.028981334   -3.8658055    1.0318361      8192000 
  692000   0.79795387   -3.8658739   -3.8658739   -2.8341145  0.026588189   -3.8658739    1.0317594      8192000 
  693000   0.79771697   -3.8651321   -3.8651321   -2.8336789  0.028584741   -3.8651321    1.0314531      8192000 
  694000   0.79793706   -3.8654083   -3.8654083   -2.8336706  0.029835957   -3.8654083    1.0317377      8192000 
  695000   0.79774407   -3.8653852   -3.8653852    -2.833897  0.026448938   -3.8653852    1.0314882      8192000 
  696000   0.79828871   -3.8654813   -3.8654813   -2.8332889  0.026871539   -3.8654813    1.0321924      8192000 
  697000   0.79786952    -3.865364    -3.865364   -2.8337136  0.027078341    -3.865364    1.0316504      8192000 
  698000   0.79800499   -3.8655105   -3.8655105   -2.8336849  0.025533723   -3.8655105    1.0318255      8192000 
  699000   0.79771033   -3.8651818   -3.8651818   -2.8337372  0.025408108   -3.8651818    1.0314445      8192000 
  700000   0.79834923   -3.8656631   -3.8656631   -2.8333924  0.027069829   -3.8656631    1.0322706      8192000 
  701000   0.79764583   -3.8646932   -3.8646932   -2.8333321  0.031527994   -3.8646932    1.0313611      8192000 
  702000   0.79802491   -3.8653656   -3.8653656   -2.8335143  0.029197107   -3.8653656    1.0318513      8192000 
  703000   0.79782158   -3.8650244   -3.8650244    -2.833436  0.029718169   -3.8650244    1.0315884      8192000 
  704000    0.7978191   -3.8651743   -3.8651743   -2.8335891  0.030137287   -3.8651743    1.0315852      8192000 
  705000   0.79791931   -3.8650537   -3.8650537    -2.833339  0.029303743   -3.8650537    1.0317148      8192000 
  706000   0.79805505   -3.8653485   -3.8653485   -2.8334583  0.028035464   -3.8653485    1.0318903      8192000 
  707000   0.79782341   -3.8652698   -3.8652698    -2.833679  0.030327853   -3.8652698    1.0315908      8192000 
  708000   0.79797252   -3.8651899   -3.8651899   -2.8334063  0.030079567   -3.8651899    1.0317836      8192000 
  709000   0.79793592   -3.8647559   -3.8647559   -2.8330196   0.02947623   -3.8647559    1.0317362      8192000 
  710000   0.79801291   -3.8650171   -3.8650171   -2.8331813  0.027180302   -3.8650171    1.0318358      8192000 
  711000   0.79773323   -3.8648814   -3.8648814   -2.8334073  0.031207631   -3.8648814    1.0314742      8192000 
  712000   0.79764271   -3.8649307   -3.8649307   -2.8335736   0.03025523   -3.8649307    1.0313571      8192000 
  713000   0.79853959    -3.865529    -3.865529   -2.8330122  0.028534582    -3.865529    1.0325168      8192000 
  714000   0.79799312   -3.8651395   -3.8651395   -2.8333293  0.029733122   -3.8651395    1.0318102      8192000 
  715000   0.79869301   -3.8662064   -3.8662064   -2.8334912  0.026088525   -3.8662064    1.0327152      8192000 
  716000   0.79809385   -3.8653761   -3.8653761   -2.8334357  0.028944263   -3.8653761    1.0319404      8192000 
  717000   0.79776525   -3.8650771   -3.8650771   -2.8335616  0.031223367   -3.8650771    1.0315155      8192000 
  718000   0.79820828   -3.8652576   -3.8652576   -2.8331692  0.027659512   -3.8652576    1.0320884      8192000 
  719000   0.79809245   -3.8652066   -3.8652066   -2.8332679  0.028375778   -3.8652066    1.0319386      8192000 
  720000   0.79781454   -3.8647025   -3.8647025   -2.8331232  0.029788151   -3.8647025    1.0315793      8192000 
  721000   0.79854785   -3.8658443   -3.8658443   -2.8333168   0.02906438   -3.8658443    1.0325275      8192000 
  722000   0.79773054   -3.8652434   -3.8652434   -2.8337727  0.028056534   -3.8652434    1.0314707      8192000 
  723000   0.79808588   -3.8656137   -3.8656137   -2.8336836   0.02822394   -3.8656137    1.0319301      8192000 
  724000   0.79767716   -3.8654445   -3.8654445   -2.8340428  0.029187814   -3.8654445    1.0314016      8192000 
  725000   0.79826024   -3.8659041   -3.8659041   -2.8337486  0.028790753   -3.8659041    1.0321556      8192000 
  726000   0.79832143   -3.8656358   -3.8656358   -2.8334011  0.025534731   -3.8656358    1.0322347      8192000 
  727000   0.79810916   -3.8654944   -3.8654944   -2.8335341  0.027577938   -3.8654944    1.0319602      8192000 
  728000   0.79848832   -3.8660079   -3.8660079   -2.8335574  0.027463925   -3.8660079    1.0324505      8192000 
  729000   0.79812821   -3.8654933   -3.8654933   -2.8335085  0.028302004   -3.8654933    1.0319849      8192000 
  730000   0.79792504   -3.8656775   -3.8656775   -2.8339553  0.027691557   -3.8656775    1.0317222      8192000 
  731000   0.79786923   -3.8656891   -3.8656891   -2.8340391  0.029328206   -3.8656891      1.03165      8192000 
  732000   0.79807201   -3.8655384   -3.8655384   -2.8336262  0.027844679   -3.8655384    1.0319122      8192000 
  733000   0.79782003   -3.8651188   -3.8651188   -2.8335324   0.02896042   -3.8651188    1.0315864      8192000 
  734000     0.797585   -3.8653206   -3.8653206   -2.8340381  0.028336199   -3.8653206    1.0312825      8192000 
  735000   0.79767234   -3.8652594   -3.8652594    -2.833864  0.032118883   -3.8652594    1.0313954      8192000 
  736000    0.7978843   -3.8657304   -3.8657304   -2.8340609  0.028080628   -3.8657304    1.0316695      8192000 
  737000   0.79791537   -3.8655532   -3.8655532   -2.8338435  0.031319887   -3.8655532    1.0317097      8192000 
  738000   0.79806028   -3.8656126   -3.8656126   -2.8337155  0.027018224   -3.8656126     1.031897      8192000 
  739000   0.79793689   -3.8660448   -3.8660448   -2.8343073  0.027051513   -3.8660448    1.0317375      8192000 
  740000   0.79820425   -3.8658278   -3.8658278   -2.8337446  0.025899913   -3.8658278    1.0320832      8192000 
  741000   0.79797947    -3.865526    -3.865526   -2.8337335  0.031434981    -3.865526    1.0317925      8192000 
  742000   0.79818874   -3.8659331   -3.8659331     -2.83387  0.029234305   -3.8659331    1.0320631      8192000 
  743000   0.79789145   -3.8654273   -3.8654273   -2.8337485  0.027853826   -3.8654273    1.0316787      8192000 
  744000   0.79843882   -3.8661492   -3.8661492   -2.8337627  0.026738286   -3.8661492    1.0323865      8192000 
  745000   0.79810907   -3.8658578   -3.8658578   -2.8338977    0.0285762   -3.8658578    1.0319601      8192000 
  746000   0.79769675   -3.8655487   -3.8655487   -2.8341217  0.025915128   -3.8655487     1.031427      8192000 
  747000   0.79784224   -3.8656245   -3.8656245   -2.8340094  0.027658933   -3.8656245    1.0316151      8192000 
  748000   0.79756369   -3.8652836   -3.8652836   -2.8340287  0.028012664   -3.8652836    1.0312549      8192000 
  749000   0.79814428    -3.865559    -3.865559   -2.8335534  0.026959547    -3.865559    1.0320056      8192000 
  750000   0.79813311   -3.8661166   -3.8661166   -2.8341254  0.025204572   -3.8661166    1.0319912      8192000 
  751000   0.79814991    -3.866004    -3.866004   -2.8339911  0.028801917    -3.866004    1.0320129      8192000 
  752000   0.79785755   -3.8660668   -3.8660668   -2.8344319  0.026767756   -3.8660668    1.0316349      8192000 
  753000   0.79833145   -3.8663144   -3.8663144   -2.8340667  0.027556274   -3.8663144    1.0322477      8192000 
  754000   0.79796626    -3.865725    -3.865725   -2.8339496  0.028633996    -3.865725    1.0317755      8192000 
  755000   0.79784739    -3.865508    -3.865508   -2.8338862   0.02962601    -3.865508    1.0316218      8192000 
  756000   0.79806391   -3.8657047   -3.8657047    -2.833803  0.032564697   -3.8657047    1.0319017      8192000 
  757000   0.79798069   -3.8661635   -3.8661635   -2.8343694  0.026536651   -3.8661635    1.0317941      8192000 
  758000   0.79787203   -3.8653877   -3.8653877    -2.833734  0.027927863   -3.8653877    1.0316536      8192000 
  759000   0.79777188   -3.8655515   -3.8655515   -2.8340274  0.030775011   -3.8655515    1.0315241      8192000 
  760000   0.79800808   -3.8656772   -3.8656772   -2.8338477  0.030174916   -3.8656772    1.0318295      8192000 
  761000   0.79791292   -3.8656844   -3.8656844   -2.8339779  0.029989329   -3.8656844    1.0317065      8192000 
  762000   0.79802147   -3.8660165   -3.8660165   -2.8341697  0.029375264   -3.8660165    1.0318468      8192000 
  763000   0.79835458   -3.8662386   -3.8662386    -2.833961  0.026417601   -3.8662386    1.0322776      8192000 
  764000   0.79805203   -3.8659504   -3.8659504    -2.834064   0.03030875   -3.8659504    1.0318864      8192000 
  765000   0.79866269   -3.8663193   -3.8663193   -2.8336434  0.030719338   -3.8663193    1.0326759      8192000 
  766000   0.79797603   -3.8659364   -3.8659364   -2.8341483  0.028212331   -3.8659364    1.0317881      8192000 
  767000   0.79811477   -3.8655751   -3.8655751   -2.8336076  0.030476899   -3.8655751    1.0319675      8192000 
  768000   0.79817309   -3.8657522   -3.8657522   -2.8337093  0.028399734   -3.8657522    1.0320429      8192000 
  769000   0.79803895   -3.8658439   -3.8658439   -2.8339745  0.026886783   -3.8658439    1.0318694      8192000 
  770000   0.79802042   -3.8659268   -3.8659268   -2.8340813  0.027524017   -3.8659268    1.0318455      8192000 
  771000   0.79803703   -3.8659791   -3.8659791   -2.8341122  0.025893585   -3.8659791     1.031867      8192000 
  772000   0.79789985   -3.8658332   -3.8658332   -2.8341436   0.02690358   -3.8658332    1.0316896      8192000 
  773000   0.79760966   -3.8655034   -3.8655034    -2.834189  0.029129192   -3.8655034    1.0313144      8192000 
  774000   0.79818503   -3.8659003   -3.8659003    -2.833842  0.027833526   -3.8659003    1.0320583      8192000 
  775000   0.79801445     -3.86577     -3.86577   -2.8339322  0.029124806     -3.86577    1.0318378      8192000 
  776000   0.79787584   -3.8653178   -3.8653178   -2.8336593  0.026705193   -3.8653178    1.0316586      8192000 
  777000   0.79807698   -3.8654506   -3.8654506    -2.833532  0.028590732   -3.8654506    1.0319186      8192000 
  778000   0.79810646   -3.8657435   -3.8657435   -2.8337868  0.030370404   -3.8657435    1.0319567      8192000 
  779000    0.7984176   -3.8660377   -3.8660377   -2.8336786  0.026598597   -3.8660377     1.032359      8192000 
  780000   0.79763418   -3.8651917   -3.8651917   -2.8338456  0.031451322   -3.8651917    1.0313461      8192000 
  781000   0.79789964   -3.8656686   -3.8656686   -2.8339792  0.027292404   -3.8656686    1.0316893      8192000 
  782000   0.79783547   -3.8654524   -3.8654524   -2.8338461  0.029897079   -3.8654524    1.0316063      8192000 
  783000   0.79779705   -3.8653167   -3.8653167     -2.83376   0.03033115   -3.8653167    1.0315567      8192000 
  784000    0.7982236   -3.8657591   -3.8657591   -2.8336509  0.027987678   -3.8657591    1.0321082      8192000 
  785000   0.79820092   -3.8657136   -3.8657136   -2.8336348  0.026136527   -3.8657136    1.0320789      8192000 
  786000   0.79775758   -3.8652742   -3.8652742   -2.8337686  0.028348948   -3.8652742    1.0315056      8192000 
  787000   0.79774881    -3.865819    -3.865819   -2.8343247  0.025383173    -3.865819    1.0314943      8192000 
  788000   0.79780482    -3.865508    -3.865508   -2.8339413  0.028469284    -3.865508    1.0315667      8192000 
  789000   0.79810882   -3.8659795   -3.8659795   -2.8340197  0.024228961   -3.8659795    1.0319598      8192000 
  790000   0.79769898   -3.8653802   -3.8653802   -2.8339504  0.026395723   -3.8653802    1.0314299      8192000 
  791000   0.79767985    -3.865212    -3.865212   -2.8338068  0.028893328    -3.865212    1.0314051      8192000 
  792000   0.79803667   -3.8658003   -3.8658003   -2.8339338  0.028218156   -3.8658003    1.0318665      8192000 
  793000   0.79800795    -3.865186    -3.865186   -2.8333566  0.027115325    -3.865186    1.0318294      8192000 
  794000   0.79850133   -3.8655974   -3.8655974   -2.8331301  0.029331474   -3.8655974    1.0324673      8192000 
  795000   0.79812849   -3.8653918   -3.8653918   -2.8334066  0.028108168   -3.8653918    1.0319852      8192000 
  796000   0.79842106    -3.865618    -3.865618   -2.8332545  0.026601848    -3.865618    1.0323635      8192000 
  797000   0.79795103    -3.865485    -3.865485   -2.8337292  0.027417405    -3.865485    1.0317558      8192000 
  798000   0.79755261   -3.8648861   -3.8648861   -2.8336455  0.029363736   -3.8648861    1.0312406      8192000 
  799000   0.79790404   -3.8655575   -3.8655575   -2.8338625  0.028356745   -3.8655575     1.031695      8192000 
  800000    0.7982518   -3.8657364   -3.8657364   -2.8335917  0.027601369   -3.8657364    1.0321447      8192000 
  801000   0.79803029   -3.8655396   -3.8655396   -2.8336814   0.02756272   -3.8655396    1.0318583      8192000 
  802000   0.79773697   -3.8651073   -3.8651073   -2.8336284  0.026868482   -3.8651073     1.031479      8192000 
  803000   0.79802752   -3.8653881   -3.8653881   -2.8335334  0.027713692   -3.8653881    1.0318547      8192000 
  804000   0.79824861   -3.8657675   -3.8657675    -2.833627  0.024365213   -3.8657675    1.0321405      8192000 
  805000   0.79783872   -3.8654043   -3.8654043   -2.8337938  0.029302002   -3.8654043    1.0316106      8192000 
  806000   0.79836362   -3.8654064   -3.8654064   -2.8331172  0.029390649   -3.8654064    1.0322893      8192000 
  807000   0.79804018   -3.8653938   -3.8653938   -2.8335227  0.027690918   -3.8653938     1.031871      8192000 
  808000   0.79801486    -3.865201    -3.865201   -2.8333627  0.027852777    -3.865201    1.0318383      8192000 
  809000   0.79832769   -3.8653229   -3.8653229   -2.8330801  0.032520862   -3.8653229    1.0322428      8192000 
  810000   0.79825333   -3.8655771   -3.8655771   -2.8334305  0.029200347   -3.8655771    1.0321466      8192000 
  811000   0.79825516    -3.865195    -3.865195    -2.833046  0.028172933    -3.865195     1.032149      8192000 
  812000   0.79853659   -3.8658594   -3.8658594   -2.8333465  0.029436747   -3.8658594    1.0325129      8192000 
  813000   0.79815753   -3.8655484   -3.8655484   -2.8335256  0.030529108   -3.8655484    1.0320228      8192000 
  814000   0.79812796   -3.8656378   -3.8656378   -2.8336532  0.029628778   -3.8656378    1.0319845      8192000 
  815000   0.79828096   -3.8654759   -3.8654759   -2.8332935  0.030832718   -3.8654759    1.0321824      8192000 
  816000   0.79836655   -3.8657411   -3.8657411   -2.8334481  0.027396563   -3.8657411     1.032293      8192000 
  817000   0.79781731   -3.8653336   -3.8653336   -2.8337508  0.028511447   -3.8653336    1.0315829      8192000 
  818000   0.79769458   -3.8653515   -3.8653515   -2.8339274  0.028117177   -3.8653515    1.0314242      8192000 
  819000   0.79795879   -3.8653359   -3.8653359   -2.8335701  0.029907559   -3.8653359    1.0317658      8192000 
  820000   0.79801881   -3.8649323   -3.8649323   -2.8330889  0.027766432   -3.8649323    1.0318434      8192000 
  821000   0.79826439   -3.8652537   -3.8652537   -2.8330927  0.027196811   -3.8652537    1.0321609      8192000 
  822000   0.79763763   -3.8648728   -3.8648728   -2.8335222  0.029148852   -3.8648728    1.0313505      8192000 
  823000     0.798239   -3.8654326   -3.8654326   -2.8333044   0.02782296   -3.8654326    1.0321281      8192000 
  824000   0.79791224   -3.8654408   -3.8654408   -2.8337352  0.025532952   -3.8654408    1.0317056      8192000 
  825000   0.79811612    -3.865121    -3.865121   -2.8331517  0.028107322    -3.865121    1.0319692      8192000 
  826000   0.79818089    -3.865054    -3.865054   -2.8330011  0.029578234    -3.865054     1.032053      8192000 
  827000   0.79815506    -3.865046    -3.865046   -2.8330264  0.028923995    -3.865046    1.0320196      8192000 
  828000    0.7981488   -3.8655442   -3.8655442   -2.8335328  0.027144005   -3.8655442    1.0320115      8192000 
  829000   0.79764658   -3.8649087   -3.8649087   -2.8335466  0.025855956   -3.8649087    1.0313621      8192000 
  830000   0.79774132   -3.8648737   -3.8648737   -2.8333891  0.028548912   -3.8648737    1.0314846      8192000 
  831000   0.79770551   -3.8646976   -3.8646976   -2.8332593  0.028352709   -3.8646976    1.0314383      8192000 
  832000   0.79810396   -3.8656682   -3.8656682   -2.8337147   0.02780947   -3.8656682    1.0319535      8192000 
  833000   0.79828402   -3.8659711   -3.8659711   -2.8337847  0.024757368   -3.8659711    1.0321863      8192000 
  834000   0.79772103   -3.8651991   -3.8651991   -2.8337407  0.025429178   -3.8651991    1.0314584      8192000 
  835000   0.79785803   -3.8653726   -3.8653726   -2.8337371  0.027327485   -3.8653726    1.0316355      8192000 
  836000    0.7982434   -3.8656313   -3.8656313   -2.8334975  0.027470083   -3.8656313    1.0321338      8192000 
  837000   0.79834207   -3.8653957   -3.8653957   -2.8331343   0.02959005   -3.8653957    1.0322614      8192000 
  838000   0.79814229   -3.8656129   -3.8656129   -2.8336098   0.02951673   -3.8656129    1.0320031      8192000 
  839000   0.79788277   -3.8652346   -3.8652346   -2.8335671  0.029177526   -3.8652346    1.0316675      8192000 
  840000   0.79824657   -3.8656211   -3.8656211   -2.8334832  0.031411406   -3.8656211    1.0321379      8192000 
  841000   0.79825069   -3.8658314   -3.8658314   -2.8336882  0.028506315   -3.8658314    1.0321432      8192000 
  842000   0.79886119   -3.8663646   -3.8663646    -2.833432   0.02939477   -3.8663646    1.0329326      8192000 
  843000    0.7984172   -3.8657943   -3.8657943   -2.8334357  0.029293528   -3.8657943    1.0323585      8192000 
  844000   0.79783644   -3.8655434   -3.8655434   -2.8339358  0.030098099   -3.8655434    1.0316076      8192000 
  845000   0.79825273    -3.865743    -3.865743   -2.8335971  0.028708577    -3.865743    1.0321459      8192000 
  846000   0.79843848   -3.8655945   -3.8655945   -2.8332085  0.034351157   -3.8655945     1.032386      8192000 
  847000   0.79823875   -3.8658418   -3.8658418   -2.8337141  0.031040432   -3.8658418    1.0321278      8192000 
  848000   0.79862908   -3.8656803   -3.8656803   -2.8330478  0.031559407   -3.8656803    1.0326325      8192000 
  849000   0.79853363   -3.8660425   -3.8660425   -2.8335334  0.025651563   -3.8660425    1.0325091      8192000 
  850000   0.79807091   -3.8653244   -3.8653244   -2.8334136  0.029887556   -3.8653244    1.0319108      8192000 
  851000   0.79833199   -3.8653574   -3.8653574    -2.833109  0.029748733   -3.8653574    1.0322484      8192000 
  852000   0.79833112   -3.8655036   -3.8655036   -2.8332564  0.028394154   -3.8655036    1.0322472      8192000 
  853000   0.79818418   -3.8648709   -3.8648709   -2.8328137  0.031696555   -3.8648709    1.0320572      8192000 
  854000   0.79829821   -3.8652962   -3.8652962   -2.8330915    0.0281624   -3.8652962    1.0322047      8192000 
  855000   0.79862729   -3.8659724   -3.8659724   -2.8333422  0.028199622   -3.8659724    1.0326302      8192000 
  856000   0.79837775    -3.865486    -3.865486   -2.8331785  0.027906957    -3.865486    1.0323075      8192000 
  857000   0.79799766   -3.8651277   -3.8651277   -2.8333117  0.026309693   -3.8651277    1.0318161      8192000 
  858000   0.79837963   -3.8656424   -3.8656424   -2.8333325  0.025906164   -3.8656424      1.03231      8192000 
  859000   0.79810921    -3.865465    -3.865465   -2.8335047   0.02798629    -3.865465    1.0319603      8192000 
  860000   0.79813189   -3.8652902   -3.8652902   -2.8333006  0.028501281   -3.8652902    1.0319896      8192000 
  861000   0.79820404   -3.8651363   -3.8651363   -2.8330534  0.027580889   -3.8651363    1.0320829      8192000 
  862000   0.79786854   -3.8647395   -3.8647395   -2.8330904  0.030202755   -3.8647395    1.0316491      8192000 
  863000   0.79767611   -3.8645909   -3.8645909   -2.8331906  0.028063366   -3.8645909    1.0314003      8192000 
  864000   0.79804506   -3.8651965   -3.8651965   -2.8333192  0.026482051   -3.8651965    1.0318773      8192000 
  865000   0.79798078    -3.864919    -3.864919   -2.8331247  0.028097489    -3.864919    1.0317942      8192000 
  866000   0.79837142   -3.8652288   -3.8652288   -2.8329294  0.027692016   -3.8652288    1.0322993      8192000 
  867000   0.79820789   -3.8650126   -3.8650126   -2.8329247  0.026862262   -3.8650126    1.0320879      8192000 
  868000   0.79827619    -3.865092    -3.865092   -2.8329158  0.028285814    -3.865092    1.0321762      8192000 
  869000   0.79842143   -3.8648802   -3.8648802   -2.8325162  0.029098179   -3.8648802     1.032364      8192000 
  870000   0.79868372      -3.8654      -3.8654   -2.8326968    0.0274823      -3.8654    1.0327031      8192000 
  871000   0.79831357   -3.8648846   -3.8648846   -2.8326601  0.027157023   -3.8648846    1.0322245      8192000 
  872000   0.79836799   -3.8651783   -3.8651783   -2.8328834  0.029124567   -3.8651783    1.0322949      8192000 
  873000   0.79799033   -3.8644971   -3.8644971   -2.8326905   0.02695064   -3.8644971    1.0318066      8192000 
  874000   0.79813893   -3.8653215   -3.8653215   -2.8333227  0.028380614   -3.8653215    1.0319987      8192000 
  875000   0.79816326   -3.8648535   -3.8648535   -2.8328233  0.027002542   -3.8648535    1.0320302      8192000 
  876000   0.79834459   -3.8648111   -3.8648111   -2.8325465  0.027638473   -3.8648111    1.0322646      8192000 
  877000   0.79822895   -3.8647269   -3.8647269   -2.8326118  0.025911906   -3.8647269    1.0321151      8192000 
  878000   0.79803027   -3.8645862   -3.8645862    -2.832728  0.026444453   -3.8645862    1.0318582      8192000 
  879000   0.79809805   -3.8644567   -3.8644567   -2.8325109  0.025991979   -3.8644567    1.0319459      8192000 
  880000    0.7981709   -3.8643713   -3.8643713   -2.8323312  0.029932313   -3.8643713    1.0320401      8192000 
  881000   0.79833025   -3.8647254   -3.8647254   -2.8324793  0.028029716   -3.8647254    1.0322461      8192000 
  882000   0.79840417   -3.8648019   -3.8648019   -2.8324602  0.029216979   -3.8648019    1.0323417      8192000 
  883000   0.79845494   -3.8646647   -3.8646647   -2.8322573  0.026504957   -3.8646647    1.0324073      8192000 
  884000   0.79873465   -3.8647085   -3.8647085   -2.8319395  0.027366623   -3.8647085     1.032769      8192000 
  885000   0.79805016   -3.8642512   -3.8642512   -2.8323672  0.032057602   -3.8642512    1.0318839      8192000 
  886000   0.79805566    -3.864371    -3.864371     -2.83248  0.027124578    -3.864371    1.0318911      8192000 
  887000   0.79827132   -3.8648608   -3.8648608   -2.8326909  0.027394204   -3.8648608    1.0321699      8192000 
  888000   0.79830612   -3.8647672   -3.8647672   -2.8325523  0.027423626   -3.8647672    1.0322149      8192000 
  889000   0.79804499   -3.8643022   -3.8643022   -2.8324249  0.026043941   -3.8643022    1.0318773      8192000 
  890000   0.79828972   -3.8650285   -3.8650285   -2.8328348  0.025805329   -3.8650285    1.0321937      8192000 
  891000   0.79817054   -3.8650987   -3.8650987   -2.8330591  0.023835927   -3.8650987    1.0320396      8192000 
  892000   0.79801341   -3.8646939   -3.8646939   -2.8328574  0.027014964   -3.8646939    1.0318364      8192000 
  893000   0.79863889   -3.8648683   -3.8648683   -2.8322231  0.028401657   -3.8648683    1.0326452      8192000 
  894000   0.79864935   -3.8651335   -3.8651335   -2.8324748  0.026953455   -3.8651335    1.0326587      8192000 
  895000   0.79844498   -3.8651791   -3.8651791   -2.8327847  0.024845339   -3.8651791    1.0323944      8192000 
  896000   0.79840802   -3.8650153   -3.8650153   -2.8326687  0.029873207   -3.8650153    1.0323467      8192000 
  897000   0.79843829   -3.8649412   -3.8649412   -2.8325554  0.028912843   -3.8649412    1.0323858      8192000 
  898000   0.79787455   -3.8642649   -3.8642649    -2.832608  0.027457189   -3.8642649    1.0316569      8192000 
  899000   0.79832967   -3.8649279   -3.8649279   -2.8326826   0.02804866   -3.8649279    1.0322453      8192000 
  900000   0.79875515   -3.8648575   -3.8648575    -2.832062  0.027757091   -3.8648575    1.0327955      8192000 
  901000   0.79826533   -3.8650454   -3.8650454   -2.8328833  0.032123584   -3.8650454    1.0321622      8192000 
  902000   0.79827129   -3.8648477   -3.8648477   -2.8326778  0.030514013   -3.8648477    1.0321699      8192000 
  903000   0.79872446   -3.8655315   -3.8655315   -2.8327756  0.028211684   -3.8655315    1.0327558      8192000 
  904000   0.79830805   -3.8652968   -3.8652968   -2.8330794  0.028317426   -3.8652968    1.0322174      8192000 
  905000   0.79861615   -3.8652494   -3.8652494   -2.8326337  0.028681911   -3.8652494    1.0326158      8192000 
  906000   0.79858626   -3.8649481   -3.8649481    -2.832371  0.029715551   -3.8649481    1.0325771      8192000 
  907000   0.79844846   -3.8651058   -3.8651058   -2.8327068  0.028672091   -3.8651058    1.0323989      8192000 
  908000   0.79834309   -3.8647845   -3.8647845   -2.8325218  0.031217242   -3.8647845    1.0322627      8192000 
  909000   0.79846638   -3.8649999   -3.8649999   -2.8325778  0.030169394   -3.8649999    1.0324221      8192000 
  910000   0.79903775   -3.8656742   -3.8656742   -2.8325133  0.025924073   -3.8656742    1.0331609      8192000 
  911000   0.79863199     -3.86514     -3.86514   -2.8325037  0.028923786     -3.86514    1.0326363      8192000 
  912000   0.79868321   -3.8646629   -3.8646629   -2.8319604  0.027396741   -3.8646629    1.0327025      8192000 
  913000   0.79850261   -3.8648934   -3.8648934   -2.8324244  0.030058815   -3.8648934     1.032469      8192000 
  914000   0.79817073   -3.8647543   -3.8647543   -2.8327145  0.029104898   -3.8647543    1.0320398      8192000 
  915000   0.79795461   -3.8644555   -3.8644555   -2.8326951  0.030345805   -3.8644555    1.0317604      8192000 
  916000   0.79831801   -3.8647055   -3.8647055   -2.8324752  0.028109757   -3.8647055    1.0322303      8192000 
  917000    0.7983439   -3.8647916   -3.8647916   -2.8325279  0.027007871   -3.8647916    1.0322638      8192000 
  918000   0.79798764   -3.8643215   -3.8643215   -2.8325184  0.027062659   -3.8643215    1.0318031      8192000 
  919000   0.79844802   -3.8644547   -3.8644547   -2.8320563  0.028165479   -3.8644547    1.0323984      8192000 
  920000   0.79876597   -3.8648777   -3.8648777   -2.8320683  0.028087193   -3.8648777    1.0328095      8192000 
  921000    0.7984139   -3.8649781   -3.8649781   -2.8326238  0.026174173   -3.8649781    1.0323543      8192000 
  922000   0.79807451   -3.8643306   -3.8643306   -2.8324151  0.027991775   -3.8643306    1.0319154      8192000 
  923000   0.79799904   -3.8642217   -3.8642217   -2.8324039  0.025802804   -3.8642217    1.0318178      8192000 
  924000   0.79809812   -3.8643222   -3.8643222   -2.8323762  0.027540419   -3.8643222     1.031946      8192000 
  925000   0.79787766   -3.8640741   -3.8640741   -2.8324132  0.029644313   -3.8640741    1.0316609      8192000 
  926000   0.79817564   -3.8644462   -3.8644462      -2.8324  0.026033042   -3.8644462    1.0320462      8192000 
  927000   0.79808108   -3.8639691   -3.8639691   -2.8320452  0.026451899   -3.8639691    1.0319239      8192000 
  928000   0.79838449   -3.8645895   -3.8645895   -2.8322733  0.026115476   -3.8645895    1.0323162      8192000 
  929000   0.79870772      -3.8647      -3.8647   -2.8319658  0.027600929      -3.8647    1.0327342      8192000 
  930000   0.79781089   -3.8639164   -3.8639164   -2.8323418  0.026371198   -3.8639164    1.0315746      8192000 
  931000   0.79815297   -3.8644559   -3.8644559    -2.832439  0.026825001   -3.8644559    1.0320169      8192000 
  932000   0.79842364   -3.8646661   -3.8646661   -2.8322992  0.029162363   -3.8646661    1.0323669      8192000 
  933000    0.7987736   -3.8649441   -3.8649441   -2.8321247  0.026014815   -3.8649441    1.0328194      8192000 
  934000   0.79851283   -3.8649461   -3.8649461   -2.8324639  0.027147189   -3.8649461    1.0324822      8192000 
  935000   0.79873282   -3.8648214   -3.8648214   -2.8320547  0.030253245   -3.8648214    1.0327666      8192000 
  936000   0.79911421   -3.8649228   -3.8649228    -2.831663  0.029059046   -3.8649228    1.0332598      8192000 
  937000   0.79886016   -3.8645891   -3.8645891   -2.8316578  0.030014899   -3.8645891    1.0329313      8192000 
  938000   0.79865254   -3.8641604   -3.8641604   -2.8314975  0.030683621   -3.8641604    1.0326628      8192000 
  939000   0.79923015   -3.8650561   -3.8650561   -2.8316464  0.029583149   -3.8650561    1.0334097      8192000 
  940000   0.79853462   -3.8643368   -3.8643368   -2.8318265  0.032133705   -3.8643368    1.0325104      8192000 
  941000   0.79894895    -3.864467    -3.864467   -2.8314209  0.029476549    -3.864467    1.0330461      8192000 
  942000    0.7985379   -3.8640662   -3.8640662   -2.8315516  0.030981841   -3.8640662    1.0325146      8192000 
  943000   0.79904967   -3.8646441   -3.8646441   -2.8314678  0.029390491   -3.8646441    1.0331763      8192000 
  944000   0.79886727     -3.86497     -3.86497   -2.8320296  0.028895462     -3.86497    1.0329405      8192000 
  945000   0.79893236   -3.8643746   -3.8643746     -2.83135  0.028000704   -3.8643746    1.0330246      8192000 
  946000   0.79882532   -3.8645454   -3.8645454   -2.8316592  0.026944865   -3.8645454    1.0328862      8192000 
  947000   0.79838318    -3.863935    -3.863935   -2.8316205  0.029361474    -3.863935    1.0323145      8192000 
  948000   0.79843393   -3.8637978   -3.8637978   -2.8314177  0.026463863   -3.8637978    1.0323802      8192000 
  949000   0.79871913   -3.8644278   -3.8644278   -2.8316789  0.023295329   -3.8644278    1.0327489      8192000 
  950000   0.79827759   -3.8638847   -3.8638847   -2.8317066   0.02672582   -3.8638847     1.032178      8192000 
  951000   0.79854959    -3.864054    -3.864054   -2.8315243   0.02559721    -3.864054    1.0325297      8192000 
  952000   0.79855419    -3.863974    -3.863974   -2.8314383  0.026679417    -3.863974    1.0325357      8192000 
  953000   0.79849337   -3.8638128   -3.8638128   -2.8313558  0.027783291   -3.8638128     1.032457      8192000 
  954000    0.7987969   -3.8640048   -3.8640048   -2.8311553  0.024744955   -3.8640048    1.0328495      8192000 
  955000   0.79830222   -3.8635949   -3.8635949    -2.831385  0.028670871   -3.8635949    1.0322099      8192000 
  956000   0.79822746   -3.8632989   -3.8632989   -2.8311857  0.028536717   -3.8632989    1.0321132      8192000 
  957000   0.79842592   -3.8637874   -3.8637874   -2.8314176  0.025596302   -3.8637874    1.0323698      8192000 
  958000   0.79800236   -3.8630807   -3.8630807   -2.8312586  0.028608831   -3.8630807    1.0318221      8192000 
  959000   0.79824171     -3.86353     -3.86353   -2.8313984  0.025301323     -3.86353    1.0321316      8192000 
  960000   0.79827131   -3.8636576   -3.8636576   -2.8314877  0.028700343   -3.8636576    1.0321699      8192000 
  961000   0.79816815    -3.863415    -3.863415   -2.8313784  0.028386272    -3.863415    1.0320365      8192000 
  962000   0.79816316   -3.8638046   -3.8638046   -2.8317746  0.027046896   -3.8638046    1.0320301      8192000 
  963000    0.7978998   -3.8633384   -3.8633384   -2.8316489  0.030795784   -3.8633384    1.0316895      8192000 
  964000   0.79803528   -3.8637475   -3.8637475   -2.8318828  0.030719918   -3.8637475    1.0318647      8192000 
  965000   0.79857749   -3.8640686   -3.8640686   -2.8315028   0.02566766   -3.8640686    1.0325658      8192000 
  966000   0.79813315   -3.8636583   -3.8636583   -2.8316671   0.02552879   -3.8636583    1.0319913      8192000 
  967000   0.79854565   -3.8642868   -3.8642868   -2.8317621  0.027825128   -3.8642868    1.0325246      8192000 
  968000   0.79826132   -3.8636937   -3.8636937   -2.8315367  0.028829378   -3.8636937     1.032157      8192000 
  969000   0.79834723   -3.8638114   -3.8638114   -2.8315433  0.030028027   -3.8638114    1.0322681      8192000 
  970000    0.7985626   -3.8639273   -3.8639273   -2.8313808  0.030905173   -3.8639273    1.0325465      8192000 
  971000   0.79820998   -3.8640277   -3.8640277   -2.8319371  0.029199981   -3.8640277    1.0320906      8192000 
  972000   0.79873615   -3.8643137   -3.8643137   -2.8315428  0.030518106   -3.8643137    1.0327709      8192000 
  973000   0.79870366   -3.8645332   -3.8645332   -2.8318043  0.025417034   -3.8645332    1.0327289      8192000 
  974000   0.79865282   -3.8646645   -3.8646645   -2.8320013  0.029553829   -3.8646645    1.0326632      8192000 
  975000   0.79862193   -3.8647876   -3.8647876   -2.8321644  0.029972236   -3.8647876    1.0326233      8192000 
  976000   0.79881487   -3.8645238   -3.8645238   -2.8316511  0.030377532   -3.8645238    1.0328727      8192000 
  977000   0.79871956   -3.8648407   -3.8648407   -2.8320912   0.02986245   -3.8648407    1.0327495      8192000 
  978000    0.7981181    -3.864274    -3.864274   -2.8323022  0.028373502    -3.864274    1.0319718      8192000 
  979000   0.79874843   -3.8648405   -3.8648405   -2.8320537  0.027615025   -3.8648405    1.0327868      8192000 
  980000   0.79852942   -3.8645927   -3.8645927    -2.832089  0.030329066   -3.8645927    1.0325036      8192000 
  981000   0.79855961   -3.8647216   -3.8647216   -2.8321789  0.027613747   -3.8647216    1.0325427      8192000 
  982000   0.79849643    -3.864624    -3.864624   -2.8321631  0.029448518    -3.864624     1.032461      8192000 
  983000   0.79860019   -3.8646819   -3.8646819   -2.8320868  0.030595837   -3.8646819    1.0325951      8192000 
  984000   0.79881041   -3.8649897   -3.8649897   -2.8321228  0.027615299   -3.8649897    1.0328669      8192000 
  985000   0.79852132   -3.8647561   -3.8647561    -2.832263  0.028510455   -3.8647561    1.0324932      8192000 
  986000   0.79876281   -3.8652329   -3.8652329   -2.8324275  0.029492721   -3.8652329    1.0328054      8192000 
  987000   0.79883606   -3.8648801   -3.8648801     -2.83198  0.029373101   -3.8648801    1.0329001      8192000 
  988000   0.79823032   -3.8641857   -3.8641857   -2.8320688  0.028560657   -3.8641857    1.0321169      8192000 
  989000   0.79857488   -3.8646591   -3.8646591   -2.8320967  0.029248127   -3.8646591    1.0325624      8192000 
  990000   0.79884945   -3.8646011   -3.8646011   -2.8316837  0.030338602   -3.8646011    1.0329174      8192000 
  991000   0.79835165   -3.8642401   -3.8642401   -2.8319663  0.026190502   -3.8642401    1.0322738      8192000 
  992000   0.79845334   -3.8644534   -3.8644534   -2.8320481  0.028328754   -3.8644534    1.0324053      8192000 
  993000   0.79788485   -3.8638866   -3.8638866   -2.8322164  0.027908551   -3.8638866    1.0316702      8192000 
  994000   0.79835043   -3.8638835   -3.8638835   -2.8316113  0.027031775   -3.8638835    1.0322722      8192000 
  995000   0.79836445    -3.863816    -3.863816   -2.8315257  0.025421781    -3.863816    1.0322903      8192000 
  996000   0.79842726   -3.8643105   -3.8643105    -2.831939  0.026232978   -3.8643105    1.0323715      8192000 
  997000    0.7980315   -3.8638506   -3.8638506   -2.8319908  0.028484602   -3.8638506    1.0318598      8192000 
  998000    0.7982719   -3.8640263   -3.8640263   -2.8318556  0.025191005   -3.8640263    1.0321707      8192000 
  999000   0.79825722   -3.8644377   -3.8644377    -2.832286  0.023508331   -3.8644377    1.0321517      8192000 
 1000000   0.79856122   -3.8642456   -3.8642456   -2.8317008  0.027688143   -3.8642456    1.0325447      8192000 
 1001000   0.79827022   -3.8638915   -3.8638915    -2.831723  0.026203192   -3.8638915    1.0321685      8192000 
 1002000   0.79827705   -3.8636999   -3.8636999   -2.8315226  0.029326916   -3.8636999    1.0321773      8192000 
 1003000   0.79846253   -3.8639939   -3.8639939   -2.8315767  0.025695496   -3.8639939    1.0324171      8192000 
 1004000   0.79792624   -3.8633583   -3.8633583   -2.8316346  0.028135012   -3.8633583    1.0317237      8192000 
 1005000   0.79848451    -3.864183    -3.864183   -2.8317375  0.026400496    -3.864183    1.0324456      8192000 
 1006000   0.79837392   -3.8639639   -3.8639639   -2.8316614  0.025412248   -3.8639639    1.0323026      8192000 
 1007000   0.79834047   -3.8639363   -3.8639363    -2.831677  0.027496729   -3.8639363    1.0322593      8192000 
 1008000   0.79857145   -3.8642745   -3.8642745   -2.8317165  0.027633531   -3.8642745     1.032558      8192000 
 1009000   0.79826422   -3.8638014   -3.8638014   -2.8316407  0.030206234   -3.8638014    1.0321607      8192000 
 1010000   0.79846276   -3.8641553   -3.8641553   -2.8317378  0.029158686   -3.8641553    1.0324174      8192000 
 1011000   0.79810563    -3.863705    -3.863705   -2.8317493   0.02764837    -3.863705    1.0319557      8192000 
 1012000   0.79793738   -3.8637124   -3.8637124   -2.8319743  0.027535374   -3.8637124    1.0317381      8192000 
 1013000   0.79820512   -3.8640565   -3.8640565   -2.8319722  0.026508133   -3.8640565    1.0320843      8192000 
 1014000   0.79822804   -3.8642492   -3.8642492   -2.8321353  0.027371771   -3.8642492    1.0321139      8192000 
 1015000   0.79815726   -3.8641059   -3.8641059   -2.8320835  0.029406998   -3.8641059    1.0320224      8192000 
 1016000   0.79856422   -3.8645608   -3.8645608   -2.8320122  0.027297411   -3.8645608    1.0325486      8192000 
 1017000   0.79822433   -3.8640457   -3.8640457   -2.8319366  0.028275176   -3.8640457    1.0321091      8192000 
 1018000   0.79859946   -3.8646658   -3.8646658   -2.8320716  0.027169754   -3.8646658    1.0325942      8192000 
 1019000   0.79845535   -3.8647207   -3.8647207   -2.8323128  0.027201431   -3.8647207    1.0324079      8192000 
 1020000   0.79889435   -3.8648848   -3.8648848   -2.8319094  0.028389322   -3.8648848    1.0329755      8192000 
 1021000   0.79859723   -3.8651609   -3.8651609   -2.8325696  0.027748196   -3.8651609    1.0325913      8192000 
 1022000   0.79871104   -3.8650977   -3.8650977   -2.8323592  0.028088838   -3.8650977    1.0327385      8192000 
 1023000   0.79899967   -3.8656988   -3.8656988   -2.8325871  0.028090332   -3.8656988    1.0331117      8192000 
 1024000   0.79807475   -3.8642216   -3.8642216   -2.8323059    0.0312456   -3.8642216    1.0319157      8192000 
 1025000    0.7985575   -3.8649708   -3.8649708   -2.8324309  0.033517817   -3.8649708    1.0325399      8192000 
 1026000   0.79895721   -3.8653381   -3.8653381   -2.8322813  0.030443246   -3.8653381    1.0330568      8192000 
 1027000   0.79876251   -3.8652743   -3.8652743   -2.8324693   0.02714931   -3.8652743     1.032805      8192000 
 1028000   0.79857507   -3.8646522   -3.8646522   -2.8320895  0.029830496   -3.8646522    1.0325627      8192000 
 1029000   0.79845449   -3.8642272   -3.8642272   -2.8318204   0.02960874   -3.8642272    1.0324067      8192000 
 1030000   0.79847784   -3.8646203   -3.8646203   -2.8321834  0.029506709   -3.8646203    1.0324369      8192000 
 1031000   0.79834422   -3.8648192   -3.8648192    -2.832555  0.027640553   -3.8648192    1.0322642      8192000 
 1032000    0.7984043    -3.864805    -3.864805   -2.8324631  0.025141754    -3.864805    1.0323419      8192000 
 1033000   0.79829712   -3.8643935   -3.8643935   -2.8321903  0.027789787   -3.8643935    1.0322033      8192000 
 1034000   0.79825132   -3.8646563   -3.8646563   -2.8325122  0.026574249   -3.8646563     1.032144      8192000 
 1035000   0.79760204   -3.8633793   -3.8633793   -2.8320747  0.031195105   -3.8633793    1.0313045      8192000 
 1036000    0.7984083   -3.8641775   -3.8641775   -2.8318305  0.026674832   -3.8641775     1.032347      8192000 
 1037000   0.79773868   -3.8633109   -3.8633109   -2.8318297  0.030052761   -3.8633109    1.0314812      8192000 
 1038000   0.79849503   -3.8642471   -3.8642471    -2.831788  0.026696382   -3.8642471    1.0324592      8192000 
 1039000   0.79850011   -3.8640219   -3.8640219   -2.8315561  0.030310549   -3.8640219    1.0324657      8192000 
 1040000   0.79867343   -3.8642691   -3.8642691   -2.8315792  0.028200792   -3.8642691    1.0326898      8192000 
 1041000   0.79848947   -3.8641551   -3.8641551   -2.8317031  0.024047694   -3.8641551     1.032452      8192000 
 1042000   0.79824588   -3.8641393   -3.8641393   -2.8320023  0.028469265   -3.8641393     1.032137      8192000 
 1043000   0.79795723   -3.8639907   -3.8639907    -2.832227  0.028051231   -3.8639907    1.0317638      8192000 
 1044000   0.79841761   -3.8641383   -3.8641383   -2.8317792  0.027391713   -3.8641383    1.0323591      8192000 
 1045000     0.797943   -3.8637258   -3.8637258   -2.8319805  0.029030503   -3.8637258    1.0317454      8192000 
 1046000   0.79811546   -3.8637403   -3.8637403   -2.8317719  0.027366408   -3.8637403    1.0319684      8192000 
 1047000   0.79797878   -3.8635992   -3.8635992   -2.8318075  0.028616796   -3.8635992    1.0317917      8192000 
 1048000   0.79773202   -3.8635928   -3.8635928   -2.8321203  0.027362824   -3.8635928    1.0314726      8192000 
 1049000   0.79827301   -3.8641459   -3.8641459   -2.8319738  0.025919472   -3.8641459    1.0321721      8192000 
 1050000   0.79833928   -3.8642921   -3.8642921   -2.8320343  0.026529738   -3.8642921    1.0322578      8192000 
 1051000   0.79803202    -3.863921    -3.863921   -2.8320605  0.030938279    -3.863921    1.0318605      8192000 
 1052000   0.79818326   -3.8638195   -3.8638195   -2.8317635  0.027133163   -3.8638195     1.032056      8192000 
 1053000   0.79881473   -3.8645044   -3.8645044   -2.8316319  0.027200992   -3.8645044    1.0328725      8192000 
 1054000   0.79820119   -3.8638621   -3.8638621   -2.8317829  0.030346072   -3.8638621    1.0320792      8192000 
 1055000   0.79826075   -3.8640094   -3.8640094   -2.8318532  0.029708108   -3.8640094    1.0321562      8192000 
 1056000   0.79856842   -3.8640645   -3.8640645   -2.8315105  0.029739263   -3.8640645    1.0325541      8192000 
 1057000   0.79826809    -3.863848    -3.863848   -2.8316823  0.030920864    -3.863848    1.0321657      8192000 
 1058000   0.79877692   -3.8645211   -3.8645211   -2.8316974  0.028536166   -3.8645211    1.0328237      8192000 
 1059000   0.79852069   -3.8641815   -3.8641815   -2.8316892  0.029295682   -3.8641815    1.0324923      8192000 
 1060000   0.79853494   -3.8643761   -3.8643761   -2.8318653  0.029428618   -3.8643761    1.0325108      8192000 
 1061000   0.79889244    -3.864585    -3.864585    -2.831612  0.029607367    -3.864585     1.032973      8192000 
 1062000   0.79897954   -3.8647493   -3.8647493   -2.8316637  0.030322557   -3.8647493    1.0330856      8192000 
 1063000   0.79899002   -3.8651448   -3.8651448   -2.8320456  0.027159813   -3.8651448    1.0330992      8192000 
 1064000   0.79898195   -3.8647986   -3.8647986   -2.8317098  0.029284233   -3.8647986    1.0330888      8192000 
 1065000   0.79898974   -3.8651163   -3.8651163   -2.8320175  0.026519033   -3.8651163    1.0330988      8192000 
 1066000   0.79850923   -3.8644085   -3.8644085    -2.831931  0.028979299   -3.8644085    1.0324775      8192000 
 1067000   0.79870281   -3.8644838   -3.8644838    -2.831756   0.03006698   -3.8644838    1.0327278      8192000 
 1068000   0.79859854   -3.8646288   -3.8646288   -2.8320358   0.02725139   -3.8646288     1.032593      8192000 
 1069000    0.7983556   -3.8645638   -3.8645638   -2.8322849  0.029957547   -3.8645638    1.0322789      8192000 
 1070000   0.79840759   -3.8647036   -3.8647036   -2.8323575  0.029597157   -3.8647036    1.0323461      8192000 
 1071000   0.79873942   -3.8645268   -3.8645268   -2.8317517  0.028988897   -3.8645268    1.0327752      8192000 
 1072000   0.79852297   -3.8647321   -3.8647321   -2.8322369  0.027822992   -3.8647321    1.0324953      8192000 
 1073000   0.79839406   -3.8644103   -3.8644103   -2.8320817  0.027241262   -3.8644103    1.0323286      8192000 
 1074000   0.79859195   -3.8643678   -3.8643678   -2.8317833  0.028937801   -3.8643678    1.0325845      8192000 
 1075000   0.79794293   -3.8637735   -3.8637735   -2.8320282  0.031640437   -3.8637735    1.0317453      8192000 
 1076000   0.79810944   -3.8640148   -3.8640148   -2.8320542  0.028377537   -3.8640148    1.0319606      8192000 
 1077000   0.79821492   -3.8641009   -3.8641009    -2.832004  0.028282861   -3.8641009     1.032097      8192000 
 1078000   0.79869788   -3.8641826   -3.8641826   -2.8314612  0.028648378   -3.8641826    1.0327215      8192000 
 1079000   0.79846985   -3.8640123   -3.8640123   -2.8315856  0.029386647   -3.8640123    1.0324266      8192000 
 1080000   0.79836993   -3.8636725   -3.8636725   -2.8313751  0.028868429   -3.8636725    1.0322974      8192000 
 1081000   0.79852823   -3.8639197   -3.8639197   -2.8314176  0.029401659   -3.8639197    1.0325021      8192000 
 1082000   0.79855347   -3.8640159   -3.8640159   -2.8314812  0.027572852   -3.8640159    1.0325347      8192000 
 1083000   0.79830982   -3.8638395   -3.8638395   -2.8316198  0.029952072   -3.8638395    1.0322197      8192000 
 1084000   0.79834533   -3.8634045   -3.8634045   -2.8311389  0.030911215   -3.8634045    1.0322656      8192000 
 1085000   0.79843533    -3.863756    -3.863756    -2.831374  0.027527067    -3.863756     1.032382      8192000 
 1086000   0.79863474   -3.8643251   -3.8643251   -2.8316852  0.026891793   -3.8643251    1.0326398      8192000 
 1087000   0.79839747   -3.8638443   -3.8638443   -2.8315113   0.02687348   -3.8638443     1.032333      8192000 
 1088000   0.79811613   -3.8633736   -3.8633736   -2.8314043  0.028513678   -3.8633736    1.0319692      8192000 
 1089000   0.79804872   -3.8630834   -3.8630834   -2.8312013  0.028090841   -3.8630834    1.0318821      8192000 
 1090000    0.7983397   -3.8638416   -3.8638416   -2.8315833   0.02684214   -3.8638416    1.0322583      8192000 
 1091000   0.79831244   -3.8635947   -3.8635947   -2.8313716  0.030678388   -3.8635947    1.0322231      8192000 
 1092000   0.79867743   -3.8640379   -3.8640379   -2.8313429  0.026115496   -3.8640379     1.032695      8192000 
 1093000   0.79826733   -3.8634305   -3.8634305   -2.8312658  0.029005979   -3.8634305    1.0321648      8192000 
 1094000   0.79866704   -3.8636664   -3.8636664   -2.8309848  0.030732978   -3.8636664    1.0326816      8192000 
 1095000   0.79843999   -3.8639426   -3.8639426   -2.8315546   0.02524984   -3.8639426     1.032388      8192000 
 1096000   0.79854879   -3.8640748   -3.8640748   -2.8315461  0.028328916   -3.8640748    1.0325287      8192000 
 1097000   0.79806553   -3.8631875   -3.8631875   -2.8312837  0.030685888   -3.8631875    1.0319038      8192000 
 1098000    0.7984486   -3.8635185   -3.8635185   -2.8311194  0.024845745   -3.8635185    1.0323991      8192000 
 1099000   0.79791298   -3.8630241   -3.8630241   -2.8313175  0.028850243   -3.8630241    1.0317066      8192000 
 1100000   0.79830214   -3.8634959   -3.8634959   -2.8312862  0.026610745   -3.8634959    1.0322098      8192000 
 1101000   0.79849284    -3.863859    -3.863859   -2.8314027  0.028214563    -3.863859    1.0324563      8192000 
 1102000   0.79854714   -3.8638564   -3.8638564   -2.8313298  0.025967037   -3.8638564    1.0325265      8192000 
 1103000   0.79820846   -3.8636864   -3.8636864   -2.8315977  0.026759394   -3.8636864    1.0320886      8192000 
 1104000   0.79838496   -3.8639212   -3.8639212   -2.8316044  0.027014865   -3.8639212    1.0323168      8192000 
 1105000   0.79838141   -3.8636035   -3.8636035   -2.8312913   0.02846963   -3.8636035    1.0323122      8192000 
 1106000   0.79850744   -3.8636519   -3.8636519   -2.8311767  0.030214185   -3.8636519    1.0324752      8192000 
 1107000     0.798598   -3.8637706   -3.8637706   -2.8311783  0.029966865   -3.8637706    1.0325923      8192000 
 1108000    0.7983835   -3.8634335   -3.8634335   -2.8311186  0.030089516   -3.8634335     1.032315      8192000 
 1109000   0.79876691    -3.864021    -3.864021   -2.8312103  0.030415572    -3.864021    1.0328107      8192000 
 1110000   0.79856046    -3.863994    -3.863994   -2.8314503  0.028238274    -3.863994    1.0325438      8192000 
 1111000     0.798255   -3.8639064   -3.8639064   -2.8317576  0.027127657   -3.8639064    1.0321488      8192000 
 1112000   0.79887465    -3.864162    -3.864162    -2.831212  0.026616707    -3.864162      1.03295      8192000 
 1113000   0.79843401    -3.863702    -3.863702   -2.8313217  0.028802934    -3.863702    1.0323803      8192000 
 1114000   0.79847986   -3.8638004   -3.8638004   -2.8313608  0.028121778   -3.8638004    1.0324395      8192000 
 1115000   0.79857304   -3.8636784   -3.8636784   -2.8311183  0.028578296   -3.8636784      1.03256      8192000 
 1116000   0.79901855   -3.8647156   -3.8647156   -2.8315795  0.028187065   -3.8647156    1.0331361      8192000 
 1117000   0.79861696   -3.8643406   -3.8643406   -2.8317238  0.026134423   -3.8643406    1.0326168      8192000 
 1118000   0.79865789    -3.864281    -3.864281   -2.8316113  0.028923398    -3.864281    1.0326697      8192000 
 1119000   0.79855381   -3.8638857   -3.8638857   -2.8313505  0.029571724   -3.8638857    1.0325352      8192000 
 1120000   0.79879394   -3.8640543   -3.8640543   -2.8312087   0.02901123   -3.8640543    1.0328457      8192000 
 1121000   0.79879783   -3.8641265   -3.8641265   -2.8312758  0.025806196   -3.8641265    1.0328507      8192000 
 1122000   0.79845151   -3.8637147   -3.8637147   -2.8313118  0.029460999   -3.8637147    1.0324029      8192000 
 1123000   0.79847988   -3.8639098   -3.8639098   -2.8314702  0.031882635   -3.8639098    1.0324396      8192000 
 1124000   0.79902396   -3.8642526   -3.8642526   -2.8311095  0.028249821   -3.8642526    1.0331431      8192000 
 1125000   0.79892351   -3.8641636   -3.8641636   -2.8311504  0.030805878   -3.8641636    1.0330132      8192000 
 1126000   0.79878287   -3.8636591   -3.8636591   -2.8308277   0.03041797   -3.8636591    1.0328313      8192000 
 1127000   0.79918481   -3.8641473   -3.8641473   -2.8307962  0.030256662   -3.8641473    1.0333511      8192000 
 1128000   0.79905316   -3.8642139   -3.8642139    -2.831033  0.029067833   -3.8642139    1.0331808      8192000 
 1129000   0.79835605   -3.8636864   -3.8636864   -2.8314069  0.028087656   -3.8636864    1.0322795      8192000 
 1130000   0.79867734   -3.8638358   -3.8638358   -2.8311409  0.028607517   -3.8638358    1.0326949      8192000 
 1131000   0.79835713   -3.8634121   -3.8634121   -2.8311312  0.026429385   -3.8634121    1.0322809      8192000 
 1132000   0.79869608   -3.8636451   -3.8636451    -2.830926  0.026577375   -3.8636451    1.0327191      8192000 
 1133000   0.79860033   -3.8638538   -3.8638538   -2.8312585  0.027003832   -3.8638538    1.0325953      8192000 
 1134000   0.79839098   -3.8635211   -3.8635211   -2.8311964  0.029516594   -3.8635211    1.0323246      8192000 
 1135000   0.79808333   -3.8629805   -3.8629805   -2.8310537  0.031231667   -3.8629805    1.0319268      8192000 
 1136000   0.79842246   -3.8630683   -3.8630683    -2.830703  0.029451289   -3.8630683    1.0323653      8192000 
 1137000   0.79874142   -3.8635023   -3.8635023   -2.8307246  0.026471339   -3.8635023    1.0327777      8192000 
 1138000   0.79847568   -3.8629605   -3.8629605   -2.8305263  0.027701832   -3.8629605    1.0324341      8192000 
 1139000   0.79857863     -3.86282     -3.86282   -2.8302528  0.031407416     -3.86282    1.0325673      8192000 
 1140000   0.79891155   -3.8633884   -3.8633884   -2.8303907  0.026376558   -3.8633884    1.0329977      8192000 
 1141000   0.79822375   -3.8627648   -3.8627648   -2.8306564  0.027095979   -3.8627648    1.0321084      8192000 
 1142000    0.7988896   -3.8636306   -3.8636306   -2.8306613  0.028154251   -3.8636306    1.0329693      8192000 
 1143000   0.79857867   -3.8631721   -3.8631721   -2.8306047  0.028694441   -3.8631721    1.0325673      8192000 
 1144000   0.79858515   -3.8635799   -3.8635799   -2.8310042  0.029773412   -3.8635799    1.0325757      8192000 
 1145000   0.79848042   -3.8636844   -3.8636844   -2.8312441  0.027217996   -3.8636844    1.0324403      8192000 
 1146000   0.79829961   -3.8633616   -3.8633616   -2.8311551  0.028697755   -3.8633616    1.0322065      8192000 
 1147000   0.79791604   -3.8622549   -3.8622549   -2.8305443  0.029079814   -3.8622549    1.0317105      8192000 
 1148000   0.79817717    -3.862935    -3.862935   -2.8308868  0.027894305    -3.862935    1.0320482      8192000 
 1149000   0.79860595   -3.8636637   -3.8636637   -2.8310611  0.029148373   -3.8636637    1.0326026      8192000 
 1150000   0.79871897   -3.8641108   -3.8641108   -2.8313621  0.027414818   -3.8641108    1.0327487      8192000 
 1151000    0.7985438   -3.8632399   -3.8632399   -2.8307177  0.028611892   -3.8632399    1.0325222      8192000 
 1152000    0.7987833   -3.8633918   -3.8633918   -2.8305599  0.028885707   -3.8633918    1.0328319      8192000 
 1153000   0.79851692   -3.8634907   -3.8634907   -2.8310032  0.028518609   -3.8634907    1.0324875      8192000 
 1154000   0.79902639    -3.863985    -3.863985   -2.8308388  0.028766262    -3.863985    1.0331462      8192000 
 1155000   0.79970139   -3.8648997   -3.8648997   -2.8308808  0.027969515   -3.8648997     1.034019      8192000 
 1156000   0.79904248   -3.8638531   -3.8638531   -2.8306861  0.028119723   -3.8638531     1.033167      8192000 
 1157000   0.79912326   -3.8642334   -3.8642334   -2.8309619  0.027729485   -3.8642334    1.0332715      8192000 
 1158000   0.79901623   -3.8639941   -3.8639941    -2.830861  0.028387075   -3.8639941    1.0331331      8192000 
 1159000   0.79842597   -3.8634044   -3.8634044   -2.8310345   0.02927724   -3.8634044    1.0323699      8192000 
 1160000   0.79885622     -3.86378     -3.86378   -2.8308539  0.027575126     -3.86378    1.0329262      8192000 
 1161000   0.79894738   -3.8640708   -3.8640708   -2.8310268  0.028388773   -3.8640708    1.0330441      8192000 
 1162000   0.79875799   -3.8637732   -3.8637732    -2.830974  0.029917805   -3.8637732    1.0327992      8192000 
 1163000   0.79873316   -3.8636934   -3.8636934   -2.8309263  0.027149811   -3.8636934    1.0327671      8192000 
 1164000   0.79887025   -3.8636502   -3.8636502   -2.8307059  0.028573463   -3.8636502    1.0329443      8192000 
 1165000   0.79924545   -3.8640788   -3.8640788   -2.8306493  0.030491624   -3.8640788    1.0334295      8192000 
 1166000     0.798897   -3.8636854   -3.8636854   -2.8307065   0.02813267   -3.8636854    1.0329789      8192000 
 1167000   0.79912095    -3.863887    -3.863887   -2.8306185   0.02810286    -3.863887    1.0332685      8192000 
 1168000   0.79894393   -3.8635796   -3.8635796     -2.83054  0.029814981   -3.8635796    1.0330396      8192000 
 1169000   0.79877448   -3.8634449   -3.8634449   -2.8306244  0.026861759   -3.8634449    1.0328205      8192000 
 1170000   0.79901698   -3.8635652   -3.8635652   -2.8304311  0.030014487   -3.8635652     1.033134      8192000 
 1171000   0.79845157    -3.863123    -3.863123     -2.83072  0.029666406    -3.863123     1.032403      8192000 
 1172000   0.79857132    -3.862989    -3.862989   -2.8304312  0.025518937    -3.862989    1.0325578      8192000 
 1173000    0.7986291   -3.8631592   -3.8631592   -2.8305267  0.026499997   -3.8631592    1.0326325      8192000 
 1174000   0.79813624   -3.8626439   -3.8626439   -2.8306487  0.026764119   -3.8626439    1.0319952      8192000 
 1175000   0.79880339   -3.8636077   -3.8636077   -2.8307498   0.02620103   -3.8636077    1.0328579      8192000 
 1176000   0.79878543   -3.8631771   -3.8631771   -2.8303424   0.02884767   -3.8631771    1.0328346      8192000 
 1177000   0.79870993   -3.8630671   -3.8630671   -2.8303301   0.02599255   -3.8630671     1.032737      8192000 
 1178000   0.79870364   -3.8629649   -3.8629649    -2.830236   0.02914192   -3.8629649    1.0327289      8192000 
 1179000   0.79861122   -3.8631645   -3.8631645   -2.8305551  0.026727537   -3.8631645    1.0326094      8192000 
 1180000   0.79896891   -3.8631035   -3.8631035   -2.8300316  0.026813439   -3.8631035    1.0330719      8192000 
 1181000   0.79839181   -3.8627481   -3.8627481   -2.8304224  0.027383366   -3.8627481    1.0323257      8192000 
 1182000   0.79828752   -3.8628939   -3.8628939    -2.830703  0.028975443   -3.8628939    1.0321909      8192000 
 1183000   0.79856048   -3.8629383   -3.8629383   -2.8303945  0.027818204   -3.8629383    1.0325438      8192000 
 1184000   0.79836117   -3.8630526   -3.8630526   -2.8307666  0.028029925   -3.8630526    1.0322861      8192000 
 1185000   0.79860833   -3.8631048   -3.8631048   -2.8304991  0.025647741   -3.8631048    1.0326057      8192000 
 1186000   0.79799921    -3.862187    -3.862187   -2.8303689  0.028481327    -3.862187    1.0318181      8192000 
 1187000    0.7984909   -3.8630444   -3.8630444   -2.8305905  0.025798553   -3.8630444    1.0324538      8192000 
 1188000   0.79861449   -3.8631049   -3.8631049   -2.8304913   0.03140022   -3.8631049    1.0326136      8192000 
 1189000   0.79882762   -3.8632642   -3.8632642    -2.830375   0.02842695   -3.8632642    1.0328892      8192000 
 1190000   0.79928822   -3.8633674   -3.8633674   -2.8298826   0.02808644   -3.8633674    1.0334848      8192000 
 1191000   0.79916565   -3.8636456   -3.8636456   -2.8303193   0.02918287   -3.8636456    1.0333263      8192000 
 1192000   0.79902984   -3.8633073   -3.8633073   -2.8301567  0.029919224   -3.8633073    1.0331507      8192000 
 1193000   0.79908277   -3.8632619   -3.8632619   -2.8300428  0.028965206   -3.8632619    1.0332191      8192000 
 1194000   0.79902723   -3.8633294   -3.8633294   -2.8301821  0.030049644   -3.8633294    1.0331473      8192000 
 1195000   0.79906806    -3.863375    -3.863375   -2.8301749  0.030746868    -3.863375    1.0332001      8192000 
 1196000    0.7991747   -3.8634646   -3.8634646   -2.8301266  0.030582447   -3.8634646     1.033338      8192000 
 1197000   0.79880316   -3.8635549   -3.8635549   -2.8306973  0.030901181   -3.8635549    1.0328576      8192000 
 1198000   0.79850635   -3.8634217   -3.8634217   -2.8309479  0.028837209   -3.8634217    1.0324738      8192000 
 1199000    0.7989718   -3.8637602   -3.8637602   -2.8306846  0.026778799   -3.8637602    1.0330756      8192000 
 1200000   0.79886671   -3.8631983   -3.8631983   -2.8302585  0.028697134   -3.8631983    1.0329397      8192000 
 1201000   0.79850343    -3.863118    -3.863118    -2.830648  0.026304718    -3.863118      1.03247      8192000 
 1202000   0.79881238   -3.8632067   -3.8632067   -2.8303372  0.027435286   -3.8632067    1.0328695      8192000 
 1203000   0.79872286   -3.8630008   -3.8630008   -2.8302471  0.030179491   -3.8630008    1.0327537      8192000 
 1204000   0.79899244   -3.8635537   -3.8635537   -2.8304514  0.027798941   -3.8635537    1.0331023      8192000 
 1205000   0.79854514   -3.8630886   -3.8630886   -2.8305646  0.031269601   -3.8630886     1.032524      8192000 
 1206000   0.79904174   -3.8635184   -3.8635184   -2.8303523  0.028362561   -3.8635184    1.0331661      8192000 
 1207000   0.79873234    -3.863083    -3.863083    -2.830317   0.02930461    -3.863083     1.032766      8192000 
 1208000   0.79873191   -3.8629847   -3.8629847   -2.8302192  0.027573158   -3.8629847    1.0327655      8192000 
 1209000   0.79868874   -3.8627317   -3.8627317   -2.8300221  0.030155537   -3.8627317    1.0327096      8192000 
 1210000   0.79861692    -3.862436    -3.862436   -2.8298192  0.029235904    -3.862436    1.0326168      8192000 
 1211000   0.79864729   -3.8627159   -3.8627159   -2.8300599  0.026439217   -3.8627159     1.032656      8192000 
 1212000   0.79880904   -3.8629215   -3.8629215   -2.8300563  0.028792084   -3.8629215    1.0328652      8192000 
 1213000   0.79874449   -3.8625856   -3.8625856   -2.8298038  0.029844163   -3.8625856    1.0327817      8192000 
 1214000   0.79872124   -3.8629512   -3.8629512   -2.8301996  0.029539735   -3.8629512    1.0327517      8192000 
 1215000   0.79877077   -3.8632858   -3.8632858   -2.8304701  0.027247204   -3.8632858    1.0328157      8192000 
 1216000   0.79858147   -3.8626935   -3.8626935   -2.8301226   0.02710167   -3.8626935    1.0325709      8192000 
 1217000   0.79858405   -3.8622784   -3.8622784   -2.8297042  0.029815359   -3.8622784    1.0325743      8192000 
 1218000   0.79870494   -3.8622359   -3.8622359   -2.8295054  0.028446273   -3.8622359    1.0327306      8192000 
 1219000   0.79867295   -3.8624998   -3.8624998   -2.8298106  0.029203208   -3.8624998    1.0326892      8192000 
 1220000   0.79919819   -3.8629033   -3.8629033    -2.829535  0.027726669   -3.8629033    1.0333684      8192000 
 1221000   0.79913083   -3.8628255   -3.8628255   -2.8295443  0.029927594   -3.8628255    1.0332813      8192000 
 1222000   0.79860797   -3.8624244   -3.8624244   -2.8298192  0.029178201   -3.8624244    1.0326052      8192000 
 1223000   0.79919669   -3.8626977   -3.8626977   -2.8293313   0.02900701   -3.8626977    1.0333664      8192000 
 1224000   0.79914849   -3.8628982   -3.8628982   -2.8295941  0.029316723   -3.8628982    1.0333041      8192000 
 1225000   0.79873997   -3.8628284   -3.8628284   -2.8300525  0.026466943   -3.8628284    1.0327759      8192000 
 1226000   0.79874447   -3.8623835   -3.8623835   -2.8296018  0.029692174   -3.8623835    1.0327817      8192000 
 1227000   0.79895376   -3.8624461   -3.8624461   -2.8293938  0.027537298   -3.8624461    1.0330523      8192000 
 1228000   0.79857271   -3.8626267   -3.8626267   -2.8300671   0.02907878   -3.8626267    1.0325596      8192000 
 1229000   0.79837443   -3.8623173   -3.8623173   -2.8300141  0.028304474   -3.8623173    1.0323032      8192000 
 1230000   0.79849079   -3.8624781   -3.8624781   -2.8300244  0.029823501   -3.8624781    1.0324537      8192000 
 1231000   0.79883731   -3.8623191   -3.8623191   -2.8294174  0.028745248   -3.8623191    1.0329017      8192000 
 1232000   0.79874052   -3.8623588   -3.8623588   -2.8295822  0.027357228   -3.8623588    1.0327766      8192000 
 1233000   0.79867295   -3.8624254   -3.8624254   -2.8297362  0.030040905   -3.8624254    1.0326892      8192000 
 1234000   0.79896497   -3.8627064   -3.8627064   -2.8296396  0.029449222   -3.8627064    1.0330668      8192000 
 1235000   0.79880389   -3.8624229   -3.8624229   -2.8295644  0.029124071   -3.8624229    1.0328585      8192000 
 1236000   0.79902341   -3.8621758   -3.8621758   -2.8290335  0.029763263   -3.8621758    1.0331424      8192000 
 1237000   0.79879791   -3.8622224   -3.8622224   -2.8293717  0.027935797   -3.8622224    1.0328508      8192000 
 1238000   0.79897641   -3.8625848   -3.8625848   -2.8295032   0.02976588   -3.8625848    1.0330816      8192000 
 1239000      0.79863   -3.8618178   -3.8618178   -2.8291841  0.030905796   -3.8618178    1.0326337      8192000 
 1240000    0.7989489   -3.8621374   -3.8621374   -2.8290914   0.03023385   -3.8621374     1.033046      8192000 
 1241000   0.79877223   -3.8622347   -3.8622347   -2.8294171  0.030037064   -3.8622347    1.0328176      8192000 
 1242000   0.79845336   -3.8618248   -3.8618248   -2.8294195  0.030114482   -3.8618248    1.0324053      8192000 
 1243000   0.79890481   -3.8622803   -3.8622803   -2.8292913  0.029807165   -3.8622803     1.032989      8192000 
 1244000   0.79901832     -3.86258     -3.86258   -2.8294443  0.026056903     -3.86258    1.0331358      8192000 
 1245000   0.79890467   -3.8621684   -3.8621684   -2.8291796  0.027055539   -3.8621684    1.0329888      8192000 
 1246000   0.79859763   -3.8619479   -3.8619479   -2.8293561  0.028836833   -3.8619479    1.0325918      8192000 
 1247000   0.79893829   -3.8622182   -3.8622182   -2.8291859  0.027566764   -3.8622182    1.0330323      8192000 
 1248000   0.79942694   -3.8628783   -3.8628783   -2.8292141  0.026531124   -3.8628783    1.0336641      8192000 
 1249000   0.79880348   -3.8624254   -3.8624254   -2.8295674  0.025339224   -3.8624254     1.032858      8192000 
 1250000   0.79876865   -3.8620328   -3.8620328   -2.8292199  0.028153522   -3.8620328     1.032813      8192000 
 1251000   0.79903665   -3.8621431   -3.8621431   -2.8289836  0.025356599   -3.8621431    1.0331595      8192000 
 1252000   0.79839752   -3.8618351   -3.8618351    -2.829502  0.025802232   -3.8618351    1.0323331      8192000 
 1253000   0.79861224    -3.861827    -3.861827   -2.8292163  0.026719803    -3.861827    1.0326107      8192000 
 1254000    0.7987734   -3.8621987   -3.8621987   -2.8293796  0.026319843   -3.8621987    1.0328191      8192000 
 1255000   0.79855661   -3.8618811   -3.8618811   -2.8293423  0.029078228   -3.8618811    1.0325388      8192000 
 1256000   0.79895641    -3.862607    -3.862607   -2.8295512  0.026388769    -3.862607    1.0330557      8192000 
 1257000   0.79876299    -3.862002    -3.862002   -2.8291963  0.028477319    -3.862002    1.0328056      8192000 
 1258000   0.79835174    -3.861926    -3.861926   -2.8296522  0.028527403    -3.861926    1.0322739      8192000 
 1259000   0.79893823   -3.8622376   -3.8622376   -2.8292053  0.027892163   -3.8622376    1.0330322      8192000 
 1260000   0.79839963   -3.8620744   -3.8620744   -2.8297386  0.030294059   -3.8620744    1.0323358      8192000 
 1261000   0.79905717   -3.8623611   -3.8623611   -2.8291751  0.026169959   -3.8623611     1.033186      8192000 
 1262000   0.79843074   -3.8623511   -3.8623511   -2.8299751  0.029035984   -3.8623511     1.032376      8192000 
 1263000   0.79846652    -3.862551    -3.862551   -2.8301287  0.029445427    -3.862551    1.0324223      8192000 
 1264000   0.79839699   -3.8622105   -3.8622105   -2.8298781  0.027709047   -3.8622105    1.0323324      8192000 
 1265000   0.79848179   -3.8625898   -3.8625898   -2.8301478  0.027488575   -3.8625898     1.032442      8192000 
 1266000   0.79840788   -3.8631272   -3.8631272   -2.8307807  0.028266759   -3.8631272    1.0323465      8192000 
 1267000   0.79890158   -3.8631687   -3.8631687   -2.8301838  0.026522359   -3.8631687    1.0329848      8192000 
 1268000   0.79889037    -3.862844    -3.862844   -2.8298737  0.028954307    -3.862844    1.0329703      8192000 
 1269000   0.79921101   -3.8630072   -3.8630072   -2.8296223  0.030940597   -3.8630072    1.0333849      8192000 
 1270000   0.79929614   -3.8632549   -3.8632549   -2.8297599  0.030293903   -3.8632549     1.033495      8192000 
 1271000   0.79963818   -3.8636103   -3.8636103    -2.829673  0.031551861   -3.8636103    1.0339373      8192000 
 1272000   0.79903054   -3.8632374   -3.8632374   -2.8300858   0.02909964   -3.8632374    1.0331516      8192000 
 1273000   0.79925672   -3.8631956   -3.8631956   -2.8297516  0.030081803   -3.8631956     1.033444      8192000 
 1274000   0.79925939   -3.8632447   -3.8632447   -2.8297972  0.027830274   -3.8632447    1.0334475      8192000 
 1275000   0.79877622   -3.8626156   -3.8626156   -2.8297928  0.031455868   -3.8626156    1.0328227      8192000 
 1276000   0.79895346   -3.8627446   -3.8627446   -2.8296926  0.030359644   -3.8627446    1.0330519      8192000 
 1277000   0.79850996   -3.8627268   -3.8627268   -2.8302483  0.026150565   -3.8627268    1.0324785      8192000 
 1278000   0.79873674   -3.8630165   -3.8630165   -2.8302448  0.029981241   -3.8630165    1.0327717      8192000 
 1279000    0.7988767   -3.8627443   -3.8627443   -2.8297916  0.028965143   -3.8627443    1.0329527      8192000 
 1280000   0.79896099   -3.8628853   -3.8628853   -2.8298236  0.028956545   -3.8628853    1.0330616      8192000 
 1281000   0.79900141   -3.8629234   -3.8629234   -2.8298095  0.028590812   -3.8629234    1.0331139      8192000 
 1282000   0.79896148   -3.8630646   -3.8630646   -2.8300023  0.027272172   -3.8630646    1.0330623      8192000 
 1283000   0.79884061   -3.8626069   -3.8626069   -2.8297009  0.027373004   -3.8626069     1.032906      8192000 
 1284000   0.79863352   -3.8623245   -3.8623245   -2.8296863  0.029024926   -3.8623245    1.0326382      8192000 
 1285000   0.79868117   -3.8623074   -3.8623074   -2.8296075  0.027162771   -3.8623074    1.0326998      8192000 
 1286000   0.79881754   -3.8623417   -3.8623417   -2.8294655  0.029561143   -3.8623417    1.0328762      8192000 
 1287000   0.79835509   -3.8620269   -3.8620269   -2.8297487  0.027897168   -3.8620269    1.0322782      8192000 
 1288000   0.79874622    -3.862612    -3.862612   -2.8298281  0.025425356    -3.862612    1.0327839      8192000 
 1289000   0.79840016   -3.8617297   -3.8617297   -2.8293932  0.026648366   -3.8617297    1.0323365      8192000 
 1290000    0.7982197   -3.8617489   -3.8617489   -2.8296457   0.02626236   -3.8617489    1.0321032      8192000 
 1291000   0.79851769   -3.8618545   -3.8618545    -2.829366  0.027849679   -3.8618545    1.0324885      8192000 
 1292000   0.79815236    -3.861516    -3.861516      -2.8295  0.026341802    -3.861516    1.0320161      8192000 
 1293000   0.79874123   -3.8622281   -3.8622281   -2.8294506  0.024014874   -3.8622281    1.0327775      8192000 
 1294000   0.79849473   -3.8618768   -3.8618768    -2.829418  0.028405118   -3.8618768    1.0324588      8192000 
 1295000   0.79870178   -3.8622558   -3.8622558   -2.8295293   0.02913552   -3.8622558    1.0327265      8192000 
 1296000   0.79878544   -3.8622049   -3.8622049   -2.8293702  0.030183817   -3.8622049    1.0328347      8192000 
 1297000   0.79912059   -3.8622895   -3.8622895   -2.8290215  0.027456122   -3.8622895     1.033268      8192000 
 1298000   0.79886418    -3.862004    -3.862004   -2.8290676  0.029031665    -3.862004    1.0329365      8192000 
 1299000     0.798969   -3.8620333   -3.8620333   -2.8289613  0.026190525   -3.8620333     1.033072      8192000 
 1300000    0.7986654   -3.8618265   -3.8618265   -2.8291471  0.028887632   -3.8618265    1.0326795      8192000 
 1301000   0.79852518   -3.8620015   -3.8620015   -2.8295034  0.027833231   -3.8620015    1.0324982      8192000 
 1302000   0.79913214   -3.8623252   -3.8623252   -2.8290422  0.028710622   -3.8623252     1.033283      8192000 
 1303000   0.79868671   -3.8622887   -3.8622887   -2.8295817  0.029016481   -3.8622887     1.032707      8192000 
 1304000    0.7987035   -3.8621504   -3.8621504   -2.8294217  0.031345255   -3.8621504    1.0327287      8192000 
 1305000   0.79887961   -3.8622115   -3.8622115   -2.8292551  0.027807914   -3.8622115    1.0329564      8192000 
 1306000    0.7993209   -3.8626135   -3.8626135   -2.8290865  0.028576844   -3.8626135     1.033527      8192000 
 1307000   0.79920658   -3.8624889   -3.8624889   -2.8291097  0.031220708   -3.8624889    1.0333792      8192000 
 1308000   0.79945375   -3.8628883   -3.8628883   -2.8291895   0.02834728   -3.8628883    1.0336988      8192000 
 1309000   0.79898495   -3.8625492   -3.8625492   -2.8294565  0.029772692   -3.8625492    1.0330926      8192000 
 1310000   0.79929705   -3.8630808   -3.8630808   -2.8295847  0.028416199   -3.8630808    1.0334962      8192000 
 1311000   0.79936303   -3.8622952   -3.8622952   -2.8287137  0.031863977   -3.8622952    1.0335815      8192000 
 1312000   0.79915176    -3.862524    -3.862524   -2.8292157  0.027427625    -3.862524    1.0333083      8192000 
 1313000   0.79928778    -3.862546    -3.862546   -2.8290618  0.026994386    -3.862546    1.0334842      8192000 
 1314000   0.79866952    -3.861983    -3.861983   -2.8292982  0.029225817    -3.861983    1.0326848      8192000 
 1315000   0.79853487   -3.8619829   -3.8619829   -2.8294722  0.030503445   -3.8619829    1.0325107      8192000 
 1316000   0.79945737   -3.8629837   -3.8629837   -2.8292802  0.028254245   -3.8629837    1.0337035      8192000 
 1317000   0.79859948    -3.861797    -3.861797   -2.8292028  0.029272969    -3.861797    1.0325942      8192000 
 1318000   0.79928101   -3.8622667   -3.8622667   -2.8287912  0.031405293   -3.8622667    1.0334754      8192000 
 1319000   0.79891025   -3.8622168   -3.8622168   -2.8292208  0.028427119   -3.8622168    1.0329961      8192000 
 1320000   0.79898976   -3.8622691   -3.8622691   -2.8291702  0.026657391   -3.8622691    1.0330989      8192000 
 1321000   0.79894892   -3.8619354   -3.8619354   -2.8288894  0.029753513   -3.8619354     1.033046      8192000 
 1322000   0.79869853   -3.8615388   -3.8615388   -2.8288165  0.027929106   -3.8615388    1.0327223      8192000 
 1323000   0.79939832   -3.8622641   -3.8622641    -2.828637  0.026736876   -3.8622641    1.0336271      8192000 
 1324000    0.7987743   -3.8619466   -3.8619466   -2.8291264   0.02754058   -3.8619466    1.0328203      8192000 
 1325000   0.79879782   -3.8617522   -3.8617522   -2.8289015  0.025614726   -3.8617522    1.0328507      8192000 
 1326000   0.79848655   -3.8614624   -3.8614624   -2.8290142  0.026032115   -3.8614624    1.0324482      8192000 
 1327000   0.79836102   -3.8612915   -3.8612915   -2.8290056  0.028832697   -3.8612915    1.0322859      8192000 
 1328000    0.7986902    -3.861773    -3.861773   -2.8290615  0.025395735    -3.861773    1.0327115      8192000 
 1329000   0.79852993   -3.8614128   -3.8614128   -2.8289085  0.029118778   -3.8614128    1.0325043      8192000 
 1330000   0.79874144   -3.8616397   -3.8616397   -2.8288619  0.028048855   -3.8616397    1.0327778      8192000 
 1331000   0.79850341   -3.8610633   -3.8610633   -2.8285933  0.027589821   -3.8610633      1.03247      8192000 
 1332000   0.79928482   -3.8622738   -3.8622738   -2.8287934  0.022508452   -3.8622738    1.0334804      8192000 
 1333000   0.79797268   -3.8607335   -3.8607335   -2.8289498  0.028382297   -3.8607335    1.0317838      8192000 
 1334000   0.79890613   -3.8611201   -3.8611201   -2.8281293  0.028597781   -3.8611201    1.0329907      8192000 
 1335000   0.79891141   -3.8615261   -3.8615261   -2.8285285  0.025027588   -3.8615261    1.0329975      8192000 
 1336000   0.79915438   -3.8619109   -3.8619109   -2.8285992  0.028587298   -3.8619109    1.0333117      8192000 
 1337000   0.79867437   -3.8613422   -3.8613422   -2.8286512  0.029493743   -3.8613422    1.0326911      8192000 
 1338000   0.79926818   -3.8616823   -3.8616823   -2.8282235      0.02541   -3.8616823    1.0334589      8192000 
 1339000   0.79854478   -3.8616023   -3.8616023   -2.8290788  0.028388652   -3.8616023    1.0325235      8192000 
 1340000   0.79894537   -3.8618349   -3.8618349   -2.8287935  0.029214895   -3.8618349    1.0330415      8192000 
 1341000    0.7991877   -3.8622193   -3.8622193   -2.8288645  0.028966986   -3.8622193    1.0333548      8192000 
 1342000   0.79928577   -3.8620324   -3.8620324   -2.8285508  0.028993451   -3.8620324    1.0334816      8192000 
 1343000   0.79929654   -3.8622809   -3.8622809   -2.8287854  0.028470147   -3.8622809    1.0334955      8192000 
 1344000   0.79915237   -3.8620643   -3.8620643   -2.8287551  0.029922704   -3.8620643    1.0333091      8192000 
 1345000   0.79904435   -3.8622113   -3.8622113   -2.8290418  0.029545739   -3.8622113    1.0331694      8192000 
 1346000   0.79904967   -3.8622834   -3.8622834   -2.8291071  0.029718687   -3.8622834    1.0331763      8192000 
 1347000   0.79906622   -3.8623874   -3.8623874   -2.8291897  0.028270125   -3.8623874    1.0331977      8192000 
 1348000   0.79948163   -3.8629124   -3.8629124   -2.8291775  0.029870518   -3.8629124    1.0337348      8192000 
 1349000   0.79898736   -3.8621237   -3.8621237   -2.8290279  0.029096116   -3.8621237    1.0330958      8192000 
 1350000   0.79935201   -3.8622597   -3.8622597   -2.8286924  0.030356544   -3.8622597    1.0335672      8192000 
 1351000     0.799017   -3.8623812   -3.8623812   -2.8292471    0.0284492   -3.8623812    1.0331341      8192000 
 1352000   0.79937676   -3.8624552   -3.8624552    -2.828856   0.03140177   -3.8624552    1.0335992      8192000 
 1353000   0.79897138   -3.8618152   -3.8618152   -2.8287401   0.03016306   -3.8618152    1.0330751      8192000 
 1354000   0.79924688   -3.8621966   -3.8621966   -2.8287653  0.030831129   -3.8621966    1.0334313      8192000 
 1355000   0.79913677   -3.8623094   -3.8623094   -2.8290205  0.030066866   -3.8623094    1.0332889      8192000 
 1356000   0.79914611    -3.862326    -3.862326    -2.829025  0.027009877    -3.862326     1.033301      8192000 
 1357000   0.79927382   -3.8623339   -3.8623339   -2.8288677  0.029549059   -3.8623339    1.0334662      8192000 
 1358000   0.79922242   -3.8621391   -3.8621391   -2.8287394  0.028908161   -3.8621391    1.0333997      8192000 
 1359000    0.7994154   -3.8623672   -3.8623672    -2.828718    0.0286388   -3.8623672    1.0336492      8192000 
 1360000   0.79920867   -3.8618975   -3.8618975   -2.8285156  0.028043498   -3.8618975    1.0333819      8192000 
 1361000   0.79906374   -3.8619468   -3.8619468   -2.8287523   0.02636686   -3.8619468    1.0331945      8192000 
 1362000   0.79888443   -3.8616194   -3.8616194   -2.8286567  0.028582685   -3.8616194    1.0329627      8192000 
 1363000   0.79904696   -3.8616978   -3.8616978    -2.828525  0.026523302   -3.8616978    1.0331728      8192000 
 1364000   0.79903216   -3.8618508   -3.8618508   -2.8286971  0.027779778   -3.8618508    1.0331537      8192000 
 1365000   0.79893746   -3.8616602   -3.8616602   -2.8286289  0.030689543   -3.8616602    1.0330312      8192000 
 1366000   0.79810632   -3.8609543   -3.8609543   -2.8289978  0.028094319   -3.8609543    1.0319566      8192000 
 1367000    0.7989993   -3.8614082   -3.8614082    -2.828297  0.025444675   -3.8614082    1.0331112      8192000 
 1368000   0.79879172    -3.861746    -3.861746   -2.8289032  0.027539307    -3.861746    1.0328428      8192000 
 1369000   0.79877726    -3.861836    -3.861836   -2.8290119  0.027430326    -3.861836    1.0328241      8192000 
 1370000    0.7986976   -3.8614946   -3.8614946   -2.8287735  0.024976191   -3.8614946    1.0327211      8192000 
 1371000   0.79865803   -3.8617888   -3.8617888   -2.8291189  0.024925724   -3.8617888    1.0326699      8192000 
 1372000   0.79850084   -3.8606506   -3.8606506   -2.8281839  0.030148116   -3.8606506    1.0324667      8192000 
 1373000   0.79891387   -3.8618586   -3.8618586   -2.8288579  0.027026253   -3.8618586    1.0330007      8192000 
 1374000   0.79850614   -3.8612385   -3.8612385    -2.828765  0.026846652   -3.8612385    1.0324735      8192000 
 1375000   0.79873305   -3.8619622   -3.8619622   -2.8291952  0.025248661   -3.8619622    1.0327669      8192000 
 1376000   0.79867904    -3.860967    -3.860967   -2.8282699  0.027853455    -3.860967    1.0326971      8192000 
 1377000    0.7990186   -3.8617658   -3.8617658   -2.8286297  0.026097656   -3.8617658    1.0331361      8192000 
 1378000   0.79933834   -3.8621419   -3.8621419   -2.8285923  0.027829733   -3.8621419    1.0335496      8192000 
 1379000   0.79920025   -3.8620169   -3.8620169   -2.8286459  0.028023994   -3.8620169     1.033371      8192000 
 1380000   0.79922244   -3.8617468   -3.8617468   -2.8283471  0.027615069   -3.8617468    1.0333997      8192000 
 1381000   0.79894502   -3.8619013   -3.8619013   -2.8288603  0.028000678   -3.8619013     1.033041      8192000 
 1382000   0.79889161   -3.8618287   -3.8618287   -2.8288568  0.030929708   -3.8618287    1.0329719      8192000 
 1383000   0.79915597   -3.8621339   -3.8621339   -2.8288202  0.027680197   -3.8621339    1.0333138      8192000 
 1384000   0.79908194   -3.8619403   -3.8619403   -2.8287223  0.028828426   -3.8619403     1.033218      8192000 
 1385000   0.79890382   -3.8618502   -3.8618502   -2.8288625  0.029864435   -3.8618502    1.0329877      8192000 
 1386000   0.79936022   -3.8624067   -3.8624067   -2.8288288   0.02701302   -3.8624067    1.0335779      8192000 
 1387000   0.79934525    -3.862253    -3.862253   -2.8286945     0.029099    -3.862253    1.0335585      8192000 
 1388000    0.7993849   -3.8620492   -3.8620492   -2.8284394  0.028563915   -3.8620492    1.0336098      8192000 
 1389000   0.79916559   -3.8618167   -3.8618167   -2.8284905  0.030813582   -3.8618167    1.0333262      8192000 
 1390000   0.79907871   -3.8622263   -3.8622263   -2.8290124  0.032236465   -3.8622263    1.0332139      8192000 
 1391000   0.79898003   -3.8621225   -3.8621225   -2.8290362  0.031245774   -3.8621225    1.0330863      8192000 
 1392000   0.79918917   -3.8623979   -3.8623979   -2.8290412  0.030340343   -3.8623979    1.0333567      8192000 
 1393000   0.79905882   -3.8618652   -3.8618652    -2.828677  0.028146509   -3.8618652    1.0331881      8192000 
 1394000   0.79911206    -3.862135    -3.862135    -2.828878   0.02922874    -3.862135     1.033257      8192000 
 1395000   0.79870352   -3.8617859   -3.8617859   -2.8290571  0.028496738   -3.8617859    1.0327287      8192000 
 1396000   0.79899166   -3.8620162   -3.8620162   -2.8289149  0.030734249   -3.8620162    1.0331013      8192000 
 1397000    0.7990027   -3.8618541   -3.8618541   -2.8287385  0.026165071   -3.8618541    1.0331156      8192000 
 1398000   0.79930151   -3.8626326   -3.8626326   -2.8291306  0.026914838   -3.8626326    1.0335019      8192000 
 1399000   0.79902609    -3.862131    -3.862131   -2.8289852  0.028902454    -3.862131    1.0331458      8192000 
 1400000   0.79883517   -3.8619396   -3.8619396   -2.8290406   0.02726037   -3.8619396     1.032899      8192000 
 1401000   0.79871266   -3.8614408   -3.8614408   -2.8287003  0.029176751   -3.8614408    1.0327406      8192000 
 1402000   0.79880139   -3.8620987   -3.8620987   -2.8292434  0.028287522   -3.8620987    1.0328553      8192000 
 1403000   0.79883128   -3.8617122   -3.8617122   -2.8288183  0.030140677   -3.8617122    1.0328939      8192000 
 1404000   0.79884014   -3.8620031   -3.8620031   -2.8290977  0.029904406   -3.8620031    1.0329054      8192000 
 1405000   0.79895033   -3.8622308   -3.8622308   -2.8291829  0.027958973   -3.8622308    1.0330479      8192000 
 1406000   0.79888645   -3.8618325   -3.8618325   -2.8288672  0.029505962   -3.8618325    1.0329653      8192000 
 1407000   0.79921521   -3.8625214   -3.8625214   -2.8291311  0.026838399   -3.8625214    1.0333904      8192000 
 1408000   0.79904866   -3.8625023   -3.8625023   -2.8293273   0.02812038   -3.8625023     1.033175      8192000 
 1409000    0.7988416   -3.8619624   -3.8619624   -2.8290551  0.028279337   -3.8619624    1.0329073      8192000 
 1410000   0.79943269   -3.8624137   -3.8624137   -2.8287421  0.028847559   -3.8624137    1.0336716      8192000 
 1411000   0.79900877    -3.862281    -3.862281   -2.8291576  0.026331294    -3.862281    1.0331234      8192000 
 1412000   0.79832525   -3.8615614   -3.8615614   -2.8293217  0.033281861   -3.8615614    1.0322396      8192000 
 1413000   0.79904145   -3.8619029   -3.8619029   -2.8287372  0.029437216   -3.8619029    1.0331657      8192000 
 1414000    0.7988738   -3.8619041   -3.8619041   -2.8289552   0.02874519   -3.8619041    1.0329489      8192000 
 1415000    0.7991593   -3.8624548   -3.8624548   -2.8291367  0.028138914   -3.8624548    1.0333181      8192000 
 1416000   0.79930003   -3.8624263   -3.8624263   -2.8289262  0.030503012   -3.8624263       1.0335      8192000 
 1417000   0.79914794   -3.8623384   -3.8623384    -2.829035  0.029435538   -3.8623384    1.0333034      8192000 
 1418000   0.79963611   -3.8630842   -3.8630842   -2.8291496  0.028793916   -3.8630842    1.0339346      8192000 
 1419000    0.7997441   -3.8624886   -3.8624886   -2.8284144  0.031938959   -3.8624886    1.0340742      8192000 
 1420000   0.79929923   -3.8623641   -3.8623641   -2.8288651   0.02898045   -3.8623641     1.033499      8192000 
 1421000   0.79905216   -3.8622104   -3.8622104   -2.8290309  0.029606268   -3.8622104    1.0331795      8192000 
 1422000   0.79864596   -3.8616722   -3.8616722   -2.8290178  0.028961932   -3.8616722    1.0326543      8192000 
 1423000   0.79905027   -3.8617894   -3.8617894   -2.8286123  0.029837233   -3.8617894    1.0331771      8192000 
 1424000   0.79913262   -3.8621831   -3.8621831   -2.8288995  0.029720736   -3.8621831    1.0332836      8192000 
 1425000   0.79926863   -3.8619156   -3.8619156   -2.8284562  0.029013064   -3.8619156    1.0334594      8192000 
 1426000    0.7991538   -3.8618273   -3.8618273   -2.8285163   0.02530013   -3.8618273     1.033311      8192000 
 1427000   0.79917463   -3.8619067   -3.8619067   -2.8285688  0.029789516   -3.8619067    1.0333379      8192000 
 1428000   0.79923892   -3.8622414   -3.8622414   -2.8288204  0.026876711   -3.8622414     1.033421      8192000 
 1429000   0.79945007   -3.8620462   -3.8620462   -2.8283522  0.030308268   -3.8620462     1.033694      8192000 
 1430000   0.79897299   -3.8614336   -3.8614336   -2.8283564  0.031325062   -3.8614336    1.0330772      8192000 
 1431000   0.79919719   -3.8618022   -3.8618022   -2.8284351  0.030603745   -3.8618022    1.0333671      8192000 
 1432000   0.79926887   -3.8617867   -3.8617867    -2.828327  0.027889649   -3.8617867    1.0334597      8192000 
 1433000   0.79899419   -3.8616639   -3.8616639   -2.8285593  0.027323724   -3.8616639    1.0331046      8192000 
 1434000   0.79897468   -3.8616928   -3.8616928   -2.8286134  0.026738376   -3.8616928    1.0330794      8192000 
 1435000   0.79880632   -3.8611212   -3.8611212   -2.8282596  0.027466803   -3.8611212    1.0328617      8192000 
 1436000   0.79878072   -3.8611934   -3.8611934   -2.8283648  0.026566804   -3.8611934    1.0328286      8192000 
 1437000   0.79913363   -3.8614746   -3.8614746   -2.8281897  0.027273073   -3.8614746    1.0332849      8192000 
 1438000   0.79900015   -3.8617721   -3.8617721   -2.8286599  0.025250887   -3.8617721    1.0331123      8192000 
 1439000   0.79915852   -3.8616959   -3.8616959   -2.8283788  0.028733065   -3.8616959    1.0333171      8192000 
 1440000   0.79934499   -3.8617956   -3.8617956   -2.8282375  0.028037113   -3.8617956    1.0335582      8192000 
 1441000   0.79962723   -3.8616382   -3.8616382   -2.8277151  0.027336368   -3.8616382    1.0339231      8192000 
 1442000   0.79938541   -3.8617138   -3.8617138   -2.8281034  0.029100706   -3.8617138    1.0336104      8192000 
 1443000   0.79954133   -3.8616712   -3.8616712   -2.8278591  0.029609012   -3.8616712     1.033812      8192000 
 1444000     0.798839   -3.8611594   -3.8611594   -2.8282555  0.029214275   -3.8611594    1.0329039      8192000 
 1445000   0.79905628   -3.8615496   -3.8615496   -2.8283648  0.028272963   -3.8615496    1.0331849      8192000 
 1446000   0.79896914   -3.8611573   -3.8611573   -2.8280851  0.029603759   -3.8611573    1.0330722      8192000 
 1447000   0.79895819   -3.8613595   -3.8613595   -2.8283015  0.026329495   -3.8613595     1.033058      8192000 
 1448000    0.7986763   -3.8613375   -3.8613375    -2.828644  0.027612379   -3.8613375    1.0326935      8192000 
 1449000   0.79906751   -3.8615611   -3.8615611   -2.8283617  0.027364641   -3.8615611    1.0331994      8192000 
 1450000   0.79930928   -3.8616137   -3.8616137   -2.8281018  0.029738951   -3.8616137     1.033512      8192000 
 1451000   0.79889499   -3.8615114   -3.8615114   -2.8285351   0.02915723   -3.8615114    1.0329763      8192000 
 1452000    0.7989206    -3.861467    -3.861467   -2.8284576  0.028487028    -3.861467    1.0330094      8192000 
 1453000   0.79919297   -3.8618825   -3.8618825   -2.8285209  0.027625255   -3.8618825    1.0333616      8192000 
 1454000   0.79926141   -3.8616609   -3.8616609   -2.8282108  0.029392693   -3.8616609    1.0334501      8192000 
 1455000   0.79897281   -3.8615448   -3.8615448   -2.8284679  0.027436437   -3.8615448    1.0330769      8192000 
 1456000   0.79907215   -3.8616433   -3.8616433   -2.8284379  0.029175664   -3.8616433    1.0332054      8192000 
 1457000   0.79922543   -3.8615291   -3.8615291   -2.8281255  0.028654356   -3.8615291    1.0334036      8192000 
 1458000   0.79896894    -3.861157    -3.861157    -2.828085  0.030520221    -3.861157    1.0330719      8192000 
 1459000   0.79911567   -3.8616018   -3.8616018   -2.8283401  0.026184084   -3.8616018    1.0332617      8192000 
 1460000   0.79902571   -3.8614357   -3.8614357   -2.8282904  0.029443546   -3.8614357    1.0331453      8192000 
 1461000   0.79897015   -3.8617905   -3.8617905    -2.828717  0.030543744   -3.8617905    1.0330735      8192000 
 1462000   0.79880022   -3.8614935   -3.8614935   -2.8286397  0.026793933   -3.8614935    1.0328538      8192000 
 1463000    0.7994267   -3.8615806   -3.8615806   -2.8279167  0.029422721   -3.8615806    1.0336638      8192000 
 1464000   0.79919456   -3.8619244   -3.8619244   -2.8285607  0.027860871   -3.8619244    1.0333637      8192000 
 1465000   0.79953109   -3.8620891   -3.8620891   -2.8282903  0.027045433   -3.8620891    1.0337988      8192000 
 1466000   0.79932475   -3.8618766   -3.8618766   -2.8283446   0.02922323   -3.8618766     1.033532      8192000 
 1467000   0.79937861   -3.8618025   -3.8618025   -2.8282009  0.028579595   -3.8618025    1.0336016      8192000 
 1468000   0.79955862   -3.8618522   -3.8618522   -2.8280179  0.031016914   -3.8618522    1.0338344      8192000 
 1469000   0.79870577   -3.8613561   -3.8613561   -2.8286245  0.029294558   -3.8613561    1.0327316      8192000 
 1470000   0.79869337   -3.8613007   -3.8613007   -2.8285851  0.026545043   -3.8613007    1.0327156      8192000 
 1471000   0.79886899   -3.8614527   -3.8614527     -2.82851  0.028287763   -3.8614527    1.0329427      8192000 
 1472000   0.79873779   -3.8616199   -3.8616199   -2.8288468  0.027257604   -3.8616199    1.0327731      8192000 
 1473000   0.79906021   -3.8620268   -3.8620268   -2.8288368  0.025597144   -3.8620268      1.03319      8192000 
 1474000   0.79918629   -3.8616018   -3.8616018   -2.8282488  0.026979493   -3.8616018     1.033353      8192000 
 1475000   0.79919567   -3.8615339   -3.8615339   -2.8281688  0.029620314   -3.8615339    1.0333651      8192000 
 1476000   0.79909093   -3.8613216   -3.8613216    -2.828092  0.031325475   -3.8613216    1.0332297      8192000 
 1477000   0.79941635   -3.8617242   -3.8617242   -2.8280738  0.030621737   -3.8617242    1.0336504      8192000 
 1478000   0.79903669   -3.8610645   -3.8610645    -2.827905  0.031252068   -3.8610645    1.0331595      8192000 
 1479000   0.79892989   -3.8613427   -3.8613427   -2.8283213  0.027358708   -3.8613427    1.0330214      8192000 
 1480000   0.79907108   -3.8611799   -3.8611799   -2.8279759  0.025706969   -3.8611799     1.033204      8192000 
 1481000   0.79859179   -3.8612967   -3.8612967   -2.8287124  0.029170948   -3.8612967    1.0325843      8192000 
 1482000   0.79909546   -3.8617085   -3.8617085   -2.8284729  0.026542142   -3.8617085    1.0332355      8192000 
 1483000   0.79906505   -3.8616954   -3.8616954   -2.8284992  0.024561039   -3.8616954    1.0331962      8192000 
 1484000   0.79898779   -3.8612563   -3.8612563     -2.82816  0.028738079   -3.8612563    1.0330963      8192000 
 1485000   0.79866997   -3.8609665   -3.8609665   -2.8282812  0.029609115   -3.8609665    1.0326854      8192000 
 1486000   0.79906933   -3.8616502   -3.8616502   -2.8284485  0.027063925   -3.8616502    1.0332017      8192000 
 1487000   0.79922882   -3.8616012   -3.8616012   -2.8281933  0.028970989   -3.8616012     1.033408      8192000 
 1488000   0.79933007    -3.861534    -3.861534   -2.8279952  0.029375392    -3.861534    1.0335389      8192000 
 1489000   0.79945076    -3.861926    -3.861926   -2.8282311  0.029284769    -3.861926    1.0336949      8192000 
 1490000   0.79911445   -3.8614995   -3.8614995   -2.8282394  0.026757578   -3.8614995    1.0332601      8192000 
 1491000   0.79910005   -3.8614906   -3.8614906   -2.8282492  0.028998001   -3.8614906    1.0332415      8192000 
 1492000   0.79880559   -3.8614222   -3.8614222   -2.8285615  0.028695182   -3.8614222    1.0328607      8192000 
 1493000   0.79919087   -3.8619596   -3.8619596   -2.8286007  0.026281449   -3.8619596    1.0333589      8192000 
 1494000   0.79929808   -3.8613823   -3.8613823   -2.8278848  0.028763609   -3.8613823    1.0334975      8192000 
 1495000   0.79881021   -3.8613298   -3.8613298   -2.8284631  0.028827764   -3.8613298    1.0328667      8192000 
 1496000   0.79893332   -3.8614806   -3.8614806   -2.8284547  0.029609692   -3.8614806    1.0330259      8192000 
 1497000   0.79912589    -3.861373    -3.861373   -2.8280982  0.028892136    -3.861373    1.0332749      8192000 
 1498000   0.79919187    -3.861637    -3.861637   -2.8282768  0.029898991    -3.861637    1.0333602      8192000 
 1499000   0.79872815   -3.8612741   -3.8612741   -2.8285135  0.029432397   -3.8612741    1.0327606      8192000 
 1500000   0.79920766   -3.8615033   -3.8615033   -2.8281227  0.028687732   -3.8615033    1.0333806      8192000 
 1501000   0.79956065   -3.8619778   -3.8619778   -2.8281408  0.027421185   -3.8619778     1.033837      8192000 
 1502000   0.79935117   -3.8614386   -3.8614386   -2.8278724  0.030782234   -3.8614386    1.0335662      8192000 
 1503000   0.79953133    -3.861896    -3.861896   -2.8280968  0.027442627    -3.861896    1.0337991      8192000 
 1504000   0.79895945   -3.8611245   -3.8611245   -2.8280648  0.031264564   -3.8611245    1.0330597      8192000 
 1505000   0.79921608   -3.8612802   -3.8612802   -2.8278887  0.029325065   -3.8612802    1.0333915      8192000 
 1506000   0.79929719   -3.8615715   -3.8615715   -2.8280752  0.029580773   -3.8615715    1.0334964      8192000 
 1507000   0.79941686   -3.8617658   -3.8617658   -2.8281147  0.029968246   -3.8617658    1.0336511      8192000 
 1508000   0.79948249    -3.861795    -3.861795    -2.828059  0.028413685    -3.861795     1.033736      8192000 
 1509000   0.79898339    -3.861058    -3.861058   -2.8279674  0.029120447    -3.861058    1.0330906      8192000 
 1510000   0.79874585   -3.8611722   -3.8611722   -2.8283887  0.028251234   -3.8611722    1.0327835      8192000 
 1511000   0.79903789   -3.8612619   -3.8612619   -2.8281008  0.027348937   -3.8612619    1.0331611      8192000 
 1512000    0.7990933   -3.8610467   -3.8610467   -2.8278139  0.027616644   -3.8610467    1.0332327      8192000 
 1513000   0.79889532   -3.8609803   -3.8609803   -2.8280036   0.02888385   -3.8609803    1.0329767      8192000 
 1514000   0.79881933   -3.8610622   -3.8610622   -2.8281837  0.029111067   -3.8610622    1.0328785      8192000 
 1515000   0.79903398   -3.8610259   -3.8610259   -2.8278699  0.027329924   -3.8610259     1.033156      8192000 
 1516000   0.79873528   -3.8608533   -3.8608533   -2.8280835  0.029406249   -3.8608533    1.0327698      8192000 
 1517000   0.79926383   -3.8616167   -3.8616167   -2.8281634  0.026362227   -3.8616167    1.0334532      8192000 
 1518000   0.79901084   -3.8609939   -3.8609939   -2.8278678  0.022552854   -3.8609939    1.0331261      8192000 
 1519000   0.79907303   -3.8609353   -3.8609353   -2.8277287  0.026673557   -3.8609353    1.0332065      8192000 
 1520000   0.79891235   -3.8606404   -3.8606404   -2.8276417  0.029870733   -3.8606404    1.0329988      8192000 
 1521000   0.79873423   -3.8609696   -3.8609696   -2.8282012  0.028966977   -3.8609696    1.0327685      8192000 
 1522000   0.79921584   -3.8612577   -3.8612577   -2.8278665  0.026284168   -3.8612577    1.0333912      8192000 
 1523000   0.79912083   -3.8608959   -3.8608959   -2.8276276  0.028357908   -3.8608959    1.0332683      8192000 
 1524000   0.79895612   -3.8610194   -3.8610194   -2.8279641  0.026142312   -3.8610194    1.0330554      8192000 
 1525000   0.79884202   -3.8606515   -3.8606515   -2.8277436  0.026941409   -3.8606515    1.0329078      8192000 
 1526000   0.79899867   -3.8610132   -3.8610132   -2.8279029  0.029050984   -3.8610132    1.0331104      8192000 
 1527000     0.799062   -3.8612279   -3.8612279   -2.8280356  0.026881864   -3.8612279    1.0331923      8192000 
 1528000   0.79948614   -3.8612393   -3.8612393   -2.8274986  0.029444134   -3.8612393    1.0337407      8192000 
 1529000   0.79898512    -3.860984    -3.860984   -2.8278912  0.030640533    -3.860984    1.0330929      8192000 
 1530000    0.7987257   -3.8611635   -3.8611635   -2.8284061  0.029052281   -3.8611635    1.0327574      8192000 
 1531000   0.79952793   -3.8615096   -3.8615096   -2.8277149  0.028941764   -3.8615096    1.0337947      8192000 
 1532000   0.79913032   -3.8613446   -3.8613446    -2.828064  0.028392964   -3.8613446    1.0332806      8192000 
 1533000   0.79927308   -3.8617021   -3.8617021   -2.8282369    0.0284782   -3.8617021    1.0334652      8192000 
 1534000   0.79923381   -3.8617456   -3.8617456   -2.8283312  0.028565453   -3.8617456    1.0334144      8192000 
 1535000   0.79967172    -3.861954    -3.861954   -2.8279733  0.031668903    -3.861954    1.0339806      8192000 
 1536000   0.79913198   -3.8614311   -3.8614311   -2.8281483  0.028662385   -3.8614311    1.0332828      8192000 
 1537000   0.79968337    -3.862012    -3.862012   -2.8280163  0.029294836    -3.862012    1.0339957      8192000 
 1538000    0.7988457   -3.8617083   -3.8617083   -2.8287957    0.0269993   -3.8617083    1.0329126      8192000 
 1539000    0.7993232   -3.8619706   -3.8619706   -2.8284406  0.025304442   -3.8619706      1.03353      8192000 
 1540000   0.79941566   -3.8616936   -3.8616936   -2.8280441  0.029500164   -3.8616936    1.0336495      8192000 
 1541000   0.79903089   -3.8616307   -3.8616307   -2.8284787  0.026934878   -3.8616307     1.033152      8192000 
 1542000    0.7992782   -3.8620257   -3.8620257   -2.8285539  0.029875227   -3.8620257    1.0334718      8192000 
 1543000   0.79904889   -3.8612818   -3.8612818   -2.8281065  0.029550891   -3.8612818    1.0331753      8192000 
 1544000   0.79966063   -3.8618464   -3.8618464   -2.8278801   0.02826147   -3.8618464    1.0339663      8192000 
 1545000   0.79975716   -3.8621791   -3.8621791    -2.828088  0.028109764   -3.8621791    1.0340911      8192000 
 1546000   0.79921497   -3.8615279   -3.8615279   -2.8281378  0.030627662   -3.8615279    1.0333901      8192000 
 1547000   0.79976074   -3.8621298   -3.8621298    -2.828034  0.030775799   -3.8621298    1.0340957      8192000 
 1548000   0.79955171   -3.8619476   -3.8619476   -2.8281222  0.029747675   -3.8619476    1.0338255      8192000 
 1549000   0.79937803   -3.8619559   -3.8619559    -2.828355  0.028258823   -3.8619559    1.0336009      8192000 
 1550000    0.7993196   -3.8617399   -3.8617399   -2.8282146  0.027971967   -3.8617399    1.0335253      8192000 
 1551000   0.79924349   -3.8615894   -3.8615894   -2.8281624   0.02849326   -3.8615894    1.0334269      8192000 
 1552000   0.79926892   -3.8616625   -3.8616625   -2.8282027  0.026738249   -3.8616625    1.0334598      8192000 
 1553000   0.79900129   -3.8613038   -3.8613038     -2.82819  0.027454255   -3.8613038    1.0331138      8192000 
 1554000   0.79927195   -3.8611082   -3.8611082   -2.8276444  0.030422211   -3.8611082    1.0334637      8192000 
 1555000   0.79931658   -3.8616943   -3.8616943   -2.8281728  0.026666912   -3.8616943    1.0335214      8192000 
 1556000    0.7996774    -3.862016    -3.862016    -2.828028  0.027275752    -3.862016     1.033988      8192000 
 1557000   0.79904256   -3.8612095   -3.8612095   -2.8280424  0.029708831   -3.8612095    1.0331671      8192000 
 1558000   0.79896834   -3.8611584   -3.8611584   -2.8280872  0.031744085   -3.8611584    1.0330712      8192000 
 1559000   0.79925292   -3.8611435   -3.8611435   -2.8277044  0.029910313   -3.8611435    1.0334391      8192000 
 1560000   0.79904631   -3.8609264   -3.8609264   -2.8277545  0.029176555   -3.8609264     1.033172      8192000 
 1561000   0.79887566   -3.8607252   -3.8607252   -2.8277739  0.030250304   -3.8607252    1.0329513      8192000 
 1562000    0.7988343   -3.8607885   -3.8607885   -2.8278906  0.029952967   -3.8607885    1.0328978      8192000 
 1563000   0.79944224   -3.8613161   -3.8613161   -2.8276322  0.027266419   -3.8613161    1.0336839      8192000 
 1564000   0.79910876   -3.8611406   -3.8611406   -2.8278879  0.027537198   -3.8611406    1.0332527      8192000 
 1565000   0.79898266   -3.8604844   -3.8604844   -2.8273947  0.031283703   -3.8604844    1.0330897      8192000 
 1566000   0.79883432   -3.8606101   -3.8606101   -2.8277122  0.030484659   -3.8606101    1.0328979      8192000 
 1567000   0.79961683    -3.861587    -3.861587   -2.8276773  0.026290605    -3.861587    1.0339097      8192000 
 1568000   0.79969618   -3.8614229   -3.8614229   -2.8274106  0.026866276   -3.8614229    1.0340123      8192000 
 1569000   0.79941858   -3.8610585   -3.8610585   -2.8274052  0.027090771   -3.8610585    1.0336533      8192000 
 1570000   0.79876493   -3.8604931   -3.8604931   -2.8276849    0.0284438   -3.8604931    1.0328081      8192000 
 1571000    0.7989999   -3.8603809   -3.8603809   -2.8272689  0.030054729   -3.8603809     1.033112      8192000 
 1572000    0.7995955   -3.8614416   -3.8614416   -2.8275596  0.029318606   -3.8614416    1.0338821      8192000 
 1573000   0.79898819   -3.8608151   -3.8608151   -2.8277183  0.029173993   -3.8608151    1.0330968      8192000 
 1574000   0.79921882   -3.8607552   -3.8607552   -2.8273602   0.02962403   -3.8607552     1.033395      8192000 
 1575000     0.799441   -3.8612195   -3.8612195   -2.8275372  0.028478596   -3.8612195    1.0336823      8192000 
 1576000   0.79960541    -3.861352    -3.861352   -2.8274571  0.027392955    -3.861352    1.0338949      8192000 
 1577000   0.79897159   -3.8603848   -3.8603848   -2.8273094  0.029391928   -3.8603848    1.0330754      8192000 
 1578000   0.79933897   -3.8609166   -3.8609166   -2.8273662   0.03082691   -3.8609166    1.0335504      8192000 
 1579000   0.79953878   -3.8610217   -3.8610217    -2.827213  0.028698019   -3.8610217    1.0338087      8192000 
 1580000   0.79997329   -3.8617757   -3.8617757   -2.8274052  0.026665059   -3.8617757    1.0343706      8192000 
 1581000   0.79969833   -3.8610383   -3.8610383   -2.8270233   0.03068778   -3.8610383     1.034015      8192000 
 1582000   0.79977047   -3.8612272   -3.8612272   -2.8271189  0.031988103   -3.8612272    1.0341083      8192000 
 1583000   0.79963752   -3.8613202   -3.8613202   -2.8273838  0.030314061   -3.8613202    1.0339364      8192000 
 1584000   0.79988968   -3.8613036   -3.8613036   -2.8270412  0.029286803   -3.8613036    1.0342625      8192000 
 1585000   0.79969598   -3.8609861   -3.8609861   -2.8269741  0.029659072   -3.8609861     1.034012      8192000 
 1586000   0.79935998   -3.8605182   -3.8605182   -2.8269406  0.025569725   -3.8605182    1.0335776      8192000 
 1587000   0.79949288   -3.8606492   -3.8606492   -2.8268998  0.027095615   -3.8606492    1.0337494      8192000 
 1588000   0.79938296   -3.8606787   -3.8606787   -2.8270714  0.027797171   -3.8606787    1.0336073      8192000 
 1589000   0.79948491   -3.8607293   -3.8607293   -2.8269902  0.028421322   -3.8607293    1.0337391      8192000 
 1590000    0.7987765   -3.8597548   -3.8597548   -2.8269317  0.029428535   -3.8597548    1.0328231      8192000 
 1591000   0.79900907   -3.8601711   -3.8601711   -2.8270473  0.029047801   -3.8601711    1.0331238      8192000 
 1592000   0.79902294   -3.8599667   -3.8599667    -2.826825  0.028088673   -3.8599667    1.0331418      8192000 
 1593000   0.79900772   -3.8599037   -3.8599037   -2.8267816  0.028395949   -3.8599037    1.0331221      8192000 
 1594000   0.79953126   -3.8605232   -3.8605232   -2.8267242   0.02653763   -3.8605232     1.033799      8192000 
 1595000   0.79897875   -3.8602736   -3.8602736   -2.8271889   0.02953266   -3.8602736    1.0330846      8192000 
 1596000   0.79877335   -3.8603087   -3.8603087   -2.8274896  0.026937216   -3.8603087     1.032819      8192000 
 1597000   0.79899978   -3.8603024   -3.8603024   -2.8271906  0.026727274   -3.8603024    1.0331118      8192000 
 1598000   0.79944531    -3.860627    -3.860627   -2.8269391   0.02686401    -3.860627    1.0336879      8192000 
 1599000   0.79953665   -3.8604064   -3.8604064   -2.8266004  0.026472926   -3.8604064     1.033806      8192000 
 1600000   0.79880552   -3.8596322   -3.8596322   -2.8267716    0.0284364   -3.8596322    1.0328606      8192000 
 1601000   0.79902135   -3.8598502   -3.8598502   -2.8267105  0.026036394   -3.8598502    1.0331397      8192000 
 1602000   0.79914973    -3.860369    -3.860369   -2.8270633  0.026265172    -3.860369    1.0333057      8192000 
 1603000   0.79888977   -3.8596758   -3.8596758   -2.8267063  0.030438954   -3.8596758    1.0329696      8192000 
 1604000   0.79930076   -3.8603272   -3.8603272   -2.8268262  0.028157458   -3.8603272     1.033501      8192000 
 1605000   0.79934504   -3.8606104   -3.8606104   -2.8270521  0.029580083   -3.8606104    1.0335582      8192000 
 1606000   0.79963048   -3.8606276   -3.8606276   -2.8267003   0.02684823   -3.8606276    1.0339273      8192000 
 1607000   0.79932904   -3.8603184   -3.8603184   -2.8267808  0.030105077   -3.8603184    1.0335375      8192000 
 1608000   0.79947257   -3.8604476   -3.8604476   -2.8267244  0.027105072   -3.8604476    1.0337231      8192000 
 1609000   0.79906743   -3.8604616   -3.8604616   -2.8272623  0.031300854   -3.8604616    1.0331993      8192000 
 1610000   0.79958085   -3.8607969   -3.8607969   -2.8269337   0.02832237   -3.8607969    1.0338631      8192000 
 1611000   0.79911575   -3.8601484   -3.8601484   -2.8268867  0.029824972   -3.8601484    1.0332618      8192000 
 1612000   0.79943927   -3.8606669   -3.8606669   -2.8269868  0.028356694   -3.8606669    1.0336801      8192000 
 1613000   0.79953507   -3.8608105   -3.8608105   -2.8270066  0.029066928   -3.8608105    1.0338039      8192000 
 1614000   0.79943603    -3.860584    -3.860584   -2.8269081  0.029235711    -3.860584    1.0336759      8192000 
 1615000   0.79932647   -3.8607262   -3.8607262    -2.827192  0.028699876   -3.8607262    1.0335342      8192000 
 1616000   0.79959175   -3.8608238   -3.8608238   -2.8269466  0.027729652   -3.8608238    1.0338772      8192000 
 1617000   0.79951918   -3.8606785   -3.8606785   -2.8268951  0.030014434   -3.8606785    1.0337834      8192000 
 1618000   0.79975429   -3.8611362   -3.8611362   -2.8270488  0.030264491   -3.8611362    1.0340874      8192000 
 1619000   0.79983606   -3.8610239   -3.8610239   -2.8268308  0.028030358   -3.8610239    1.0341931      8192000 
 1620000   0.79964192   -3.8610421   -3.8610421      -2.8271  0.028100496   -3.8610421    1.0339421      8192000 
 1621000   0.79914918   -3.8602142   -3.8602142   -2.8269092  0.029785338   -3.8602142     1.033305      8192000 
 1622000   0.79946099   -3.8607664   -3.8607664   -2.8270583  0.029551845   -3.8607664    1.0337082      8192000 
 1623000   0.79950767   -3.8608176   -3.8608176   -2.8270491  0.027769018   -3.8608176    1.0337685      8192000 
 1624000   0.79947912   -3.8607555   -3.8607555   -2.8270239   0.02820045   -3.8607555    1.0337316      8192000 
 1625000   0.79900506   -3.8605215   -3.8605215   -2.8274029  0.030386504   -3.8605215    1.0331186      8192000 
 1626000   0.79882766   -3.8601393   -3.8601393     -2.82725  0.030144646   -3.8601393    1.0328893      8192000 
 1627000   0.79961222   -3.8610101   -3.8610101   -2.8271064  0.030246334   -3.8610101    1.0339037      8192000 
 1628000   0.79952294   -3.8606659   -3.8606659   -2.8268776  0.028735645   -3.8606659    1.0337883      8192000 
 1629000   0.79923946   -3.8605228   -3.8605228   -2.8271011  0.026797347   -3.8605228    1.0334217      8192000 
 1630000     0.798993   -3.8602082   -3.8602082   -2.8271052  0.029897199   -3.8602082     1.033103      8192000 
 1631000   0.79926045   -3.8603608   -3.8603608    -2.826912  0.026471384   -3.8603608    1.0334489      8192000 
 1632000   0.79944698   -3.8604822   -3.8604822   -2.8267921  0.029589592   -3.8604822      1.03369      8192000 
 1633000   0.79938657   -3.8600708   -3.8600708   -2.8264589  0.029412689   -3.8600708    1.0336119      8192000 
 1634000   0.79962603   -3.8605134   -3.8605134   -2.8265919  0.028453458   -3.8605134    1.0339216      8192000 
 1635000   0.79892176   -3.8601176   -3.8601176   -2.8271066  0.029207121   -3.8601176    1.0330109      8192000 
 1636000   0.79892256   -3.8599285   -3.8599285   -2.8269166  0.030506896   -3.8599285     1.033012      8192000 
 1637000   0.79936609   -3.8601609   -3.8601609   -2.8265754  0.024702927   -3.8601609    1.0335855      8192000 
 1638000    0.7990752   -3.8597722   -3.8597722   -2.8265629  0.028618397   -3.8597722    1.0332093      8192000 
 1639000   0.79902839   -3.8598244   -3.8598244   -2.8266756  0.029732381   -3.8598244    1.0331488      8192000 
 1640000   0.79941995    -3.860353    -3.860353   -2.8266979  0.027308105    -3.860353    1.0336551      8192000 
 1641000   0.79907359   -3.8598494   -3.8598494   -2.8266421  0.029244719   -3.8598494    1.0332073      8192000 
 1642000    0.7994275   -3.8602927   -3.8602927   -2.8266278  0.028866118   -3.8602927    1.0336649      8192000 
 1643000    0.7995846    -3.860467    -3.860467   -2.8265991  0.028197318    -3.860467     1.033868      8192000 
 1644000   0.79911781   -3.8600765   -3.8600765    -2.826812  0.029126727   -3.8600765    1.0332644      8192000 
 1645000   0.79913369   -3.8599408   -3.8599408   -2.8266559  0.030808743   -3.8599408     1.033285      8192000 
 1646000   0.79900914   -3.8598837   -3.8598837   -2.8267598  0.026383588   -3.8598837    1.0331239      8192000 
 1647000   0.79892835   -3.8599667   -3.8599667   -2.8269472  0.028385526   -3.8599667    1.0330195      8192000 
 1648000    0.7995313   -3.8603877   -3.8603877   -2.8265886  0.026877745   -3.8603877    1.0337991      8192000 
 1649000    0.7992206   -3.8599751   -3.8599751   -2.8265777    0.0261275   -3.8599751    1.0333973      8192000 
 1650000   0.79949712   -3.8603611   -3.8603611   -2.8266063  0.026157381   -3.8603611    1.0337549      8192000 
 1651000   0.79916985   -3.8603335   -3.8603335   -2.8270018  0.027867288   -3.8603335    1.0333317      8192000 
 1652000   0.79963389   -3.8609643   -3.8609643   -2.8270326  0.028128461   -3.8609643    1.0339317      8192000 
 1653000   0.79956191   -3.8606092   -3.8606092   -2.8267706  0.029119343   -3.8606092    1.0338386      8192000 
 1654000   0.79893924   -3.8600183   -3.8600183   -2.8269848  0.030357831   -3.8600183    1.0330335      8192000 
 1655000   0.79952703   -3.8606827   -3.8606827   -2.8268891  0.029348337   -3.8606827    1.0337935      8192000 
 1656000   0.79996878   -3.8611087   -3.8611087   -2.8267439  0.029214627   -3.8611087    1.0343647      8192000 
 1657000   0.79974868   -3.8608416   -3.8608416   -2.8267614  0.028761596   -3.8608416    1.0340801      8192000 
 1658000   0.79991897   -3.8612511   -3.8612511   -2.8269508  0.026714747   -3.8612511    1.0343003      8192000 
 1659000   0.79980571   -3.8609867   -3.8609867   -2.8268328  0.028258654   -3.8609867    1.0341539      8192000 
 1660000   0.79924308   -3.8602204   -3.8602204    -2.826794  0.030343027   -3.8602204    1.0334264      8192000 
 1661000    0.7997787   -3.8607357   -3.8607357   -2.8266168  0.028223327   -3.8607357     1.034119      8192000 
 1662000   0.79943858   -3.8607421   -3.8607421   -2.8270629  0.028871054   -3.8607421    1.0336792      8192000 
 1663000   0.79949733   -3.8605464   -3.8605464   -2.8267913  0.029531427   -3.8605464    1.0337551      8192000 
 1664000   0.79941652   -3.8604097   -3.8604097   -2.8267591  0.028548215   -3.8604097    1.0336507      8192000 
 1665000    0.7995147   -3.8607293   -3.8607293   -2.8269517  0.028772938   -3.8607293    1.0337776      8192000 
 1666000   0.79945579   -3.8605691   -3.8605691   -2.8268677  0.029858048   -3.8605691    1.0337014      8192000 
 1667000   0.79885528   -3.8601982   -3.8601982   -2.8272732  0.030730217   -3.8601982     1.032925      8192000 
 1668000    0.7992612   -3.8605626   -3.8605626   -2.8271128  0.028477087   -3.8605626    1.0334498      8192000 
 1669000   0.79881923    -3.860083    -3.860083   -2.8272046  0.029272508    -3.860083    1.0328784      8192000 
 1670000   0.79908182    -3.860587    -3.860587   -2.8273691  0.026115617    -3.860587    1.0332179      8192000 
 1671000   0.79913737   -3.8600519   -3.8600519   -2.8267622  0.030602834   -3.8600519    1.0332897      8192000 
 1672000   0.79942918   -3.8607158   -3.8607158   -2.8270487  0.030986248   -3.8607158     1.033667      8192000 
 1673000   0.79980824   -3.8607623   -3.8607623   -2.8266051  0.026326789   -3.8607623    1.0341572      8192000 
 1674000   0.79944329   -3.8606625   -3.8606625   -2.8269772  0.029570051   -3.8606625    1.0336853      8192000 
 1675000   0.79929983   -3.8601537   -3.8601537   -2.8266539  0.028252156   -3.8601537    1.0334998      8192000 
 1676000     0.799159   -3.8600104   -3.8600104   -2.8266928  0.028723483   -3.8600104    1.0333177      8192000 
 1677000   0.79922608   -3.8600649   -3.8600649   -2.8266605  0.027559929   -3.8600649    1.0334044      8192000 
 1678000   0.79885112   -3.8602623   -3.8602623   -2.8273427  0.026874237   -3.8602623    1.0329196      8192000 
 1679000   0.79932029    -3.860349    -3.860349   -2.8268228  0.026659858    -3.860349    1.0335262      8192000 
 1680000   0.79933281   -3.8601496   -3.8601496   -2.8266072  0.024865172   -3.8601496    1.0335424      8192000 
 1681000   0.79889253   -3.8598002   -3.8598002    -2.826827  0.028046636   -3.8598002    1.0329731      8192000 
 1682000   0.79927708   -3.8600775   -3.8600775   -2.8266071  0.026549455   -3.8600775    1.0334704      8192000 
 1683000   0.79935301   -3.8599341   -3.8599341   -2.8263656  0.032061269   -3.8599341    1.0335685      8192000 
 1684000   0.79922561   -3.8602487   -3.8602487   -2.8268449  0.028413917   -3.8602487    1.0334038      8192000 
 1685000   0.79966373   -3.8600683   -3.8600683    -2.826098  0.030819648   -3.8600683    1.0339703      8192000 
 1686000   0.79963253   -3.8605102   -3.8605102   -2.8265802   0.02909988   -3.8605102      1.03393      8192000 
 1687000   0.79928696   -3.8599728   -3.8599728   -2.8264897  0.026937301   -3.8599728    1.0334831      8192000 
 1688000   0.79955603   -3.8601874   -3.8601874   -2.8263564  0.028726755   -3.8601874     1.033831      8192000 
 1689000   0.79991982   -3.8606285   -3.8606285   -2.8263271  0.024383023   -3.8606285    1.0343014      8192000 
 1690000   0.79921007   -3.8596709   -3.8596709   -2.8262872  0.030398492   -3.8596709    1.0333837      8192000 
 1691000   0.79921735    -3.859881    -3.859881   -2.8264878   0.02908013    -3.859881    1.0333931      8192000 
 1692000   0.79909936   -3.8597178   -3.8597178   -2.8264772    0.0279161   -3.8597178    1.0332406      8192000 
 1693000   0.79941361   -3.8598499   -3.8598499    -2.826203  0.028446067   -3.8598499    1.0336469      8192000 
 1694000   0.79969014   -3.8604491   -3.8604491   -2.8264447   0.02742438   -3.8604491    1.0340044      8192000 
 1695000   0.79944314   -3.8600364   -3.8600364   -2.8263514  0.026941495   -3.8600364    1.0336851      8192000 
 1696000   0.79930227   -3.8598061   -3.8598061   -2.8263032  0.030689438   -3.8598061    1.0335029      8192000 
 1697000   0.79966751   -3.8596736   -3.8596736   -2.8256984  0.030474514   -3.8596736    1.0339752      8192000 
 1698000   0.79955656   -3.8600849   -3.8600849   -2.8262532  0.026637435   -3.8600849    1.0338317      8192000 
 1699000    0.7996647   -3.8599335   -3.8599335   -2.8259619   0.02733191   -3.8599335    1.0339716      8192000 
 1700000   0.79963892   -3.8598758   -3.8598758   -2.8259376  0.030165265   -3.8598758    1.0339382      8192000 
 1701000   0.79956739   -3.8596463   -3.8596463   -2.8258005  0.029626854   -3.8596463    1.0338457      8192000 
 1702000   0.79912231   -3.8593699   -3.8593699   -2.8260997  0.027727461   -3.8593699    1.0332702      8192000 
 1703000   0.79922645   -3.8596078   -3.8596078   -2.8262029  0.028299107   -3.8596078    1.0334049      8192000 
 1704000   0.79908129   -3.8594576   -3.8594576   -2.8262404  0.025217902   -3.8594576    1.0332172      8192000 
 1705000   0.79889356   -3.8592206   -3.8592206   -2.8262462  0.023412668   -3.8592206    1.0329745      8192000 
 1706000     0.798766   -3.8591855   -3.8591855    -2.826376  0.027381377   -3.8591855    1.0328095      8192000 
 1707000   0.79919588   -3.8595523   -3.8595523    -2.826187  0.027832979   -3.8595523    1.0333654      8192000 
 1708000   0.79901585   -3.8595481   -3.8595481   -2.8264155  0.028386696   -3.8595481    1.0331326      8192000 
 1709000   0.79948942   -3.8603157   -3.8603157   -2.8265708   0.02641315   -3.8603157    1.0337449      8192000 
 1710000   0.80022686   -3.8607259   -3.8607259   -2.8260274  0.025556662   -3.8607259    1.0346984      8192000 
 1711000    0.7994559   -3.8599073   -3.8599073   -2.8262057  0.026625321   -3.8599073    1.0337016      8192000 
 1712000   0.79965349   -3.8596562   -3.8596562   -2.8256992  0.032125194   -3.8596562    1.0339571      8192000 
 1713000   0.79962006   -3.8601922   -3.8601922   -2.8262783  0.028548983   -3.8601922    1.0339138      8192000 
 1714000    0.7998965   -3.8603196   -3.8603196   -2.8260483  0.027705377   -3.8603196    1.0342713      8192000 
 1715000   0.79965972    -3.859718    -3.859718   -2.8257529  0.030256022    -3.859718    1.0339651      8192000 
 1716000   0.79963775   -3.8601415   -3.8601415   -2.8262047  0.026645933   -3.8601415    1.0339367      8192000 
 1717000   0.80019351   -3.8605374   -3.8605374   -2.8258821  0.026882542   -3.8605374    1.0346553      8192000 
 1718000   0.80005321   -3.8607269   -3.8607269    -2.826253  0.028211185   -3.8607269    1.0344739      8192000 
 1719000   0.79974703   -3.8603899   -3.8603899   -2.8263119  0.028675515   -3.8603899     1.034078      8192000 
 1720000   0.79944489   -3.8599987   -3.8599987   -2.8263113  0.030041932   -3.8599987    1.0336873      8192000 
 1721000   0.79957942   -3.8601245   -3.8601245   -2.8262632  0.029047317   -3.8601245    1.0338613      8192000 
 1722000   0.79970291   -3.8604328   -3.8604328   -2.8264118  0.028004806   -3.8604328     1.034021      8192000 
 1723000   0.79970946   -3.8605245   -3.8605245    -2.826495  0.027792816   -3.8605245    1.0340294      8192000 
 1724000   0.79918641   -3.8598481   -3.8598481    -2.826495  0.029688715   -3.8598481    1.0333531      8192000 
 1725000    0.7999615    -3.860745    -3.860745   -2.8263897  0.025451328    -3.860745    1.0343553      8192000 
 1726000   0.79947936   -3.8600984   -3.8600984   -2.8263665  0.029123247   -3.8600984    1.0337319      8192000 
 1727000    0.8000498   -3.8606906   -3.8606906   -2.8262211  0.029236584   -3.8606906    1.0344695      8192000 
 1728000   0.79978894   -3.8602317   -3.8602317   -2.8260995  0.029496117   -3.8602317    1.0341322      8192000 
 1729000   0.79963422   -3.8597836   -3.8597836   -2.8258514  0.027946584   -3.8597836    1.0339321      8192000 
 1730000   0.79957576   -3.8596292   -3.8596292   -2.8257727  0.029084378   -3.8596292    1.0338566      8192000 
 1731000   0.79955086   -3.8596376   -3.8596376   -2.8258132  0.031446598   -3.8596376    1.0338244      8192000 
 1732000   0.79974507   -3.8600789   -3.8600789   -2.8260035  0.029074433   -3.8600789    1.0340755      8192000 
 1733000   0.79938873   -3.8599168   -3.8599168    -2.826302  0.032493584   -3.8599168    1.0336147      8192000 
 1734000   0.80009917   -3.8603433   -3.8603433     -2.82581  0.028142062   -3.8603433    1.0345333      8192000 
 1735000   0.79940953   -3.8598598   -3.8598598   -2.8262182  0.027225256   -3.8598598    1.0336416      8192000 
 1736000   0.79925396   -3.8599041   -3.8599041   -2.8264637  0.026595949   -3.8599041    1.0334405      8192000 
 1737000   0.79906453    -3.859337    -3.859337   -2.8261414  0.029443216    -3.859337    1.0331955      8192000 
 1738000   0.79967322   -3.8602654   -3.8602654   -2.8262828  0.026818484   -3.8602654    1.0339826      8192000 
 1739000   0.79916858   -3.8590384   -3.8590384   -2.8257083  0.029454812   -3.8590384    1.0333301      8192000 
 1740000   0.79924701    -3.860068    -3.860068   -2.8266365  0.023459392    -3.860068    1.0334315      8192000 
 1741000   0.79906946   -3.8595387   -3.8595387   -2.8263368  0.027184912   -3.8595387    1.0332019      8192000 
 1742000   0.79895413   -3.8592592   -3.8592592   -2.8262064  0.027544327   -3.8592592    1.0330528      8192000 
 1743000   0.79901419   -3.8594696   -3.8594696   -2.8263391  0.030439906   -3.8594696    1.0331304      8192000 
 1744000   0.79946206   -3.8599077   -3.8599077   -2.8261982  0.028265955   -3.8599077    1.0337095      8192000 
 1745000   0.79947509    -3.859542    -3.859542   -2.8258156  0.032971357    -3.859542    1.0337264      8192000 
 1746000   0.79942256   -3.8597912   -3.8597912   -2.8261327  0.028480741   -3.8597912    1.0336585      8192000 
 1747000   0.79983379   -3.8601381   -3.8601381   -2.8259479  0.029492271   -3.8601381    1.0341902      8192000 
 1748000   0.79973707   -3.8598071   -3.8598071   -2.8257419  0.027189318   -3.8598071    1.0340651      8192000 
 1749000   0.80033221   -3.8604053   -3.8604053   -2.8255706  0.029650145   -3.8604053    1.0348346      8192000 
 1750000   0.79996269   -3.8597872   -3.8597872   -2.8254303  0.027845017   -3.8597872    1.0343569      8192000 
 1751000   0.80000094   -3.8597922   -3.8597922   -2.8253859    0.0286904   -3.8597922    1.0344063      8192000 
 1752000   0.79992715    -3.859805    -3.859805   -2.8254941   0.02870931    -3.859805    1.0343109      8192000 
 1753000   0.79949511   -3.8594131   -3.8594131   -2.8256609  0.031313188   -3.8594131    1.0337523      8192000 
 1754000   0.79978862   -3.8595589   -3.8595589   -2.8254272  0.028546742   -3.8595589    1.0341318      8192000 
 1755000   0.79977072   -3.8593826   -3.8593826    -2.825274  0.030429915   -3.8593826    1.0341086      8192000 
 1756000   0.80006526   -3.8596381   -3.8596381   -2.8251486  0.031355051   -3.8596381    1.0344895      8192000 
 1757000   0.80005931   -3.8601647   -3.8601647   -2.8256829  0.025680949   -3.8601647    1.0344818      8192000 
 1758000   0.79963753   -3.8597179   -3.8597179   -2.8257815  0.029254622   -3.8597179    1.0339364      8192000 
 1759000   0.80004778   -3.8597776   -3.8597776   -2.8253107  0.027918247   -3.8597776    1.0344669      8192000 
 1760000   0.79959871   -3.8593847   -3.8593847   -2.8254984  0.027815538   -3.8593847    1.0338862      8192000 
 1761000    0.7993177   -3.8586961   -3.8586961   -2.8251732  0.025063624   -3.8586961    1.0335229      8192000 
 1762000   0.79950693   -3.8592261   -3.8592261   -2.8254586  0.024755984   -3.8592261    1.0337676      8192000 
 1763000   0.79887202   -3.8589077   -3.8589077   -2.8259611  0.028470514   -3.8589077    1.0329466      8192000 
 1764000   0.79948621   -3.8590932   -3.8590932   -2.8253524  0.028916109   -3.8590932    1.0337408      8192000 
 1765000   0.79899523    -3.858911    -3.858911    -2.825805  0.029760674    -3.858911    1.0331059      8192000 
 1766000   0.79973995   -3.8595238   -3.8595238   -2.8254549  0.026246385   -3.8595238    1.0340689      8192000 
 1767000   0.79960418   -3.8592964   -3.8592964   -2.8254031  0.027017706   -3.8592964    1.0338933      8192000 
 1768000   0.79991589   -3.8595826   -3.8595826   -2.8252863  0.025659573   -3.8595826    1.0342963      8192000 
 1769000   0.79939422   -3.8592405   -3.8592405   -2.8256187  0.027646853   -3.8592405    1.0336218      8192000 
 1770000   0.79987957    -3.859632    -3.859632   -2.8253826  0.027375427    -3.859632    1.0342494      8192000 
 1771000   0.79976192   -3.8596846   -3.8596846   -2.8255873     0.026962   -3.8596846    1.0340973      8192000 
 1772000   0.79987346   -3.8596773   -3.8596773   -2.8254358  0.028875705   -3.8596773    1.0342415      8192000 
 1773000   0.80007904   -3.8599568   -3.8599568   -2.8254495  0.028028197   -3.8599568    1.0345073      8192000 
 1774000   0.79994678   -3.8596765   -3.8596765   -2.8253402  0.026813529   -3.8596765    1.0343363      8192000 
 1775000   0.79998768   -3.8600056   -3.8600056   -2.8256165  0.028046947   -3.8600056    1.0343892      8192000 
 1776000   0.79950737   -3.8594839   -3.8594839   -2.8257158  0.028799278   -3.8594839    1.0337681      8192000 
 1777000   0.79951473   -3.8592716   -3.8592716    -2.825494  0.029497894   -3.8592716    1.0337776      8192000 
 1778000   0.79966077   -3.8595546   -3.8595546   -2.8255881  0.027910913   -3.8595546    1.0339665      8192000 
 1779000   0.79977885   -3.8594682   -3.8594682   -2.8253491  0.028089824   -3.8594682    1.0341192      8192000 
 1780000   0.79958296   -3.8595999   -3.8595999   -2.8257341  0.028935453   -3.8595999    1.0338659      8192000 
 1781000   0.79951935   -3.8600012   -3.8600012   -2.8262176  0.029315074   -3.8600012    1.0337836      8192000 
 1782000   0.79915878   -3.8594014   -3.8594014    -2.826084  0.030184972   -3.8594014    1.0333174      8192000 
 1783000   0.79957708   -3.8594074   -3.8594074   -2.8255491  0.029853864   -3.8594074    1.0338583      8192000 
 1784000   0.79944593   -3.8592449   -3.8592449   -2.8255562  0.029886289   -3.8592449    1.0336887      8192000 
 1785000   0.79984047   -3.8599773   -3.8599773   -2.8257784  0.029860808   -3.8599773    1.0341988      8192000 
 1786000   0.79963226   -3.8596974   -3.8596974   -2.8257678  0.030116359   -3.8596974    1.0339296      8192000 
 1787000   0.79965186   -3.8598526   -3.8598526   -2.8258977  0.029993911   -3.8598526     1.033955      8192000 
 1788000   0.79946624    -3.859283    -3.859283    -2.825568  0.029580174    -3.859283    1.0337149      8192000 
 1789000   0.79921266   -3.8590835   -3.8590835   -2.8256964  0.030289653   -3.8590835    1.0333871      8192000 
 1790000   0.79989136   -3.8598773   -3.8598773   -2.8256127  0.026501282   -3.8598773    1.0342646      8192000 
 1791000   0.79948748    -3.859465    -3.859465   -2.8257226  0.028876797    -3.859465    1.0337424      8192000 
 1792000     0.799575   -3.8600236   -3.8600236    -2.826168  0.028115686   -3.8600236    1.0338556      8192000 
 1793000    0.7998134    -3.859795    -3.859795   -2.8256311  0.030809896    -3.859795    1.0341638      8192000 
 1794000   0.79917681   -3.8593212   -3.8593212   -2.8259805  0.031260336   -3.8593212    1.0333407      8192000 
 1795000    0.8000576    -3.859522    -3.859522   -2.8250424  0.027589811    -3.859522    1.0344796      8192000 
 1796000   0.79933507   -3.8594035   -3.8594035   -2.8258581  0.027066087   -3.8594035    1.0335453      8192000 
 1797000   0.79957992    -3.859339    -3.859339   -2.8254771  0.029532127    -3.859339    1.0338619      8192000 
 1798000   0.79986721   -3.8600822   -3.8600822   -2.8258488  0.027055742   -3.8600822    1.0342334      8192000 
 1799000    0.7994412    -3.859597    -3.859597   -2.8259144  0.029989228    -3.859597    1.0336826      8192000 
 1800000   0.79899805   -3.8595106   -3.8595106    -2.826401   0.02969493   -3.8595106    1.0331096      8192000 
 1801000   0.79953069   -3.8601046   -3.8601046   -2.8263063  0.025626637   -3.8601046    1.0337983      8192000 
 1802000   0.79978641   -3.8602226   -3.8602226   -2.8260936  0.025681181   -3.8602226    1.0341289      8192000 
 1803000   0.79970673   -3.8600939   -3.8600939    -2.826068  0.025221012   -3.8600939    1.0340259      8192000 
 1804000   0.79950235    -3.859766    -3.859766   -2.8260044  0.025037573    -3.859766    1.0337616      8192000 
 1805000   0.79948949   -3.8596753   -3.8596753   -2.8259303  0.029507536   -3.8596753     1.033745      8192000 
 1806000   0.79935619   -3.8593905   -3.8593905   -2.8258178  0.027644841   -3.8593905    1.0335727      8192000 
 1807000   0.79940934   -3.8595375   -3.8595375   -2.8258962    0.0287601   -3.8595375    1.0336414      8192000 
 1808000   0.79942946   -3.8598711   -3.8598711   -2.8262037  0.029929014   -3.8598711    1.0336674      8192000 
 1809000   0.79972448   -3.8599849   -3.8599849   -2.8259361  0.030620776   -3.8599849    1.0340488      8192000 
 1810000     0.800133   -3.8600635   -3.8600635   -2.8254864  0.030134972   -3.8600635    1.0345771      8192000 
 1811000    0.7995988   -3.8599607   -3.8599607   -2.8260743  0.031176128   -3.8599607    1.0338863      8192000 
 1812000   0.79924975    -3.859672    -3.859672    -2.826237  0.029431861    -3.859672     1.033435      8192000 
 1813000   0.80017235   -3.8602399   -3.8602399   -2.8256119  0.029026978   -3.8602399    1.0346279      8192000 
 1814000   0.79956709   -3.8597253   -3.8597253     -2.82588  0.028177185   -3.8597253    1.0338453      8192000 
 1815000    0.7996234   -3.8596877   -3.8596877   -2.8257696  0.029019391   -3.8596877    1.0339182      8192000 
 1816000   0.79944295   -3.8595512   -3.8595512   -2.8258664  0.029954642   -3.8595512    1.0336848      8192000 
 1817000   0.79998106    -3.860323    -3.860323   -2.8259424  0.026139402    -3.860323    1.0343806      8192000 
 1818000   0.79956385   -3.8594667   -3.8594667   -2.8256255    0.0306104   -3.8594667    1.0338411      8192000 
 1819000   0.79955293   -3.8596566   -3.8596566   -2.8258295  0.029712212   -3.8596566     1.033827      8192000 
 1820000   0.79944943   -3.8595837   -3.8595837   -2.8258905  0.028723129   -3.8595837    1.0336932      8192000 
 1821000   0.79972869   -3.8600348   -3.8600348   -2.8259805  0.025847952   -3.8600348    1.0340543      8192000 
 1822000   0.79939525    -3.859123    -3.859123   -2.8254999  0.028815941    -3.859123    1.0336232      8192000 
 1823000   0.79936184   -3.8591785   -3.8591785   -2.8255985  0.029167596   -3.8591785      1.03358      8192000 
 1824000   0.79983799   -3.8599094   -3.8599094   -2.8257137  0.027661402   -3.8599094    1.0341956      8192000 
 1825000    0.8001235   -3.8601509   -3.8601509   -2.8255861  0.027060736   -3.8601509    1.0345648      8192000 
 1826000   0.79934839   -3.8593843   -3.8593843   -2.8258218  0.029436352   -3.8593843    1.0335626      8192000 
 1827000   0.79993391   -3.8598084   -3.8598084   -2.8254888  0.027618296   -3.8598084    1.0343196      8192000 
 1828000    0.7994222   -3.8593293   -3.8593293   -2.8256713  0.030186648   -3.8593293     1.033658      8192000 
 1829000   0.79953044   -3.8595809   -3.8595809   -2.8257829  0.028037977   -3.8595809     1.033798      8192000 
 1830000   0.79999919   -3.8598685   -3.8598685   -2.8254644  0.024763192   -3.8598685    1.0344041      8192000 
 1831000   0.79930551   -3.8592441   -3.8592441    -2.825737   0.02805554   -3.8592441    1.0335071      8192000 
 1832000   0.79927299   -3.8593439   -3.8593439   -2.8258789  0.028910978   -3.8593439    1.0334651      8192000 
 1833000    0.7989252   -3.8589577   -3.8589577   -2.8259424   0.02842727   -3.8589577    1.0330154      8192000 
 1834000   0.79912742   -3.8595348   -3.8595348   -2.8262579  0.028442943   -3.8595348    1.0332768      8192000 
 1835000   0.79894565    -3.859098    -3.859098   -2.8260562  0.026752152    -3.859098    1.0330418      8192000 
 1836000    0.7992191   -3.8590207   -3.8590207   -2.8256253  0.027779337   -3.8590207    1.0333954      8192000 
 1837000   0.79974828   -3.8599084   -3.8599084   -2.8258288  0.028128328   -3.8599084    1.0340796      8192000 
 1838000   0.79939885   -3.8596069   -3.8596069   -2.8259791  0.030025442   -3.8596069    1.0336278      8192000 
 1839000   0.79982838   -3.8597475   -3.8597475   -2.8255643  0.028648367   -3.8597475    1.0341832      8192000 
 1840000   0.79920857   -3.8594347   -3.8594347    -2.826053  0.030662353   -3.8594347    1.0333818      8192000 
 1841000   0.79986423   -3.8601599   -3.8601599   -2.8259303  0.025868789   -3.8601599    1.0342296      8192000 
 1842000   0.79986919   -3.8600481   -3.8600481   -2.8258121   0.02589821   -3.8600481     1.034236      8192000 
 1843000   0.79990054   -3.8600436   -3.8600436   -2.8257671  0.029197266   -3.8600436    1.0342765      8192000 
 1844000   0.79996713   -3.8599538   -3.8599538   -2.8255912  0.031006493   -3.8599538    1.0343626      8192000 
 1845000   0.80034784   -3.8606462   -3.8606462   -2.8257913  0.025755023   -3.8606462    1.0348549      8192000 
 1846000   0.80007204   -3.8599569   -3.8599569   -2.8254587  0.030249202   -3.8599569    1.0344982      8192000 
 1847000   0.79976003   -3.8596647   -3.8596647   -2.8255698  0.028106765   -3.8596647    1.0340948      8192000 
 1848000   0.80010237   -3.8601366   -3.8601366   -2.8255991  0.032545358   -3.8601366    1.0345375      8192000 
 1849000   0.79992241   -3.8600668   -3.8600668   -2.8257621  0.031330111   -3.8600668    1.0343048      8192000 
 1850000   0.80000128   -3.8603042   -3.8603042   -2.8258974  0.027972816   -3.8603042    1.0344068      8192000 
 1851000   0.79962957    -3.859244    -3.859244   -2.8253179  0.031559223    -3.859244    1.0339261      8192000 
 1852000   0.79974854   -3.8597922   -3.8597922   -2.8257122  0.027384918   -3.8597922      1.03408      8192000 
 1853000   0.79977779   -3.8602626   -3.8602626   -2.8261449  0.027828347   -3.8602626    1.0341178      8192000 
 1854000   0.80007554   -3.8600742   -3.8600742   -2.8255715  0.027360099   -3.8600742    1.0345028      8192000 
 1855000   0.79960443   -3.8598113   -3.8598113   -2.8259177  0.028389214   -3.8598113    1.0338936      8192000 
 1856000   0.79940793   -3.8595706   -3.8595706    -2.825931  0.027819169   -3.8595706    1.0336396      8192000 
 1857000   0.79930376   -3.8595081   -3.8595081   -2.8260032   0.02867975   -3.8595081    1.0335049      8192000 
 1858000   0.79934092   -3.8593449   -3.8593449    -2.825792  0.026639222   -3.8593449    1.0335529      8192000 
 1859000   0.79930796   -3.8592225   -3.8592225   -2.8257122  0.028977855   -3.8592225    1.0335103      8192000 
 1860000   0.79919613   -3.8596033   -3.8596033   -2.8262376  0.025800436   -3.8596033    1.0333657      8192000 
 1861000   0.79917977   -3.8597365   -3.8597365   -2.8263919  0.025645256   -3.8597365    1.0333445      8192000 
 1862000   0.79958697   -3.8593843   -3.8593843   -2.8255133  0.028734118   -3.8593843    1.0338711      8192000 
 1863000   0.79933694   -3.8591057   -3.8591057   -2.8255579  0.029034134   -3.8591057    1.0335478      8192000 
 1864000   0.79993437   -3.8596371   -3.8596371   -2.8253169   0.02832094   -3.8596371    1.0343202      8192000 
 1865000   0.79972067   -3.8599719   -3.8599719    -2.825928  0.025499811   -3.8599719    1.0340439      8192000 
 1866000   0.79997138   -3.8595841   -3.8595841    -2.825216  0.029068076   -3.8595841    1.0343681      8192000 
 1867000   0.80033373   -3.8602364   -3.8602364   -2.8253998   0.02930604   -3.8602364    1.0348366      8192000 
 1868000   0.80013388   -3.8600658   -3.8600658   -2.8254876  0.028809448   -3.8600658    1.0345782      8192000 
 1869000   0.79946059   -3.8593038   -3.8593038   -2.8255962  0.032996832   -3.8593038    1.0337076      8192000 
 1870000    0.8000066   -3.8602581   -3.8602581   -2.8258445  0.029488396   -3.8602581    1.0344136      8192000 
 1871000   0.80000477   -3.8599751   -3.8599751   -2.8255639  0.024791624   -3.8599751    1.0344113      8192000 
 1872000   0.79988186    -3.860069    -3.860069   -2.8258166  0.027464614    -3.860069    1.0342523      8192000 
 1873000   0.79976082    -3.859478    -3.859478   -2.8253821  0.030586171    -3.859478    1.0340958      8192000 
 1874000   0.79997545   -3.8601024   -3.8601024    -2.825729  0.025822675   -3.8601024    1.0343734      8192000 
 1875000    0.7999233   -3.8600828   -3.8600828   -2.8257769  0.029951907   -3.8600828    1.0343059      8192000 
 1876000   0.79949665    -3.859845    -3.859845   -2.8260907  0.027387447    -3.859845    1.0337543      8192000 
 1877000   0.79921946   -3.8590707   -3.8590707   -2.8256748   0.02773626   -3.8590707    1.0333959      8192000 
 1878000   0.79971161   -3.8598776   -3.8598776   -2.8258454  0.026222545   -3.8598776    1.0340322      8192000 
 1879000   0.79954928   -3.8598533   -3.8598533    -2.826031  0.027951149   -3.8598533    1.0338223      8192000 
 1880000    0.7994016   -3.8594231   -3.8594231   -2.8257918  0.027913683   -3.8594231    1.0336314      8192000 
 1881000    0.7997395   -3.8595803   -3.8595803    -2.825512   0.03082209   -3.8595803    1.0340683      8192000 
 1882000   0.79960627   -3.8599409   -3.8599409   -2.8260449  0.029362539   -3.8599409     1.033896      8192000 
 1883000   0.79942401   -3.8595053   -3.8595053    -2.825845   0.02919865   -3.8595053    1.0336603      8192000 
 1884000   0.79962416   -3.8602345   -3.8602345   -2.8263153  0.027400618   -3.8602345    1.0339191      8192000 
 1885000   0.79951228   -3.8598001   -3.8598001   -2.8260257  0.026342817   -3.8598001    1.0337745      8192000 
 1886000   0.79963682   -3.8596344   -3.8596344   -2.8256989  0.028159816   -3.8596344    1.0339355      8192000 
 1887000   0.79942987   -3.8593775   -3.8593775   -2.8257096  0.027431648   -3.8593775    1.0336679      8192000 
 1888000   0.79942584   -3.8596913   -3.8596913   -2.8260286  0.030838319   -3.8596913    1.0336627      8192000 
 1889000   0.79946925   -3.8595918   -3.8595918    -2.825873   0.02967856   -3.8595918    1.0337188      8192000 
 1890000   0.79957657   -3.8596476   -3.8596476     -2.82579  0.028931673   -3.8596476    1.0338576      8192000 
 1891000   0.79995065   -3.8595476   -3.8595476   -2.8252063  0.028422346   -3.8595476    1.0343413      8192000 
 1892000   0.79936281   -3.8591648   -3.8591648   -2.8255836  0.030240557   -3.8591648    1.0335812      8192000 
 1893000   0.80005154   -3.8597447   -3.8597447    -2.825273  0.029455643   -3.8597447    1.0344717      8192000 
 1894000   0.80004256   -3.8600101   -3.8600101     -2.82555  0.029879123   -3.8600101    1.0344601      8192000 
 1895000   0.80032268   -3.8601599   -3.8601599   -2.8253376  0.028333504   -3.8601599    1.0348223      8192000 
 1896000   0.79984668   -3.8598494   -3.8598494   -2.8256426  0.026828008   -3.8598494    1.0342069      8192000 
 1897000   0.80047209    -3.860422    -3.860422   -2.8254065  0.028868296    -3.860422    1.0350155      8192000 
 1898000   0.79976983   -3.8595737   -3.8595737   -2.8254662  0.029380917   -3.8595737    1.0341075      8192000 
 1899000   0.79943669   -3.8594059   -3.8594059   -2.8257292  0.029825228   -3.8594059    1.0336767      8192000 
 1900000   0.79955022   -3.8592941   -3.8592941   -2.8254706  0.026462401   -3.8592941    1.0338235      8192000 
 1901000   0.79926745   -3.8591687   -3.8591687   -2.8257108  0.027676804   -3.8591687    1.0334579      8192000 
 1902000   0.79940215   -3.8592716   -3.8592716   -2.8256395  0.028430535   -3.8592716    1.0336321      8192000 
 1903000   0.79967575   -3.8593621   -3.8593621   -2.8253763  0.028968276   -3.8593621    1.0339858      8192000 
 1904000   0.79921365   -3.8590082   -3.8590082   -2.8256198  0.027088285   -3.8590082    1.0333883      8192000 
 1905000   0.79918329   -3.8588958   -3.8588958   -2.8255467  0.028479029   -3.8588958    1.0333491      8192000 
 1906000   0.79958445   -3.8593929   -3.8593929   -2.8255251  0.027492864   -3.8593929    1.0338678      8192000 
 1907000   0.79936621   -3.8590573   -3.8590573   -2.8254717  0.030409087   -3.8590573    1.0335856      8192000 
 1908000    0.7994985   -3.8591126   -3.8591126   -2.8253559  0.028292872   -3.8591126    1.0337567      8192000 
 1909000   0.79984679   -3.8595077   -3.8595077   -2.8253007  0.027793973   -3.8595077     1.034207      8192000 
 1910000   0.79977423    -3.859349    -3.859349   -2.8252358  0.028793816    -3.859349    1.0341132      8192000 
 1911000   0.79903488   -3.8585538   -3.8585538   -2.8253966  0.032274718   -3.8585538    1.0331572      8192000 
 1912000   0.79927066   -3.8591321   -3.8591321     -2.82567  0.029298274   -3.8591321    1.0334621      8192000 
 1913000   0.79959398   -3.8595754   -3.8595754   -2.8256952  0.027813216   -3.8595754    1.0338801      8192000 
 1914000   0.79957533   -3.8595083   -3.8595083   -2.8256523  0.029467758   -3.8595083     1.033856      8192000 
 1915000   0.79907154    -3.859501    -3.859501   -2.8262964  0.025520056    -3.859501    1.0332046      8192000 
 1916000   0.79949005   -3.8591989   -3.8591989   -2.8254532  0.028585055   -3.8591989    1.0337457      8192000 
 1917000   0.79913022   -3.8590091   -3.8590091   -2.8257286  0.030564439   -3.8590091    1.0332805      8192000 
 1918000   0.79982455   -3.8596909   -3.8596909   -2.8255126  0.029445162   -3.8596909    1.0341782      8192000 
 1919000   0.79942209   -3.8594745   -3.8594745   -2.8258166  0.028502258   -3.8594745    1.0336579      8192000 
 1920000   0.79973285   -3.8596869   -3.8596869   -2.8256272  0.029630099   -3.8596869    1.0340597      8192000 
 1921000   0.80004582   -3.8599311   -3.8599311   -2.8254667  0.030144149   -3.8599311    1.0344643      8192000 
 1922000   0.79998275   -3.8598156   -3.8598156   -2.8254328  0.027798568   -3.8598156    1.0343828      8192000 
 1923000   0.79987023   -3.8598261   -3.8598261   -2.8255888  0.032102565   -3.8598261    1.0342373      8192000 
 1924000   0.80027352   -3.8603787   -3.8603787   -2.8256199  0.028015483   -3.8603787    1.0347588      8192000 
 1925000   0.79974213   -3.8593102   -3.8593102   -2.8252385  0.032413062   -3.8593102    1.0340717      8192000 
 1926000   0.80013708   -3.8598463   -3.8598463    -2.825264  0.029888379   -3.8598463    1.0345824      8192000 
 1927000   0.80001565   -3.8598659   -3.8598659   -2.8254405  0.031654119   -3.8598659    1.0344253      8192000 
 1928000   0.79915215   -3.8588039   -3.8588039   -2.8254951  0.028746022   -3.8588039    1.0333088      8192000 
 1929000   0.79990353   -3.8598068   -3.8598068   -2.8255264  0.028762026   -3.8598068    1.0342804      8192000 
 1930000   0.79974995   -3.8597131   -3.8597131   -2.8256313  0.029525804   -3.8597131    1.0340818      8192000 
 1931000   0.79987496   -3.8599844   -3.8599844    -2.825741  0.026495991   -3.8599844    1.0342434      8192000 
 1932000   0.79956168   -3.8595024   -3.8595024    -2.825664  0.027628054   -3.8595024    1.0338384      8192000 
 1933000   0.79925495   -3.8589332   -3.8589332   -2.8254915  0.029316685   -3.8589332    1.0334417      8192000 
 1934000    0.8000197   -3.8599203   -3.8599203   -2.8254897  0.027750413   -3.8599203    1.0344306      8192000 
 1935000   0.79934658   -3.8588065   -3.8588065   -2.8252463   0.03023067   -3.8588065    1.0335602      8192000 
 1936000   0.79946364   -3.8590513   -3.8590513   -2.8253397  0.028717828   -3.8590513    1.0337116      8192000 
 1937000   0.79942899    -3.859002    -3.859002   -2.8253352  0.031072675    -3.859002    1.0336668      8192000 
 1938000   0.79974933   -3.8593288   -3.8593288   -2.8252478  0.027393731   -3.8593288     1.034081      8192000 
 1939000   0.79980253   -3.8595971   -3.8595971   -2.8254473  0.029188754   -3.8595971    1.0341498      8192000 
 1940000   0.79974854   -3.8589176   -3.8589176   -2.8248376  0.030805298   -3.8589176      1.03408      8192000 
 1941000     0.799534   -3.8589099   -3.8589099   -2.8251074  0.031337422   -3.8589099    1.0338026      8192000 
 1942000   0.79986811   -3.8593606   -3.8593606    -2.825126  0.028649309   -3.8593606    1.0342346      8192000 
 1943000   0.79996614   -3.8590748   -3.8590748   -2.8247135  0.029356157   -3.8590748    1.0343613      8192000 
 1944000   0.79950289   -3.8587032   -3.8587032   -2.8249409  0.028963606   -3.8587032    1.0337623      8192000 
 1945000   0.79978295   -3.8595118   -3.8595118   -2.8253873  0.028999891   -3.8595118    1.0341245      8192000 
 1946000   0.79999192   -3.8596751   -3.8596751   -2.8252804  0.027415021   -3.8596751    1.0343947      8192000 
 1947000   0.79993008   -3.8596146   -3.8596146   -2.8252999  0.028420698   -3.8596146    1.0343147      8192000 
 1948000   0.79944601   -3.8586374   -3.8586374   -2.8249487  0.027465957   -3.8586374    1.0336888      8192000 
 1949000   0.79905548   -3.8583991   -3.8583991   -2.8252153  0.027035424   -3.8583991    1.0331838      8192000 
 1950000   0.79922608   -3.8586465   -3.8586465   -2.8252421  0.029108181   -3.8586465    1.0334044      8192000 
 1951000   0.80012583   -3.8596611   -3.8596611   -2.8250933  0.026532001   -3.8596611    1.0345678      8192000 
 1952000   0.79967906   -3.8588662   -3.8588662   -2.8248761  0.028036455   -3.8588662    1.0339901      8192000 
 1953000   0.79976974   -3.8591494   -3.8591494    -2.825042  0.031394429   -3.8591494    1.0341074      8192000 
 1954000    0.7999898   -3.8595913   -3.8595913   -2.8251994  0.029663756   -3.8595913    1.0343919      8192000 
 1955000   0.79934416   -3.8589496   -3.8589496   -2.8253925  0.029849906   -3.8589496    1.0335571      8192000 
 1956000   0.79990913   -3.8595514   -3.8595514   -2.8252638  0.026598048   -3.8595514    1.0342876      8192000 
 1957000   0.79990654   -3.8593505   -3.8593505   -2.8250662  0.028968335   -3.8593505    1.0342843      8192000 
 1958000   0.79939629   -3.8589771   -3.8589771   -2.8253526  0.027636711   -3.8589771    1.0336245      8192000 
 1959000   0.79975261    -3.859047    -3.859047   -2.8249618  0.027416999    -3.859047    1.0340852      8192000 
 1960000   0.79985082   -3.8595052   -3.8595052   -2.8252929  0.028757314   -3.8595052    1.0342122      8192000 
 1961000    0.7995949   -3.8594833   -3.8594833    -2.825602  0.032099704   -3.8594833    1.0338813      8192000 
 1962000   0.79970114   -3.8590639   -3.8590639   -2.8250453  0.027729614   -3.8590639    1.0340187      8192000 
 1963000   0.80040445   -3.8599801   -3.8599801    -2.825052  0.025664445   -3.8599801    1.0349281      8192000 
 1964000   0.80024988   -3.8597699   -3.8597699   -2.8250417  0.027454613   -3.8597699    1.0347282      8192000 
 1965000   0.80023559   -3.8596542   -3.8596542   -2.8249445   0.03093887   -3.8596542    1.0347097      8192000 
 1966000   0.80048669    -3.859988    -3.859988   -2.8249536  0.028788197    -3.859988    1.0350344      8192000 
 1967000   0.79996597   -3.8595109   -3.8595109   -2.8251498  0.028307919   -3.8595109    1.0343611      8192000 
 1968000   0.80050896    -3.859628    -3.859628   -2.8245649  0.029911403    -3.859628    1.0350632      8192000 
 1969000   0.80007955   -3.8592175   -3.8592175   -2.8247095  0.029490977   -3.8592175     1.034508      8192000 
 1970000    0.8000985   -3.8593437   -3.8593437   -2.8248112  0.028755422   -3.8593437    1.0345325      8192000 
 1971000   0.79997063   -3.8597415   -3.8597415   -2.8253743  0.029218996   -3.8597415    1.0343671      8192000 
 1972000   0.80044411   -3.8597608   -3.8597608   -2.8247815  0.029558178   -3.8597608    1.0349793      8192000 
 1973000   0.79967961   -3.8594117   -3.8594117   -2.8254209  0.027917626   -3.8594117    1.0339908      8192000 
 1974000   0.79988563   -3.8591805   -3.8591805   -2.8249233  0.027210755   -3.8591805    1.0342572      8192000 
 1975000   0.79935335   -3.8586183   -3.8586183   -2.8250493  0.028814032   -3.8586183     1.033569      8192000 
 1976000   0.79910056   -3.8585367   -3.8585367   -2.8252946  0.030206236   -3.8585367    1.0332421      8192000 
 1977000   0.79935649    -3.858624    -3.858624    -2.825051  0.027710693    -3.858624     1.033573      8192000 
 1978000   0.79972047   -3.8590724   -3.8590724   -2.8250288  0.027012097   -3.8590724    1.0340437      8192000 
 1979000   0.79987617   -3.8593097   -3.8593097   -2.8250647   0.02704016   -3.8593097     1.034245      8192000 
 1980000   0.79963013    -3.859216    -3.859216   -2.8252892  0.028164707    -3.859216    1.0339269      8192000 
 1981000   0.79996344   -3.8589759   -3.8589759   -2.8246181  0.028601239   -3.8589759    1.0343578      8192000 
 1982000   0.80009464   -3.8593579   -3.8593579   -2.8248304  0.028641904   -3.8593579    1.0345275      8192000 
 1983000   0.79995243   -3.8591116   -3.8591116    -2.824768  0.025834351   -3.8591116    1.0343436      8192000 
 1984000   0.79977647   -3.8589745   -3.8589745   -2.8248584  0.026985074   -3.8589745    1.0341161      8192000 
 1985000   0.79983623   -3.8591248   -3.8591248   -2.8249314  0.028659624   -3.8591248    1.0341934      8192000 
 1986000   0.79929783   -3.8587971   -3.8587971   -2.8252999  0.029515286   -3.8587971    1.0334972      8192000 
 1987000   0.79936833   -3.8588464   -3.8588464    -2.825258   0.02788049   -3.8588464    1.0335883      8192000 
 1988000   0.79965107   -3.8592006   -3.8592006   -2.8252467  0.026231094   -3.8592006    1.0339539      8192000 
 1989000   0.79942589   -3.8590035   -3.8590035   -2.8253407   0.02689733   -3.8590035    1.0336628      8192000 
 1990000   0.79961645   -3.8588097   -3.8588097   -2.8249005  0.029451241   -3.8588097    1.0339092      8192000 
 1991000   0.80001653   -3.8598513   -3.8598513   -2.8254248  0.025666115   -3.8598513    1.0344265      8192000 
 1992000   0.79951603   -3.8586697   -3.8586697   -2.8248903  0.030241565   -3.8586697    1.0337793      8192000 
 1993000   0.80007174   -3.8596356   -3.8596356   -2.8251378  0.026190017   -3.8596356    1.0344979      8192000 
 1994000   0.80012069   -3.8595818   -3.8595818   -2.8250206  0.031436447   -3.8595818    1.0345612      8192000 
 1995000   0.79972643   -3.8593222   -3.8593222   -2.8252708  0.031146361   -3.8593222    1.0340514      8192000 
 1996000   0.79996585   -3.8599648   -3.8599648   -2.8256039  0.028843977   -3.8599648    1.0343609      8192000 
 1997000   0.79987116   -3.8595937   -3.8595937   -2.8253552  0.032099118   -3.8595937    1.0342385      8192000 
 1998000   0.80031386   -3.8601776   -3.8601776   -2.8253667  0.030029824   -3.8601776    1.0348109      8192000 
 1999000   0.80012028   -3.8592519   -3.8592519   -2.8246912  0.031615475   -3.8592519    1.0345606      8192000 
 2000000   0.79998218   -3.8597453   -3.8597453   -2.8253632  0.028056494   -3.8597453    1.0343821      8192000 
Loop time of 39825 on 240 procs for 2000000 steps with 4233413 atoms

Performance: 21694.892 tau/day, 50.220 timesteps/s
98.7% CPU use with 240 MPI tasks x 1 OpenMP threads

MPI task timing breakdown:
Section |  min time  |  avg time  |  max time  |%varavg|  %CPU | %total
-----------------------------------------------------------------------
Pair    | 12978      | 15112      | 18442      |1013.9 |  99.5 | 37.95
Bond    | 1.5793     | 1.8371     | 2.1005     |   6.6 | 100.0 |  0.00
Neigh   | 8770.8     | 11983      | 15119      |1116.0 |  99.6 | 30.09
Comm    | 3550       | 7409.2     | 12787      |2155.7 |  97.2 | 18.60
Output  | 179.5      | 185.48     | 191.73     |  33.5 |  96.1 |  0.47
Modify  | 2916.5     | 4785.7     | 6507.5     |1357.7 |  97.3 | 12.02
Other   |            | 348.2      |            |       |       |  0.87

Nlocal:        17639.2 ave       20237 max       15625 min
Histogram: 4 7 32 50 69 47 19 8 3 1
Nghost:        16279.1 ave       21605 max        9738 min
Histogram: 30 10 0 27 11 26 45 53 31 7
Neighs:        568688.0 ave      652148 max      473744 min
Histogram: 1 13 8 36 79 42 1 11 28 21

Total # of neighbors = 1.3648501e+08
Ave neighs/atom = 32.239947
Ave special neighs/atom = 0.0000000
Neighbor list builds = 200000
Dangerous builds = 198000
Total wall time: 11:03:50
