LAMMPS (24 Dec 2020)
OMP_NUM_THREADS environment is not set. Defaulting to 1 thread. (src/comm.cpp:94)
  using 1 OpenMP thread(s) per MPI task
# Simple rigid body system
# needed variables: startTemp, temp

units		lj
atom_style	full
dimension 	3
boundary	p p f
pair_style	lj/cut/opt 2.5

variable 	gcmcdisplace	equal 0
variable 	sigma		equal 1.0
variable 	epsilon 	equal 1.0


read_restart	restart.dat.3000000
Reading restart file ...
  restart file = 24 Dec 2020, LAMMPS = 24 Dec 2020
WARNING: Restart file used different # of processors: 48 vs. 192 (src/read_restart.cpp:697)
  restoring atom style full from restart
  orthogonal box = (0.0000000 0.0000000 0.0000000) to (80.000000 80.000000 160.00000)
  6 by 4 by 8 MPI processor grid
  restoring pair style lj/cut/opt from restart
  439061 atoms
Finding 1-2 1-3 1-4 neighbors ...
  special bond factors lj:    0        0        0       
  special bond factors coul:  0        0        0       
     0 = max # of 1-2 neighbors
     0 = max # of 1-3 neighbors
     0 = max # of 1-4 neighbors
     1 = max # of special neighbors
  special bonds CPU = 1.421 seconds
  read_restart CPU = 1.736 seconds

mass		1 1.0
mass		2 1.0
mass		3 1.0


group		solvent type 1
439061 atoms in group solvent


neighbor 	0.4 bin

pair_coeff	1 1 1.0 1.0
pair_coeff	2 2 0.0 0.0
pair_coeff	3 3 0.0 0.0
pair_coeff	2 3 0.0 0.0
pair_coeff	1 2*3 0.0 0.0

pair_modify 	shift yes


balance 	1.05 shift z 10 1.05
Balancing ...
Neighbor list info ...
  update every 1 steps, delay 10 steps, check yes
  max neighbors/atom: 2000, page size: 100000
  master list distance cutoff = 2.9
  ghost atom cutoff = 2.9
  binsize = 1.45, bins = 56 56 111
  1 neighbor lists, perpetual/occasional/extra = 1 0 0
  (1) pair lj/cut/opt, perpetual
      attributes: half, newton on
      pair build: half/bin/newton
      stencil: half/bin/3d/newton
      bin: standard
 rebalancing time: 0.026 seconds
  iteration count = 5
  initial/final maximal load/proc = 3162.0000 2575.0000
  initial/final imbalance factor  = 1.3827327 1.1260394
  x cuts: 0.0000000 0.16666667 0.33333333 0.50000000 0.66666667 0.83333333 1.0000000
  y cuts: 0.0000000 0.25000000 0.50000000 0.75000000 1.0000000
  z cuts: 0.0000000 0.097656250 0.18359375 0.27734375 0.37890625 0.47656250 0.57031250 0.67968750 1.0000000


####################### WALLS ###########################


variable       epsilonWall equal 2*${epsilon}
variable       epsilonWall equal 2*1

variable       cutoffTop   equal   0.7147*${sigma}
variable       cutoffTop   equal   0.7147*1

variable       cutoffLow   equal   3*${sigma}
variable       cutoffLow   equal   3*1


fix            topWall all wall/lj93 zhi EDGE                ${epsilonWall} ${sigma} ${cutoffTop} units box
fix            topWall all wall/lj93 zhi EDGE                2 ${sigma} ${cutoffTop} units box
fix            topWall all wall/lj93 zhi EDGE                2 1 ${cutoffTop} units box
fix            topWall all wall/lj93 zhi EDGE                2 1 0.7147 units box

fix            lowWall all wall/lj93 zlo EDGE                ${epsilonWall} ${sigma} ${cutoffLow} units box
fix            lowWall all wall/lj93 zlo EDGE                2 ${sigma} ${cutoffLow} units box
fix            lowWall all wall/lj93 zlo EDGE                2 1 ${cutoffLow} units box
fix            lowWall all wall/lj93 zlo EDGE                2 1 3 units box


###################### COMPUTES ##########################

compute        bin1 solvent chunk/atom bin/1d z upper 1.0



######################	FIXES ############################


fix 		peclet solvent ave/chunk 1000 1 1000 bin1 density/number norm 		 none ave one file density.profile

fix 		 temp solvent ave/chunk 1000 1 1000 bin1 temp norm none ave one file temp.profile

fix 		2 solvent nve

## Thermostat


region		regthermo block EDGE EDGE EDGE EDGE 0 20

group 		thermo dynamic solvent region regthermo every 1000
dynamic group thermo defined

fix 		3 thermo langevin ${startTemp} ${temp} 10 156453
fix 		3 thermo langevin 1.0 ${temp} 10 156453
fix 		3 thermo langevin 1.0 1.0 10 156453


## Evaporation

region		regevap block EDGE EDGE EDGE EDGE 140 158
fix 		gcmc solvent gcmc 100 100 0 1 780493 ${temp} ${mu} ${gcmcdisplace} region regevap
fix 		gcmc solvent gcmc 100 100 0 1 780493 1.0 ${mu} ${gcmcdisplace} region regevap
fix 		gcmc solvent gcmc 100 100 0 1 780493 1.0 -4 ${gcmcdisplace} region regevap
fix 		gcmc solvent gcmc 100 100 0 1 780493 1.0 -4 0 region regevap


#### Load balancing

fix 		bal all balance 1000 1.05 shift z 10 1.05

############### Diagnostics and computes ###################
#compute 	com cube	  rigid/local	1 mol x y z
#compute 	quat cube	  rigid/local	1 mol quatw quati quatj quatk

thermo 		1000
thermo_style 	custom step temp epair etotal press pe ke atoms

dump		1 all custom 100000 dump.lammpstrj id mol type x y z
dump 		2 all image 10000 image.*.png type type
dump 		3 all movie 1000 movie.avi type type
#dump 		com cube local 1000 dump.*.xyz c_com[*]
#dump		quat cube      local 1000 dump.*.quat c_quat[*]


restart 	1000000 restart.dat
timestep 	0.005
timer 		full
New timer settings: style=full  mode=nosync  timeout=off


run		5000000
Per MPI rank memory allocation (min/avg/max) = 9.923 | 9.986 | 10.01 Mbytes
Step Temp E_pair TotEng Press PotEng KinEng Atoms 
 3000000     1.016004   -3.1352716   -1.6112691  0.079025997   -3.1352716    1.5240025   439061 
 3001000     1.014727   -3.1356155   -1.6128002  0.073811179   -3.1356155    1.5228153   438851 
 3002000    1.0155217    -3.137402   -1.6126469  0.074829172    -3.137402     1.524755   438636 
 3003000    1.0143255   -3.1385703   -1.6147289  0.076188428   -3.1385703    1.5238413   438382 
 3004000    1.0124599   -3.1384919   -1.6166999  0.078214362   -3.1384919     1.521792   438165 
 3005000    1.0136991   -3.1419038   -1.6174838  0.069473564   -3.1419038      1.52442   437945 
 3006000    1.0116161   -3.1399737   -1.6177929  0.077830002   -3.1399737    1.5221808   437688 
 3007000     1.009761   -3.1400673   -1.6197123  0.076006327   -3.1400673     1.520355   437410 
 3008000    1.0101678   -3.1425062   -1.6206654  0.074829732   -3.1425062    1.5218408   437159 
 3009000    1.0090827   -3.1415086   -1.6206137  0.075914626   -3.1415086    1.5208949   436961 
 3010000    1.0091529   -3.1430099   -1.6212535  0.072343851   -3.1430099    1.5217565   436744 
 3011000    1.0080749   -3.1437601   -1.6228665  0.071057415   -3.1437601    1.5208936   436525 
 3012000    1.0064372   -3.1432181   -1.6239008  0.076294942   -3.1432181    1.5193173   436268 
 3013000    1.0058242   -3.1440199   -1.6248724    0.0753261   -3.1440199    1.5191475   436051 
 3014000     1.006019   -3.1455443   -1.6253461  0.076256654   -3.1455443    1.5201982   435834 
 3015000    1.0033026   -3.1448929   -1.6280442  0.068322145   -3.1448929    1.5168487   435617 
 3016000    1.0034974   -3.1456304   -1.6275602   0.07444778   -3.1456304    1.5180702   435351 
 3017000    1.0027201   -3.1462562   -1.6286543  0.071289484   -3.1462562     1.517602   435148 
 3018000    1.0020894   -3.1468773   -1.6293825     0.068965   -3.1468773    1.5174948   434905 
 3019000    1.0031334   -3.1487329   -1.6290038  0.078002187   -3.1487329    1.5197291   434718 
 3020000    1.0026441   -3.1488973   -1.6290949  0.073650339   -3.1488973    1.5198024   434485 
 3021000    0.9997995   -3.1465067   -1.6301784  0.074458637   -3.1465067    1.5163282   434245 
 3022000   0.99952402   -3.1477679   -1.6311135  0.069851438   -3.1477679    1.5166544   434032 
 3023000   0.99947529   -3.1481809   -1.6308278  0.071087879   -3.1481809     1.517353   433811 
 3024000   0.99938234   -3.1502325   -1.6321318   0.06842232   -3.1502325    1.5181008   433557 
 3025000   0.99740817   -3.1510249   -1.6351748  0.067524049   -3.1510249    1.5158501   433343 
 3026000   0.99614154   -3.1508142   -1.6359173  0.069599559   -3.1508142     1.514897   433065 
 3027000   0.99514942   -3.1527326   -1.6384668  0.067275762   -3.1527326    1.5142658   432814 
 3028000   0.99298482   -3.1502863   -1.6385039  0.069259693   -3.1502863    1.5117824   432582 
 3029000   0.99189896   -3.1496658   -1.6387297  0.066504504   -3.1496658    1.5109361   432351 
 3030000   0.99299538    -3.151805   -1.6383971  0.066582552    -3.151805    1.5134078   432122 
 3031000   0.99176502   -3.1522951   -1.6398875  0.065223567   -3.1522951    1.5124077   431872 
 3032000   0.99029738   -3.1533048   -1.6423306  0.067073851   -3.1533048    1.5109743   431642 
 3033000   0.99000282   -3.1532479   -1.6419318  0.061815104   -3.1532479    1.5113161   431416 
 3034000   0.98955536   -3.1545318    -1.643086  0.063122386   -3.1545318    1.5114458   431184 
 3035000   0.98862223   -3.1546715   -1.6438661  0.066391296   -3.1546715    1.5108054   430960 
 3036000   0.98872056   -3.1554629   -1.6436968    0.0673626   -3.1554629     1.511766   430729 
 3037000   0.98471716   -3.1519017    -1.645358  0.061127124   -3.1519017    1.5065437   430472 
 3038000    0.9860477   -3.1569682   -1.6474912   0.06088621   -3.1569682     1.509477   430216 
 3039000   0.98750628   -3.1621141   -1.6494479  0.058366372   -3.1621141    1.5126662   429944 
 3040000   0.98585367   -3.1617771   -1.6508481  0.059396471   -3.1617771     1.510929   429718 
 3041000   0.98465593   -3.1618256   -1.6519522  0.064490599   -3.1618256    1.5098733   429496 
 3042000   0.98428139   -3.1616584   -1.6517336  0.062791295   -3.1616584    1.5099248   429318 
 3043000   0.98380852    -3.161584   -1.6516777  0.061385016    -3.161584    1.5099063   429117 
 3044000   0.98252714   -3.1615397   -1.6527738  0.059432464   -3.1615397    1.5087659   428882 
 3045000   0.98153101   -3.1625916   -1.6544657  0.064656604   -3.1625916    1.5081259   428629 
 3046000    0.9813853   -3.1651432   -1.6563012  0.062731646   -3.1651432    1.5088419   428362 
 3047000   0.98157157    -3.167163   -1.6572311  0.058902057    -3.167163     1.509932   428134 
 3048000   0.97922278   -3.1665529   -1.6594878  0.062399078   -3.1665529    1.5070651   427922 
 3049000   0.97992228   -3.1690148   -1.6600938  0.062056467   -3.1690148     1.508921   427701 
 3050000   0.98030556   -3.1704308   -1.6600156  0.063688885   -3.1704308    1.5104152   427445 
 3051000   0.97826452    -3.169805   -1.6616949  0.063372307    -3.169805    1.5081102   427207 
 3052000   0.97697018   -3.1726982   -1.6655779  0.056102748   -3.1726982    1.5071202   426922 
 3053000   0.97609416   -3.1727169   -1.6659705  0.055650207   -3.1727169    1.5067465   426645 
 3054000   0.97425209   -3.1710299   -1.6663369  0.059433149   -3.1710299     1.504693   426421 
 3055000   0.97412903   -3.1724532   -1.6670924  0.059509539   -3.1724532    1.5053608   426178 
 3056000    0.9755464   -3.1750723   -1.6667958  0.057393988   -3.1750723    1.5082766   425973 
 3057000   0.97405609   -3.1743624   -1.6676294  0.060916152   -3.1743624    1.5067329   425758 
 3058000   0.97439447   -3.1773054   -1.6693194  0.063574275   -3.1773054     1.507986   425552 
 3059000   0.97283199   -3.1762804   -1.6699373  0.063906169   -3.1762804    1.5063431   425333 
 3060000   0.97206598   -3.1774205     -1.67152  0.061893205   -3.1774205    1.5059005   425123 
 3061000    0.9716448    -3.177801   -1.6717949  0.059142035    -3.177801    1.5060061   424909 
 3062000   0.97007323   -3.1776904   -1.6732102   0.05669664   -3.1776904    1.5044802   424652 
 3063000   0.96890664   -3.1767841   -1.6733414   0.05720877   -3.1767841    1.5034428   424434 
 3064000   0.96900429   -3.1784904    -1.674166  0.058053092   -3.1784904    1.5043244   424228 
 3065000    0.9679199   -3.1798386   -1.6764676  0.056351701   -3.1798386     1.503371   424022 
 3066000   0.96767585   -3.1815507   -1.6776898  0.059340543   -3.1815507    1.5038609   423777 
 3067000   0.96475858   -3.1782012   -1.6781201  0.057896823   -3.1782012    1.5000811   423564 
 3068000   0.96520997   -3.1797519   -1.6781393  0.058901935   -3.1797519    1.5016125   423330 
 3069000   0.96569888   -3.1821147   -1.6788716  0.053365592   -3.1821147    1.5032431   423085 
 3070000   0.96367624   -3.1815516   -1.6804245  0.058864739   -3.1815516    1.5011271   422794 
 3071000   0.96318678   -3.1822049   -1.6810484  0.051314608   -3.1822049    1.5011564   422571 
 3072000   0.96211707   -3.1816596   -1.6813644   0.05458829   -3.1816596    1.5002952   422344 
 3073000   0.96135525   -3.1825479   -1.6826274  0.051587337   -3.1825479    1.4999205   422115 
 3074000   0.95978081   -3.1824854   -1.6841836  0.052032143   -3.1824854    1.4983018   421879 
 3075000   0.95923567   -3.1836761    -1.685611  0.053820813   -3.1836761    1.4980651   421706 
 3076000   0.95888833   -3.1847208   -1.6864023  0.048762327   -3.1847208    1.4983185   421482 
 3077000   0.95804924   -3.1856435    -1.687833  0.055965144   -3.1856435    1.4978105   421256 
 3078000    0.9583132   -3.1880471   -1.6891692  0.052637391   -3.1880471    1.4988778   421072 
 3079000   0.95818983   -3.1879184    -1.688589  0.051715557   -3.1879184    1.4993294   420891 
 3080000   0.95714956   -3.1870915   -1.6887563  0.053752443   -3.1870915    1.4983353   420713 
 3081000   0.95682821   -3.1890077   -1.6903562  0.048183659   -3.1890077    1.4986515   420483 
 3082000    0.9565222   -3.1898866   -1.6910193  0.055005702   -3.1898866    1.4988673   420288 
 3083000   0.95414566   -3.1901771   -1.6942009  0.052708143   -3.1901771    1.4959762   420054 
 3084000   0.95303189   -3.1906982   -1.6956746  0.049914768   -3.1906982    1.4950237   419831 
 3085000   0.95420933   -3.1932512   -1.6956313  0.052787121   -3.1932512    1.4976198   419621 
 3086000   0.95494573   -3.1960475    -1.696543  0.049328714   -3.1960475    1.4995046   419417 
 3087000   0.95323452   -3.1958814   -1.6980818  0.056883166   -3.1958814    1.4977996   419142 
 3088000   0.95485234   -3.2003956   -1.6993628  0.052415324   -3.2003956    1.5010328   418949 
 3089000   0.95120685   -3.1979336    -1.701903  0.049402207   -3.1979336    1.4960306   418745 
 3090000   0.95033453   -3.1973203    -1.701901  0.050993428   -3.1973203    1.4954193   418532 
 3091000   0.95029525    -3.199781     -1.70368  0.054117235    -3.199781     1.496101   418324 
 3092000   0.95036757   -3.2024843   -1.7055073  0.051937326   -3.2024843    1.4969771   418111 
 3093000   0.94938516   -3.2026666   -1.7064282  0.052056171   -3.2026666    1.4962384   417885 
 3094000   0.94905274   -3.2043327   -1.7078555  0.048741739   -3.2043327    1.4964772   417672 
 3095000   0.94833281   -3.2052814   -1.7089864  0.049541003   -3.2052814     1.496295   417406 
 3096000   0.94823294   -3.2072304   -1.7102215  0.048414159   -3.2072304    1.4970089   417163 
 3097000    0.9483915   -3.2087576   -1.7106329  0.049410638   -3.2087576    1.4981247   416922 
 3098000   0.94691523    -3.210913   -1.7143521  0.049048564    -3.210913    1.4965609   416708 
 3099000   0.94627668    -3.211526   -1.7153998  0.043776906    -3.211526    1.4961262   416548 
 3100000   0.94624298   -3.2112115   -1.7144487  0.047416639   -3.2112115    1.4967628   416356 
 3101000   0.94466411   -3.2118823   -1.7168198   0.04900733   -3.2118823    1.4950625   416134 
 3102000   0.94270905   -3.2118445   -1.7190941  0.047254264   -3.2118445    1.4927503   415916 
 3103000   0.94339286   -3.2143605   -1.7197907  0.045604682   -3.2143605    1.4945698   415711 
 3104000   0.94154423   -3.2151322   -1.7226797  0.043084609   -3.2151322    1.4924525   415485 
 3105000    0.9421823     -3.21738   -1.7230457  0.045816549     -3.21738    1.4943343   415243 
 3106000   0.94275112   -3.2189174   -1.7229965  0.047641176   -3.2189174    1.4959209   415053 
 3107000   0.94036305   -3.2178583   -1.7250073   0.04696159   -3.2178583     1.492851   414853 
 3108000   0.93996338   -3.2188008   -1.7257709   0.05184769   -3.2188008    1.4930298   414627 
 3109000   0.93997523   -3.2192182   -1.7255175  0.047570304   -3.2192182    1.4937007   414446 
 3110000   0.93873559   -3.2196853   -1.7272739  0.051335719   -3.2196853    1.4924114   414257 
 3111000   0.93896542   -3.2205453   -1.7270078  0.051533144   -3.2205453    1.4935375   414046 
 3112000   0.93760238   -3.2211507   -1.7290425  0.048480547   -3.2211507    1.4921082   413841 
 3113000   0.93853436    -3.222909   -1.7285666  0.048856476    -3.222909    1.4943424   413633 
 3114000   0.93707682   -3.2250913   -1.7323911  0.047267649   -3.2250913    1.4927002   413445 
 3115000   0.93566519    -3.225102   -1.7339147  0.043119117    -3.225102    1.4911873   413241 
 3116000    0.9333898   -3.2222335   -1.7338838  0.049770425   -3.2222335    1.4883497   413022 
 3117000   0.93634463   -3.2284064   -1.7344986  0.043238147   -3.2284064    1.4939078   412788 
 3118000   0.93556908    -3.229134   -1.7356568   0.04494654    -3.229134    1.4934772   412565 
 3119000   0.93488927   -3.2269443   -1.7339407  0.045702998   -3.2269443    1.4930036   412396 
 3120000   0.93359374   -3.2259421   -1.7344106  0.045879806   -3.2259421    1.4915315   412231 
 3121000   0.93271721   -3.2265048   -1.7358024   0.04746236   -3.2265048    1.4907024   412073 
 3122000   0.93133472   -3.2270817   -1.7378624  0.045131723   -3.2270817    1.4892193   411872 
 3123000   0.93130947   -3.2271912   -1.7372815   0.04213111   -3.2271912    1.4899096   411670 
 3124000   0.93119563   -3.2298852   -1.7392343  0.045078645   -3.2298852    1.4906509   411415 
 3125000   0.92923424   -3.2298896   -1.7416152   0.04101275   -3.2298896    1.4882744   411204 
 3126000   0.92759248    -3.229627   -1.7433713  0.045625134    -3.229627    1.4862557   411035 
 3127000   0.92931613   -3.2331194   -1.7433516  0.043022606   -3.2331194    1.4897678   410828 
 3128000   0.92843362   -3.2330326   -1.7438966  0.045373974   -3.2330326     1.489136   410612 
 3129000   0.92675816   -3.2329754   -1.7459002  0.042330182   -3.2329754    1.4870752   410439 
 3130000   0.92620248   -3.2322709    -1.745515  0.040046849   -3.2322709    1.4867559   410281 
 3131000   0.92529693    -3.232664   -1.7467279  0.037851765    -3.232664    1.4859361   410106 
 3132000   0.92583255   -3.2339172   -1.7462975  0.040323381   -3.2339172    1.4876197   409879 
 3133000    0.9253565   -3.2359868   -1.7483735   0.03993398   -3.2359868    1.4876133   409670 
 3134000   0.92332144   -3.2341923   -1.7490857  0.041672569   -3.2341923    1.4851066   409459 
 3135000   0.92395273   -3.2371948   -1.7504192  0.040742777   -3.2371948    1.4867756   409279 
 3136000   0.92327897   -3.2364395   -1.7500944  0.046703298   -3.2364395    1.4863451   409099 
 3137000   0.92300291   -3.2368647   -1.7504044  0.043815603   -3.2368647    1.4864603   408945 
 3138000   0.92406431   -3.2392572    -1.750414  0.038591794   -3.2392572    1.4888431   408760 
 3139000   0.92246932   -3.2377325   -1.7507863   0.04684396   -3.2377325    1.4869463   408575 
 3140000   0.92335061   -3.2420019   -1.7526983  0.038286397   -3.2420019    1.4893036   408318 
 3141000   0.92300391   -3.2429184    -1.753583  0.044729856   -3.2429184    1.4893353   408156 
 3142000   0.92195827   -3.2435867   -1.7552203  0.040061906   -3.2435867    1.4883665   407959 
 3143000   0.92089206   -3.2418484    -1.754536  0.046839865   -3.2418484    1.4873124   407776 
 3144000   0.92042256   -3.2416755   -1.7546108  0.046175048   -3.2416755    1.4870647   407636 
 3145000   0.91965173   -3.2427617     -1.75637   0.04094665   -3.2427617    1.4863918   407479 
 3146000    0.9182129   -3.2436111   -1.7588744  0.039624721   -3.2436111    1.4847367   407295 
 3147000   0.91674294   -3.2428025   -1.7600568  0.040285209   -3.2428025    1.4827457   407189 
 3148000    0.9161552   -3.2445184   -1.7619696  0.038593426   -3.2445184    1.4825487   406982 
 3149000   0.91585568   -3.2467954     -1.76405  0.034846216   -3.2467954    1.4827453   406795 
 3150000   0.91493494    -3.246338   -1.7645297  0.036369042    -3.246338    1.4818084   406643 
 3151000   0.91291924   -3.2441877   -1.7650182  0.033873419   -3.2441877    1.4791694   406471 
 3152000   0.91476269   -3.2477193   -1.7648005  0.034933639   -3.2477193    1.4829188   406262 
 3153000   0.91462355   -3.2491942   -1.7657963  0.043482197   -3.2491942     1.483398   406069 
 3154000   0.91225909   -3.2473556   -1.7672056  0.036732543   -3.2473556      1.48015   405908 
 3155000   0.91338843   -3.2496774   -1.7670924   0.03817916   -3.2496774     1.482585   405743 
 3156000   0.91340487    -3.252331   -1.7691601  0.043961855    -3.252331     1.483171   405590 
 3157000     0.912797   -3.2524299   -1.7698073   0.03762543   -3.2524299    1.4826226   405470 
 3158000   0.91275881   -3.2529709   -1.7697519  0.044289643   -3.2529709     1.483219   405290 
 3159000   0.91310132   -3.2535148   -1.7690836  0.038541779   -3.2535148    1.4844312   405111 
 3160000   0.91419661   -3.2552145   -1.7682869  0.040033308   -3.2552145    1.4869275   404916 
 3161000   0.91247972   -3.2549544   -1.7703501   0.04018628   -3.2549544    1.4846043   404788 
 3162000   0.91055194    -3.253543   -1.7715553   0.03978112    -3.253543    1.4819877   404646 
 3163000   0.91130883   -3.2557003    -1.771894  0.042470786   -3.2557003    1.4838063   404486 
 3164000   0.91157607   -3.2598205   -1.7748632  0.039578438   -3.2598205    1.4849573   404291 
 3165000    0.9098546     -3.25958    -1.776642  0.044729064     -3.25958     1.482938   404077 
 3166000   0.90845342   -3.2589174   -1.7776253  0.041559102   -3.2589174    1.4812921   403903 
 3167000    0.9080642   -3.2592566   -1.7778692  0.037181954   -3.2592566    1.4813874   403704 
 3168000   0.90696311   -3.2600686   -1.7798615  0.037524386   -3.2600686    1.4802071   403536 
 3169000   0.90636899   -3.2616017   -1.7818326  0.042487563   -3.2616017    1.4797691   403391 
 3170000   0.90653878    -3.262011   -1.7812562  0.036358556    -3.262011    1.4807548   403198 
 3171000   0.90708532   -3.2653082   -1.7830357   0.03362903   -3.2653082    1.4822725   403028 
 3172000   0.90430264    -3.262558   -1.7843119  0.041220221    -3.262558    1.4782461   402886 
 3173000   0.90530429   -3.2653471   -1.7849822  0.038072064   -3.2653471    1.4803649   402755 
 3174000   0.90312454   -3.2626267   -1.7853016  0.041106676   -3.2626267     1.477325   402612 
 3175000   0.90334408   -3.2644046   -1.7860227  0.041252226   -3.2644046    1.4783818   402422 
 3176000   0.90344182   -3.2659979   -1.7868496  0.040299041   -3.2659979    1.4791483   402257 
 3177000   0.90331103   -3.2662349   -1.7867895  0.034729703   -3.2662349    1.4794454   402118 
 3178000   0.90287304   -3.2680127   -1.7886519  0.036285037   -3.2680127    1.4793608   401946 
 3179000   0.90343226   -3.2702824   -1.7894085  0.038396327   -3.2702824    1.4808739   401784 
 3180000   0.90040436   -3.2664849   -1.7899715  0.037027297   -3.2664849    1.4765134   401620 
 3181000   0.90216728   -3.2712671   -1.7912806  0.036247623   -3.2712671    1.4799865   401462 
 3182000    0.9003381   -3.2702616   -1.7929078    0.0389253   -3.2702616    1.4773538   401362 
 3183000   0.89962134   -3.2700999   -1.7933777  0.039092308   -3.2700999    1.4767222   401214 
 3184000   0.89909946   -3.2697956   -1.7935401  0.034162367   -3.2697956    1.4762556   401108 
 3185000   0.89996531   -3.2731447   -1.7948815  0.036009724   -3.2731447    1.4782632   400949 
 3186000   0.89931325    -3.274398    -1.796594   0.03776377    -3.274398     1.477804   400783 
 3187000   0.89828763   -3.2744572   -1.7978375  0.040095012   -3.2744572    1.4766197   400647 
 3188000   0.89894942   -3.2761384   -1.7978552  0.034201552   -3.2761384    1.4782831   400491 
 3189000   0.89814075   -3.2753123   -1.7977207  0.036977901   -3.2753123    1.4775916   400318 
 3190000   0.89764259   -3.2761528   -1.7988124  0.035836019   -3.2761528    1.4773404   400164 
 3191000   0.89654052   -3.2773989   -1.8014444  0.030738471   -3.2773989    1.4759544   400048 
 3192000   0.89601961   -3.2772334   -1.8016238  0.034699772   -3.2772334    1.4756096   399909 
 3193000   0.89657698   -3.2786085   -1.8014716  0.037987113   -3.2786085    1.4771369   399744 
 3194000   0.89598732    -3.278238   -1.8016256  0.039187269    -3.278238    1.4766124   399623 
 3195000   0.89362784    -3.277326   -1.8041044  0.036457312    -3.277326    1.4732216   399488 
 3196000   0.89326991   -3.2784887   -1.8054257  0.033524471   -3.2784887     1.473063   399371 
 3197000    0.8950713   -3.2824569   -1.8059206  0.033013014   -3.2824569    1.4765364   399235 
 3198000   0.89509693   -3.2844405   -1.8073439  0.035837037   -3.2844405    1.4770967   399095 
 3199000   0.89348675   -3.2839952   -1.8090937  0.033925165   -3.2839952    1.4749015   398970 
 3200000   0.89248338   -3.2838684   -1.8100949  0.033991363   -3.2838684    1.4737734   398827 
 3201000   0.89157128   -3.2834084   -1.8105429   0.03362552   -3.2834084    1.4728655   398665 
 3202000   0.89051601   -3.2836593    -1.811987   0.03629669   -3.2836593    1.4716722   398516 
 3203000   0.89233141   -3.2860865    -1.811007  0.035339798   -3.2860865    1.4750795   398406 
 3204000   0.89269913   -3.2866688   -1.8106405  0.036387905   -3.2866688    1.4760283   398314 
 3205000   0.89143466   -3.2866201    -1.812068  0.036756994   -3.2866201    1.4745521   398148 
 3206000   0.89138609   -3.2870326   -1.8120904  0.036354535   -3.2870326    1.4749422   398021 
 3207000   0.89063455   -3.2882124   -1.8140396  0.030417392   -3.2882124    1.4741727   397893 
 3208000   0.89037704   -3.2888643    -1.814688  0.032778114   -3.2888643    1.4741763   397777 
 3209000   0.88878153   -3.2890169   -1.8169123  0.027587874   -3.2890169    1.4721046   397623 
 3210000   0.88817789   -3.2893101   -1.8175613  0.039363221   -3.2893101    1.4717488   397449 
 3211000    0.8898509   -3.2934707   -1.8185564  0.036966033   -3.2934707    1.4749144   397343 
 3212000   0.88785936   -3.2908845   -1.8186523  0.030708226   -3.2908845    1.4722322   397176 
 3213000    0.8870831   -3.2908948     -1.81942  0.038315716   -3.2908948    1.4714748   397033 
 3214000   0.88625775   -3.2909669     -1.82035  0.036267421   -3.2909669    1.4706169   396895 
 3215000   0.88692257   -3.2937338   -1.8216466  0.031982929   -3.2937338    1.4720873   396796 
 3216000   0.88661077   -3.2953655   -1.8233358  0.035503307   -3.2953655    1.4720298   396672 
 3217000       0.8852   -3.2953246   -1.8250812   0.03145223   -3.2953246    1.4702434   396522 
 3218000   0.88637322   -3.2973245   -1.8247685  0.030336535   -3.2973245     1.472556   396424 
 3219000   0.88514781   -3.2971664    -1.826097   0.03731586   -3.2971664    1.4710694   396276 
 3220000   0.88421277   -3.2965784   -1.8264842  0.036943074   -3.2965784    1.4700941   396120 
 3221000   0.88508777   -3.2995808   -1.8276269   0.03140188   -3.2995808     1.471954   396011 
 3222000    0.8836093   -3.2991135   -1.8291543  0.038133015   -3.2991135    1.4699591   395886 
 3223000   0.88502706   -3.3005529   -1.8278483   0.03563134   -3.3005529    1.4727046   395782 
 3224000    0.8846804   -3.3011314   -1.8284009  0.036279304   -3.3011314    1.4727306   395620 
 3225000   0.88184769   -3.2986855   -1.8301509  0.033096664   -3.2986855    1.4685346   395480 
 3226000   0.88318957   -3.3015353   -1.8302899  0.034397195   -3.3015353    1.4712454   395352 
 3227000   0.88139031   -3.3012163    -1.832645  0.030995779   -3.3012163    1.4685713   395265 
 3228000   0.88164109   -3.3015276   -1.8321667  0.033948594   -3.3015276    1.4693609   395165 
 3229000   0.87827762   -3.2979683   -1.8336757   0.03746802   -3.2979683    1.4642926   395020 
 3230000   0.88077926   -3.3024455   -1.8336177  0.032532154   -3.3024455    1.4688278   394922 
 3231000   0.88013571   -3.3014441   -1.8332694  0.038491143   -3.3014441    1.4681747   394809 
 3232000   0.87989679   -3.3034277   -1.8351383  0.033495549   -3.3034277    1.4682893   394671 
 3233000   0.87925682   -3.3022015    -1.834597  0.033338047   -3.3022015    1.4676044   394568 
 3234000   0.87875138   -3.3017181   -1.8346152  0.032640605   -3.3017181    1.4671029   394476 
 3235000    0.8769295   -3.3020837   -1.8374508  0.031752906   -3.3020837     1.464633   394322 
 3236000    0.8761615   -3.3032883   -1.8394257  0.032658197   -3.3032883    1.4638626   394184 
 3237000   0.87654578   -3.3047398   -1.8399862  0.028876577   -3.3047398    1.4647536   394117 
 3238000   0.87790212   -3.3057829   -1.8383197  0.032241312   -3.3057829    1.4674632   393998 
 3239000   0.87827119   -3.3067693   -1.8383016  0.031031516   -3.3067693    1.4684677   393894 
 3240000   0.87691931    -3.307748   -1.8411125  0.034044982    -3.307748    1.4666356   393779 
 3241000   0.87753214   -3.3092199   -1.8410896  0.032680874   -3.3092199    1.4681303   393653 
 3242000   0.87606571   -3.3077719   -1.8417412  0.030465872   -3.3077719    1.4660307   393558 
 3243000    0.8749316   -3.3082928   -1.8436836  0.034327879   -3.3082928    1.4646092   393430 
 3244000   0.87505767   -3.3101986   -1.8449761  0.028329992   -3.3101986    1.4652225   393322 
 3245000   0.87570417   -3.3109628   -1.8444378  0.032380301   -3.3109628     1.466525   393263 
 3246000   0.87668621   -3.3125557   -1.8438969  0.027327812   -3.3125557    1.4686588   393132 
 3247000   0.87493587   -3.3103108   -1.8442449  0.031817403   -3.3103108    1.4660659   393041 
 3248000   0.87418875   -3.3112002   -1.8459239  0.029926204   -3.3112002    1.4652763   392917 
 3249000   0.87493287    -3.313783   -1.8467255  0.031047946    -3.313783    1.4670575   392774 
 3250000   0.87401712   -3.3151754   -1.8492728  0.028391948   -3.3151754    1.4659027   392672 
 3251000   0.87411894   -3.3167929   -1.8503199   0.03419929   -3.3167929    1.4664731   392565 
 3252000   0.87382344   -3.3156657   -1.8492887   0.03296685   -3.3156657     1.466377   392458 
 3253000   0.87300043   -3.3156199   -1.8501311  0.028408285   -3.3156199    1.4654888   392326 
 3254000   0.87330962   -3.3175391   -1.8510266  0.028067151   -3.3175391    1.4665124   392191 
 3255000   0.87258716   -3.3174658   -1.8518078  0.032660853   -3.3174658     1.465658   392095 
 3256000   0.87221347   -3.3191236   -1.8538579  0.026127178   -3.3191236    1.4652658   392032 
 3257000   0.87069772   -3.3184336   -1.8553223  0.034394326   -3.3184336    1.4631113   391927 
 3258000   0.87137872   -3.3207529   -1.8559629   0.02900998   -3.3207529    1.4647901   391784 
 3259000   0.87142623   -3.3220804   -1.8568102  0.034482364   -3.3220804    1.4652701   391677 
 3260000   0.87128812   -3.3226618   -1.8572759  0.034342108   -3.3226618    1.4653858   391584 
 3261000   0.87074604   -3.3246763   -1.8599104  0.034610359   -3.3246763    1.4647659   391506 
 3262000   0.87101285   -3.3276696   -1.8619532  0.031396168   -3.3276696    1.4657164   391372 
 3263000   0.86909936    -3.326098   -1.8632129  0.030886069    -3.326098    1.4628852   391268 
 3264000   0.87008176   -3.3282728   -1.8632398  0.034093567   -3.3282728     1.465033   391136 
 3265000   0.87042413    -3.331009   -1.8649085  0.031164889    -3.331009    1.4661005   391005 
 3266000   0.87053527   -3.3306598   -1.8641358   0.02659898   -3.3306598     1.466524   390942 
 3267000   0.86867646    -3.330384   -1.8666844  0.031696323    -3.330384    1.4636996   390860 
 3268000   0.86888582   -3.3331367   -1.8687059  0.028408772   -3.3331367    1.4644308   390759 
 3269000   0.86691826   -3.3299972   -1.8685497  0.035958809   -3.3299972    1.4614475   390670 
 3270000   0.86972031   -3.3328409   -1.8663844  0.034094026   -3.3328409    1.4664565   390594 
 3271000   0.86981047   -3.3338831   -1.8669967  0.033334129   -3.3338831    1.4668864   390520 
 3272000    0.8677037   -3.3319831   -1.8682599  0.035855295   -3.3319831    1.4637233   390416 
 3273000   0.86919437   -3.3365921   -1.8698019  0.028250532   -3.3365921    1.4667901   390269 
 3274000   0.86763227   -3.3358662    -1.871258  0.032228721   -3.3358662    1.4646081   390148 
 3275000   0.86654491   -3.3333754   -1.8702428  0.030504348   -3.3333754    1.4631326   390052 
 3276000   0.86690781   -3.3362366   -1.8722209  0.032403353   -3.3362366    1.4640156   389980 
 3277000    0.8658892   -3.3360291   -1.8734224    0.0317588   -3.3360291    1.4626067   389897 
 3278000   0.86564659   -3.3368003   -1.8742508  0.031189751   -3.3368003    1.4625495   389803 
 3279000   0.86450883   -3.3352709   -1.8742313  0.033725103   -3.3352709    1.4610395   389693 
 3280000   0.86503748   -3.3370898   -1.8747328  0.030793368   -3.3370898     1.462357   389580 
 3281000    0.8633876   -3.3358517   -1.8758679  0.031565096   -3.3358517    1.4599838   389469 
 3282000   0.86258267   -3.3345331    -1.875682  0.029405661   -3.3345331    1.4588512   389408 
 3283000   0.86366796   -3.3376143   -1.8765712  0.028434389   -3.3376143    1.4610431   389313 
 3284000   0.86228925   -3.3369208   -1.8776965  0.028264421   -3.3369208    1.4592243   389176 
 3285000   0.86360881   -3.3408085   -1.8789567  0.028347341   -3.3408085    1.4618518   389071 
 3286000   0.86202657   -3.3386809   -1.8790198  0.028294775   -3.3386809    1.4596612   388941 
 3287000    0.8608493    -3.338298   -1.8801766  0.028593778    -3.338298    1.4581214   388820 
 3288000   0.86242838   -3.3413606   -1.8801851  0.028465467   -3.3413606    1.4611756   388719 
 3289000   0.86075727   -3.3395517   -1.8808546  0.028379692   -3.3395517     1.458697   388625 
 3290000   0.86122519   -3.3405694   -1.8808015  0.028732776   -3.3405694     1.459768   388551 
 3291000   0.85980177   -3.3383874   -1.8806345  0.030223654   -3.3383874     1.457753   388445 
 3292000   0.86048178   -3.3420943   -1.8826737  0.031418444   -3.3420943    1.4594206   388308 
 3293000   0.86031205   -3.3413525   -1.8818815  0.030168677   -3.3413525     1.459471   388218 
 3294000    0.8607901    -3.344962   -1.8842059  0.032587606    -3.344962    1.4607561   388092 
 3295000   0.86014372    -3.345705   -1.8856282    0.0311357    -3.345705    1.4600768   387981 
 3296000   0.85985646   -3.3467681   -1.8866822  0.032541846   -3.3467681    1.4600859   387849 
 3297000   0.85962499   -3.3475783   -1.8874375  0.035337726   -3.3475783    1.4601409   387730 
 3298000   0.85877368   -3.3471738   -1.8881365  0.032524936   -3.3471738    1.4590373   387639 
 3299000   0.85838679   -3.3463524   -1.8876789  0.037787999   -3.3463524    1.4586735   387561 
 3300000   0.85924222   -3.3481031   -1.8876331  0.032617754   -3.3481031    1.4604701   387470 
 3301000    0.8593834   -3.3497134   -1.8887017  0.031767034   -3.3497134    1.4610117   387390 
 3302000   0.85926856   -3.3511172   -1.8899424  0.031286843   -3.3511172    1.4611748   387295 
 3303000   0.85831236    -3.351094   -1.8910061  0.035442094    -3.351094    1.4600879   387152 
 3304000   0.85712963   -3.3501554   -1.8918648  0.031232003   -3.3501554    1.4582906   387095 
 3305000   0.85633395   -3.3509724   -1.8937833  0.027054073   -3.3509724    1.4571891   387028 
 3306000   0.85625083   -3.3523688   -1.8949295  0.027294716   -3.3523688    1.4574393   386924 
 3307000   0.85671735   -3.3523821   -1.8937002  0.033111221   -3.3523821     1.458682   386805 
 3308000   0.85433493   -3.3504405   -1.8953184  0.027594839   -3.3504405    1.4551221   386673 
 3309000    0.8550164   -3.3529126   -1.8963849  0.027667013   -3.3529126    1.4565277   386608 
 3310000   0.85608797   -3.3556387   -1.8969611   0.03078656   -3.3556387    1.4586776   386522 
 3311000   0.85431252   -3.3534342   -1.8973599  0.030761519   -3.3534342    1.4560743   386410 
 3312000   0.85560539   -3.3558354   -1.8972178  0.031758879   -3.3558354    1.4586176   386320 
 3313000   0.85382635   -3.3542881   -1.8982774  0.033309562   -3.3542881    1.4560106   386207 
 3314000   0.85428852   -3.3543215   -1.8973567  0.033004661   -3.3543215    1.4569648   386163 
 3315000   0.85404383    -3.356078   -1.8992627  0.026460856    -3.356078    1.4568153   386092 
 3316000   0.85287107   -3.3553308   -1.9002447  0.028320033   -3.3553308    1.4550862   386020 
 3317000   0.85337784   -3.3567076   -1.9003117  0.028967277   -3.3567076    1.4563959   385902 
 3318000   0.85280943   -3.3555748   -1.8997603  0.031565735   -3.3555748    1.4558145   385799 
 3319000   0.85164467   -3.3551639   -1.9008552  0.031833272   -3.3551639    1.4543086   385671 
 3320000   0.85239979    -3.358802   -1.9028679  0.028548111    -3.358802    1.4559341   385582 
 3321000   0.85218904   -3.3606146   -1.9046817  0.022161291   -3.3606146    1.4559328   385487 
 3322000   0.85143369   -3.3603045   -1.9053074  0.026977029   -3.3603045    1.4549971   385393 
 3323000   0.85184291   -3.3609137   -1.9047071  0.033728718   -3.3609137    1.4562065   385258 
 3324000   0.85233398   -3.3622185   -1.9050363  0.024903236   -3.3622185    1.4571822   385222 
 3325000   0.85248987   -3.3620271   -1.9045216  0.027679167   -3.3620271    1.4575054   385207 
 3326000   0.85247766   -3.3631687   -1.9054533  0.032670288   -3.3631687    1.4577154   385146 
 3327000   0.85217917   -3.3616769   -1.9041502  0.020384675   -3.3616769    1.4575267   385061 
 3328000    0.8505349   -3.3603699    -1.905357  0.029845038   -3.3603699    1.4550129   384982 
 3329000   0.85083109   -3.3619751   -1.9061302  0.030726462   -3.3619751    1.4558448   384896 
 3330000   0.85134705   -3.3630472   -1.9060053  0.026128344   -3.3630472    1.4570419   384813 
 3331000   0.85134827   -3.3632581   -1.9058506  0.030533282   -3.3632581    1.4574075   384717 
 3332000   0.85105916   -3.3621605   -1.9049107  0.033162026   -3.3621605    1.4572497   384628 
 3333000   0.84979924   -3.3603563   -1.9049991  0.026444428   -3.3603563    1.4553573   384558 
 3334000   0.84887628   -3.3616042   -1.9075553  0.035554441   -3.3616042    1.4540489   384486 
 3335000   0.84776576    -3.362369   -1.9099013  0.034361518    -3.362369    1.4524677   384401 
 3336000   0.85006672   -3.3656184    -1.909019   0.03088013   -3.3656184    1.4565994   384351 
 3337000   0.85045725   -3.3667092   -1.9089058  0.030864126   -3.3667092    1.4578034   384210 
 3338000   0.84876847   -3.3654162    -1.910072    0.0320266   -3.3654162    1.4553442   384095 
 3339000   0.84792765   -3.3651506    -1.910843   0.02581019   -3.3651506    1.4543076   383988 
 3340000   0.84835598   -3.3677951   -1.9123776  0.026922215   -3.3677951    1.4554175   383889 
 3341000   0.84727999   -3.3680523   -1.9141778  0.034702857   -3.3680523    1.4538745   383809 
 3342000    0.8475519   -3.3688013   -1.9141153  0.032363106   -3.3688013     1.454686   383718 
 3343000   0.84871297   -3.3734111   -1.9161285  0.028162968   -3.3734111    1.4572826   383559 
 3344000   0.84710973   -3.3715985   -1.9166552  0.030896111   -3.3715985    1.4549433   383450 
 3345000   0.84495326   -3.3701008   -1.9184638   0.02900436   -3.3701008     1.451637   383345 
 3346000   0.84608828   -3.3724184   -1.9184371  0.029594416   -3.3724184    1.4539814   383241 
 3347000   0.84541058   -3.3713129   -1.9181966  0.028768559   -3.3713129    1.4531163   383162 
 3348000   0.84635375   -3.3726955   -1.9178061  0.031044985   -3.3726955    1.4548894   383122 
 3349000   0.84549412   -3.3737644   -1.9202693  0.027301147   -3.3737644    1.4534951   383100 
 3350000   0.84286636   -3.3703575   -1.9210961  0.031070449   -3.3703575    1.4492614   383025 
 3351000   0.84331627   -3.3727093   -1.9224812  0.028600836   -3.3727093    1.4502281   382974 
 3352000   0.84254703   -3.3718251   -1.9225187  0.027842287   -3.3718251    1.4493064   382868 
 3353000   0.84207701   -3.3726482    -1.923734  0.027827983   -3.3726482    1.4489142   382758 
 3354000   0.84404055   -3.3778162   -1.9249654  0.027421046   -3.3778162    1.4528507   382611 
 3355000   0.84195212    -3.375592   -1.9260633  0.026590609    -3.375592    1.4495287   382539 
 3356000   0.84345265   -3.3783347   -1.9258544  0.023862292   -3.3783347    1.4524803   382442 
 3357000   0.84560968   -3.3807054   -1.9239963   0.02818742   -3.3807054    1.4567091   382307 
 3358000   0.84433967   -3.3781535   -1.9231527  0.033071677   -3.3781535    1.4550008   382181 
 3359000   0.84270858   -3.3772124   -1.9247526   0.03100103   -3.3772124    1.4524599   382110 
 3360000   0.84275529   -3.3793179   -1.9265304  0.033126194   -3.3793179    1.4527875   382045 
 3361000    0.8420687   -3.3791544   -1.9272426  0.025676425   -3.3791544    1.4519118   381964 
 3362000   0.84225323   -3.3799487   -1.9275515  0.033808895   -3.3799487    1.4523972   381920 
 3363000   0.84174956   -3.3802226   -1.9282947  0.027987923   -3.3802226    1.4519279   381815 
 3364000   0.84095801   -3.3806987   -1.9298588   0.02865957   -3.3806987    1.4508399   381742 
 3365000   0.84030473   -3.3800173   -1.9299663  0.033840345   -3.3800173    1.4500509   381653 
 3366000   0.84119267   -3.3833866     -1.93156  0.031357021   -3.3833866    1.4518267   381589 
 3367000   0.83965561   -3.3812974   -1.9317779  0.026072734   -3.3812974    1.4495195   381498 
 3368000   0.83825038    -3.380135   -1.9327227  0.031099314    -3.380135    1.4474123   381414 
 3369000   0.83833968   -3.3803313   -1.9325294  0.027994681   -3.3803313    1.4478019   381352 
 3370000   0.83859842   -3.3822814   -1.9336756  0.031263497   -3.3822814    1.4486058   381258 
 3371000   0.83980625   -3.3840534   -1.9331025  0.027326545   -3.3840534     1.450951   381190 
 3372000   0.83808822   -3.3829894   -1.9346115  0.031308489   -3.3829894    1.4483778   381086 
 3373000   0.83785809    -3.383947   -1.9358263  0.031154679    -3.383947    1.4481207   381049 
 3374000   0.83723599   -3.3827128   -1.9355039   0.03066047   -3.3827128    1.4472088   381006 
 3375000   0.83747974   -3.3820499   -1.9341956  0.030083281   -3.3820499    1.4478544   380947 
 3376000   0.83730938   -3.3835757   -1.9355293  0.030022747   -3.3835757    1.4480464   380819 
 3377000   0.83743829   -3.3856903   -1.9371242  0.028975198   -3.3856903     1.448566   380741 
 3378000   0.83719164   -3.3858114    -1.937284  0.032180428   -3.3858114    1.4485275   380639 
 3379000   0.83842997   -3.3881551    -1.937203  0.035192843   -3.3881551    1.4509521   380565 
 3380000   0.83693814   -3.3871349    -1.938734  0.029312507   -3.3871349    1.4484009   380557 
 3381000   0.83776753   -3.3896501   -1.9393489  0.028853511   -3.3896501    1.4503011   380435 
 3382000   0.83711435    -3.389302   -1.9398002  0.028960542    -3.389302    1.4495019   380348 
 3383000    0.8370283   -3.3890523   -1.9394174  0.030918167   -3.3890523    1.4496349   380274 
 3384000   0.83587924   -3.3872333   -1.9394552  0.031142242   -3.3872333    1.4477781   380239 
 3385000   0.83635738   -3.3902054   -1.9412295  0.030708807   -3.3902054    1.4489759   380142 
 3386000    0.8373082    -3.390973   -1.9398841  0.032114914    -3.390973    1.4510889   380020 
 3387000   0.83701112   -3.3920316   -1.9411903  0.030080593   -3.3920316    1.4508413   379950 
 3388000   0.83434925   -3.3901064   -1.9434184  0.028651158   -3.3901064     1.446688   379829 
 3389000   0.83417639   -3.3915715   -1.9449089   0.03056058   -3.3915715    1.4466625   379757 
 3390000    0.8332154   -3.3904679   -1.9453121   0.03002937   -3.3904679    1.4451558   379715 
 3391000   0.83473161   -3.3947602   -1.9466695  0.026025918   -3.3947602    1.4480906   379635 
 3392000   0.83411588   -3.3945019   -1.9470639  0.023354414   -3.3945019    1.4474381   379526 
 3393000   0.83304149   -3.3930179   -1.9473604  0.024936234   -3.3930179    1.4456575   379504 
 3394000   0.83112266   -3.3918282   -1.9492346  0.030162797   -3.3918282    1.4425936   379434 
 3395000   0.83212916   -3.3960536   -1.9513665  0.025044307   -3.3960536    1.4446871   379343 
 3396000   0.83415165   -3.3982509    -1.949663  0.031135545   -3.3982509    1.4485879   379241 
 3397000   0.83455903   -3.4000612   -1.9506512  0.029887201   -3.4000612      1.44941   379211 
 3398000   0.83389519   -3.3988084   -1.9501234  0.030172336   -3.3988084     1.448685   379099 
 3399000   0.83318559   -3.3980485   -1.9501646  0.033087651   -3.3980485    1.4478838   378986 
 3400000   0.83265116   -3.3989991     -1.95175  0.029077805   -3.3989991    1.4472491   378909 
 3401000    0.8318891   -3.3985853   -1.9523477   0.02971048   -3.3985853    1.4462376   378827 
 3402000   0.83138745   -3.3996623   -1.9538694  0.026072017   -3.3996623    1.4457929   378715 
 3403000   0.83125779   -3.4000486   -1.9541757  0.030360508   -3.4000486    1.4458728   378635 
 3404000   0.83037649   -3.4010147   -1.9564116  0.029868905   -3.4010147    1.4446032   378566 
 3405000   0.83027345   -3.4015499   -1.9567366   0.02815459   -3.4015499    1.4448132   378464 
 3406000   0.83012995   -3.4034922   -1.9585699  0.025842987   -3.4034922    1.4449224   378370 
 3407000   0.82978815   -3.4033218   -1.9586927  0.026438524   -3.4033218    1.4446291   378291 
 3408000   0.82858284   -3.4031085    -1.960101  0.027886388   -3.4031085    1.4430075   378166 
 3409000   0.82888935   -3.4037429   -1.9598045  0.027564746   -3.4037429    1.4439384   378062 
 3410000   0.82889866    -3.406941   -1.9625126  0.029232997    -3.406941    1.4444284   377938 
 3411000   0.82912386   -3.4071355    -1.962047  0.027668681   -3.4071355    1.4450885   377868 
 3412000   0.82878146   -3.4066086   -1.9617193  0.024871138   -3.4066086    1.4448893   377764 
 3413000   0.82846724   -3.4073823   -1.9627616  0.029680636   -3.4073823    1.4446207   377691 
 3414000    0.8290245   -3.4081357   -1.9623519  0.027836207   -3.4081357    1.4457838   377641 
 3415000   0.82874348    -3.408828   -1.9633008  0.030488243    -3.408828    1.4455272   377580 
 3416000    0.8282273   -3.4087724   -1.9638585  0.030200735   -3.4087724    1.4449139   377505 
 3417000   0.82820648   -3.4101482   -1.9649299  0.028877694   -3.4101482    1.4452183   377416 
 3418000   0.82665073   -3.4079412   -1.9651242  0.029933583   -3.4079412     1.442817   377334 
 3419000   0.82571535    -3.408327   -1.9667911  0.026249063    -3.408327    1.4415359   377242 
 3420000   0.82539453    -3.408053   -1.9666875  0.024285462    -3.408053    1.4413655   377140 
 3421000   0.82458139   -3.4075907   -1.9673205  0.026592798   -3.4075907    1.4402701   377055 
 3422000   0.82505635   -3.4100542   -1.9688665   0.02913951   -3.4100542    1.4411876   377032 
 3423000   0.82570565   -3.4131012   -1.9705574  0.028020299   -3.4131012    1.4425437   376974 
 3424000   0.82475321   -3.4122862   -1.9712764  0.025225511   -3.4122862    1.4410098   376940 
 3425000   0.82468081    -3.411264   -1.9699678  0.027611353    -3.411264    1.4412962   376832 
 3426000   0.82426663   -3.4116312   -1.9708983  0.028352852   -3.4116312    1.4407329   376790 
 3427000   0.82367064    -3.410674   -1.9706388  0.026389082    -3.410674    1.4400352   376700 
 3428000   0.82561005   -3.4139273   -1.9703329  0.026842055   -3.4139273    1.4435945   376656 
 3429000   0.82557066   -3.4151816   -1.9713532  0.026212973   -3.4151816    1.4438284   376577 
 3430000   0.82390774   -3.4135128    -1.972275  0.026030298   -3.4135128    1.4412378   376494 
 3431000   0.82227953   -3.4120525   -1.9733074  0.031691615   -3.4120525     1.438745   376401 
 3432000   0.82151675   -3.4123382   -1.9744617  0.028691511   -3.4123382    1.4378765   376279 
 3433000    0.8240204   -3.4173518   -1.9747559   0.02271996   -3.4173518    1.4425959   376191 
 3434000   0.82273717   -3.4152887   -1.9745448  0.027289127   -3.4152887    1.4407438   376088 
 3435000   0.82184682   -3.4142953   -1.9746818  0.030476538   -3.4142953    1.4396134   375976 
 3436000   0.82202663   -3.4158915   -1.9755608  0.028838323   -3.4158915    1.4403306   375871 
 3437000   0.82267495   -3.4173655   -1.9756303  0.031360745   -3.4173655    1.4417351   375801 
 3438000   0.82301345   -3.4183428   -1.9755614  0.028000549   -3.4183428    1.4427814   375683 
 3439000   0.82138351   -3.4178913   -1.9776567  0.024408322   -3.4178913    1.4402345   375602 
 3440000     0.819967   -3.4168483   -1.9787491  0.030506246   -3.4168483    1.4380992   375511 
 3441000   0.81953281   -3.4164022   -1.9786433  0.025536469   -3.4164022    1.4377589   375401 
 3442000   0.81982243   -3.4182352   -1.9797767  0.027229148   -3.4182352    1.4384585   375351 
 3443000   0.82019387   -3.4202006   -1.9808871  0.019975631   -3.4202006    1.4393135   375298 
 3444000   0.81964994   -3.4218603   -1.9830374   0.02578392   -3.4218603    1.4388229   375177 
 3445000   0.81834114   -3.4196849   -1.9827343  0.021090136   -3.4196849    1.4369505   375066 
 3446000   0.81761598   -3.4193484   -1.9832998    0.0249876   -3.4193484    1.4360486   374969 
 3447000    0.8186756   -3.4222854   -1.9839614  0.026907809   -3.4222854     1.438324   374861 
 3448000   0.81797871   -3.4229548   -1.9855714  0.025795464   -3.4229548    1.4373834   374787 
 3449000   0.81845659   -3.4235345   -1.9849697  0.029234456   -3.4235345    1.4385647   374698 
 3450000   0.81902804   -3.4244105    -1.984657  0.029024189   -3.4244105    1.4397536   374650 
 3451000   0.81758851   -3.4239055   -1.9863025   0.02751767   -3.4239055    1.4376029   374551 
 3452000   0.81769024   -3.4261344   -1.9880493  0.028273797   -3.4261344    1.4380851   374472 
 3453000   0.81789407   -3.4273597   -1.9886279  0.029524642   -3.4273597    1.4387318   374397 
 3454000   0.81779039   -3.4254567   -1.9866613  0.026552792   -3.4254567    1.4387953   374333 
 3455000   0.81737441   -3.4272512   -1.9887535  0.029258866   -3.4272512    1.4384977   374220 
 3456000   0.81743176   -3.4272404   -1.9884572  0.025473592   -3.4272404    1.4387832   374172 
 3457000   0.81704636   -3.4288089    -1.990385  0.026678484   -3.4288089    1.4384239   374089 
 3458000   0.81555022   -3.4274477    -1.991462  0.030344916   -3.4274477    1.4359857   374038 
 3459000   0.81796622   -3.4298977   -1.9894693  0.032059751   -3.4298977    1.4404284   373989 
 3460000   0.81815615   -3.4281708   -1.9873387  0.028964814   -3.4281708    1.4408322   373971 
 3461000   0.81757915   -3.4294593   -1.9892234  0.026223954   -3.4294593    1.4402358   373862 
 3462000   0.81667795    -3.428752   -1.9899343  0.026617354    -3.428752    1.4388176   373818 
 3463000   0.81652235   -3.4278164   -1.9891113  0.026547311   -3.4278164    1.4387051   373776 
 3464000   0.81605152   -3.4260221   -1.9878657  0.028933169   -3.4260221    1.4381564   373703 
 3465000   0.81607975   -3.4272535   -1.9887779  0.027549043   -3.4272535    1.4384756   373633 
 3466000   0.81457426   -3.4269012   -1.9905718  0.032398133   -3.4269012    1.4363294   373501 
 3467000   0.81426714   -3.4278238   -1.9916053  0.028044841   -3.4278238    1.4362185   373389 
 3468000   0.81413689   -3.4288653   -1.9926303  0.026044399   -3.4288653     1.436235   373325 
 3469000   0.81418633   -3.4298734   -1.9931972  0.020377715   -3.4298734    1.4366762   373233 
 3470000   0.81270195   -3.4287546   -1.9944248  0.028831213   -3.4287546    1.4343298   373162 
 3471000   0.81222127   -3.4289158   -1.9952153  0.021399475   -3.4289158    1.4337004   373105 
 3472000   0.81203485   -3.4305513   -1.9968071  0.020127893   -3.4305513    1.4337441   373008 
 3473000    0.8110888   -3.4310985    -1.998706  0.030044443   -3.4310985    1.4323925   372925 
 3474000   0.81147845   -3.4313812   -1.9980584  0.023681222   -3.4313812    1.4333228   372862 
 3475000   0.81130801   -3.4320292   -1.9987807  0.028297047   -3.4320292    1.4332485   372803 
 3476000   0.81121125   -3.4316337     -1.99826  0.027501276   -3.4316337    1.4333736   372726 
 3477000   0.81184829   -3.4333494   -1.9984152  0.029065792   -3.4333494    1.4349343   372613 
 3478000   0.81234522   -3.4345094   -1.9982921  0.032301612   -3.4345094    1.4362173   372508 
 3479000   0.81187755   -3.4347967   -1.9990401  0.024609275   -3.4347967    1.4357566   372413 
 3480000   0.81093423   -3.4352703   -2.0008506  0.023220987   -3.4352703    1.4344197   372327 
 3481000   0.81117707   -3.4366132   -2.0015674   0.02488086   -3.4366132    1.4350458   372276 
 3482000   0.81041607   -3.4351962   -2.0012232  0.025286154   -3.4351962     1.433973   372205 
 3483000   0.81016731   -3.4358094   -2.0019799  0.028525361   -3.4358094    1.4338295   372128 
 3484000   0.80999788   -3.4359327   -2.0021874  0.025451183   -3.4359327    1.4337454   372072 
 3485000   0.80750923   -3.4323621   -2.0026914  0.027505764   -3.4323621    1.4296707   371986 
 3486000    0.8103626        -3.44    -2.004799  0.026182685        -3.44     1.435201   371862 
 3487000   0.81069101   -3.4417364   -2.0055714  0.028802888   -3.4417364     1.436165   371763 
 3488000   0.80982476   -3.4417433   -2.0067964  0.030301802   -3.4417433    1.4349469   371681 
 3489000   0.80914404   -3.4400288   -2.0061261  0.028865553   -3.4400288    1.4339027   371639 
 3490000   0.80867865    -3.441069   -2.0074934  0.031673572    -3.441069    1.4335756   371510 
 3491000   0.80868994   -3.4415817    -2.007658  0.021704149   -3.4415817    1.4339237   371425 
 3492000   0.80807475   -3.4425069   -2.0094966  0.025929877   -3.4425069    1.4330104   371379 
 3493000   0.80804866   -3.4434126   -2.0100741  0.026250018   -3.4434126    1.4333385   371282 
 3494000   0.80892818   -3.4453224   -2.0100566  0.028471857   -3.4453224    1.4352658   371187 
 3495000     0.809416   -3.4472168   -2.0107449  0.025474226   -3.4472168    1.4364719   371099 
 3496000   0.80877574   -3.4473128   -2.0116792   0.02508641   -3.4473128    1.4356335   371022 
 3497000   0.80691354   -3.4455206   -2.0128953   0.02456955   -3.4455206    1.4326253   370945 
 3498000   0.80665755   -3.4451328   -2.0127303  0.023537804   -3.4451328    1.4324025   370885 
 3499000    0.8082375   -3.4476651   -2.0120778  0.026040846   -3.4476651    1.4355874   370787 
 3500000   0.80722168   -3.4466285   -2.0126095  0.028492613   -3.4466285     1.434019   370726 
 3501000   0.80770795   -3.4478798   -2.0129118  0.028600637   -3.4478798     1.434968   370704 
 3502000   0.80687034   -3.4476316   -2.0139467  0.027095344   -3.4476316    1.4336849   370651 
 3503000   0.80668707   -3.4492989   -2.0155218  0.028378801   -3.4492989     1.433777   370543 
 3504000   0.80859809   -3.4524692   -2.0150667  0.027214081   -3.4524692    1.4374025   370484 
 3505000   0.80754428   -3.4513004   -2.0156821  0.028011386   -3.4513004    1.4356183   370461 
 3506000   0.80651356   -3.4491682   -2.0151152  0.026006258   -3.4491682     1.434053   370392 
 3507000   0.80532336   -3.4480402    -2.015798  0.020093394   -3.4480402    1.4322422   370313 
 3508000   0.80670286   -3.4521856   -2.0172614  0.027542345   -3.4521856    1.4349242   370254 
 3509000   0.80676042   -3.4517866   -2.0165042  0.029601675   -3.4517866    1.4352825   370188 
 3510000     0.805785   -3.4514419   -2.0176236  0.026604304   -3.4514419    1.4338183   370118 
 3511000   0.80558526   -3.4524993   -2.0186839  0.028435918   -3.4524993    1.4338154   370027 
 3512000   0.80556494   -3.4537144   -2.0196485  0.022649326   -3.4537144     1.434066   369953 
 3513000   0.80440956   -3.4538833    -2.021514  0.027793864   -3.4538833    1.4323693   369860 
 3514000    0.8034529   -3.4540168    -2.023084  0.025423306   -3.4540168    1.4309327   369791 
 3515000   0.80246112   -3.4532461    -2.023724  0.027045526   -3.4532461     1.429522   369699 
 3516000   0.80207695   -3.4525508   -2.0233922  0.025746411   -3.4525508    1.4291585   369616 
 3517000   0.80209741   -3.4527264   -2.0233187  0.031025483   -3.4527264    1.4294077   369561 
 3518000   0.80226068   -3.4539453   -2.0239604  0.030702649   -3.4539453     1.429985   369487 
 3519000   0.80361811   -3.4572829    -2.024576  0.021264414   -3.4572829     1.432707   369409 
 3520000   0.80287111   -3.4552707   -2.0236436  0.027624206   -3.4552707    1.4316271   369344 
 3521000   0.80249056   -3.4532163    -2.022136  0.031347341   -3.4532163    1.4310803   369310 
 3522000   0.80337672   -3.4570717   -2.0240192  0.030204783   -3.4570717    1.4330525   369209 
 3523000   0.80388869   -3.4597239   -2.0253541  0.025437174   -3.4597239    1.4343698   369105 
 3524000   0.80303742   -3.4574567   -2.0244039  0.027999759   -3.4574567    1.4330527   369053 
 3525000   0.80180854   -3.4562718   -2.0251367  0.027085307   -3.4562718    1.4311351   368982 
 3526000   0.80235457   -3.4561996    -2.023923  0.024145584   -3.4561996    1.4322766   368939 
 3527000   0.80107989   -3.4557314   -2.0254472  0.023709111   -3.4557314    1.4302842   368866 
 3528000   0.80175683   -3.4572263   -2.0256209  0.024225778   -3.4572263    1.4316054   368837 
 3529000   0.80163081   -3.4593191   -2.0277097  0.023309317   -3.4593191    1.4316093   368778 
 3530000   0.79927123   -3.4562376   -2.0285828  0.026378856   -3.4562376    1.4276548   368711 
 3531000    0.7993797   -3.4548274   -2.0266457  0.024041402   -3.4548274    1.4281817   368625 
 3532000   0.80037124   -3.4586138   -2.0282066   0.02603264   -3.4586138    1.4304072   368508 
 3533000   0.79919558   -3.4575262   -2.0290961  0.028516374   -3.4575262    1.4284301   368476 
 3534000   0.80090105   -3.4615325   -2.0296111  0.028280403   -3.4615325    1.4319214   368362 
 3535000    0.8003311   -3.4600736   -2.0287982  0.023143326   -3.4600736    1.4312754   368266 
 3536000   0.79987823   -3.4580768   -2.0273083  0.029494276   -3.4580768    1.4307685   368188 
 3537000   0.79969921   -3.4553005   -2.0246929   0.02918072   -3.4553005    1.4306076   368147 
 3538000    0.7988066   -3.4545555   -2.0253623   0.02679596   -3.4545555    1.4291933   368100 
 3539000   0.80120109   -3.4599045   -2.0262402  0.028225967   -3.4599045    1.4336643   368052 
 3540000   0.79988279   -3.4586056   -2.0271058  0.024851677   -3.4586056    1.4314998   368002 
 3541000   0.80076755   -3.4598156   -2.0266623  0.030331708   -3.4598156    1.4331533   367984 
 3542000   0.80067064   -3.4602308   -2.0270172  0.031193805   -3.4602308    1.4332136   367924 
 3543000   0.79875657   -3.4573945   -2.0271795  0.027802349   -3.4573945     1.430215   367814 
 3544000   0.79966574   -3.4597269   -2.0277011  0.023914551   -3.4597269    1.4320259   367767 
 3545000   0.79970511   -3.4606408   -2.0282601  0.024127234   -3.4606408    1.4323807   367694 
 3546000   0.79886351   -3.4583978   -2.0273494  0.025242919   -3.4583978    1.4310484   367649 
 3547000   0.79867477     -3.45922   -2.0282412   0.02964393     -3.45922    1.4309789   367580 
 3548000   0.79801431   -3.4592267   -2.0292367  0.030322456   -3.4592267    1.4299901   367530 
 3549000   0.79842393   -3.4602056   -2.0292401    0.0245283   -3.4602056    1.4309655   367468 
 3550000   0.79842399   -3.4593785   -2.0281949  0.026768963   -3.4593785    1.4311837   367412 
 3551000   0.79931826   -3.4600642   -2.0271294  0.028783256   -3.4600642    1.4329349   367374 
 3552000   0.79888922   -3.4600852   -2.0278337   0.02987642   -3.4600852    1.4322515   367352 
 3553000   0.79954006   -3.4618152    -2.028233  0.025435533   -3.4618152    1.4335822   367310 
 3554000   0.79767063   -3.4588705   -2.0285389    0.0270246   -3.4588705    1.4303316   367284 
 3555000    0.7971162   -3.4592056   -2.0295685  0.021491603   -3.4592056    1.4296371   367207 
 3556000   0.79631179   -3.4591217   -2.0305733   0.02191777   -3.4591217    1.4285484   367116 
 3557000   0.79694948   -3.4590858   -2.0289493   0.02256125   -3.4590858    1.4301365   367002 
 3558000   0.79695981   -3.4610542   -2.0309109  0.022033792   -3.4610542    1.4301433   367005 
 3559000   0.79544195   -3.4591503   -2.0313145  0.024557207   -3.4591503    1.4278358   366898 
 3560000   0.79605745   -3.4608229   -2.0317537  0.023558313   -3.4608229    1.4290692   366865 
 3561000   0.79687219   -3.4621221   -2.0312587  0.024261891   -3.4621221    1.4308633   366780 
 3562000   0.79461237   -3.4613775   -2.0341438  0.029529435   -3.4613775    1.4272336   366670 
 3563000    0.7957069    -3.462475   -2.0330805   0.02900521    -3.462475    1.4293945   366620 
 3564000   0.79523427   -3.4645017   -2.0356093  0.024501092   -3.4645017    1.4288923   366531 
 3565000   0.79395844   -3.4623927   -2.0355632  0.026075047   -3.4623927    1.4268296   366472 
 3566000   0.79469928    -3.461734   -2.0333821   0.02590686    -3.461734    1.4283519   366423 
 3567000   0.79620115   -3.4643109   -2.0330839  0.031082857   -3.4643109    1.4312271   366378 
 3568000   0.79531507    -3.466557   -2.0365715  0.029314569    -3.466557    1.4299856   366288 
 3569000   0.79565906   -3.4671397   -2.0361098  0.032001163   -3.4671397    1.4310299   366179 
 3570000   0.79610107   -3.4700201   -2.0379566  0.027490823   -3.4700201    1.4320634   366118 
 3571000   0.79434667   -3.4684593   -2.0393019  0.030383967   -3.4684593    1.4291574   366054 
 3572000   0.79335601   -3.4674556   -2.0396515  0.029767437   -3.4674556    1.4278041   365944 
 3573000   0.79258723   -3.4695572   -2.0426961  0.024418079   -3.4695572    1.4268611   365831 
 3574000    0.7911637    -3.467691   -2.0432913  0.023120831    -3.467691    1.4243996   365805 
 3575000   0.79328621   -3.4710173   -2.0425073  0.026337897   -3.4710173    1.4285099   365731 
 3576000   0.79393203   -3.4718532   -2.0420435  0.026491142   -3.4718532    1.4298097   365696 
 3577000   0.79358399   -3.4712262    -2.041883  0.030017065   -3.4712262    1.4293432   365655 
 3578000   0.79280592   -3.4712656   -2.0430348  0.026576143   -3.4712656    1.4282308   365581 
 3579000   0.79247332    -3.471798   -2.0437718  0.031567178    -3.471798    1.4280262   365480 
 3580000   0.79287168   -3.4726916   -2.0437404  0.023574228   -3.4726916    1.4289512   365427 
 3581000   0.79250941   -3.4709433   -2.0425004  0.025420556   -3.4709433     1.428443   365390 
 3582000   0.79375936   -3.4734167   -2.0424467   0.02444215   -3.4734167      1.43097   365320 
 3583000   0.79121719   -3.4713316   -2.0446751  0.025759248   -3.4713316    1.4266565   365251 
 3584000   0.79048266   -3.4718156   -2.0462767  0.026858323   -3.4718156    1.4255389   365198 
 3585000   0.79271702   -3.4747631   -2.0449441  0.025560201   -3.4747631    1.4298189   365134 
 3586000   0.79112305   -3.4729779   -2.0456587  0.021024078   -3.4729779    1.4273192   365038 
 3587000    0.7904458   -3.4716753   -2.0452928  0.025651446   -3.4716753    1.4263825   364965 
 3588000    0.7911505   -3.4739894   -2.0460966  0.025830121   -3.4739894    1.4278928   364904 
 3589000   0.78929648   -3.4720723   -2.0471938  0.026729548   -3.4720723    1.4248785   364819 
 3590000   0.78913781   -3.4732606    -2.048403  0.025765248   -3.4732606    1.4248577   364751 
 3591000   0.78979317    -3.476421   -2.0500437   0.02403575    -3.476421    1.4263773   364665 
 3592000   0.78940093   -3.4759759   -2.0501036  0.026910434   -3.4759759    1.4258723   364613 
 3593000   0.78888163   -3.4748001   -2.0495805  0.031240241   -3.4748001    1.4252196   364540 
 3594000   0.78924054    -3.476797   -2.0504868  0.029457829    -3.476797    1.4263102   364427 
 3595000   0.78827671   -3.4761139   -2.0514009  0.029808889   -3.4761139     1.424713   364390 
 3596000   0.79043928   -3.4790801   -2.0501998  0.027893589   -3.4790801    1.4288804   364324 
 3597000   0.78973838   -3.4779602   -2.0499862  0.029461572   -3.4779602    1.4279739   364232 
 3598000   0.79000467   -3.4794416   -2.0509666  0.031615314   -3.4794416     1.428475   364227 
 3599000   0.78904357    -3.476275   -2.0494163    0.0243104    -3.476275    1.4268586   364196 
 3600000   0.78944096   -3.4785989   -2.0506452  0.031479265   -3.4785989    1.4279536   364100 
 3601000   0.79068607   -3.4797973   -2.0494068  0.029802643   -3.4797973    1.4303905   364053 
 3602000   0.78924748   -3.4791772   -2.0512716  0.032133907   -3.4791772    1.4279056   364023 
 3603000   0.78963346   -3.4802178   -2.0512724  0.028518905   -3.4802178    1.4289455   363936 
 3604000   0.78850969   -3.4779231   -2.0507563  0.029903925   -3.4779231    1.4271668   363871 
 3605000   0.78818045   -3.4808808   -2.0538982  0.027781488   -3.4808808    1.4269826   363766 
 3606000    0.7876181   -3.4804232   -2.0544234  0.024495467   -3.4804232    1.4259998   363757 
 3607000   0.78672992   -3.4787766   -2.0540011  0.024134377   -3.4787766    1.4247756   363659 
 3608000   0.78696176   -3.4784853   -2.0531762  0.024033176   -3.4784853    1.4253091   363630 
 3609000   0.78404828   -3.4755194   -2.0552645  0.026197729   -3.4755194     1.420255   363573 
 3610000   0.78561847   -3.4774575   -2.0541743  0.025654887   -3.4774575    1.4232833   363526 
 3611000   0.78587502   -3.4776207   -2.0537199  0.026668731   -3.4776207    1.4239008   363487 
 3612000   0.78580197   -3.4773434   -2.0534535  0.020785164   -3.4773434    1.4238899   363456 
 3613000   0.78548131   -3.4776541   -2.0540633   0.02556687   -3.4776541    1.4235908   363384 
 3614000   0.78642242   -3.4796134   -2.0540383  0.028713406   -3.4796134     1.425575   363313 
 3615000   0.78684993    -3.479444   -2.0530704  0.026360053    -3.479444    1.4263735   363307 
 3616000   0.78701411   -3.4795394   -2.0526483  0.026818606   -3.4795394    1.4268911   363251 
 3617000   0.78726989   -3.4787712   -2.0510744  0.025552087   -3.4787712    1.4276968   363164 
 3618000   0.78555458   -3.4782628   -2.0533981   0.02714144   -3.4782628    1.4248647   363093 
 3619000   0.78547186   -3.4782008   -2.0530622  0.023972787   -3.4782008    1.4251385   362985 
 3620000   0.78657297    -3.480767   -2.0532334  0.027763515    -3.480767    1.4275336   362884 
 3621000   0.78482284   -3.4814913   -2.0566314  0.027017994   -3.4814913    1.4248599   362756 
 3622000   0.78306965   -3.4770703   -2.0552641  0.028641962   -3.4770703    1.4218063   362723 
 3623000   0.78329521   -3.4782054   -2.0556052  0.026997361   -3.4782054    1.4226002   362625 
 3624000   0.78376881   -3.4788885   -2.0551454  0.028762053   -3.4788885     1.423743   362553 
 3625000   0.78426287   -3.4798504   -2.0551588  0.026398442   -3.4798504    1.4246916   362540 
 3626000   0.78480333    -3.481299   -2.0553699  0.023474911    -3.481299     1.425929   362475 
 3627000   0.78385785    -3.480561   -2.0559843  0.025956938    -3.480561    1.4245767   362382 
 3628000   0.78391422   -3.4811866   -2.0561536  0.025766488   -3.4811866     1.425033   362292 
 3629000   0.78301378   -3.4805167   -2.0570144  0.031821249   -3.4805167    1.4235023   362265 
 3630000   0.78362167   -3.4815073   -2.0567112  0.030075733   -3.4815073    1.4247962   362217 
 3631000   0.78361997   -3.4816781   -2.0567001  0.023295353   -3.4816781     1.424978   362170 
 3632000   0.78193892   -3.4795559    -2.057411  0.024412424   -3.4795559    1.4221449   362113 
 3633000   0.78282831   -3.4831056   -2.0589931  0.023172704   -3.4831056    1.4241125   362024 
 3634000   0.78200379   -3.4826204   -2.0597485  0.025367241   -3.4826204    1.4228719   361958 
 3635000   0.78140162   -3.4814098   -2.0594135  0.022513662   -3.4814098    1.4219963   361902 
 3636000   0.78172506   -3.4837277   -2.0608637  0.018896607   -3.4837277     1.422864   361831 
 3637000   0.78063907   -3.4807129   -2.0594327  0.030853127   -3.4807129    1.4212801   361731 
 3638000    0.7816461   -3.4820235   -2.0586463  0.025651597   -3.4820235    1.4233772   361664 
 3639000   0.78187396   -3.4811412   -2.0570655   0.02062604   -3.4811412    1.4240757   361592 
 3640000   0.78073734   -3.4800688   -2.0578273  0.021720208   -3.4800688    1.4222415   361532 
 3641000   0.78008523   -3.4805455    -2.059205   0.02616852   -3.4805455    1.4213405   361459 
 3642000   0.78086148   -3.4812341   -2.0581997  0.029658968   -3.4812341    1.4230344   361388 
 3643000   0.78005275   -3.4818577   -2.0600217  0.030180349   -3.4818577     1.421836   361318 
 3644000   0.77966704     -3.48288   -2.0615936  0.025074591     -3.48288    1.4212864   361279 
 3645000   0.77953106   -3.4832105   -2.0619478  0.026098801   -3.4832105    1.4212627   361222 
 3646000   0.77943581   -3.4839177   -2.0624233  0.024286388   -3.4839177    1.4214944   361119 
 3647000   0.77902416   -3.4821787    -2.061195  0.027152937   -3.4821787    1.4209837   361058 
 3648000   0.77848475   -3.4821996   -2.0619914  0.030227074   -3.4821996    1.4202082   361005 
 3649000   0.78099022   -3.4864001   -2.0612895   0.02179344   -3.4864001    1.4251106   360921 
 3650000   0.78135812   -3.4873474     -2.06136   0.02906457   -3.4873474    1.4259874   360869 
 3651000   0.78028215    -3.487841   -2.0636041  0.031467238    -3.487841    1.4242369   360815 
 3652000   0.77896151   -3.4860402   -2.0638158  0.027697257   -3.4860402    1.4222244   360714 
 3653000   0.77896924   -3.4859137   -2.0634741  0.027345887   -3.4859137    1.4224396   360663 
 3654000   0.77808129   -3.4850701   -2.0640746  0.026061259   -3.4850701    1.4209955   360618 
 3655000   0.77842463   -3.4863652   -2.0646519   0.02690471   -3.4863652    1.4217132   360595 
 3656000   0.77718053   -3.4865427   -2.0667592   0.02658528   -3.4865427    1.4197835   360508 
 3657000   0.77837637   -3.4879384   -2.0656625  0.025103426   -3.4879384    1.4222759   360430 
 3658000   0.77794117   -3.4887495   -2.0670006  0.028942263   -3.4887495    1.4217489   360362 
 3659000   0.77830907   -3.4887497   -2.0661153    0.0268013   -3.4887497    1.4226344   360308 
 3660000   0.77852269   -3.4900224   -2.0668237  0.025070999   -3.4900224    1.4231987   360264 
 3661000   0.77679021   -3.4871383   -2.0668149  0.026776702   -3.4871383    1.4203233   360190 
 3662000   0.77820948   -3.4911894   -2.0680893  0.025641163   -3.4911894    1.4231002   360144 
 3663000     0.778577   -3.4910172   -2.0671699   0.02908878   -3.4910172    1.4238473   360125 
 3664000   0.77698656   -3.4895188   -2.0683078  0.029098494   -3.4895188    1.4212111   360056 
 3665000   0.77670904   -3.4906723   -2.0698386  0.026897353   -3.4906723    1.4208337   360023 
 3666000   0.77851669   -3.4906004   -2.0662978   0.03095179   -3.4906004    1.4243026   359982 
 3667000   0.77806765   -3.4919333    -2.068211  0.030299369   -3.4919333    1.4237224   359921 
 3668000   0.77797558   -3.4919387   -2.0682147  0.026322198   -3.4919387     1.423724   359878 
 3669000   0.77709904   -3.4922648   -2.0700382  0.025319219   -3.4922648    1.4222266   359851 
 3670000    0.7777601   -3.4929359   -2.0692186  0.030400844   -3.4929359    1.4237173   359780 
 3671000   0.77826912   -3.4923444   -2.0675686   0.02652555   -3.4923444    1.4247758   359748 
 3672000   0.77698442   -3.4890073   -2.0664726  0.024924791   -3.4890073    1.4225347   359720 
 3673000   0.77542788   -3.4886046   -2.0686474  0.028307598   -3.4886046    1.4199573   359651 
 3674000   0.77513468   -3.4889553   -2.0690375  0.029060269   -3.4889553    1.4199178   359525 
 3675000   0.77439853   -3.4895168   -2.0705291  0.027267636   -3.4895168    1.4189877   359419 
 3676000   0.77528459   -3.4900167   -2.0692275  0.022177308   -3.4900167    1.4207891   359374 
 3677000   0.77459748   -3.4872244   -2.0677063   0.02544883   -3.4872244    1.4195181   359377 
 3678000    0.7746152   -3.4867686    -2.066815  0.024669354   -3.4867686    1.4199536   359275 
 3679000   0.77385922   -3.4855596   -2.0669957  0.024377432   -3.4855596    1.4185638   359276 
 3680000   0.77398107   -3.4877931   -2.0687768  0.024681136   -3.4877931    1.4190163   359218 
 3681000   0.77451222   -3.4888743   -2.0685126  0.023899737   -3.4888743    1.4203618   359124 
 3682000    0.7733294   -3.4876016   -2.0691839  0.022331943   -3.4876016    1.4184178   359067 
 3683000    0.7717488   -3.4857529   -2.0700174  0.021364717   -3.4857529    1.4157355   359012 
 3684000   0.77214901   -3.4860829   -2.0693765  0.023458829   -3.4860829    1.4167065   358952 
 3685000   0.77147446   -3.4849673   -2.0693171  0.025483918   -3.4849673    1.4156502   358906 
 3686000   0.77326172   -3.4876063   -2.0684392  0.019709966   -3.4876063    1.4191671   358846 
 3687000   0.77394444   -3.4901837    -2.069526  0.022957455   -3.4901837    1.4206576   358786 
 3688000   0.77317327   -3.4859855   -2.0667989  0.026058866   -3.4859855    1.4191867   358800 
 3689000   0.77523747   -3.4900124    -2.066779  0.027723365   -3.4900124    1.4232334   358735 
 3690000   0.77398195     -3.48788   -2.0667732  0.028665605     -3.48788    1.4211067   358690 
 3691000   0.77403533   -3.4885115   -2.0672037  0.028846912   -3.4885115    1.4213078   358664 
 3692000   0.77406114   -3.4908982    -2.069107  0.026357562   -3.4908982    1.4217912   358554 
 3693000   0.77381549   -3.4901551   -2.0686764  0.030303258   -3.4901551    1.4214788   358519 
 3694000   0.77166964   -3.4876096   -2.0698354   0.02851313   -3.4876096    1.4177742   358459 
 3695000    0.7741603   -3.4933136   -2.0708562  0.026609845   -3.4933136    1.4224573   358432 
 3696000   0.77293112   -3.4915616   -2.0709466  0.021930197   -3.4915616     1.420615   358327 
 3697000    0.7717792   -3.4922172   -2.0733987  0.026902933   -3.4922172    1.4188185   358246 
 3698000   0.77329656   -3.4950047   -2.0731427  0.027667182   -3.4950047     1.421862   358182 
 3699000   0.77380349   -3.4958751   -2.0728307  0.025869868   -3.4958751    1.4230444   358119 
 3700000   0.77223098    -3.494486   -2.0740281  0.027499718    -3.494486    1.4204579   358042 
 3701000   0.77008119   -3.4908437   -2.0740591  0.026524825   -3.4908437    1.4167845   357971 
 3702000   0.77018118   -3.4924294   -2.0751442  0.024372911   -3.4924294    1.4172852   357891 
 3703000   0.77079961   -3.4943624   -2.0757053  0.018685987   -3.4943624    1.4186571   357832 
 3704000   0.76874874   -3.4918234    -2.076668  0.028854652   -3.4918234    1.4151554   357763 
 3705000   0.76934494   -3.4954792   -2.0788343  0.025485693   -3.4954792    1.4166449   357664 
 3706000   0.77086995   -3.4975946   -2.0779193  0.027451614   -3.4975946    1.4196753   357608 
 3707000   0.76926076   -3.4949936   -2.0779927  0.025458549   -3.4949936     1.417001   357535 
 3708000   0.77058557   -3.4973466   -2.0776988  0.027112443   -3.4973466    1.4196478   357483 
 3709000   0.77067014   -3.4992238   -2.0790905  0.030750775   -3.4992238    1.4201333   357400 
 3710000   0.77135829   -3.5028108   -2.0810355  0.030254655   -3.5028108    1.4217753   357306 
 3711000   0.77099053   -3.5026575   -2.0813054  0.028814888   -3.5026575    1.4213521   357242 
 3712000   0.76868695   -3.5006001   -2.0830345  0.026526162   -3.5006001    1.4175656   357126 
 3713000    0.7703059    -3.501431   -2.0807724  0.030557945    -3.501431    1.4206586   357099 
 3714000   0.76860644   -3.5009401   -2.0831894  0.031446972   -3.5009401    1.4177506   357042 
 3715000   0.76901559   -3.5028624   -2.0841266  0.026168695   -3.5028624    1.4187358   356984 
 3716000   0.76801761   -3.5009924   -2.0839747  0.026747247   -3.5009924    1.4170177   356953 
 3717000   0.76817681    -3.500127    -2.082617  0.027153177    -3.500127      1.41751   356903 
 3718000   0.76782105   -3.5018322   -2.0847087  0.024010101   -3.5018322    1.4171235   356835 
 3719000   0.76677894   -3.5006701   -2.0852598  0.026311811   -3.5006701    1.4154104   356782 
 3720000   0.76869812   -3.5038007   -2.0846966  0.029058213   -3.5038007    1.4191042   356744 
 3721000   0.76863945   -3.5028695   -2.0836111   0.02422536   -3.5028695    1.4192584   356678 
 3722000   0.76755228   -3.5022322   -2.0845798  0.026545363   -3.5022322    1.4176524   356577 
 3723000   0.76782285   -3.5030505   -2.0845363  0.028611979   -3.5030505    1.4185142   356486 
 3724000   0.76880568   -3.5040067   -2.0835373  0.030869898   -3.5040067    1.4204694   356451 
 3725000   0.76792577   -3.5039763   -2.0849177  0.026270561   -3.5039763    1.4190586   356397 
 3726000   0.76697917   -3.5052761   -2.0875331  0.026879147   -3.5052761     1.417743   356288 
 3727000   0.76696468   -3.5050794   -2.0871602  0.028286104   -3.5050794    1.4179192   356237 
 3728000   0.76666973   -3.5054693   -2.0879721  0.025545201   -3.5054693    1.4174972   356206 
 3729000   0.76645918   -3.5047734   -2.0875024  0.027202748   -3.5047734    1.4172711   356165 
 3730000    0.7665904   -3.5046364   -2.0869436  0.028970871   -3.5046364    1.4176928   356120 
 3731000   0.76666288   -3.5044551   -2.0865764  0.024906027   -3.5044551    1.4178786   356107 
 3732000   0.76740923   -3.5046203   -2.0851461  0.026743848   -3.5046203    1.4194742   356053 
 3733000   0.76557282   -3.5023649   -2.0859136  0.030173041   -3.5023649    1.4164513   355959 
 3734000   0.76607646   -3.5039706   -2.0862688  0.022876206   -3.5039706    1.4177018   355879 
 3735000   0.76639824   -3.5041135   -2.0858202  0.019316476   -3.5041135    1.4182933   355880 
 3736000   0.76533378   -3.5024174   -2.0858273  0.030650738   -3.5024174    1.4165901   355813 
 3737000   0.76466861   -3.5035827   -2.0876985  0.026796472   -3.5035827    1.4158842   355681 
 3738000   0.76502943     -3.50335    -2.086483  0.023800976     -3.50335     1.416867   355602 
 3739000   0.76577696   -3.5055679   -2.0868417    0.0240104   -3.5055679    1.4187262   355483 
 3740000   0.76587449   -3.5063423   -2.0870322  0.029590602   -3.5063423    1.4193101   355382 
 3741000   0.76685849   -3.5086656   -2.0873119  0.028109392   -3.5086656    1.4213537   355327 
 3742000   0.76599979    -3.508124    -2.088258  0.030879407    -3.508124     1.419866   355301 
 3743000   0.76477651   -3.5077632   -2.0901528  0.024589161   -3.5077632    1.4176105   355298 
 3744000   0.76426318   -3.5062662   -2.0895594  0.023447177   -3.5062662    1.4167068   355286 
 3745000   0.76328254   -3.5041289   -2.0889451  0.026273887   -3.5041289    1.4151837   355212 
 3746000   0.76411503    -3.505251   -2.0883563  0.023137903    -3.505251    1.4168948   355170 
 3747000   0.76348028   -3.5037327   -2.0877877  0.024263242   -3.5037327     1.415945   355113 
 3748000    0.7646126   -3.5067136    -2.088445  0.025445323   -3.5067136    1.4182686   355057 
 3749000   0.76481843   -3.5059618   -2.0869477  0.025031829   -3.5059618    1.4190141   354966 
 3750000   0.76465584   -3.5062014   -2.0872531  0.025495763   -3.5062014    1.4189483   354907 
 3751000   0.76410237   -3.5046018   -2.0864807   0.02804235   -3.5046018    1.4181211   354857 
 3752000   0.76501799   -3.5068492   -2.0869248  0.027185614   -3.5068492    1.4199244   354831 
 3753000   0.76474797   -3.5068218   -2.0871065  0.023191669   -3.5068218    1.4197153   354758 
 3754000   0.76401436   -3.5046099   -2.0859486  0.023572701   -3.5046099    1.4186613   354681 
 3755000    0.7646979   -3.5066442   -2.0865735  0.025536153   -3.5066442    1.4200707   354646 
 3756000   0.76416351   -3.5059418   -2.0866234  0.026758131   -3.5059418    1.4193184   354586 
 3757000   0.76261108   -3.5037072   -2.0870364  0.026110987   -3.5037072    1.4166707   354527 
 3758000   0.76270116   -3.5038041   -2.0868021  0.027590251   -3.5038041     1.417002   354486 
 3759000   0.76178223   -3.5027007   -2.0873381  0.024079576   -3.5027007    1.4153626   354469 
 3760000   0.76303529   -3.5056209   -2.0876061  0.026255033   -3.5056209    1.4180147   354388 
 3761000    0.7632694   -3.5063989    -2.087781  0.028353043   -3.5063989    1.4186179   354346 
 3762000   0.76330715   -3.5069588   -2.0879944  0.024601336   -3.5069588    1.4189644   354277 
 3763000   0.76339723    -3.506311   -2.0869427  0.026218063    -3.506311    1.4193682   354218 
 3764000   0.76270595   -3.5054492    -2.087194  0.028558649   -3.5054492    1.4182551   354175 
 3765000   0.76398349   -3.5082462   -2.0873788  0.025377545   -3.5082462    1.4208674   354116 
 3766000    0.7620191   -3.5062346   -2.0888325   0.03196454   -3.5062346    1.4174021   354069 
 3767000   0.76279036   -3.5066701   -2.0876891  0.029866507   -3.5066701     1.418981   354033 
 3768000   0.76203779   -3.5082732   -2.0903918  0.027792368   -3.5082732    1.4178814   353958 
 3769000   0.76187906   -3.5082908   -2.0904243  0.023603645   -3.5082908    1.4178665   353888 
 3770000   0.76116083   -3.5086219   -2.0917798  0.027493474   -3.5086219    1.4168421   353810 
 3771000   0.76124274   -3.5076096   -2.0904227   0.02656312   -3.5076096    1.4171868   353762 
 3772000   0.76260437   -3.5109411   -2.0909183  0.025548272   -3.5109411    1.4200228   353687 
 3773000   0.76110299   -3.5073781   -2.0899346  0.029388851   -3.5073781    1.4174436   353633 
 3774000   0.76032103   -3.5065743   -2.0902226  0.026242247   -3.5065743    1.4163517   353542 
 3775000   0.76131061   -3.5084407   -2.0900289  0.025089675   -3.5084407    1.4184118   353488 
 3776000   0.76011927   -3.5071973   -2.0909129  0.028486391   -3.5071973    1.4162843   353465 
 3777000   0.76088111   -3.5088269   -2.0909666  0.023485087   -3.5088269    1.4178603   353426 
 3778000   0.76047093   -3.5096527   -2.0922039   0.02482988   -3.5096527    1.4174489   353338 
 3779000   0.75974756    -3.507249   -2.0910762  0.025737359    -3.507249    1.4161727   353320 
 3780000   0.76156264   -3.5119549   -2.0922743  0.028467479   -3.5119549    1.4196806   353289 
 3781000    0.7591867   -3.5093357   -2.0936434  0.024625777   -3.5093357    1.4156922   353179 
 3782000   0.75885489   -3.5099259   -2.0945679  0.025859193   -3.5099259     1.415358   353108 
 3783000   0.75999655   -3.5105645   -2.0928443  0.025914328   -3.5105645    1.4177202   353050 
 3784000   0.75918813   -3.5092633   -2.0929027  0.026942705   -3.5092633    1.4163606   353013 
 3785000    0.7612203   -3.5114004   -2.0911841  0.029577325   -3.5114004    1.4202163   352997 
 3786000    0.7601794   -3.5107483   -2.0921968  0.029289835   -3.5107483    1.4185515   352928 
 3787000   0.75959193     -3.51182   -2.0940595  0.029101193     -3.51182    1.4177606   352852 
 3788000   0.75965813   -3.5115516   -2.0934947  0.027467327   -3.5115516    1.4180569   352809 
 3789000   0.75986584   -3.5131088    -2.094258  0.027462543   -3.5131088    1.4188508   352708 
 3790000   0.75840725   -3.5110411   -2.0945242   0.02442183   -3.5110411    1.4165169   352611 
 3791000   0.75827433   -3.5118452    -2.095432  0.027841443   -3.5118452    1.4164132   352575 
 3792000   0.75783641   -3.5132735   -2.0974133  0.028367725   -3.5132735    1.4158603   352509 
 3793000   0.75916848   -3.5135405   -2.0951715  0.025134645   -3.5135405    1.4183691   352504 
 3794000   0.75742246   -3.5112233   -2.0958956  0.026470481   -3.5112233    1.4153278   352449 
 3795000   0.75871467   -3.5130899   -2.0949692  0.029417723   -3.5130899    1.4181206   352355 
 3796000   0.75824035   -3.5122105   -2.0949281  0.023778498   -3.5122105    1.4172823   352343 
 3797000   0.75688923   -3.5121859    -2.097176  0.028466945   -3.5121859    1.4150099   352280 
 3798000   0.75750526   -3.5146607   -2.0981855  0.020555312   -3.5146607    1.4164752   352202 
 3799000   0.75530206   -3.5125795   -2.0999273  0.026308506   -3.5125795    1.4126522   352128 
 3800000   0.75730473   -3.5155735   -2.0990873  0.026336769   -3.5155735    1.4164863   352106 
 3801000   0.75660287   -3.5157142   -2.1003317  0.023226498   -3.5157142    1.4153825   352054 
 3802000   0.75663567    -3.514646   -2.0991096  0.032012252    -3.514646    1.4155364   352031 
 3803000   0.75550005   -3.5144753   -2.1008064  0.028459473   -3.5144753    1.4136688   351967 
 3804000   0.75610546   -3.5171047   -2.1021382  0.023515619   -3.5171047    1.4149665   351926 
 3805000   0.75632644   -3.5174515   -2.1017899  0.026733102   -3.5174515    1.4156616   351856 
 3806000   0.75624394   -3.5178268   -2.1020581   0.03071671   -3.5178268    1.4157687   351791 
 3807000   0.75509957   -3.5170605    -2.103189  0.024516117   -3.5170605    1.4138715   351730 
 3808000    0.7561013   -3.5170757   -2.1010467  0.025014155   -3.5170757     1.416029   351660 
 3809000   0.75669014   -3.5196526   -2.1022871  0.027625053   -3.5196526    1.4173655   351602 
 3810000   0.75658123   -3.5207668   -2.1035287  0.028022996   -3.5207668    1.4172381   351583 
 3811000    0.7560764   -3.5194063   -2.1029084  0.027748967   -3.5194063    1.4164979   351532 
 3812000   0.75608806   -3.5197833   -2.1031144  0.029219302   -3.5197833    1.4166689   351495 
 3813000   0.75620997   -3.5207796   -2.1035194  0.030649142   -3.5207796    1.4172602   351405 
 3814000   0.75548427   -3.5214542   -2.1053324  0.023544483   -3.5214542    1.4161218   351350 
 3815000   0.75712243   -3.5241356    -2.104927  0.028891285   -3.5241356    1.4192086   351346 
 3816000   0.75495666   -3.5207322   -2.1052247  0.034305315   -3.5207322    1.4155075   351257 
 3817000   0.75572397     -3.52276   -2.1054507  0.026015284     -3.52276    1.4173093   351167 
 3818000   0.75624098   -3.5224251   -2.1039079  0.030160809   -3.5224251    1.4185172   351108 
 3819000   0.75601169   -3.5243708   -2.1058837  0.024099275   -3.5243708    1.4184871   351009 
 3820000   0.75489235    -3.523893   -2.1071388  0.028282915    -3.523893    1.4167542   350918 
 3821000   0.75553466   -3.5230945    -2.104961  0.032463631   -3.5230945    1.4181334   350875 
 3822000   0.75596193   -3.5238013   -2.1047445  0.026275855   -3.5238013    1.4190568   350845 
 3823000   0.75421968   -3.5234132   -2.1071586  0.024228943   -3.5234132    1.4162545   350729 
 3824000   0.75296133   -3.5228567   -2.1087917  0.020993271   -3.5228567     1.414065   350686 
 3825000   0.75302045   -3.5226828   -2.1083213  0.023177491   -3.5226828    1.4143616   350640 
 3826000   0.75229577   -3.5191614   -2.1061488  0.023206059   -3.5191614    1.4130125   350637 
 3827000   0.75265798   -3.5218609     -2.10791  0.020638866   -3.5218609    1.4139509   350573 
 3828000   0.75246005   -3.5215611   -2.1076391  0.025168686   -3.5215611    1.4139219   350488 
 3829000   0.75310075     -3.52135   -2.1060101  0.028003291     -3.52135    1.4153399   350435 
 3830000   0.75222532    -3.522413   -2.1083714  0.022453845    -3.522413    1.4140416   350349 
 3831000   0.75222009    -3.521172    -2.106894  0.024636861    -3.521172     1.414278   350288 
 3832000   0.75136995   -3.5198769   -2.1068463  0.020219357   -3.5198769    1.4130306   350201 
 3833000   0.75205474   -3.5185673   -2.1041318  0.027529931   -3.5185673    1.4144356   350172 
 3834000   0.75212611   -3.5164905   -2.1018318  0.026092546   -3.5164905    1.4146587   350150 
 3835000   0.75260289   -3.5168334    -2.100999    0.0295469   -3.5168334    1.4158344   350081 
 3836000   0.75240048   -3.5178396   -2.1020704  0.024774453   -3.5178396    1.4157691   350003 
 3837000   0.75099965   -3.5165229    -2.103321  0.028647231   -3.5165229    1.4132018   349986 
 3838000   0.75068015    -3.517437   -2.1045538  0.025502596    -3.517437    1.4128832   349916 
 3839000   0.75033637    -3.517418   -2.1048428  0.029007732    -3.517418    1.4125753   349832 
 3840000   0.75113429    -3.519754   -2.1054906  0.022717126    -3.519754    1.4142634   349786 
 3841000   0.75000764   -3.5179409    -2.105399  0.026140845   -3.5179409    1.4125419   349687 
 3842000   0.74978108   -3.5177591   -2.1052885  0.024124576   -3.5177591    1.4124706   349599 
 3843000   0.75033197   -3.5181716   -2.1043437  0.024911343   -3.5181716    1.4138279   349520 
 3844000   0.74995934   -3.5196921   -2.1063439  0.021709089   -3.5196921    1.4133482   349465 
 3845000   0.74936164   -3.5199509   -2.1074139  0.025763884   -3.5199509    1.4125371   349387 
 3846000   0.74837661   -3.5177114   -2.1070756  0.029916887   -3.5177114    1.4106359   349398 
 3847000   0.75058563   -3.5197598   -2.1049682  0.028647559   -3.5197598    1.4147916   349400 
 3848000   0.74971069   -3.5184938   -2.1050965  0.025535107   -3.5184938    1.4133973   349337 
 3849000   0.74935015   -3.5188537   -2.1058975  0.029929465   -3.5188537    1.4129562   349278 
 3850000    0.7498419   -3.5185949   -2.1045373  0.026168798   -3.5185949    1.4140575   349235 
 3851000   0.75003051   -3.5199217   -2.1051804  0.027401022   -3.5199217    1.4147413   349154 
 3852000    0.7498271   -3.5213861   -2.1068057  0.022917643   -3.5213861    1.4145805   349099 
 3853000   0.74881675   -3.5202993   -2.1073942  0.028097364   -3.5202993    1.4129051   349042 
 3854000   0.74986945   -3.5222819   -2.1069607  0.025331324   -3.5222819    1.4153212   348936 
 3855000   0.75004751    -3.521469   -2.1057671  0.029448515    -3.521469    1.4157019   348925 
 3856000   0.74947129   -3.5215181   -2.1067011  0.027333476   -3.5215181    1.4148171   348875 
 3857000   0.75026665   -3.5222106   -2.1058677  0.028508284   -3.5222106    1.4163428   348869 
 3858000   0.74924992   -3.5187359   -2.1042151  0.030088317   -3.5187359    1.4145208   348845 
 3859000   0.74954827   -3.5204631   -2.1051438  0.023667597   -3.5204631    1.4153194   348787 
 3860000   0.74934009   -3.5194465   -2.1041144  0.023771829   -3.5194465    1.4153321   348687 
 3861000   0.74948963    -3.521284   -2.1053649  0.027267281    -3.521284    1.4159191   348612 
 3862000   0.74844375   -3.5203302   -2.1062248   0.02581187   -3.5203302    1.4141055   348572 
 3863000   0.74728397    -3.519308   -2.1071953  0.027320482    -3.519308    1.4121127   348523 
 3864000   0.74570448   -3.5157306   -2.1063883  0.026291946   -3.5157306    1.4093423   348470 
 3865000   0.74704786   -3.5186627   -2.1066113  0.024173045   -3.5186627    1.4120514   348428 
 3866000   0.74618147   -3.5168304   -2.1061818  0.019253626   -3.5168304    1.4106486   348370 
 3867000   0.74734327   -3.5185456   -2.1055343  0.023089034   -3.5185456    1.4130113   348329 
 3868000   0.74784865   -3.5191174   -2.1049273   0.02567761   -3.5191174    1.4141901   348274 
 3869000   0.74712164    -3.518504    -2.105425  0.021825692    -3.518504     1.413079   348209 
 3870000   0.74520305   -3.5143148   -2.1047512  0.026214579   -3.5143148    1.4095636   348181 
 3871000    0.7472465   -3.5174346   -2.1036485  0.024474307   -3.5174346    1.4137862   348093 
 3872000   0.74592577   -3.5159292    -2.104435  0.019457434   -3.5159292    1.4114942   348042 
 3873000   0.74624446    -3.517167    -2.104599  0.024476921    -3.517167     1.412568   347926 
 3874000   0.74712794   -3.5186339   -2.1041943  0.023061563   -3.5186339    1.4144395   347877 
 3875000   0.74843102   -3.5209946   -2.1040067     0.028825   -3.5209946     1.416988   347857 
 3876000   0.74679676   -3.5177936   -2.1036517  0.025485349   -3.5177936    1.4141418   347796 
 3877000   0.74641296   -3.5181019   -2.1044999  0.029937794   -3.5181019    1.4136021   347750 
 3878000   0.74658813   -3.5187799    -2.104598  0.026455048   -3.5187799    1.4141819   347689 
 3879000   0.74661169   -3.5196239   -2.1051045  0.025876953   -3.5196239    1.4145194   347617 
 3880000   0.74602797    -3.518311   -2.1045843  0.025448402    -3.518311    1.4137266   347540 
 3881000   0.74468852   -3.5155642   -2.1041362  0.025946163   -3.5155642     1.411428   347481 
 3882000   0.74578705    -3.518194   -2.1045822  0.026064663    -3.518194    1.4136118   347456 
 3883000   0.74638561   -3.5184384   -2.1037369  0.029516544   -3.5184384    1.4147015   347467 
 3884000   0.74626681   -3.5179703   -2.1033067  0.030096139   -3.5179703    1.4146637   347421 
 3885000   0.74604106   -3.5198121   -2.1052181  0.027680893   -3.5198121     1.414594   347333 
 3886000   0.74530314   -3.5177108   -2.1043166   0.02989553   -3.5177108    1.4133942   347284 
 3887000   0.74327354   -3.5163916   -2.1065581   0.02450656   -3.5163916    1.4098335   347213 
 3888000   0.74498943   -3.5199906   -2.1067315  0.029064564   -3.5199906    1.4132591   347171 
 3889000   0.74480984   -3.5203622   -2.1070163  0.027165011   -3.5203622    1.4133459   347066 
 3890000   0.74411742   -3.5198003   -2.1074794  0.023992261   -3.5198003    1.4123209   346995 
 3891000   0.74533504   -3.5209964   -2.1061198  0.027249287   -3.5209964    1.4148766   346935 
 3892000   0.74508624   -3.5206271   -2.1058068  0.028224586   -3.5206271    1.4148202   346833 
 3893000    0.7452845   -3.5205378   -2.1051289  0.026577826   -3.5205378    1.4154089   346781 
 3894000    0.7457422   -3.5232733   -2.1067705  0.026982873   -3.5232733    1.4165028   346726 
 3895000   0.74321359   -3.5178852   -2.1060144  0.031610619   -3.5178852    1.4118709   346684 
 3896000   0.74556643    -3.523943   -2.1072388  0.028355552    -3.523943    1.4167042   346595 
 3897000     0.743215   -3.5201881   -2.1077767  0.027287829   -3.5201881    1.4124113   346552 
 3898000   0.74289662   -3.5193751   -2.1074385  0.023929845   -3.5193751    1.4119366   346520 
 3899000   0.74256201   -3.5180765    -2.106511   0.02572446   -3.5180765    1.4115655   346455 
 3900000   0.74359062   -3.5217576   -2.1079267  0.024650641   -3.5217576    1.4138309   346379 
 3901000   0.74300605   -3.5184422   -2.1056167  0.028465864   -3.5184422    1.4128255   346353 
 3902000    0.7440483   -3.5209458   -2.1059301   0.02540066   -3.5209458    1.4150157   346302 
 3903000   0.74192569   -3.5187145   -2.1075847  0.027491521   -3.5187145    1.4111297   346265 
 3904000   0.74198711   -3.5185663   -2.1068223  0.026818064   -3.5185663     1.411744   346143 
 3905000   0.74282313   -3.5188664   -2.1052541  0.023897797   -3.5188664    1.4136123   346075 
 3906000    0.7419291   -3.5188542   -2.1066616  0.027313762   -3.5188542    1.4121925   346006 
 3907000   0.74225019     -3.52111   -2.1080817  0.025993448     -3.52111    1.4130283   345951 
 3908000   0.74150629   -3.5201459   -2.1082807  0.028255486   -3.5201459    1.4118652   345889 
 3909000   0.74096409   -3.5192476   -2.1082231  0.026869197   -3.5192476    1.4110245   345842 
 3910000   0.74066521   -3.5181615   -2.1076164  0.028218801   -3.5181615    1.4105451   345820 
 3911000   0.74057578    -3.518237   -2.1074216   0.01989293    -3.518237    1.4108154   345712 
 3912000   0.74153963   -3.5199924   -2.1070712  0.026858903   -3.5199924    1.4129213   345646 
 3913000   0.73915656   -3.5178868   -2.1093758  0.024844973   -3.5178868     1.408511   345614 
 3914000   0.74127023   -3.5200926   -2.1073618  0.019740099   -3.5200926    1.4127308   345567 
 3915000    0.7415622    -3.520346   -2.1068992   0.02174315    -3.520346    1.4134468   345528 
 3916000   0.74109148   -3.5193498   -2.1065999  0.025251777   -3.5193498    1.4127499   345479 
 3917000   0.74303129   -3.5221296   -2.1053167  0.031452568   -3.5221296    1.4168128   345390 
 3918000   0.74131367   -3.5206446   -2.1068818  0.026987189   -3.5206446    1.4137628   345335 
 3919000   0.74113862   -3.5208641   -2.1072714  0.023883362   -3.5208641    1.4135927   345295 
 3920000   0.74318886   -3.5226333    -2.105048  0.027120954   -3.5226333    1.4175853   345275 
 3921000   0.74003221    -3.519096    -2.107401  0.027132066    -3.519096     1.411695   345243 
 3922000   0.73966488   -3.5182165   -2.1069443  0.025564476   -3.5182165    1.4112722   345175 
 3923000   0.73964268   -3.5173678   -2.1058762  0.032982593   -3.5173678    1.4114916   345111 
 3924000   0.73987721   -3.5185489   -2.1062537  0.030117471   -3.5185489    1.4122952   345024 
 3925000   0.74077331    -3.519365   -2.1051011  0.028349078    -3.519365    1.4142639   344961 
 3926000   0.74146098   -3.5198872   -2.1041791  0.026077669   -3.5198872    1.4157081   344929 
 3927000   0.73989344   -3.5178905   -2.1048845  0.028584751   -3.5178905     1.413006   344858 
 3928000   0.74068334   -3.5193082   -2.1047199  0.025659314   -3.5193082    1.4145883   344840 
 3929000   0.74048121   -3.5197179   -2.1052284   0.02620858   -3.5197179    1.4144894   344770 
 3930000    0.7390916   -3.5176619   -2.1054378  0.023418037   -3.5176619    1.4122241   344675 
 3931000   0.73838192    -3.517344   -2.1061934  0.023723964    -3.517344    1.4111506   344606 
 3932000   0.73752602   -3.5174518   -2.1076219  0.028809077   -3.5174518    1.4098298   344529 
 3933000   0.73861761   -3.5182425   -2.1060186  0.022454638   -3.5182425    1.4122239   344454 
 3934000   0.73784876   -3.5172996   -2.1062385  0.028819151   -3.5172996    1.4110611   344379 
 3935000   0.73952311   -3.5207078   -2.1062845  0.022721968   -3.5207078    1.4144233   344340 
 3936000   0.73939232   -3.5192562    -2.104779  0.024611336   -3.5192562    1.4144771   344266 
 3937000   0.73858766   -3.5183768    -2.105242   0.02997918   -3.5183768    1.4131348   344218 
 3938000   0.73845317   -3.5201948   -2.1070709  0.024581716   -3.5201948    1.4131238   344158 
 3939000   0.73844453   -3.5187261   -2.1054505  0.026539602   -3.5187261    1.4132757   344117 
 3940000   0.73547176   -3.5132108   -2.1053505  0.027333359   -3.5132108    1.4078603   344050 
 3941000   0.73598428   -3.5163906   -2.1073567  0.024079217   -3.5163906    1.4090339   344003 
 3942000   0.73703829   -3.5184928   -2.1073343   0.02815309   -3.5184928    1.4111585   343977 
 3943000   0.73724176   -3.5196546   -2.1078398  0.022126172   -3.5196546    1.4118148   343912 
 3944000   0.73464025    -3.516132   -2.1089635   0.02452362    -3.516132    1.4071684   343830 
 3945000   0.73430165   -3.5177985   -2.1110536  0.024894864   -3.5177985    1.4067449   343775 
 3946000   0.73590073   -3.5178272   -2.1079533  0.024583574   -3.5178272     1.409874   343759 
 3947000   0.73724847   -3.5193234   -2.1066002  0.028087374   -3.5193234    1.4127231   343694 
 3948000   0.73734293   -3.5210243   -2.1080421  0.022002776   -3.5210243    1.4129823   343675 
 3949000    0.7387668   -3.5238666    -2.107958  0.026512902   -3.5238666    1.4159086   343627 
 3950000   0.73826113   -3.5231147   -2.1078416  0.029740932   -3.5231147    1.4152731   343546 
 3951000   0.73713088   -3.5206179   -2.1072607   0.02653559   -3.5206179    1.4133573   343485 
 3952000   0.73646642   -3.5205045   -2.1084007  0.023829254   -3.5205045    1.4121038   343480 
 3953000   0.73577885   -3.5201371   -2.1090682  0.023339513   -3.5201371    1.4110689   343411 
 3954000   0.73458147    -3.518451   -2.1095676  0.022323786    -3.518451    1.4088834   343384 
 3955000   0.73603089   -3.5221769   -2.1103574  0.025560032   -3.5221769    1.4118195   343346 
 3956000   0.73683561   -3.5232943   -2.1096842  0.027177311   -3.5232943    1.4136101   343286 
 3957000   0.73576153   -3.5218878   -2.1099804  0.028169641   -3.5218878    1.4119073   343199 
 3958000   0.73751231   -3.5241236   -2.1086792   0.02618592   -3.5241236    1.4154444   343156 
 3959000   0.73740484   -3.5233436   -2.1078621  0.028097821   -3.5233436    1.4154815   343097 
 3960000   0.73724173    -3.524279   -2.1088507  0.025250217    -3.524279    1.4154283   343034 
 3961000   0.73656627    -3.525125   -2.1108863  0.026675991    -3.525125    1.4142387   343008 
 3962000   0.73646904   -3.5239536   -2.1096749  0.028940323   -3.5239536    1.4142788   342953 
 3963000   0.73583931   -3.5207793   -2.1076521  0.023985122   -3.5207793    1.4131272   342939 
 3964000   0.73553508   -3.5191392   -2.1064769  0.028867288   -3.5191392    1.4126624   342910 
 3965000   0.73623872   -3.5201711   -2.1061119  0.028460509   -3.5201711    1.4140591   342899 
 3966000    0.7367731    -3.521753   -2.1065891  0.028135622    -3.521753    1.4151639   342880 
 3967000   0.73536244   -3.5206043   -2.1078616  0.026078419   -3.5206043    1.4127428   342810 
 3968000   0.73545676   -3.5215373   -2.1086174  0.028459715   -3.5215373    1.4129199   342811 
 3969000   0.73531456   -3.5232699    -2.110211  0.025796455   -3.5232699    1.4130589   342711 
 3970000   0.73426712   -3.5198901   -2.1086341  0.025442767   -3.5198901     1.411256   342660 
 3971000   0.73371636   -3.5182997   -2.1078265  0.025897702   -3.5182997    1.4104732   342593 
 3972000   0.73463459   -3.5189186   -2.1065524  0.022965736   -3.5189186    1.4123662   342562 
 3973000   0.73478944   -3.5198974   -2.1070562  0.027706597   -3.5198974    1.4128413   342519 
 3974000   0.73613792   -3.5238939   -2.1082903  0.025258479   -3.5238939    1.4156035   342478 
 3975000    0.7338674   -3.5204316   -2.1088893  0.028297758   -3.5204316    1.4115423   342404 
 3976000   0.73422545   -3.5204861   -2.1079623  0.025669724   -3.5204861    1.4125239   342333 
 3977000   0.73502519   -3.5224767   -2.1083317   0.02169789   -3.5224767    1.4141451   342313 
 3978000   0.73463139   -3.5219697   -2.1084171  0.030983023   -3.5219697    1.4135526   342273 
 3979000   0.73503548   -3.5234977   -2.1087625  0.029836575   -3.5234977    1.4147352   342175 
 3980000   0.73341833   -3.5216474   -2.1097648  0.026499195   -3.5216474    1.4118826   342112 
 3981000   0.73489582   -3.5227152    -2.107736  0.021809656   -3.5227152    1.4149792   342051 
 3982000   0.73442176   -3.5234013   -2.1090289  0.024545613   -3.5234013    1.4143724   341977 
 3983000   0.73255429   -3.5190382   -2.1080807   0.02179817   -3.5190382    1.4109575   341933 
 3984000   0.73366105    -3.520371   -2.1070503  0.027882538    -3.520371    1.4133207   341877 
 3985000   0.73353929   -3.5210974   -2.1078624  0.032407447   -3.5210974    1.4132349   341841 
 3986000   0.73352685   -3.5203428   -2.1070698  0.031570339   -3.5203428     1.413273   341826 
 3987000   0.73337678   -3.5205574   -2.1072883  0.030143006   -3.5205574    1.4132691   341757 
 3988000   0.73224077    -3.517844   -2.1066154  0.026925225    -3.517844    1.4112286   341721 
 3989000   0.73376423   -3.5220805   -2.1074438  0.024184551   -3.5220805    1.4146367   341607 
 3990000   0.73305121   -3.5201412   -2.1067219   0.02105373   -3.5201412    1.4134192   341569 
 3991000   0.73279237   -3.5186629   -2.1057138   0.02253111   -3.5186629    1.4129491   341562 
 3992000   0.73247481   -3.5190281   -2.1065093  0.023991573   -3.5190281    1.4125188   341518 
 3993000   0.73231049   -3.5177281   -2.1053897  0.028821083   -3.5177281    1.4123384   341485 
 3994000   0.73408217   -3.5200815   -2.1041645  0.026892543   -3.5200815     1.415917   341446 
 3995000   0.73264013   -3.5150853   -2.1019623  0.027184173   -3.5150853    1.4131231   341449 
 3996000    0.7312803   -3.5109976   -2.1004685  0.028614729   -3.5109976    1.4105291   341442 
 3997000   0.73113482   -3.5102674   -2.0998124  0.024827563   -3.5102674    1.4104551   341392 
 3998000   0.73226675   -3.5119347   -2.0993539  0.022878396   -3.5119347    1.4125808   341406 
 3999000   0.73178416   -3.5126249   -2.1006277  0.026454126   -3.5126249    1.4119973   341322 
 4000000   0.73036274   -3.5112502   -2.1017808  0.031038467   -3.5112502    1.4094693   341270 
 4001000   0.73001115   -3.5108321   -2.1018348  0.025977575   -3.5108321    1.4089973   341220 
 4002000   0.73087411   -3.5149755   -2.1038784  0.020692395   -3.5149755    1.4110971   341115 
 4003000   0.73038127   -3.5144083   -2.1038658  0.020231795   -3.5144083    1.4105425   341019 
 4004000   0.72913079   -3.5089144    -2.100663  0.027154049   -3.5089144    1.4082514   340989 
 4005000   0.72917592   -3.5096365   -2.1010294   0.03133596   -3.5096365    1.4086071   340924 
 4006000   0.72846869   -3.5074579   -2.1000188  0.023631193   -3.5074579    1.4074391   340876 
 4007000   0.73061174   -3.5119812   -2.1000496  0.021806323   -3.5119812    1.4119316   340791 
 4008000   0.73010255    -3.511601     -2.10026  0.020363265    -3.511601     1.411341   340696 
 4009000   0.72829547   -3.5077178   -2.0998534  0.025464058   -3.5077178    1.4078643   340692 
 4010000   0.72972471   -3.5123341    -2.101301  0.020405676   -3.5123341    1.4110331   340594 
 4011000      0.72808   -3.5111303   -2.1029095  0.023961214   -3.5111303    1.4082208   340505 
 4012000    0.7299602   -3.5141519   -2.1020457  0.024204645   -3.5141519    1.4121062   340445 
 4013000   0.73012995   -3.5136536   -2.1009534  0.028629642   -3.5136536    1.4127001   340381 
 4014000   0.72852594   -3.5121326   -2.1023082  0.028674919   -3.5121326    1.4098244   340326 
 4015000   0.73019453   -3.5140613   -2.1007711  0.024075206   -3.5140613    1.4132901   340269 
 4016000   0.72824443   -3.5123213   -2.1024368  0.025658078   -3.5123213    1.4098845   340180 
 4017000   0.72908016   -3.5139243   -2.1024219  0.026196708   -3.5139243    1.4115025   340180 
 4018000    0.7277246   -3.5117825   -2.1027553  0.021564439   -3.5117825    1.4090272   340144 
 4019000   0.72955942   -3.5167557   -2.1040305  0.026994036   -3.5167557    1.4127252   340109 
 4020000   0.72878809   -3.5165537   -2.1052267  0.027276631   -3.5165537     1.411327   340086 
 4021000   0.72797124   -3.5153725   -2.1054325  0.026770107   -3.5153725      1.40994   340039 
 4022000    0.7286841   -3.5166837   -2.1050683  0.025992243   -3.5166837    1.4116154   339968 
 4023000    0.7290789   -3.5159045   -2.1033664  0.026006875   -3.5159045    1.4125381   339930 
 4024000   0.72703967   -3.5128184   -2.1039742  0.029416415   -3.5128184    1.4088442   339868 
 4025000   0.72643095   -3.5121377   -2.1042369  0.030206913   -3.5121377    1.4079008   339811 
 4026000   0.72675791   -3.5116921   -2.1030499  0.022821773   -3.5116921    1.4086422   339785 
 4027000    0.7265774    -3.513934   -2.1053597  0.022460171    -3.513934    1.4085742   339717 
 4028000   0.72750921   -3.5152732   -2.1046476  0.023457737   -3.5152732    1.4106257   339658 
 4029000   0.72806758   -3.5191097   -2.1070189  0.026053219   -3.5191097    1.4120908   339566 
 4030000   0.72804782   -3.5193829   -2.1070601  0.031193235   -3.5193829    1.4123228   339501 
 4031000   0.72774873   -3.5184809   -2.1065552  0.030591526   -3.5184809    1.4119256   339457 
 4032000   0.72794586   -3.5196437   -2.1072274  0.025735727   -3.5196437    1.4124163   339431 
 4033000   0.72743821   -3.5192206   -2.1076355  0.022486825   -3.5192206    1.4115852   339394 
 4034000   0.72743063   -3.5189712   -2.1071262  0.028269773   -3.5189712     1.411845   339328 
 4035000   0.72698692   -3.5203727    -2.109077  0.026185197   -3.5203727    1.4112957   339253 
 4036000   0.72709147   -3.5204428   -2.1088152  0.024986895   -3.5204428    1.4116277   339222 
 4037000   0.72702879    -3.522094   -2.1103175  0.028125066    -3.522094    1.4117765   339157 
 4038000   0.72658675   -3.5199478   -2.1088258  0.026813925   -3.5199478     1.411122   339108 
 4039000   0.72836446   -3.5226843   -2.1078177  0.027871053   -3.5226843    1.4148666   339038 
 4040000   0.72808297    -3.523398   -2.1087027  0.028616153    -3.523398    1.4146954   338948 
 4041000   0.72660706   -3.5226073   -2.1106505  0.028567512   -3.5226073    1.4119568   338917 
 4042000   0.72679898   -3.5210751   -2.1085537  0.028925775   -3.5210751    1.4125214   338871 
 4043000   0.72591958   -3.5187734   -2.1078112  0.025914332   -3.5187734    1.4109622   338835 
 4044000   0.72568445   -3.5209692   -2.1101643  0.027098822   -3.5209692     1.410805   338763 
 4045000   0.72622327   -3.5232632   -2.1112857   0.02499705   -3.5232632    1.4119775   338733 
 4046000   0.72646227   -3.5231405   -2.1101936   0.02595358   -3.5231405    1.4129469   338612 
 4047000   0.72435881   -3.5218637   -2.1127666  0.021631728   -3.5218637    1.4090971   338554 
 4048000   0.72580977   -3.5218713    -2.109764  0.026301701   -3.5218713    1.4121074   338509 
 4049000    0.7260681   -3.5225638   -2.1095865  0.025009835   -3.5225638    1.4129773   338421 
 4050000    0.7263833   -3.5233402   -2.1093985  0.023243534   -3.5233402    1.4139417   338337 
 4051000   0.72485462   -3.5217344   -2.1106934  0.026549226   -3.5217344    1.4110411   338319 
 4052000   0.72435563    -3.520857   -2.1106039  0.022192164    -3.520857    1.4102531   338275 
 4053000   0.72454373   -3.5211977   -2.1102614  0.026086918   -3.5211977    1.4109363   338199 
 4054000   0.72402052   -3.5182265   -2.1081589  0.026903723   -3.5182265    1.4100676   338163 
 4055000   0.72445512   -3.5190516   -2.1080459  0.025995439   -3.5190516    1.4110058   338141 
 4056000   0.72433177   -3.5173873   -2.1063506  0.025972317   -3.5173873    1.4110368   338076 
 4057000   0.72458529   -3.5183076    -2.106447  0.029114722   -3.5183076    1.4118605   337997 
 4058000    0.7253169    -3.518166   -2.1048925  0.031743379    -3.518166    1.4132735   338000 
 4059000   0.72441928   -3.5158067   -2.1040775  0.031445755   -3.5158067    1.4117292   337951 
 4060000   0.72468433   -3.5165709   -2.1044463  0.027420626   -3.5165709    1.4121245   337980 
 4061000   0.72470457   -3.5177407   -2.1053594  0.023022437   -3.5177407    1.4123813   337928 
 4062000   0.72232441   -3.5141557   -2.1062007  0.022784524   -3.5141557    1.4079551   337877 
 4063000   0.72325925   -3.5149291   -2.1049265  0.025691151   -3.5149291    1.4100026   337823 
 4064000   0.72457967    -3.518323   -2.1053489  0.024616057    -3.518323    1.4129741   337728 
 4065000   0.72351142   -3.5164673   -2.1053758  0.022379783   -3.5164673    1.4110915   337680 
 4066000   0.72382791   -3.5158426       -2.104  0.027445477   -3.5158426    1.4118426   337648 
 4067000   0.72175936   -3.5137656   -2.1056408  0.029092495   -3.5137656    1.4081248   337572 
 4068000   0.72378346   -3.5152249   -2.1031093   0.02091018   -3.5152249    1.4121155   337562 
 4069000   0.72263634   -3.5128176   -2.1027897  0.030879413   -3.5128176    1.4100279   337526 
 4070000    0.7233451   -3.5162454   -2.1045041  0.024606438   -3.5162454    1.4117412   337447 
 4071000   0.72304418   -3.5162391   -2.1047548  0.026929277   -3.5162391    1.4114844   337368 
 4072000   0.72271364     -3.51645    -2.105293  0.028589856     -3.51645     1.411157   337292 
 4073000   0.72257537   -3.5159923   -2.1048291  0.025370924   -3.5159923    1.4111632   337226 
 4074000   0.72269663   -3.5162536   -2.1045941  0.029524256   -3.5162536    1.4116595   337164 
 4075000   0.72438988   -3.5179912    -2.102806  0.028740345   -3.5179912    1.4151853   337112 
 4076000   0.72319489   -3.5145835   -2.1017077  0.032881496   -3.5145835    1.4128758   337106 
 4077000   0.72266955   -3.5141676    -2.102096  0.025378627   -3.5141676    1.4120715   337053 
 4078000   0.72369806   -3.5145245   -2.1004097  0.024129638   -3.5145245    1.4141147   337045 
 4079000   0.72237713   -3.5132004   -2.1013442  0.025854167   -3.5132004    1.4118562   336968 
 4080000   0.72098506   -3.5104937   -2.1011575  0.022871036   -3.5104937    1.4093362   336920 
 4081000   0.72117251     -3.51191    -2.101948  0.024160438     -3.51191    1.4099621   336858 
 4082000   0.72038234   -3.5113144   -2.1024204  0.023478938   -3.5113144     1.408894   336744 
 4083000   0.72058179   -3.5106209   -2.1010522  0.025501735   -3.5106209    1.4095687   336676 
 4084000   0.72049623   -3.5105156   -2.1008881  0.028890599   -3.5105156    1.4096275   336622 
 4085000   0.72014614    -3.509493   -2.1001904  0.026636596    -3.509493    1.4093026   336536 
 4086000   0.71983037   -3.5102234   -2.1013001   0.02407842   -3.5102234    1.4089232   336479 
 4087000   0.72067247    -3.511313    -2.100469    0.0235967    -3.511313     1.410844   336414 
 4088000   0.72086926   -3.5117619   -2.1003439  0.021290985   -3.5117619    1.4114181   336369 
 4089000   0.72170576   -3.5122458   -2.0988579  0.027727459   -3.5122458    1.4133878   336290 
 4090000   0.72056074    -3.511419   -2.0999672  0.029571433    -3.511419    1.4114518   336217 
 4091000   0.72114424   -3.5136817   -2.1008348  0.028947392   -3.5136817    1.4128469   336157 
 4092000   0.72086406   -3.5128701   -2.1004209  0.027965522   -3.5128701    1.4124493   336121 
 4093000   0.72029165   -3.5117187    -2.100181  0.024133868   -3.5117187    1.4115377   336071 
 4094000   0.71806534   -3.5095152    -2.102043   0.02179105   -3.5095152    1.4074722   336000 
 4095000   0.71966794   -3.5117145   -2.1009499   0.02429557   -3.5117145    1.4107646   335964 
 4096000   0.71882098   -3.5105295   -2.1011862  0.027796029   -3.5105295    1.4093434   335907 
 4097000   0.72020704   -3.5136112   -2.1012812   0.02552725   -3.5136112      1.41233   335843 
 4098000   0.71863338   -3.5110932   -2.1017484  0.029274546   -3.5110932    1.4093448   335819 
 4099000   0.71814669   -3.5098532   -2.1013203  0.024462722   -3.5098532    1.4085329   335785 
 4100000   0.71855717   -3.5125005   -2.1028938  0.023307007   -3.5125005    1.4096067   335721 
 4101000   0.71954857    -3.511619   -2.1000254  0.029496385    -3.511619    1.4115936   335711 
 4102000   0.71985477   -3.5123999   -2.1000332  0.029266837   -3.5123999    1.4123668   335670 
 4103000   0.71932227   -3.5125879   -2.1009673  0.030567427   -3.5125879    1.4116206   335599 
 4104000   0.71842966   -3.5111414   -2.1012599  0.028242321   -3.5111414    1.4098815   335596 
 4105000    0.7174566   -3.5119789    -2.103856  0.025184373   -3.5119789     1.408123   335560 
 4106000   0.71676286   -3.5098763   -2.1028927  0.024996393   -3.5098763    1.4069836   335507 
 4107000   0.71851822   -3.5124623    -2.101848  0.024367424   -3.5124623    1.4106143   335463 
 4108000   0.71818887   -3.5127925   -2.1025851  0.025013226   -3.5127925    1.4102074   335406 
 4109000   0.71823522   -3.5127497    -2.102342  0.026716444   -3.5127497    1.4104077   335380 
 4110000   0.71804832   -3.5118644   -2.1014284  0.028441324   -3.5118644     1.410436   335286 
 4111000   0.71684932   -3.5120349   -2.1036684  0.031084099   -3.5120349    1.4083665   335218 
 4112000   0.71832777   -3.5143166   -2.1027507  0.028323219   -3.5143166    1.4115659   335148 
 4113000   0.71828314   -3.5144514   -2.1028637  0.025116515   -3.5144514    1.4115877   335122 
 4114000   0.71831127   -3.5133915   -2.1015758  0.024024265   -3.5133915    1.4118157   335081 
 4115000   0.71829833   -3.5127404   -2.1007267  0.027218051   -3.5127404    1.4120136   335028 
 4116000   0.71851053   -3.5152738   -2.1026491  0.025905895   -3.5152738    1.4126247   334982 
 4117000   0.71888816   -3.5152941   -2.1016442  0.026767813   -3.5152941    1.4136499   334915 
 4118000   0.71947968   -3.5169383   -2.1020027  0.025704241   -3.5169383    1.4149356   334886 
 4119000   0.71773013   -3.5119036   -2.1003707   0.03240432   -3.5119036    1.4115329   334877 
 4120000   0.71850796   -3.5154753   -2.1022102  0.021429969   -3.5154753    1.4132652   334829 
 4121000   0.71742689   -3.5161376    -2.104611  0.019718075   -3.5161376    1.4115266   334737 
 4122000   0.71646523   -3.5138977   -2.1039978  0.022457337   -3.5138977    1.4098999   334674 
 4123000   0.71675248   -3.5134257   -2.1028594  0.029248004   -3.5134257    1.4105663   334650 
 4124000   0.71689433   -3.5140649   -2.1031014  0.029407488   -3.5140649    1.4109635   334622 
 4125000    0.7170427   -3.5143353   -2.1028435  0.025257746   -3.5143353    1.4114918   334566 
 4126000   0.71649454   -3.5131734   -2.1025288  0.028357456   -3.5131734    1.4106446   334511 
 4127000   0.71699767   -3.5145549   -2.1027551  0.026318611   -3.5145549    1.4117998   334472 
 4128000   0.71749728   -3.5154464   -2.1023713  0.027463239   -3.5154464    1.4130751   334403 
 4129000   0.71647664    -3.512721   -2.1017362  0.028991563    -3.512721    1.4109848   334422 
 4130000   0.71669645   -3.5123952    -2.100682  0.024635444   -3.5123952    1.4117131   334352 
 4131000   0.71693356   -3.5158451   -2.1033946  0.024881928   -3.5158451    1.4124506   334288 
 4132000   0.71628434    -3.512524   -2.1010484  0.028067953    -3.512524    1.4114755   334216 
 4133000   0.71782483   -3.5142309   -2.0995589  0.028814371   -3.5142309     1.414672   334178 
 4134000   0.71608953   -3.5128216   -2.1013161    0.0289461   -3.5128216    1.4115055   334118 
 4135000   0.71618197    -3.513185   -2.1012268  0.025561764    -3.513185    1.4119582   334054 
 4136000   0.71631675   -3.5125714   -2.1001742    0.0258823   -3.5125714    1.4123973   334013 
 4137000   0.71698403    -3.512633   -2.0987338  0.026317579    -3.512633    1.4138992   333969 
 4138000   0.71552867   -3.5090888   -2.0978187   0.03069027   -3.5090888    1.4112701   333912 
 4139000   0.71584243   -3.5112815   -2.0991261  0.024913474   -3.5112815    1.4121554   333849 
 4140000   0.71450215    -3.510832   -2.1009531   0.02561732    -3.510832    1.4098788   333762 
 4141000   0.71525049   -3.5123349   -2.1008102  0.027349046   -3.5123349    1.4115246   333722 
 4142000   0.71690584   -3.5125833   -2.0978894  0.027386717   -3.5125833    1.4146939   333745 
 4143000   0.71550492   -3.5111568   -2.0987618  0.029227083   -3.5111568    1.4123949   333635 
 4144000   0.71486936   -3.5097698   -2.0984645  0.024342448   -3.5097698    1.4113053   333596 
 4145000   0.71335865   -3.5087536   -2.1002408  0.029168707   -3.5087536    1.4085129   333551 
 4146000   0.71363621   -3.5082948   -2.0989973  0.024751917   -3.5082948    1.4092975   333495 
 4147000   0.71364242   -3.5079875   -2.0987749  0.022581341   -3.5079875    1.4092126   333518 
 4148000   0.71433884   -3.5070349   -2.0963498  0.028223335   -3.5070349    1.4106851   333495 
 4149000   0.71588432   -3.5099549   -2.0959125  0.024743231   -3.5099549    1.4140424   333423 
 4150000   0.71501703   -3.5105463   -2.0979374   0.03111428   -3.5105463    1.4126089   333357 
 4151000   0.71561414   -3.5121892   -2.0981589  0.025407246   -3.5121892    1.4140304   333300 
 4152000   0.71498541   -3.5103375    -2.097168  0.028906203   -3.5103375    1.4131696   333210 
 4153000    0.7138309   -3.5080184   -2.0970121   0.02956515   -3.5080184    1.4110063   333182 
 4154000   0.71481794   -3.5119005   -2.0987184  0.022590306   -3.5119005    1.4131821   333129 
 4155000   0.71398992   -3.5114808   -2.0998043  0.023763275   -3.5114808    1.4116765   333098 
 4156000   0.71420229   -3.5109724   -2.0986174  0.025165661   -3.5109724     1.412355   333037 
 4157000   0.71398205   -3.5121054    -2.099889  0.022557212   -3.5121054    1.4122163   332967 
 4158000   0.71219788   -3.5095691   -2.1006279  0.024203443   -3.5095691    1.4089412   332907 
 4159000   0.71294274   -3.5105634   -2.0996909  0.021641117   -3.5105634    1.4108725   332799 
 4160000   0.71257223    -3.509684   -2.0994091  0.032311723    -3.509684    1.4102749   332767 
 4161000   0.71421742   -3.5113971   -2.0977047  0.024892821   -3.5113971    1.4136924   332729 
 4162000   0.71469605   -3.5134831   -2.0984265  0.030122214   -3.5134831    1.4150565   332631 
 4163000   0.71432498   -3.5109198   -2.0965299  0.031322301   -3.5109198    1.4143899   332615 
 4164000   0.71370186   -3.5107593    -2.097208   0.02574268   -3.5107593    1.4135513   332522 
 4165000   0.71203513   -3.5114298   -2.1008148  0.025871219   -3.5114298     1.410615   332436 
 4166000   0.71316358   -3.5144781   -2.1013639  0.022838337   -3.5144781    1.4131142   332374 
 4167000   0.71331955   -3.5156379   -2.1018489  0.025567349   -3.5156379     1.413789   332288 
 4168000   0.71344644   -3.5152412   -2.1007793  0.026755003   -3.5152412    1.4144619   332189 
 4169000   0.71170013   -3.5128633   -2.1017403  0.026619782   -3.5128633    1.4111229   332160 
 4170000   0.71226193   -3.5125113   -2.1001257  0.024698781   -3.5125113    1.4123857   332125 
 4171000   0.71229377   -3.5113171   -2.0987407   0.02526337   -3.5113171    1.4125764   332095 
 4172000   0.71240279   -3.5123023   -2.0992331  0.024045444   -3.5123023    1.4130692   332030 
 4173000   0.71296655   -3.5144321   -2.0999806  0.026419892   -3.5144321    1.4144515   331968 
 4174000   0.71144854   -3.5116867   -2.0999491  0.027525811   -3.5116867    1.4117376   331898 
 4175000   0.71175563   -3.5126746   -2.1000936  0.026196556   -3.5126746    1.4125811   331843 
 4176000   0.71129324   -3.5119995   -2.1001192  0.027936876   -3.5119995    1.4118804   331792 
 4177000    0.7108518   -3.5097708   -2.0984945  0.028207575   -3.5097708    1.4112764   331728 
 4178000   0.71179346   -3.5096653   -2.0963234  0.024921661   -3.5096653    1.4133419   331682 
 4179000    0.7116123   -3.5094948   -2.0965382    0.0242626   -3.5094948    1.4129566   331688 
 4180000   0.71264151   -3.5130495   -2.0975671  0.024664288   -3.5130495    1.4154824   331575 
 4181000    0.7119393   -3.5107813   -2.0963055  0.029956248   -3.5107813    1.4144758   331484 
 4182000   0.71281266   -3.5116141   -2.0953347  0.029545933   -3.5116141    1.4162794   331468 
 4183000   0.71192494   -3.5101454   -2.0954591  0.029376966   -3.5101454    1.4146863   331428 
 4184000   0.71137787   -3.5090165   -2.0951656  0.024520999   -3.5090165    1.4138509   331369 
 4185000   0.71033315   -3.5067209   -2.0945841  0.025531283   -3.5067209    1.4121368   331284 
 4186000   0.70932055   -3.5073185   -2.0968116  0.023166977   -3.5073185    1.4105069   331194 
 4187000   0.70840946   -3.5059552   -2.0970048  0.023730086   -3.5059552    1.4089504   331134 
 4188000   0.70859904     -3.50749   -2.0980901  0.024927206     -3.50749    1.4093998   331117 
 4189000   0.70941668   -3.5074325   -2.0962232  0.021871816   -3.5074325    1.4112094   331074 
 4190000   0.71020567   -3.5066455   -2.0936489  0.025476443   -3.5066455    1.4129965   331023 
 4191000   0.71050407   -3.5089041   -2.0949209  0.026691184   -3.5089041    1.4139832   330931 
 4192000   0.71000592   -3.5071073   -2.0939105  0.026123254   -3.5071073    1.4131968   330883 
 4193000   0.70966406   -3.5080376   -2.0953419  0.029986915   -3.5080376    1.4126957   330841 
 4194000   0.70868999   -3.5060116   -2.0950844  0.026867979   -3.5060116    1.4109272   330801 
 4195000   0.70868584   -3.5071412   -2.0958084  0.022813621   -3.5071412    1.4113328   330704 
 4196000   0.70846638   -3.5065811   -2.0955062  0.026495858   -3.5065811     1.411075   330662 
 4197000   0.70967098   -3.5071587   -2.0934151  0.027230654   -3.5071587    1.4137436   330599 
 4198000   0.71012518   -3.5078653   -2.0931313  0.025251136   -3.5078653     1.414734   330579 
 4199000   0.70857352   -3.5057779   -2.0938362  0.028227739   -3.5057779    1.4119417   330509 
 4200000   0.70792618   -3.5064521   -2.0955613  0.029319469   -3.5064521    1.4108908   330453 
 4201000   0.70892246   -3.5077621   -2.0946377  0.028806992   -3.5077621    1.4131244   330395 
 4202000   0.70782737   -3.5054309   -2.0944125  0.027203162   -3.5054309    1.4110184   330377 
 4203000   0.70766532   -3.5062876   -2.0954171  0.028649596   -3.5062876    1.4108705   330336 
 4204000    0.7076565   -3.5061819   -2.0950386  0.026916406   -3.5061819    1.4111433   330268 
 4205000    0.7077616   -3.5073759   -2.0957494  0.021124082   -3.5073759    1.4116265   330204 
 4206000   0.70806171    -3.507158   -2.0945779  0.031358992    -3.507158    1.4125801   330121 
 4207000   0.70926247   -3.5093454    -2.094314  0.027757247   -3.5093454    1.4150313   330108 
 4208000   0.70857349   -3.5088415   -2.0951762  0.025898692   -3.5088415    1.4136654   330106 
 4209000   0.70859273   -3.5081716   -2.0943908  0.025602976   -3.5081716    1.4137808   330088 
 4210000   0.70801671   -3.5055791    -2.092832  0.024316223   -3.5055791    1.4127471   330061 
 4211000   0.70864506   -3.5090533   -2.0945938   0.02068227   -3.5090533    1.4144594   329954 
 4212000   0.70621354   -3.5054154    -2.095305  0.026672152   -3.5054154    1.4101104   329836 
 4213000   0.70822852   -3.5110054   -2.0966358  0.023361726   -3.5110054    1.4143696   329781 
 4214000   0.70730242   -3.5080646   -2.0954673  0.031326321   -3.5080646    1.4125972   329763 
 4215000   0.70723543   -3.5097561   -2.0968599  0.027435785   -3.5097561    1.4128962   329662 
 4216000   0.70611783   -3.5073417   -2.0964086  0.023586473   -3.5073417    1.4109331   329599 
 4217000   0.70731018   -3.5102025   -2.0967068  0.025037722   -3.5102025    1.4134957   329557 
 4218000   0.70611394   -3.5055326   -2.0944916  0.026656115   -3.5055326    1.4110409   329572 
 4219000   0.70625797   -3.5055683   -2.0939954  0.024602315   -3.5055683    1.4115729   329515 
 4220000   0.70672073   -3.5061317   -2.0933852  0.023626422   -3.5061317    1.4127465   329457 
 4221000   0.70668135   -3.5069358   -2.0940751  0.023146181   -3.5069358    1.4128607   329412 
 4222000     0.705524   -3.5062149   -2.0954154   0.02561159   -3.5062149    1.4107995   329353 
 4223000   0.70582449   -3.5045146   -2.0930113  0.028882073   -3.5045146    1.4115032   329329 
 4224000   0.70681149   -3.5073503   -2.0935599  0.027795926   -3.5073503    1.4137904   329256 
 4225000    0.7056117   -3.5037756   -2.0920335  0.030209881   -3.5037756    1.4117421   329174 
 4226000   0.70577348   -3.5046665   -2.0924719  0.025841229   -3.5046665    1.4121945   329144 
 4227000   0.70568641   -3.5043098   -2.0921179  0.026238844   -3.5043098    1.4121919   329104 
 4228000   0.70539084   -3.5039789   -2.0921382  0.028878384   -3.5039789    1.4118407   329048 
 4229000   0.70615865   -3.5069225   -2.0932959  0.025119357   -3.5069225    1.4136266   328990 
 4230000   0.70623259    -3.507856   -2.0936558  0.023861714    -3.507856    1.4142002   328891 
 4231000   0.70572026   -3.5070151   -2.0935056  0.023200443   -3.5070151    1.4135095   328813 
 4232000    0.7049204    -3.504985   -2.0927726  0.023572163    -3.504985    1.4122124   328742 
 4233000   0.70368397   -3.5030583   -2.0932028  0.026973534   -3.5030583    1.4098555   328714 
 4234000   0.70600122    -3.507665   -2.0929216  0.019499879    -3.507665    1.4147435   328657 
 4235000    0.7034422   -3.5027656    -2.092957   0.03197822   -3.5027656    1.4098085   328612 
 4236000   0.70337711   -3.5028628     -2.09282  0.026172122   -3.5028628    1.4100428   328527 
 4237000   0.70411629   -3.5031499   -2.0914233  0.028172425   -3.5031499    1.4117266   328480 
 4238000   0.70324747    -3.499707   -2.0895721  0.028629096    -3.499707    1.4101349   328445 
 4239000   0.70414721   -3.5015033   -2.0895385  0.027244972   -3.5015033    1.4119648   328439 
 4240000   0.70593284   -3.5026491   -2.0868925   0.02864523   -3.5026491    1.4157566   328390 
 4241000   0.70563964   -3.5025349    -2.086931  0.029781711   -3.5025349     1.415604   328289 
 4242000   0.70350914   -3.5000747   -2.0884309  0.025600803   -3.5000747    1.4116438   328216 
 4243000    0.7046521   -3.5010064   -2.0869743  0.025793322   -3.5010064     1.414032   328194 
 4244000   0.70497356   -3.5005183   -2.0856429  0.025666375   -3.5005183    1.4148754   328148 
 4245000    0.7038658   -3.4989431   -2.0863254  0.026715335   -3.4989431    1.4126177   328156 
 4246000    0.7043817   -3.4994384    -2.085432  0.020651604   -3.4994384    1.4140064   328074 
 4247000   0.70401186   -3.4995971   -2.0861091  0.026650357   -3.4995971     1.413488   328022 
 4248000   0.70175737   -3.4973845    -2.088191  0.027708129   -3.4973845    1.4091935   327968 
 4249000   0.70278685   -3.4979407   -2.0865938  0.026521216   -3.4979407    1.4113469   327948 
 4250000   0.70387883   -3.4997285    -2.085999  0.026915489   -3.4997285    1.4137295   327904 
 4251000   0.70304633   -3.4957312   -2.0833851  0.022753497   -3.4957312     1.412346   327837 
 4252000   0.70335539    -3.496664   -2.0834212  0.028083121    -3.496664    1.4132428   327773 
 4253000   0.70294715   -3.4963299   -2.0836229  0.022673803   -3.4963299     1.412707   327707 
 4254000   0.70317196   -3.4974149   -2.0838205  0.022892582   -3.4974149    1.4135944   327606 
 4255000   0.70355008   -3.4981089   -2.0833873  0.023614701   -3.4981089    1.4147216   327521 
 4256000   0.70331694   -3.4973916   -2.0829272  0.022936449   -3.4973916    1.4144645   327472 
 4257000   0.70258716   -3.4947468   -2.0815861  0.024347741   -3.4947468    1.4131608   327434 
 4258000   0.70227968   -3.4946044   -2.0818119  0.023214236   -3.4946044    1.4127925   327376 
 4259000   0.70097181    -3.491713   -2.0815084  0.030286139    -3.491713    1.4102046   327366 
 4260000   0.70170072   -3.4944591   -2.0825423  0.026151625   -3.4944591    1.4119168   327309 
 4261000   0.70087867   -3.4924389   -2.0818314  0.025763144   -3.4924389    1.4106075   327229 
 4262000   0.70102316   -3.4937765   -2.0825375  0.026162484   -3.4937765     1.411239   327150 
 4263000   0.70071681   -3.4928635   -2.0820428   0.02567893   -3.4928635    1.4108207   327104 
 4264000   0.70036653   -3.4928977   -2.0826357   0.02584127   -3.4928977     1.410262   327070 
 4265000   0.70061738    -3.493991   -2.0828442  0.023612253    -3.493991    1.4111468   326982 
 4266000   0.70118227   -3.4922451   -2.0799433  0.026481635   -3.4922451    1.4123018   326978 
 4267000   0.70196948   -3.4948491   -2.0807843  0.026481878   -3.4948491    1.4140647   326937 
 4268000   0.70001319   -3.4907955   -2.0803135  0.025164288   -3.4907955     1.410482   326854 
 4269000   0.70097201   -3.4936648   -2.0809526  0.023273889   -3.4936648    1.4127122   326785 
 4270000   0.70114773   -3.4935808   -2.0800516  0.023820778   -3.4935808    1.4135292   326678 
 4271000    0.7000871   -3.4906988   -2.0791653  0.023297989   -3.4906988    1.4115335   326645 
 4272000   0.70072822   -3.4922042   -2.0793089  0.026534246   -3.4922042    1.4128954   326629 
 4273000   0.70078949   -3.4923531   -2.0792174  0.021121487   -3.4923531    1.4131357   326602 
 4274000    0.7013572   -3.4950442   -2.0804432  0.025408849   -3.4950442     1.414601   326528 
 4275000   0.69957587   -3.4931159   -2.0817663  0.024180022   -3.4931159    1.4113496   326449 
 4276000   0.70107819   -3.4962047   -2.0817506   0.02180296   -3.4962047    1.4144541   326432 
 4277000   0.70090763   -3.4939561   -2.0795904  0.022646232   -3.4939561    1.4143656   326373 
 4278000   0.69956845   -3.4945233   -2.0825355  0.025723624   -3.4945233    1.4119878   326298 
 4279000   0.69764445   -3.4905662   -2.0822201  0.030958005   -3.4905662    1.4083461   326242 
 4280000   0.70040759   -3.4929429   -2.0788888  0.027270303   -3.4929429    1.4140542   326212 
 4281000   0.69947201   -3.4931272   -2.0807713   0.02504145   -3.4931272    1.4123558   326168 
 4282000   0.69808685   -3.4910824   -2.0812598  0.023545025   -3.4910824    1.4098226   326107 
 4283000   0.69863585   -3.4916279   -2.0803461  0.022740955   -3.4916279    1.4112819   326026 
 4284000   0.69796811   -3.4916799   -2.0815652  0.023480839   -3.4916799    1.4101147   325984 
 4285000   0.69744846   -3.4947425   -2.0853188  0.020881409   -3.4947425    1.4094237   325901 
 4286000   0.69811117   -3.4963121   -2.0852462  0.023705901   -3.4963121     1.411066   325831 
 4287000    0.6986366   -3.4943339   -2.0820802  0.025263565   -3.4943339    1.4122537   325802 
 4288000   0.69761427   -3.4934473   -2.0828835   0.02591281   -3.4934473    1.4105638   325715 
 4289000   0.69936466    -3.497171   -2.0826336  0.022808542    -3.497171    1.4145373   325615 
 4290000   0.69845925   -3.4959864   -2.0830417  0.024973394   -3.4959864    1.4129447   325560 
 4291000   0.69852424   -3.4975087   -2.0841981  0.024353403   -3.4975087    1.4133106   325506 
 4292000   0.69758052   -3.4930762   -2.0817097  0.026854308   -3.4930762    1.4113665   325514 
 4293000   0.69809388   -3.4955831   -2.0831086  0.022600297   -3.4955831    1.4124746   325498 
 4294000   0.69699861   -3.4929649   -2.0824594  0.022150983   -3.4929649    1.4105055   325441 
 4295000   0.69717454   -3.4926115    -2.081672   0.02190674   -3.4926115    1.4109395   325423 
 4296000   0.69804166   -3.4932826   -2.0803624  0.024942488   -3.4932826    1.4129202   325371 
 4297000   0.69780277   -3.4927743   -2.0798383  0.030569254   -3.4927743     1.412936   325256 
 4298000   0.69915547   -3.4938763   -2.0780315   0.02688898   -3.4938763    1.4158448   325217 
 4299000   0.69887551   -3.4943361   -2.0788058  0.028663031   -3.4943361    1.4155303   325159 
 4300000   0.69686568   -3.4913636   -2.0797478  0.028167971   -3.4913636    1.4116158   325123 
 4301000   0.69804208    -3.494236    -2.079776  0.029080402    -3.494236      1.41446   325017 
 4302000   0.69577175   -3.4888548   -2.0790777  0.029070364   -3.4888548    1.4097771   325036 
 4303000   0.69495183   -3.4882029   -2.0797535  0.026066796   -3.4882029    1.4084494   324959 
 4304000   0.69614019   -3.4913665   -2.0802741  0.025680517   -3.4913665    1.4110924   324905 
 4305000   0.69576863    -3.491379   -2.0810355  0.023249978    -3.491379    1.4103435   324904 
 4306000   0.69467537   -3.4902793   -2.0818483  0.019450445   -3.4902793    1.4084309   324834 
 4307000    0.6943079     -3.48921   -2.0812164  0.021383945     -3.48921    1.4079936   324763 
 4308000    0.6956399    -3.488936   -2.0780675  0.024508763    -3.488936    1.4108686   324723 
 4309000   0.69714603   -3.4932764   -2.0791354  0.024155771   -3.4932764     1.414141   324673 
 4310000     0.695853   -3.4883863   -2.0766768  0.027022076   -3.4883863    1.4117095   324629 
 4311000   0.69618177   -3.4887659   -2.0762546  0.025813671   -3.4887659    1.4125113   324598 
 4312000    0.6967735   -3.4894642   -2.0756173  0.027333514   -3.4894642    1.4138469   324567 
 4313000    0.6959857   -3.4872697   -2.0748995  0.026162145   -3.4872697    1.4123702   324539 
 4314000   0.69565555   -3.4890603   -2.0771033  0.025047877   -3.4890603    1.4119569   324480 
 4315000   0.69326389   -3.4860297   -2.0785801  0.028072912   -3.4860297    1.4074497   324400 
 4316000   0.69400567   -3.4893817   -2.0800915  0.026319996   -3.4893817    1.4092901   324323 
 4317000   0.69334707   -3.4885789    -2.080357   0.02577812   -3.4885789    1.4082219   324261 
 4318000   0.69500004    -3.490614   -2.0789347  0.024039003    -3.490614    1.4116793   324238 
 4319000   0.69535224   -3.4923655   -2.0796615  0.023267691   -3.4923655     1.412704   324167 
 4320000   0.69303913   -3.4891582   -2.0808104  0.026697438   -3.4891582    1.4083479   324088 
 4321000   0.69389447   -3.4892743   -2.0791621  0.028090011   -3.4892743    1.4101121   324082 
 4322000   0.69464353    -3.491083   -2.0791001   0.02599904    -3.491083    1.4119829   324002 
 4323000   0.69484335    -3.489871    -2.077434  0.023852726    -3.489871     1.412437   323991 
 4324000   0.69396732   -3.4905558   -2.0795293  0.025704224   -3.4905558    1.4110265   323906 
 4325000   0.69475654   -3.4931122   -2.0801975  0.026013634   -3.4931122    1.4129147   323841 
 4326000   0.69467336   -3.4936642    -2.080731  0.026701148   -3.4936642    1.4129332   323798 
 4327000   0.69552405   -3.4946741   -2.0798272  0.030701432   -3.4946741    1.4148469   323756 
 4328000   0.69391011   -3.4900832   -2.0782926  0.025166611   -3.4900832    1.4117906   323704 
 4329000   0.69337721   -3.4891602   -2.0783188  0.029178228   -3.4891602    1.4108415   323673 
 4330000    0.6930904   -3.4870095   -2.0765294  0.030512019   -3.4870095    1.4104801   323622 
 4331000   0.69340304   -3.4904994   -2.0791736  0.023555057   -3.4904994    1.4113257   323574 
 4332000   0.69351681   -3.4885864   -2.0769156  0.030507992   -3.4885864    1.4116707   323548 
 4333000   0.69317774   -3.4894649   -2.0781747  0.023238486   -3.4894649    1.4112902   323477 
 4334000   0.69250846   -3.4880196   -2.0777999   0.02856188   -3.4880196    1.4102197   323410 
 4335000   0.69306569   -3.4882977   -2.0770218  0.022805249   -3.4882977    1.4112759   323428 
 4336000   0.69253296   -3.4867547   -2.0764459  0.026211247   -3.4867547    1.4103088   323401 
 4337000   0.69187024   -3.4867023     -2.07773  0.021735806   -3.4867023    1.4089723   323398 
 4338000   0.69208963    -3.487443   -2.0777711  0.022718019    -3.487443    1.4096719   323340 
 4339000   0.69199926   -3.4891838   -2.0793602  0.025567117   -3.4891838    1.4098236   323263 
 4340000    0.6934902   -3.4931551   -2.0799225  0.027862809   -3.4931551    1.4132327   323178 
 4341000   0.69401176   -3.4950285   -2.0804529  0.027294239   -3.4950285    1.4145757   323114 
 4342000   0.69289352   -3.4931005   -2.0804718  0.026929213   -3.4931005    1.4126287   323038 
 4343000   0.69330778   -3.4946243   -2.0806696  0.023898646   -3.4946243    1.4139547   322928 
 4344000   0.69336054   -3.4944751   -2.0804609  0.028028075   -3.4944751    1.4140141   322939 
 4345000   0.69450737   -3.4992759   -2.0829317  0.028218566   -3.4992759    1.4163442   322941 
 4346000   0.69327612   -3.4967642   -2.0828083  0.029674572   -3.4967642    1.4139558   322913 
 4347000   0.69354046   -3.4969509   -2.0822457  0.033090177   -3.4969509    1.4147053   322865 
 4348000   0.69264271   -3.4965498   -2.0832512  0.031741396   -3.4965498    1.4132986   322768 
 4349000    0.6922294   -3.4979668   -2.0852446   0.02391216   -3.4979668    1.4127222   322707 
 4350000   0.69065311   -3.4968323    -2.087078  0.026592035   -3.4968323    1.4097543   322650 
 4351000   0.69134199   -3.4976621   -2.0862217  0.025706186   -3.4976621    1.4114404   322586 
 4352000   0.68995191   -3.4952969   -2.0863669  0.028981217   -3.4952969      1.40893   322511 
 4353000   0.69109745   -3.4979726   -2.0864407     0.026945   -3.4979726    1.4115319   322451 
 4354000   0.69232197   -3.4989752   -2.0849335  0.027260285   -3.4989752    1.4140417   322449 
 4355000   0.69253804   -3.4986221   -2.0839109  0.029324268   -3.4986221    1.4147111   322397 
 4356000    0.6926534   -3.4999447   -2.0844886  0.024485457   -3.4999447    1.4154561   322281 
 4357000   0.69220562   -3.4997805   -2.0847741  0.028118516   -3.4997805    1.4150064   322175 
 4358000   0.69116186   -3.5000184   -2.0868912  0.026738352   -3.5000184    1.4131272   322117 
 4359000    0.6906435   -3.4970679   -2.0848427  0.027138507   -3.4970679    1.4122252   322081 
 4360000   0.69207955    -3.500176   -2.0846276  0.030066525    -3.500176    1.4155484   321993 
 4361000   0.69206714   -3.4983347   -2.0827941  0.029759087   -3.4983347    1.4155406   321989 
 4362000   0.69103075   -3.4975467   -2.0837043  0.028893785   -3.4975467    1.4138423   321893 
 4363000   0.68996226   -3.4964209   -2.0843085  0.029984032   -3.4964209    1.4121124   321789 
 4364000   0.69028931    -3.496379   -2.0834567   0.02337226    -3.496379    1.4129223   321757 
 4365000   0.68888656   -3.4966668   -2.0863045  0.026835599   -3.4966668    1.4103623   321686 
 4366000   0.68906717   -3.4968771   -2.0857941  0.023183534   -3.4968771     1.411083   321606 
 4367000    0.6880753   -3.4945304   -2.0851193  0.026252475   -3.4945304    1.4094112   321524 
 4368000   0.68816885   -3.4932818   -2.0834817  0.020322551   -3.4932818    1.4098001   321479 
 4369000   0.68849549   -3.4926907   -2.0821162  0.025168263   -3.4926907    1.4105746   321455 
 4370000   0.68874562    -3.494443   -2.0830838   0.02376435    -3.494443    1.4113592   321393 
 4371000   0.69002246   -3.4968256   -2.0826255  0.030614848   -3.4968256    1.4142001   321342 
 4372000   0.68913357   -3.4945237   -2.0820179   0.03047609   -3.4945237    1.4125058   321313 
 4373000   0.68776724   -3.4935537   -2.0835632  0.026489603   -3.4935537    1.4099905   321248 
 4374000   0.68745138   -3.4923977    -2.082967  0.024484901   -3.4923977    1.4094307   321228 
 4375000   0.68732984   -3.4913227   -2.0821807  0.025389599   -3.4913227     1.409142   321237 
 4376000   0.68740511   -3.4911479   -2.0816497  0.021983326   -3.4911479    1.4094982   321191 
 4377000   0.68900802   -3.4953516   -2.0822147  0.025105017   -3.4953516    1.4131369   321111 
 4378000   0.68850209   -3.4942416   -2.0820017  0.025209472   -3.4942416      1.41224   321079 
 4379000   0.68861273   -3.4939604   -2.0813395  0.026544273   -3.4939604    1.4126209   321044 
 4380000   0.68826584   -3.4917448   -2.0795233  0.027918476   -3.4917448    1.4122216   320973 
 4381000   0.68918852   -3.4962396   -2.0818031  0.026418372   -3.4962396    1.4144365   320900 
 4382000   0.68778117   -3.4942264   -2.0821722  0.026624268   -3.4942264    1.4120542   320785 
 4383000   0.68857457    -3.494483     -2.08065  0.031869884    -3.494483    1.4138329   320751 
 4384000   0.68945184   -3.4940942   -2.0783364  0.029385251   -3.4940942    1.4157578   320723 
 4385000   0.68946739    -3.493823   -2.0777772  0.030171265    -3.493823    1.4160458   320665 
 4386000   0.68988242   -3.4941604   -2.0769263  0.032726611   -3.4941604    1.4172341   320589 
 4387000   0.68950928   -3.4953999   -2.0786893  0.024283644   -3.4953999    1.4167106   320534 
 4388000   0.68762709   -3.4929252   -2.0798791  0.025691573   -3.4929252    1.4130461   320488 
 4389000   0.68714894   -3.4917171   -2.0793407  0.025891957   -3.4917171    1.4123764   320417 
 4390000   0.68524408   -3.4886145   -2.0799819  0.029082518   -3.4886145    1.4086326   320378 
 4391000   0.68697979    -3.491014    -2.078734  0.020608307    -3.491014      1.41228   320360 
 4392000   0.68562712    -3.488939   -2.0790701  0.025638365    -3.488939    1.4098689   320276 
 4393000   0.68612882   -3.4912049   -2.0800267  0.029118652   -3.4912049    1.4111781   320213 
 4394000   0.68584305   -3.4897881   -2.0789863  0.021006632   -3.4897881    1.4108018   320165 
 4395000   0.68512643   -3.4876486   -2.0781976  0.026168605   -3.4876486     1.409451   320137 
 4396000   0.68522091    -3.487757   -2.0777108   0.02458333    -3.487757    1.4100462   320046 
 4397000   0.68456618    -3.488013   -2.0790147  0.022936593    -3.488013    1.4089982   319978 
 4398000    0.6855309   -3.4879221   -2.0768059  0.023226873   -3.4879221    1.4111162   319948 
 4399000   0.68604428    -3.488797   -2.0764431  0.025014288    -3.488797    1.4123539   319907 
 4400000   0.68553366   -3.4878451   -2.0764586  0.027598042   -3.4878451    1.4113865   319888 
 4401000   0.68613915   -3.4897537   -2.0768556  0.032870146   -3.4897537    1.4128981   319828 
 4402000   0.68731328   -3.4882505   -2.0728373  0.027992846   -3.4882505    1.4154133   319806 
 4403000   0.68729234    -3.487782   -2.0723676  0.029511803    -3.487782    1.4154144   319796 
 4404000   0.68629512   -3.4876897   -2.0740461  0.026055036   -3.4876897    1.4136436   319732 
 4405000    0.6870638   -3.4885172    -2.072998  0.029791576   -3.4885172    1.4155192   319666 
 4406000    0.6864072   -3.4895508   -2.0753535  0.025273678   -3.4895508    1.4141974   319659 
 4407000   0.68586328   -3.4877218   -2.0743709  0.026199447   -3.4877218    1.4133509   319597 
 4408000   0.68543893   -3.4861534   -2.0735046  0.025916025   -3.4861534    1.4126488   319558 
 4409000   0.68473633   -3.4862487   -2.0746592  0.026531892   -3.4862487    1.4115895   319470 
 4410000   0.68575989    -3.487947   -2.0741943  0.021354519    -3.487947    1.4137527   319458 
 4411000   0.68453515   -3.4860379   -2.0746467   0.02563947   -3.4860379    1.4113912   319421 
 4412000   0.68616307   -3.4893523   -2.0744894  0.027536015   -3.4893523    1.4148629   319395 
 4413000   0.68636554   -3.4887489   -2.0731317  0.027536753   -3.4887489    1.4156172   319319 
 4414000   0.68491405   -3.4874407   -2.0746048  0.029010122   -3.4874407    1.4128359   319271 
 4415000   0.68560841   -3.4877735   -2.0731153  0.025605519   -3.4877735    1.4146582   319183 
 4416000   0.68524304   -3.4866126   -2.0724912  0.030306317   -3.4866126    1.4141214   319134 
 4417000   0.68437154   -3.4865477   -2.0738043  0.025236325   -3.4865477    1.4127434   319039 
 4418000   0.68443254    -3.486598   -2.0735116  0.027572265    -3.486598    1.4130864   318990 
 4419000   0.68503324   -3.4880872   -2.0733303  0.026656521   -3.4880872    1.4147568   318893 
 4420000   0.68529574   -3.4876324   -2.0719206  0.025482497   -3.4876324    1.4157118   318800 
 4421000   0.68335201   -3.4839737   -2.0717768  0.033680064   -3.4839737    1.4121969   318687 
 4422000   0.68385169     -3.48713   -2.0737895  0.027537641     -3.48713    1.4133404   318662 
 4423000   0.68397724   -3.4853831   -2.0716279  0.033367156   -3.4853831    1.4137552   318627 
 4424000   0.68438354   -3.4891095   -2.0742614  0.026065251   -3.4891095    1.4148481   318570 
 4425000   0.68275688   -3.4847075   -2.0730716  0.026052682   -3.4847075    1.4116359   318536 
 4426000   0.68339079     -3.48609   -2.0728905  0.024332813     -3.48609    1.4131994   318479 
 4427000   0.68290242   -3.4839037   -2.0714969  0.030258157   -3.4839037    1.4124068   318430 
 4428000   0.68324098    -3.485181   -2.0719497  0.023526064    -3.485181    1.4132313   318402 
 4429000   0.68312894   -3.4843304   -2.0711799  0.025535431   -3.4843304    1.4131505   318368 
 4430000   0.68256221   -3.4839253   -2.0715834  0.026240443   -3.4839253    1.4123419   318286 
 4431000   0.68282336   -3.4841624   -2.0708538  0.027448518   -3.4841624    1.4133085   318190 
 4432000    0.6829356   -3.4842074   -2.0704444   0.02832332   -3.4842074     1.413763   318140 
 4433000   0.68258295   -3.4824288   -2.0692448  0.029577676   -3.4824288     1.413184   318106 
 4434000   0.68348268    -3.483619   -2.0686123  0.028726107    -3.483619    1.4150067   318115 
 4435000   0.68250572   -3.4811612   -2.0678572  0.028835638   -3.4811612     1.413304   318043 
 4436000   0.68296373   -3.4824478   -2.0681198  0.025167577   -3.4824478     1.414328   318026 
 4437000   0.68437443   -3.4848526   -2.0673848  0.024457275   -3.4848526    1.4174678   317977 
 4438000   0.68204857   -3.4808905   -2.0676889  0.034931283   -3.4808905    1.4132016   317853 
 4439000   0.68292156   -3.4810108   -2.0658445  0.028775205   -3.4810108    1.4151662   317818 
 4440000    0.6821396   -3.4797314   -2.0661856  0.026027273   -3.4797314    1.4135459   317818 
 4441000   0.68215075   -3.4802788   -2.0663494  0.025534158   -3.4802788    1.4139293   317737 
 4442000   0.68125831   -3.4804788   -2.0681192  0.023320776   -3.4804788    1.4123596   317674 
 4443000   0.68132085   -3.4779587   -2.0652649  0.026803028   -3.4779587    1.4126938   317628 
 4444000    0.6809698    -3.478435   -2.0661223  0.026186517    -3.478435    1.4123127   317550 
 4445000   0.68261678   -3.4805784   -2.0645199   0.02501549   -3.4805784    1.4160585   317476 
 4446000   0.68211645   -3.4812134   -2.0658406  0.025262701   -3.4812134    1.4153728   317397 
 4447000   0.67987675   -3.4779966   -2.0669466  0.027636971   -3.4779966      1.41105   317324 
 4448000   0.68017429   -3.4780558   -2.0661658  0.025015055   -3.4780558      1.41189   317274 
 4449000   0.67982001   -3.4794164   -2.0677502  0.021590376   -3.4794164    1.4116663   317159 
 4450000    0.6783773   -3.4748826   -2.0658701  0.025681555   -3.4748826    1.4090125   317082 
 4451000   0.67882781   -3.4776905   -2.0673909  0.021659752   -3.4776905    1.4102996   317003 
 4452000   0.67808541   -3.4747519   -2.0657769   0.02610748   -3.4747519     1.408975   316954 
 4453000   0.68107052   -3.4807791   -2.0653737  0.028055464   -3.4807791    1.4154054   316903 
 4454000   0.67971986   -3.4799794   -2.0671223  0.026868738   -3.4799794    1.4128571   316845 
 4455000   0.67906706   -3.4794873      -2.0678  0.030624954   -3.4794873    1.4116873   316803 
 4456000   0.67949143   -3.4795301   -2.0667733   0.02385759   -3.4795301    1.4127568   316761 
 4457000   0.67945317   -3.4792496   -2.0663627  0.025038066   -3.4792496    1.4128869   316714 
 4458000   0.67940432   -3.4784641   -2.0652548  0.027221313   -3.4784641    1.4132092   316619 
 4459000    0.6800213   -3.4807274   -2.0657969  0.024295078   -3.4807274    1.4149305   316521 
 4460000   0.67945305   -3.4800612   -2.0660227  0.028602174   -3.4800612    1.4140386   316456 
 4461000   0.67961379   -3.4810169   -2.0663488  0.026816019   -3.4810169    1.4146681   316390 
 4462000   0.67916888   -3.4812596   -2.0671287  0.023858026   -3.4812596    1.4141309   316303 
 4463000   0.67885424   -3.4796105   -2.0660319   0.02238943   -3.4796105    1.4135785   316280 
 4464000   0.67961333   -3.4801505   -2.0648795  0.026800653   -3.4801505    1.4152711   316255 
 4465000   0.67907056   -3.4804828    -2.066105  0.024740743   -3.4804828    1.4143778   316202 
 4466000   0.67660968   -3.4769722   -2.0674748  0.029167637   -3.4769722    1.4094974   316147 
 4467000   0.67710378   -3.4794433   -2.0686533  0.023550058   -3.4794433      1.41079   316088 
 4468000   0.67704574   -3.4779492   -2.0669499  0.028611341   -3.4779492    1.4109994   316014 
 4469000     0.678411    -3.481812   -2.0676139  0.025920216    -3.481812    1.4141982   315935 
 4470000   0.67774956   -3.4812146   -2.0682119  0.026007289   -3.4812146    1.4130027   315894 
 4471000   0.67746256   -3.4822707   -2.0694728  0.022206178   -3.4822707    1.4127979   315806 
 4472000   0.67604115   -3.4789521   -2.0688728  0.025080261   -3.4789521    1.4100793   315751 
 4473000   0.67676632   -3.4799517   -2.0681273  0.023421314   -3.4799517    1.4118243   315699 
 4474000   0.67593281   -3.4785833   -2.0682164  0.023594035   -3.4785833     1.410367   315636 
 4475000   0.67680164   -3.4792169   -2.0670908  0.026133266   -3.4792169    1.4121261   315648 
 4476000   0.67651278   -3.4787919   -2.0668659  0.029921557   -3.4787919     1.411926   315558 
 4477000   0.67581418    -3.476994    -2.066365  0.023979025    -3.476994    1.4106289   315522 
 4478000   0.67727565   -3.4798007   -2.0658703  0.022378138   -3.4798007    1.4139304   315466 
 4479000   0.67454817   -3.4768274   -2.0683767   0.02539679   -3.4768274    1.4084506   315418 
 4480000   0.67468007   -3.4795543   -2.0704887  0.022549475   -3.4795543    1.4090656   315342 
 4481000   0.67379531   -3.4764513   -2.0690015  0.024226222   -3.4764513    1.4074498   315290 
 4482000    0.6740569   -3.4781501   -2.0699395  0.017391345   -3.4781501    1.4082106   315242 
 4483000   0.67345209   -3.4780834   -2.0709086  0.024222399   -3.4780834    1.4071747   315191 
 4484000   0.67223771   -3.4746285   -2.0698174  0.022580086   -3.4746285    1.4048111   315152 
 4485000   0.67489023    -3.480064   -2.0692307  0.024336819    -3.480064    1.4108332   315045 
 4486000   0.67452668    -3.479147   -2.0688365   0.03130398    -3.479147    1.4103105   314992 
 4487000   0.67482498    -3.480468   -2.0693098  0.026856342    -3.480468    1.4111582   314942 
 4488000   0.67555356    -3.481976   -2.0691238  0.028877008    -3.481976    1.4128522   314904 
 4489000   0.67524087   -3.4814097   -2.0691083  0.026650162   -3.4814097    1.4123014   314881 
 4490000   0.67464448   -3.4799422   -2.0688165  0.023594948   -3.4799422    1.4111257   314865 
 4491000   0.67402609   -3.4789526   -2.0688426  0.022969292   -3.4789526      1.41011   314803 
 4492000    0.6737301   -3.4807962   -2.0708442  0.028079119   -3.4807962     1.409952   314700 
 4493000    0.6752689   -3.4853318   -2.0718181   0.02446311   -3.4853318    1.4135137   314624 
 4494000   0.67520476   -3.4842045   -2.0705329  0.032920608   -3.4842045    1.4136715   314559 
 4495000   0.67469264   -3.4819832   -2.0692087  0.030349365   -3.4819832    1.4127745   314520 
 4496000   0.67588754   -3.4848183   -2.0693797  0.027815323   -3.4848183    1.4154385   314484 
 4497000    0.6750961   -3.4844465   -2.0704495  0.025760164   -3.4844465    1.4139969   314436 
 4498000   0.67437365   -3.4818493   -2.0691499  0.029720345   -3.4818493    1.4126994   314388 
 4499000   0.67370673    -3.482613   -2.0709829  0.025598337    -3.482613    1.4116301   314315 
 4500000   0.67292229   -3.4802857   -2.0699807  0.026002883   -3.4802857     1.410305   314244 
 4501000   0.67371057   -3.4830966   -2.0709957  0.027168649   -3.4830966    1.4121009   314212 
 4502000   0.67435439   -3.4828924   -2.0691406  0.030472014   -3.4828924    1.4137518   314145 
 4503000   0.67502193   -3.4847184   -2.0693689  0.025606861   -3.4847184    1.4153495   314101 
 4504000   0.67307457   -3.4809439   -2.0694978  0.028205902   -3.4809439    1.4114461   314061 
 4505000     0.673313   -3.4824794    -2.070187  0.025332104   -3.4824794    1.4122924   313984 
 4506000    0.6740841   -3.4827573   -2.0685368  0.029356635   -3.4827573    1.4142206   313915 
 4507000   0.67264237   -3.4804388   -2.0691845  0.025193882   -3.4804388    1.4112543   313902 
 4508000   0.67339184   -3.4815988    -2.068655  0.024063187   -3.4815988    1.4129438   313876 
 4509000   0.67383973   -3.4823818    -2.067953  0.023330423   -3.4823818    1.4144288   313755 
 4510000   0.67317506   -3.4804471   -2.0671838  0.022242415   -3.4804471    1.4132633   313704 
 4511000   0.67180091   -3.4800514   -2.0694841  0.025208381   -3.4800514    1.4105673   313662 
 4512000   0.67233015   -3.4806039   -2.0687498  0.026660434   -3.4806039    1.4118541   313623 
 4513000   0.67396178   -3.4826477   -2.0671506  0.026770995   -3.4826477    1.4154971   313575 
 4514000   0.67399775     -3.48212   -2.0663307  0.026700655     -3.48212    1.4157893   313527 
 4515000   0.67387936   -3.4821587   -2.0661619  0.024868512   -3.4821587    1.4159968   313426 
 4516000   0.67224419   -3.4775779   -2.0649314  0.023709131   -3.4775779    1.4126465   313407 
 4517000   0.67362126   -3.4809705   -2.0651546  0.025198333   -3.4809705    1.4158158   313346 
 4518000   0.67102044    -3.474945    -2.064384  0.030412938    -3.474945     1.410561   313299 
 4519000   0.67150554   -3.4750768   -2.0633023  0.028757939   -3.4750768    1.4117745   313256 
 4520000   0.67051255   -3.4743616   -2.0644137  0.021832791   -3.4743616    1.4099479   313198 
 4521000   0.67133096   -3.4769933   -2.0651396  0.025915247   -3.4769933    1.4118537   313157 
 4522000   0.66993955   -3.4727629    -2.063651  0.020867152   -3.4727629    1.4091119   313116 
 4523000    0.6701077   -3.4735302   -2.0638845  0.027639676   -3.4735302    1.4096457   313076 
 4524000   0.67081424   -3.4735431   -2.0622443   0.02247602   -3.4735431    1.4112988   313039 
 4525000   0.67165989   -3.4777007   -2.0642164  0.023682233   -3.4777007    1.4134843   312949 
 4526000   0.67058113   -3.4752361   -2.0636387  0.026879239   -3.4752361    1.4115975   312864 
 4527000   0.67101839    -3.474562   -2.0619402  0.027280417    -3.474562    1.4126218   312841 
 4528000   0.67173792   -3.4740081   -2.0597089  0.025950209   -3.4740081    1.4142993   312805 
 4529000    0.6715385    -3.473308   -2.0594467  0.025560204    -3.473308    1.4138613   312809 
 4530000   0.67161205    -3.474286   -2.0601523  0.026911433    -3.474286    1.4141337   312783 
 4531000   0.67175479   -3.4747064   -2.0601003  0.028246248   -3.4747064    1.4146061   312745 
 4532000   0.67209967   -3.4775776   -2.0618424  0.023962413   -3.4775776    1.4157353   312656 
 4533000   0.67119871   -3.4738853   -2.0596363  0.035079936   -3.4738853    1.4142491   312565 
 4534000   0.67115588   -3.4745441    -2.060168  0.029877413   -3.4745441     1.414376   312517 
 4535000   0.67287144   -3.4788103   -2.0605103   0.02236925   -3.4788103    1.4182999   312449 
 4536000   0.67184324   -3.4758098   -2.0595502  0.026617835   -3.4758098    1.4162596   312421 
 4537000   0.67072084   -3.4741981     -2.06011    0.0287735   -3.4741981    1.4140882   312378 
 4538000   0.67048422   -3.4738398   -2.0601509  0.025454827   -3.4738398    1.4136889   312356 
 4539000   0.67102143   -3.4759851   -2.0608509    0.0243591   -3.4759851    1.4151342   312287 
 4540000   0.67047731   -3.4746758   -2.0603495  0.033185747   -3.4746758    1.4143263   312212 
 4541000   0.67179793   -3.4766805   -2.0592369  0.026427433   -3.4766805    1.4174435   312139 
 4542000   0.67203489    -3.476146   -2.0579662  0.026735213    -3.476146    1.4181797   312087 
 4543000   0.67114913   -3.4773751   -2.0606334  0.026925374   -3.4773751    1.4167418   311992 
 4544000   0.66895825   -3.4743235   -2.0619122  0.025207697   -3.4743235    1.4124113   311927 
 4545000    0.6704897   -3.4786733   -2.0626836  0.021462076   -3.4786733    1.4159897   311851 
 4546000   0.66987724    -3.475763   -2.0608444  0.030239922    -3.475763    1.4149186   311802 
 4547000   0.66875245   -3.4733917   -2.0605135  0.028605185   -3.4733917    1.4128781   311728 
 4548000   0.66819929   -3.4741605   -2.0621339  0.026710386   -3.4741605    1.4120266   311658 
 4549000   0.66820357   -3.4722541   -2.0601279   0.02238195   -3.4722541    1.4121262   311638 
 4550000   0.66933022   -3.4737018   -2.0587178   0.02673521   -3.4737018    1.4149839   311533 
 4551000   0.66803575   -3.4725596   -2.0601082  0.029777779   -3.4725596    1.4124514   311488 
 4552000   0.66866314   -3.4737279   -2.0599228  0.028788641   -3.4737279    1.4138051   311482 
 4553000   0.66987943   -3.4760012   -2.0592241  0.023821862   -3.4760012    1.4167771   311394 
 4554000   0.66882717   -3.4733645   -2.0587539    0.0230795   -3.4733645    1.4146107   311381 
 4555000   0.66665573   -3.4698411   -2.0595514  0.026909506   -3.4698411    1.4102897   311321 
 4556000   0.66814907    -3.473733   -2.0600254  0.023204187    -3.473733    1.4137076   311264 
 4557000   0.66876224   -3.4729611    -2.057847  0.025969602   -3.4729611    1.4151141   311240 
 4558000   0.66874652   -3.4728355   -2.0574181  0.031748903   -3.4728355    1.4154174   311166 
 4559000    0.6677747   -3.4699262   -2.0562022  0.028636255   -3.4699262     1.413724   311086 
 4560000   0.66680647   -3.4678792   -2.0559736  0.022836106   -3.4678792    1.4119056   311035 
 4561000   0.66663512   -3.4686549   -2.0568488  0.027857065   -3.4686549    1.4118061   310977 
 4562000   0.66892674   -3.4727733   -2.0560775  0.025732511   -3.4727733    1.4166957   310969 
 4563000   0.66844061   -3.4717239   -2.0557709  0.023331216   -3.4717239    1.4159531   310906 
 4564000   0.66870689   -3.4711328   -2.0544608  0.030876988   -3.4711328     1.416672   310872 
 4565000   0.66836665   -3.4688967   -2.0528134  0.025200269   -3.4688967    1.4160833   310843 
 4566000   0.66723679   -3.4680689   -2.0539609  0.025035886   -3.4680689     1.414108   310751 
 4567000   0.66738971   -3.4680969    -2.053469  0.031339788   -3.4680969    1.4146279   310708 
 4568000   0.66674665    -3.468291   -2.0547077  0.029496544    -3.468291    1.4135832   310638 
 4569000   0.66520269   -3.4675236   -2.0568459  0.024149921   -3.4675236    1.4106777   310557 
 4570000    0.6663716   -3.4688196   -2.0553672  0.025228684   -3.4688196    1.4134524   310492 
 4571000   0.66533455   -3.4629349   -2.0513867  0.027022804   -3.4629349    1.4115482   310427 
 4572000    0.6664026   -3.4669864   -2.0530219  0.028413088   -3.4669864    1.4139645   310394 
 4573000   0.66668637   -3.4676231   -2.0529152  0.024119304   -3.4676231    1.4147079   310363 
 4574000   0.66662941   -3.4679091   -2.0529665    0.0245286   -3.4679091    1.4149426   310285 
 4575000    0.6655513   -3.4662037   -2.0533673  0.022236023   -3.4662037    1.4128364   310245 
 4576000   0.66454701   -3.4646567   -2.0535747  0.025533867   -3.4646567     1.411082   310162 
 4577000   0.66424223   -3.4633143   -2.0527476  0.025459055   -3.4633143    1.4105667   310133 
 4578000   0.66549645   -3.4637579   -2.0501494  0.030602118   -3.4637579    1.4136085   310050 
 4579000   0.66634747   -3.4661498   -2.0503273  0.025986748   -3.4661498    1.4158226   309961 
 4580000   0.66613789   -3.4655035   -2.0498887  0.026327502   -3.4655035    1.4156148   309909 
 4581000   0.66724131   -3.4671901   -2.0489101   0.02745373   -3.4671901      1.41828   309839 
 4582000   0.66598788   -3.4666246    -2.050721  0.024504118   -3.4666246    1.4159036   309776 
 4583000   0.66449597   -3.4634282    -2.050628  0.025302753   -3.4634282    1.4128002   309761 
 4584000   0.66370775   -3.4657815   -2.0542881  0.027362138   -3.4657815    1.4114934   309680 
 4585000   0.66329845   -3.4638417   -2.0527859   0.02546655   -3.4638417    1.4110558   309585 
 4586000   0.66254036   -3.4639293   -2.0542493  0.024786706   -3.4639293    1.4096799   309533 
 4587000   0.66322609   -3.4645316   -2.0530917  0.022220168   -3.4645316    1.4114399   309467 
 4588000   0.66380829   -3.4647567    -2.051781   0.02678518   -3.4647567    1.4129757   309402 
 4589000   0.66517216   -3.4696857    -2.053546  0.025408137   -3.4696857    1.4161397   309345 
 4590000   0.66551811   -3.4702252   -2.0532024  0.028604549   -3.4702252    1.4170228   309313 
 4591000   0.66322879    -3.464883   -2.0523054  0.028265433    -3.464883    1.4125776   309219 
 4592000   0.66261794   -3.4641006   -2.0524268  0.024641585   -3.4641006    1.4116738   309132 
 4593000   0.66282098   -3.4661671   -2.0537546  0.022421403   -3.4661671    1.4124125   309065 
 4594000   0.66317202     -3.46622   -2.0529497  0.024591054     -3.46622    1.4132703   309041 
 4595000   0.66401486   -3.4649213    -2.049635  0.026038973   -3.4649213    1.4152863   308993 
 4596000   0.66404319   -3.4661306   -2.0504083  0.031131327   -3.4661306    1.4157223   308911 
 4597000   0.66489613   -3.4687244   -2.0511056  0.026931794   -3.4687244    1.4176188   308894 
 4598000   0.66417101   -3.4664868   -2.0502856  0.028732176   -3.4664868    1.4162012   308866 
 4599000   0.66280948    -3.462915   -2.0495301  0.030082903    -3.462915    1.4133849   308847 
 4600000   0.66252469   -3.4630256   -2.0498545  0.023527586   -3.4630256    1.4131711   308761 
 4601000   0.66311345   -3.4627166   -2.0480972  0.031075525   -3.4627166    1.4146194   308719 
 4602000   0.66266675   -3.4614319    -2.047596  0.026090505   -3.4614319    1.4138359   308682 
 4603000   0.66199502   -3.4596391   -2.0469115   0.02636849   -3.4596391    1.4127277   308611 
 4604000   0.66136917   -3.4597368   -2.0480794  0.028334697   -3.4597368    1.4116574   308553 
 4605000   0.66220167    -3.462904   -2.0492864  0.030054061    -3.462904    1.4136176   308513 
 4606000   0.66056083   -3.4618416   -2.0514708  0.026018968   -3.4618416    1.4103708   308457 
 4607000    0.6614098     -3.46182    -2.049545  0.026693861     -3.46182     1.412275   308437 
 4608000   0.66171906   -3.4628398   -2.0496203  0.028767568   -3.4628398    1.4132195   308375 
 4609000   0.66257438   -3.4615315   -2.0463706  0.023699167   -3.4615315    1.4151609   308350 
 4610000   0.66209058   -3.4623649   -2.0481914  0.024332765   -3.4623649    1.4141734   308340 
 4611000   0.66257588   -3.4620923   -2.0467675  0.024228343   -3.4620923    1.4153247   308315 
 4612000   0.66258756   -3.4648234   -2.0490421  0.025350869   -3.4648234    1.4157813   308221 
 4613000    0.6629047   -3.4659826   -2.0491282  0.025778859   -3.4659826    1.4168543   308135 
 4614000   0.66297445   -3.4658388   -2.0486836  0.024438934   -3.4658388    1.4171552   308102 
 4615000   0.66193185   -3.4637837   -2.0485907  0.027333188   -3.4637837    1.4151929   308044 
 4616000   0.66310082   -3.4671186   -2.0492561  0.023685856   -3.4671186    1.4178625   308007 
 4617000   0.66280647   -3.4663685   -2.0487626  0.024652746   -3.4663685    1.4176059   307926 
 4618000   0.66330379   -3.4677325   -2.0488925  0.028316414   -3.4677325      1.41884   307889 
 4619000   0.66429635   -3.4697667   -2.0483604  0.024463041   -3.4697667    1.4214064   307793 
 4620000   0.66248275    -3.467168   -2.0492783  0.030958208    -3.467168    1.4178897   307714 
 4621000   0.66208769   -3.4677399   -2.0502259  0.025687772   -3.4677399     1.417514   307612 
 4622000   0.66207103   -3.4697967   -2.0520049  0.023916832   -3.4697967    1.4177918   307544 
 4623000   0.66155398   -3.4716854   -2.0546691  0.025852134   -3.4716854    1.4170163   307472 
 4624000   0.66044334   -3.4696008    -2.054715  0.025419774   -3.4696008    1.4148859   307418 
 4625000   0.66068782   -3.4676696   -2.0522922  0.025035661   -3.4676696    1.4153774   307425 
 4626000   0.66104008   -3.4696431   -2.0532946  0.026684761   -3.4696431    1.4163486   307378 
 4627000   0.66088081   -3.4682582   -2.0520574  0.030780352   -3.4682582    1.4162008   307336 
 4628000   0.66189747   -3.4698768   -2.0511605  0.030152589   -3.4698768    1.4187164   307263 
 4629000   0.66106007   -3.4714532   -2.0540888  0.026864354   -3.4714532    1.4173643   307167 
 4630000   0.66185156   -3.4716953    -2.052523  0.026318661   -3.4716953    1.4191722   307143 
 4631000    0.6577999   -3.4633491   -2.0527222  0.029977591   -3.4633491    1.4106269   307112 
 4632000   0.65788969   -3.4654081   -2.0543636  0.022532633   -3.4654081    1.4110445   307063 
 4633000   0.66016499   -3.4696746   -2.0535978  0.020375145   -3.4696746    1.4160768   307030 
 4634000    0.6602511   -3.4679448   -2.0514434  0.027310187   -3.4679448    1.4165014   306978 
 4635000   0.66062372   -3.4680207   -2.0506275  0.024488069   -3.4680207    1.4173932   306958 
 4636000   0.66057297   -3.4678346   -2.0503286  0.023720695   -3.4678346     1.417506   306910 
 4637000   0.65997865   -3.4655112   -2.0490636  0.030790313   -3.4655112    1.4164475   306863 
 4638000    0.6600565   -3.4676581   -2.0506741  0.027708025   -3.4676581     1.416984   306783 
 4639000   0.65903126   -3.4642212   -2.0494612  0.028543857   -3.4642212      1.41476   306788 
 4640000   0.65925614   -3.4658801   -2.0502866  0.028795459   -3.4658801    1.4155935   306712 
 4641000   0.65903256   -3.4662316   -2.0507814  0.027312539   -3.4662316    1.4154503   306639 
 4642000   0.65934467   -3.4645286   -2.0482602  0.029535829   -3.4645286    1.4162684   306607 
 4643000   0.65934985   -3.4663442   -2.0498798  0.021424167   -3.4663442    1.4164643   306567 
 4644000   0.65755384    -3.463845   -2.0509163  0.028520611    -3.463845    1.4129286   306497 
 4645000   0.65793688   -3.4671061   -2.0529761   0.02350948   -3.4671061      1.41413   306415 
 4646000   0.65877691    -3.466774   -2.0507091  0.028063063    -3.466774    1.4160649   306387 
 4647000   0.65831386    -3.467009   -2.0516483  0.029332001    -3.467009    1.4153606   306324 
 4648000   0.65815392   -3.4674557   -2.0521987  0.029216769   -3.4674557     1.415257   306272 
 4649000   0.65794323   -3.4663939   -2.0512388  0.027204576   -3.4663939    1.4151551   306196 
 4650000   0.65790048   -3.4668166   -2.0516333  0.025841646   -3.4668166    1.4151833   306170 
 4651000   0.65761783   -3.4666667   -2.0518927  0.026804696   -3.4666667     1.414774   306127 
 4652000   0.65678543   -3.4665714   -2.0531172  0.025212646   -3.4665714    1.4134542   306025 
 4653000   0.65633371    -3.464628   -2.0520213  0.028365064    -3.464628    1.4126067   305998 
 4654000    0.6570825   -3.4667087   -2.0522269  0.029469617   -3.4667087    1.4144818   305941 
 4655000    0.6572275   -3.4665702   -2.0513137  0.025710603   -3.4665702    1.4152565   305841 
 4656000   0.65849844   -3.4685367   -2.0503394  0.022135798   -3.4685367    1.4181973   305797 
 4657000   0.65794198   -3.4683552   -2.0509113  0.029980924   -3.4683552    1.4174439   305701 
 4658000   0.65752012   -3.4680434    -2.051068  0.028486883   -3.4680434    1.4169754   305606 
 4659000   0.65702604   -3.4673035   -2.0510361   0.02680398   -3.4673035    1.4162674   305529 
 4660000   0.65665207   -3.4639526   -2.0483337  0.029428446   -3.4639526    1.4156189   305495 
 4661000    0.6574831   -3.4658798    -2.048372  0.027984724   -3.4658798    1.4175079   305474 
 4662000   0.65683732   -3.4623282   -2.0461431    0.0291894   -3.4623282    1.4161851   305459 
 4663000   0.65584447   -3.4624155   -2.0481025  0.025377119   -3.4624155     1.414313   305401 
 4664000    0.6543675   -3.4583277   -2.0469363  0.022469849   -3.4583277    1.4113914   305344 
 4665000   0.65427096   -3.4572524   -2.0458612  0.030404039   -3.4572524    1.4113912   305299 
 4666000   0.65562395   -3.4601647   -2.0455166  0.022224799   -3.4601647    1.4146481   305226 
 4667000   0.65484513   -3.4590514   -2.0458755  0.024977584   -3.4590514     1.413176   305181 
 4668000   0.65526312   -3.4590991   -2.0449238  0.028881242   -3.4590991    1.4141753   305160 
 4669000   0.65516533   -3.4569786   -2.0428428  0.030171102   -3.4569786    1.4141357   305123 
 4670000    0.6549857    -3.456296    -2.042321  0.026968457    -3.456296    1.4139751   305074 
 4671000   0.65519529   -3.4581082   -2.0434812  0.019272663   -3.4581082    1.4146269   305031 
 4672000   0.65600508   -3.4561446   -2.0396764  0.024166969   -3.4561446    1.4164682   305011 
 4673000   0.65696571   -3.4574133   -2.0386336   0.02920977   -3.4574133    1.4187797   304960 
 4674000   0.65575426   -3.4545328   -2.0381604  0.029313023   -3.4545328    1.4163724   304915 
 4675000   0.65527642   -3.4551165   -2.0392933  0.031731553   -3.4551165    1.4158232   304811 
 4676000    0.6552225   -3.4562845   -2.0400621  0.026511148   -3.4562845    1.4162225   304700 
 4677000   0.65481296   -3.4571013   -2.0415549  0.022900783   -3.4571013    1.4155463   304655 
 4678000   0.65374094   -3.4558807   -2.0424291   0.02023097   -3.4558807    1.4134516   304607 
 4679000   0.65418577   -3.4574421   -2.0425318  0.024847923   -3.4574421    1.4149104   304500 
 4680000   0.65471349   -3.4578328   -2.0416043  0.025109529   -3.4578328    1.4162285   304462 
 4681000   0.65498613   -3.4593758    -2.042148  0.029873341   -3.4593758    1.4172279   304374 
 4682000    0.6557132    -3.460676   -2.0415065   0.02784332    -3.460676    1.4191694   304295 
 4683000    0.6560746   -3.4599428   -2.0397859  0.027395225   -3.4599428     1.420157   304251 
 4684000   0.65535565   -3.4587605    -2.039768  0.025373569   -3.4587605    1.4189925   304167 
 4685000   0.65547669   -3.4623296   -2.0427577  0.027089396   -3.4623296    1.4195719   304099 
 4686000    0.6539933   -3.4573656   -2.0408666  0.033500029   -3.4573656     1.416499   304069 
 4687000     0.654361   -3.4598155   -2.0421005  0.030882346   -3.4598155    1.4177151   303979 
 4688000   0.65352991   -3.4591452   -2.0431003  0.023922047   -3.4591452    1.4160449   303951 
 4689000    0.6527642   -3.4564622   -2.0419647  0.027963496   -3.4564622    1.4144975   303927 
 4690000   0.65236273   -3.4578204   -2.0437369  0.022104849   -3.4578204    1.4140835   303829 
 4691000   0.65323897   -3.4583071   -2.0420865  0.022085483   -3.4583071    1.4162206   303778 
 4692000    0.6531953    -3.458661   -2.0419988  0.027616512    -3.458661    1.4166622   303663 
 4693000   0.65218557   -3.4563504   -2.0416033  0.023615282   -3.4563504    1.4147472   303604 
 4694000     0.652879   -3.4567827   -2.0404753  0.023215036   -3.4567827    1.4163073   303592 
 4695000   0.65329174     -3.45823   -2.0407285  0.025206444     -3.45823    1.4175015   303528 
 4696000   0.65173405   -3.4557372   -2.0412893  0.022620818   -3.4557372    1.4144479   303458 
 4697000   0.65115771    -3.456901   -2.0435549  0.024183857    -3.456901    1.4133461   303426 
 4698000   0.65216696   -3.4592402   -2.0434936  0.026332364   -3.4592402    1.4157467   303381 
 4699000   0.65180726   -3.4570803    -2.041914  0.031090043   -3.4570803    1.4151664   303338 
 4700000   0.65075673   -3.4559081   -2.0427197  0.026661027   -3.4559081    1.4131884   303273 
 4701000   0.65213749    -3.458059   -2.0416854  0.027490869    -3.458059    1.4163736   303233 
 4702000   0.65253747   -3.4560762   -2.0387076  0.030005619   -3.4560762    1.4173686   303206 
 4703000   0.65193083   -3.4567743   -2.0405365  0.026671506   -3.4567743    1.4162377   303166 
 4704000   0.65232006   -3.4567844   -2.0394861  0.030197532   -3.4567844    1.4172983   303120 
 4705000   0.65109627   -3.4555722   -2.0406387  0.025887005   -3.4555722    1.4149335   303057 
 4706000   0.65044912   -3.4550643   -2.0410892  0.024944927   -3.4550643     1.413975   302961 
 4707000   0.64898529     -3.45265   -2.0414286  0.026033607     -3.45265    1.4112214   302869 
 4708000   0.64895962   -3.4523721   -2.0409455    0.0235976   -3.4523721    1.4114266   302813 
 4709000   0.65037784    -3.453992   -2.0392006  0.022097329    -3.453992    1.4147914   302753 
 4710000   0.64935457   -3.4508085   -2.0378043  0.027683625   -3.4508085    1.4130042   302659 
 4711000   0.65153392    -3.454874   -2.0370057  0.024011359    -3.454874    1.4178682   302633 
 4712000   0.65053759   -3.4538476   -2.0379885  0.025843524   -3.4538476    1.4158591   302599 
 4713000   0.65125747    -3.454557   -2.0371218  0.022908885    -3.454557    1.4174353   302597 
 4714000   0.65217962   -3.4558692    -2.036183  0.028143751   -3.4558692    1.4196862   302545 
 4715000   0.65089796    -3.457395    -2.040138  0.025233882    -3.457395     1.417257   302468 
 4716000   0.64964088   -3.4544954   -2.0398867  0.021741423   -3.4544954    1.4146087   302449 
 4717000   0.64923188   -3.4555219   -2.0414906  0.022852547   -3.4555219    1.4140313   302382 
 4718000   0.64890235   -3.4528255   -2.0394184  0.025387189   -3.4528255    1.4134071   302362 
 4719000   0.64910119   -3.4531302   -2.0388831  0.025198243   -3.4531302    1.4142471   302275 
 4720000   0.65087662   -3.4581424   -2.0395014   0.02735032   -3.4581424     1.418641   302163 
 4721000   0.65041901   -3.4579049   -2.0401627  0.031900455   -3.4579049    1.4177422   302142 
 4722000   0.65005535   -3.4562549   -2.0390193  0.031083804   -3.4562549    1.4172356   302081 
 4723000   0.64993621   -3.4550324   -2.0378642  0.028907264   -3.4550324    1.4171682   302040 
 4724000   0.64990048   -3.4551305   -2.0379323  0.026974634   -3.4551305    1.4171982   302017 
 4725000   0.64992182   -3.4534542   -2.0359231  0.026459795   -3.4534542    1.4175311   301956 
 4726000   0.64989904   -3.4525058   -2.0347709  0.028227206   -3.4525058    1.4177349   301902 
 4727000   0.64944801   -3.4544601   -2.0372678  0.028961369   -3.4544601    1.4171923   301808 
 4728000   0.64904154   -3.4552509   -2.0384809  0.023820212   -3.4552509      1.41677   301709 
 4729000   0.64850964   -3.4540031   -2.0381689  0.029246373   -3.4540031    1.4158342   301661 
 4730000   0.64768559   -3.4535059   -2.0391613  0.027293739   -3.4535059    1.4143446   301595 
 4731000   0.64711664   -3.4532664   -2.0397143  0.023013935   -3.4532664    1.4135521   301499 
 4732000   0.64708466   -3.4513295   -2.0376784   0.02661662   -3.4513295    1.4136511   301463 
 4733000   0.64806995    -3.453112   -2.0369091  0.026770913    -3.453112    1.4162029   301378 
 4734000   0.64762566   -3.4526951   -2.0371625  0.029980353   -3.4526951    1.4155326   301314 
 4735000   0.64706353   -3.4545065   -2.0397894  0.027736442   -3.4545065    1.4147171   301226 
 4736000   0.64564161    -3.451071   -2.0392518  0.029838862    -3.451071    1.4118192   301181 
 4737000   0.64578671   -3.4525035    -2.039898  0.021002826   -3.4525035    1.4126055   301081 
 4738000   0.64668422   -3.4543661   -2.0395671  0.025264491   -3.4543661     1.414799   301032 
 4739000   0.64762741    -3.455532   -2.0385001  0.029899535    -3.455532    1.4170319   300996 
 4740000   0.64660695   -3.4547744   -2.0397496  0.026516582   -3.4547744    1.4150248   300948 
 4741000    0.6469229   -3.4553785   -2.0393518  0.033527054   -3.4553785    1.4160267   300882 
 4742000   0.64588541   -3.4543003   -2.0401544  0.027423405   -3.4543003    1.4141459   300799 
 4743000   0.64474103   -3.4553071   -2.0430658  0.026167306   -3.4553071    1.4122413   300671 
 4744000   0.64400566   -3.4545167    -2.043675  0.025556133   -3.4545167    1.4108417   300626 
 4745000   0.64462882   -3.4556499   -2.0430013  0.023998016   -3.4556499    1.4126485   300532 
 4746000   0.64585317    -3.456522   -2.0410303  0.025013207    -3.456522    1.4154918   300498 
 4747000   0.64608242   -3.4552343   -2.0390469   0.03102442   -3.4552343    1.4161874   300457 
 4748000   0.64476052   -3.4548517    -2.041303   0.02989004   -3.4548517    1.4135486   300402 
 4749000   0.64437385   -3.4567135   -2.0434575   0.02789639   -3.4567135     1.413256   300284 
 4750000   0.64496975   -3.4573436   -2.0425733  0.026294543   -3.4573436    1.4147703   300240 
 4751000   0.64612479   -3.4595996   -2.0420266  0.023005875   -3.4595996     1.417573   300183 
 4752000   0.64509928   -3.4582109   -2.0425058  0.025085147   -3.4582109    1.4157051   300102 
 4753000   0.64488535   -3.4568993   -2.0414325  0.028718615   -3.4568993    1.4154667   300053 
 4754000   0.64342334   -3.4561606   -2.0434131  0.025538909   -3.4561606    1.4127474   299949 
 4755000   0.64466599   -3.4606009   -2.0447002  0.023784827   -3.4606009    1.4159007   299859 
 4756000   0.64380295   -3.4584628   -2.0441463  0.023367052   -3.4584628    1.4143165   299793 
 4757000   0.64293741   -3.4578733   -2.0450577  0.027986089   -3.4578733    1.4128156   299708 
 4758000   0.64331023    -3.458731   -2.0447705   0.02742109    -3.458731    1.4139604   299639 
 4759000   0.64429601   -3.4599152    -2.043443  0.022046318   -3.4599152    1.4164722   299566 
 4760000   0.64457868   -3.4603259   -2.0430478   0.02547161   -3.4603259    1.4172782   299527 
 4761000   0.64348027    -3.460679   -2.0454711  0.025168991    -3.460679    1.4152079   299454 
 4762000   0.64406496   -3.4586424    -2.042158  0.023175325   -3.4586424    1.4164844   299456 
 4763000   0.64347508   -3.4592369   -2.0438324  0.028721932   -3.4592369    1.4154045   299410 
 4764000     0.642344   -3.4564176   -2.0432982  0.027649043   -3.4564176    1.4131195   299367 
 4765000   0.64235901   -3.4541908   -2.0408967  0.024867722   -3.4541908    1.4132941   299337 
 4766000   0.64102957   -3.4551908   -2.0441475  0.027132326   -3.4551908    1.4110432   299194 
 4767000   0.64266131   -3.4569272    -2.042155  0.023603724   -3.4569272    1.4147721   299165 
 4768000   0.64240702   -3.4547378   -2.0405065  0.028844743   -3.4547378    1.4142313   299161 
 4769000   0.64329797   -3.4543011   -2.0379428  0.029736818   -3.4543011    1.4163584   299126 
 4770000   0.64330916   -3.4531557   -2.0367822  0.024172396   -3.4531557    1.4163735   299128 
 4771000   0.64203175   -3.4515276   -2.0375931  0.023745417   -3.4515276    1.4139345   299049 
 4772000   0.64210713   -3.4516405   -2.0372752  0.026230774   -3.4516405    1.4143653   298993 
 4773000   0.64238109   -3.4518545   -2.0366111  0.026168735   -3.4518545    1.4152433   298935 
 4774000    0.6411279   -3.4496337   -2.0369245  0.024463107   -3.4496337    1.4127092   298887 
 4775000   0.64179239   -3.4501845   -2.0358313  0.025079245   -3.4501845    1.4143532   298849 
 4776000   0.63997877   -3.4460675   -2.0353381  0.026928368   -3.4460675    1.4107294   298770 
 4777000   0.63897205    -3.444116   -2.0354549  0.025005357    -3.444116    1.4086611   298738 
 4778000   0.63958098   -3.4449896   -2.0348586   0.02497115   -3.4449896     1.410131   298711 
 4779000   0.64034029   -3.4470305   -2.0348566  0.022233761   -3.4470305    1.4121739   298633 
 4780000   0.64171293   -3.4504429    -2.035076  0.025432642   -3.4504429    1.4153669   298598 
 4781000   0.64111207   -3.4472726   -2.0329326  0.027283278   -3.4472726      1.41434   298535 
 4782000    0.6415611   -3.4489772   -2.0332815  0.027011335   -3.4489772    1.4156958   298458 
 4783000   0.64068029   -3.4476577   -2.0335692  0.026801046   -3.4476577    1.4140885   298387 
 4784000   0.64041352   -3.4470503   -2.0335174  0.025168448   -3.4470503    1.4135329   298380 
 4785000   0.64058715     -3.44799   -2.0337847  0.024443764     -3.44799    1.4142052   298319 
 4786000   0.64047343   -3.4481989   -2.0339129  0.026350409   -3.4481989     1.414286   298249 
 4787000   0.63942343   -3.4461346   -2.0340014  0.030025769   -3.4461346    1.4121332   298214 
 4788000   0.63911469   -3.4476233   -2.0358216  0.026166447   -3.4476233    1.4118016   298140 
 4789000   0.63873128   -3.4485791   -2.0370515  0.025905508   -3.4485791    1.4115276   298019 
 4790000    0.6375551   -3.4468554    -2.037946  0.026004388   -3.4468554    1.4089094   298023 
 4791000   0.63940491   -3.4495072    -2.036344  0.025439271   -3.4495072    1.4131632   297988 
 4792000   0.63877911   -3.4462856   -2.0340695  0.025667327   -3.4462856    1.4122161   297896 
 4793000   0.63992249   -3.4492656   -2.0341417  0.026734279   -3.4492656     1.415124   297816 
 4794000   0.64049659   -3.4521713   -2.0355019  0.033617218   -3.4521713    1.4166694   297758 
 4795000   0.63993152   -3.4508093   -2.0351806  0.029732328   -3.4508093    1.4156288   297714 
 4796000   0.63919424   -3.4512587   -2.0371279  0.027285386   -3.4512587    1.4141308   297686 
 4797000   0.63966428   -3.4517564   -2.0363813  0.027615213   -3.4517564    1.4153751   297643 
 4798000   0.63912046   -3.4501726   -2.0356729  0.026961667   -3.4501726    1.4144997   297574 
 4799000   0.63979494    -3.453236   -2.0368198  0.027940947    -3.453236    1.4164161   297485 
 4800000   0.63870891   -3.4509172   -2.0366154   0.02327152   -3.4509172    1.4143018   297424 
 4801000   0.63915088   -3.4517492   -2.0362355  0.024320358   -3.4517492    1.4155137   297375 
 4802000   0.63820551    -3.448812   -2.0352067  0.024889073    -3.448812    1.4136054   297336 
 4803000   0.63800842   -3.4481171   -2.0349673  0.027202044   -3.4481171    1.4131498   297340 
 4804000   0.63884737   -3.4485452   -2.0333039  0.025236444   -3.4485452    1.4152413   297291 
 4805000    0.6386278   -3.4505019   -2.0352424   0.02337647   -3.4505019    1.4152595   297185 
 4806000   0.63780206   -3.4473557   -2.0338786  0.028467463   -3.4473557    1.4134771   297175 
 4807000   0.63914302   -3.4509786   -2.0343247  0.024679179   -3.4509786    1.4166539   297132 
 4808000   0.63770331   -3.4510175   -2.0370598  0.029162049   -3.4510175    1.4139577   297028 
 4809000    0.6393541   -3.4544961   -2.0364629  0.025032271   -3.4544961    1.4180333   296941 
 4810000   0.63816856   -3.4525358   -2.0369603  0.029339752   -3.4525358    1.4155755   296905 
 4811000   0.63881311   -3.4534131   -2.0359782  0.022672266   -3.4534131    1.4174349   296815 
 4812000   0.63862933   -3.4541373   -2.0366088  0.027846322   -3.4541373    1.4175285   296710 
 4813000   0.63956895   -3.4561675   -2.0362184  0.030818385   -3.4561675    1.4199491   296640 
 4814000   0.63794802   -3.4547506   -2.0379895  0.029836308   -3.4547506    1.4167612   296554 
 4815000   0.63748254   -3.4552051   -2.0390384  0.026541725   -3.4552051    1.4161667   296462 
 4816000    0.6378642   -3.4536825   -2.0366249  0.021666408   -3.4536825    1.4170576   296453 
 4817000   0.63754609   -3.4519703   -2.0352227  0.028832226   -3.4519703    1.4167476   296370 
 4818000    0.6365746   -3.4517209   -2.0368123  0.031654832   -3.4517209    1.4149086   296303 
 4819000   0.63701974   -3.4500912   -2.0340546  0.028489524   -3.4500912    1.4160366   296274 
 4820000   0.63700315   -3.4517254   -2.0354054  0.024612155   -3.4517254      1.41632   296207 
 4821000   0.63669517   -3.4522015   -2.0362411  0.032223451   -3.4522015    1.4159603   296139 
 4822000   0.63654411   -3.4528486   -2.0371859  0.024272464   -3.4528486    1.4156626   296131 
 4823000   0.63692421   -3.4505626   -2.0339446  0.027859275   -3.4505626     1.416618   296108 
 4824000   0.63595628   -3.4479432   -2.0331579   0.02945371   -3.4479432    1.4147853   296041 
 4825000   0.63580364   -3.4481488   -2.0331343  0.025258038   -3.4481488    1.4150145   295922 
 4826000   0.63626945   -3.4464127   -2.0303233  0.025265824   -3.4464127    1.4160895   295914 
 4827000    0.6351167   -3.4453141   -2.0315992  0.025025966   -3.4453141     1.413715   295874 
 4828000   0.63654446   -3.4459442    -2.028941  0.024091848   -3.4459442    1.4170032   295851 
 4829000   0.63496293   -3.4456117   -2.0316608  0.028094112   -3.4456117    1.4139509   295753 
 4830000   0.63725345    -3.447114   -2.0280097  0.023407476    -3.447114    1.4191043   295742 
 4831000   0.63682488   -3.4452308   -2.0269035  0.030154318   -3.4452308    1.4183274   295705 
 4832000   0.63560822   -3.4424471   -2.0263936  0.024889337   -3.4424471    1.4160534   295614 
 4833000   0.63372415   -3.4409472   -2.0286804  0.028349214   -3.4409472    1.4122668   295528 
 4834000   0.63356584   -3.4410998   -2.0291237  0.026622001   -3.4410998    1.4119761   295515 
 4835000   0.63365438   -3.4402334   -2.0279787  0.027072625   -3.4402334    1.4122547   295498 
 4836000   0.63481476   -3.4423822   -2.0273689  0.024193856   -3.4423822    1.4150133   295462 
 4837000   0.63524304   -3.4418952   -2.0257547  0.025406692   -3.4418952    1.4161405   295426 
 4838000   0.63520207   -3.4413379   -2.0249148  0.027949865   -3.4413379    1.4164231   295348 
 4839000   0.63595531   -3.4407265   -2.0222396  0.029135772   -3.4407265     1.418487   295268 
 4840000   0.63544452    -3.441172    -2.023445  0.028872282    -3.441172     1.417727   295189 
 4841000   0.63553996   -3.4415154   -2.0236715   0.02756322   -3.4415154    1.4178438   295209 
 4842000   0.63393993   -3.4403028   -2.0256548  0.026039994   -3.4403028    1.4146481   295131 
 4843000   0.63448947   -3.4421421   -2.0257638   0.02521951   -3.4421421    1.4163783   295026 
 4844000   0.63367025   -3.4377579   -2.0231939  0.027979517   -3.4377579    1.4145639   295023 
 4845000   0.63382308   -3.4390188   -2.0238834  0.026642649   -3.4390188    1.4151353   294975 
 4846000   0.63500511   -3.4422708   -2.0243522  0.026332123   -3.4422708    1.4179186   294945 
 4847000   0.63581852    -3.441508   -2.0215709  0.029822298    -3.441508    1.4199371   294903 
 4848000   0.63560557   -3.4417942   -2.0220678  0.031407077   -3.4417942    1.4197263   294848 
 4849000   0.63442914   -3.4408295   -2.0232886  0.030297108   -3.4408295    1.4175409   294756 
 4850000   0.63403933   -3.4422207   -2.0253633  0.030494448   -3.4422207    1.4168574   294717 
 4851000   0.63340087   -3.4397879   -2.0241267  0.022400919   -3.4397879    1.4156612   294669 
 4852000   0.63247438   -3.4389434   -2.0250938   0.02691869   -3.4389434    1.4138496   294615 
 4853000   0.63471413   -3.4440552    -2.024905  0.022252091   -3.4440552    1.4191502   294554 
 4854000    0.6354494    -3.443201   -2.0222669   0.02494493    -3.443201    1.4209341   294525 
 4855000    0.6349653   -3.4425104    -2.022355  0.027639734   -3.4425104    1.4201554   294462 
 4856000   0.63474896   -3.4437697   -2.0238812  0.027279523   -3.4437697    1.4198885   294417 
 4857000   0.63376512   -3.4394991   -2.0215224  0.028027001   -3.4394991    1.4179767   294357 
 4858000   0.63377938   -3.4429789   -2.0246667  0.027721397   -3.4429789    1.4183122   294294 
 4859000   0.63187966   -3.4406104    -2.026165  0.027073933   -3.4406104    1.4144454   294214 
 4860000   0.63252433   -3.4389318   -2.0226872  0.029774219   -3.4389318    1.4162447   294140 
 4861000   0.63341657   -3.4411661   -2.0225813  0.033836759   -3.4411661    1.4185848   294069 
 4862000   0.63475766   -3.4457727   -2.0237057  0.028807925   -3.4457727     1.422067   293970 
 4863000   0.63235273   -3.4386907   -2.0218958  0.027006649   -3.4386907    1.4167949   293946 
 4864000   0.63217762   -3.4395376   -2.0227398  0.023619405   -3.4395376    1.4167978   293864 
 4865000   0.63178215    -3.438819   -2.0225123  0.021699957    -3.438819    1.4163067   293782 
 4866000   0.63209929    -3.437776   -2.0203773   0.02603359    -3.437776    1.4173988   293703 
 4867000   0.63214385   -3.4370667   -2.0194908  0.028779424   -3.4370667    1.4175759   293687 
 4868000   0.63211353   -3.4393278   -2.0216268  0.026363369   -3.4393278     1.417701   293647 
 4869000    0.6318235   -3.4394468   -2.0221211  0.024776241   -3.4394468    1.4173257   293590 
 4870000   0.63095993   -3.4387366   -2.0230009  0.028009884   -3.4387366    1.4157357   293518 
 4871000   0.63009491   -3.4363117   -2.0224061  0.026200701   -3.4363117    1.4139055   293495 
 4872000    0.6322794    -3.439261   -2.0204246  0.023530327    -3.439261    1.4188365   293489 
 4873000   0.63180298   -3.4369161   -2.0191584  0.030125683   -3.4369161    1.4177577   293491 
 4874000    0.6321439   -3.4366239   -2.0178547  0.025377109   -3.4366239    1.4187693   293440 
 4875000   0.63149652   -3.4351002   -2.0176197  0.024868431   -3.4351002    1.4174805   293406 
 4876000   0.63193766   -3.4349556   -2.0161415  0.029995049   -3.4349556    1.4188141   293335 
 4877000   0.63210662     -3.43533   -2.0161027  0.027668937     -3.43533    1.4192273   293328 
 4878000   0.63274768   -3.4355278   -2.0147207  0.026898804   -3.4355278    1.4208071   293299 
 4879000   0.63194159   -3.4351548   -2.0160271  0.031696662   -3.4351548    1.4191277   293272 
 4880000   0.62963925   -3.4302126   -2.0159803  0.028603571   -3.4302126    1.4142323   293215 
 4881000   0.63063036   -3.4308955   -2.0142148  0.027923108   -3.4308955    1.4166807   293169 
 4882000   0.63077327   -3.4328792   -2.0156648  0.026734423   -3.4328792    1.4172144   293125 
 4883000    0.6297367   -3.4305748   -2.0154142    0.0293577   -3.4305748    1.4151606   293068 
 4884000   0.63086538   -3.4337647   -2.0160628  0.025782328   -3.4337647    1.4177019   293067 
 4885000   0.63123188   -3.4348561   -2.0158077  0.029181869   -3.4348561    1.4190484   292959 
 4886000   0.63142944   -3.4353216   -2.0156449  0.025334765   -3.4353216    1.4196767   292921 
 4887000   0.63162198   -3.4347167   -2.0143161  0.026652332   -3.4347167    1.4204005   292861 
 4888000   0.63079146   -3.4331297   -2.0143061  0.027487955   -3.4331297    1.4188235   292801 
 4889000   0.62917649   -3.4303772   -2.0148188  0.024893052   -3.4303772    1.4155584   292725 
 4890000   0.62897669   -3.4314509   -2.0160326  0.022036052   -3.4314509    1.4154184   292661 
 4891000   0.62946821   -3.4338383   -2.0170814  0.025918044   -3.4338383    1.4167568   292613 
 4892000   0.63003231   -3.4346845   -2.0163769  0.026755762   -3.4346845    1.4183076   292555 
 4893000    0.6293818   -3.4332315   -2.0162963  0.030634018   -3.4332315    1.4169352   292536 
 4894000   0.62889263   -3.4338262   -2.0176098  0.023449486   -3.4338262    1.4162164   292457 
 4895000   0.62951039   -3.4336879   -2.0158476  0.025931608   -3.4336879    1.4178403   292409 
 4896000   0.62944563   -3.4335127   -2.0157068  0.028728804   -3.4335127    1.4178059   292386 
 4897000   0.62847761    -3.431575   -2.0156686  0.029634767    -3.431575    1.4159063   292328 
 4898000   0.62922939   -3.4309243   -2.0129557  0.027537069   -3.4309243    1.4179687   292252 
 4899000   0.63004674   -3.4326025    -2.012515  0.023555434   -3.4326025    1.4200876   292195 
 4900000   0.63021372   -3.4343766   -2.0136501  0.030403051   -3.4343766    1.4207265   292141 
 4901000   0.62872379   -3.4343649   -2.0165411  0.031461253   -3.4343649    1.4178238   292047 
 4902000   0.62911262   -3.4344475   -2.0154747  0.032739521   -3.4344475    1.4189728   291991 
 4903000   0.62965336   -3.4358326   -2.0152802  0.027441234   -3.4358326    1.4205524   291917 
 4904000   0.62896909    -3.433708    -2.014427  0.028341242    -3.433708    1.4192809   291861 
 4905000   0.62717267   -3.4312755   -2.0157524  0.027962873   -3.4312755    1.4155231   291800 
 4906000   0.62655338   -3.4297371   -2.0155681  0.028002644   -3.4297371     1.414169   291791 
 4907000   0.62782732   -3.4317336    -2.014495  0.029573975   -3.4317336    1.4172387   291751 
 4908000    0.6283617   -3.4343426   -2.0155573  0.024003461   -3.4343426    1.4187854   291681 
 4909000   0.62657983   -3.4298606    -2.014759  0.025377489   -3.4298606    1.4151017   291611 
 4910000   0.62602017   -3.4281602   -2.0139491   0.02572226   -3.4281602    1.4142111   291534 
 4911000   0.62566437   -3.4278177   -2.0139787  0.020112843   -3.4278177     1.413839   291445 
 4912000   0.62550459   -3.4265759   -2.0126808   0.02483434   -3.4265759    1.4138951   291359 
 4913000   0.62596877   -3.4275308   -2.0123533  0.027150539   -3.4275308    1.4151775   291311 
 4914000   0.62667765   -3.4292622    -2.011942  0.026046407   -3.4292622    1.4173202   291200 
 4915000   0.62636833   -3.4259662   -2.0093018  0.026179515   -3.4259662    1.4166644   291191 
 4916000   0.62648354   -3.4248655   -2.0076096  0.027260236   -3.4248655    1.4172559   291123 
 4917000   0.62630669   -3.4256053   -2.0084331     0.025989   -3.4256053    1.4171723   291058 
 4918000   0.62590355   -3.4264213   -2.0099082  0.025463728   -3.4264213    1.4165131   291006 
 4919000   0.62611659   -3.4242347   -2.0069862  0.030887024   -3.4242347    1.4172485   290954 
 4920000   0.62669578   -3.4257127   -2.0069045   0.02583045   -3.4257127    1.4188083   290903 
 4921000   0.62605219   -3.4248126   -2.0069984  0.029347787   -3.4248126    1.4178142   290808 
 4922000   0.62595193   -3.4246249   -2.0067648  0.025842199   -3.4246249    1.4178602   290752 
 4923000   0.62470387   -3.4234449   -2.0081635  0.032296778   -3.4234449    1.4152814   290701 
 4924000   0.62416718   -3.4248067   -2.0106244   0.02343594   -3.4248067    1.4141823   290677 
 4925000   0.62514438   -3.4264681   -2.0095648  0.025867323   -3.4264681    1.4169033   290573 
 4926000   0.62380325   -3.4255136   -2.0111974  0.023761602   -3.4255136    1.4143162   290480 
 4927000   0.62471335   -3.4261214   -2.0093711  0.027521622   -3.4261214    1.4167503   290404 
 4928000   0.62630502   -3.4310328   -2.0102423  0.026781029   -3.4310328    1.4207905   290316 
 4929000   0.62519155   -3.4288793   -2.0102531  0.031762995   -3.4288793    1.4186262   290242 
 4930000   0.62657377   -3.4330717   -2.0109318  0.026194149   -3.4330717    1.4221399   290165 
 4931000   0.62391837   -3.4279272   -2.0116825   0.02761312   -3.4279272    1.4162447   290138 
 4932000   0.62527525   -3.4307497   -2.0111216   0.02445828   -3.4307497    1.4196281   290076 
 4933000   0.62267946   -3.4276175   -2.0134345  0.029545556   -3.4276175    1.4141831   289984 
 4934000    0.6240812   -3.4298779   -2.0121886  0.028383246   -3.4298779    1.4176893   289918 
 4935000   0.62388906    -3.430893   -2.0133615  0.025945718    -3.430893    1.4175315   289861 
 4936000   0.62376491    -3.430051   -2.0125522  0.030500492    -3.430051    1.4174988   289810 
 4937000   0.62471172    -3.433044   -2.0129673  0.030642427    -3.433044    1.4200767   289723 
 4938000   0.62386149   -3.4321507   -2.0136443  0.022502835   -3.4321507    1.4185063   289649 
 4939000   0.62323509   -3.4302541   -2.0129518  0.026140697   -3.4302541    1.4173022   289604 
 4940000   0.62390874   -3.4318268   -2.0126544  0.026883352   -3.4318268    1.4191723   289535 
 4941000    0.6226984   -3.4310985   -2.0145619     0.026695   -3.4310985    1.4165366   289511 
 4942000   0.62130538   -3.4269196   -2.0134201  0.024227782   -3.4269196    1.4134996   289484 
 4943000    0.6224942   -3.4270049   -2.0107029  0.030361845   -3.4270049     1.416302   289464 
 4944000    0.6223364   -3.4265091   -2.0104291  0.028928194   -3.4265091      1.41608   289436 
 4945000   0.62256537   -3.4277202    -2.010899  0.026080883   -3.4277202    1.4168213   289391 
 4946000   0.62311511   -3.4287473   -2.0102975   0.03256564   -3.4287473    1.4184498   289314 
 4947000   0.62390525   -3.4289873   -2.0083165     0.026191   -3.4289873    1.4206707   289228 
 4948000   0.62260619   -3.4299038   -2.0120392  0.028249976   -3.4299038    1.4178647   289197 
 4949000    0.6222429   -3.4284292   -2.0112008  0.025941315   -3.4284292    1.4172285   289158 
 4950000   0.62113544    -3.427894   -2.0128943  0.024239068    -3.427894    1.4149997   289098 
 4951000   0.62148621   -3.4287748   -2.0126037  0.025703604   -3.4287748    1.4161711   289022 
 4952000   0.62187133   -3.4295813   -2.0122138  0.025101108   -3.4295813    1.4173674   288957 
 4953000    0.6208942   -3.4276347   -2.0121367  0.026731265   -3.4276347     1.415498   288884 
 4954000   0.62144386   -3.4273248   -2.0103284  0.030612867   -3.4273248    1.4169963   288834 
 4955000   0.62206923   -3.4276773   -2.0090831  0.027090897   -3.4276773    1.4185942   288799 
 4956000   0.62248057   -3.4278616   -2.0081574   0.02868046   -3.4278616    1.4197043   288764 
 4957000    0.6220381    -3.429332   -2.0101061  0.030067638    -3.429332    1.4192259   288656 
 4958000   0.62213172    -3.429047   -2.0093764  0.032327258    -3.429047    1.4196707   288609 
 4959000   0.62172656   -3.4269422   -2.0077634  0.029951456   -3.4269422    1.4191788   288521 
 4960000   0.62034425    -3.426531   -2.0098594   0.02600756    -3.426531    1.4166717   288389 
 4961000    0.6201586   -3.4267901   -2.0102526   0.02596833   -3.4267901    1.4165375   288330 
 4962000   0.61964284   -3.4280473   -2.0122656  0.025392866   -3.4280473    1.4157817   288244 
 4963000   0.61861416   -3.4249983   -2.0111795  0.026252781   -3.4249983    1.4138188   288165 
 4964000   0.61921375   -3.4262455   -2.0106388  0.027407223   -3.4262455    1.4156067   288080 
 4965000   0.61937574   -3.4250389    -2.008703  0.027508824   -3.4250389     1.416336   288007 
 4966000   0.61934052   -3.4231362   -2.0064676    0.0287383   -3.4231362    1.4166686   287923 
 4967000   0.61906595    -3.423528   -2.0072119  0.026705775    -3.423528     1.416316   287867 
 4968000   0.62235313   -3.4275186   -2.0034001  0.024445744   -3.4275186    1.4241185   287810 
 4969000    0.6206347   -3.4243165   -2.0037847  0.026644483   -3.4243165    1.4205318   287740 
 4970000   0.62151294   -3.4254608    -2.002548  0.027143573   -3.4254608    1.4229128   287665 
 4971000   0.61944172   -3.4217944   -2.0034756  0.030245742   -3.4217944    1.4183188   287635 
 4972000   0.61836869   -3.4216885   -2.0056396  0.025885264   -3.4216885     1.416049   287597 
 4973000   0.61900918   -3.4254513   -2.0074524  0.027152094   -3.4254513    1.4179989   287499 
 4974000   0.61730252   -3.4224978   -2.0080838  0.026884981   -3.4224978     1.414414   287433 
 4975000   0.61942998    -3.423778   -2.0042622  0.026245914    -3.423778    1.4195158   287387 
 4976000   0.61942258   -3.4250056   -2.0051857  0.026873362   -3.4250056      1.41982   287322 
 4977000   0.61839264   -3.4225282   -2.0050641  0.028433679   -3.4225282    1.4174641   287321 
 4978000   0.61772981   -3.4218741   -2.0055843  0.028768271   -3.4218741    1.4162898   287251 
 4979000   0.61747789   -3.4216935   -2.0054537  0.024467098   -3.4216935    1.4162398   287144 
 4980000    0.6173548   -3.4234814   -2.0073266  0.022922296   -3.4234814    1.4161548   287104 
 4981000   0.61759277   -3.4227157   -2.0056498  0.028563876   -3.4227157    1.4170659   287030 
 4982000   0.61710288   -3.4253193    -2.009185  0.023668547   -3.4253193    1.4161342   286991 
 4983000    0.6172884   -3.4227011    -2.005914  0.028409284   -3.4227011    1.4167871   286945 
 4984000   0.61734094   -3.4241475   -2.0069682   0.02367782   -3.4241475    1.4171793   286890 
 4985000   0.61599963   -3.4204641   -2.0060927  0.026370881   -3.4204641    1.4143713   286835 
 4986000    0.6177332   -3.4250617   -2.0064627   0.02589406   -3.4250617     1.418599   286785 
 4987000   0.61988996    -3.428731   -2.0046627  0.029752781    -3.428731    1.4240683   286681 
 4988000   0.61860715   -3.4269491   -2.0056741  0.033162925   -3.4269491     1.421275   286650 
 4989000   0.61836888   -3.4251742   -2.0042186  0.031182645   -3.4251742    1.4209556   286604 
 4990000     0.617667   -3.4265387   -2.0068195  0.026610424   -3.4265387    1.4197192   286528 
 4991000   0.61550166   -3.4231109   -2.0080873  0.023853652   -3.4231109    1.4150236   286471 
 4992000   0.61662082   -3.4246305   -2.0069449  0.022482172   -3.4246305    1.4176856   286453 
 4993000    0.6163897   -3.4242997   -2.0069277  0.023830825   -3.4242997     1.417372   286409 
 4994000   0.61503537   -3.4236166   -2.0091069  0.022377359   -3.4236166    1.4145096   286358 
 4995000   0.61517913   -3.4233507   -2.0083178  0.027895408   -3.4233507     1.415033   286319 
 4996000    0.6161769   -3.4240375   -2.0063431  0.023754607   -3.4240375    1.4176944   286245 
 4997000   0.61512606   -3.4224075   -2.0066956  0.026010228   -3.4224075    1.4157119   286157 
 4998000   0.61526785   -3.4243067   -2.0079121  0.032055928   -3.4243067    1.4163946   286085 
 4999000   0.61775517    -3.426981   -2.0047808  0.028805334    -3.426981    1.4222002   286069 
 5000000   0.61642684   -3.4260887   -2.0065199  0.026525776   -3.4260887    1.4195688   285983 
 5001000   0.61673883   -3.4270434   -2.0062344  0.026677835   -3.4270434     1.420809   285878 
 5002000   0.61576151   -3.4259831   -2.0069392  0.028111622   -3.4259831    1.4190439   285780 
 5003000   0.61542897    -3.425908   -2.0073773  0.029802832    -3.425908    1.4185307   285729 
 5004000   0.61452134    -3.425328   -2.0085174  0.029257964    -3.425328    1.4168106   285654 
 5005000   0.61512957   -3.4267348   -2.0080849  0.026839126   -3.4267348    1.4186499   285566 
 5006000   0.61494046   -3.4251717    -2.006784  0.026321479   -3.4251717    1.4183876   285531 
 5007000   0.61497372   -3.4271817   -2.0081209  0.031105248   -3.4271817    1.4190607   285411 
 5008000   0.61316534   -3.4237231   -2.0084186  0.029339361   -3.4237231    1.4153044   285327 
 5009000    0.6132042   -3.4234588   -2.0074344  0.023811457   -3.4234588    1.4160244   285200 
 5010000   0.61350133   -3.4258664   -2.0088727  0.025714179   -3.4258664    1.4169937   285143 
 5011000   0.61293485   -3.4241448   -2.0080174  0.025583381   -3.4241448    1.4161273   285054 
 5012000   0.61216286   -3.4230478   -2.0083219  0.028789094   -3.4230478    1.4147259   284977 
 5013000   0.61235943   -3.4223741   -2.0071741  0.027375743   -3.4223741       1.4152   284973 
 5014000    0.6135555   -3.4233489   -2.0053349  0.026045237   -3.4233489     1.418014   284963 
 5015000   0.61413017   -3.4230121    -2.003655  0.025701186   -3.4230121    1.4193571   284960 
 5016000   0.61159762   -3.4189882   -2.0051965  0.029259171   -3.4189882    1.4137917   284902 
 5017000   0.61245591   -3.4215546   -2.0054707  0.025058057   -3.4215546    1.4160839   284840 
 5018000   0.61244986   -3.4209052   -2.0044673  0.028307222   -3.4209052    1.4164379   284766 
 5019000   0.61336741   -3.4220175   -2.0031138  0.029141184   -3.4220175    1.4189037   284697 
 5020000   0.61216928   -3.4200054   -2.0037588  0.032946544   -3.4200054    1.4162465   284674 
 5021000    0.6128104   -3.4225009   -2.0041982  0.025186978   -3.4225009    1.4183027   284559 
 5022000   0.61276196   -3.4217169   -2.0032471  0.026637123   -3.4217169    1.4184698   284503 
 5023000   0.61271931   -3.4207611   -2.0023103  0.027158651   -3.4207611    1.4184508   284487 
 5024000   0.61248558   -3.4209128   -2.0024795  0.022602424   -3.4209128    1.4184332   284382 
 5025000   0.61082282   -3.4178561   -2.0028905  0.022505541   -3.4178561    1.4149656   284305 
 5026000   0.61229137   -3.4180813    -1.999594   0.02002381   -3.4180813    1.4184873   284281 
 5027000   0.61224791   -3.4175903   -1.9990291  0.028846024   -3.4175903    1.4185612   284246 
 5028000   0.61288908   -3.4193284   -1.9990118  0.027360638   -3.4193284    1.4203166   284192 
 5029000   0.61184673     -3.41581   -1.9977243  0.023520628     -3.41581    1.4180857   284155 
 5030000   0.61056315   -3.4146727   -1.9992083  0.026113106   -3.4146727    1.4154644   284084 
 5031000   0.61017465   -3.4148939   -1.9999765  0.020564614   -3.4148939    1.4149174   284013 
 5032000   0.60941115   -3.4148815   -2.0012568  0.023674743   -3.4148815    1.4136247   283917 
 5033000   0.60994999   -3.4155615   -2.0002282  0.023907846   -3.4155615    1.4153333   283825 
 5034000   0.61127221   -3.4166515   -1.9980602  0.026628389   -3.4166515    1.4185913   283787 
 5035000   0.61017616   -3.4175207   -2.0011835  0.024362867   -3.4175207    1.4163371   283729 
 5036000   0.61081494   -3.4167145   -1.9986198  0.027009052   -3.4167145    1.4180948   283674 
 5037000   0.61124991   -3.4160404   -1.9967807  0.026150776   -3.4160404    1.4192597   283643 
 5038000   0.61054158   -3.4164885   -1.9986635  0.024846899   -3.4164885     1.417825   283601 
 5039000   0.61010591   -3.4158266   -1.9986736  0.023741203   -3.4158266     1.417153   283533 
 5040000   0.61032579   -3.4155026   -1.9976038  0.024540984   -3.4155026    1.4178988   283486 
 5041000   0.60907565   -3.4141527   -1.9990184  0.030560571   -3.4141527    1.4151343   283458 
 5042000   0.61023565   -3.4145983   -1.9964436  0.029273386   -3.4145983    1.4181546   283393 
 5043000   0.60858696   -3.4121185   -1.9972861  0.030126658   -3.4121185    1.4148324   283291 
 5044000   0.60952637   -3.4130562   -1.9959849  0.031365978   -3.4130562    1.4170714   283280 
 5045000   0.60823445   -3.4122066   -1.9976844  0.027636482   -3.4122066    1.4145222   283189 
 5046000   0.60797281    -3.410963   -1.9968295  0.026496391    -3.410963    1.4141334   283145 
 5047000   0.60928662   -3.4122506   -1.9945455  0.027582091   -3.4122506    1.4177051   283042 
 5048000   0.60936229   -3.4126222   -1.9944755  0.026748104   -3.4126222    1.4181467   282989 
 5049000   0.60766938   -3.4096668     -1.99526  0.024314492   -3.4096668    1.4144068   282949 
 5050000    0.6078497    -3.411272   -1.9962255  0.024934759    -3.411272    1.4150465   282905 
 5051000   0.60791801   -3.4135694   -1.9981337  0.022331125   -3.4135694    1.4154357   282859 
 5052000   0.60751146   -3.4133593   -1.9986601  0.022205258   -3.4133593    1.4146992   282817 
 5053000   0.60782511   -3.4129329   -1.9970528  0.030441508   -3.4129329    1.4158801   282727 
 5054000    0.6081315   -3.4126089   -1.9957143  0.030241036   -3.4126089    1.4168945   282667 
 5055000   0.60706755   -3.4139097   -1.9989385  0.025433289   -3.4139097    1.4149712   282556 
 5056000   0.60747753   -3.4130045   -1.9967619   0.02837131   -3.4130045    1.4162426   282493 
 5057000   0.60933572   -3.4185059   -1.9977501   0.02593268   -3.4185059    1.4207558   282457 
 5058000   0.60956079   -3.4197945   -1.9982724  0.025036444   -3.4197945    1.4215221   282409 
 5059000   0.60796528   -3.4183674   -2.0000589  0.027023647   -3.4183674    1.4183086   282308 
 5060000   0.60630606   -3.4155325   -2.0007639   0.02743254   -3.4155325    1.4147686   282242 
 5061000   0.60750801   -3.4188684    -2.001039  0.026420423   -3.4188684    1.4178294   282191 
 5062000   0.60732562   -3.4194038   -2.0018192  0.025853141   -3.4194038    1.4175846   282155 
 5063000   0.60734294   -3.4183538   -2.0004223  0.030929507   -3.4183538    1.4179316   282094 
 5064000   0.60711531    -3.419703   -2.0020516  0.023397955    -3.419703    1.4176514   282044 
 5065000    0.6063985   -3.4181293   -2.0016897  0.028407439   -3.4181293    1.4164396   281952 
 5066000   0.60672761   -3.4181953    -2.000826  0.028617212   -3.4181953    1.4173693   281920 
 5067000   0.60571659   -3.4171595   -2.0019162  0.028209925   -3.4171595    1.4152434   281873 
 5068000   0.60666188   -3.4183376   -2.0007297  0.023875543   -3.4183376    1.4176079   281842 
 5069000   0.60601168    -3.417811   -2.0012349   0.02744932    -3.417811    1.4165761   281745 
 5070000   0.60558602   -3.4176325     -2.00178  0.028615321   -3.4176325    1.4158525   281691 
 5071000   0.60625235   -3.4175981   -2.0000117  0.025945677   -3.4175981    1.4175865   281656 
 5072000   0.60540385   -3.4150895   -1.9990799  0.030230373   -3.4150895    1.4160097   281575 
 5073000   0.60470063   -3.4147437   -2.0001226  0.027493984   -3.4147437    1.4146211   281524 
 5074000   0.60500138   -3.4175088   -2.0018875  0.024902122   -3.4175088    1.4156213   281465 
 5075000   0.60567009   -3.4176885   -2.0000643  0.027546927   -3.4176885    1.4176242   281378 
 5076000   0.60488075   -3.4148721   -1.9987532  0.029869129   -3.4148721    1.4161189   281310 
 5077000   0.60501684   -3.4136212   -1.9970779  0.028259674   -3.4136212    1.4165433   281289 
 5078000   0.60533157   -3.4158863   -1.9983794  0.025604783   -3.4158863    1.4175069   281244 
 5079000   0.60491967   -3.4139182   -1.9971239  0.022722771   -3.4139182    1.4167943   281194 
 5080000   0.60466802   -3.4123655   -1.9956971  0.027650129   -3.4123655    1.4166684   281102 
 5081000   0.60431645   -3.4120666   -1.9960103  0.028757724   -3.4120666    1.4160562   281060 
 5082000   0.60317015   -3.4100795   -1.9962716  0.030386739   -3.4100795    1.4138078   280973 
 5083000   0.60424357   -3.4112674   -1.9946814  0.029196581   -3.4112674    1.4165861   280921 
 5084000   0.60493352   -3.4126452   -1.9939821  0.028027605   -3.4126452    1.4186631   280830 
 5085000   0.60436543   -3.4138266   -1.9962332  0.026382061   -3.4138266    1.4175934   280778 
 5086000   0.60385289   -3.4099442    -1.993437  0.027811197   -3.4099442    1.4165072   280755 
 5087000   0.60241851   -3.4073998   -1.9939654   0.02578092   -3.4073998    1.4134344   280697 
 5088000   0.60359477   -3.4104662   -1.9939439  0.029251986   -3.4104662    1.4165223   280632 
 5089000   0.60293943   -3.4086491   -1.9932461  0.030023341   -3.4086491    1.4154029   280549 
 5090000   0.60287179   -3.4100254   -1.9944734  0.024778165   -3.4100254    1.4155519   280488 
 5091000   0.60334026   -3.4097676    -1.992858  0.023105093   -3.4097676    1.4169095   280437 
 5092000   0.60330411    -3.411251   -1.9942192  0.027628786    -3.411251    1.4170318   280396 
 5093000   0.60352346    -3.411031   -1.9935042  0.026035477    -3.411031    1.4175268   280400 
 5094000   0.60262831   -3.4095236    -1.993862  0.027215055   -3.4095236    1.4156616   280353 
 5095000   0.60346831   -3.4110146   -1.9929953  0.026209399   -3.4110146    1.4180193   280277 
 5096000   0.60402771   -3.4095698   -1.9901753  0.032085056   -3.4095698    1.4193945   280265 
 5097000   0.60400836   -3.4099627   -1.9903046  0.029215751   -3.4099627    1.4196581   280204 
 5098000    0.6023601    -3.407389   -1.9915393  0.028198321    -3.407389    1.4158497   280191 
 5099000   0.60198953   -3.4070348   -1.9917328  0.021054239   -3.4070348    1.4153019   280127 
 5100000   0.60299921   -3.4090799   -1.9908878  0.025181708   -3.4090799    1.4181921   280025 
 5101000   0.60219073   -3.4082449    -1.991509  0.026852859   -3.4082449    1.4167359   279937 
 5102000   0.60276886   -3.4096391   -1.9915887  0.033167045   -3.4096391    1.4180504   279946 
 5103000   0.60334304    -3.409633   -1.9900391  0.029182515    -3.409633    1.4195939   279908 
 5104000    0.6025168   -3.4076443   -1.9896195  0.029911073   -3.4076443    1.4180248   279834 
 5105000   0.60311664   -3.4071445   -1.9875304  0.026322642   -3.4071445     1.419614   279799 
 5106000   0.60357822   -3.4109993   -1.9896689   0.03011947   -3.4109993    1.4213304   279675 
 5107000    0.6024339   -3.4086657   -1.9897409  0.024673994   -3.4086657    1.4189249   279618 
 5108000   0.60161332   -3.4070165   -1.9897557  0.025974464   -3.4070165    1.4172608   279565 
 5109000   0.60217286   -3.4101145   -1.9912615  0.028845924   -3.4101145     1.418853   279511 
 5110000   0.60298939   -3.4092946   -1.9882991  0.025067048   -3.4092946    1.4209955   279468 
 5111000   0.60075219   -3.4040974    -1.988075  0.026019343   -3.4040974    1.4160223   279409 
 5112000   0.60045405   -3.4043072   -1.9886126  0.019984182   -3.4043072    1.4156945   279335 
 5113000    0.6008413   -3.4053606   -1.9881239  0.023963808   -3.4053606    1.4172367   279211 
 5114000   0.59891201    -3.402826     -1.98972   0.02762161    -3.402826     1.413106   279128 
 5115000   0.60048315   -3.4064916   -1.9893078  0.018053527   -3.4064916    1.4171837   279055 
 5116000   0.60105802   -3.4067305   -1.9879918  0.024834758   -3.4067305    1.4187387   279016 
 5117000   0.60069534   -3.4048791   -1.9868389  0.024517827   -3.4048791    1.4180402   278985 
 5118000   0.60092001   -3.4044248   -1.9854575  0.026090744   -3.4044248    1.4189673   278907 
 5119000   0.60116303    -3.402612   -1.9830505  0.025008753    -3.402612    1.4195615   278903 
 5120000   0.60068278   -3.4026245   -1.9840445  0.027317734   -3.4026245    1.4185801   278873 
 5121000   0.60158712   -3.4029276   -1.9817736  0.028501827   -3.4029276     1.421154   278787 
 5122000   0.60197768   -3.4058883   -1.9833371  0.024906954   -3.4058883    1.4225512   278694 
 5123000    0.6001613   -3.4034387   -1.9848745  0.030679278   -3.4034387    1.4185643   278634 
 5124000   0.60022279    -3.404372   -1.9852295  0.022338487    -3.404372    1.4191425   278549 
 5125000   0.59934186   -3.4005139   -1.9832914  0.027352782   -3.4005139    1.4172225   278517 
 5126000   0.60086539   -3.4020423   -1.9809979   0.02885494   -3.4020423    1.4210445   278474 
 5127000   0.60126735    -3.404447   -1.9820841  0.029572491    -3.404447    1.4223629   278402 
 5128000   0.60151218   -3.4065061   -1.9832778  0.027303164   -3.4065061    1.4232283   278346 
 5129000   0.60080629   -3.4048705   -1.9829803  0.029228846   -3.4048705    1.4218901   278281 
 5130000   0.60061076   -3.4037754   -1.9819904  0.028933458   -3.4037754    1.4217851   278211 
 5131000   0.60108165   -3.4027737   -1.9796795  0.025222125   -3.4027737    1.4230941   278173 
 5132000   0.59966221   -3.4005762   -1.9804547  0.027497811   -3.4005762    1.4201215   278097 
 5133000   0.59912303   -3.4017509    -1.982794  0.026826019   -3.4017509    1.4189569   278075 
 5134000   0.59929285   -3.4029069   -1.9830014  0.025344115   -3.4029069    1.4199055   277968 
 5135000   0.59864971   -3.3984942   -1.9798676  0.030134722   -3.3984942    1.4186266   277920 
 5136000   0.59858393   -3.3995093   -1.9807271  0.025956279   -3.3995093    1.4187821   277859 
 5137000   0.59784697   -3.3985463   -1.9814395  0.025961433   -3.3985463    1.4171068   277845 
 5138000   0.59840308   -3.4004615   -1.9815105  0.024373875   -3.4004615     1.418951   277742 
 5139000   0.59778404   -3.3979222   -1.9803728  0.025399133   -3.3979222    1.4175494   277729 
 5140000   0.59767375   -3.3983727    -1.980947   0.03042635   -3.3983727    1.4174257   277702 
 5141000   0.59840699   -3.3979134   -1.9783807  0.029357363   -3.3979134    1.4195327   277630 
 5142000   0.59765263     -3.39761   -1.9795859  0.026472208     -3.39761    1.4180241   277575 
 5143000   0.59866948   -3.4000858   -1.9792908  0.026573813   -3.4000858    1.4207951   277505 
 5144000   0.59771595   -3.3968876   -1.9781255  0.024995995   -3.3968876    1.4187622   277460 
 5145000   0.59736857   -3.3954662   -1.9770787  0.028959979   -3.3954662    1.4183875   277372 
 5146000   0.59678485   -3.3968257   -1.9795431  0.026362572   -3.3968257    1.4172825   277317 
 5147000   0.59962968   -3.4031452   -1.9787008   0.02626096   -3.4031452    1.4244444   277238 
 5148000   0.59890665   -3.4012811   -1.9782618   0.02909463   -3.4012811    1.4230194   277181 
 5149000   0.59768465   -3.3985175    -1.978212  0.027319703   -3.3985175    1.4203054   277144 
 5150000   0.59752097   -3.3974457   -1.9773653  0.025322418   -3.3974457    1.4200805   277112 
 5151000   0.59679266   -3.3951508   -1.9765708  0.024840271   -3.3951508    1.4185799   277067 
 5152000   0.59652634    -3.396283   -1.9780444  0.028953787    -3.396283    1.4182386   277010 
 5153000   0.59565575   -3.3976839   -1.9811213   0.02704097   -3.3976839    1.4165626   276933 
 5154000   0.59613625   -3.3964456    -1.978218  0.029570183   -3.3964456    1.4182276   276831 
 5155000   0.59546597   -3.3944107   -1.9776241  0.031195472   -3.3944107    1.4167866   276801 
 5156000   0.59690839   -3.3974666    -1.976971  0.025596273   -3.3974666    1.4204956   276747 
 5157000   0.59644295   -3.3995122   -1.9798061  0.027082424   -3.3995122     1.419706   276685 
 5158000   0.59637708   -3.3988541   -1.9790226  0.025838722   -3.3988541    1.4198315   276630 
 5159000   0.59666656   -3.3978862   -1.9769649  0.029268992   -3.3978862    1.4209213   276552 
 5160000   0.59663426   -3.3945327   -1.9735136   0.03199902   -3.3945327    1.4210191   276518 
 5161000   0.59741273   -3.3963556   -1.9730912  0.029496884   -3.3963556    1.4232644   276442 
 5162000   0.59715526   -3.3981375   -1.9753836  0.027870792   -3.3981375    1.4227539   276422 
 5163000   0.59722295   -3.3977141   -1.9745157  0.029804282   -3.3977141    1.4231984   276367 
 5164000   0.59621811   -3.3964054   -1.9753496  0.028818113   -3.3964054    1.4210558   276318 
 5165000   0.59615092   -3.3961397   -1.9747142  0.029688673   -3.3961397    1.4214255   276215 
 5166000   0.59439292   -3.3923142   -1.9747365  0.029192266   -3.3923142    1.4175776   276148 
 5167000   0.59475262   -3.3933282    -1.974569  0.025483428   -3.3933282    1.4187592   276085 
 5168000   0.59469734   -3.3940268   -1.9750859  0.028111553   -3.3940268    1.4189408   276024 
 5169000   0.59482186   -3.3946478   -1.9751836  0.026474664   -3.3946478    1.4194642   275980 
 5170000   0.59604901   -3.3974182   -1.9746904  0.026625798   -3.3974182    1.4227277   275915 
 5171000    0.5947911   -3.3971305   -1.9768391  0.028587194   -3.3971305    1.4202914   275805 
 5172000   0.59324736   -3.3938956   -1.9766584  0.025462351   -3.3938956    1.4172372   275682 
 5173000   0.59361234   -3.3940141   -1.9756529  0.029206988   -3.3940141    1.4183612   275633 
 5174000   0.59373467   -3.3926673   -1.9736482  0.027957768   -3.3926673     1.419019   275562 
 5175000   0.59314667   -3.3912651   -1.9733375  0.029239756   -3.3912651    1.4179276   275501 
 5176000   0.59435566   -3.3950639   -1.9738129  0.029918409   -3.3950639     1.421251   275417 
 5177000   0.59362442   -3.3928743   -1.9730522    0.0278733   -3.3928743    1.4198221   275355 
 5178000    0.5936853   -3.3922261   -1.9719953  0.026589941   -3.3922261    1.4202307   275304 
 5179000   0.59345768   -3.3914864   -1.9714701  0.031317732   -3.3914864    1.4200163   275240 
 5180000     0.594207   -3.3931538   -1.9710552  0.027913983   -3.3931538    1.4220986   275184 
 5181000   0.59443684   -3.3950809    -1.972122  0.025912957   -3.3950809     1.422959   275124 
 5182000    0.5934225   -3.3926056   -1.9718889  0.022569549   -3.3926056    1.4207167   275088 
 5183000   0.59371202   -3.3935494   -1.9717674  0.028442139   -3.3935494     1.421782   275016 
 5184000   0.59337341   -3.3927714   -1.9716246  0.027761262   -3.3927714    1.4211468   274982 
 5185000   0.59218434   -3.3899911    -1.971522  0.027475342   -3.3899911    1.4184692   274949 
 5186000    0.5925498   -3.3898808   -1.9704433  0.026173645   -3.3898808    1.4194375   274931 
 5187000   0.59289337   -3.3903412   -1.9697087  0.027335636   -3.3903412    1.4206326   274859 
 5188000   0.59184011   -3.3897869   -1.9713271  0.026841041   -3.3897869    1.4184598   274791 
 5189000   0.59188379   -3.3892225   -1.9703896  0.029750598   -3.3892225    1.4188329   274739 
 5190000   0.59238221   -3.3900906   -1.9698044  0.029030688   -3.3900906    1.4202862   274689 
 5191000   0.59144006   -3.3894042   -1.9712994  0.028437124   -3.3894042    1.4181048   274674 
 5192000   0.59229828    -3.389473   -1.9690622  0.025466743    -3.389473    1.4204108   274626 
 5193000   0.59223232   -3.3885202   -1.9680814   0.02850482   -3.3885202    1.4204388   274590 
 5194000   0.59274996   -3.3876012   -1.9658743  0.029555076   -3.3876012    1.4217269   274581 
 5195000   0.59310049    -3.388639    -1.965776  0.029173416    -3.388639     1.422863   274524 
 5196000   0.59327111   -3.3914424   -1.9676617   0.02850245   -3.3914424    1.4237806   274426 
 5197000    0.5913679   -3.3857765    -1.966372  0.028770492   -3.3857765    1.4194045   274389 
 5198000   0.59271807   -3.3875182   -1.9647589  0.032694299   -3.3875182    1.4227593   274367 
 5199000   0.59245486   -3.3870746   -1.9643508  0.030713364   -3.3870746    1.4227238   274252 
 5200000    0.5918097   -3.3855076   -1.9640584  0.031277104   -3.3855076    1.4214492   274199 
 5201000   0.59162444   -3.3851832    -1.963842  0.028623704   -3.3851832    1.4213412   274134 
 5202000   0.59055417   -3.3841093   -1.9653912  0.022375207   -3.3841093    1.4187182   274144 
 5203000   0.59059068   -3.3838013   -1.9645761  0.023674792   -3.3838013    1.4192252   274063 
 5204000   0.59028687   -3.3817522   -1.9629568  0.021891255   -3.3817522    1.4187954   274005 
 5205000    0.5908078   -3.3854896   -1.9651051  0.027225258   -3.3854896    1.4203844   273940 
 5206000   0.58956221   -3.3850986    -1.967072  0.024833687   -3.3850986    1.4180265   273817 
 5207000   0.59007963   -3.3840199   -1.9644015  0.030798515   -3.3840199    1.4196184   273750 
 5208000   0.59032924   -3.3845093   -1.9638597  0.024856912   -3.3845093    1.4206497   273667 
 5209000   0.59024987   -3.3841909   -1.9633688  0.029103906   -3.3841909    1.4208221   273597 
 5210000    0.5902567   -3.3823615   -1.9612841  0.025846605   -3.3823615    1.4210775   273551 
 5211000   0.58976139   -3.3814904    -1.961055  0.028828802   -3.3814904    1.4204354   273445 
 5212000   0.58978011   -3.3846045   -1.9637448  0.023560719   -3.3846045    1.4208598   273372 
 5213000   0.58879981   -3.3824546   -1.9635725  0.022470331   -3.3824546    1.4188822   273298 
 5214000   0.58964604   -3.3831331   -1.9620088  0.023863142   -3.3831331    1.4211242   273259 
 5215000   0.59149049   -3.3851505   -1.9594348  0.027749706   -3.3851505    1.4257157   273231 
 5216000   0.58988195   -3.3823901   -1.9599841  0.030477474   -3.3823901    1.4224059   273122 
 5217000   0.58916711   -3.3832565   -1.9622205  0.024329903   -3.3832565     1.421036   273054 
 5218000    0.5879979   -3.3821909   -1.9636321  0.027174855   -3.3821909    1.4185588   272988 
 5219000   0.58798394   -3.3805223     -1.96194  0.025942892   -3.3805223    1.4185823   272977 
 5220000   0.58779168   -3.3806316   -1.9620091  0.028789371   -3.3806316    1.4186225   272880 
 5221000   0.58794828   -3.3788583   -1.9596446  0.028722617   -3.3788583    1.4192137   272839 
 5222000   0.58876906   -3.3792364   -1.9575203  0.030239778   -3.3792364    1.4217161   272739 
 5223000   0.58896225   -3.3828436   -1.9601499   0.02949056   -3.3828436    1.4226937   272641 
 5224000   0.58834513   -3.3812041   -1.9597821  0.032602602   -3.3812041     1.421422   272599 
 5225000   0.58903261   -3.3819558   -1.9586953  0.030143836   -3.3819558    1.4232605   272565 
 5226000    0.5880863   -3.3808277    -1.959473  0.029409401   -3.3808277    1.4213546   272492 
 5227000   0.58684621   -3.3791808   -1.9602558  0.023631045   -3.3791808     1.418925   272383 
 5228000   0.58626746    -3.376056   -1.9582597  0.028212085    -3.376056    1.4177963   272331 
 5229000   0.58728529   -3.3802667   -1.9597638  0.030149496   -3.3802667    1.4205029   272284 
 5230000   0.58607611   -3.3763636   -1.9583531  0.027849164   -3.3763636    1.4180105   272201 
 5231000   0.58671723   -3.3776863   -1.9578273  0.026134416   -3.3776863     1.419859   272144 
 5232000   0.58592492   -3.3778449   -1.9596741  0.027719628   -3.3778449    1.4181709   272100 
 5233000   0.58593834   -3.3775349   -1.9591283  0.026601754   -3.3775349    1.4184067   272061 
 5234000   0.58639735   -3.3794598   -1.9597385  0.028511894   -3.3794598    1.4197213   272022 
 5235000   0.58788265   -3.3814269   -1.9578113  0.024088232   -3.3814269    1.4236157   271965 
 5236000   0.58625394   -3.3804587   -1.9603955  0.023440791   -3.3804587    1.4200632   271890 
 5237000   0.58626478   -3.3810552   -1.9606471  0.022837967   -3.3810552    1.4204081   271829 
 5238000   0.58574324   -3.3797863   -1.9602815  0.025647035   -3.3797863    1.4195049   271760 
 5239000   0.58460313   -3.3803316   -1.9631621  0.026069168   -3.3803316    1.4171695   271678 
 5240000   0.58719537   -3.3839118   -1.9600495  0.027086455   -3.3839118    1.4238623   271600 
 5241000    0.5863946    -3.382084    -1.959755  0.025170729    -3.382084     1.422329   271522 
 5242000    0.5874003   -3.3844836    -1.959458  0.031027848   -3.3844836    1.4250256   271473 
 5243000   0.58638855   -3.3855478   -1.9624945   0.02661265   -3.3855478    1.4230533   271381 
 5244000   0.58513577   -3.3823332   -1.9622626  0.028385756   -3.3823332    1.4200706   271370 
 5245000   0.58534747   -3.3821771   -1.9612681  0.022182989   -3.3821771     1.420909   271308 
 5246000   0.58621314   -3.3861254   -1.9625746  0.024394615   -3.3861254    1.4235509   271205 
 5247000   0.58575482   -3.3832774   -1.9606402  0.027093572   -3.3832774    1.4226372   271167 
 5248000   0.58446957   -3.3817827   -1.9619319  0.031149453   -3.3817827    1.4198508   271103 
 5249000    0.5840475   -3.3800542   -1.9607889  0.027103089   -3.3800542    1.4192652   271019 
 5250000   0.58597414   -3.3826653   -1.9582662  0.026569752   -3.3826653     1.424399   270933 
 5251000   0.58544964   -3.3824883    -1.959091  0.030726969   -3.3824883    1.4233973   270881 
 5252000   0.58588957   -3.3827319   -1.9582966  0.026866085   -3.3827319    1.4244353   270887 
 5253000   0.58545741   -3.3805251   -1.9570459  0.031191523   -3.3805251    1.4234792   270869 
 5254000   0.58404838   -3.3785182   -1.9579509  0.027945139   -3.3785182    1.4205673   270771 
 5255000   0.58452596   -3.3803172   -1.9583783  0.029018376   -3.3803172    1.4219389   270731 
 5256000   0.58425256   -3.3810206   -1.9593372  0.026643673   -3.3810206    1.4216835   270653 
 5257000   0.58367459   -3.3809066   -1.9602464  0.026677899   -3.3809066    1.4206602   270580 
 5258000    0.5837036   -3.3814279   -1.9603084  0.025309663   -3.3814279    1.4211195   270506 
 5259000     0.583958   -3.3837641    -1.961794  0.027996511   -3.3837641    1.4219702   270462 
 5260000   0.58488719   -3.3836712   -1.9592962   0.02603322   -3.3836712     1.424375   270435 
 5261000    0.5845428   -3.3794084   -1.9557615  0.026960849   -3.3794084    1.4236469   270414 
 5262000    0.5836771   -3.3809123   -1.9589532  0.029714926   -3.3809123    1.4219591   270334 
 5263000   0.58299985   -3.3793615   -1.9586949  0.027916801   -3.3793615    1.4206666   270266 
 5264000   0.58242117   -3.3795426   -1.9598817   0.02732733   -3.3795426    1.4196609   270189 
 5265000   0.58300623   -3.3807974   -1.9595578  0.028726407   -3.3807974    1.4212395   270160 
 5266000   0.58351107   -3.3821147   -1.9593443  0.028704904   -3.3821147    1.4227704   270103 
 5267000   0.58303778   -3.3816218   -1.9593209  0.031776899   -3.3816218    1.4223009   269973 
 5268000   0.58384664   -3.3827528   -1.9582043  0.029733224   -3.3827528    1.4245485   269921 
 5269000   0.58230867   -3.3825312   -1.9613772  0.026034459   -3.3825312     1.421154   269853 
 5270000   0.58223511   -3.3834665   -1.9622287  0.025688421   -3.3834665    1.4212378   269803 
 5271000   0.58211908   -3.3826101   -1.9616713  0.025002121   -3.3826101    1.4209388   269806 
 5272000   0.58121126   -3.3789379   -1.9600574  0.023568505   -3.3789379    1.4188806   269776 
 5273000   0.58253943   -3.3824147   -1.9600017  0.025652009   -3.3824147    1.4224129   269721 
 5274000   0.58126517   -3.3797144   -1.9601023  0.027579621   -3.3797144    1.4196121   269662 
 5275000   0.58225245   -3.3799895    -1.957808   0.02575197   -3.3799895    1.4221815   269632 
 5276000    0.5817378   -3.3783588   -1.9568175  0.028111399   -3.3783588    1.4215413   269515 
 5277000   0.58128508   -3.3764247   -1.9556892  0.027559551   -3.3764247    1.4207355   269458 
 5278000   0.58176355   -3.3775988   -1.9554669  0.021376165   -3.3775988    1.4221319   269415 
 5279000   0.58071462   -3.3762133   -1.9562661  0.028847091   -3.3762133    1.4199472   269343 
 5280000   0.58179834   -3.3788391   -1.9555974  0.025952919   -3.3788391    1.4232418   269221 
 5281000   0.58148507   -3.3782821   -1.9554526  0.025187208   -3.3782821    1.4228295   269154 
 5282000   0.58000266   -3.3754375   -1.9560033  0.026748158   -3.3754375    1.4194343   269110 
 5283000     0.580395   -3.3757352   -1.9548762   0.02774159   -3.3757352     1.420859   269022 
 5284000    0.5790763   -3.3742861   -1.9564919  0.025256316   -3.3742861    1.4177941   268991 
 5285000   0.57784761   -3.3718528   -1.9565566   0.02547268   -3.3718528    1.4152962   268894 
 5286000   0.57946958   -3.3751625   -1.9556561  0.029817251   -3.3751625    1.4195064   268849 
 5287000    0.5801698   -3.3750018   -1.9535104  0.028515497   -3.3750018    1.4214913   268798 
 5288000   0.57961668   -3.3735705   -1.9530539  0.024806224   -3.3735705    1.4205166   268726 
 5289000   0.57866693   -3.3738282   -1.9552434  0.024049805   -3.3738282    1.4185849   268651 
 5290000   0.58013961   -3.3774157    -1.954797  0.029990844   -3.3774157    1.4226188   268571 
 5291000   0.58006522   -3.3776713   -1.9548217  0.028283256   -3.3776713    1.4228496   268493 
 5292000    0.5799926   -3.3769021   -1.9539816  0.027901473   -3.3769021    1.4229205   268446 
 5293000   0.57878227   -3.3742855    -1.954091  0.029142584   -3.3742855    1.4201945   268400 
 5294000   0.57915892   -3.3754705   -1.9541028  0.030593389   -3.3754705    1.4213676   268353 
 5295000   0.57833988   -3.3756452   -1.9559385  0.027258176   -3.3756452    1.4197067   268287 
 5296000    0.5798048   -3.3783318    -1.954546  0.029599661   -3.3783318    1.4237858   268196 
 5297000   0.57994966   -3.3781424   -1.9538045  0.029016529   -3.3781424     1.424338   268159 
 5298000   0.57837874   -3.3759999   -1.9551279  0.025693232   -3.3759999    1.4208719   268085 
 5299000   0.57909373   -3.3778931    -1.955063  0.030757565   -3.3778931    1.4228301   268047 
 5300000   0.57819953   -3.3767403   -1.9556991   0.02642469   -3.3767403    1.4210413   267970 
 5301000   0.57715136   -3.3734287     -1.95472  0.024869612   -3.3734287    1.4187087   267924 
 5302000   0.57853645   -3.3775289   -1.9552775   0.02893264   -3.3775289    1.4222515   267898 
 5303000   0.57811288   -3.3758722   -1.9543437  0.025840169   -3.3758722    1.4215285   267838 
 5304000   0.57889714   -3.3776376   -1.9537713  0.027025062   -3.3776376    1.4238663   267761 
 5305000   0.57886218   -3.3770153   -1.9529691  0.025874835   -3.3770153    1.4240462   267711 
 5306000   0.57729505   -3.3761957   -1.9557076  0.028031799   -3.3761957    1.4204881   267655 
 5307000   0.57803256    -3.377347   -1.9546614  0.027508251    -3.377347    1.4226855   267583 
 5308000   0.57832313   -3.3804401   -1.9564061  0.023700617   -3.3804401     1.424034   267464 
 5309000   0.57738538   -3.3782231   -1.9561845  0.027319994   -3.3782231    1.4220386   267405 
 5310000   0.57816092   -3.3775808   -1.9533338  0.025917069   -3.3775808     1.424247   267349 
 5311000   0.57775946   -3.3791956    -1.955469  0.028415899   -3.3791956    1.4237266   267261 
 5312000    0.5784203   -3.3795013   -1.9539275   0.02559289   -3.3795013    1.4255738   267220 
 5313000   0.57525531   -3.3771093   -1.9587999  0.025650041   -3.3771093    1.4183094   267119 
 5314000   0.57621044   -3.3772025    -1.956219  0.027880503   -3.3772025    1.4209835   267059 
 5315000   0.57698673   -3.3799267   -1.9567997  0.028088852   -3.3799267    1.4231271   267016 
 5316000   0.57639859   -3.3792744   -1.9573157  0.029012259   -3.3792744    1.4219587   266963 
 5317000   0.57625663    -3.377995   -1.9558539  0.030883653    -3.377995    1.4221412   266863 
 5318000   0.57603416   -3.3748179   -1.9530126  0.030786589   -3.3748179    1.4218052   266823 
 5319000   0.57540807   -3.3758113   -1.9552639   0.02848277   -3.3758113    1.4205474   266769 
 5320000   0.57564332   -3.3780864   -1.9567451  0.027693402   -3.3780864    1.4213413   266729 
 5321000   0.57387198   -3.3724372   -1.9549435  0.031130572   -3.3724372    1.4174937   266630 
 5322000   0.57636934   -3.3774935   -1.9536336  0.027421046   -3.3774935    1.4238599   266593 
 5323000   0.57583711   -3.3767732   -1.9536783  0.029047376   -3.3767732    1.4230949   266490 
 5324000   0.57617076   -3.3772507   -1.9526737  0.025304949   -3.3772507     1.424577   266367 
 5325000    0.5757273   -3.3764532   -1.9525878  0.029432446   -3.3764532    1.4238654   266295 
 5326000   0.57648291    -3.379053   -1.9530403  0.024590818    -3.379053    1.4260126   266243 
 5327000   0.57533673   -3.3772135   -1.9534533   0.02927678   -3.3772135    1.4237603   266134 
 5328000   0.57504418    -3.376442   -1.9532024  0.029835156    -3.376442    1.4232395   266096 
 5329000   0.57433972   -3.3742717   -1.9524819  0.027172087   -3.3742717    1.4217899   266041 
 5330000   0.57455256   -3.3727785   -1.9500232  0.028410142   -3.3727785    1.4227553   265959 
 5331000   0.57435776   -3.3727736   -1.9499872  0.027924248   -3.3727736    1.4227865   265863 
 5332000   0.57542287   -3.3769332   -1.9511489  0.023065417   -3.3769332    1.4257842   265796 
 5333000   0.57404815   -3.3721311   -1.9494053  0.028740837   -3.3721311    1.4227259   265731 
 5334000   0.57405708    -3.371866   -1.9489573  0.028716025    -3.371866    1.4229087   265701 
 5335000   0.57351917    -3.372001   -1.9500725  0.027168044    -3.372001    1.4219285   265635 
 5336000    0.5725381   -3.3695732   -1.9496386  0.024184359   -3.3695732    1.4199345   265553 
 5337000   0.57317369   -3.3682497   -1.9465248   0.02593709   -3.3682497     1.421725   265513 
 5338000   0.57385173   -3.3696826   -1.9460184  0.025474426   -3.3696826    1.4236642   265465 
 5339000   0.57284318   -3.3676402   -1.9460497  0.031373221   -3.3676402    1.4215905   265385 
 5340000   0.57381442   -3.3667468   -1.9426119  0.032383645   -3.3667468    1.4241349   265360 
 5341000   0.57173389     -3.36291    -1.943682  0.029075468     -3.36291     1.419228   265312 
 5342000   0.57292355   -3.3667793   -1.9442282  0.029434103   -3.3667793    1.4225511   265243 
 5343000   0.57410517   -3.3694462   -1.9435795  0.026353875   -3.3694462    1.4258667   265172 
 5344000   0.57263024   -3.3644049   -1.9419492  0.026706641   -3.3644049    1.4224556   265125 
 5345000   0.57370615   -3.3656501   -1.9402154  0.028831061   -3.3656501    1.4254347   265068 
 5346000   0.57167569   -3.3610219   -1.9401604  0.030588454   -3.3610219    1.4208615   264980 
 5347000    0.5718027   -3.3619096   -1.9402978  0.031952879   -3.3619096    1.4216118   264899 
 5348000    0.5713775   -3.3619111    -1.941217  0.024458937   -3.3619111    1.4206941   264873 
 5349000   0.57265526   -3.3636258   -1.9395127  0.027889528   -3.3636258    1.4241131   264828 
 5350000   0.57179948   -3.3619414   -1.9395483  0.027244485   -3.3619414    1.4223931   264752 
 5351000   0.57195033    -3.363286   -1.9398563  0.026823456    -3.363286    1.4234297   264629 
 5352000    0.5715468   -3.3644838   -1.9416444  0.029848648   -3.3644838    1.4228394   264552 
 5353000   0.57142706   -3.3631169   -1.9404573  0.030323711   -3.3631169    1.4226596   264530 
 5354000   0.57042431   -3.3604786   -1.9399987    0.0274887   -3.3604786    1.4204799   264471 
 5355000   0.57097624   -3.3637764    -1.941352  0.029004808   -3.3637764    1.4224245   264365 
 5356000   0.57076461   -3.3628203   -1.9407025  0.026372637   -3.3628203    1.4221178   264324 
 5357000    0.5710471   -3.3626734   -1.9395556  0.031048633   -3.3626734    1.4231178   264269 
 5358000   0.57140087   -3.3646654   -1.9402456  0.032542332   -3.3646654    1.4244198   264191 
 5359000   0.56995724   -3.3616943   -1.9408571  0.026385722   -3.3616943    1.4208372   264188 
 5360000   0.57159331   -3.3650709   -1.9398207  0.022072383   -3.3650709    1.4252502   264126 
 5361000   0.56988049   -3.3619222   -1.9406254  0.026271105   -3.3619222    1.4212968   264067 
 5362000   0.56878366   -3.3621816   -1.9431312  0.026443798   -3.3621816    1.4190503   263976 
 5363000   0.57040171    -3.362914   -1.9397244  0.023139665    -3.362914    1.4231896   263957 
 5364000   0.56997054   -3.3601046   -1.9377699  0.030316144   -3.3601046    1.4223347   263916 
 5365000   0.56970396   -3.3616503   -1.9397168  0.026707536   -3.3616503    1.4219335   263867 
 5366000   0.56893036   -3.3624226   -1.9420647  0.027441933   -3.3624226    1.4203579   263801 
 5367000    0.5698482   -3.3630603   -1.9399146   0.02713782   -3.3630603    1.4231457   263709 
 5368000   0.56977004    -3.363892   -1.9405636  0.027093975    -3.363892    1.4233283   263639 
 5369000   0.56948549   -3.3650382   -1.9420321  0.030451242   -3.3650382    1.4230061   263567 
 5370000   0.56959168   -3.3636689   -1.9402409  0.031089979   -3.3636689    1.4234281   263538 
 5371000     0.570433   -3.3677318    -1.942066  0.027792553   -3.3677318    1.4256658   263513 
 5372000    0.5691314   -3.3641153   -1.9415082  0.029242368   -3.3641153    1.4226071   263477 
 5373000   0.56996552   -3.3685461     -1.94347  0.030585586   -3.3685461    1.4250761   263406 
 5374000   0.56850054   -3.3655442   -1.9438935  0.030862445   -3.3655442    1.4216507   263362 
 5375000   0.56935095   -3.3678546   -1.9436663  0.027772543   -3.3678546    1.4241883   263286 
 5376000   0.56784141   -3.3652425   -1.9442365  0.027473075   -3.3652425     1.421006   263176 
 5377000   0.56788787   -3.3669495   -1.9458056  0.023956464   -3.3669495    1.4211439   263172 
 5378000   0.56821466   -3.3662913    -1.943854  0.033779116   -3.3662913    1.4224373   263084 
 5379000   0.56779031   -3.3642347   -1.9426922  0.028080542   -3.3642347    1.4215425   263053 
 5380000     0.567762   -3.3659287   -1.9440787  0.026721432   -3.3659287      1.42185   262983 
 5381000     0.567945   -3.3643651   -1.9418459  0.026662323   -3.3643651    1.4225192   262944 
 5382000    0.5659227   -3.3601446    -1.942297   0.03019186   -3.3601446    1.4178477   262871 
 5383000    0.5677657   -3.3649401   -1.9423289  0.026440609   -3.3649401    1.4226112   262844 
 5384000   0.56713063   -3.3636533   -1.9424333  0.027726434   -3.3636533      1.42122   262807 
 5385000     0.566689   -3.3636898   -1.9433549  0.025803495   -3.3636898    1.4203348   262766 
 5386000   0.56643959   -3.3633401   -1.9433115  0.028346177   -3.3633401    1.4200286   262707 
 5387000   0.56727528   -3.3650873   -1.9424763  0.028574092   -3.3650873     1.422611   262617 
 5388000   0.56723211   -3.3654516   -1.9426076  0.029446398   -3.3654516     1.422844   262554 
 5389000   0.56671185   -3.3644777   -1.9427708  0.025128366   -3.3644777    1.4217069   262523 
 5390000   0.56657081   -3.3659782   -1.9440022  0.026917529   -3.3659782     1.421976   262408 
 5391000   0.56654656   -3.3655824   -1.9433963  0.028719249   -3.3655824    1.4221861   262358 
 5392000   0.56730264   -3.3643591   -1.9401719  0.033554336   -3.3643591    1.4241872   262339 
 5393000   0.56706353   -3.3637102   -1.9399659  0.028263104   -3.3637102    1.4237443   262310 
 5394000   0.56699355   -3.3638544   -1.9400306  0.026756183   -3.3638544    1.4238237   262263 
 5395000   0.56783806   -3.3653894   -1.9389228  0.030778615   -3.3653894    1.4264666   262167 
 5396000   0.56704987   -3.3654218   -1.9404623  0.027510673   -3.3654218    1.4249595   262080 
 5397000   0.56682704   -3.3623824   -1.9375371  0.030894824   -3.3623824    1.4248453   261998 
 5398000    0.5675787   -3.3647751   -1.9375337  0.032696414   -3.3647751    1.4272414   261905 
 5399000   0.56703704   -3.3641861   -1.9380399  0.023487371   -3.3641861    1.4261462   261856 
 5400000    0.5651407   -3.3616508   -1.9398181  0.026226623   -3.3616508    1.4218328   261772 
 5401000   0.56380085   -3.3585857   -1.9396848  0.027770088   -3.3585857    1.4189009   261691 
 5402000   0.56398375   -3.3565945   -1.9368427  0.031400258   -3.3565945    1.4197518   261619 
 5403000   0.56496516   -3.3593619   -1.9368078  0.026089637   -3.3593619    1.4225541   261558 
 5404000    0.5660379   -3.3608238   -1.9351871  0.026515282   -3.3608238    1.4256367   261488 
 5405000   0.56530336   -3.3598245   -1.9357873  0.026294255   -3.3598245    1.4240372   261442 
 5406000    0.5638544   -3.3564177   -1.9354652  0.030220294   -3.3564177    1.4209524   261338 
 5407000   0.56354612   -3.3570602   -1.9364497   0.03019162   -3.3570602    1.4206104   261258 
 5408000   0.56508548   -3.3604744   -1.9356399  0.023909772   -3.3604744    1.4248345   261195 
 5409000   0.56314579   -3.3551865   -1.9350091  0.034384762   -3.3551865    1.4201775   261152 
 5410000   0.56297776   -3.3535101   -1.9333648  0.023482295   -3.3535101    1.4201453   261080 
 5411000   0.56458851   -3.3566434   -1.9320584  0.019607016   -3.3566434     1.424585   261011 
 5412000   0.56330845   -3.3524746   -1.9308472  0.026938026   -3.3524746    1.4216274   260961 
 5413000   0.56443184   -3.3541868   -1.9292493  0.029707684   -3.3541868    1.4249376   260874 
 5414000   0.56426815    -3.354529   -1.9297589  0.029755668    -3.354529    1.4247701   260829 
 5415000   0.56207889   -3.3496292    -1.929995  0.027136758   -3.3496292    1.4196341   260757 
 5416000   0.56208915   -3.3498345   -1.9296407  0.029198616   -3.3498345    1.4201938   260659 
 5417000   0.56233879   -3.3523211   -1.9314366   0.02939412   -3.3523211    1.4208845   260648 
 5418000   0.56180415   -3.3493857   -1.9293944  0.026898739   -3.3493857    1.4199912   260564 
 5419000   0.56299359   -3.3511958   -1.9279087   0.02787404   -3.3511958    1.4232871   260511 
 5420000   0.56214074   -3.3495511   -1.9278524  0.030471753   -3.3495511    1.4216986   260407 
 5421000   0.56209605   -3.3515937   -1.9295384  0.028960223   -3.3515937    1.4220552   260321 
 5422000   0.56245614   -3.3511675   -1.9279006  0.027247942   -3.3511675    1.4232669   260266 
 5423000   0.56352161    -3.354133   -1.9279069  0.028931517    -3.354133    1.4262261   260218 
 5424000   0.56281636   -3.3517762   -1.9271215  0.027246719   -3.3517762    1.4246547   260179 
 5425000    0.5625001   -3.3490052   -1.9249485  0.026224685   -3.3490052    1.4240566   260142 
 5426000   0.56051663   -3.3458823   -1.9266725  0.027675885   -3.3458823    1.4192098   260110 
 5427000   0.56060538    -3.347742   -1.9278927  0.028857599    -3.347742    1.4198493   260034 
 5428000   0.56133151    -3.350337   -1.9283315  0.029784335    -3.350337    1.4220056   259976 
 5429000   0.56031778    -3.346537   -1.9268319  0.026314427    -3.346537    1.4197051   259927 
 5430000   0.56089542   -3.3476413   -1.9261499  0.031526657   -3.3476413    1.4214913   259868 
 5431000   0.56184079   -3.3515727   -1.9271428  0.029698666   -3.3515727    1.4244299   259769 
 5432000   0.56097593   -3.3482981    -1.925809  0.030377217   -3.3482981    1.4224891   259723 
 5433000   0.56035993   -3.3494474   -1.9281098    0.0286254   -3.3494474    1.4213375   259648 
 5434000   0.56017773   -3.3503232   -1.9289059  0.026451425   -3.3503232    1.4214174   259549 
 5435000   0.56081916    -3.351449   -1.9282834  0.024736687    -3.351449    1.4231656   259527 
 5436000    0.5602015    -3.350202   -1.9284504  0.026746027    -3.350202    1.4217516   259499 
 5437000   0.55992047   -3.3491328    -1.927607  0.023476109   -3.3491328    1.4215258   259410 
 5438000   0.55971758   -3.3475029   -1.9261141  0.029249324   -3.3475029    1.4213888   259341 
 5439000   0.56138765   -3.3493947   -1.9233633  0.026539738   -3.3493947    1.4260313   259268 
 5440000   0.56102685   -3.3483088   -1.9228916  0.031559286   -3.3483088    1.4254172   259213 
 5441000   0.56146075   -3.3500323   -1.9232705  0.022684409   -3.3500323    1.4267618   259169 
 5442000   0.55988729    -3.347442   -1.9243985  0.029184552    -3.347442    1.4230434   259118 
 5443000   0.56100674   -3.3488065   -1.9227032  0.027690309   -3.3488065    1.4261033   259079 
 5444000   0.55899352   -3.3439278   -1.9225417  0.029942374   -3.3439278    1.4213861   259006 
 5445000   0.55800237   -3.3415987   -1.9224534  0.029410017   -3.3415987    1.4191453   258955 
 5446000   0.55837856   -3.3424312   -1.9220439   0.02719016   -3.3424312    1.4203873   258903 
 5447000    0.5585085   -3.3408691   -1.9198713  0.027284283   -3.3408691    1.4209978   258852 
 5448000   0.55828829     -3.34094   -1.9202007  0.027146994     -3.34094    1.4207394   258797 
 5449000   0.55894001   -3.3429207   -1.9201985  0.024035262   -3.3429207    1.4227222   258738 
 5450000   0.55924276   -3.3438136   -1.9197649  0.025939628   -3.3438136    1.4240487   258637 
 5451000   0.55863657   -3.3443773   -1.9215035  0.022097076   -3.3443773    1.4228737   258570 
 5452000   0.55911001   -3.3454475   -1.9207563  0.025252128   -3.3454475    1.4246912   258459 
 5453000   0.55745491   -3.3443648   -1.9233687   0.02627612   -3.3443648    1.4209961   258364 
 5454000   0.55775521   -3.3416839   -1.9196692  0.024550683   -3.3416839    1.4220147   258318 
 5455000   0.55913069   -3.3428783   -1.9172408  0.028750412   -3.3428783    1.4256375   258297 
 5456000    0.5591473   -3.3451984   -1.9191984  0.026671828   -3.3451984        1.426   258239 
 5457000   0.55822339   -3.3440095    -1.919875  0.027620942   -3.3440095    1.4241346   258150 
 5458000   0.55734323   -3.3435756   -1.9212623  0.025632983   -3.3435756    1.4223134   258073 
 5459000   0.55605922   -3.3416183   -1.9220536  0.027546116   -3.3416183    1.4195647   257977 
 5460000   0.55670749   -3.3446816   -1.9229549  0.027209503   -3.3446816    1.4217267   257885 
 5461000   0.55588423   -3.3417886   -1.9218119  0.030801944   -3.3417886    1.4199766   257821 
 5462000   0.55721839   -3.3455687   -1.9221343  0.027016316   -3.3455687    1.4234344   257812 
 5463000     0.557625   -3.3470819   -1.9223104  0.028288016   -3.3470819    1.4247715   257758 
 5464000   0.55622856   -3.3450641   -1.9234801   0.02691922   -3.3450641     1.421584   257689 
 5465000   0.55626871   -3.3438304    -1.921625   0.02493092   -3.3438304    1.4222054   257595 
 5466000   0.55647954   -3.3472681   -1.9241424    0.0197736   -3.3472681    1.4231257   257526 
 5467000   0.55694909   -3.3483027   -1.9233288  0.030571896   -3.3483027    1.4249739   257409 
 5468000   0.55640705   -3.3484554   -1.9242376  0.031239821   -3.3484554    1.4242178   257295 
 5469000   0.55583973   -3.3438447   -1.9205923  0.028450079   -3.3438447    1.4232524   257207 
 5470000   0.55476239   -3.3459632   -1.9249444  0.030204218   -3.3459632    1.4210187   257112 
 5471000   0.55543027   -3.3465128   -1.9234181  0.029497887   -3.3465128    1.4230948   257046 
 5472000   0.55577221   -3.3467737   -1.9226199  0.025646173   -3.3467737    1.4241537   257013 
 5473000   0.55594382   -3.3460618   -1.9212909  0.024937067   -3.3460618    1.4247709   256981 
 5474000   0.55479474    -3.346164    -1.924089  0.024359951    -3.346164     1.422075   256936 
 5475000   0.55520907    -3.345858    -1.922261  0.026017791    -3.345858    1.4235969   256853 
 5476000   0.55523365    -3.346097   -1.9219991  0.024605347    -3.346097     1.424098   256774 
 5477000   0.55482635   -3.3445834   -1.9211087  0.029603433   -3.3445834    1.4234746   256698 
 5478000   0.55403837    -3.344034   -1.9221323  0.026264297    -3.344034    1.4219016   256617 
 5479000   0.55440067   -3.3427208   -1.9195011  0.028764185   -3.3427208    1.4232197   256547 
 5480000   0.55444122   -3.3435392   -1.9200046  0.026124228   -3.3435392    1.4235346   256509 
 5481000   0.55478032   -3.3441854   -1.9194414  0.028482955   -3.3441854    1.4247441   256448 
 5482000   0.55410718    -3.342595     -1.91903  0.027234106    -3.342595    1.4235649   256349 
 5483000   0.55379335   -3.3417643   -1.9187337   0.03043532   -3.3417643    1.4230307   256300 
 5484000   0.55305349   -3.3410399   -1.9196941  0.025279193   -3.3410399    1.4213458   256261 
 5485000   0.55201462   -3.3370848   -1.9176944  0.028458082   -3.3370848    1.4193904   256132 
 5486000   0.55193923   -3.3394239   -1.9200001  0.024423841   -3.3394239    1.4194238   256091 
 5487000    0.5520977   -3.3356405   -1.9154876  0.029136382   -3.3356405     1.420153   256033 
 5488000   0.55296549   -3.3376143   -1.9150124  0.027123191   -3.3376143    1.4226019   255994 
 5489000   0.55257545   -3.3380559   -1.9162186  0.030567968   -3.3380559    1.4218372   255951 
 5490000   0.55261412    -3.336014   -1.9137717  0.027239207    -3.336014    1.4222424   255896 
 5491000   0.55300186   -3.3353996    -1.911653  0.029856292   -3.3353996    1.4237466   255805 
 5492000   0.55261021   -3.3370081   -1.9138359  0.024428208   -3.3370081    1.4231722   255727 
 5493000    0.5505296   -3.3309639   -1.9128617  0.026770794   -3.3309639    1.4181022   255675 
 5494000   0.55194432   -3.3346402   -1.9125601  0.027610651   -3.3346402    1.4220801   255615 
 5495000   0.55202254   -3.3337963   -1.9110972  0.028291445   -3.3337963    1.4226991   255540 
 5496000   0.55253363   -3.3369638   -1.9124904  0.025204043   -3.3369638    1.4244734   255458 
 5497000   0.55083258   -3.3333428   -1.9127099  0.024228678   -3.3333428    1.4206329   255360 
 5498000   0.54997396    -3.332208   -1.9133227  0.026122674    -3.332208    1.4188853   255276 
 5499000   0.55067091   -3.3323715     -1.91146   0.02672498   -3.3323715    1.4209115   255235 
 5500000   0.55085258   -3.3320334   -1.9102465  0.028299085   -3.3320334    1.4217869   255162 
 5501000   0.55107202   -3.3327396   -1.9102525  0.026678768   -3.3327396    1.4224871   255138 
 5502000   0.55022388   -3.3289411   -1.9085431  0.028883044   -3.3289411     1.420398   255120 
 5503000   0.55102337   -3.3301408   -1.9073108  0.028689955   -3.3301408      1.42283   255054 
 5504000   0.55109202   -3.3300298   -1.9066319  0.027653035   -3.3300298    1.4233979   254984 
 5505000   0.55155071   -3.3328179   -1.9079335  0.026503699   -3.3328179    1.4248844   254930 
 5506000   0.55181997   -3.3323547   -1.9066852  0.025879139   -3.3323547    1.4256695   254914 
 5507000   0.55009698   -3.3297904   -1.9080983  0.023423563   -3.3297904    1.4216921   254829 
 5508000   0.55019787   -3.3317278    -1.909468  0.028079739   -3.3317278    1.4222598   254774 
 5509000   0.55111023    -3.330111   -1.9050397   0.03127443    -3.330111    1.4250713   254693 
 5510000   0.54922432   -3.3288504   -1.9081202  0.027425605   -3.3288504    1.4207302   254597 
 5511000   0.54931778   -3.3290659   -1.9075133  0.024687214   -3.3290659    1.4215526   254493 
 5512000    0.5508273   -3.3301567   -1.9045128  0.027320834   -3.3301567    1.4256439   254460 
 5513000    0.5500957   -3.3283917   -1.9045685  0.025613413   -3.3283917    1.4238232   254447 
 5514000   0.54940061   -3.3250054   -1.9027467  0.029744794   -3.3250054    1.4222588   254405 
 5515000   0.55002595   -3.3251961   -1.9009602  0.026807652   -3.3251961    1.4242359   254341 
 5516000   0.54899222   -3.3226038   -1.9007595  0.027239503   -3.3226038    1.4218443   254290 
 5517000   0.55002974   -3.3261835   -1.9011421  0.029088256   -3.3261835    1.4250413   254199 
 5518000    0.5494532   -3.3254351   -1.9017026  0.027672255   -3.3254351    1.4237325   254166 
 5519000   0.54926901   -3.3245999   -1.9009078  0.028367622   -3.3245999    1.4236921   254088 
 5520000   0.54948098   -3.3263057   -1.9016268  0.028438469   -3.3263057    1.4246789   254010 
 5521000     0.549023   -3.3267397   -1.9025811  0.027158615   -3.3267397    1.4241586   253891 
 5522000   0.54934057   -3.3265456   -1.9010635  0.029383054   -3.3265456    1.4254821   253802 
 5523000   0.54857262   -3.3260643   -1.9023842  0.021227213   -3.3260643    1.4236801   253768 
 5524000   0.54688762   -3.3207605   -1.9012409  0.027081805   -3.3207605    1.4195196   253730 
 5525000   0.54709489   -3.3218664   -1.9013665  0.027111771   -3.3218664    1.4204999   253651 
 5526000   0.54773108   -3.3230399   -1.9007311  0.031212077   -3.3230399    1.4223088   253623 
 5527000   0.54766065   -3.3268567    -1.904226  0.027791106   -3.3268567    1.4226307   253533 
 5528000   0.54870782    -3.326768   -1.9010348  0.026176942    -3.326768    1.4257333   253465 
 5529000   0.54816818   -3.3250172   -1.9003657  0.030255606   -3.3250172    1.4246515   253408 
 5530000   0.54858819   -3.3255111   -1.8995261  0.031169585   -3.3255111     1.425985   253365 
 5531000   0.54766287    -3.322613   -1.8984711  0.029975239    -3.322613    1.4241419   253265 
 5532000   0.54518756   -3.3206622   -1.9024476  0.027941569   -3.3206622    1.4182147   253174 
 5533000   0.54593869   -3.3195484   -1.8992844  0.025789921   -3.3195484     1.420264   253157 
 5534000    0.5473725   -3.3239636   -1.8996433  0.026351793   -3.3239636    1.4243203   253099 
 5535000   0.54688235   -3.3234129   -1.9000306  0.026857546   -3.3234129    1.4233823   253039 
 5536000   0.54641244   -3.3214537   -1.8989852   0.02716558   -3.3214537    1.4224685   252984 
 5537000   0.54678782   -3.3207615   -1.8968317  0.029006686   -3.3207615    1.4239298   252898 
 5538000   0.54670948   -3.3216255   -1.8973084  0.026709213   -3.3216255    1.4243171   252793 
 5539000   0.54629318   -3.3204937   -1.8969965  0.030474879   -3.3204937    1.4234972   252746 
 5540000    0.5460832   -3.3205714   -1.8974749  0.025922152   -3.3205714    1.4230965   252720 
 5541000   0.54612525   -3.3226986   -1.8989123  0.027187608   -3.3226986    1.4237863   252617 
 5542000   0.54548133   -3.3218961   -1.8992986  0.026784623   -3.3218961    1.4225975   252530 
 5543000   0.54544984   -3.3209162   -1.8979951  0.025088422   -3.3209162    1.4229211   252458 
 5544000   0.54566282   -3.3200725   -1.8964999  0.028085279   -3.3200725    1.4235725   252441 
 5545000   0.54526808    -3.320882   -1.8978545  0.027831093    -3.320882    1.4230275   252355 
 5546000   0.54471779   -3.3204056   -1.8982563  0.025003646   -3.3204056    1.4221493   252256 
 5547000   0.54586921   -3.3223615   -1.8968331  0.027475035   -3.3223615    1.4255284   252190 
 5548000   0.54479444   -3.3215501   -1.8983544  0.026823951   -3.3215501    1.4231957   252106 
 5549000    0.5443207   -3.3215862   -1.8990751  0.027773559   -3.3215862    1.4225111   252008 
 5550000   0.54453708   -3.3211287   -1.8976003  0.032470978   -3.3211287    1.4235284   251928 
 5551000   0.54301716   -3.3188433   -1.8991868  0.026195496   -3.3188433    1.4196565   251910 
 5552000   0.54275125   -3.3180028   -1.8987598  0.026033865   -3.3180028     1.419243   251860 
 5553000   0.54334347   -3.3206552   -1.8994573  0.027101802   -3.3206552    1.4211979   251788 
 5554000   0.54453977   -3.3230059   -1.8981866  0.027945687   -3.3230059    1.4248193   251701 
 5555000   0.54299181   -3.3192682    -1.898262  0.029272426   -3.3192682    1.4210061   251659 
 5556000   0.54338893    -3.320044   -1.8976991  0.024636985    -3.320044    1.4223449   251606 
 5557000   0.54414456   -3.3218959   -1.8970917  0.024114946   -3.3218959    1.4248041   251521 
 5558000   0.54460986   -3.3214191   -1.8951188  0.028212652   -3.3214191    1.4263004   251472 
 5559000   0.54444455   -3.3217907   -1.8957418  0.028754981   -3.3217907    1.4260489   251440 
 5560000   0.54451738   -3.3236727   -1.8971664  0.028191442   -3.3236727    1.4265063   251393 
 5561000   0.54364046   -3.3208453    -1.896336  0.023076225   -3.3208453    1.4245093   251340 
 5562000   0.54217202    -3.318789   -1.8977317  0.023464866    -3.318789    1.4210573   251270 
 5563000   0.54366237   -3.3218049   -1.8963194  0.033313951   -3.3218049    1.4254855   251178 
 5564000   0.54348772   -3.3214209   -1.8962572  0.024778023   -3.3214209    1.4251637   251154 
 5565000   0.54292512   -3.3194779   -1.8954946  0.026976235   -3.3194779    1.4239833   251102 
 5566000   0.54214722    -3.318421   -1.8960645  0.024985229    -3.318421    1.4223565   251029 
 5567000   0.54354591   -3.3233445   -1.8966876  0.029850408   -3.3233445    1.4266569   250918 
 5568000    0.5435866   -3.3211353   -1.8940474   0.03170086   -3.3211353    1.4270879   250861 
 5569000   0.54273045   -3.3210969     -1.89566  0.033231964   -3.3210969    1.4254369   250756 
 5570000   0.54194206   -3.3191101   -1.8955793  0.028327043   -3.3191101    1.4235309   250727 
 5571000   0.54204783   -3.3227824   -1.8988602  0.026745219   -3.3227824    1.4239223   250707 
 5572000   0.54076182   -3.3198344   -1.8989447  0.028535893   -3.3198344    1.4208897   250646 
 5573000   0.54080474    -3.322415   -1.9007715  0.029759002    -3.322415    1.4216434   250533 
 5574000   0.54127339   -3.3226358   -1.8993912  0.027583405   -3.3226358    1.4232447   250468 
 5575000   0.54260518   -3.3264071   -1.8991135  0.029775071   -3.3264071    1.4272936   250372 
 5576000   0.54197938    -3.323458   -1.8973321  0.033388494    -3.323458    1.4261259   250288 
 5577000    0.5421887    -3.324054   -1.8972747  0.028000818    -3.324054    1.4267793   250270 
 5578000   0.54098663   -3.3241363    -1.900048  0.030654143   -3.3241363    1.4240883   250187 
 5579000    0.5392735    -3.323524   -1.9034402  0.027688507    -3.323524    1.4200839   250098 
 5580000   0.54024987   -3.3247659    -1.901798  0.027269749   -3.3247659    1.4229679   250043 
 5581000   0.54069799    -3.326794   -1.9022356  0.024612166    -3.326794    1.4245584   249971 
 5582000    0.5408083   -3.3258526   -1.9005417  0.029984145   -3.3258526    1.4253109   249890 
 5583000   0.53996289   -3.3224605    -1.899167  0.032513765   -3.3224605    1.4232935   249853 
 5584000   0.54019196   -3.3249716   -1.9004585  0.023197937   -3.3249716    1.4245131   249745 
 5585000   0.53960919   -3.3238948   -1.9005823  0.026199792   -3.3238948    1.4233125   249686 
 5586000   0.53898208   -3.3239037   -1.9017497  0.027999095   -3.3239037     1.422154   249599 
 5587000   0.53770117   -3.3216575   -1.9024796  0.033240078   -3.3216575    1.4191779   249528 
 5588000   0.53774154   -3.3235607    -1.903878  0.025723867   -3.3235607    1.4196827   249458 
 5589000   0.53725096   -3.3214485   -1.9024922  0.028724136   -3.3214485    1.4189563   249358 
 5590000   0.53950472   -3.3270719   -1.9016657  0.028409057   -3.3270719    1.4254061   249271 
 5591000   0.53884813   -3.3270002   -1.9025917   0.02417748   -3.3270002    1.4244085   249142 
 5592000    0.5376527   -3.3214936    -1.900034  0.031003452   -3.3214936    1.4214596   249105 
 5593000   0.53740474   -3.3227278   -1.9017013  0.029921964   -3.3227278    1.4210265   249066 
 5594000   0.53904906   -3.3250087   -1.8992507  0.028357421   -3.3250087     1.425758   248999 
 5595000   0.53930403   -3.3254772    -1.898764  0.026846773   -3.3254772    1.4267132   248950 
 5596000    0.5387478    -3.326501   -1.9009214  0.025733848    -3.326501    1.4255795   248891 
 5597000   0.53672353   -3.3197401   -1.8993058  0.025584687   -3.3197401    1.4204343   248854 
 5598000    0.5369971   -3.3193846   -1.8977864   0.02869415   -3.3193846    1.4215981   248777 
 5599000   0.53592707    -3.318811   -1.8993437  0.029108905    -3.318811    1.4194672   248654 
 5600000   0.53741344   -3.3207219   -1.8968999  0.029761309   -3.3207219    1.4238221   248581 
 5601000   0.53538819   -3.3166484   -1.8976497  0.027626988   -3.3166484    1.4189987   248486 
 5602000   0.53686478   -3.3184656   -1.8951638  0.030398425   -3.3184656    1.4233018   248418 
 5603000   0.53647411   -3.3178559    -1.895252  0.029190426   -3.3178559    1.4226039   248359 
 5604000   0.53640316   -3.3182573   -1.8956639  0.027527918   -3.3182573    1.4225933   248328 
 5605000   0.53560528   -3.3153077   -1.8944185  0.030223782   -3.3153077    1.4208892   248256 
 5606000    0.5368853   -3.3181252   -1.8933868  0.026127159   -3.3181252    1.4247383   248177 
 5607000   0.53582749   -3.3168846   -1.8945235   0.02470315   -3.3168846    1.4223611   248102 
 5608000   0.53597654   -3.3189677   -1.8957119  0.025748188   -3.3189677    1.4232558   248015 
 5609000   0.53557413   -3.3176363   -1.8950132  0.028106046   -3.3176363    1.4226232   247939 
 5610000   0.53512177   -3.3165678   -1.8944579  0.025144106   -3.3165678    1.4221099   247819 
 5611000   0.53421746     -3.31593   -1.8959656  0.022886517     -3.31593    1.4199645   247774 
 5612000     0.534656   -3.3158083   -1.8944373   0.03280209   -3.3158083    1.4213711   247732 
 5613000   0.53469792   -3.3169841   -1.8951114  0.027122528   -3.3169841    1.4218728   247664 
 5614000    0.5352922   -3.3196135   -1.8958213  0.026722962   -3.3196135    1.4237923   247605 
 5615000   0.53334943   -3.3159809   -1.8970236  0.022727585   -3.3159809    1.4189572   247547 
 5616000   0.53344899   -3.3189385   -1.8991142  0.023773812   -3.3189385    1.4198243   247442 
 5617000   0.53344113    -3.317433   -1.8973656  0.026970074    -3.317433    1.4200674   247396 
 5618000   0.53453964   -3.3201286   -1.8965327  0.028357102   -3.3201286    1.4235959   247291 
 5619000    0.5330075   -3.3162481   -1.8962215  0.027451011   -3.3162481    1.4200266   247202 
 5620000   0.53377082   -3.3198928   -1.8974644  0.024914502   -3.3198928    1.4224285   247138 
 5621000   0.53291046   -3.3173965   -1.8968872  0.029453802   -3.3173965    1.4205093   247073 
 5622000   0.53372578   -3.3175894   -1.8944632  0.026596907   -3.3175894    1.4231261   246996 
 5623000   0.53335518   -3.3159689     -1.89352   0.02836364   -3.3159689    1.4224489   246942 
 5624000   0.53327612   -3.3170257   -1.8945399  0.026213942   -3.3170257    1.4224858   246899 
 5625000   0.53347537   -3.3175109   -1.8942111  0.027083153   -3.3175109    1.4232997   246850 
 5626000   0.53235099   -3.3146784   -1.8938029  0.028246524   -3.3146784    1.4208755   246750 
 5627000   0.53266882   -3.3149296   -1.8930098  0.029654928   -3.3149296    1.4219198   246716 
 5628000   0.53252479   -3.3150005   -1.8931598  0.026983281   -3.3150005    1.4218407   246663 
 5629000   0.53278123    -3.317782   -1.8948758  0.026069536    -3.317782    1.4229062   246597 
 5630000   0.53258054   -3.3166702   -1.8940289  0.028362873   -3.3166702    1.4226413   246550 
 5631000    0.5338148    -3.316407   -1.8900001  0.027332837    -3.316407    1.4264069   246469 
 5632000   0.53238545   -3.3136992   -1.8906324  0.032576479   -3.3136992    1.4230668   246386 
 5633000   0.53281092   -3.3145772   -1.8899222   0.02950384   -3.3145772    1.4246551   246308 
 5634000   0.53144869   -3.3125011    -1.891171  0.028246484   -3.3125011    1.4213301   246253 
 5635000   0.53156411   -3.3121349   -1.8899013  0.026419994   -3.3121349    1.4222336   246150 
 5636000   0.53071353   -3.3115956    -1.891078  0.029536554   -3.3115956    1.4205176   246053 
 5637000   0.53118824   -3.3122052   -1.8899487   0.03152281   -3.3122052    1.4222564   245972 
 5638000    0.5326152   -3.3137735   -1.8874818  0.026946507   -3.3137735    1.4262917   245935 
 5639000   0.53051832   -3.3114209   -1.8901492  0.025853191   -3.3114209    1.4212717   245832 
 5640000   0.53068996   -3.3111123   -1.8889527   0.02775296   -3.3111123    1.4221596   245758 
 5641000   0.53005716    -3.310387    -1.889397  0.028674081    -3.310387      1.42099   245667 
 5642000   0.52964226    -3.309453   -1.8892574  0.026898709    -3.309453    1.4201956   245612 
 5643000   0.53172187   -3.3152877   -1.8890512  0.026898747   -3.3152877    1.4262365   245532 
 5644000   0.53079998   -3.3135778   -1.8894022  0.028223323   -3.3135778    1.4241756   245461 
 5645000   0.53110366   -3.3134083   -1.8879708  0.031100027   -3.3134083    1.4254375   245384 
 5646000   0.53083729   -3.3146549   -1.8894561  0.030985042   -3.3146549    1.4251989   245302 
 5647000   0.53009962   -3.3115365   -1.8878016  0.026826104   -3.3115365    1.4237349   245213 
 5648000   0.52896497   -3.3100091   -1.8890145  0.024819176   -3.3100091    1.4209946   245160 
 5649000   0.52902133   -3.3091008   -1.8878389  0.026705259   -3.3091008     1.421262   245140 
 5650000   0.53069302   -3.3117794   -1.8857703  0.022909075   -3.3117794     1.426009   245096 
 5651000   0.52945474   -3.3081603   -1.8848805   0.02963693   -3.3081603    1.4232798   244993 
 5652000   0.52869859   -3.3060709   -1.8846265  0.030523879   -3.3060709    1.4214444   244959 
 5653000   0.52923754   -3.3096762   -1.8862656  0.028173789   -3.3096762    1.4234106   244870 
 5654000   0.52690976   -3.3080482   -1.8902267  0.027558489   -3.3080482    1.4178216   244754 
 5655000   0.52686606   -3.3079651   -1.8899425  0.023743379   -3.3079651    1.4180226   244699 
 5656000   0.52716453   -3.3081991   -1.8892398  0.027677482   -3.3081991    1.4189593   244676 
 5657000   0.52763295   -3.3070985   -1.8864894  0.026957847   -3.3070985    1.4206091   244609 
 5658000   0.52915059   -3.3105976   -1.8854887  0.030845083   -3.3105976    1.4251089   244538 
 5659000   0.52820296   -3.3098691   -1.8868119  0.025820444   -3.3098691    1.4230572   244452 
 5660000   0.52806917   -3.3087054   -1.8859097  0.027995404   -3.3087054    1.4227957   244435 
 5661000   0.52806943   -3.3082792   -1.8852324  0.027257897   -3.3082792    1.4230468   244392 
 5662000   0.52698167   -3.3061568   -1.8855646  0.027063983   -3.3061568    1.4205921   244310 
 5663000   0.52708124   -3.3064114   -1.8852832  0.026028466   -3.3064114    1.4211281   244264 
 5664000   0.52722266   -3.3078517   -1.8861502  0.026885758   -3.3078517    1.4217015   244231 
 5665000   0.52680583   -3.3073388   -1.8861853   0.02945156   -3.3073388    1.4211535   244132 
 5666000   0.52670597   -3.3068643   -1.8855202  0.027032126   -3.3068643    1.4213441   244053 
 5667000   0.52703185   -3.3047136    -1.882222  0.029597048   -3.3047136    1.4224916   244007 
 5668000   0.52662827   -3.3056618   -1.8838341  0.030269182   -3.3056618    1.4218277   243934 
 5669000   0.52761459   -3.3080786   -1.8832726    0.0247479   -3.3080786     1.424806   243880 
 5670000   0.52574412   -3.3049176   -1.8847668  0.028087287   -3.3049176    1.4201509   243812 
 5671000   0.52570743   -3.3057229   -1.8852692  0.026102794   -3.3057229    1.4204537   243743 
 5672000   0.52630773   -3.3071525   -1.8846566  0.027734864   -3.3071525    1.4224959   243671 
 5673000   0.52585694   -3.3071082   -1.8853755   0.03286556   -3.3071082    1.4217327   243593 
 5674000   0.52607154   -3.3068406   -1.8842357  0.027366836   -3.3068406    1.4226049   243543 
 5675000   0.52628013   -3.3063288   -1.8828267  0.028249855   -3.3063288    1.4235021   243486 
 5676000   0.52487376   -3.3050779   -1.8848666  0.029002117   -3.3050779    1.4202114   243398 
 5677000   0.52538927   -3.3065402   -1.8845835  0.024733825   -3.3065402    1.4219568   243338 
 5678000   0.52471071   -3.3044199   -1.8840661  0.027716953   -3.3044199    1.4203537   243298 
 5679000   0.52517039   -3.3059895   -1.8840583  0.026114198   -3.3059895    1.4219312   243241 
 5680000   0.52433103   -3.3033904   -1.8835276  0.028381558   -3.3033904    1.4198629   243206 
 5681000   0.52480503   -3.3007171   -1.8794363   0.03123175   -3.3007171    1.4212809   243183 
 5682000   0.52491438    -3.303193   -1.8810019  0.031939326    -3.303193    1.4221911   243078 
 5683000   0.52597386     -3.30472    -1.879465  0.028024267     -3.30472    1.4252551   243045 
 5684000   0.52512871    -3.304003   -1.8803703  0.024595758    -3.304003    1.4236327   242931 
 5685000   0.52399025    -3.302347   -1.8811279  0.026259095    -3.302347    1.4212191   242816 
 5686000   0.52415363    -3.301996    -1.880246  0.027062732    -3.301996    1.4217501   242801 
 5687000   0.52496478   -3.3043411   -1.8797806   0.02716644   -3.3043411    1.4245605   242697 
 5688000   0.52364133   -3.3000027   -1.8787115  0.029175462   -3.3000027    1.4212912   242642 
 5689000   0.52454821   -3.3004561   -1.8763923  0.025063351   -3.3004561    1.4240638   242589 
 5690000   0.52478924   -3.3022462    -1.877393  0.029893672   -3.3022462    1.4248532   242566 
 5691000   0.52365041   -3.2985968   -1.8764486  0.031987552   -3.2985968    1.4221481   242500 
 5692000   0.52474759   -3.3027267   -1.8772872  0.026840602   -3.3027267    1.4254395   242447 
 5693000   0.52362344   -3.2986053   -1.8756326  0.028298859   -3.2986053    1.4229727   242347 
 5694000   0.52275915   -3.2972094   -1.8762219  0.025658516   -3.2972094    1.4209875   242285 
 5695000   0.52194196   -3.2963346   -1.8773283  0.024452784   -3.2963346    1.4190063   242244 
 5696000   0.52229855    -3.295872   -1.8756207  0.027125806    -3.295872    1.4202513   242197 
 5697000   0.52226841   -3.2946226   -1.8737317  0.025564657   -3.2946226    1.4208909   242074 
 5698000   0.52236993   -3.2955658   -1.8739172  0.028738791   -3.2955658    1.4216487   241992 
 5699000   0.52245501   -3.2963313    -1.874404  0.027004318   -3.2963313    1.4219273   241984 
 5700000   0.52228788   -3.2964236   -1.8741695  0.028965946   -3.2964236    1.4222541   241851 
 5701000   0.52216018   -3.2964316    -1.874143  0.025173526   -3.2964316    1.4222886   241786 
 5702000   0.52228603   -3.2981306   -1.8750165  0.026692789   -3.2981306     1.423114   241704 
 5703000   0.52204923   -3.2952953   -1.8724909  0.025926103   -3.2952953    1.4228044   241647 
 5704000   0.52330366   -3.2954328   -1.8689499  0.030741354   -3.2954328    1.4264829   241603 
 5705000   0.52273809   -3.2940016   -1.8689129  0.029232085   -3.2940016    1.4250887   241578 
 5706000   0.52259137   -3.2961028   -1.8708418  0.027313549   -3.2961028     1.425261   241481 
 5707000   0.52166531   -3.2934764   -1.8705349  0.028737095   -3.2934764    1.4229416   241446 
 5708000   0.52222115   -3.2970843   -1.8724259  0.026963921   -3.2970843    1.4246584   241412 
 5709000   0.52197255   -3.2975085   -1.8730445  0.022571633   -3.2975085     1.424464   241330 
 5710000   0.52160658   -3.2973501   -1.8733124  0.025398045   -3.2973501    1.4240377   241233 
 5711000   0.52226105   -3.2992734    -1.873041  0.029884999   -3.2992734    1.4262324   241164 
 5712000   0.52208692   -3.2994265   -1.8732616  0.029633585   -3.2994265    1.4261649   241095 
 5713000    0.5226222   -3.2975994   -1.8696821  0.031302745   -3.2975994    1.4279173   241046 
 5714000   0.52162001   -3.2944267   -1.8691234  0.026985358   -3.2944267    1.4253033   241025 
 5715000   0.52182302    -3.296011   -1.8694309  0.030908344    -3.296011    1.4265801   240903 
 5716000   0.52162578     -3.29369   -1.8674479  0.032988403     -3.29369    1.4262422   240869 
 5717000   0.52163631     -3.29385   -1.8671822  0.031011677     -3.29385    1.4266678   240802 
 5718000   0.52138271   -3.2933009   -1.8669653  0.027026329   -3.2933009    1.4263355   240741 
 5719000   0.51947808   -3.2906107   -1.8691313  0.029394327   -3.2906107    1.4214793   240681 
 5720000   0.52011417   -3.2918251   -1.8680669  0.026822278   -3.2918251    1.4237582   240590 
 5721000   0.51972494   -3.2911899   -1.8679351  0.028087622   -3.2911899    1.4232547   240495 
 5722000   0.51967169   -3.2914429   -1.8681446  0.028610933   -3.2914429    1.4232983   240463 
 5723000   0.51909566   -3.2899428   -1.8677372  0.029160324   -3.2899428    1.4222056   240381 
 5724000   0.52008854   -3.2923026   -1.8669201  0.029518719   -3.2923026    1.4253825   240304 
 5725000   0.51901039   -3.2917682    -1.869009  0.025436384   -3.2917682    1.4227592   240248 
 5726000   0.51799355   -3.2902744   -1.8694747  0.026558708   -3.2902744    1.4207997   240108 
 5727000   0.51907622   -3.2925555   -1.8686972  0.024677555   -3.2925555    1.4238583   240093 
 5728000   0.51757239   -3.2879531   -1.8679656  0.025374945   -3.2879531    1.4199875   240050 
 5729000   0.51878984   -3.2903395   -1.8664839  0.032288934   -3.2903395    1.4238556   239961 
 5730000   0.51929829    -3.290431    -1.864663   0.03078096    -3.290431    1.4257679   239874 
 5731000   0.52005777   -3.2917804   -1.8636117  0.028911132   -3.2917804    1.4281687   239821 
 5732000   0.51932468   -3.2903217   -1.8637439  0.030690951   -3.2903217    1.4265779   239750 
 5733000   0.51851313   -3.2883828   -1.8639807  0.027521965   -3.2883828     1.424402   239741 
 5734000   0.51819457   -3.2903506   -1.8666099  0.023269594   -3.2903506    1.4237407   239705 
 5735000    0.5182413   -3.2899625    -1.865832  0.028945113   -3.2899625    1.4241305   239661 
 5736000   0.51731526   -3.2870485   -1.8650415  0.029229083   -3.2870485     1.422007   239590 
 5737000   0.51904202   -3.2896805    -1.862504   0.02728377   -3.2896805    1.4271765   239519 
 5738000   0.51678268   -3.2879177   -1.8663898  0.027219345   -3.2879177    1.4215279   239424 
 5739000   0.51618303   -3.2872068   -1.8669013  0.030069956   -3.2872068    1.4203056   239352 
 5740000   0.51713454    -3.286928    -1.863927  0.027513344    -3.286928     1.423001   239339 
 5741000   0.51696287   -3.2879008   -1.8646824  0.025256773   -3.2879008    1.4232184   239223 
 5742000   0.51709022   -3.2847329   -1.8609675  0.029339743   -3.2847329    1.4237654   239190 
 5743000   0.51623233   -3.2820164   -1.8601376  0.031742189   -3.2820164    1.4218788   239110 
 5744000   0.51769422   -3.2871477   -1.8609083  0.027246774   -3.2871477    1.4262394   239054 
 5745000   0.51781863   -3.2848671   -1.8577716  0.027728227   -3.2848671    1.4270955   238968 
 5746000   0.51730557   -3.2822849   -1.8564064   0.02887333   -3.2822849    1.4258785   238935 
 5747000    0.5171623   -3.2811665   -1.8552473  0.029382203   -3.2811665    1.4259192   238862 
 5748000   0.51602181   -3.2805935    -1.857372   0.02654116   -3.2805935    1.4232215   238787 
 5749000    0.5172044   -3.2811677   -1.8543738  0.029370445   -3.2811677    1.4267939   238735 
 5750000   0.51736298   -3.2829259   -1.8554075  0.025331721   -3.2829259    1.4275184   238687 
 5751000   0.51556478   -3.2787308   -1.8559654  0.026261851   -3.2787308    1.4227654   238652 
 5752000   0.51559221   -3.2794576   -1.8562289  0.028994912   -3.2794576    1.4232287   238587 
 5753000    0.5149706   -3.2759185   -1.8538573  0.030852291   -3.2759185    1.4220612   238495 
 5754000   0.51438953   -3.2754996   -1.8547153  0.028450297   -3.2754996    1.4207843   238440 
 5755000   0.51408862   -3.2763072   -1.8560563  0.024876455   -3.2763072    1.4202509   238390 
 5756000   0.51495154   -3.2774728   -1.8543185  0.029254258   -3.2774728    1.4231543   238303 
 5757000    0.5148362   -3.2775446   -1.8539803  0.030470891   -3.2775446    1.4235643   238181 
 5758000   0.51545967   -3.2796213   -1.8538062  0.030634382   -3.2796213    1.4258151   238093 
 5759000   0.51448401   -3.2799882   -1.8562441  0.030213906   -3.2799882    1.4237441   237988 
 5760000   0.51494826   -3.2829112    -1.857535  0.029678222   -3.2829112    1.4253763   237930 
 5761000   0.51504272    -3.283571   -1.8573158  0.027054911    -3.283571    1.4262551   237827 
 5762000   0.51479847   -3.2840997   -1.8580832  0.029575904   -3.2840997    1.4260165   237754 
 5763000   0.51489554   -3.2845124    -1.857987  0.027868879   -3.2845124    1.4265254   237714 
 5764000   0.51579336   -3.2845183   -1.8552049  0.030468387   -3.2845183    1.4293134   237664 
 5765000    0.5146288   -3.2828242   -1.8565338  0.028620441   -3.2828242    1.4262904   237630 
 5766000   0.51427475    -3.281612   -1.8560329  0.032254572    -3.281612    1.4255791   237585 
 5767000   0.51407195     -3.28398   -1.8586931   0.03002948     -3.28398    1.4252869   237540 
 5768000   0.51270083   -3.2812811   -1.8590772  0.031275142   -3.2812811    1.4222038   237420 
 5769000   0.51270641   -3.2803745    -1.857274  0.028829522   -3.2803745    1.4231004   237273 
 5770000   0.51195608   -3.2791067   -1.8577774  0.028452254   -3.2791067    1.4213293   237221 
 5771000   0.51322475   -3.2811749    -1.855993  0.028592812   -3.2811749    1.4251819   237166 
 5772000   0.51245882    -3.279805    -1.856372  0.026600729    -3.279805    1.4234331   237103 
 5773000   0.51200902   -3.2807349   -1.8579211  0.030785353   -3.2807349    1.4228138   236998 
 5774000   0.51201427   -3.2817029     -1.85831  0.028283809   -3.2817029    1.4233929   236904 
 5775000   0.51218705   -3.2798154   -1.8554371  0.029801116   -3.2798154    1.4243783   236820 
 5776000   0.51150658    -3.278938   -1.8561156  0.027835148    -3.278938    1.4228224   236764 
 5777000   0.51229757   -3.2795148   -1.8542875  0.033170951   -3.2795148    1.4252273   236730 
 5778000   0.51341791   -3.2824855   -1.8536223  0.027649143   -3.2824855    1.4288632   236644 
 5779000   0.51130967   -3.2770645   -1.8537137  0.026584088   -3.2770645    1.4233507   236585 
 5780000   0.51239452   -3.2785938   -1.8519397  0.028083249   -3.2785938    1.4266541   236538 
 5781000   0.51154436   -3.2769942   -1.8523217  0.029898353   -3.2769942    1.4246725   236474 
 5782000   0.51119028   -3.2749321   -1.8504928  0.034249962   -3.2749321    1.4244393   236349 
 5783000   0.51214073   -3.2791699   -1.8516473  0.030477217   -3.2791699    1.4275226   236277 
 5784000   0.51273388   -3.2782692   -1.8489178  0.028137256   -3.2782692    1.4293514   236248 
 5785000   0.51131997   -3.2766401   -1.8503549  0.025210914   -3.2766401    1.4262852   236103 
 5786000   0.50973917   -3.2770259   -1.8547526  0.026717271   -3.2770259    1.4222733   236037 
 5787000   0.51010709   -3.2744064    -1.850624  0.027025765   -3.2744064    1.4237824   235957 
 5788000   0.51124446   -3.2762568   -1.8489913  0.029654615   -3.2762568    1.4272655   235906 
 5789000   0.51006921   -3.2735125   -1.8492202   0.02889539   -3.2735125    1.4242924   235855 
 5790000    0.5104822   -3.2739642   -1.8481317  0.027036592   -3.2739642    1.4258325   235791 
 5791000   0.50801206   -3.2720374   -1.8526106   0.02489897   -3.2720374    1.4194268   235709 
 5792000   0.50904875   -3.2721765   -1.8494487  0.027469528   -3.2721765    1.4227278   235642 
 5793000   0.51038455   -3.2752027   -1.8483964  0.025125813   -3.2752027    1.4268063   235585 
 5794000   0.50909714   -3.2705918   -1.8467559  0.030154428   -3.2705918    1.4238358   235481 
 5795000   0.51135187   -3.2739997   -1.8437121  0.027997887   -3.2739997    1.4302876   235457 
 5796000   0.51066142   -3.2717054   -1.8429243  0.029465584   -3.2717054    1.4287811   235387 
 5797000   0.50919338   -3.2694413   -1.8441985    0.0288925   -3.2694413    1.4252429   235293 
 5798000   0.51058732   -3.2723956   -1.8426252  0.028525312   -3.2723956    1.4297704   235190 
 5799000   0.50954053   -3.2699428   -1.8429763   0.02848739   -3.2699428    1.4269666   235169 
 5800000   0.50952846   -3.2679309   -1.8406218  0.030848015   -3.2679309     1.427309   235107 
 5801000   0.51062003   -3.2709323   -1.8398655   0.02778685   -3.2709323    1.4310668   234992 
 5802000   0.50851357   -3.2697414   -1.8439896  0.028133487   -3.2697414    1.4257517   234895 
 5803000   0.50817942   -3.2674155   -1.8424369  0.026913871   -3.2674155    1.4249786   234868 
 5804000   0.50973939   -3.2719617    -1.841939  0.024159026   -3.2719617    1.4300227   234758 
 5805000   0.50889913   -3.2668939   -1.8390521  0.034023492   -3.2668939    1.4278418   234729 
 5806000   0.50700132    -3.262473   -1.8396105  0.027339487    -3.262473    1.4228625   234672 
 5807000   0.50611177   -3.2649926   -1.8442935  0.029180567   -3.2649926    1.4206991   234617 
 5808000   0.50717905   -3.2667004   -1.8426169  0.024553963   -3.2667004    1.4240835   234553 
 5809000   0.50716213   -3.2643371    -1.839955   0.02841539   -3.2643371    1.4243821   234496 
 5810000   0.50698405   -3.2631054   -1.8389259   0.02553661   -3.2631054    1.4241796   234447 
 5811000   0.50771115   -3.2680067   -1.8412308  0.026426096   -3.2680067    1.4267759   234356 
 5812000   0.50808784   -3.2670262   -1.8386128  0.031308648   -3.2670262    1.4284135   234261 
 5813000   0.50914161   -3.2679164   -1.8360637   0.03088936   -3.2679164    1.4318527   234183 
 5814000   0.50976948   -3.2686879   -1.8343957  0.031355304   -3.2686879    1.4342922   234073 
 5815000   0.50818773   -3.2631991   -1.8330273  0.029665798   -3.2631991    1.4301717   234019 
 5816000   0.50706344   -3.2654868   -1.8377226  0.032367834   -3.2654868    1.4277642   233895 
 5817000   0.50836347   -3.2686329   -1.8368653  0.026758635   -3.2686329    1.4317676   233839 
 5818000   0.50553859   -3.2627571   -1.8384522  0.028986711   -3.2627571    1.4243049   233758 
 5819000   0.50550843   -3.2664114   -1.8417343  0.027361738   -3.2664114     1.424677   233683 
 5820000   0.50545962   -3.2646542   -1.8397245  0.029193393   -3.2646542    1.4249297   233619 
 5821000   0.50459399   -3.2631388   -1.8401986  0.028313021   -3.2631388    1.4229402   233545 
 5822000   0.50406186    -3.261004   -1.8391626  0.028275706    -3.261004    1.4218414   233479 
 5823000   0.50583085     -3.26432   -1.8372687  0.026062879     -3.26432    1.4270513   233443 
 5824000   0.50505885   -3.2606567    -1.835356  0.026946061   -3.2606567    1.4253007   233373 
 5825000   0.50563349    -3.260261   -1.8331735  0.029504147    -3.260261    1.4270875   233346 
 5826000   0.50566507   -3.2607781   -1.8330018   0.02410373   -3.2607781    1.4277763   233248 
 5827000   0.50667615   -3.2638673   -1.8326226  0.029534031   -3.2638673    1.4312447   233148 
 5828000   0.50661441    -3.264277   -1.8327523   0.02828661    -3.264277    1.4315247   233074 
 5829000    0.5046356   -3.2621614   -1.8357508  0.028064578   -3.2621614    1.4264106   232996 
 5830000   0.50563327   -3.2650512   -1.8354524  0.028676397   -3.2650512    1.4295988   232936 
 5831000   0.50403539   -3.2604987    -1.835124  0.027748779   -3.2604987    1.4253747   232888 
 5832000    0.5046172   -3.2616024   -1.8342637  0.029353934   -3.2616024    1.4273387   232836 
 5833000   0.50477175   -3.2615881   -1.8333706  0.029688134   -3.2615881    1.4282175   232764 
 5834000   0.50330403    -3.258531   -1.8338358  0.027111118    -3.258531    1.4246952   232661 
 5835000   0.50469309   -3.2634949   -1.8346713   0.02507516   -3.2634949    1.4288237   232629 
 5836000   0.50534796   -3.2646818   -1.8334012  0.025476015   -3.2646818    1.4312806   232531 
 5837000   0.50331165   -3.2597956   -1.8336997  0.025691634   -3.2597956    1.4260959   232436 
 5838000   0.50416348   -3.2641877   -1.8352172  0.026792186   -3.2641877    1.4289706   232361 
 5839000   0.50303249   -3.2607512    -1.834354  0.028505956   -3.2607512    1.4263972   232258 
 5840000   0.50327742   -3.2603009   -1.8329941  0.028220804   -3.2603009    1.4273068   232223 
 5841000   0.50368662   -3.2621401    -1.833162  0.026240518   -3.2621401    1.4289781   232140 
 5842000   0.50235341    -3.257997   -1.8320335  0.030805166    -3.257997    1.4259635   232015 
 5843000   0.50239684   -3.2578757    -1.831506  0.027254375   -3.2578757    1.4263696   231969 
 5844000   0.50250913   -3.2583774    -1.831203  0.025632071   -3.2583774    1.4271745   231890 
 5845000   0.50186508   -3.2568938   -1.8312104    0.0286503   -3.2568938    1.4256834   231835 
 5846000   0.50292373   -3.2574146    -1.828286  0.028284514   -3.2574146    1.4291285   231764 
 5847000   0.50245978    -3.256048    -1.827751  0.025655749    -3.256048     1.428297   231685 
 5848000   0.50179625   -3.2548997   -1.8282118  0.028081113   -3.2548997    1.4266879   231640 
 5849000   0.50317193   -3.2589886   -1.8278024  0.023399658   -3.2589886    1.4311862   231545 
 5850000   0.50148955   -3.2543114   -1.8275161  0.026927698   -3.2543114    1.4267953   231481 
 5851000   0.50076235   -3.2528084   -1.8277496  0.026777913   -3.2528084    1.4250588   231427 
 5852000   0.50219639   -3.2562723   -1.8269781  0.027047151   -3.2562723    1.4292941   231402 
 5853000    0.5022742   -3.2559948   -1.8263186  0.027444323   -3.2559948    1.4296762   231376 
 5854000   0.50261321    -3.256639   -1.8256267   0.02903057    -3.256639    1.4310123   231316 
 5855000   0.50104942   -3.2496067   -1.8230529  0.027044487   -3.2496067    1.4265538   231317 
 5856000   0.50261344   -3.2522842   -1.8208258  0.028234673   -3.2522842    1.4314585   231244 
 5857000   0.50233629   -3.2546607   -1.8232302  0.028424069   -3.2546607    1.4314305   231121 
 5858000   0.50149115   -3.2525074   -1.8229594  0.025709123   -3.2525074     1.429548   231036 
 5859000   0.50058396   -3.2529696    -1.825433  0.028305135   -3.2529696    1.4275366   230943 
 5860000    0.4997842   -3.2492172   -1.8235539  0.024808783   -3.2492172    1.4256633   230877 
 5861000   0.49982726   -3.2493335   -1.8231397  0.029918073   -3.2493335    1.4261939   230811 
 5862000   0.49997359   -3.2481203   -1.8209339  0.024979316   -3.2481203    1.4271865   230718 
 5863000   0.50033063   -3.2475358    -1.819293  0.025059472   -3.2475358    1.4282428   230712 
 5864000   0.50030457   -3.2451958   -1.8166807  0.032572108   -3.2451958    1.4285151   230656 
 5865000   0.50069825   -3.2453302   -1.8152383  0.030863015   -3.2453302    1.4300918   230583 
 5866000   0.50119056   -3.2442292    -1.812427  0.032663248   -3.2442292    1.4318022   230534 
 5867000   0.49942293   -3.2437582   -1.8162007   0.03081843   -3.2437582    1.4275575   230404 
 5868000   0.49965472   -3.2464962   -1.8177429  0.027167241   -3.2464962    1.4287533   230318 
 5869000   0.49969594    -3.245933   -1.8165157  0.029580068    -3.245933    1.4294173   230230 
 5870000   0.49836918   -3.2404651   -1.8142484  0.030212156   -3.2404651    1.4262167   230134 
 5871000   0.49817473   -3.2414213   -1.8152467  0.026903328   -3.2414213    1.4261746   230051 
 5872000   0.49966526   -3.2447154   -1.8138134  0.029150227   -3.2447154     1.430902   229977 
 5873000    0.4980977   -3.2417439   -1.8148471  0.028455993   -3.2417439    1.4268969   229899 
 5874000   0.49904479   -3.2451145   -1.8147455  0.024891423   -3.2451145     1.430369   229777 
 5875000   0.49754465   -3.2411471   -1.8146743  0.028214594   -3.2411471    1.4264729   229712 
 5876000   0.49685146   -3.2395896   -1.8148623   0.02588703   -3.2395896    1.4247273   229673 
 5877000   0.49853074   -3.2451609   -1.8154066  0.025421792   -3.2451609    1.4297543   229639 
 5878000   0.49851681   -3.2464745   -1.8161622  0.026725033   -3.2464745    1.4303123   229543 
 5879000   0.49768607   -3.2404691   -1.8119428  0.030607808   -3.2404691    1.4285263   229447 
 5880000   0.49805186    -3.241518   -1.8114993  0.029830463    -3.241518    1.4300187   229376 
 5881000   0.49811299   -3.2445292   -1.8140356  0.027376963   -3.2445292    1.4304936   229328 
 5882000   0.49790949   -3.2455767    -1.815075  0.029005394   -3.2455767    1.4305018   229233 
 5883000    0.4978839   -3.2449861   -1.8138398  0.027386886   -3.2449861    1.4311462   229118 
 5884000   0.49798765   -3.2473802   -1.8153108  0.027979547   -3.2473802    1.4320695   229018 
 5885000   0.49721733   -3.2470499   -1.8169084  0.026133929   -3.2470499    1.4301415   228972 
 5886000   0.49620381   -3.2461963   -1.8184524  0.031281188   -3.2461963    1.4277439   228889 
 5887000   0.49710271   -3.2490198   -1.8181769  0.027156137   -3.2490198    1.4308429   228807 
 5888000   0.49509213   -3.2444327   -1.8190281  0.027366015   -3.2444327    1.4254046   228751 
 5889000   0.49638606   -3.2469395   -1.8172659  0.026397631   -3.2469395    1.4296736   228664 
 5890000   0.49567228   -3.2478679   -1.8198878   0.02842014   -3.2478679      1.42798   228606 
 5891000   0.49597316   -3.2461401   -1.8169994  0.031298966   -3.2461401    1.4291407   228559 
 5892000   0.49575879   -3.2462944   -1.8173588   0.02690047   -3.2462944    1.4289356   228493 
 5893000   0.49493149   -3.2419807   -1.8150987  0.029387228   -3.2419807     1.426882   228440 
 5894000   0.49367654    -3.240579    -1.816698  0.029244869    -3.240579    1.4238811   228341 
 5895000    0.4953209   -3.2453673   -1.8160549  0.028776857   -3.2453673    1.4293124   228231 
 5896000   0.49534088   -3.2457386   -1.8159676  0.025305456   -3.2457386    1.4297709   228167 
 5897000    0.4957019   -3.2421738   -1.8111287  0.029132434   -3.2421738    1.4310451   228130 
 5898000   0.49512999   -3.2422525   -1.8125138  0.028827801   -3.2422525    1.4297387   228075 
 5899000   0.49542142   -3.2426746   -1.8119061  0.031306448   -3.2426746    1.4307685   228045 
 5900000   0.49578416   -3.2422444   -1.8100641  0.027871807   -3.2422444    1.4321803   227987 
 5901000   0.49444562   -3.2426746   -1.8136777  0.030268861   -3.2426746    1.4289968   227878 
 5902000   0.49364438   -3.2444329   -1.8170878  0.026432992   -3.2444329    1.4273451   227772 
 5903000   0.49397158   -3.2413726   -1.8126047  0.028166142   -3.2413726    1.4287679   227696 
 5904000   0.49419981   -3.2420493   -1.8122696  0.030255588   -3.2420493    1.4297797   227640 
 5905000   0.49312857   -3.2388248   -1.8117744   0.03464342   -3.2388248    1.4270504   227581 
 5906000   0.49316913   -3.2400565   -1.8123618  0.027969395   -3.2400565    1.4276947   227497 
 5907000   0.49275247   -3.2422947   -1.8152605  0.029974705   -3.2422947    1.4270342   227410 
 5908000   0.49304131   -3.2450932    -1.816387  0.026640894   -3.2450932    1.4287063   227277 
 5909000   0.49382885   -3.2441379   -1.8128473  0.027682386   -3.2441379    1.4312906   227229 
 5910000    0.4917871    -3.239416   -1.8138297  0.026288282    -3.239416    1.4255862   227195 
 5911000    0.4930028   -3.2416617   -1.8124319  0.029747503   -3.2416617    1.4292298   227176 
 5912000   0.49373374   -3.2448708   -1.8128537   0.02431311   -3.2448708     1.432017   227070 
 5913000   0.49395656   -3.2436877   -1.8104184  0.026254724   -3.2436877    1.4332692   226974 
 5914000   0.49157663   -3.2405908   -1.8136677  0.025363592   -3.2405908    1.4269231   226885 
 5915000   0.49278575   -3.2450206   -1.8138623  0.025855044   -3.2450206    1.4311583   226770 
 5916000   0.49263625    -3.241801   -1.8105404  0.031346078    -3.241801    1.4312606   226685 
 5917000   0.49164613   -3.2398766   -1.8114548  0.027004514   -3.2398766    1.4284218   226679 
 5918000   0.48975253   -3.2361822   -1.8124895  0.027271981   -3.2361822    1.4236927   226556 
 5919000   0.48949168   -3.2354119   -1.8120252  0.024883908   -3.2354119    1.4233868   226484 
 5920000     0.491258   -3.2373618   -1.8083971  0.026851872   -3.2373618    1.4289647   226414 
 5921000   0.49010508   -3.2330341   -1.8068688  0.029255056   -3.2330341    1.4261654   226326 
 5922000   0.49147782   -3.2380556   -1.8072382  0.029732839   -3.2380556    1.4308174   226222 
 5923000   0.49131526   -3.2383297   -1.8076124  0.031681076   -3.2383297    1.4307173   226163 
 5924000   0.49080915   -3.2363032   -1.8067057  0.027370861   -3.2363032    1.4295975   226107 
 5925000   0.49020188   -3.2348315   -1.8067313  0.028641496   -3.2348315    1.4281003   226064 
 5926000   0.48932317   -3.2329987   -1.8070547    0.0281286   -3.2329987     1.425944   226000 
 5927000    0.4888126   -3.2328807    -1.808267  0.025610555   -3.2328807    1.4246137   225975 
 5928000   0.49047985   -3.2349355   -1.8050514  0.029433675   -3.2349355    1.4298841   225910 
 5929000   0.48913421    -3.231636   -1.8051949  0.028837557    -3.231636    1.4264411   225834 
 5930000   0.49016935   -3.2354595   -1.8055184  0.028077054   -3.2354595     1.429941   225758 
 5931000   0.48915024    -3.234663    -1.806955  0.030634378    -3.234663     1.427708   225641 
 5932000   0.48987499   -3.2330944   -1.8027956  0.032907281   -3.2330944    1.4302988   225566 
 5933000   0.48904579   -3.2304784    -1.802303  0.025662169   -3.2304784    1.4281753   225519 
 5934000    0.4884052   -3.2307811   -1.8039071    0.0267665   -3.2307811     1.426874   225429 
 5935000   0.48930135   -3.2322705   -1.8021249  0.030508609   -3.2322705    1.4301456   225326 
 5936000   0.48929363   -3.2307641    -1.800311  0.029045207   -3.2307641    1.4304531   225274 
 5937000   0.48908998   -3.2300268    -1.799623  0.030709817   -3.2300268    1.4304038   225188 
 5938000   0.48818945   -3.2269054   -1.7989388  0.030305542   -3.2269054    1.4279666   225157 
 5939000   0.48865664   -3.2313553   -1.8014061  0.031833859   -3.2313553    1.4299492   225060 
 5940000   0.48827837    -3.228242   -1.7989361  0.027013821    -3.228242    1.4293059   224987 
 5941000   0.48680661   -3.2265646    -1.801022  0.029372917   -3.2265646    1.4255426   224901 
 5942000   0.48720452   -3.2270927   -1.8003531  0.028207093   -3.2270927    1.4267396   224896 
 5943000   0.48843543   -3.2289878   -1.7984019  0.029904506   -3.2289878    1.4305859   224858 
 5944000   0.48871021   -3.2280436   -1.7960415  0.027165907   -3.2280436    1.4320021   224762 
 5945000     0.488269   -3.2275605   -1.7962527  0.034339273   -3.2275605    1.4313079   224668 
 5946000    0.4896729   -3.2314905   -1.7958692  0.029453183   -3.2314905    1.4356213   224637 
 5947000   0.48798152   -3.2269156     -1.79603  0.029010164   -3.2269156    1.4308855   224602 
 5948000   0.48715629   -3.2238181   -1.7950088  0.028781855   -3.2238181    1.4288093   224548 
 5949000   0.48659251   -3.2268135   -1.7992382  0.027920584   -3.2268135    1.4275753   224482 
 5950000   0.48537336   -3.2254902   -1.8011871  0.022794561   -3.2254902    1.4243031   224434 
 5951000   0.48537278   -3.2246008    -1.799982  0.023646618   -3.2246008    1.4246188   224384 
 5952000   0.48699924   -3.2263307   -1.7967087  0.027636535   -3.2263307     1.429622   224348 
 5953000   0.48713346   -3.2240536    -1.793789  0.028163869   -3.2240536    1.4302646   224309 
 5954000   0.48645387   -3.2222163   -1.7933227  0.026974619   -3.2222163    1.4288936   224211 
 5955000   0.48634956    -3.223671   -1.7945867  0.030273379    -3.223671    1.4290843   224133 
 5956000     0.487552   -3.2259923   -1.7928185  0.034557678   -3.2259923    1.4331739   224046 
 5957000   0.48787453   -3.2293184   -1.7949019  0.029179765   -3.2293184    1.4344165   224000 
 5958000   0.48754156   -3.2295425   -1.7958554  0.029110982   -3.2295425    1.4336871   223961 
 5959000   0.48765691   -3.2306784   -1.7961845  0.029207915   -3.2306784    1.4344939   223888 
 5960000    0.4872788   -3.2326928   -1.7990935  0.022044317   -3.2326928    1.4335993   223854 
 5961000    0.4865486   -3.2287163    -1.796971  0.033062928   -3.2287163    1.4317453   223808 
 5962000   0.48740512   -3.2278771   -1.7935986  0.032146936   -3.2278771    1.4342785   223806 
 5963000   0.48645874   -3.2259894   -1.7940735  0.028869034   -3.2259894    1.4319159   223740 
 5964000   0.48512332   -3.2249215   -1.7965853  0.027995438   -3.2249215    1.4283361   223685 
 5965000   0.48536951      -3.2283   -1.7986382  0.026580286      -3.2283    1.4296618   223591 
 5966000   0.48447006    -3.224918   -1.7978226  0.027912155    -3.224918    1.4270954   223578 
 5967000   0.48401877   -3.2235589   -1.7973654  0.031232135   -3.2235589    1.4261934   223511 
 5968000   0.48529126   -3.2256934   -1.7954497  0.029545603   -3.2256934    1.4302437   223464 
 5969000   0.48513365   -3.2238313   -1.7934377  0.029166022   -3.2238313    1.4303937   223368 
 5970000   0.48540095   -3.2258965    -1.794202  0.029836125   -3.2258965    1.4316945   223288 
 5971000   0.48501156   -3.2252568   -1.7943327  0.029051885   -3.2252568    1.4309241   223229 
 5972000   0.48503522   -3.2265316   -1.7953645  0.029225566   -3.2265316     1.431167   223202 
 5973000   0.48504738    -3.225546   -1.7939647  0.032906541    -3.225546    1.4315813   223143 
 5974000   0.48472383   -3.2275676   -1.7962228  0.029301881   -3.2275676    1.4313448   223031 
 5975000   0.48590803   -3.2287044    -1.793644  0.028808513   -3.2287044    1.4350604   222997 
 5976000    0.4833304   -3.2211897   -1.7933385  0.030594489   -3.2211897    1.4278512   222934 
 5977000   0.48412422   -3.2219446    -1.791312  0.031888925   -3.2219446    1.4306326   222866 
 5978000   0.48442414   -3.2207085   -1.7886305  0.031486363   -3.2207085     1.432078   222779 
 5979000   0.48513436     -3.22052   -1.7860205  0.029567355     -3.22052    1.4344995   222729 
 5980000   0.48491544   -3.2219345   -1.7875478  0.030832998   -3.2219345    1.4343867   222646 
 5981000   0.48377417   -3.2186036   -1.7871299   0.02774884   -3.2186036    1.4314737   222574 
 5982000   0.48228821   -3.2152317   -1.7877765  0.026395287   -3.2152317    1.4274552   222515 
 5983000   0.48294386   -3.2160627   -1.7862043  0.028942575   -3.2160627    1.4298584   222443 
 5984000   0.48420456   -3.2165094   -1.7823833  0.028293254   -3.2165094    1.4341261   222360 
 5985000   0.48354043   -3.2149349   -1.7819122  0.030338991   -3.2149349    1.4330227   222226 
 5986000   0.48375308   -3.2155625   -1.7813804  0.029919216   -3.2155625    1.4341821   222144 
 5987000   0.48448417   -3.2176197    -1.780688  0.026522797   -3.2176197    1.4369317   222054 
 5988000   0.48295332   -3.2154098   -1.7824635  0.028229921   -3.2154098    1.4329463   221968 
 5989000   0.48243238   -3.2183125   -1.7862537   0.03113387   -3.2183125    1.4320587   221866 
 5990000   0.48263397   -3.2164609    -1.783371  0.031416121   -3.2164609    1.4330899   221799 
 5991000   0.48307613   -3.2170047   -1.7823949  0.030981594   -3.2170047    1.4346098   221767 
 5992000   0.48252335   -3.2150711   -1.7817927  0.029672167   -3.2150711    1.4332784   221719 
 5993000   0.48048572   -3.2097341   -1.7820897  0.026263976   -3.2097341    1.4276444   221654 
 5994000    0.4807549   -3.2101046   -1.7814606  0.029744676   -3.2101046     1.428644   221623 
 5995000   0.48299396   -3.2160979   -1.7801911  0.028097707   -3.2160979    1.4359068   221529 
 5996000   0.48123964   -3.2106428   -1.7795768  0.029303884   -3.2106428     1.431066   221471 
 5997000   0.48193717   -3.2123924    -1.778948  0.026308133   -3.2123924    1.4334444   221424 
 5998000   0.48254771   -3.2138326   -1.7780275  0.028617147   -3.2138326    1.4358051   221340 
 5999000   0.48229842   -3.2127571   -1.7772982  0.031158829   -3.2127571    1.4354589   221279 
 6000000   0.48091408   -3.2111322   -1.7793858  0.026936894   -3.2111322    1.4317464   221216 
 6001000   0.48026477    -3.208279   -1.7782848  0.029726947    -3.208279    1.4299943   221188 
 6002000   0.47977815     -3.20652   -1.7773996  0.028251013     -3.20652    1.4291204   221099 
 6003000   0.48022666   -3.2076733   -1.7767509  0.027782067   -3.2076733    1.4309224   221027 
 6004000   0.48030348   -3.2057628   -1.7742165  0.033502334   -3.2057628    1.4315463   220966 
 6005000     0.481063   -3.2062449   -1.7718636  0.034500575   -3.2062449    1.4343813   220878 
 6006000   0.48149698   -3.2093022   -1.7732238  0.029526622   -3.2093022    1.4360784   220816 
 6007000   0.47964995    -3.207622   -1.7763978  0.030713601    -3.207622    1.4312243   220715 
 6008000   0.47861347   -3.2057725   -1.7771297  0.027771497   -3.2057725    1.4286429   220636 
 6009000   0.47865478   -3.2073015   -1.7782503  0.025446177   -3.2073015    1.4290512   220592 
 6010000   0.47939554   -3.2095258   -1.7776075  0.028854876   -3.2095258    1.4319184   220491 
 6011000   0.47848317   -3.2064177   -1.7764982  0.026667796   -3.2064177    1.4299195   220379 
 6012000   0.48016253   -3.2101562   -1.7750292  0.030316759   -3.2101562     1.435127   220350 
 6013000   0.47787491   -3.2074125   -1.7787403  0.029845588   -3.2074125    1.4286722   220291 
 6014000   0.47782919   -3.2075592   -1.7784462  0.028110033   -3.2075592    1.4291129   220202 
 6015000   0.47890546   -3.2081596   -1.7755415  0.029367018   -3.2081596    1.4326182   220158 
 6016000   0.47822619   -3.2047127   -1.7737821  0.031576321   -3.2047127    1.4309306   220105 
 6017000   0.47790288   -3.2066073    -1.775799  0.025898393   -3.2066073    1.4308083   219975 
 6018000   0.47856384    -3.208399   -1.7751101  0.029687675    -3.208399    1.4332889   219898 
 6019000   0.47761064   -3.2069353   -1.7756811  0.033026475   -3.2069353    1.4312542   219772 
 6020000    0.4782851   -3.2091131   -1.7755834  0.031142976   -3.2091131    1.4335297   219733 
 6021000   0.47852535   -3.2073082   -1.7722943  0.034421961   -3.2073082    1.4350139   219616 
 6022000   0.47823959   -3.2069746   -1.7722166  0.033300328   -3.2069746     1.434758   219524 
 6023000   0.47699172   -3.2050916   -1.7737187  0.030717002   -3.2050916    1.4313729   219469 
 6024000   0.47659626   -3.2022724   -1.7717277  0.027152191   -3.2022724    1.4305447   219414 
 6025000   0.47611304   -3.1996685   -1.7701246   0.03167508   -3.1996685    1.4295438   219345 
 6026000    0.4755992    -3.200468   -1.7720698  0.027977619    -3.200468    1.4283982   219284 
 6027000   0.47599852   -3.1980419   -1.7681052  0.028951971   -3.1980419    1.4299366   219232 
 6028000   0.47604157   -3.1974462    -1.766917  0.027518724   -3.1974462    1.4305292   219161 
 6029000   0.47564868    -3.197322   -1.7676212  0.028837804    -3.197322    1.4297008   219107 
 6030000    0.4754111   -3.1966289   -1.7672246  0.026783371   -3.1966289    1.4294043   219043 
 6031000   0.47534651    -3.199298   -1.7696767  0.028774202    -3.199298    1.4296212   218980 
 6032000   0.47534674   -3.1986481   -1.7683207  0.024202443   -3.1986481    1.4303274   218872 
 6033000   0.47505661   -3.1971615   -1.7672368   0.03090388   -3.1971615    1.4299247   218800 
 6034000   0.47614467   -3.1988361   -1.7647646  0.029175493   -3.1988361    1.4340715   218667 
 6035000   0.47418228   -3.1928842   -1.7640631  0.026416696   -3.1928842    1.4288211   218566 
 6036000   0.47372826   -3.1927628    -1.764676  0.027277961   -3.1927628    1.4280868   218469 
 6037000   0.47509826   -3.1968195   -1.7642618  0.027562683   -3.1968195    1.4325577   218417 
 6038000   0.47411894   -3.1908352   -1.7605952  0.034398183   -3.1908352      1.43024   218320 
 6039000   0.47328302   -3.1914742   -1.7635139  0.028863412   -3.1914742    1.4279603   218283 
 6040000   0.47424301   -3.1958484   -1.7648278  0.030271811   -3.1958484    1.4310206   218258 
 6041000   0.47430535   -3.1943354   -1.7625428  0.030493502   -3.1943354    1.4317926   218169 
 6042000   0.47321332   -3.1946535   -1.7656334  0.029068254   -3.1946535    1.4290201   218089 
 6043000   0.47331035   -3.1948912   -1.7653487   0.02625489   -3.1948912    1.4295425   218054 
 6044000   0.47412048   -3.1923453   -1.7600341  0.031283007   -3.1923453    1.4323112   218005 
 6045000    0.4742084   -3.1940488   -1.7607751  0.028524933   -3.1940488    1.4332737   217899 
 6046000   0.47309663   -3.1926701    -1.761995  0.032009103   -3.1926701    1.4306751   217783 
 6047000   0.47331369    -3.192705    -1.760887  0.027141358    -3.192705     1.431818   217709 
 6048000   0.47443748   -3.1975641   -1.7616276  0.027979313   -3.1975641    1.4359365   217600 
 6049000   0.47339228   -3.1928795    -1.759843  0.031977931   -3.1928795    1.4330365   217560 
 6050000   0.47187951   -3.1935818   -1.7642049  0.029128751   -3.1935818    1.4293769   217420 
 6051000   0.47251244   -3.1959871   -1.7643177  0.030797277   -3.1959871    1.4316694   217363 
 6052000   0.47206411   -3.1956559   -1.7650816  0.033394768   -3.1956559    1.4305743   217323 
 6053000   0.47362991   -3.1967656   -1.7613405  0.029646685   -3.1967656    1.4354251   217307 
 6054000    0.4721026   -3.1971342     -1.76589  0.027415024   -3.1971342    1.4312442   217239 
 6055000   0.47229933   -3.1983816   -1.7660267  0.028279702   -3.1983816    1.4323549   217161 
 6056000   0.47081664   -3.1984977   -1.7698566  0.028933224   -3.1984977    1.4286411   217042 
 6057000   0.47022022   -3.1950672   -1.7677887  0.032241959   -3.1950672    1.4272786   216974 
 6058000   0.47213269   -3.1995441   -1.7662888  0.028840759   -3.1995441    1.4332553   216948 
 6059000   0.47133289   -3.1971065   -1.7658438  0.028716819   -3.1971065    1.4312627   216882 
 6060000   0.47094832   -3.1966172   -1.7658889  0.027075337   -3.1966172    1.4307282   216786 
 6061000   0.47132238   -3.1963727   -1.7640918  0.029263029   -3.1963727    1.4322809   216723 
 6062000   0.47043428   -3.1925959   -1.7630996   0.02911582   -3.1925959    1.4294963   216736 
 6063000   0.47049952   -3.1925867   -1.7619482  0.028578384   -3.1925867    1.4306385   216593 
 6064000   0.47077615   -3.1935129   -1.7615176  0.024665325   -3.1935129    1.4319953   216515 
 6065000   0.46971076   -3.1918231   -1.7623686  0.030692824   -3.1918231    1.4294545   216409 
 6066000   0.46982903    -3.189389   -1.7592309  0.032626851    -3.189389     1.430158   216357 
 6067000   0.47023983   -3.1919416   -1.7598513  0.030614181   -3.1919416    1.4320903   216254 
 6068000   0.47000929   -3.1917351   -1.7595854  0.029691635   -3.1917351    1.4321498   216139 
 6069000   0.46995915   -3.1914456   -1.7588786  0.032148262   -3.1914456     1.432567   216053 
 6070000     0.470467   -3.1904373   -1.7559106  0.029068521   -3.1904373    1.4345267   215991 
 6071000    0.4712471   -3.1905264   -1.7534081  0.032076126   -3.1905264    1.4371183   215959 
 6072000   0.47097551   -3.1900409   -1.7531587  0.030431235   -3.1900409    1.4368822   215870 
 6073000   0.47090281   -3.1871022   -1.7499891  0.030279139   -3.1871022    1.4371131   215802 
 6074000   0.47083687   -3.1907458   -1.7530878  0.029742808   -3.1907458     1.437658   215690 
 6075000   0.47008924   -3.1892942   -1.7533665   0.02806234   -3.1892942    1.4359277   215607 
 6076000    0.4690876   -3.1869809   -1.7535609   0.02676434   -3.1869809    1.4334199   215524 
 6077000    0.4682892    -3.184831   -1.7534456  0.027084328    -3.184831    1.4313854   215463 
 6078000   0.46837276   -3.1827494   -1.7507696  0.030511459   -3.1827494    1.4319797   215412 
 6079000   0.46870746    -3.182111   -1.7487619  0.031899215    -3.182111     1.433349   215360 
 6080000   0.46906249   -3.1829372   -1.7479695  0.031364939   -3.1829372    1.4349678   215280 
 6081000   0.46828781   -3.1841028   -1.7507326  0.028766951   -3.1841028    1.4333702   215164 
 6082000   0.46834551   -3.1847628   -1.7506894  0.026882178   -3.1847628    1.4340734   215085 
 6083000   0.46837916   -3.1831318    -1.748395  0.029744084   -3.1831318    1.4347367   215001 
 6084000   0.46957201   -3.1836507   -1.7450659  0.029855761   -3.1836507    1.4385847   214972 
 6085000   0.46830632   -3.1812572   -1.7461028  0.030433922   -3.1812572    1.4351544   214905 
 6086000   0.46568799   -3.1773874   -1.7497256  0.030121636   -3.1773874    1.4276618   214825 
 6087000    0.4664545   -3.1797812   -1.7489769  0.026884598   -3.1797812    1.4308043   214706 
 6088000   0.46682593   -3.1815814   -1.7490306  0.030068251   -3.1815814    1.4325508   214615 
 6089000    0.4677548   -3.1839093   -1.7477921  0.032329907   -3.1839093    1.4361172   214508 
 6090000   0.46700965   -3.1830663    -1.748615  0.031939494   -3.1830663    1.4344513   214415 
 6091000   0.46659407    -3.181039   -1.7474763  0.031859585    -3.181039    1.4335626   214357 
 6092000   0.46642358   -3.1842834   -1.7508835  0.029016345   -3.1842834    1.4333999   214303 
 6093000   0.46656403   -3.1826945   -1.7485752  0.027116696   -3.1826945    1.4341193   214260 
 6094000   0.46725622   -3.1826308   -1.7458607  0.031508049   -3.1826308      1.43677   214182 
 6095000   0.46626708    -3.182754   -1.7485233  0.029266685    -3.182754    1.4342307   214107 
 6096000   0.46568253   -3.1814126   -1.7485651  0.031483579   -3.1814126    1.4328476   214045 
 6097000   0.46535292   -3.1799848   -1.7475357  0.025622686   -3.1799848    1.4324491   213953 
 6098000   0.46667006   -3.1793042   -1.7424918  0.028844431   -3.1793042    1.4368124   213907 
 6099000   0.46689638   -3.1794404   -1.7410301  0.030872464   -3.1794404    1.4384103   213773 
 6100000   0.46625482   -3.1802264   -1.7431742  0.029145955   -3.1802264    1.4370522   213681 
 6101000   0.46590774   -3.1794215   -1.7428608  0.029759632   -3.1794215    1.4365607   213595 
 6102000   0.46558742   -3.1771419   -1.7411789  0.031102094   -3.1771419    1.4359629   213537 
 6103000   0.46414269   -3.1752296   -1.7428303  0.024330736   -3.1752296    1.4323993   213404 
 6104000    0.4649249   -3.1728482   -1.7373488   0.03173225   -3.1728482    1.4354994   213302 
 6105000     0.465107   -3.1746625   -1.7379272  0.028862165   -3.1746625    1.4367352   213202 
 6106000   0.46364785   -3.1720708   -1.7395272  0.031617062   -3.1720708    1.4325436   213155 
 6107000    0.4646021   -3.1736039   -1.7374921  0.029941374   -3.1736039    1.4361119   213063 
 6108000   0.46391782   -3.1715143     -1.73708  0.027604439   -3.1715143    1.4344343   212998 
 6109000   0.46309034   -3.1677568   -1.7354372  0.025643316   -3.1677568    1.4323196   212932 
 6110000   0.46296826   -3.1697519    -1.737191  0.030734056   -3.1697519    1.4325609   212840 
 6111000   0.46348283   -3.1696401   -1.7350421  0.030226931   -3.1696401     1.434598   212774 
 6112000    0.4631654   -3.1713336   -1.7376508  0.027779784   -3.1713336    1.4336829   212764 
 6113000   0.46170583   -3.1685588   -1.7389907  0.027059895   -3.1685588    1.4295681   212704 
 6114000   0.46197538   -3.1682836   -1.7374504  0.029312445   -3.1682836    1.4308332   212640 
 6115000   0.46089433   -3.1663262   -1.7382637  0.028703404   -3.1663262    1.4280625   212554 
 6116000   0.46169273   -3.1647605   -1.7339347  0.029853833   -3.1647605    1.4308258   212511 
 6117000   0.46246733   -3.1662387   -1.7323174  0.028425136   -3.1662387    1.4339213   212408 
 6118000   0.46169587   -3.1650075   -1.7328039  0.029599851   -3.1650075    1.4322036   212308 
 6119000   0.46160872   -3.1689839   -1.7362746  0.024984998   -3.1689839    1.4327093   212193 
 6120000   0.46177087   -3.1683482   -1.7344869  0.031487851   -3.1683482    1.4338613   212097 
 6121000    0.4616291   -3.1680399    -1.733902  0.033998913   -3.1680399    1.4341378   211991 
 6122000    0.4624515   -3.1705237   -1.7331664  0.027843816   -3.1705237    1.4373572   211893 
 6123000   0.46224667   -3.1701445   -1.7327456   0.02835915   -3.1701445    1.4373989   211793 
 6124000   0.46103705   -3.1679074   -1.7334774  0.028974962   -3.1679074    1.4344299   211676 
 6125000   0.46038928   -3.1685124   -1.7357053  0.028393415   -3.1685124    1.4328071   211618 
 6126000   0.45791062   -3.1655904   -1.7399516  0.029888554   -3.1655904    1.4256388   211537 
 6127000   0.45948715   -3.1688975   -1.7379852  0.026268335   -3.1688975    1.4309124   211483 
 6128000   0.45995406   -3.1685086   -1.7361896  0.027709001   -3.1685086     1.432319   211490 
 6129000   0.45873414   -3.1659258   -1.7365474  0.031881152   -3.1659258    1.4293784   211363 
 6130000   0.45911421   -3.1664967    -1.735284  0.030471092   -3.1664967    1.4312128   211267 
 6131000   0.45981747   -3.1682224   -1.7343558  0.026565101   -3.1682224    1.4338666   211199 
 6132000   0.45981929   -3.1704133   -1.7361132  0.030320939   -3.1704133    1.4343001   211136 
 6133000   0.45738195   -3.1615968   -1.7343857  0.034787604   -3.1615968    1.4272111   211060 
 6134000   0.45894179   -3.1675447   -1.7348961  0.027094388   -3.1675447    1.4326486   210976 
 6135000   0.45812014    -3.166604   -1.7358217  0.031442342    -3.166604    1.4307822   210873 
 6136000   0.45845031   -3.1657104   -1.7331361  0.030243327   -3.1657104    1.4325743   210761 
 6137000   0.45847983   -3.1692308   -1.7358093  0.026484896   -3.1692308    1.4334215   210650 
 6138000   0.45806945   -3.1687207   -1.7360517  0.031264709   -3.1687207    1.4326689   210572 
 6139000   0.45700899   -3.1661831   -1.7363488  0.026175184   -3.1661831    1.4298343   210501 
 6140000   0.45644717   -3.1627222   -1.7339941  0.027836502   -3.1627222    1.4287281   210405 
 6141000    0.4565795   -3.1639502   -1.7342575  0.027198189   -3.1639502    1.4296927   210324 
 6142000   0.45641085   -3.1636978   -1.7339281  0.027760761   -3.1636978    1.4297696   210235 
 6143000   0.45572493   -3.1603453   -1.7319906   0.02745728   -3.1603453    1.4283547   210127 
 6144000   0.45638599   -3.1623977   -1.7314195  0.028418512   -3.1623977    1.4309782   210046 
 6145000   0.45594772    -3.162851   -1.7326887  0.029664911    -3.162851    1.4301623   209964 
 6146000   0.45572089   -3.1613257   -1.7314594  0.025795802   -3.1613257    1.4298663   209903 
 6147000    0.4546387   -3.1580321   -1.7311942  0.026873127   -3.1580321    1.4268379   209849 
 6148000   0.45694907   -3.1599869   -1.7254675  0.027001956   -3.1599869    1.4345194   209786 
 6149000   0.45629134   -3.1597867   -1.7267857  0.034916478   -3.1597867     1.433001   209706 
 6150000   0.45630456   -3.1579897   -1.7243524  0.031336578   -3.1579897    1.4336373   209619 
 6151000   0.45595219   -3.1580472   -1.7249222  0.028743617   -3.1580472     1.433125   209532 
 6152000   0.45683221   -3.1585672   -1.7224157  0.031399987   -3.1585672    1.4361515   209494 
 6153000   0.45565654    -3.157765   -1.7251933  0.029839779    -3.157765    1.4325718   209477 
 6154000   0.45500195   -3.1551668   -1.7243252  0.031205206   -3.1551668    1.4308416   209429 
 6155000   0.45416424   -3.1530659   -1.7240193  0.026112088   -3.1530659    1.4290466   209306 
 6156000    0.4539952   -3.1523333   -1.7230401  0.024162491   -3.1523333    1.4292932   209192 
 6157000   0.45411846   -3.1550299   -1.7247333  0.026427788   -3.1550299    1.4302966   209102 
 6158000   0.45495562   -3.1569214   -1.7233779   0.02910268   -3.1569214    1.4335435   209013 
 6159000   0.45443204   -3.1567461   -1.7242355  0.028951202   -3.1567461    1.4325105   208923 
 6160000   0.45287633   -3.1533435   -1.7251218  0.030340708   -3.1533435    1.4282217   208833 
 6161000   0.45245015   -3.1528791   -1.7256871  0.028196902   -3.1528791     1.427192   208787 
 6162000   0.45324329   -3.1570392   -1.7267083  0.030880042   -3.1570392     1.430331   208694 
 6163000   0.45287912   -3.1551565   -1.7255294  0.029579699   -3.1551565     1.429627   208629 
 6164000   0.45440811   -3.1582716    -1.723192  0.027047064   -3.1582716    1.4350796   208538 
 6165000   0.45383175   -3.1589649    -1.725183  0.027245397   -3.1589649    1.4337819   208462 
 6166000   0.45299232   -3.1572436   -1.7256467  0.030991714   -3.1572436     1.431597   208394 
 6167000    0.4531863   -3.1585614   -1.7256295  0.030917922   -3.1585614     1.432932   208289 
 6168000    0.4541081   -3.1630538   -1.7266141  0.032807766   -3.1630538    1.4364397   208203 
 6169000   0.45324513   -3.1628992   -1.7287897  0.029809975   -3.1628992    1.4341095   208145 
 6170000   0.45305975   -3.1606559   -1.7266163  0.031334911   -3.1606559    1.4340396   208070 
 6171000   0.45183632   -3.1589934   -1.7283862  0.033927381   -3.1589934    1.4306072   208006 
 6172000   0.45201807   -3.1642326   -1.7324236   0.03104887   -3.1642326     1.431809   207915 
 6173000   0.45078662   -3.1598598    -1.731553    0.0293243   -3.1598598    1.4283068   207857 
 6174000   0.45062187   -3.1621638   -1.7333273   0.02595598   -3.1621638    1.4288365   207704 
 6175000   0.45138905   -3.1634209   -1.7317313   0.02629823   -3.1634209    1.4316896   207643 
 6176000   0.45092482   -3.1619014   -1.7312778  0.027907969   -3.1619014    1.4306236   207584 
 6177000   0.45186836    -3.165324   -1.7309882  0.030032794    -3.165324    1.4343357   207480 
 6178000    0.4520729   -3.1644752   -1.7290613   0.03126051   -3.1644752    1.4354139   207418 
 6179000    0.4516038   -3.1603845   -1.7258722  0.033641836   -3.1603845    1.4345123   207333 
 6180000   0.45170896   -3.1634687   -1.7281031  0.031813863   -3.1634687    1.4353656   207258 
 6181000   0.44981625   -3.1586673   -1.7285225  0.031080456   -3.1586673    1.4301448   207143 
 6182000   0.45020358   -3.1577333    -1.726122  0.032367505   -3.1577333    1.4316113   207109 
 6183000   0.44925012   -3.1546448   -1.7255135  0.028862706   -3.1546448    1.4291314   207029 
 6184000    0.4492567   -3.1537232    -1.723977  0.027386205   -3.1537232    1.4297462   206943 
 6185000   0.44937335   -3.1565013   -1.7257685  0.029502667   -3.1565013    1.4307327   206854 
 6186000   0.45121797    -3.158649   -1.7214041  0.030372672    -3.158649     1.437245   206762 
 6187000   0.44888975   -3.1547454   -1.7243907  0.026255152   -3.1547454    1.4303547   206686 
 6188000   0.44844915   -3.1526248   -1.7230723  0.029864501   -3.1526248    1.4295525   206599 
 6189000    0.4480575   -3.1513537   -1.7225655   0.02912231   -3.1513537    1.4287882   206529 
 6190000   0.44848364   -3.1551912   -1.7239908  0.028655337   -3.1551912    1.4312004   206377 
 6191000   0.44689319   -3.1489517   -1.7224189  0.029016345   -3.1489517    1.4265328   206318 
 6192000   0.44890666   -3.1526598    -1.718998  0.029895682   -3.1526598    1.4336618   206217 
 6193000    0.4492232   -3.1533786   -1.7180515  0.030196033   -3.1533786     1.435327   206123 
 6194000   0.44852179   -3.1512531   -1.7175969  0.027036037   -3.1512531    1.4336563   206041 
 6195000   0.44836297   -3.1510265   -1.7173699  0.032261163   -3.1510265    1.4336565   205968 
 6196000   0.44738895   -3.1502906   -1.7191996  0.031210832   -3.1502906     1.431091   205889 
 6197000   0.44839016   -3.1512755   -1.7164941  0.030749218   -3.1512755    1.4347814   205819 
 6198000   0.44701529   -3.1487641   -1.7177842  0.031574567   -3.1487641      1.43098   205733 
 6199000   0.44508538   -3.1422674   -1.7166894  0.029669751   -3.1422674     1.425578   205621 
 6200000   0.44517548   -3.1419034   -1.7153777  0.025760156   -3.1419034    1.4265257   205526 
 6201000   0.44615729   -3.1440237   -1.7138579  0.030701573   -3.1440237    1.4301659   205455 
 6202000    0.4465793   -3.1443266   -1.7124943  0.028184626   -3.1443266    1.4318322   205410 
 6203000   0.44648546   -3.1435817   -1.7115414  0.027568221   -3.1435817    1.4320403   205337 
 6204000   0.44548616   -3.1417701   -1.7123781  0.026992031   -3.1417701    1.4293921   205257 
 6205000   0.44468604   -3.1404291   -1.7130758  0.029288051   -3.1404291    1.4273533   205181 
 6206000   0.44507912   -3.1433628   -1.7140512  0.028040704   -3.1433628    1.4293116   205081 
 6207000   0.44601603   -3.1450874   -1.7121102  0.030339359   -3.1450874    1.4329772   204987 
 6208000   0.44598075   -3.1466438   -1.7129056  0.027669799   -3.1466438    1.4337381   204862 
 6209000   0.44483294   -3.1465343   -1.7153754    0.0316704   -3.1465343    1.4311589   204703 
 6210000   0.44561556   -3.1483681   -1.7139555  0.033617683   -3.1483681    1.4344126   204598 
 6211000   0.44519803   -3.1454899   -1.7121621  0.029982766   -3.1454899    1.4333278   204561 
 6212000   0.44503452   -3.1484124   -1.7149873   0.02617743   -3.1484124     1.433425   204472 
 6213000   0.44537853   -3.1480732   -1.7129225  0.030635808   -3.1480732    1.4351507   204384 
 6214000   0.44543535   -3.1470711    -1.711379  0.032151516   -3.1470711    1.4356921   204333 
 6215000   0.44524194   -3.1459114   -1.7105618  0.035119644   -3.1459114    1.4353497   204293 
 6216000   0.44441162   -3.1463486   -1.7131214  0.025253721   -3.1463486    1.4332272   204214 
 6217000   0.44450217   -3.1437989   -1.7096968  0.032658821   -3.1437989     1.434102   204131 
 6218000   0.44351816   -3.1431023      -1.7116  0.025405134   -3.1431023    1.4315024   204049 
 6219000   0.44397312   -3.1409119   -1.7076321   0.02908277   -3.1409119    1.4332798   204005 
 6220000   0.44366018   -3.1415998   -1.7087332  0.028793719   -3.1415998    1.4328666   203920 
 6221000    0.4447992   -3.1441781    -1.706928  0.030211723   -3.1441781      1.43725   203820 
 6222000   0.44419297   -3.1421229   -1.7060355  0.030421611   -3.1421229    1.4360874   203707 
 6223000   0.44367308    -3.141257   -1.7060261  0.028409385    -3.141257    1.4352309   203590 
 6224000   0.44256357    -3.142341    -1.709876  0.027316898    -3.142341     1.432465   203473 
 6225000   0.44208864   -3.1384956   -1.7070895  0.031823771   -3.1384956    1.4314061   203405 
 6226000   0.44137468   -3.1353911   -1.7056711  0.030110433   -3.1353911      1.42972   203316 
 6227000   0.44202078   -3.1390138   -1.7067783  0.030118736   -3.1390138    1.4322355   203256 
 6228000   0.44173596   -3.1355628     -1.70406  0.030693586   -3.1355628    1.4315028   203229 
 6229000   0.44176068    -3.136507   -1.7039937  0.027726729    -3.136507    1.4325134   203097 
 6230000   0.44166738   -3.1352552   -1.7023742  0.026474383   -3.1352552    1.4328811   203002 
 6231000   0.44165212   -3.1357043   -1.7020324  0.028975891   -3.1357043     1.433672   202883 
 6232000    0.4417593   -3.1369718   -1.7025418  0.026308939   -3.1369718      1.43443   202825 
 6233000   0.44022321   -3.1338177   -1.7037057  0.026843017   -3.1338177     1.430112   202730 
 6234000   0.44040772   -3.1350883   -1.7036425   0.02741987   -3.1350883    1.4314457   202626 
 6235000   0.44055437   -3.1363783   -1.7037913  0.032458436   -3.1363783     1.432587   202532 
 6236000   0.44147077   -3.1383979   -1.7023772  0.032778914   -3.1383979    1.4360207   202468 
 6237000   0.44182508   -3.1396677   -1.7022673  0.030823997   -3.1396677    1.4374004   202436 
 6238000   0.44117592   -3.1376967   -1.7019473  0.032388414   -3.1376967    1.4357494   202371 
 6239000   0.44145407   -3.1385109   -1.7012454  0.029234303   -3.1385109    1.4372654   202285 
 6240000   0.44109041   -3.1398027   -1.7029897  0.032641514   -3.1398027     1.436813   202182 
 6241000   0.43890878   -3.1339496   -1.7036771  0.030186198   -3.1339496    1.4302725   202102 
 6242000   0.43968218   -3.1327809   -1.6994562  0.027490924   -3.1327809    1.4333247   202027 
 6243000   0.43850679    -3.130859   -1.7006226   0.03111575    -3.130859    1.4302364   201922 
 6244000   0.43820149   -3.1309727    -1.700946  0.027627988   -3.1309727    1.4300267   201811 
 6245000   0.43827196   -3.1328301   -1.7021907  0.024450865   -3.1328301    1.4306395   201757 
 6246000   0.43870272   -3.1299968   -1.6972269   0.03058999   -3.1299968    1.4327699   201655 
 6247000   0.43965878   -3.1325803    -1.696175  0.028368981   -3.1325803    1.4364052   201583 
 6248000   0.43897445   -3.1300222   -1.6953332  0.026374527   -3.1300222     1.434689   201510 
 6249000   0.43790853   -3.1268137   -1.6950329  0.031178446   -3.1268137    1.4317808   201429 
 6250000   0.43911894   -3.1268663   -1.6906217  0.033521031   -3.1268663    1.4362446   201358 
 6251000   0.43913138   -3.1291259   -1.6921626  0.030798453   -3.1291259    1.4369633   201263 
 6252000   0.43777461   -3.1254426   -1.6922426  0.030680886   -3.1254426       1.4332   201168 
 6253000    0.4385709   -3.1260896   -1.6896186  0.034037423   -3.1260896     1.436471   201075 
 6254000   0.43909906   -3.1268146   -1.6882918  0.031995218   -3.1268146    1.4385229   201030 
 6255000   0.43745169   -3.1219552     -1.68833  0.033189741   -3.1219552    1.4336251   200960 
 6256000   0.43634592   -3.1202163   -1.6895743  0.026468511   -3.1202163     1.430642   200870 
 6257000   0.43710669   -3.1193906   -1.6859689  0.025825776   -3.1193906    1.4334218   200830 
 6258000   0.43739534   -3.1221713   -1.6867952  0.027626055   -3.1221713    1.4353761   200689 
 6259000   0.43808769   -3.1191571   -1.6809786  0.033053982   -3.1191571    1.4381785   200615 
 6260000   0.43692416   -3.1194405   -1.6842161  0.029393335   -3.1194405    1.4352244   200494 
 6261000    0.4362495   -3.1164914   -1.6829683  0.028587661   -3.1164914    1.4335231   200422 
 6262000   0.43583292   -3.1172746   -1.6845986  0.029028695   -3.1172746     1.432676   200349 
 6263000   0.43575477   -3.1196169   -1.6864038  0.027135453   -3.1196169    1.4332131   200238 
 6264000   0.43547635   -3.1155741   -1.6829619   0.03011077   -3.1155741    1.4326122   200194 
 6265000   0.43515939   -3.1130752   -1.6809621  0.027623011   -3.1130752    1.4321132   200118 
 6266000   0.43633903   -3.1203283   -1.6835935  0.029680576   -3.1203283    1.4367348   200015 
 6267000   0.43794794   -3.1244154   -1.6813512  0.028192036   -3.1244154    1.4430642   199872 
 6268000    0.4354707   -3.1180933   -1.6826531    0.0311297   -3.1180933    1.4354402   199797 
 6269000   0.43551322   -3.1200327   -1.6838485  0.028330315   -3.1200327    1.4361842   199713 
 6270000   0.43578978   -3.1187483   -1.6811627  0.028096901   -3.1187483    1.4375857   199645 
 6271000   0.43418655   -3.1141765   -1.6811905  0.029764622   -3.1141765     1.432986   199549 
 6272000   0.43475814   -3.1185637   -1.6830078  0.028995119   -3.1185637    1.4355559   199454 
 6273000   0.43305488   -3.1117821   -1.6816782   0.02948436   -3.1117821    1.4301039   199430 
 6274000   0.43399338    -3.114261   -1.6806409  0.026321896    -3.114261    1.4336201   199372 
 6275000   0.43272263   -3.1119284   -1.6815303  0.028879544   -3.1119284    1.4303981   199236 
 6276000   0.43416753   -3.1150311   -1.6794677  0.031806972   -3.1150311    1.4355634   199182 
 6277000   0.43368718   -3.1137611   -1.6793467  0.028553214   -3.1137611    1.4344145   199121 
 6278000    0.4339451   -3.1156436   -1.6795106   0.03213791   -3.1156436     1.436133   199001 
 6279000   0.43298721   -3.1139553   -1.6804161  0.031970296   -3.1139553    1.4335392   198921 
 6280000    0.4331284   -3.1165276   -1.6820379   0.02938842   -3.1165276    1.4344898   198854 
 6281000   0.43259651   -3.1117695   -1.6787242  0.027959939   -3.1117695    1.4330453   198810 
 6282000   0.43318822   -3.1142763   -1.6784258  0.028823083   -3.1142763    1.4358504   198693 
 6283000   0.43326326   -3.1168377   -1.6799575  0.029069884   -3.1168377    1.4368802   198585 
 6284000   0.43159615   -3.1124157   -1.6803792   0.02813775   -3.1124157    1.4320364   198490 
 6285000   0.43228749   -3.1129537   -1.6783487  0.029331853   -3.1129537    1.4346049   198452 
 6286000   0.43183621   -3.1108393   -1.6773853  0.028767375   -3.1108393     1.433454   198404 
 6287000   0.43138641   -3.1087293   -1.6764941  0.031737303   -3.1087293    1.4322352   198366 
 6288000   0.43259278   -3.1092838   -1.6731447  0.026767242   -3.1092838    1.4361391   198380 
 6289000   0.43310409   -3.1101806   -1.6717495  0.030244896   -3.1101806    1.4384312   198298 
 6290000    0.4337124   -3.1097974   -1.6686701  0.031337846   -3.1097974    1.4411274   198205 
 6291000   0.43187789   -3.1057998   -1.6701306  0.030459881   -3.1057998    1.4356691   198117 
 6292000   0.43119782   -3.1028293   -1.6689359   0.03070984   -3.1028293    1.4338933   198050 
 6293000   0.43091663   -3.1027356   -1.6690752  0.030915244   -3.1027356    1.4336604   197953 
 6294000   0.43180048   -3.1073902   -1.6702883  0.031311606   -3.1073902    1.4371019   197884 
 6295000   0.43130822   -3.1072776   -1.6711971   0.02956948   -3.1072776    1.4360805   197799 
 6296000    0.4315405    -3.107022   -1.6695431  0.028264127    -3.107022    1.4374789   197713 
 6297000   0.43120653   -3.1072401   -1.6704231  0.030630886   -3.1072401     1.436817   197651 
 6298000   0.43113063    -3.107929   -1.6708633  0.026284478    -3.107929    1.4370657   197582 
 6299000   0.43053696   -3.1066873   -1.6707865  0.032786748   -3.1066873    1.4359008   197470 
 6300000   0.43079758   -3.1044362   -1.6673459  0.032153639   -3.1044362    1.4370902   197426 
 6301000   0.42960945   -3.1022401   -1.6690408  0.027840831   -3.1022401    1.4331994   197416 
 6302000   0.42913867   -3.1007421   -1.6683587  0.027837566   -3.1007421    1.4323834   197312 
 6303000   0.42993822   -3.1018457   -1.6661823  0.026871045   -3.1018457    1.4356634   197228 
 6304000   0.43060171   -3.1006412   -1.6620913  0.029412496   -3.1006412    1.4385499   197136 
 6305000   0.42986727   -3.1010253    -1.664346  0.030726535   -3.1010253    1.4366793   197056 
 6306000    0.4288222   -3.0987347   -1.6645365  0.030516532   -3.0987347    1.4341982   196917 
 6307000   0.42948994   -3.0975732   -1.6608717  0.030518657   -3.0975732    1.4367015   196880 
 6308000   0.42952212   -3.0966266    -1.659007  0.031821133   -3.0966266    1.4376196   196769 
 6309000   0.42947622   -3.0959292    -1.658149  0.026990858   -3.0959292    1.4377802   196726 
 6310000   0.42932741   -3.0939808   -1.6559239   0.03209951   -3.0939808    1.4380569   196620 
 6311000   0.43004907   -3.0916601   -1.6508563  0.030683808   -3.0916601    1.4408039   196575 
 6312000   0.42798984   -3.0909419   -1.6565921  0.029110277   -3.0909419    1.4343499   196514 
 6313000   0.42753755   -3.0897599   -1.6562255  0.030449482   -3.0897599    1.4335344   196418 
 6314000   0.42871773   -3.0910189   -1.6530442  0.030596449   -3.0910189    1.4379747   196352 
 6315000    0.4283232   -3.0903175   -1.6528315    0.0341299   -3.0903175     1.437486   196238 
 6316000   0.42835074   -3.0930353   -1.6547533  0.029600767   -3.0930353     1.438282   196142 
 6317000   0.42800466   -3.0956082   -1.6576598  0.031774054   -3.0956082    1.4379484   196029 
 6318000   0.42739583   -3.0912051   -1.6548992  0.029243627   -3.0912051    1.4363059   195974 
 6319000   0.42856719   -3.0960523   -1.6551113  0.030568019   -3.0960523    1.4409409   195879 
 6320000   0.42727852   -3.0947084   -1.6571021  0.032062952   -3.0947084    1.4376063   195743 
 6321000   0.42820874    -3.099589   -1.6582565  0.028951518    -3.099589    1.4413325   195662 
 6322000   0.42861619   -3.1005061   -1.6572859  0.030933695   -3.1005061    1.4432203   195592 
 6323000   0.42765079    -3.097734   -1.6571163     0.033697    -3.097734    1.4406178   195504 
 6324000    0.4282504   -3.1018671   -1.6586241  0.032200876   -3.1018671     1.443243   195422 
 6325000   0.42707339   -3.0990537   -1.6592543  0.029476316   -3.0990537    1.4397995   195351 
 6326000   0.42659126   -3.0963359   -1.6579778  0.028102123   -3.0963359    1.4383581   195326 
 6327000   0.42683943   -3.0985756   -1.6587099  0.027953417   -3.0985756    1.4398657   195235 
 6328000   0.42521587   -3.0941308   -1.6589332  0.028284928   -3.0941308    1.4351975   195125 
 6329000   0.42522085   -3.0931087   -1.6571142  0.027977929   -3.0931087    1.4359944   195019 
 6330000   0.42521471   -3.0925937   -1.6556991  0.029764808   -3.0925937    1.4368947   194894 
 6331000    0.4245911   -3.0934225   -1.6578691  0.029234147   -3.0934225    1.4355534   194790 
 6332000   0.42447865   -3.0925521   -1.6569588  0.030602469   -3.0925521    1.4355933   194733 
 6333000   0.42628293   -3.0964021   -1.6542623  0.029894851   -3.0964021    1.4421398   194673 
 6334000    0.4243913   -3.0913476   -1.6552827  0.031436312   -3.0913476    1.4360649   194629 
 6335000   0.42459903   -3.0931781   -1.6553539  0.029311388   -3.0931781    1.4378242   194486 
 6336000   0.42392218   -3.0889764    -1.653112  0.027428083   -3.0889764    1.4358644   194441 
 6337000   0.42369011   -3.0873316   -1.6515518  0.028666615   -3.0873316    1.4357799   194346 
 6338000   0.42501582   -3.0900695   -1.6491966  0.031209874   -3.0900695    1.4408729   194265 
 6339000   0.42374907   -3.0858348   -1.6486276  0.029658226   -3.0858348    1.4372072   194180 
 6340000   0.42419981   -3.0861214   -1.6464735  0.034111434   -3.0861214    1.4396479   194057 
 6341000   0.42291948   -3.0803337    -1.644476  0.031555979   -3.0803337    1.4358577   193982 
 6342000   0.42299085   -3.0809095   -1.6442244  0.027819403   -3.0809095    1.4366851   193903 
 6343000   0.42332368   -3.0820295   -1.6435982   0.02716299   -3.0820295    1.4384312   193820 
 6344000   0.42267576   -3.0795895   -1.6426555  0.032544914   -3.0795895     1.436934   193725 
 6345000   0.42321342   -3.0778401   -1.6383724  0.034859496   -3.0778401    1.4394677   193630 
 6346000   0.42425111   -3.0803437   -1.6367054  0.029574822   -3.0803437    1.4436383   193544 
 6347000   0.42256705   -3.0761814   -1.6376492  0.029004945   -3.0761814    1.4385322   193460 
 6348000   0.42464135   -3.0779059   -1.6318414  0.031405191   -3.0779059    1.4460645   193397 
 6349000   0.42248283   -3.0729402   -1.6338244  0.032099295   -3.0729402    1.4391158   193343 
 6350000   0.42217857   -3.0714736   -1.6328734  0.027643141   -3.0714736    1.4386002   193273 
 6351000   0.42198909   -3.0711175   -1.6327536  0.027803075   -3.0711175    1.4383639   193218 
 6352000   0.42189393   -3.0683367   -1.6295898  0.029673231   -3.0683367    1.4387469   193123 
 6353000   0.42200911   -3.0666521   -1.6267519  0.031092116   -3.0666521    1.4399002   193021 
 6354000   0.41984582   -3.0603472   -1.6270113  0.029803453   -3.0603472    1.4333359   192911 
 6355000   0.42156729   -3.0659794    -1.626035  0.029440867   -3.0659794    1.4399444   192813 
 6356000   0.42101224   -3.0619327   -1.6235783  0.031392848   -3.0619327    1.4383544   192772 
 6357000   0.42118455   -3.0642998    -1.624722  0.032985583   -3.0642998    1.4395778   192687 
 6358000   0.42106519   -3.0634145   -1.6238038  0.030850061   -3.0634145    1.4396107   192628 
 6359000   0.42085771   -3.0625377   -1.6228741  0.032098162   -3.0625377    1.4396636   192526 
 6360000   0.42063553   -3.0625011   -1.6228348  0.031358532   -3.0625011    1.4396663   192424 
 6361000   0.42008365   -3.0647515   -1.6261442  0.030843904   -3.0647515    1.4386073   192313 
 6362000   0.41979012   -3.0648822   -1.6265771  0.027842775   -3.0648822    1.4383052   192219 
 6363000   0.41871229   -3.0632108   -1.6280461  0.029941088   -3.0632108    1.4351647   192145 
 6364000    0.4183942    -3.065835   -1.6309017  0.027866885    -3.065835    1.4349333   192030 
 6365000   0.42004048   -3.0707946   -1.6299526  0.029609809   -3.0707946     1.440842   191995 
 6366000   0.42054076   -3.0729635   -1.6293603  0.034381911   -3.0729635    1.4436032   191856 
 6367000   0.41900403   -3.0711502   -1.6323122  0.032947827   -3.0711502     1.438838   191788 
 6368000   0.41893502   -3.0734535    -1.634132  0.031628507   -3.0734535    1.4393215   191692 
 6369000   0.41831355   -3.0721713   -1.6345275  0.026224261   -3.0721713    1.4376438   191631 
 6370000   0.41804659   -3.0701736   -1.6329448   0.03002948   -3.0701736    1.4372288   191564 
 6371000   0.41852246   -3.0716557   -1.6324528   0.02776536   -3.0716557     1.439203   191519 
 6372000   0.41848006   -3.0724335   -1.6325268  0.032172961   -3.0724335    1.4399067   191406 
 6373000    0.4185144   -3.0726084   -1.6318383  0.028620613   -3.0726084    1.4407701   191307 
 6374000   0.41762644   -3.0683314    -1.629904  0.028935906   -3.0683314    1.4384275   191212 
 6375000   0.41818547   -3.0679729   -1.6274166   0.02742885   -3.0679729    1.4405564   191185 
 6376000   0.41795417   -3.0643654    -1.623973  0.030220211   -3.0643654    1.4403925   191101 
 6377000   0.41705757   -3.0628508   -1.6252023  0.029281181   -3.0628508    1.4376486   191055 
 6378000   0.41608673    -3.058202   -1.6233894   0.02833526    -3.058202    1.4348126   190987 
 6379000   0.41625461   -3.0595467   -1.6233129  0.030926769   -3.0595467    1.4362338   190875 
 6380000   0.41667838   -3.0638437   -1.6256656  0.029291277   -3.0638437    1.4381782   190811 
 6381000   0.41636446   -3.0633664   -1.6254202  0.029587918   -3.0633664    1.4379462   190698 
 6382000   0.41666365   -3.0608551   -1.6214302  0.026761136   -3.0608551    1.4394248   190639 
 6383000   0.41685675   -3.0627958   -1.6220917  0.030815374   -3.0627958    1.4407041   190558 
 6384000   0.41709423   -3.0621956   -1.6201486  0.033475749   -3.0621956     1.442047   190489 
 6385000   0.41492697    -3.056134   -1.6212109  0.032009418    -3.056134    1.4349231   190440 
 6386000   0.41615115   -3.0594872   -1.6194535  0.029261559   -3.0594872    1.4400338   190324 
 6387000   0.41536753   -3.0579214   -1.6197832  0.031743658   -3.0579214    1.4381382   190216 
 6388000   0.41531045   -3.0584605   -1.6198468  0.030898793   -3.0584605    1.4386137   190127 
 6389000   0.41418779   -3.0586808   -1.6231707  0.028424593   -3.0586808    1.4355101   190023 
 6390000   0.41418182   -3.0544642   -1.6184911  0.027996533   -3.0544642     1.435973   189959 
 6391000   0.41459349    -3.054868   -1.6170211  0.033133713    -3.054868    1.4378469   189900 
 6392000   0.41518768    -3.058853   -1.6180121  0.029676032    -3.058853    1.4408409   189777 
 6393000   0.41393045   -3.0563123   -1.6191605  0.031973292   -3.0563123    1.4371518   189688 
 6394000   0.41432514   -3.0579243   -1.6185751   0.03081129   -3.0579243    1.4393493   189579 
 6395000   0.41365798   -3.0564298   -1.6186247  0.032443976   -3.0564298    1.4378052   189477 
 6396000   0.41456023   -3.0591005   -1.6174288  0.028022287   -3.0591005    1.4416717   189381 
 6397000   0.41406126    -3.054433   -1.6139108  0.030194568    -3.054433    1.4405221   189304 
 6398000    0.4144899   -3.0560777   -1.6137367  0.033221613   -3.0560777     1.442341   189261 
 6399000   0.41335579   -3.0526218   -1.6135506  0.032399669   -3.0526218    1.4390713   189172 
 6400000   0.41403061   -3.0572176   -1.6152406  0.028389405   -3.0572176    1.4419771   189099 
 6401000   0.41337895   -3.0547624   -1.6143694  0.028529174   -3.0547624     1.440393   189009 
 6402000   0.41332441   -3.0534647   -1.6126366  0.031716542   -3.0534647    1.4408281   188927 
 6403000   0.41342201   -3.0563625   -1.6143241  0.028661382   -3.0563625    1.4420384   188813 
 6404000   0.41299008   -3.0526934   -1.6117036  0.032635029   -3.0526934    1.4409897   188753 
 6405000   0.41245043    -3.050848   -1.6116497  0.030210277    -3.050848    1.4391983   188741 
 6406000    0.4126183   -3.0505696   -1.6100452  0.029627763   -3.0505696    1.4405244   188644 
 6407000   0.41162454   -3.0487908   -1.6104243  0.027026834   -3.0487908    1.4383665   188472 
 6408000   0.41129744   -3.0479093   -1.6101748   0.03116139   -3.0479093    1.4377346   188405 
 6409000   0.41152866   -3.0484963   -1.6092659  0.031946788   -3.0484963    1.4392303   188315 
 6410000   0.41240358   -3.0506294   -1.6078106  0.030712879   -3.0506294    1.4428188   188246 
 6411000   0.41158926   -3.0486727   -1.6083356  0.031067379   -3.0486727    1.4403371   188198 
 6412000   0.41251704   -3.0504166   -1.6057811  0.031345075   -3.0504166    1.4446355   188061 
 6413000   0.41222249    -3.049342   -1.6046703  0.033226613    -3.049342    1.4446718   187922 
 6414000   0.41158226   -3.0463968   -1.6035388  0.031813067   -3.0463968     1.442858   187866 
 6415000    0.4104778   -3.0435642   -1.6038577  0.029398492   -3.0435642    1.4397065   187772 
 6416000    0.4097368   -3.0428775   -1.6052877  0.030424103   -3.0428775    1.4375899   187709 
 6417000   0.40966869   -3.0406934   -1.6028599  0.030310323   -3.0406934    1.4378335   187646 
 6418000   0.41025814   -3.0414434   -1.6013109  0.029950205   -3.0414434    1.4401325   187616 
 6419000   0.40964309   -3.0395266   -1.6008322  0.027118075   -3.0395266    1.4386943   187522 
 6420000   0.41037833   -3.0398812   -1.5978587  0.027111622   -3.0398812    1.4420225   187425 
 6421000   0.41101055   -3.0412599   -1.5963915  0.030119043   -3.0412599    1.4448685   187344 
 6422000   0.40989365    -3.036714   -1.5954565  0.032434103    -3.036714    1.4412575   187303 
 6423000   0.40997899   -3.0343207   -1.5921471  0.032612672   -3.0343207    1.4421736   187223 
 6424000   0.41039299   -3.0348997   -1.5904752  0.028765058   -3.0348997    1.4444245   187120 
 6425000   0.41044647   -3.0349138    -1.590108  0.032226938   -3.0349138    1.4448058   187095 
 6426000   0.40852316   -3.0294974   -1.5907466  0.028087175   -3.0294974    1.4387508   187002 
 6427000   0.40880507   -3.0311749    -1.590846  0.030989306   -3.0311749     1.440329   186926 
 6428000   0.40810211   -3.0278204   -1.5893218  0.028695732   -3.0278204    1.4384987   186842 
 6429000   0.40768341    -3.023473   -1.5862732  0.031093972    -3.023473    1.4371997   186819 
 6430000   0.41025566    -3.027477    -1.580706  0.032781788    -3.027477     1.446771   186754 
 6431000   0.40862073   -3.0249079   -1.5832617  0.029781026   -3.0249079    1.4416461   186671 
 6432000   0.40725618   -3.0234335   -1.5860163  0.031248508   -3.0234335    1.4374171   186595 
 6433000     0.407196   -3.0244094   -1.5865574  0.029601545   -3.0244094     1.437852   186511 
 6434000   0.40733881   -3.0244169   -1.5855052  0.024824812   -3.0244169    1.4389118   186439 
 6435000   0.40718886   -3.0248717   -1.5856096  0.031442992   -3.0248717    1.4392621   186325 
 6436000    0.4075726    -3.027691    -1.586268  0.030576587    -3.027691     1.441423   186221 
 6437000   0.40667127   -3.0277938   -1.5893422  0.031412724   -3.0277938    1.4384517   186193 
 6438000   0.40669867   -3.0332145   -1.5937923  0.030590805   -3.0332145    1.4394222   186080 
 6439000   0.40667145   -3.0312062   -1.5915322  0.033567649   -3.0312062     1.439674   186035 
 6440000   0.40631939   -3.0302399   -1.5911547  0.032058971   -3.0302399    1.4390852   185950 
 6441000    0.4068507   -3.0301814   -1.5889509   0.03348563   -3.0301814    1.4412305   185916 
 6442000   0.40689032   -3.0304347   -1.5885132  0.032486739   -3.0304347    1.4419215   185845 
 6443000   0.40569621   -3.0256038    -1.587047  0.033171093   -3.0256038    1.4385568   185733 
 6444000   0.40635772   -3.0272786   -1.5857397  0.035221289   -3.0272786    1.4415388   185651 
 6445000   0.40557495   -3.0226361   -1.5832228  0.033019991   -3.0226361    1.4394133   185567 
 6446000   0.40530705   -3.0253688    -1.585991  0.030633728   -3.0253688    1.4393778   185449 
 6447000   0.40501652   -3.0239417   -1.5848119  0.030883768   -3.0239417    1.4391298   185348 
 6448000   0.40433087   -3.0202505   -1.5829832  0.029443343   -3.0202505    1.4372673   185274 
 6449000   0.40398986   -3.0202162   -1.5834398  0.028384798   -3.0202162    1.4367764   185181 
 6450000    0.4044371   -3.0232268   -1.5837793  0.028152719   -3.0232268    1.4394474   185042 
 6451000    0.4051345   -3.0245671   -1.5820763  0.027209595   -3.0245671    1.4424909   184970 
 6452000   0.40463347   -3.0250852   -1.5836848   0.02852833   -3.0250852    1.4414005   184881 
 6453000   0.40466293   -3.0223884    -1.580337  0.033906257   -3.0223884    1.4420514   184811 
 6454000   0.40563106   -3.0243421   -1.5778546  0.030294728   -3.0243421    1.4464876   184685 
 6455000   0.40412597    -3.025686   -1.5839333   0.03109707    -3.025686    1.4417527   184604 
 6456000   0.40403219   -3.0221265   -1.5797942   0.03362956   -3.0221265    1.4423323   184487 
 6457000   0.40235905   -3.0206646   -1.5832533  0.030774186   -3.0206646    1.4374113   184352 
 6458000   0.40322743   -3.0239122   -1.5826716  0.032058308   -3.0239122    1.4412406   184259 
 6459000    0.4028799    -3.021283   -1.5808624  0.031991245    -3.021283    1.4404206   184205 
 6460000   0.40205841   -3.0195306   -1.5813131  0.031451595   -3.0195306    1.4382174   184111 
 6461000   0.40237998   -3.0195946   -1.5797811  0.029340008   -3.0195946    1.4398135   184054 
 6462000   0.40296933   -3.0195862   -1.5772329  0.032239812   -3.0195862    1.4423533   183999 
 6463000   0.40108701   -3.0179891   -1.5817331  0.031671799   -3.0179891     1.436256   183917 
 6464000   0.40225988   -3.0207777    -1.579146  0.032310802   -3.0207777    1.4416317   183767 
 6465000   0.40103738   -3.0159399   -1.5778756  0.032960295   -3.0159399    1.4380643   183663 
 6466000   0.40097365   -3.0172419    -1.578803  0.030600084   -3.0172419    1.4384389   183586 
 6467000   0.40100775   -3.0160547   -1.5767173  0.027856861   -3.0160547    1.4393374   183487 
 6468000   0.40154578   -3.0167589   -1.5748538    0.0347554   -3.0167589     1.441905   183406 
 6469000   0.39967933   -3.0141944   -1.5777463  0.031439681   -3.0141944    1.4364481   183247 
 6470000   0.40051809   -3.0156157   -1.5754301  0.028420532   -3.0156157    1.4401857   183155 
 6471000   0.39856889   -3.0104115   -1.5767417  0.029405038   -3.0104115    1.4336699   183092 
 6472000   0.40044329   -3.0171753   -1.5761493  0.031618167   -3.0171753    1.4410261   183014 
 6473000   0.40030941    -3.017653   -1.5762976  0.029529375    -3.017653    1.4413555   182911 
 6474000   0.39940884   -3.0153276   -1.5765854  0.030351337   -3.0153276    1.4387421   182831 
 6475000   0.39951041   -3.0169886    -1.577093  0.029682562   -3.0169886    1.4398956   182731 
 6476000    0.3994801   -3.0209493   -1.5798933  0.029988345   -3.0209493     1.441056   182570 
 6477000   0.39911956   -3.0166908   -1.5761148   0.03060686   -3.0166908    1.4405761   182466 
 6478000   0.39889591   -3.0135745   -1.5728108  0.033385502   -3.0135745    1.4407637   182340 
 6479000   0.39799445   -3.0111836   -1.5726739  0.031336151   -3.0111836    1.4385097   182213 
 6480000   0.39869704   -3.0135352   -1.5718215  0.033404034   -3.0135352    1.4417137   182129 
 6481000   0.39858854   -3.0101302   -1.5683101  0.030012689   -3.0101302    1.4418201   182066 
 6482000   0.39799869   -3.0133079   -1.5724739   0.02679977   -3.0133079     1.440834   181921 
 6483000   0.39718634   -3.0097103   -1.5710422  0.030827968   -3.0097103    1.4386681   181823 
 6484000   0.39696237   -3.0091954   -1.5707135  0.030367704   -3.0091954    1.4384819   181744 
 6485000   0.39626719   -3.0058633   -1.5689281  0.033606794   -3.0058633    1.4369352   181621 
 6486000   0.39675112   -3.0041422   -1.5648341  0.032973191   -3.0041422    1.4393082   181543 
 6487000    0.3959089   -3.0066011   -1.5695567  0.030359342   -3.0066011    1.4370444   181443 
 6488000   0.39619008   -3.0043976   -1.5659442  0.028420259   -3.0043976    1.4384534   181394 
 6489000   0.39568802   -3.0027715   -1.5653564  0.031463425   -3.0027715    1.4374151   181295 
 6490000   0.39737062   -3.0081645   -1.5640954  0.030749194   -3.0081645    1.4440691   181227 
 6491000   0.39580929   -3.0029076    -1.564036   0.03014193   -3.0029076    1.4388715   181167 
 6492000   0.39638458   -3.0041327   -1.5624696  0.031241465   -3.0041327    1.4416631   181079 
 6493000   0.39622502   -3.0028279   -1.5611718  0.030487629   -3.0028279     1.441656   181007 
 6494000   0.39559028   -3.0025919   -1.5626328  0.032144388   -3.0025919    1.4399591   180930 
 6495000   0.39428771   -3.0023803    -1.566226  0.031398551   -3.0023803    1.4361544   180812 
 6496000   0.39449777   -2.9998529   -1.5624883  0.034076165   -2.9998529    1.4373647   180756 
 6497000    0.3954978   -3.0029308   -1.5615636  0.030733206   -3.0029308    1.4413671   180711 
 6498000   0.39530632   -3.0007463   -1.5592155  0.030087723   -3.0007463    1.4415308   180603 
 6499000    0.3945621   -3.0007287   -1.5610668  0.032435718   -3.0007287    1.4396619   180497 
 6500000   0.39467198   -2.9971705   -1.5562455  0.034414905   -2.9971705     1.440925   180389 
 6501000   0.39419219   -2.9974452    -1.557809  0.028815893   -2.9974452    1.4396362   180331 
 6502000    0.3938827   -2.9961065   -1.5569462  0.031695245   -2.9961065    1.4391603   180249 
 6503000   0.39367004   -2.9931106   -1.5539528   0.03340643   -2.9931106    1.4391578   180152 
 6504000   0.39443114   -2.9886652   -1.5460123  0.031237808   -2.9886652    1.4426529   180063 
 6505000   0.39367023   -2.9873881   -1.5469423  0.031917458   -2.9873881    1.4404458   179991 
 6506000   0.39347471   -2.9875926   -1.5470779  0.029873985   -2.9875926    1.4405147   179893 
 6507000   0.39367937   -2.9843095   -1.5421717  0.032285378   -2.9843095    1.4421377   179784 
 6508000   0.39349147   -2.9822647   -1.5400371  0.033585505   -2.9822647    1.4422276   179687 
 6509000   0.39289623   -2.9803673   -1.5397442   0.02884886   -2.9803673    1.4406232   179615 
 6510000   0.39229706   -2.9794907   -1.5402632  0.032189259   -2.9794907    1.4392275   179515 
 6511000    0.3927932   -2.9790365   -1.5371856  0.031145855   -2.9790365    1.4418509   179415 
 6512000   0.39242325   -2.9793247   -1.5378999  0.032710114   -2.9793247    1.4414248   179299 
 6513000   0.39185853   -2.9739121   -1.5340155  0.034536797   -2.9739121    1.4398966   179231 
 6514000   0.39145044   -2.9725547   -1.5332422  0.028206069   -2.9725547    1.4393126   179117 
 6515000    0.3917742    -2.972093   -1.5307854   0.03319618    -2.972093    1.4413076   179017 
 6516000   0.39269904   -2.9774591   -1.5315374  0.032008616   -2.9774591    1.4459216   178867 
 6517000   0.39135576   -2.9749417   -1.5330874  0.030197959   -2.9749417    1.4418543   178758 
 6518000   0.38888551   -2.9675937   -1.5339502  0.033588145   -2.9675937    1.4336435   178647 
 6519000   0.39035727   -2.9696118   -1.5298817  0.029533099   -2.9696118      1.43973   178565 
 6520000   0.39067297   -2.9714639   -1.5296086  0.030561883   -2.9714639    1.4418553   178446 
 6521000   0.38938708   -2.9662991   -1.5284241  0.031789657   -2.9662991    1.4378749   178351 
 6522000   0.39042091   -2.9713866   -1.5287072  0.029087539   -2.9713866    1.4426794   178229 
 6523000   0.38976012   -2.9675626   -1.5267105  0.031735143   -2.9675626    1.4408521   178153 
 6524000   0.38954162   -2.9675186   -1.5263661  0.030387295   -2.9675186    1.4411526   178016 
 6525000   0.38864186   -2.9635204   -1.5255188  0.031660798   -2.9635204    1.4380015   177994 
 6526000   0.39007381   -2.9668158    -1.522591  0.031266563   -2.9668158    1.4442248   177880 
 6527000   0.38889614   -2.9671343   -1.5262897  0.033684204   -2.9671343    1.4408447   177759 
 6528000   0.38821735   -2.9666221   -1.5272396  0.033065392   -2.9666221    1.4393825   177629 
 6529000   0.38876409   -2.9673906   -1.5249498  0.030364191   -2.9673906    1.4424409   177502 
 6530000   0.38824618   -2.9648747   -1.5239658  0.033197535   -2.9648747    1.4409089   177454 
 6531000   0.38778449   -2.9643771   -1.5245326  0.029403963   -2.9643771    1.4398445   177374 
 6532000   0.38811622   -2.9678374   -1.5256798  0.027971086   -2.9678374    1.4421576   177241 
 6533000   0.38844207   -2.9658167   -1.5214051  0.032707406   -2.9658167    1.4444116   177113 
 6534000   0.38709139   -2.9642514   -1.5240979  0.031636766   -2.9642514    1.4401534   177019 
 6535000   0.38619352   -2.9621499   -1.5248417  0.029391939   -2.9621499    1.4373082   176958 
 6536000   0.38735988    -2.960702    -1.518466  0.028852556    -2.960702    1.4422359   176886 
 6537000    0.3868574   -2.9613134   -1.5202803   0.03424068   -2.9613134    1.4410331   176804 
 6538000   0.38636574   -2.9652231   -1.5253292  0.030409401   -2.9652231    1.4398939   176719 
 6539000   0.38589859   -2.9614047   -1.5225271  0.031131834   -2.9614047    1.4388776   176630 
 6540000   0.38656632    -2.964374   -1.5225087  0.032789221    -2.964374    1.4418653   176569 
 6541000   0.38678505   -2.9625709   -1.5190395  0.031212501   -2.9625709    1.4435314   176465 
 6542000    0.3859719   -2.9574582   -1.5164962  0.031241884   -2.9574582     1.440962   176408 
 6543000    0.3864271   -2.9603005   -1.5169027  0.030450203   -2.9603005    1.4433978   176318 
 6544000   0.38520935   -2.9572695    -1.517146  0.033521105   -2.9572695    1.4401234   176162 
 6545000   0.38523802   -2.9579978   -1.5167936  0.033043655   -2.9579978    1.4412042   176043 
 6546000   0.38584898    -2.960172   -1.5157879  0.033438582    -2.960172    1.4443841   175934 
 6547000    0.3842878   -2.9555142   -1.5165325  0.032771379   -2.9555142    1.4389817   175880 
 6548000   0.38581074   -2.9579033   -1.5125532  0.030858347   -2.9579033    1.4453501   175799 
 6549000   0.38424573   -2.9527227   -1.5123671  0.028147454   -2.9527227    1.4403556   175693 
 6550000   0.38536335   -2.9546565   -1.5095028  0.035658958   -2.9546565    1.4451537   175619 
 6551000   0.38497117   -2.9534413   -1.5085982  0.034544173   -2.9534413     1.444843   175478 
 6552000   0.38521529   -2.9545273   -1.5077952  0.036153098   -2.9545273    1.4467321   175360 
 6553000   0.38353366   -2.9542501   -1.5129541  0.028021284   -2.9542501    1.4412959   175253 
 6554000   0.38224491   -2.9518284   -1.5144487  0.030102593   -2.9518284    1.4373797   175140 
 6555000   0.38296677   -2.9535239    -1.513109  0.028312125   -2.9535239    1.4404149   175101 
 6556000   0.38406232   -2.9537447   -1.5087636  0.029969825   -2.9537447    1.4449811   175047 
 6557000    0.3832566   -2.9500757   -1.5073925  0.030039851   -2.9500757    1.4426832   174958 
 6558000   0.38286156   -2.9531963   -1.5110522  0.029753391   -2.9531963    1.4421441   174843 
 6559000   0.38293018   -2.9538976   -1.5104879   0.03113954   -2.9538976    1.4434097   174721 
 6560000   0.38229221   -2.9509946   -1.5096019  0.033083909   -2.9509946    1.4413927   174674 
 6561000   0.38215935   -2.9497134   -1.5083018  0.032084105   -2.9497134    1.4414116   174611 
 6562000   0.38287411   -2.9485682   -1.5037408  0.032145096   -2.9485682    1.4448274   174524 
 6563000   0.38289896   -2.9499113   -1.5040374  0.030706632   -2.9499113    1.4458739   174409 
 6564000   0.38255874   -2.9480721   -1.5025961   0.03395246   -2.9480721     1.445476   174302 
 6565000   0.38139853   -2.9515445   -1.5095754  0.029662606   -2.9515445    1.4419691   174196 
 6566000   0.38180792   -2.9502379   -1.5059997  0.030360048   -2.9502379    1.4442382   174109 
 6567000   0.38181165   -2.9502015   -1.5049447  0.033503502   -2.9502015    1.4452568   173988 
 6568000   0.38289177   -2.9508998   -1.5007043  0.032513542   -2.9508998    1.4501955   173886 
 6569000   0.38120285   -2.9475178   -1.5029631  0.030769288   -2.9475178    1.4445547   173795 
 6570000   0.38144577   -2.9446919   -1.4984511  0.032725929   -2.9446919    1.4462408   173703 
 6571000   0.38083941   -2.9430549   -1.4985144  0.032279036   -2.9430549    1.4445406   173631 
 6572000   0.37995763   -2.9408585   -1.4988071  0.029402432   -2.9408585    1.4420514   173528 
 6573000   0.38004085   -2.9409105   -1.4974952  0.028590784   -2.9409105    1.4434153   173402 
 6574000   0.38036462   -2.9397394   -1.4942108  0.029761478   -2.9397394    1.4455287   173296 
 6575000   0.37970909   -2.9379684   -1.4945145  0.032608983   -2.9379684    1.4434539   173246 
 6576000   0.37971384   -2.9388379   -1.4946574  0.029671085   -2.9388379    1.4441805   173161 
 6577000   0.37961012   -2.9396839   -1.4951221  0.029281229   -2.9396839    1.4445618   173068 
 6578000     0.379184   -2.9387715   -1.4949219  0.032259849   -2.9387715    1.4438496   172959 
 6579000   0.37936578   -2.9375894   -1.4921534  0.033029262   -2.9375894     1.445436   172852 
 6580000   0.37984131   -2.9373746   -1.4892387  0.031122038   -2.9373746    1.4481359   172746 
 6581000   0.37891393   -2.9361086   -1.4907218  0.030413571   -2.9361086    1.4453868   172652 
 6582000   0.37844693   -2.9306574   -1.4863828  0.033855519   -2.9306574    1.4442746   172572 
 6583000   0.37779195      -2.9297   -1.4870891   0.03012176      -2.9297     1.442611   172472 
 6584000   0.37736498   -2.9305177   -1.4883665  0.032122744   -2.9305177    1.4421512   172332 
 6585000    0.3780414   -2.9275226   -1.4828283  0.031670788   -2.9275226    1.4446943   172337 
 6586000    0.3780694   -2.9263689   -1.4806112  0.027425726   -2.9263689    1.4457577   172223 
 6587000   0.37943732   -2.9285433   -1.4767538  0.032836188   -2.9285433    1.4517895   172128 
 6588000   0.37789083   -2.9224395    -1.475651  0.033525158   -2.9224395    1.4467886   172019 
 6589000   0.37721111   -2.9204073   -1.4755071  0.032873592   -2.9204073    1.4449002   171934 
 6590000   0.37741992   -2.9258532    -1.479598  0.030647249   -2.9258532    1.4462552   171868 
 6591000   0.37645242   -2.9248275   -1.4813559  0.034307909   -2.9248275    1.4434716   171758 
 6592000   0.37752198   -2.9292118   -1.4809139  0.031458299   -2.9292118    1.4482979   171672 
 6593000   0.37722277    -2.928366   -1.4808112  0.031880033    -2.928366    1.4475548   171624 
 6594000   0.37547632   -2.9252351    -1.483374  0.029988805   -2.9252351    1.4418611   171504 
 6595000   0.37627662   -2.9269616   -1.4814457  0.035141052   -2.9269616    1.4455159   171435 
 6596000   0.37679456    -2.927509   -1.4789725  0.033349547    -2.927509    1.4485365   171313 
 6597000   0.37673357   -2.9257155   -1.4764406  0.033716038   -2.9257155    1.4492749   171198 
 6598000   0.37670694   -2.9261866   -1.4764976  0.030154509   -2.9261866     1.449689   171137 
 6599000   0.37559123   -2.9202075   -1.4738825  0.034252178   -2.9202075     1.446325   171027 
 6600000   0.37650219   -2.9236969    -1.472812  0.030465809   -2.9236969    1.4508849   170903 
 6601000    0.3751194   -2.9164744   -1.4699703  0.034446692   -2.9164744    1.4465041   170791 
 6602000   0.37392313   -2.9140144   -1.4713038  0.035085695   -2.9140144    1.4427105   170694 
 6603000   0.37413022   -2.9135525   -1.4693407  0.031435036   -2.9135525    1.4442118   170611 
 6604000   0.37383214   -2.9094444   -1.4657232   0.03119293   -2.9094444    1.4437212   170533 
 6605000   0.37362419    -2.908233   -1.4645953  0.032802242    -2.908233    1.4436377   170448 
 6606000   0.37320839   -2.9071424   -1.4643326  0.030147349   -2.9071424    1.4428098   170356 
 6607000   0.37356112   -2.9093195   -1.4640516  0.030229658   -2.9093195    1.4452679   170227 
 6608000   0.37306894   -2.9062358   -1.4616841   0.03024925   -2.9062358    1.4445518   170087 
 6609000   0.37268506   -2.9050532   -1.4611389  0.031183447   -2.9050532    1.4439142   169987 
 6610000   0.37349651    -2.905349   -1.4578055  0.032731066    -2.905349    1.4475435   169930 
 6611000    0.3726987    -2.902541   -1.4572305  0.033467363    -2.902541    1.4453105   169829 
 6612000   0.37409242   -2.9038265   -1.4527181  0.032178153   -2.9038265    1.4511083   169783 
 6613000   0.37298046   -2.9047752   -1.4568544  0.034282402   -2.9047752    1.4479207   169651 
 6614000   0.37273176   -2.9056229   -1.4579593  0.031721181   -2.9056229    1.4476635   169568 
 6615000   0.37189768   -2.9041561   -1.4587092  0.030639887   -2.9041561    1.4454469   169448 
 6616000   0.37266405   -2.9041582   -1.4546548  0.034895318   -2.9041582    1.4495034   169322 
 6617000   0.37306879   -2.9072812   -1.4554919  0.031323303   -2.9072812    1.4517893   169239 
 6618000   0.37122148   -2.9021462   -1.4566403  0.032060019   -2.9021462    1.4455059   169133 
 6619000   0.37087587   -2.9050128   -1.4594681  0.033280032   -2.9050128    1.4455447   168971 
 6620000   0.37062245   -2.9039858   -1.4587532  0.032837444   -2.9039858    1.4452327   168892 
 6621000   0.37044024   -2.9042669   -1.4589574  0.032005283   -2.9042669    1.4453095   168800 
 6622000   0.36968902   -2.9015838   -1.4585128  0.030425548   -2.9015838     1.443071   168719 
 6623000   0.36912098   -2.9022855   -1.4600299  0.031518635   -2.9022855    1.4422555   168555 
 6624000   0.37039977   -2.9033573   -1.4554352  0.032697801   -2.9033573    1.4479222   168477 
 6625000   0.37015851   -2.9061712   -1.4582898  0.035577001   -2.9061712    1.4478814   168372 
 6626000   0.36902489   -2.9004737   -1.4561772  0.032640398   -2.9004737    1.4442965   168273 
 6627000   0.36875716    -2.901425   -1.4572323  0.032760943    -2.901425    1.4441927   168163 
 6628000    0.3693114   -2.9042562   -1.4570754  0.032641445   -2.9042562    1.4471809   168068 
 6629000   0.36859973   -2.9046632   -1.4593251  0.033757924   -2.9046632    1.4453381   167958 
 6630000   0.36860471   -2.9043561   -1.4578272  0.030484946   -2.9043561    1.4465289   167822 
 6631000   0.36848504   -2.9009786   -1.4540658  0.034729723   -2.9009786    1.4469128   167723 
 6632000   0.36891997   -2.9023264   -1.4530836   0.03247008   -2.9023264    1.4492428   167651 
 6633000   0.36832484   -2.9016748     -1.45401  0.033991787   -2.9016748    1.4476648   167563 
 6634000   0.36646861   -2.8956169   -1.4543791  0.030898137   -2.8956169    1.4412378   167462 
 6635000   0.36764601   -2.8975635   -1.4507795  0.032206923   -2.8975635     1.446784   167356 
 6636000    0.3685126   -2.8966602   -1.4457377  0.036451653   -2.8966602    1.4509225   167272 
 6637000   0.36664629   -2.8894577   -1.4452444  0.032990487   -2.8894577    1.4442133   167198 
 6638000   0.36707357   -2.8907475   -1.4441763  0.031725503   -2.8907475    1.4465712   167120 
 6639000   0.36647465   -2.8897827   -1.4449925  0.032082963   -2.8897827    1.4447902   167053 
 6640000   0.36652591   -2.8913425   -1.4458137  0.032185568   -2.8913425    1.4455288   166991 
 6641000   0.36668593   -2.8885156   -1.4419312    0.0346806   -2.8885156    1.4465844   166942 
 6642000   0.36669503   -2.8884328   -1.4409715  0.033824004   -2.8884328    1.4474613   166845 
 6643000   0.36643479   -2.8892906   -1.4421713  0.032326736   -2.8892906    1.4471192   166766 
 6644000   0.36617494   -2.8904438   -1.4431791   0.03124701   -2.8904438    1.4472647   166631 
 6645000   0.36525786   -2.8903714   -1.4453612  0.034013928   -2.8903714    1.4450102   166473 
 6646000   0.36535857    -2.889637   -1.4433162  0.030509742    -2.889637    1.4463208   166368 
 6647000   0.36463911   -2.8881351   -1.4437421  0.033971766   -2.8881351     1.444393   166262 
 6648000   0.36495971   -2.8904413   -1.4438126  0.033696112   -2.8904413    1.4466288   166151 
 6649000    0.3648386   -2.8918406   -1.4449342  0.029283167   -2.8918406    1.4469063   166064 
 6650000   0.36476195   -2.8919127    -1.444526  0.034564876   -2.8919127    1.4473868   165974 
 6651000   0.36422293   -2.8918211   -1.4451699  0.031980435   -2.8918211    1.4466512   165813 
 6652000   0.36285452    -2.887922   -1.4458798  0.034861772    -2.887922    1.4420423   165718 
 6653000   0.36248853   -2.8855492   -1.4440046  0.033355199   -2.8855492    1.4415446   165608 
 6654000   0.36359743   -2.8895095   -1.4425939   0.03116205   -2.8895095    1.4469155   165498 
 6655000   0.36268284   -2.8867618   -1.4426219  0.030545986   -2.8867618    1.4441399   165399 
 6656000   0.36246673   -2.8852638   -1.4409627  0.031825397   -2.8852638     1.444301   165282 
 6657000   0.36165505   -2.8836741   -1.4419182  0.030795756   -2.8836741    1.4417559   165203 
 6658000   0.36299315   -2.8852326   -1.4372132  0.034622305   -2.8852326    1.4480194   165097 
 6659000   0.36227029   -2.8803792   -1.4343149  0.031984226   -2.8803792    1.4460643   164991 
 6660000   0.36242271   -2.8787573   -1.4315846  0.033361999   -2.8787573    1.4471726   164934 
 6661000   0.36201971    -2.876202   -1.4299459  0.028196781    -2.876202    1.4462562   164855 
 6662000    0.3612223   -2.8701659   -1.4259653  0.037984121   -2.8701659    1.4442006   164726 
 6663000    0.3607874   -2.8679061   -1.4248835  0.029188393   -2.8679061    1.4430225   164662 
 6664000   0.36076128   -2.8680213   -1.4244896  0.033601389   -2.8680213    1.4435317   164592 
 6665000   0.36123904   -2.8706172   -1.4242687  0.031546732   -2.8706172    1.4463485   164489 
 6666000   0.36128659   -2.8696993   -1.4222893  0.031615539   -2.8696993      1.44741   164390 
 6667000   0.36135024   -2.8699912   -1.4219297   0.03074025   -2.8699912    1.4480614   164345 
 6668000   0.36033204   -2.8665776   -1.4212421  0.032414619   -2.8665776    1.4453355   164191 
 6669000   0.36139261   -2.8690933   -1.4190357  0.030463366   -2.8690933    1.4500576   164138 
 6670000   0.36125731   -2.8703389   -1.4202588    0.0328053   -2.8703389    1.4500802   164074 
 6671000   0.36071754   -2.8664065   -1.4179279  0.030334273   -2.8664065    1.4484785   164010 
 6672000   0.36035618   -2.8650721   -1.4170912   0.03006461   -2.8650721     1.447981   163902 
 6673000   0.36043271   -2.8616135   -1.4128565  0.034603675   -2.8616135     1.448757   163849 
 6674000   0.36034897   -2.8642955   -1.4150083  0.029735231   -2.8642955    1.4492872   163751 
 6675000   0.35943732   -2.8619026   -1.4150626  0.032857649   -2.8619026      1.44684   163613 
 6676000     0.359399   -2.8632788   -1.4157438   0.03186851   -2.8632788     1.447535   163517 
 6677000   0.35939337   -2.8618071   -1.4136216  0.032143043   -2.8618071    1.4481854   163441 
 6678000   0.35903854   -2.8619927   -1.4143424  0.033968098   -2.8619927    1.4476502   163340 
 6679000    0.3587274   -2.8583835   -1.4105785  0.032194549   -2.8583835    1.4478051   163181 
 6680000    0.3589307   -2.8517162     -1.40254  0.032647361   -2.8517162    1.4491762   163119 
 6681000   0.35997876    -2.853678   -1.3989861  0.032315761    -2.853678    1.4546919   162975 
 6682000    0.3570398   -2.8472155   -1.4036649  0.033004102   -2.8472155    1.4435506   162892 
 6683000   0.35779974   -2.8475175   -1.4000858  0.033363763   -2.8475175    1.4474317   162801 
 6684000   0.35877973   -2.8474422   -1.3952701  0.032732135   -2.8474422    1.4521722   162714 
 6685000    0.3582397   -2.8463267   -1.3954932   0.03317856   -2.8463267    1.4508334   162619 
 6686000   0.35885213   -2.8505782   -1.3959586  0.031728143   -2.8505782    1.4546197   162473 
 6687000   0.35856577   -2.8522756   -1.3975722  0.035321719   -2.8522756    1.4547034   162334 
 6688000    0.3575445   -2.8500895   -1.3987337  0.033294073   -2.8500895    1.4513559   162245 
 6689000   0.35518209   -2.8422727   -1.3992702  0.034745514   -2.8422727    1.4430025   162106 
 6690000   0.35567046   -2.8500079   -1.4039687  0.030859726   -2.8500079    1.4460393   161988 
 6691000   0.35688584   -2.8521372   -1.3999194  0.030817927   -2.8521372    1.4522178   161850 
 6692000   0.35568942   -2.8429338   -1.3948508  0.034339892   -2.8429338     1.448083   161768 
 6693000   0.35569819   -2.8465677   -1.3977952  0.033876721   -2.8465677    1.4487725   161695 
 6694000   0.35549252   -2.8407889   -1.3919671  0.034505078   -2.8407889    1.4488219   161596 
 6695000   0.35478169   -2.8416268   -1.3945019  0.034030336   -2.8416268    1.4471248   161462 
 6696000   0.35559426   -2.8447401    -1.393447  0.033955417   -2.8447401    1.4512932   161367 
 6697000   0.35436068   -2.8430525   -1.3957805  0.033334646   -2.8430525     1.447272   161254 
 6698000    0.3528672   -2.8408734   -1.3982875  0.030165181   -2.8408734    1.4425859   161096 
 6699000   0.35353445   -2.8423903   -1.3961879  0.030547915   -2.8423903    1.4462024   160997 
 6700000   0.35349255   -2.8428779   -1.3960381  0.034420593   -2.8428779    1.4468398   160907 
 6701000   0.35291104   -2.8431034   -1.3979521  0.033281314   -2.8431034    1.4451513   160830 
 6702000   0.35260227     -2.84371   -1.3988439  0.032979303     -2.84371    1.4448661   160721 
 6703000    0.3532729   -2.8445809   -1.3957588  0.036421719   -2.8445809    1.4488221   160587 
 6704000   0.35368046   -2.8427542   -1.3912302  0.032629628   -2.8427542     1.451524   160473 
 6705000    0.3534357   -2.8416469   -1.3902048  0.032529645   -2.8416469    1.4514421   160371 
 6706000   0.35275344   -2.8360856    -1.386876  0.035691669   -2.8360856    1.4492096   160308 
 6707000   0.35283398   -2.8355058   -1.3850515  0.033599915   -2.8355058    1.4504543   160207 
 6708000   0.35074083   -2.8301257   -1.3869789  0.034426785   -2.8301257    1.4431468   160063 
 6709000   0.35102112   -2.8324836   -1.3870728  0.035579875   -2.8324836    1.4454108   159940 
 6710000   0.35114838   -2.8299459   -1.3827081  0.033737392   -2.8299459    1.4472378   159796 
 6711000    0.3512577   -2.8275268   -1.3787868  0.032001848   -2.8275268      1.44874   159680 
 6712000   0.35035288   -2.8263311   -1.3801003  0.032717659   -2.8263311    1.4462309   159545 
 6713000   0.35168976   -2.8299874   -1.3776463  0.033374344   -2.8299874    1.4523411   159480 
 6714000   0.35068619   -2.8261689   -1.3774816  0.033591134   -2.8261689    1.4486873   159426 
 6715000   0.35021299   -2.8215403   -1.3734908  0.032210235   -2.8215403    1.4480495   159281 
 6716000    0.3501379   -2.8168544   -1.3684788  0.032379502   -2.8168544    1.4483756   159211 
 6717000    0.3513863   -2.8195622   -1.3649353   0.03078961   -2.8195622    1.4546269   159092 
 6718000   0.35002945    -2.811541   -1.3614829  0.029604056    -2.811541    1.4500581   158977 
 6719000   0.34925508   -2.8089886   -1.3616013  0.031661526   -2.8089886    1.4473874   158918 
 6720000   0.34968591   -2.8115514   -1.3614387  0.032835633   -2.8115514    1.4501127   158815 
 6721000   0.34793228   -2.8087432   -1.3647843  0.031779816   -2.8087432    1.4439589   158692 
 6722000   0.34874195   -2.8092649   -1.3604485  0.032183751   -2.8092649    1.4488164   158528 
 6723000   0.34901844   -2.8085565   -1.3581798  0.031462911   -2.8085565    1.4503767   158483 
 6724000    0.3492314   -2.8117447     -1.35953  0.033735914   -2.8117447    1.4522147   158379 
 6725000   0.34872828   -2.8112817   -1.3605455  0.032053538   -2.8112817    1.4507362   158312 
 6726000   0.34981543   -2.8124318   -1.3563911  0.034080721   -2.8124318    1.4560407   158227 
 6727000   0.34898953    -2.808672   -1.3552423  0.034884939    -2.808672    1.4534297   158137 
 6728000    0.3472801   -2.8030002    -1.355857  0.036263845   -2.8030002    1.4471432   158046 
 6729000   0.34818786   -2.8049137   -1.3529864  0.036162087   -2.8049137    1.4519273   157937 
 6730000   0.34682047   -2.8002578   -1.3527952  0.033046741   -2.8002578    1.4474626   157802 
 6731000   0.34735292   -2.8011153   -1.3504193  0.032424358   -2.8011153     1.450696   157692 
 6732000   0.34660576   -2.8008822   -1.3521215  0.031204026   -2.8008822    1.4487607   157563 
 6733000   0.34666566   -2.7955102    -1.345763  0.034561845   -2.7955102    1.4497472   157483 
 6734000    0.3462978   -2.7959671    -1.346525  0.035437853   -2.7959671    1.4494421   157349 
 6735000   0.34511723   -2.7894395   -1.3437903   0.03297072   -2.7894395    1.4456493   157224 
 6736000   0.34623191   -2.7879916   -1.3370179  0.030183815   -2.7879916    1.4509737   157153 
 6737000    0.3457906   -2.7882305   -1.3384235  0.031969471   -2.7882305     1.449807   157079 
 6738000   0.34602179   -2.7871473   -1.3350861  0.035244707   -2.7871473    1.4520612   156940 
 6739000   0.34554889   -2.7847348   -1.3334096  0.030687888   -2.7847348    1.4513252   156805 
 6740000   0.34567386   -2.7844744   -1.3315774  0.033198502   -2.7844744    1.4528971   156692 
 6741000   0.34555727   -2.7859596   -1.3324116  0.032707413   -2.7859596     1.453548   156569 
 6742000   0.34423943   -2.7848352   -1.3356087  0.032252786   -2.7848352    1.4492265   156437 
 6743000   0.34438455   -2.7863577   -1.3355464  0.033186639   -2.7863577    1.4508112   156332 
 6744000   0.34446785   -2.7862295   -1.3344637  0.034260191   -2.7862295    1.4517658   156267 
 6745000   0.34386181   -2.7829316   -1.3329034  0.030372835   -2.7829316    1.4500282   156179 
 6746000   0.34347733    -2.783289    -1.333499  0.031078411    -2.783289      1.44979   156030 
 6747000   0.34250004   -2.7793673   -1.3328773  0.035606015   -2.7793673      1.44649   155941 
 6748000   0.34346338   -2.7831524   -1.3319332   0.03185567   -2.7831524    1.4512193   155870 
 6749000   0.34326612   -2.7858737   -1.3341933  0.035342545   -2.7858737    1.4516804   155731 
 6750000   0.34318443   -2.7834424   -1.3311936  0.034027763   -2.7834424    1.4522488   155633 
 6751000   0.34310197   -2.7800182   -1.3273436  0.036413165   -2.7800182    1.4526746   155550 
 6752000   0.34341115   -2.7821975   -1.3269228  0.033449438   -2.7821975    1.4552747   155412 
 6753000   0.34324768   -2.7836801   -1.3278429  0.032119836   -2.7836801    1.4558372   155278 
 6754000   0.34129564   -2.7791671    -1.330863  0.029757712   -2.7791671    1.4483041   155198 
 6755000   0.34085221   -2.7754898   -1.3283308  0.032200875   -2.7754898     1.447159   155119 
 6756000   0.34055159   -2.7754248   -1.3285161  0.033990342   -2.7754248    1.4469087   155009 
 6757000   0.34058315   -2.7737643   -1.3258154  0.034376003   -2.7737643    1.4479489   154912 
 6758000    0.3414732   -2.7833647   -1.3305159  0.027549057   -2.7833647    1.4528489   154793 
 6759000   0.33972409   -2.7757724   -1.3291037  0.031366865   -2.7757724    1.4466687   154658 
 6760000   0.33987712   -2.7704058   -1.3223177  0.032703172   -2.7704058    1.4480881   154576 
 6761000   0.33944081   -2.7698257   -1.3223979  0.029922547   -2.7698257    1.4474278   154448 
 6762000   0.33870269   -2.7704791   -1.3252818  0.032807764   -2.7704791    1.4451973   154350 
 6763000   0.33990996   -2.7711394   -1.3197847  0.033905134   -2.7711394    1.4513547   154243 
 6764000   0.33988629   -2.7696194   -1.3172076  0.033438485   -2.7696194    1.4524118   154120 
 6765000   0.33882284   -2.7701488   -1.3208614  0.034766717   -2.7701488    1.4492874   153969 
 6766000    0.3394285   -2.7735957   -1.3207268  0.035700546   -2.7735957    1.4528689   153864 
 6767000   0.33834167   -2.7684993   -1.3193123   0.03214748   -2.7684993     1.449187   153761 
 6768000   0.33864313   -2.7657509   -1.3143098  0.038289144   -2.7657509     1.451441   153659 
 6769000   0.33853369   -2.7704636   -1.3182535  0.031637809   -2.7704636    1.4522101   153528 
 6770000   0.33795138   -2.7732939   -1.3225896  0.033038208   -2.7732939    1.4507042   153423 
 6771000   0.33723049   -2.7672891   -1.3186407  0.031886693   -2.7672891    1.4486484   153313 
 6772000   0.33541914   -2.7629163   -1.3212591  0.033251533   -2.7629163    1.4416572   153229 
 6773000   0.33675534   -2.7668032   -1.3183158  0.031648929   -2.7668032    1.4484874   153114 
 6774000   0.33693955   -2.7625379   -1.3124721  0.035377516   -2.7625379    1.4500658   153031 
 6775000    0.3361191   -2.7644822   -1.3167932  0.031104087   -2.7644822     1.447689   152909 
 6776000   0.33623826   -2.7651288   -1.3162064  0.031243107   -2.7651288    1.4489224   152833 
 6777000   0.33661882   -2.7645054   -1.3130504  0.033047911   -2.7645054     1.451455   152739 
 6778000   0.33548086   -2.7640575   -1.3169976  0.031467567   -2.7640575    1.4470599   152685 
 6779000   0.33514591   -2.7614285   -1.3146478  0.034880953   -2.7614285    1.4467806   152562 
 6780000    0.3355354   -2.7611976   -1.3113196  0.034225077   -2.7611976     1.449878   152413 
 6781000   0.33507726   -2.7552627   -1.3060426  0.033763484   -2.7552627      1.44922   152274 
 6782000    0.3348888    -2.756619   -1.3071289   0.03435309    -2.756619    1.4494901   152160 
 6783000   0.33385626   -2.7544861   -1.3085624  0.033436002   -2.7544861    1.4459237   152065 
 6784000   0.33506597    -2.755001   -1.3029117  0.034473436    -2.755001    1.4520892   151968 
 6785000   0.33322086   -2.7488824   -1.3032865  0.035123031   -2.7488824     1.445596   151810 
 6786000   0.33482311   -2.7521387   -1.2984522  0.038106555   -2.7521387    1.4536865   151691 
 6787000   0.33383192   -2.7488208   -1.2983286  0.035134011   -2.7488208    1.4504923   151575 
 6788000   0.33242247   -2.7443454   -1.2987469  0.031645535   -2.7443454    1.4455985   151446 
 6789000   0.33412274   -2.7485103   -1.2946634  0.031757296   -2.7485103    1.4538468   151357 
 6790000   0.33276488   -2.7417341   -1.2926276   0.03543362   -2.7417341    1.4491065   151235 
 6791000   0.33253092   -2.7390465   -1.2906619  0.030710157   -2.7390465    1.4483846   151204 
 6792000   0.33339594   -2.7368473   -1.2833588  0.033906024   -2.7368473    1.4534885   151065 
 6793000   0.33283441   -2.7311247   -1.2790462  0.037015953   -2.7311247    1.4520785   150957 
 6794000   0.33237744   -2.7270622   -1.2759391  0.033515181   -2.7270622     1.451123   150849 
 6795000   0.33270773   -2.7279269   -1.2745332  0.037243508   -2.7279269    1.4533936   150763 
 6796000   0.33182487   -2.7268506    -1.276053  0.035813616   -2.7268506    1.4507976   150632 
 6797000    0.3315283   -2.7218012   -1.2714144   0.03438419   -2.7218012    1.4503868   150540 
 6798000   0.33318129   -2.7241863   -1.2653469  0.034356932   -2.7241863    1.4588394   150414 
 6799000   0.33125808   -2.7172689    -1.265586  0.033674454   -2.7172689    1.4516829   150283 
 6800000   0.33193112    -2.721715   -1.2656487  0.034344618    -2.721715    1.4560663   150135 
 6801000   0.33109635    -2.716858   -1.2636598  0.034284132    -2.716858    1.4531982   150053 
 6802000   0.33116754   -2.7204449   -1.2659844  0.033949309   -2.7204449    1.4544605   149955 
 6803000   0.33045382   -2.7139713   -1.2618319   0.03338095   -2.7139713    1.4521394   149871 
 6804000   0.33188651   -2.7162531   -1.2566784  0.035456344   -2.7162531    1.4595746   149754 
 6805000   0.33040376     -2.71864   -1.2643043  0.032762657     -2.71864    1.4543357   149622 
 6806000    0.3305496   -2.7182774   -1.2622877  0.032346398   -2.7182774    1.4559897   149518 
 6807000   0.32926905   -2.7144597    -1.263237  0.033309592   -2.7144597    1.4512227   149428 
 6808000   0.32971672   -2.7188747   -1.2645987  0.037024979   -2.7188747     1.454276   149317 
 6809000    0.3286646   -2.7148205   -1.2645342  0.034258641   -2.7148205    1.4502862   149250 
 6810000   0.32962198    -2.718129    -1.262682   0.03446971    -2.718129     1.455447   149154 
 6811000   0.32790713   -2.7106769   -1.2613054   0.03507827   -2.7106769    1.4493715   149000 
 6812000   0.32888807   -2.7140994     -1.25966  0.033321467   -2.7140994    1.4544394   148925 
 6813000   0.32821055   -2.7094006   -1.2565623  0.035649746   -2.7094006    1.4528383   148782 
 6814000   0.32808857   -2.7100193    -1.256402  0.030899795   -2.7100193    1.4536173   148647 
 6815000   0.32718543   -2.7057539   -1.2549571  0.032020642   -2.7057539    1.4507968   148526 
 6816000   0.32692408   -2.7010308   -1.2506312   0.03570989   -2.7010308    1.4503997   148448 
 6817000   0.32654606   -2.6993516   -1.2492517  0.033110703   -2.6993516    1.4500999   148307 
 6818000   0.32666636   -2.6970969   -1.2453175  0.034225242   -2.6970969    1.4517795   148190 
 6819000   0.32548115   -2.6926993   -1.2445748  0.033713235   -2.6926993    1.4481245   148025 
 6820000   0.32680574   -2.6945366   -1.2396046  0.031954929   -2.6945366    1.4549319   147932 
 6821000   0.32679948   -2.6938876   -1.2378221  0.032719549   -2.6938876    1.4560655   147814 
 6822000    0.3257685   -2.6895742   -1.2368835  0.036305285   -2.6895742    1.4526906   147690 
 6823000   0.32584157   -2.6834118   -1.2298737  0.032678753   -2.6834118     1.453538   147637 
 6824000    0.3257536   -2.6888802   -1.2345131  0.033705237   -2.6888802    1.4543671   147513 
 6825000    0.3247569   -2.6898781   -1.2392921  0.032995156   -2.6898781     1.450586   147445 
 6826000   0.32547195   -2.6879773   -1.2325786  0.033844876   -2.6879773    1.4553987   147281 
 6827000   0.32493697   -2.6864407   -1.2321803  0.034261912   -2.6864407    1.4542604   147154 
 6828000   0.32491602   -2.6866512   -1.2313274  0.035541218   -2.6866512    1.4553238   147037 
 6829000    0.3246897    -2.683414   -1.2280151  0.035218264    -2.683414    1.4553989   146927 
 6830000   0.32402167   -2.6845807   -1.2305434  0.036785014   -2.6845807    1.4540374   146762 
 6831000   0.32352328   -2.6820035   -1.2290345  0.033575569   -2.6820035    1.4529691   146644 
 6832000    0.3234507   -2.6782644   -1.2248184  0.033041199   -2.6782644    1.4534459   146563 
 6833000   0.32317914   -2.6786941   -1.2249806   0.03542777   -2.6786941    1.4537135   146413 
 6834000   0.32385638   -2.6812841   -1.2237776  0.035072211   -2.6812841    1.4575064   146338 
 6835000   0.32233753   -2.6763008   -1.2246975   0.03265576   -2.6763008    1.4516033   146244 
 6836000   0.32162104   -2.6728255   -1.2230014  0.035798359   -2.6728255    1.4498241   146098 
 6837000   0.32241647    -2.675511   -1.2208267  0.032534984    -2.675511    1.4546842   145970 
 6838000   0.32258869   -2.6792853   -1.2225865  0.032968137   -2.6792853    1.4566987   145846 
 6839000   0.32194091   -2.6730916   -1.2181109  0.033739453   -2.6730916    1.4549807   145725 
 6840000   0.32152179   -2.6705434   -1.2162893  0.034204436   -2.6705434    1.4542541   145608 
 6841000   0.32243941   -2.6711421    -1.211655  0.037396324   -2.6711421    1.4594871   145500 
 6842000   0.32123983   -2.6688049   -1.2135674  0.036278017   -2.6688049    1.4552375   145382 
 6843000   0.32005548   -2.6675485   -1.2163186   0.03271123   -2.6675485    1.4512299   145246 
 6844000   0.32150636    -2.666656   -1.2083052  0.037378754    -2.666656    1.4583508   145192 
 6845000   0.32108454   -2.6656005   -1.2078176  0.037460514   -2.6656005    1.4577829   145058 
 6846000   0.32013154   -2.6630011   -1.2084922  0.036189032   -2.6630011    1.4545089   144953 
 6847000   0.32100331   -2.6617483   -1.2024228  0.036017834   -2.6617483    1.4593255   144868 
 6848000   0.32033643   -2.6562297   -1.1985675  0.034157082   -2.6562297    1.4576622   144732 
 6849000   0.31980245   -2.6555583   -1.1990881  0.035078608   -2.6555583    1.4564702   144609 
 6850000   0.31827505    -2.653389   -1.2023699  0.033024889    -2.653389    1.4510191   144459 
 6851000   0.31850414   -2.6534784   -1.2000465    0.0351747   -2.6534784    1.4534318   144323 
 6852000   0.31864487   -2.6537524   -1.1984078  0.034931398   -2.6537524    1.4553446   144197 
 6853000   0.31886714   -2.6506383    -1.193642  0.038306333   -2.6506383    1.4569963   144134 
 6854000   0.31834105   -2.6473216   -1.1913148  0.037510946   -2.6473216    1.4560067   143994 
 6855000   0.31875822   -2.6510552   -1.1916304  0.033917481   -2.6510552    1.4594249   143845 
 6856000   0.31755025   -2.6491652   -1.1940976  0.034688566   -2.6491652    1.4550676   143729 
 6857000    0.3179874   -2.6461941   -1.1881901  0.034162485   -2.6461941     1.458004   143637 
 6858000   0.31773626    -2.647141   -1.1885317  0.036829506    -2.647141    1.4586093   143464 
 6859000   0.31730163   -2.6478914   -1.1900579  0.036877904   -2.6478914    1.4578335   143344 
 6860000   0.31517917   -2.6419624   -1.1927178  0.036628153   -2.6419624    1.4492446   143229 
 6861000   0.31575284   -2.6457776   -1.1929621  0.033632874   -2.6457776    1.4528156   143137 
 6862000   0.31582097   -2.6466495   -1.1928704  0.032433623   -2.6466495    1.4537791   143073 
 6863000   0.31469984   -2.6372686   -1.1876675  0.032736964   -2.6372686    1.4496011   142976 
 6864000   0.31587294   -2.6351584   -1.1790945  0.036439993   -2.6351584    1.4560639   142872 
 6865000   0.31632037   -2.6416669    -1.182141  0.036579555   -2.6416669    1.4595259   142735 
 6866000   0.31711716   -2.6444204   -1.1800279  0.038493533   -2.6444204    1.4643925   142619 
 6867000   0.31562625   -2.6396932   -1.1812856  0.035341971   -2.6396932    1.4584076   142531 
 6868000   0.31461272   -2.6386964   -1.1837879  0.034931372   -2.6386964    1.4549085   142415 
 6869000   0.31529001   -2.6357529   -1.1764623  0.034543636   -2.6357529    1.4592907   142293 
 6870000   0.31474715   -2.6310408   -1.1732075  0.035705077   -2.6310408    1.4578334   142190 
 6871000   0.31426422   -2.6246905   -1.1673003  0.034468636   -2.6246905    1.4573902   142015 
 6872000   0.31528739   -2.6211786   -1.1579204  0.034230858   -2.6211786    1.4632582   141906 
 6873000   0.31447818   -2.6145297   -1.1534827  0.037407354   -2.6145297    1.4610471   141756 
 6874000   0.31381074    -2.613189   -1.1538325  0.034021934    -2.613189    1.4593565   141619 
 6875000   0.31346421   -2.6117213   -1.1532038   0.03612395   -2.6117213    1.4585174   141544 
 6876000   0.31319346   -2.6111977   -1.1529613  0.033731123   -2.6111977    1.4582364   141449 
 6877000   0.31322851   -2.6067027   -1.1472714  0.039140978   -2.6067027    1.4594314   141349 
 6878000   0.31299064   -2.6058135   -1.1460446  0.033666015   -2.6058135    1.4597689   141209 
 6879000   0.31211827   -2.6064031   -1.1492479  0.034574276   -2.6064031    1.4571552   141068 
 6880000   0.31230022   -2.6090163   -1.1496771  0.036857397   -2.6090163    1.4593392   140939 
 6881000   0.31173073   -2.6062871   -1.1484092  0.032981205   -2.6062871    1.4578779   140823 
 6882000   0.31230037   -2.6096325   -1.1475851  0.035349675   -2.6096325    1.4620474   140678 
 6883000   0.31128301   -2.6041579   -1.1458886  0.035965401   -2.6041579    1.4582693   140583 
 6884000   0.31090426   -2.6025649   -1.1451888  0.033936758   -2.6025649    1.4573762   140498 
 6885000   0.31041603   -2.6001131   -1.1433562  0.035118255   -2.6001131    1.4567569   140337 
 6886000   0.30953944   -2.5984811   -1.1443666  0.034683325   -2.5984811    1.4541145   140195 
 6887000   0.30968592   -2.6001029   -1.1441788  0.033573884   -2.6001029    1.4559242   140087 
 6888000   0.30944949   -2.5991611   -1.1433715  0.037055799   -2.5991611    1.4557895   139993 
 6889000   0.30916851   -2.5977731   -1.1422346  0.036442776   -2.5977731    1.4555385   139890 
 6890000   0.31050389   -2.6005848   -1.1374415  0.037479186   -2.6005848    1.4631433   139764 
 6891000   0.31054421   -2.6007184   -1.1360542  0.035124936   -2.6007184    1.4646642   139637 
 6892000   0.31029402   -2.5958366   -1.1307472  0.037811082   -2.5958366    1.4650894   139484 
 6893000   0.30939553   -2.5917632   -1.1300987   0.03672299   -2.5917632    1.4616645   139406 
 6894000   0.30751355    -2.581829   -1.1276055  0.036498207    -2.581829    1.4542235   139267 
 6895000   0.30761725   -2.5840526   -1.1279167  0.035514483   -2.5840526    1.4561359   139131 
 6896000   0.30708401   -2.5800384   -1.1250043  0.035603142   -2.5800384    1.4550341   138995 
 6897000   0.30762217   -2.5805673   -1.1221859  0.035431916   -2.5805673    1.4583814   138919 
 6898000   0.30738621   -2.5822816   -1.1231492  0.033020722   -2.5822816    1.4591324   138741 
 6899000    0.3063903   -2.5787782   -1.1229568  0.036100848   -2.5787782    1.4558214   138606 
 6900000   0.30640585    -2.580458   -1.1229222  0.036307078    -2.580458    1.4575358   138450 
 6901000   0.30576655   -2.5746763   -1.1189408  0.037482834   -2.5746763    1.4557354   138332 
 6902000   0.30669606   -2.5732719   -1.1115155  0.036597526   -2.5732719    1.4617564   138181 
 6903000   0.30521158   -2.5656664   -1.1100267  0.038081467   -2.5656664    1.4556398   138090 
 6904000   0.30523097   -2.5652727   -1.1081581  0.036554442   -2.5652727    1.4571146   137959 
 6905000   0.30458487   -2.5675968   -1.1123852  0.034505084   -2.5675968    1.4552116   137847 
 6906000   0.30535572   -2.5660425   -1.1055694  0.036478271   -2.5660425    1.4604731   137698 
 6907000   0.30579687   -2.5644078   -1.1007831  0.036516231   -2.5644078    1.4636247   137600 
 6908000   0.30493696   -2.5609221   -1.1001179  0.037163042   -2.5609221    1.4608041   137478 
 6909000    0.3038684   -2.5575375   -1.1001879  0.034571459   -2.5575375    1.4573495   137321 
 6910000   0.30420263   -2.5601637   -1.0994668  0.038635035   -2.5601637    1.4606969   137157 
 6911000   0.30459032   -2.5557745   -1.0920314  0.039733032   -2.5557745    1.4637431   137046 
 6912000    0.3042593   -2.5579361   -1.0946947   0.03455919   -2.5579361    1.4632414   136944 
 6913000   0.30399391   -2.5575474   -1.0942574  0.035278687   -2.5575474    1.4632901   136820 
 6914000   0.30262972   -2.5481128   -1.0900572  0.034466422   -2.5481128    1.4580556   136695 
 6915000   0.30332321   -2.5503482    -1.087828  0.036624371   -2.5503482    1.4625202   136590 
 6916000   0.30353369   -2.5461786   -1.0814103  0.035386054   -2.5461786    1.4647683   136475 
 6917000   0.30299082   -2.5446549   -1.0813269  0.037060727   -2.5446549     1.463328   136365 
 6918000   0.30297787   -2.5417719   -1.0771854  0.037281552   -2.5417719    1.4645865   136242 
 6919000   0.30176249   -2.5386008   -1.0785605  0.037060952   -2.5386008    1.4600403   136118 
 6920000   0.30099245   -2.5327041   -1.0749973  0.038127476   -2.5327041    1.4577067   135988 
 6921000   0.30094876   -2.5318533   -1.0731568  0.037353786   -2.5318533    1.4586965   135876 
 6922000   0.30130266   -2.5270729   -1.0655424  0.038676185   -2.5270729    1.4615305   135772 
 6923000    0.3017581   -2.5305279   -1.0654933  0.037102594   -2.5305279    1.4650345   135652 
 6924000    0.3008765   -2.5258405   -1.0636418  0.038541965   -2.5258405    1.4621988   135518 
 6925000   0.30001859   -2.5207216   -1.0613459   0.03670074   -2.5207216    1.4593756   135393 
 6926000   0.30012785   -2.5198787   -1.0584496  0.037304853   -2.5198787    1.4614291   135252 
 6927000   0.30058803   -2.5199436   -1.0547897  0.038392392   -2.5199436    1.4651539   135115 
 6928000   0.29974962    -2.518647   -1.0559668  0.040313677    -2.518647    1.4626803   134966 
 6929000   0.29989794   -2.5161824    -1.051639    0.0351436   -2.5161824    1.4645434   134861 
 6930000   0.29842247   -2.5100831   -1.0516638  0.037356599   -2.5100831    1.4584194   134761 
 6931000   0.29867578   -2.5112915   -1.0504526   0.03478288   -2.5112915    1.4608389   134652 
 6932000   0.29855618   -2.5077596   -1.0463335  0.040506297   -2.5077596    1.4614261   134544 
 6933000   0.29873393   -2.5056447   -1.0415857  0.039277933   -2.5056447     1.464059   134382 
 6934000   0.29952593     -2.51072   -1.0414346  0.039783183     -2.51072    1.4692853   134259 
 6935000   0.29833506   -2.5073413    -1.042086  0.038927132   -2.5073413    1.4652554   134093 
 6936000    0.2977581   -2.5049843   -1.0410888   0.03571858   -2.5049843    1.4638954   133958 
 6937000   0.29739151   -2.5004648   -1.0369514  0.038112866   -2.5004648    1.4635134   133828 
 6938000   0.29741934   -2.4996038   -1.0342892  0.031807499   -2.4996038    1.4653146   133676 
 6939000   0.29650897   -2.4949678    -1.033187  0.038160054   -2.4949678    1.4617808   133589 
 6940000   0.29616599   -2.4918759   -1.0303637  0.037725797   -2.4918759    1.4615122   133459 
 6941000   0.29655469   -2.4879933   -1.0229273  0.039402186   -2.4879933     1.465066   133310 
 6942000   0.29700931    -2.488877   -1.0201217  0.038446613    -2.488877    1.4687553   133179 
 6943000   0.29673744   -2.4865141   -1.0179564  0.038481616   -2.4865141    1.4685577   133075 
 6944000   0.29671579   -2.4840507   -1.0144295  0.038249006   -2.4840507    1.4696211   132969 
 6945000   0.29578711   -2.4825864   -1.0159656  0.036748464   -2.4825864    1.4666208   132824 
 6946000   0.29592405   -2.4780111    -1.009462  0.038104585   -2.4780111    1.4685491   132711 
 6947000   0.29578725   -2.4755984   -1.0062999   0.03840733   -2.4755984    1.4692984   132582 
 6948000   0.29409515   -2.4697294    -1.007557  0.037361159   -2.4697294    1.4621724   132466 
 6949000   0.29439478   -2.4686485   -1.0034932  0.036405016   -2.4686485    1.4651553   132331 
 6950000   0.29426994   -2.4659957   -1.0000328  0.038677138   -2.4659957     1.465963   132202 
 6951000   0.29388118   -2.4627768  -0.99745367  0.037321464   -2.4627768    1.4653231   132085 
 6952000   0.29412925   -2.4621681  -0.99389617  0.038086977   -2.4621681    1.4682719   131931 
 6953000   0.29370039   -2.4615504  -0.99397326  0.037314042   -2.4615504    1.4675772   131801 
 6954000   0.29350743   -2.4581092  -0.98988098  0.039778805   -2.4581092    1.4682282   131656 
 6955000   0.29338701   -2.4571125  -0.98786853  0.039646986   -2.4571125     1.469244   131511 
 6956000   0.29372396   -2.4579888   -0.9853441  0.039071865   -2.4579888    1.4726447   131358 
 6957000   0.29349981    -2.454313  -0.98119969  0.038536955    -2.454313    1.4731133   131216 
 6958000   0.29235915   -2.4495769  -0.98101356  0.038955616   -2.4495769    1.4685634   131111 
 6959000    0.2935792   -2.4544147  -0.97854091  0.038800297   -2.4544147    1.4758738   131006 
 6960000   0.29200896   -2.4478736   -0.9784692  0.036788853   -2.4478736    1.4694044   130879 
 6961000    0.2914608   -2.4449249  -0.97696662  0.038861896   -2.4449249    1.4679583   130762 
 6962000   0.29184031   -2.4421362  -0.97097261  0.041333579   -2.4421362    1.4711636   130647 
 6963000   0.29055215   -2.4369018  -0.96980628  0.041683766   -2.4369018    1.4670956   130431 
 6964000   0.29105952   -2.4365844   -0.9650089  0.039752862   -2.4365844    1.4715755   130261 
 6965000   0.29017635   -2.4295538  -0.96101182  0.040734871   -2.4295538     1.468542   130134 
 6966000   0.29022277     -2.42923  -0.95959484  0.040740847     -2.42923    1.4696352   130058 
 6967000   0.28951871   -2.4240209  -0.95654051  0.038409439   -2.4240209    1.4674804   129933 
 6968000   0.28936417    -2.419718  -0.95193649  0.038896789    -2.419718    1.4677815   129837 
 6969000   0.28983902    -2.417448  -0.94618137  0.037436861    -2.417448    1.4712667   129742 
 6970000    0.2903421   -2.4131746  -0.93795559  0.037717839   -2.4131746     1.475219   129619 
 6971000   0.28933712   -2.4089591  -0.93794987  0.038544173   -2.4089591    1.4710092   129540 
 6972000   0.28837325   -2.4052469  -0.93757457  0.037157846   -2.4052469    1.4676723   129402 
 6973000   0.28806951   -2.4041474  -0.93690972  0.038789929   -2.4041474    1.4672377   129304 
 6974000   0.28749965   -2.4005535    -0.934563  0.038394816   -2.4005535    1.4659905   129158 
 6975000   0.28706859   -2.3965835   -0.9314639  0.037082075   -2.3965835    1.4651196   129041 
 6976000    0.2872984   -2.3943755  -0.92645625  0.039221497   -2.3943755    1.4679192   128898 
 6977000   0.28781921   -2.3943304  -0.92213975  0.038726986   -2.3943304    1.4721907   128757 
 6978000   0.28710234   -2.3910532  -0.92106798  0.038122385   -2.3910532    1.4699852   128629 
 6979000   0.28707962   -2.3862341  -0.91454606  0.040213047   -2.3862341    1.4716881   128470 
 6980000   0.28577556   -2.3771457     -0.91115  0.039886932   -2.3771457    1.4659957   128383 
 6981000   0.28656838   -2.3788051   -0.9067702   0.03866233   -2.3788051    1.4720349   128211 
 6982000   0.28625036   -2.3757439  -0.90345928  0.038384318   -2.3757439    1.4722846   128047 
 6983000   0.28569605   -2.3719841  -0.90095368  0.038362993   -2.3719841    1.4710305   127908 
 6984000   0.28656503   -2.3712914  -0.89376516  0.042274575   -2.3712914    1.4775263   127733 
 6985000   0.28535411   -2.3633471  -0.88939874  0.037419512   -2.3633471    1.4739483   127502 
 6986000   0.28532547   -2.3595719  -0.88415142  0.040584328   -2.3595719    1.4754205   127362 
 6987000   0.28473395   -2.3505763  -0.87664062  0.041311922   -2.3505763    1.4739356   127226 
 6988000   0.28392515   -2.3506089  -0.87912513  0.038356437   -2.3506089    1.4714837   127076 
 6989000   0.28280174     -2.35017  -0.88278799  0.040296623     -2.35017     1.467382   126927 
 6990000   0.28406932   -2.3502809  -0.87450793  0.040758032   -2.3502809    1.4757729   126771 
 6991000   0.28351961   -2.3443332  -0.87003215  0.040302653   -2.3443332    1.4743011   126652 
 6992000   0.28284534   -2.3441295  -0.87159064  0.039837595   -2.3441295    1.4725388   126502 
 6993000    0.2829279   -2.3399718  -0.86563952  0.039626609   -2.3399718    1.4743323   126385 
 6994000   0.28279102   -2.3380121  -0.86247843  0.040829168   -2.3380121    1.4755337   126221 
 6995000   0.28260627   -2.3373566  -0.86165281  0.039629416   -2.3373566    1.4757038   126124 
 6996000   0.28234899   -2.3302397  -0.85459244  0.039913408   -2.3302397    1.4756473   126014 
 6997000   0.28121037   -2.3255676  -0.85473887  0.039693405   -2.3255676    1.4708287   125917 
 6998000   0.28094867   -2.3220003  -0.85127892  0.041021636   -2.3220003    1.4707214   125809 
 6999000   0.28115786   -2.3191917  -0.84589969  0.039797886   -2.3191917     1.473292   125683 
 7000000   0.28022334   -2.3167198  -0.84642959  0.039023341   -2.3167198    1.4702902   125521 
 7001000   0.28067965    -2.314946  -0.84091117  0.039728114    -2.314946    1.4740348   125406 
 7002000   0.28108609   -2.3104816  -0.83300459  0.040615169   -2.3104816     1.477477   125295 
 7003000   0.28015721   -2.3081375  -0.83393102  0.039893413   -2.3081375    1.4742065   125158 
 7004000   0.27991433   -2.3049004  -0.83032258  0.042172665   -2.3049004    1.4745779   125018 
 7005000    0.2795676   -2.3020335  -0.82757211  0.039965603   -2.3020335    1.4744614   124873 
 7006000   0.27918252   -2.2940271  -0.81970752  0.042630617   -2.2940271    1.4743195   124713 
 7007000   0.27818253   -2.2909058  -0.81975545  0.040940695   -2.2909058    1.4711503   124534 
 7008000   0.27847781   -2.2957656  -0.82115919  0.036341045   -2.2957656    1.4746064   124374 
 7009000   0.27657859   -2.2923645  -0.82610543  0.036829705   -2.2923645     1.466259   124229 
 7010000   0.27721143   -2.2977157  -0.82606414  0.040139629   -2.2977157    1.4716515   124057 
 7011000   0.27775424    -2.295423   -0.8191167  0.042716945    -2.295423    1.4763063   123908 
 7012000   0.27703686   -2.2960244  -0.82151995  0.039038913   -2.2960244    1.4745044   123739 
 7013000   0.27606548   -2.2908349  -0.81955054   0.03877139   -2.2908349    1.4712844   123575 
 7014000   0.27544507   -2.2850903  -0.81569736  0.040699143   -2.2850903    1.4693929   123456 
 7015000   0.27552439   -2.2803823  -0.80911235  0.042671697   -2.2803823      1.47127   123334 
 7016000   0.27526384   -2.2757175  -0.80493257   0.04179755   -2.2757175    1.4707849   123258 
 7017000   0.27563296   -2.2762184  -0.80173853  0.038999558   -2.2762184    1.4744798   123114 
 7018000    0.2758112   -2.2764212  -0.79918808  0.041523349   -2.2764212    1.4772332   122964 
 7019000   0.27411596   -2.2713814  -0.80136286   0.04127633   -2.2713814    1.4700185   122808 
 7020000   0.27405006   -2.2656354  -0.79404103  0.040977888   -2.2656354    1.4715943   122647 
 7021000   0.27306806   -2.2595583  -0.79129776   0.03911876   -2.2595583    1.4682606   122485 
 7022000   0.27348825   -2.2568247  -0.78416466  0.041565763   -2.2568247      1.47266   122307 
 7023000   0.27459533   -2.2566629  -0.77641983  0.039873327   -2.2566629    1.4802431   122173 
 7024000   0.27361234   -2.2490858    -0.772268  0.042265433   -2.2490858    1.4768178   122018 
 7025000   0.27335872   -2.2483001  -0.77151987  0.043414154   -2.2483001    1.4767802   121908 
 7026000   0.27302815   -2.2504384  -0.77386953  0.041365893   -2.2504384    1.4765689   121778 
 7027000   0.27272975   -2.2470449    -0.769712  0.043859606   -2.2470449    1.4773329   121582 
 7028000   0.27107768   -2.2458116  -0.77542011  0.041373404   -2.2458116    1.4703915   121416 
 7029000   0.27041717   -2.2448787  -0.77615873   0.04045566   -2.2448787      1.46872   121258 
 7030000   0.27038655   -2.2421259  -0.77197188  0.040469966   -2.2421259     1.470154   121126 
 7031000   0.27007143   -2.2368573  -0.76653517    0.0414898   -2.2368573    1.4703222   120971 
 7032000   0.26965903   -2.2321765  -0.76293353  0.043850442   -2.2321765     1.469243   120875 
 7033000   0.26927244   -2.2279869  -0.75912475  0.041772777   -2.2279869    1.4688621   120733 
 7034000   0.26921319   -2.2282909  -0.75765684  0.038603728   -2.2282909    1.4706341   120561 
 7035000   0.26892014   -2.2284569  -0.75766688  0.042413891   -2.2284569      1.47079   120417 
 7036000   0.26843822   -2.2250391  -0.75513932  0.038353116   -2.2250391    1.4698998   120274 
 7037000   0.26790511   -2.2247076  -0.75566286  0.041836162   -2.2247076    1.4690448   120105 
 7038000   0.26764727   -2.2226877  -0.75351545  0.040489185   -2.2226877    1.4691722   119979 
 7039000   0.26825904    -2.223076  -0.74891143  0.041153025    -2.223076    1.4741645   119846 
 7040000    0.2671787    -2.220396  -0.75065981  0.039383203    -2.220396    1.4697361   119723 
 7041000   0.26553322   -2.2123957  -0.74990333  0.038397752   -2.2123957    1.4624923   119575 
 7042000   0.26637945   -2.2130234  -0.74348598  0.040998904   -2.2130234    1.4695374   119381 
 7043000   0.26552029   -2.2094845  -0.74289319  0.041271391   -2.2094845    1.4665913   119235 
 7044000   0.26445608   -2.2057025  -0.74330911  0.040997828   -2.2057025    1.4623934   119098 
 7045000   0.26476161   -2.2049425  -0.73870508  0.041193531   -2.2049425    1.4662374   118923 
 7046000    0.2650085   -2.2044468  -0.73535976  0.041767973   -2.2044468     1.469087   118803 
 7047000   0.26493816   -2.1981875  -0.72779481  0.040536111   -2.1981875    1.4703927   118666 
 7048000   0.26455458   -2.1989853  -0.72906159  0.038048681   -2.1989853    1.4699237   118532 
 7049000   0.26373952   -2.1878504  -0.72058611  0.038821523   -2.1878504    1.4672643   118381 
 7050000   0.26309238    -2.184484  -0.71913655  0.039135182    -2.184484    1.4653475   118245 
 7051000   0.26355078   -2.1839917  -0.71377842  0.041192527   -2.1839917    1.4702133   118059 
 7052000   0.26292022   -2.1787267  -0.70980389  0.042672327   -2.1787267    1.4689228   117880 
 7053000   0.26245941   -2.1772677  -0.70888892  0.041580688   -2.1772677    1.4683787   117717 
 7054000   0.26225291   -2.1738195  -0.70442411  0.042476098   -2.1738195    1.4693954   117543 
 7055000   0.26197033   -2.1682198   -0.6988201  0.042677027   -2.1682198    1.4693997   117416 
 7056000   0.26161103   -2.1629542  -0.69344214    0.0430599   -2.1629542     1.469512   117246 
 7057000   0.26205606    -2.160908  -0.68675872  0.043277418    -2.160908    1.4741493   117076 
 7058000   0.26202055   -2.1548535  -0.67920241  0.041679403   -2.1548535    1.4756511   116941 
 7059000   0.26040594   -2.1468453  -0.67816485  0.040454018   -2.1468453    1.4686804   116772 
 7060000   0.26042831   -2.1403087   -0.6697769  0.043163763   -2.1403087    1.4705319   116635 
 7061000   0.25925247   -2.1359865   -0.6703223  0.041807898   -2.1359865    1.4656642   116494 
 7062000   0.25982285   -2.1391844  -0.66807299   0.04157154   -2.1391844    1.4711114   116318 
 7063000    0.2588842   -2.1329765    -0.665426  0.043139128   -2.1329765    1.4675505   116179 
 7064000   0.26028701   -2.1314876  -0.65419207   0.04247048   -2.1314876    1.4772956   116038 
 7065000   0.25860542   -2.1209614  -0.65127208  0.040041879   -2.1209614    1.4696893   115885 
 7066000    0.2584453   -2.1173647  -0.64636399  0.042131913   -2.1173647    1.4710007   115710 
 7067000   0.25802567     -2.11681  -0.64622782   0.04419579     -2.11681    1.4705822   115555 
 7068000   0.25842007   -2.1120873  -0.63750901  0.041133399   -2.1120873    1.4745783   115418 
 7069000   0.25783638   -2.1086983  -0.63552328  0.043535412   -2.1086983     1.473175   115267 
 7070000   0.25661481   -2.1082276  -0.63980278  0.040140192   -2.1082276    1.4684248   115092 
 7071000   0.25576119   -2.1037653  -0.63781788  0.041291019   -2.1037653    1.4659475   114903 
 7072000   0.25655437   -2.1030545  -0.63062571  0.042964866   -2.1030545    1.4724287   114752 
 7073000   0.25569118    -2.097166  -0.62774489  0.045893606    -2.097166    1.4694211   114600 
 7074000    0.2560317   -2.0945167  -0.62136475  0.043892248   -2.0945167     1.473152   114462 
 7075000   0.25644101   -2.0885946  -0.61107384  0.041100962   -2.0885946    1.4775207   114306 
 7076000   0.25499892   -2.0791271  -0.60795887  0.042272372   -2.0791271    1.4711683   114154 
 7077000   0.25509667   -2.0739965  -0.60063804  0.040992462   -2.0739965    1.4733585   114028 
 7078000   0.25510991   -2.0712168  -0.59591877  0.041905827   -2.0712168     1.475298   113884 
 7079000   0.25369788   -2.0619673  -0.59292593  0.042805621   -2.0619673    1.4690413   113736 
 7080000   0.25315174   -2.0601476  -0.59176405  0.042358417   -2.0601476    1.4683835   113542 
 7081000   0.25268333   -2.0617174  -0.59367184  0.042866398   -2.0617174    1.4680456   113358 
 7082000   0.25331518   -2.0589869  -0.58503386  0.040256661   -2.0589869     1.473953   113186 
 7083000   0.25220659   -2.0483642   -0.5787453  0.042799093   -2.0483642    1.4696189   113023 
 7084000   0.25298628   -2.0502769  -0.57426026  0.045330827   -2.0502769    1.4760167   112881 
 7085000   0.25228792   -2.0473206  -0.57281816  0.043602656   -2.0473206    1.4745024   112685 
 7086000   0.25149994   -2.0444393   -0.5726615  0.043479602   -2.0444393    1.4717778   112541 
 7087000   0.25068571   -2.0414293  -0.57190937  0.043689657   -2.0414293      1.46952   112349 
 7088000    0.2502682   -2.0393638  -0.57008113  0.044008602   -2.0393638    1.4692827   112180 
 7089000   0.25098178   -2.0435043  -0.56820423  0.041548863   -2.0435043       1.4753   112041 
 7090000   0.24961839   -2.0399578  -0.57062608  0.039605115   -2.0399578    1.4693317   111885 
 7091000   0.24865123   -2.0343908  -0.56923312  0.042865512   -2.0343908    1.4651577   111769 
 7092000   0.24993203    -2.037841  -0.56346093  0.042442012    -2.037841    1.4743801   111642 
 7093000   0.24983509   -2.0365409  -0.56057778  0.046175922   -2.0365409    1.4759631   111479 
 7094000   0.24870621   -2.0277354  -0.55611809   0.04306431   -2.0277354    1.4716173   111303 
 7095000   0.24839409   -2.0285986   -0.5564871  0.043737309   -2.0285986    1.4721115   111126 
 7096000   0.24879418   -2.0242165  -0.54816654  0.041741164   -2.0242165      1.47605   111008 
 7097000   0.24862108   -2.0237021  -0.54595009  0.044145267   -2.0237021     1.477752   110803 
 7098000     0.248258   -2.0161338   -0.5384861  0.043150198   -2.0161338    1.4776477   110649 
 7099000   0.24697405   -2.0088111  -0.53682343  0.041925879   -2.0088111    1.4719877   110500 
 7100000   0.24704085   -2.0030925  -0.52877204  0.041842784   -2.0030925    1.4743204   110355 
 7101000   0.24677832   -1.9999588  -0.52517372  0.042602429   -1.9999588     1.474785   110203 
 7102000   0.24532794   -1.9904027  -0.52157968  0.042735586   -1.9904027     1.468823   110000 
 7103000   0.24565738   -1.9860487  -0.51336559  0.044102004   -1.9860487    1.4726831   109859 
 7104000    0.2452761   -1.9869596  -0.51398796  0.040328395   -1.9869596    1.4729717   109667 
 7105000   0.24526638   -1.9836011  -0.50833361   0.04194067   -1.9836011    1.4752675   109492 
 7106000   0.24466809    -1.982977  -0.50949149  0.042350838    -1.982977    1.4734855   109357 
 7107000   0.24353317   -1.9801751  -0.51148312  0.042628985   -1.9801751     1.468692   109205 
 7108000   0.24361859   -1.9756827  -0.50431974  0.041376201   -1.9756827    1.4713629   109045 
 7109000   0.24344715   -1.9764846  -0.50369898  0.043156984   -1.9764846    1.4727856   108863 
 7110000   0.24387786   -1.9756759  -0.49815379  0.042995155   -1.9756759    1.4775221   108706 
 7111000   0.24300611   -1.9681722  -0.49408728   0.04423653   -1.9681722    1.4740849   108570 
 7112000    0.2418271   -1.9629454  -0.49390161  0.041310666   -1.9629454    1.4690438   108414 
 7113000   0.24212212   -1.9628902  -0.48996205  0.043794862   -1.9628902    1.4729282   108260 
 7114000    0.2421464   -1.9601463  -0.48534032  0.044767225   -1.9601463     1.474806   108133 
 7115000   0.24107472   -1.9552756  -0.48509329  0.042591787   -1.9552756    1.4701823   107993 
 7116000   0.24096235   -1.9510853   -0.4790666  0.042996085   -1.9510853    1.4720187   107808 
 7117000   0.24096896   -1.9466942  -0.47300842   0.04422365   -1.9466942    1.4736857   107689 
 7118000   0.24022892   -1.9428151  -0.47145544  0.042384026   -1.9428151    1.4713597   107528 
 7119000   0.24032376   -1.9381839  -0.46393999  0.044431529   -1.9381839    1.4742439   107360 
 7120000   0.24007813    -1.939587  -0.46441787  0.044160507    -1.939587    1.4751691   107183 
 7121000   0.23947071   -1.9323937  -0.45883968  0.042831942   -1.9323937     1.473554   107029 
 7122000   0.23918475   -1.9308893  -0.45698786  0.043114266   -1.9308893    1.4739014   106876 
 7123000   0.23860442   -1.9300462  -0.45779236  0.042729719   -1.9300462    1.4722538   106736 
 7124000   0.23767318   -1.9204939  -0.45204619  0.042384804   -1.9204939    1.4684477   106595 
 7125000   0.23798594   -1.9160021  -0.44342551   0.04311941   -1.9160021    1.4725766   106436 
 7126000   0.23722276   -1.9078735  -0.43740811  0.043094308   -1.9078735    1.4704654   106247 
 7127000   0.23776229   -1.9091705  -0.43362473  0.041504236   -1.9091705    1.4755457   106122 
 7128000   0.23790002   -1.9033053  -0.42475916  0.044949066   -1.9033053    1.4785461   105968 
 7129000   0.23689842    -1.898871  -0.42429557   0.04395598    -1.898871    1.4745754   105806 
 7130000   0.23610363   -1.8966526  -0.42465923  0.043305843   -1.8966526    1.4719934   105636 
 7131000   0.23564446   -1.8887272  -0.41735401  0.044176053   -1.8887272    1.4713732   105475 
 7132000       0.2361   -1.8918991  -0.41499312  0.044769895   -1.8918991     1.476906   105283 
 7133000   0.23524342   -1.8918934  -0.41769921  0.045690687   -1.8918934    1.4741942   105094 
 7134000   0.23461375   -1.8845548  -0.41154535  0.044654654   -1.8845548    1.4730094   104897 
 7135000   0.23423606   -1.8815601  -0.40864723   0.04342886   -1.8815601    1.4729129   104735 
 7136000   0.23407471   -1.8725432  -0.39877349  0.044245182   -1.8725432    1.4737697   104602 
 7137000   0.23449071   -1.8681894  -0.39017549  0.042684065   -1.8681894    1.4780139   104487 
 7138000   0.23298791   -1.8621961  -0.39179692  0.044549632   -1.8621961    1.4703992   104355 
 7139000    0.2326128   -1.8599408   -0.3892877  0.045436373   -1.8599408    1.4706531   104169 
 7140000   0.23202602   -1.8594361  -0.38965682  0.045573457   -1.8594361    1.4697793   103968 
 7141000   0.23221848   -1.8608866  -0.38760663  0.043749907   -1.8608866    1.4732799   103807 
 7142000   0.23162075   -1.8532013  -0.38137422  0.043171611   -1.8532013    1.4718271   103642 
 7143000    0.2314894   -1.8443745  -0.37092251  0.045132469   -1.8443745     1.473452   103469 
 7144000   0.23159543   -1.8445393  -0.36792925  0.044845948   -1.8445393      1.47661   103295 
 7145000   0.23126777   -1.8415368  -0.36421266  0.042574521   -1.8415368    1.4773241   103099 
 7146000   0.23092591   -1.8406652  -0.36347597  0.041164533   -1.8406652    1.4771892   102956 
 7147000   0.23042533   -1.8335319  -0.35716437  0.045216841   -1.8335319    1.4763676   102790 
 7148000   0.22945843    -1.827615  -0.35555216   0.04361763    -1.827615    1.4720628   102658 
 7149000   0.23070931    -1.835333  -0.35305048  0.043511375    -1.835333    1.4822825   102506 
 7150000   0.22958629   -1.8263736  -0.34908704  0.043906301   -1.8263736    1.4772866   102352 
 7151000    0.2291325    -1.823606  -0.34713323  0.044392944    -1.823606    1.4764727   102206 
 7152000   0.22802384   -1.8228843   -0.3510209  0.043151426   -1.8228843    1.4718634   102030 
 7153000   0.22753558   -1.8170571  -0.34589417  0.041722082   -1.8170571    1.4711629   101860 
 7154000   0.22741594   -1.8161858  -0.34332377  0.043755141   -1.8161858     1.472862   101689 
 7155000   0.22673217   -1.8159604  -0.34519829  0.044060892   -1.8159604    1.4707621   101528 
 7156000   0.22694726   -1.8080775  -0.33372737  0.044019928   -1.8080775    1.4743501   101377 
 7157000    0.2270282   -1.8053094  -0.32823334  0.044239986   -1.8053094    1.4770761   101226 
 7158000   0.22544772   -1.7943336  -0.32552341  0.041839265   -1.7943336    1.4688102   101087 
 7159000   0.22592497    -1.793263  -0.31880556  0.043322548    -1.793263    1.4744574   100913 
 7160000   0.22457889   -1.7813614  -0.31376919  0.042858467   -1.7813614    1.4675922   100781 
 7161000   0.22463493   -1.7801379  -0.30990362  0.045085498   -1.7801379    1.4702343   100625 
 7162000   0.22421722   -1.7790688  -0.30991867  0.045416854   -1.7790688    1.4691502   100512 
 7163000   0.22410172   -1.7794666  -0.30867345  0.042425282   -1.7794666    1.4707931   100348 
 7164000   0.22359072    -1.773739  -0.30380939  0.042875785    -1.773739    1.4699296   100178 
 7165000   0.22327874   -1.7772436  -0.30732547  0.043197109   -1.7772436    1.4699182   100039 
 7166000   0.22320085   -1.7699341  -0.29851359   0.04470452   -1.7699341    1.4714205    99902 
 7167000   0.22265845   -1.7670288  -0.29702098  0.043263178   -1.7670288    1.4700078    99755 
 7168000   0.22199942   -1.7628515  -0.29492851  0.045066708   -1.7628515     1.467923    99601 
 7169000   0.22184325   -1.7586414  -0.28992248  0.042921986   -1.7586414    1.4687189    99477 
 7170000    0.2217308   -1.7561248  -0.28503013  0.045630331   -1.7561248    1.4710947    99266 
 7171000   0.22199568   -1.7559491  -0.28097218  0.044294796   -1.7559491    1.4749769    99123 
 7172000   0.22050334   -1.7433319  -0.27597578  0.041638183   -1.7433319    1.4673561    98968 
 7173000   0.22076784   -1.7411267  -0.26902067  0.046948328   -1.7411267     1.472106    98767 
 7174000   0.21984961   -1.7360825  -0.26794402  0.044150108   -1.7360825    1.4681385    98622 
 7175000   0.21939789   -1.7282489  -0.26041823  0.043822941   -1.7282489    1.4678307    98440 
 7176000   0.21907035   -1.7283267  -0.26025646  0.044036541   -1.7283267    1.4680703    98277 
 7177000    0.2193837   -1.7207478  -0.24824032  0.043632716   -1.7207478    1.4725075    98121 
 7178000   0.21946447   -1.7258742  -0.25013236   0.04287446   -1.7258742    1.4757418    97942 
 7179000   0.21805391   -1.7165774  -0.24799646   0.04140352   -1.7165774     1.468581    97787 
 7180000   0.21813604   -1.7126273  -0.24102524  0.044011189   -1.7126273    1.4716021    97623 
 7181000   0.21761577   -1.7085738  -0.23754318  0.043966005   -1.7085738    1.4710306    97428 
 7182000   0.21690026   -1.6926448  -0.22450697  0.044590158   -1.6926448    1.4681379    97299 
 7183000   0.21691785   -1.6925331  -0.22138835  0.045225186   -1.6925331    1.4711448    97108 
 7184000   0.21690669   -1.6917922   -0.2187359  0.045301478   -1.6917922    1.4730563    96977 
 7185000   0.21640877   -1.6894283  -0.21622909  0.045924921   -1.6894283    1.4731992    96745 
 7186000   0.21499333   -1.6786841  -0.21217983  0.043652358   -1.6786841    1.4665043    96551 
 7187000   0.21541202   -1.6819996  -0.21029195  0.045389762   -1.6819996    1.4717077    96397 
 7188000   0.21522667   -1.6799244  -0.20713014  0.044664398   -1.6799244    1.4727942    96243 
 7189000      0.21497   -1.6698951  -0.19722004  0.043251738   -1.6698951    1.4726751    96136 
 7190000   0.21438127   -1.6626017    -0.191726  0.043705301   -1.6626017    1.4708757    95990 
 7191000   0.21462229   -1.6604281  -0.18548637  0.045548686   -1.6604281    1.4749418    95833 
 7192000   0.21417814   -1.6552215  -0.18056228  0.044079217   -1.6552215    1.4746593    95653 
 7193000   0.21385083    -1.651208   -0.1763044  0.043824782    -1.651208    1.4749036    95491 
 7194000    0.2135941   -1.6503271   -0.1744585  0.044445723   -1.6503271    1.4758686    95314 
 7195000   0.21290865   -1.6447399  -0.17125773  0.046763712   -1.6447399    1.4734821    95162 
 7196000   0.21183438   -1.6415507  -0.17334323  0.044945845   -1.6415507    1.4682074    95022 
 7197000   0.21146442   -1.6303435  -0.16193406  0.044279715   -1.6303435    1.4684094    94843 
 7198000    0.2116172   -1.6287362  -0.15727999  0.044177502   -1.6287362    1.4714562    94715 
 7199000   0.21102702   -1.6224182  -0.15242741  0.043566557   -1.6224182    1.4699908    94545 
 7200000   0.21071502   -1.6189218  -0.14867836  0.043195059   -1.6189218    1.4702434    94389 
 7201000    0.2104191     -1.61588  -0.14567648  0.046240794     -1.61588    1.4702035    94259 
 7202000   0.20977261   -1.6152696  -0.14690361  0.045307316   -1.6152696    1.4683659    94087 
 7203000   0.20929036   -1.6122899  -0.14439772  0.044062767   -1.6122899    1.4678921    93901 
 7204000    0.2094663   -1.6127626  -0.14098768  0.044956019   -1.6127626    1.4717749    93732 
 7205000   0.20957507   -1.6126646  -0.13820624  0.044927476   -1.6126646    1.4744583    93610 
 7206000   0.20887871   -1.6079658  -0.13622138  0.045312875   -1.6079658    1.4717445    93471 
 7207000   0.20838138   -1.6025137  -0.13159819  0.045320809   -1.6025137    1.4709155    93301 
 7208000    0.2086735   -1.6010689  -0.12524417  0.044320092   -1.6010689    1.4758248    93121 
 7209000   0.20666873   -1.5865683  -0.12240635  0.044603947   -1.5865683     1.464162    92961 
 7210000   0.20755942   -1.5881704  -0.11505195  0.046279819   -1.5881704    1.4731185    92794 
 7211000    0.2064825   -1.5796056  -0.11085392  0.042468224   -1.5796056    1.4687517    92587 
 7212000    0.2067997   -1.5805782  -0.10726287  0.045916101   -1.5805782    1.4733153    92442 
 7213000   0.20723172   -1.5744887 -0.095920284  0.045169123   -1.5744887    1.4785684    92306 
 7214000    0.2054741   -1.5578945 -0.089432403  0.045237585   -1.5578945    1.4684621    92153 
 7215000   0.20445998    -1.554058 -0.089967787  0.042893582    -1.554058    1.4640902    91972 
 7216000    0.2048583    -1.554871 -0.085195996   0.04367921    -1.554871     1.469675    91801 
 7217000   0.20502581   -1.5561061 -0.082484502  0.044558419   -1.5561061    1.4736216    91630 
 7218000   0.20479183   -1.5488134 -0.074347121  0.044411255   -1.5488134    1.4744662    91473 
 7219000   0.20363494   -1.5393537 -0.070551403  0.044859772   -1.5393537    1.4688023    91307 
 7220000   0.20296615   -1.5341588 -0.067530036  0.044390463   -1.5341588    1.4666287    91142 
 7221000   0.20267846   -1.5325163 -0.065116706  0.044112732   -1.5325163    1.4673996    90965 
 7222000   0.20309893   -1.5330857 -0.059937319   0.04518269   -1.5330857    1.4731484    90798 
 7223000   0.20265788   -1.5333016 -0.059830841   0.04643704   -1.5333016    1.4734707    90581 
 7224000   0.20243941   -1.5340774 -0.059248129  0.045413591   -1.5340774    1.4748293    90400 
 7225000   0.20142071   -1.5293201 -0.059457118  0.043811744   -1.5293201     1.469863    90249 
 7226000   0.20117891   -1.5213064 -0.049783847  0.043483892   -1.5213064    1.4715225    90039 
 7227000   0.20050941   -1.5167802  -0.04664423  0.044623653   -1.5167802    1.4701359    89824 
 7228000   0.19918256   -1.5114896 -0.048247653  0.042216379   -1.5114896     1.463242    89650 
 7229000   0.19950597   -1.5103561 -0.040541146  0.043966793   -1.5103561    1.4698149    89394 
 7230000    0.1993796   -1.5032269 -0.031989441  0.044967075   -1.5032269    1.4712374    89251 
 7231000   0.19970393   -1.5019875 -0.025743427  0.045295362   -1.5019875    1.4762441    89093 
 7232000   0.19909085    -1.498299 -0.024038627  0.044322101    -1.498299    1.4742604    88939 
 7233000   0.19836083   -1.4880848 -0.016748727  0.044834882   -1.4880848    1.4713361    88789 
 7234000   0.19772244   -1.4819551 -0.012424796  0.044294594   -1.4819551    1.4695303    88612 
 7235000   0.19732082   -1.4798306 -0.010117295   0.04283195   -1.4798306    1.4697133    88421 
 7236000    0.1974319   -1.4783164 -0.0056105037  0.045351604   -1.4783164    1.4727059    88291 
 7237000   0.19658459    -1.471492 -0.0020107116  0.044981878    -1.471492    1.4694812    88105 
 7238000   0.19614641   -1.4713668 -0.0025101349  0.044050832   -1.4713668    1.4688566    87946 
 7239000    0.1961296    -1.468194 0.0027611868  0.044155156    -1.468194    1.4709552    87813 
 7240000   0.19544231   -1.4629307 0.0061490095  0.044436524   -1.4629307    1.4690797    87617 
 7241000   0.19550132   -1.4629309 0.0097522168   0.04470833   -1.4629309    1.4726831    87429 
 7242000   0.19454313   -1.4541133   0.01313085  0.044418242   -1.4541133    1.4672442    87323 
 7243000   0.19398795    -1.452516  0.013478981  0.043572183    -1.452516    1.4659949    87148 
 7244000   0.19411488   -1.4506993  0.019341687  0.046603351   -1.4506993     1.470041    86965 
 7245000   0.19319361   -1.4434106  0.023127541   0.04485881   -1.4434106    1.4665381    86759 
 7246000   0.19333356   -1.4399759  0.029996565  0.043376749   -1.4399759    1.4699725    86619 
 7247000   0.19244596   -1.4322468  0.033888291  0.041728268   -1.4322468    1.4661351    86447 
 7248000   0.19188708   -1.4234631  0.041158997  0.044819093   -1.4234631    1.4646221    86285 
 7249000   0.19147963   -1.4207483  0.043325896  0.044174352   -1.4207483    1.4640742    86134 
 7250000    0.1912166    -1.413004  0.052018526  0.043920441    -1.413004    1.4650226    85960 
 7251000   0.19062664   -1.4070011  0.056361467  0.044437826   -1.4070011    1.4633626    85792 
 7252000   0.18998005   -1.4065433  0.055314684  0.044038672   -1.4065433     1.461858    85589 
 7253000   0.18986698   -1.4037941  0.061096101  0.044952735   -1.4037941    1.4648902    85361 
 7254000   0.18993287   -1.3952553  0.072791801  0.045041264   -1.3952553    1.4680471    85207 
 7255000   0.18966849   -1.3967607  0.072139092  0.044587688   -1.3967607    1.4688998    85039 
 7256000   0.18904118   -1.3919154  0.075456403  0.044524605   -1.3919154    1.4673718    84846 
 7257000   0.18852338   -1.3833826  0.082994399  0.042357099   -1.3833826     1.466377    84671 
 7258000   0.18807114   -1.3783185  0.086547814  0.043425595   -1.3783185    1.4648664    84555 
 7259000   0.18846255   -1.3771056  0.092738996  0.044422413   -1.3771056    1.4698446    84444 
 7260000   0.18785748   -1.3727001  0.094823579  0.044110399   -1.3727001    1.4675237    84306 
 7261000   0.18782983   -1.3698717   0.10047075  0.043988151   -1.3698717    1.4703424    84132 
 7262000   0.18741663   -1.3667959   0.10347502  0.043304465   -1.3667959     1.470271    83951 
 7263000   0.18684621   -1.3615277   0.10652418  0.043266027   -1.3615277    1.4680519    83822 
 7264000   0.18647154   -1.3595815   0.10822337  0.045157165   -1.3595815    1.4678048    83668 
 7265000   0.18627183   -1.3553919   0.11463595  0.044976572   -1.3553919    1.4700279    83452 
 7266000   0.18541511   -1.3494959   0.11698672  0.044729948   -1.3494959    1.4664826    83269 
 7267000   0.18531784   -1.3471324    0.1217561  0.043178992   -1.3471324    1.4688885    83089 
 7268000   0.18451541   -1.3417522   0.12340336  0.044545334   -1.3417522    1.4651556    82940 
 7269000   0.18449363   -1.3342209   0.13387714  0.044769405   -1.3342209     1.468098    82764 
 7270000   0.18350177   -1.3308239   0.13244003  0.042782415   -1.3308239    1.4632639    82591 
 7271000    0.1834016   -1.3227412   0.14220721  0.043671546   -1.3227412    1.4649484    82451 
 7272000   0.18304899   -1.3180296   0.14671368  0.042977523   -1.3180296    1.4647433    82304 
 7273000   0.18229965   -1.3108852   0.15077446   0.04243697   -1.3108852    1.4616597    82140 
 7274000    0.1827971   -1.3115579   0.15836732  0.042941418   -1.3115579    1.4699252    81901 
 7275000   0.18211893   -1.3062246   0.16158058  0.045135343   -1.3062246    1.4678052    81715 
 7276000     0.181904   -1.3023019   0.16666538  0.043998384   -1.3023019    1.4689673    81554 
 7277000   0.18108555   -1.2990237   0.16575889  0.044740314   -1.2990237    1.4647825    81419 
 7278000   0.18026148   -1.2880502   0.17340529  0.043842405   -1.2880502    1.4614554    81233 
 7279000   0.18125789   -1.2937965   0.17867366   0.04367256   -1.2937965    1.4724702    81071 
 7280000   0.17985123   -1.2827253   0.18026672  0.043591799   -1.2827253     1.462992    80963 
 7281000   0.17985986   -1.2809595   0.18498168  0.043620393   -1.2809595    1.4659411    80804 
 7282000   0.17891749   -1.2798558   0.18202283  0.044641527   -1.2798558    1.4618787    80604 
 7283000   0.17869963    -1.274122   0.19002729  0.043075317    -1.274122    1.4641493    80381 
 7284000   0.17799795   -1.2734803    0.1876101  0.042613343   -1.2734803    1.4610904    80233 
 7285000   0.17752061   -1.2602596   0.20026208  0.044433776   -1.2602596    1.4605216    80049 
 7286000   0.17707629    -1.257509   0.20267699  0.042900288    -1.257509     1.460186    79867 
 7287000   0.17714633   -1.2596555   0.20389336  0.043302991   -1.2596555    1.4635489    79715 
 7288000   0.17643518   -1.2503745   0.21074491  0.043139702   -1.2503745    1.4611194    79527 
 7289000   0.17587714   -1.2502676   0.20970016  0.043550483   -1.2502676    1.4599678    79338 
 7290000   0.17551945   -1.2490491   0.21200092  0.042102077   -1.2490491      1.46105    79118 
 7291000   0.17566928   -1.2435222   0.22203523  0.043066725   -1.2435222    1.4655574    78942 
 7292000   0.17459846   -1.2359747   0.22418201  0.043935387   -1.2359747    1.4601567    78751 
 7293000   0.17420722   -1.2291795   0.22994724  0.042927021   -1.2291795    1.4591267    78630 
 7294000   0.17425443   -1.2261846   0.23700337  0.042462056   -1.2261846     1.463188    78433 
 7295000   0.17392167   -1.2213762   0.24235814  0.045099126   -1.2213762    1.4637344    78254 
 7296000   0.17333386    -1.212296   0.24938656  0.042875883    -1.212296    1.4616826    78099 
 7297000   0.17259145   -1.2015704   0.25730742   0.04417098   -1.2015704    1.4588778    77914 
 7298000   0.17263456   -1.2020372   0.26128057  0.042578767   -1.2020372    1.4633177    77697 
 7299000   0.17234759   -1.1934068   0.27015328  0.043368357   -1.1934068      1.46356    77555 
 7300000    0.1723428   -1.1825673   0.28303072  0.043902041   -1.1825673    1.4655981    77445 
 7301000    0.1719085   -1.1829295   0.28181239   0.04356499   -1.1829295    1.4647418    77295 
 7302000   0.17155653   -1.1771887   0.28718757  0.043829989   -1.1771887    1.4643763    77156 
 7303000   0.17169987   -1.1702658   0.29744553  0.043239396   -1.1702658    1.4677113    77045 
 7304000   0.17139809   -1.1634429    0.3048714  0.045251309   -1.1634429    1.4683143    76878 
 7305000   0.17062794   -1.1570494    0.3081169  0.043367676   -1.1570494    1.4651662    76697 
 7306000   0.17085258   -1.1571324   0.31358699  0.043648976   -1.1571324    1.4707194    76508 
 7307000   0.17004231   -1.1499987   0.31806319  0.043850253   -1.1499987    1.4680619    76283 
 7308000     0.169144    -1.145277   0.31886803  0.044872946    -1.145277    1.4641451    76083 
 7309000   0.16911958    -1.147369   0.32051972  0.043483854    -1.147369    1.4678888    75878 
 7310000   0.16723343   -1.1366002   0.31869583  0.042811951   -1.1366002    1.4552961    75681 
 7311000   0.16738232   -1.1275807   0.33200037  0.043588841   -1.1275807    1.4595811    75526 
 7312000   0.16755807   -1.1258766   0.33808651  0.042377667   -1.1258766    1.4639631    75379 
 7313000   0.16797956   -1.1325918   0.33872336  0.042786146   -1.1325918    1.4713152    75191 
 7314000   0.16638348   -1.1232023   0.33663743  0.041258793   -1.1232023    1.4598398    75062 
 7315000   0.16636847    -1.120197   0.34290268  0.044005609    -1.120197    1.4630997    74888 
 7316000   0.16608998   -1.1175407   0.34586527   0.04316414   -1.1175407    1.4634059    74747 
 7317000   0.16603735   -1.1175719   0.34878377  0.042695256   -1.1175719    1.4663557    74573 
 7318000   0.16560558   -1.1123644   0.35454493  0.044568214   -1.1123644    1.4669093    74351 
 7319000   0.16462837   -1.1060167   0.35624872  0.042815784   -1.1060167    1.4622655    74147 
 7320000   0.16415476    -1.099988   0.36142144   0.04282389    -1.099988    1.4614094    73977 
 7321000   0.16324193   -1.0933696   0.36405042  0.043404676   -1.0933696      1.45742    73767 
 7322000   0.16367314   -1.0931527   0.37089573  0.042414623   -1.0931527    1.4640484    73627 
 7323000   0.16316284   -1.0819245   0.38041936  0.042828092   -1.0819245    1.4623438    73483 
 7324000   0.16217551    -1.073226   0.38399717  0.042636228    -1.073226    1.4572231    73295 
 7325000   0.16218628   -1.0680468   0.39192231  0.043248945   -1.0680468    1.4599691    73162 
 7326000   0.16255084   -1.0684238   0.39795377  0.042648038   -1.0684238    1.4663776    73006 
 7327000   0.16124941   -1.0587262   0.39924617  0.042943473   -1.0587262    1.4579724    72839 
 7328000   0.16068341   -1.0566626   0.39987145  0.042588981   -1.0566626    1.4565341    72655 
 7329000   0.16085516   -1.0544513   0.40691821  0.043430779   -1.0544513    1.4613695    72492 
 7330000   0.16005483    -1.049796   0.40850697  0.042320992    -1.049796     1.458303    72283 
 7331000   0.15967985   -1.0430975   0.41529948  0.042190781   -1.0430975     1.458397    72109 
 7332000   0.15904495   -1.0363271   0.41919805  0.044251246   -1.0363271    1.4555252    71964 
 7333000   0.15884511   -1.0339521   0.42324723  0.042642121   -1.0339521    1.4571993    71791 
 7334000   0.15825725   -1.0260992   0.42895018  0.043088503   -1.0260992    1.4550494    71631 
 7335000   0.15826368   -1.0219443   0.43560596  0.043702122   -1.0219443    1.4575503    71511 
 7336000   0.15796176   -1.0169739   0.44034321   0.04263961   -1.0169739    1.4573171    71386 
 7337000   0.15821638   -1.0144645   0.44862444  0.042712503   -1.0144645    1.4630889    71219 
 7338000   0.15758546   -1.0048997   0.45501974  0.042235552   -1.0048997    1.4599194    71089 
 7339000   0.15747562   -1.0030976   0.45971387   0.04308256   -1.0030976    1.4628114    70899 
 7340000    0.1568946  -0.99737043   0.46348479  0.043176676  -0.99737043    1.4608552    70732 
 7341000    0.1564873   -0.9941994   0.46660157  0.043748055   -0.9941994     1.460801    70551 
 7342000   0.15565436  -0.98626718   0.46993695  0.042658102  -0.98626718    1.4562041    70397 
 7343000   0.15518594   -0.9841103   0.47089463   0.04254691   -0.9841103    1.4550049    70243 
 7344000   0.15536895  -0.97947525   0.47988408  0.041947169  -0.97947525    1.4593593    70116 
 7345000   0.15496376  -0.97253492   0.48668131  0.042322757  -0.97253492    1.4592162    69940 
 7346000    0.1545586  -0.96305128    0.4951853  0.042860513  -0.96305128    1.4582366    69804 
 7347000   0.15453292  -0.96146766   0.50038002  0.042291463  -0.96146766    1.4618477    69620 
 7348000   0.15377665  -0.95964486   0.49959702  0.042881703  -0.95964486    1.4592419    69403 
 7349000   0.15331321  -0.95237869   0.50612207  0.042346894  -0.95237869    1.4585008    69229 
 7350000   0.15288127  -0.94460746   0.51285784  0.042248786  -0.94460746    1.4574653    69083 
 7351000   0.15276365  -0.94271956   0.51666642  0.042034937  -0.94271956     1.459386    68939 
 7352000   0.15251853  -0.93668394   0.52389855  0.042712038  -0.93668394    1.4605825    68772 
 7353000   0.15181927  -0.92523332   0.53178834  0.043157671  -0.92523332    1.4570217    68624 
 7354000   0.15183774  -0.92439169    0.5363407  0.043057038  -0.92439169    1.4607324    68458 
 7355000   0.15101687  -0.92437535   0.53239669  0.042956816  -0.92437535     1.456772    68273 
 7356000   0.15041045   -0.9139034   0.53912592  0.041960131   -0.9139034    1.4530293    68174 
 7357000   0.15028437  -0.91252216   0.54257609  0.042586555  -0.91252216    1.4550983    68020 
 7358000   0.14980824  -0.90369397   0.55012852  0.043767518  -0.90369397    1.4538225    67864 
 7359000   0.14917113  -0.89370988   0.55758661  0.041896206  -0.89370988    1.4512965    67693 
 7360000   0.14908718    -0.888987   0.56540307  0.042013331    -0.888987    1.4543901    67511 
 7361000   0.14879282  -0.88320734   0.57251584  0.042270822  -0.88320734    1.4557232    67316 
 7362000   0.14818041  -0.87551423   0.57751996   0.04275133  -0.87551423    1.4530342    67163 
 7363000   0.14847146  -0.87339819   0.58633695  0.042162313  -0.87339819    1.4597351    66986 
 7364000   0.14759309  -0.86442922   0.58988318  0.041113741  -0.86442922    1.4543124    66838 
 7365000   0.14725633  -0.86162415   0.59315727  0.042012729  -0.86162415    1.4547814    66664 
 7366000    0.1468847  -0.85901833   0.59569214  0.042382545  -0.85901833    1.4547105    66499 
 7367000   0.14677435  -0.85445941   0.60310352  0.042272216  -0.85445941    1.4575629    66319 
 7368000    0.1463185  -0.84677563   0.61012687  0.041462669  -0.84677563    1.4569025    66143 
 7369000   0.14612528  -0.84183835   0.61613804  0.041622533  -0.84183835    1.4579764    66007 
 7370000   0.14588675  -0.83899508   0.62155785  0.041995293  -0.83899508    1.4605529    65783 
 7371000    0.1453686  -0.83062921   0.62779574  0.042466602  -0.83062921     1.458425    65645 
 7372000   0.14602092  -0.83109338   0.63693983  0.042501083  -0.83109338    1.4680332    65508 
 7373000   0.14504147  -0.81919987    0.6426013  0.042360282  -0.81919987    1.4618012    65346 
 7374000   0.14457301  -0.81831549   0.64193756  0.041869028  -0.81831549     1.460253    65204 
 7375000   0.14392823  -0.80842459   0.64877986  0.042557273  -0.80842459    1.4572044    65049 
 7376000   0.14374854  -0.80687617   0.65252498  0.042164605  -0.80687617    1.4594012    64870 
 7377000   0.14285875  -0.80285024   0.65191276  0.041841385  -0.80285024     1.454763    64674 
 7378000   0.14285687  -0.80152301   0.65707746  0.042310587  -0.80152301    1.4586005    64503 
 7379000   0.14264513  -0.79740696   0.66172352  0.042529037  -0.79740696    1.4591305    64384 
 7380000   0.14217248  -0.79025129   0.66712286  0.041915734  -0.79025129    1.4573741    64248 
 7381000   0.14225071   -0.7896955   0.67209821  0.042482925   -0.7896955    1.4617937    64089 
 7382000   0.14154184  -0.78015714    0.6784715  0.041870726  -0.78015714    1.4586286    63908 
 7383000    0.1412576   -0.7752639   0.68507426  0.042453753   -0.7752639    1.4603382    63705 
 7384000     0.140875   -0.7691198   0.69145866  0.041112634   -0.7691198    1.4605785    63522 
 7385000   0.14080689  -0.76621604   0.69761995  0.042415592  -0.76621604     1.463836    63350 
 7386000   0.14015939   -0.7623088   0.69818473  0.041503313   -0.7623088    1.4604935    63203 
 7387000   0.14030659  -0.76474713   0.70068858  0.040858534  -0.76474713    1.4654357    63056 
 7388000   0.13990804  -0.75685647    0.7084834  0.041763106  -0.75685647    1.4653399    62881 
 7389000   0.13840458  -0.74495833   0.70796219  0.041531855  -0.74495833    1.4529205    62737 
 7390000   0.13860458  -0.74209404   0.71641318  0.042318137  -0.74209404    1.4585072    62587 
 7391000   0.13827018  -0.73795947   0.72099175  0.040974239  -0.73795947    1.4589512    62417 
 7392000   0.13776194  -0.72788474   0.72862065  0.041547153  -0.72788474    1.4565054    62292 
 7393000   0.13753959  -0.72581805   0.73142454  0.041906291  -0.72581805    1.4572426    62160 
 7394000   0.13743946  -0.72588237   0.73396301  0.041200703  -0.72588237    1.4598454    62004 
 7395000   0.13700841  -0.71926699   0.73981206  0.041306285  -0.71926699    1.4590791    61842 
 7396000   0.13680735  -0.71811213   0.74288924  0.041536454  -0.71811213    1.4610014    61670 
 7397000   0.13674318  -0.71451558   0.75005148  0.041085117  -0.71451558    1.4645671    61491 
 7398000   0.13624355  -0.71187818   0.75004798  0.040806172  -0.71187818    1.4619262    61377 
 7399000   0.13585077  -0.70491316   0.75601169  0.041383264  -0.70491316    1.4609248    61242 
 7400000   0.13505729  -0.70160266   0.75516595  0.040618734  -0.70160266    1.4567686    61058 
 7401000   0.13529948  -0.69787241   0.76524678  0.041017578  -0.69787241    1.4631192    60902 
 7402000   0.13495723  -0.69365817   0.76982103  0.040772919  -0.69365817    1.4634792    60733 
 7403000    0.1343287  -0.68810156   0.77207201  0.041228393  -0.68810156    1.4601736    60587 
 7404000   0.13437158  -0.68591879   0.77807967  0.040868581  -0.68591879    1.4639985    60448 
 7405000   0.13428026  -0.68290238   0.78405686  0.041328629  -0.68290238    1.4669592    60285 
 7406000   0.13341028  -0.67528612   0.78631473  0.041265358  -0.67528612    1.4616008    60114 
 7407000   0.13330829  -0.67396761   0.78868137  0.040742436  -0.67396761     1.462649    60025 
 7408000   0.13247903  -0.66264424   0.79530249  0.039455104  -0.66264424    1.4579467    59844 
 7409000    0.1317163  -0.65893616   0.79530666  0.040409848  -0.65893616    1.4542428    59651 
 7410000   0.13179276  -0.65792828    0.8004103   0.04034779  -0.65792828    1.4583386    59518 
 7411000   0.13135386   -0.6534623    0.8038393  0.041003321   -0.6534623    1.4573016    59362 
 7412000   0.13124379  -0.65054724   0.80954237  0.041596932  -0.65054724    1.4600896    59199 
 7413000   0.13072596  -0.64584705   0.81229955  0.040949005  -0.64584705    1.4581466    59044 
 7414000   0.13004004  -0.63756272   0.81759092  0.040180951  -0.63756272    1.4551536    58855 
 7415000   0.13011407  -0.63756493   0.82166508  0.040224586  -0.63756493      1.45923    58724 
 7416000   0.12920702  -0.62869353   0.82375246  0.040997953  -0.62869353     1.452446    58587 
 7417000   0.12898953  -0.62560625   0.82821634  0.039966751  -0.62560625    1.4538226    58433 
 7418000   0.12890314  -0.62688241   0.82948066  0.040112998  -0.62688241    1.4563631    58292 
 7419000   0.12825393  -0.61939598   0.83464607   0.04041252  -0.61939598     1.454042    58091 
 7420000   0.12747416  -0.61375541   0.83581301  0.039872585  -0.61375541    1.4495684    57916 
 7421000    0.1274934  -0.61258351   0.84152222  0.040329026  -0.61258351    1.4541057    57744 
 7422000   0.12714608  -0.60676743   0.84614463  0.039851406  -0.60676743    1.4529121    57634 
 7423000    0.1268192  -0.60164413   0.85090992  0.040079142  -0.60164413    1.4525541    57500 
 7424000   0.12642862  -0.59571641   0.85698739  0.040061547  -0.59571641    1.4527038    57317 
 7425000   0.12599819  -0.59144426   0.85904686  0.040090839  -0.59144426    1.4504911    57209 
 7426000   0.12564634  -0.58504664   0.86435826  0.039484482  -0.58504664    1.4494049    57092 
 7427000   0.12516333  -0.58072847   0.86662843  0.039825901  -0.58072847    1.4473569    56953 
 7428000   0.12506041  -0.58076107   0.86891831  0.039884117  -0.58076107    1.4496794    56815 
 7429000   0.12478894  -0.57839798   0.87094063  0.040462336  -0.57839798    1.4493386    56705 
 7430000    0.1246463  -0.57527718   0.87611614  0.039712176  -0.57527718    1.4513933    56560 
 7431000   0.12418332  -0.56909742   0.88023614  0.039047392  -0.56909742    1.4493336    56430 
 7432000   0.12382462  -0.56341643   0.88563394  0.039712225  -0.56341643    1.4490504    56278 
 7433000   0.12339751  -0.56172798   0.88579653  0.039228078  -0.56172798    1.4475245    56143 
 7434000   0.12303445  -0.55647745   0.89044774  0.039348176  -0.55647745    1.4469252    56001 
 7435000   0.12291712  -0.55441026   0.89504337  0.039084938  -0.55441026    1.4494536    55850 
 7436000   0.12234628   -0.5508505    0.8967186  0.038809647   -0.5508505    1.4475691    55663 
 7437000   0.12179128  -0.54616688   0.89839093   0.03821256  -0.54616688    1.4445578    55526 
 7438000   0.12126094  -0.53907939   0.90350082  0.038421708  -0.53907939    1.4425802    55360 
 7439000   0.12125578  -0.54855861   0.89725092  0.039362088  -0.54855861    1.4458095    55234 
 7440000   0.12075953  -0.54269989     0.901297  0.038773676  -0.54269989    1.4439969    55077 
 7441000   0.12017632   -0.5381498   0.90334876  0.038888335   -0.5381498    1.4414986    54906 
 7442000   0.11962195  -0.53270197   0.90639306  0.039086629  -0.53270197     1.439095    54744 
 7443000   0.11955404  -0.52959984   0.91281491  0.038528591  -0.52959984    1.4424148    54587 
 7444000   0.11901598   -0.5290241   0.91101432  0.038878441   -0.5290241    1.4400384    54431 
 7445000   0.11863664  -0.52629298   0.91423693  0.037819733  -0.52629298    1.4405299    54239 
 7446000   0.11837362  -0.52157622   0.91873424  0.038076372  -0.52157622    1.4403105    54127 
 7447000   0.11788876  -0.51219271   0.92508595  0.038422556  -0.51219271    1.4372787    54019 
 7448000     0.117626  -0.51064436   0.92766432  0.038136602  -0.51064436    1.4383087    53860 
 7449000   0.11747002  -0.51251295   0.92838288  0.037416784  -0.51251295    1.4408958    53692 
 7450000    0.1169272  -0.50973935   0.92760361  0.037755707  -0.50973935     1.437343    53576 
 7451000   0.11642265  -0.50737247   0.92926532  0.037601788  -0.50737247    1.4366378    53371 
 7452000   0.11608918  -0.50785927   0.92899801  0.037943289  -0.50785927    1.4368573    53210 
 7453000   0.11549236  -0.50581673   0.92712748  0.037225136  -0.50581673    1.4329442    53081 
 7454000   0.11512596  -0.49985361    0.9332152  0.037609615  -0.49985361    1.4330688    52908 
 7455000    0.1148944  -0.50051409   0.93392897  0.038094936  -0.50051409    1.4344431    52751 
 7456000    0.1144841   -0.4957509   0.93835438  0.036898943   -0.4957509    1.4341053    52575 
 7457000   0.11448596  -0.49926882    0.9397866  0.037195415  -0.49926882    1.4390554    52395 
 7458000   0.11369211  -0.49438482   0.93983828  0.036721748  -0.49438482    1.4342231    52207 
 7459000    0.1132904   -0.4897574   0.94332347  0.036865652   -0.4897574    1.4330809    52064 
 7460000   0.11279361  -0.48505514   0.94616737  0.036791002  -0.48505514    1.4312225    51903 
 7461000   0.11267924  -0.48353645   0.95043426  0.036730488  -0.48353645    1.4339707    51751 
 7462000   0.11183219  -0.48176626   0.94639224  0.036581513  -0.48176626    1.4281585    51571 
 7463000   0.11187002  -0.47978385   0.95230118  0.036756103  -0.47978385     1.432085    51447 
 7464000   0.11126597   -0.4689449   0.95887656  0.036202646   -0.4689449    1.4278215    51322 
 7465000   0.11085783  -0.46887048   0.95844136  0.036429357  -0.46887048    1.4273118    51152 
 7466000   0.11065395  -0.46759579   0.96063712  0.036117294  -0.46759579    1.4282329    51025 
 7467000   0.11009618   -0.4633106   0.96238924  0.036933133   -0.4633106    1.4256998    50858 
 7468000   0.11037506  -0.46538301   0.96798669  0.036349183  -0.46538301    1.4333697    50714 
 7469000    0.1100073  -0.46863139   0.96391713  0.036516875  -0.46863139    1.4325485    50574 
 7470000   0.10938333  -0.46626187   0.96126608  0.036105114  -0.46626187    1.4275279    50464 
 7471000   0.10843079  -0.45964609   0.95955644  0.035494043  -0.45964609    1.4192025    50318 
 7472000   0.10797316  -0.45519703   0.96328736  0.035674063  -0.45519703    1.4184844    50131 
 7473000   0.10794587  -0.46016561   0.96264327  0.035309505  -0.46016561    1.4228089    49966 
 7474000   0.10746619  -0.45740775   0.96257414   0.03613467  -0.45740775    1.4199819    49843 
 7475000   0.10672656  -0.45274197   0.96197992  0.035264232  -0.45274197    1.4147219    49684 
 7476000    0.1065948  -0.45113411   0.96566247  0.035371868  -0.45113411    1.4167966    49550 
 7477000   0.10637621  -0.44573654    0.9718452  0.035903314  -0.44573654    1.4175817    49421 
 7478000   0.10616245  -0.44259433   0.97500729  0.035538779  -0.44259433    1.4176016    49321 
 7479000   0.10593404   -0.4423328   0.97763132  0.034974113   -0.4423328    1.4199641    49133 
 7480000   0.10531627  -0.43866443   0.97659073  0.035080146  -0.43866443    1.4152552    49009 
 7481000   0.10495269  -0.43747076    0.9767654  0.034820319  -0.43747076    1.4142362    48875 
 7482000   0.10459672  -0.43420155   0.97940285  0.034838539  -0.43420155    1.4136044    48731 
 7483000   0.10484349  -0.43568786   0.98428204   0.03477065  -0.43568786    1.4199699    48627 
 7484000   0.10405434  -0.43057716   0.98297787  0.034970134  -0.43057716     1.413555    48480 
 7485000   0.10380133  -0.42921816   0.98732802  0.035031353  -0.42921816    1.4165462    48260 
 7486000   0.10342958  -0.42924363   0.98580659  0.034868944  -0.42924363    1.4150502    48138 
 7487000   0.10325494  -0.42848925   0.98755451  0.034050254  -0.42848925    1.4160438    48023 
 7488000   0.10275256  -0.42347478    0.9903014   0.03444864  -0.42347478    1.4137762    47866 
 7489000   0.10241264  -0.41926984   0.99384433  0.034676924  -0.41926984    1.4131142    47730 
 7490000   0.10258328  -0.42067269   0.99833394  0.034150881  -0.42067269    1.4190066    47611 
 7491000   0.10200365  -0.41712452   0.99826394   0.03415472  -0.41712452    1.4153885    47463 
 7492000   0.10162865  -0.41482203    1.0002526  0.034741064  -0.41482203    1.4150746    47299 
 7493000   0.10161609  -0.41657829    1.0032143  0.034300241  -0.41657829    1.4197926    47136 
 7494000   0.10137252  -0.41258407    1.0079944  0.034230595  -0.41258407    1.4205785    46997 
 7495000   0.10084074  -0.41285151    1.0048602   0.03427048  -0.41285151    1.4177117    46845 
 7496000   0.10037958  -0.41358483    1.0013889  0.033890433  -0.41358483    1.4149737    46721 
 7497000   0.10037703  -0.41130395    1.0067296  0.033596166  -0.41130395    1.4180336    46619 
 7498000  0.099801336  -0.41158599    1.0024398  0.033049513  -0.41158599    1.4140258    46483 
 7499000  0.099722261  -0.40929882    1.0075386  0.033682293  -0.40929882    1.4168375    46354 
 7500000  0.099476724  -0.40825597    1.0077812  0.033596805  -0.40825597    1.4160372    46266 
 7501000  0.099036509  -0.40611903    1.0080839  0.033218823  -0.40611903     1.414203    46121 
 7502000  0.098412265  -0.39924044    1.0096532  0.033730734  -0.39924044    1.4088936    46003 
 7503000  0.097989871  -0.39863764    1.0082151  0.033894842  -0.39863764    1.4068527    45872 
 7504000  0.097827082   -0.4017673    1.0076027    0.0330117   -0.4017673      1.40937    45714 
 7505000  0.097540703  -0.39748128    1.0113996  0.033587588  -0.39748128    1.4088809    45596 
 7506000  0.097130799  -0.39880773    1.0080092  0.033047871  -0.39880773    1.4068169    45471 
 7507000  0.096649044  -0.39477003    1.0092687   0.03303379  -0.39477003    1.4040387    45335 
 7508000  0.096494951  -0.39395196    1.0112267  0.032908758  -0.39395196    1.4051786    45226 
 7509000  0.096377981  -0.39452596    1.0125272  0.032550756  -0.39452596    1.4070531    45111 
 7510000   0.09616659  -0.39407983    1.0132877   0.03314774  -0.39407983    1.4073676    45002 
 7511000  0.095929529  -0.39149573    1.0152158  0.032735392  -0.39149573    1.4067115    44912 
 7512000  0.095761141  -0.39110832    1.0170218  0.032679414  -0.39110832    1.4081301    44788 
 7513000  0.094937196  -0.38648018    1.0141939  0.032420044  -0.38648018     1.400674    44639 
 7514000  0.094421416  -0.38380716    1.0131063  0.032494364  -0.38380716    1.3969135    44516 
 7515000  0.093981276  -0.38382002    1.0123842  0.031955247  -0.38382002    1.3962042    44331 
 7516000  0.093698908  -0.38006675    1.0159418  0.031863858  -0.38006675    1.3960086    44204 
 7517000  0.093731885  -0.38358124    1.0174828  0.032067457  -0.38358124    1.4010641    44060 
 7518000  0.093429545  -0.38312968    1.0171972    0.0320867  -0.38312968    1.4003269    43941 
 7519000  0.093168676  -0.37999061    1.0206019  0.032080636  -0.37999061    1.4005925    43810 
 7520000  0.092585416  -0.37853937    1.0176831   0.03228255  -0.37853937    1.3962225    43672 
 7521000  0.092516075  -0.38041546     1.018959  0.031337011  -0.38041546    1.3993744    43541 
 7522000  0.092277018  -0.38286546    1.0171373  0.031407484  -0.38286546    1.4000028    43409 
 7523000  0.092206082   -0.3837419    1.0188682  0.031747762   -0.3837419    1.4026101    43295 
 7524000  0.091559752  -0.37548046    1.0215572  0.031542436  -0.37548046    1.3970377    43163 
 7525000  0.091234539  -0.37861575    1.0167572  0.030753292  -0.37861575     1.395373    43061 
 7526000   0.09116965  -0.37800632    1.0199128  0.031144618  -0.37800632    1.3979191    42952 
 7527000  0.090821844   -0.3730648    1.0229991  0.031445228   -0.3730648    1.3960639    42845 
 7528000   0.09085505  -0.37201611    1.0281858  0.031506548  -0.37201611    1.4002019    42734 
 7529000  0.090505062  -0.36993839    1.0289944   0.03071765  -0.36993839    1.3989328    42608 
 7530000  0.090199605  -0.36928085     1.029362  0.030905166  -0.36928085    1.3986428    42473 
 7531000  0.089718231  -0.36803464    1.0276129  0.030605378  -0.36803464    1.3956475    42337 
 7532000  0.089356172  -0.37152228    1.0219491  0.030256228  -0.37152228    1.3934713    42232 
 7533000  0.088963786  -0.36637357    1.0238756  0.030705631  -0.36637357    1.3902491    42144 
 7534000  0.088375202  -0.36773739    1.0183789  0.030653747  -0.36773739    1.3861163    41990 
 7535000   0.08812596  -0.36759527    1.0195672  0.030085595  -0.36759527    1.3871624    41840 
 7536000  0.087938584  -0.36608054    1.0218145   0.03062624  -0.36608054     1.387895    41729 
 7537000  0.088033777  -0.36713282    1.0243988  0.030437717  -0.36713282    1.3915316    41665 
 7538000  0.087382919  -0.36422963    1.0214373  0.029890836  -0.36422963    1.3856669    41532 
 7539000  0.087110418  -0.36127947    1.0224985  0.030056743  -0.36127947    1.3837779    41459 
 7540000  0.087045592  -0.36128965    1.0252041  0.030042177  -0.36128965    1.3864937    41347 
 7541000  0.086709892  -0.36198564    1.0224759  0.030031199  -0.36198564    1.3844615    41248 
 7542000  0.087040342   -0.3678197    1.0264135  0.030579697   -0.3678197    1.3942332    41115 
 7543000  0.086342903  -0.36234198    1.0237198  0.029591797  -0.36234198    1.3860618    41026 
 7544000  0.086200457   -0.3638445     1.022228  0.029945923   -0.3638445    1.3860725    40958 
 7545000  0.086027439  -0.36202215    1.0237382  0.030260952  -0.36202215    1.3857603    40885 
 7546000  0.085803184   -0.3624098    1.0233988  0.029261125   -0.3624098    1.3858086    40777 
 7547000   0.08564889  -0.35947045    1.0285777  0.029423644  -0.35947045    1.3880482    40638 
 7548000  0.085939614  -0.36228617    1.0340815  0.029659579  -0.36228617    1.3963677    40533 
 7549000  0.085429186  -0.35643514    1.0346247  0.029828538  -0.35643514    1.3910599    40446 
 7550000  0.085203219  -0.35577312    1.0353908   0.02981675  -0.35577312    1.3911639    40336 
 7551000  0.084777699  -0.35355968    1.0344417  0.029274602  -0.35355968    1.3880014    40226 
 7552000  0.084347484  -0.35266628    1.0309745  0.029591778  -0.35266628    1.3836408    40148 
 7553000  0.084185942  -0.35612134     1.028387  0.029022809  -0.35612134    1.3845083    40046 
 7554000  0.083855123  -0.35135849    1.0302623  0.029432063  -0.35135849    1.3816208    39972 
 7555000  0.083653055  -0.35067045    1.0311471  0.029679664  -0.35067045    1.3818175    39870 
 7556000    0.0840869  -0.35777479    1.0335123  0.029094229  -0.35777479    1.3912871    39804 
 7557000  0.083484162  -0.35078322    1.0348477  0.029014197  -0.35078322    1.3856309    39680 
 7558000  0.083241691   -0.3492543    1.0374896  0.028882067   -0.3492543    1.3867439    39533 
 7559000  0.082951686  -0.34586958    1.0388452  0.028968403  -0.34586958    1.3847148    39453 
 7560000  0.082662655  -0.34374457    1.0388789  0.028562213  -0.34374457    1.3826234    39375 
 7561000  0.082157242   -0.3386841     1.037898   0.02872584   -0.3386841    1.3765821    39306 
 7562000  0.081951094  -0.33792235    1.0403603    0.0291523  -0.33792235    1.3782827    39159 
 7563000  0.081986731  -0.33972253    1.0417701  0.028334005  -0.33972253    1.3814927    39085 
 7564000  0.082444979  -0.34667851    1.0449212   0.02860298  -0.34667851    1.3915997    39018 
 7565000  0.081854366  -0.34205287    1.0414571  0.028619219  -0.34205287      1.38351    38965 
 7566000  0.081720319  -0.34202656    1.0421306  0.028477776  -0.34202656    1.3841572    38883 
 7567000   0.08148286  -0.34167332    1.0431631   0.02875268  -0.34167332    1.3848364    38751 
 7568000  0.081194344  -0.34070057    1.0423375  0.028482442  -0.34070057     1.383038    38664 
 7569000  0.080935392  -0.34015478    1.0416889  0.027941764  -0.34015478    1.3818437    38574 
 7570000  0.080836729  -0.33725169    1.0475025  0.028349051  -0.33725169    1.3847542    38446 
 7571000  0.080521704   -0.3386929    1.0453087   0.02818312   -0.3386929    1.3840016    38317 
 7572000  0.080290209  -0.33765343    1.0464511  0.028222658  -0.33765343    1.3841045    38204 
 7573000  0.079687751  -0.33231181    1.0441814  0.028378811  -0.33231181    1.3764932    38127 
 7574000  0.079644563    -0.335437    1.0437104  0.027865451    -0.335437    1.3791474    38033 
 7575000  0.079624648  -0.33406587    1.0473154  0.027981377  -0.33406587    1.3813813    37962 
 7576000  0.079570204  -0.33410625    1.0499765  0.027612587  -0.33410625    1.3840827    37862 
 7577000  0.078957309  -0.32898128    1.0482963  0.027875527  -0.32898128    1.3772776    37756 
 7578000  0.078886197  -0.32767904    1.0516461  0.028139042  -0.32767904    1.3793251    37666 
 7579000  0.079017714  -0.33179301    1.0518153  0.028022294  -0.33179301    1.3836083    37612 
 7580000   0.07891725  -0.33222293    1.0525348  0.027982291  -0.33222293    1.3847577    37533 
 7581000  0.078374676  -0.32571793    1.0548528  0.027714755  -0.32571793    1.3805707    37388 
 7582000  0.078185674  -0.32656838    1.0542185  0.027302788  -0.32656838    1.3807868    37292 
 7583000  0.078043495  -0.32415182    1.0573099  0.027832697  -0.32415182    1.3814617    37206 
 7584000  0.077770265  -0.32329508    1.0561479  0.027732331  -0.32329508     1.379443    37130 
 7585000  0.077656875  -0.32603875    1.0558592  0.027512659  -0.32603875    1.3818979    37010 
 7586000  0.077468877  -0.32417954     1.056462  0.026955342  -0.32417954    1.3806416    36954 
 7587000  0.077381488  -0.32171962    1.0580366   0.02705839  -0.32171962    1.3797562    36936 
 7588000  0.077212401  -0.32405289     1.057889  0.027550058  -0.32405289    1.3819419    36797 
 7589000  0.077161241  -0.32617801    1.0580834  0.027242369  -0.32617801    1.3842614    36711 
 7590000  0.077032209  -0.32424221    1.0594382  0.027137431  -0.32424221    1.3836804    36665 
 7591000  0.076424867  -0.32042026    1.0566701  0.027293715  -0.32042026    1.3770904    36550 
 7592000  0.076104016  -0.32107978     1.053388  0.027138956  -0.32107978    1.3744678    36466 
 7593000  0.076025812  -0.32252136    1.0541205  0.026987006  -0.32252136    1.3766418    36371 
 7594000  0.075895397  -0.32542514    1.0509744  0.026442131  -0.32542514    1.3763995    36315 
 7595000  0.075951049  -0.32386874    1.0566192  0.026939122  -0.32386874     1.380488    36234 
 7596000  0.075581263  -0.31841434    1.0586207  0.026663276  -0.31841434    1.3770351    36148 
 7597000  0.075509416  -0.31759075    1.0616074  0.026471843  -0.31759075    1.3791981    36057 
 7598000  0.075647045  -0.31481254    1.0691256  0.026955836  -0.31481254    1.3839381    35999 
 7599000   0.07547025  -0.31688611    1.0683968  0.026709243  -0.31688611    1.3852829    35880 
 7600000  0.075395298  -0.31295667    1.0730364  0.027101285  -0.31295667    1.3859931    35826 
 7601000  0.075007928  -0.31016179    1.0717189  0.026930412  -0.31016179    1.3818807    35748 
 7602000  0.075021787  -0.31111736    1.0726832  0.027275973  -0.31111736    1.3838006    35705 
 7603000  0.074883401  -0.31325874    1.0707025  0.026344092  -0.31325874    1.3839613    35635 
 7604000  0.074530202  -0.30570598    1.0756039    0.0264678  -0.30570598    1.3813099    35535 
 7605000  0.074605238  -0.30701742    1.0786076  0.026251781  -0.30701742     1.385625    35460 
 7606000  0.074004875  -0.30385722    1.0751675   0.02608789  -0.30385722    1.3790247    35343 
 7607000  0.073702847  -0.30286395    1.0739999  0.026134782  -0.30286395    1.3768639    35254 
 7608000  0.073713395  -0.30238088    1.0764792  0.026861371  -0.30238088    1.3788601    35208 
 7609000  0.073596193  -0.30514128    1.0763921  0.026055663  -0.30514128    1.3815334    35084 
 7610000  0.073627792  -0.30587593    1.0780651  0.026172133  -0.30587593    1.3839411    35038 
 7611000  0.073454348  -0.30688517    1.0773514  0.026251689  -0.30688517    1.3842366    34948 
 7612000  0.073334177  -0.30773477     1.076852  0.026667823  -0.30773477    1.3845868    34882 
 7613000  0.072852043  -0.30305767    1.0757465  0.025911321  -0.30305767    1.3788042    34798 
 7614000  0.072641346  -0.30214155    1.0769551  0.026100938  -0.30214155    1.3790967    34690 
 7615000  0.072473267  -0.30272038    1.0766845   0.02589089  -0.30272038    1.3794049    34602 
 7616000  0.072617987  -0.30098612     1.082813   0.02617984  -0.30098612    1.3837991    34561 
 7617000  0.072760474  -0.30067553    1.0864006  0.026581173  -0.30067553    1.3870762    34547 
 7618000  0.072122632  -0.29884217    1.0797457  0.025896744  -0.29884217    1.3785878    34455 
 7619000   0.07182238  -0.29608812    1.0782763  0.025739748  -0.29608812    1.3743645    34417 
 7620000  0.071843811  -0.29832379    1.0823478  0.025917429  -0.29832379    1.3806716    34270 
 7621000  0.071522673  -0.29419862    1.0834773  0.025714609  -0.29419862    1.3776759    34191 
 7622000  0.071449623  -0.29714506    1.0824324  0.025920199  -0.29714506    1.3795774    34109 
 7623000  0.071201605  -0.29440398    1.0828881  0.025087144  -0.29440398    1.3772921    34047 
 7624000  0.071241546  -0.29467557    1.0860251  0.025653086  -0.29467557    1.3807007    33982 
 7625000  0.071148916  -0.29768032    1.0841122  0.025442729  -0.29768032    1.3817925    33911 
 7626000  0.071023338  -0.29777963    1.0823473  0.025636654  -0.29777963    1.3801269    33892 
 7627000    0.0710115  -0.29492291    1.0861557   0.02560271  -0.29492291    1.3810786    33863 
 7628000  0.070835392  -0.29526444    1.0863876   0.02550791  -0.29526444     1.381652    33765 
 7629000  0.070605173  -0.28991602    1.0916646  0.025565596  -0.28991602    1.3815807    33657 
 7630000  0.070649509  -0.29232017    1.0933393  0.025568909  -0.29232017    1.3856595    33579 
 7631000  0.070574313  -0.29169045    1.0952616    0.0257327  -0.29169045     1.386952    33512 
 7632000  0.070065729   -0.2893881    1.0901213  0.024925459   -0.2893881    1.3795094    33450 
 7633000  0.069956316  -0.28815049    1.0934175  0.025407823  -0.28815049     1.381568    33348 
 7634000  0.069907909    -0.292142    1.0907093  0.025399983    -0.292142    1.3828513    33294 
 7635000  0.069783283  -0.28460132     1.097653  0.024902925  -0.28460132    1.3822543    33249 
 7636000  0.069977597  -0.28720301    1.1017827  0.025435264  -0.28720301    1.3889857    33180 
 7637000  0.069878247  -0.28753961    1.1027844  0.025411419  -0.28753961     1.390324    33101 
 7638000  0.069649007   -0.2859529    1.1025366  0.025527994   -0.2859529    1.3884895    33036 
 7639000   0.06937692  -0.28267049    1.1026173  0.025544183  -0.28267049    1.3852878    32983 
 7640000  0.069158545  -0.28546194    1.0984444  0.024745414  -0.28546194    1.3839064    32912 
 7641000  0.069191688  -0.27943476     1.106904  0.025237632  -0.27943476    1.3863387    32870 
 7642000  0.069074598   -0.2799206    1.1090584  0.025436148   -0.2799206     1.388979    32752 
 7643000  0.069062344  -0.28215978    1.1088663  0.025277547  -0.28215978     1.391026    32698 
 7644000     0.068916  -0.28208131    1.1090604  0.025146561  -0.28208131    1.3911417    32626 
 7645000  0.068719553  -0.27933105    1.1093775  0.024876689  -0.27933105    1.3887085    32590 
 7646000  0.068460299  -0.27778504    1.1106263  0.024392316  -0.27778504    1.3884113    32474 
 7647000  0.068494473  -0.27987762    1.1124853  0.024813755  -0.27987762    1.3923629    32398 
 7648000  0.068179944  -0.27920004    1.1108021  0.024860363  -0.27920004    1.3900021    32304 
 7649000  0.067818628  -0.27411413    1.1122985  0.025039995  -0.27411413    1.3864127    32216 
 7650000  0.068045852  -0.27918676    1.1142933  0.024867568  -0.27918676      1.39348    32160 
 7651000  0.067660646  -0.27695008    1.1114909  0.024808913  -0.27695008     1.388441    32094 
 7652000  0.067658555   -0.2786516    1.1116959   0.02461068   -0.2786516    1.3903475    32049 
 7653000  0.067555144  -0.27605521    1.1152495  0.024425281  -0.27605521    1.3913047    31978 
 7654000  0.067492243  -0.27271492     1.118469  0.024667674  -0.27271492    1.3911839    31951 
 7655000  0.067386536  -0.26964631    1.1199241  0.024572332  -0.26964631    1.3895704    31938 
 7656000  0.067341022  -0.27123607    1.1193551   0.02449734  -0.27123607    1.3905911    31893 
 7657000  0.067308267  -0.27611242    1.1190079  0.024522923  -0.27611242    1.3951203    31774 
 7658000  0.066937755  -0.27012327    1.1197231   0.02467289  -0.27012327    1.3898463    31719 
 7659000  0.066786452   -0.2702481    1.1190409   0.02446551   -0.2702481     1.389289    31660 
 7660000  0.067047678  -0.26978367    1.1265271  0.024677076  -0.26978367    1.3963107    31624 
 7661000   0.06687679  -0.27316192    1.1223259  0.024216781  -0.27316192    1.3954878    31562 
 7662000  0.066795017  -0.27196981    1.1254422  0.024474343  -0.27196981     1.397412    31480 
 7663000  0.066394002  -0.26794832    1.1245687   0.02400313  -0.26794832     1.392517    31401 
 7664000  0.066211319  -0.26710388    1.1232198  0.024388215  -0.26710388    1.3903237    31364 
 7665000    0.0661304  -0.26523888    1.1244047  0.024610314  -0.26523888    1.3896436    31341 
 7666000  0.065995918  -0.26570552    1.1225295  0.024177087  -0.26570552    1.3882351    31309 
 7667000   0.06572256  -0.26454644    1.1206816  0.024226095  -0.26454644     1.385228    31247 
 7668000  0.065794587  -0.26302109    1.1253691  0.024447946  -0.26302109    1.3883902    31210 
 7669000  0.065565396  -0.26645597    1.1211437  0.024079854  -0.26645597    1.3875997    31119 
 7670000  0.065325887  -0.26939587    1.1166536  0.023855621  -0.26939587    1.3860495    31040 
 7671000  0.065382042  -0.26974845    1.1204485  0.023640615  -0.26974845    1.3901969    30974 
 7672000   0.06546163  -0.26872516    1.1260911  0.024568526  -0.26872516    1.3948162    30909 
 7673000  0.065278029  -0.26781194    1.1268825  0.024124187  -0.26781194    1.3946945    30825 
 7674000  0.065364538  -0.26393707     1.133467  0.024223974  -0.26393707    1.3974041    30806 
 7675000  0.065137855  -0.26055902    1.1334017  0.023684635  -0.26055902    1.3939607    30775 
 7676000  0.065008483  -0.26055938    1.1342131  0.023932721  -0.26055938    1.3947725    30696 
 7677000   0.06497962  -0.26142571    1.1354124  0.024062194  -0.26142571    1.3968381    30637 
 7678000  0.064944158  -0.26215645    1.1365673   0.02390576  -0.26215645    1.3987237    30579 
 7679000    0.0647295  -0.26057968    1.1361244  0.023969905  -0.26057968    1.3967041    30522 
 7680000  0.065095276  -0.26163534    1.1437901   0.02423717  -0.26163534    1.4054254    30504 
 7681000  0.064673211  -0.25930532    1.1415541  0.024225163  -0.25930532    1.4008594    30405 
 7682000  0.064262524  -0.26122312    1.1359792   0.02340883  -0.26122312    1.3972023    30291 
 7683000   0.06423115  -0.25855247    1.1379677  0.023176038  -0.25855247    1.3965202    30291 
 7684000  0.064265051  -0.26193746    1.1381393  0.023162855  -0.26193746    1.4000767    30230 
 7685000  0.064110979  -0.25665853    1.1423292  0.023423206  -0.25665853    1.3989878    30181 
 7686000  0.064040531  -0.25468354    1.1466206  0.023525631  -0.25468354    1.4013042    30098 
 7687000  0.063804926   -0.2549235    1.1436881  0.023531518   -0.2549235    1.3986116    30045 
 7688000  0.064053087  -0.25543347    1.1488048  0.023615083  -0.25543347    1.4042383    30041 
 7689000  0.063950593  -0.25398246    1.1501121  0.023769417  -0.25398246    1.4040946    29996 
 7690000  0.064026887  -0.25280526    1.1543248  0.023913749  -0.25280526    1.4071301    29967 
 7691000  0.063803868  -0.25623568     1.147117  0.023746831  -0.25623568    1.4033527    29943 
 7692000  0.063661742  -0.25164347    1.1487235  0.023591763  -0.25164347    1.4003669    29940 
 7693000  0.063862565  -0.25318718    1.1523954  0.023580517  -0.25318718    1.4055826    29923 
 7694000  0.063847455  -0.25422544    1.1540837  0.023612108  -0.25422544    1.4083092    29858 
 7695000  0.063834078  -0.25379229    1.1545048  0.023751809  -0.25379229    1.4082971    29852 
 7696000   0.06373863  -0.25375128    1.1540435  0.023522287  -0.25375128    1.4077948    29818 
 7697000  0.063715644  -0.25402487    1.1536399  0.023948564  -0.25402487    1.4076647    29810 
 7698000  0.063456114  -0.25379573     1.151435  0.023868046  -0.25379573    1.4052307    29740 
 7699000   0.06344416  -0.25258512    1.1529008  0.023137313  -0.25258512    1.4054859    29729 
 7700000   0.06324334  -0.24993272    1.1534647  0.023696504  -0.24993272    1.4033974    29679 
 7701000  0.063135255  -0.24416396    1.1578743  0.023440355  -0.24416396    1.4020382    29657 
 7702000     0.063433  -0.25241857    1.1598508  0.023732441  -0.25241857    1.4122693    29581 
 7703000  0.063130867  -0.25036832    1.1563632  0.023576614  -0.25036832    1.4067316    29556 
 7704000  0.063309504  -0.25131694    1.1614984  0.023432507  -0.25131694    1.4128153    29512 
 7705000  0.062956449  -0.24894208    1.1560421  0.023313569  -0.24894208    1.4049842    29511 
 7706000  0.062982171  -0.24834323    1.1611314  0.023405465  -0.24834323    1.4094746    29429 
 7707000  0.063037377   -0.2522372    1.1626074  0.023597207   -0.2522372    1.4148446    29343 
 7708000   0.06283638   -0.2517583    1.1619959  0.023272418   -0.2517583    1.4137542    29272 
 7709000  0.062254026  -0.24411758     1.160084  0.023205396  -0.24411758    1.4042016    29198 
 7710000  0.062136018  -0.24210597      1.15905  0.023022045  -0.24210597    1.4011559    29206 
 7711000  0.062404383  -0.24811364    1.1634437  0.023310508  -0.24811364    1.4115573    29116 
 7712000  0.062443443  -0.25031051    1.1656318  0.023134607  -0.25031051    1.4159423    29044 
 7713000  0.062233946  -0.25029289    1.1618227  0.023174086  -0.25029289    1.4121156    29025 
 7714000  0.062056936  -0.24430459    1.1663705  0.022956515  -0.24430459     1.410675    28972 
 7715000  0.062016885  -0.24464872     1.167065  0.023211323  -0.24464872    1.4117137    28932 
 7716000  0.061573107  -0.24225774    1.1623154  0.023070801  -0.24225774    1.4045732    28871 
 7717000   0.06220364  -0.24874754    1.1711927  0.023072581  -0.24874754    1.4199402    28851 
 7718000  0.061931841  -0.24485513    1.1702049  0.023257297  -0.24485513    1.4150601    28824 
 7719000   0.06160046  -0.24268196    1.1680367  0.022516995  -0.24268196    1.4107186    28758 
 7720000  0.061664865  -0.24137331    1.1713115  0.022979188  -0.24137331    1.4126848    28748 
 7721000  0.061862783  -0.24691257    1.1716881  0.023380418  -0.24691257    1.4186006    28720 
 7722000   0.06173228  -0.24419473    1.1741294  0.022650878  -0.24419473    1.4183242    28665 
 7723000  0.061525854  -0.23787433    1.1785236  0.023024292  -0.23787433    1.4163979    28608 
 7724000  0.061376539  -0.24133569    1.1752396   0.02295918  -0.24133569    1.4165752    28535 
 7725000  0.061324863  -0.24352553    1.1719066  0.022607656  -0.24352553    1.4154322    28534 
 7726000  0.061317406  -0.24181717    1.1754296  0.023073225  -0.24181717    1.4172468    28494 
 7727000    0.0612552  -0.24230247    1.1760452   0.02280185  -0.24230247    1.4183476    28443 
 7728000   0.06116886  -0.23921055     1.180232  0.023027389  -0.23921055    1.4194426    28381 
 7729000  0.061070543  -0.24052072    1.1773398  0.022885214  -0.24052072    1.4178605    28367 
 7730000   0.06097958  -0.23855552    1.1791923  0.023031911  -0.23855552    1.4177478    28327 
 7731000  0.061177204  -0.23856725    1.1836748  0.022985395  -0.23856725     1.422242    28329 
 7732000  0.061147122  -0.23758768    1.1845574  0.022757707  -0.23758768    1.4221451    28317 
 7733000  0.061116687  -0.24009332    1.1828515  0.023332184  -0.24009332    1.4229448    28287 
 7734000  0.061026071  -0.23865058    1.1831897  0.022905922  -0.23865058    1.4218403    28267 
 7735000  0.060869318  -0.23839368    1.1850821  0.022679036  -0.23839368    1.4234758    28162 
 7736000  0.060803102  -0.23867848    1.1852206  0.022722078  -0.23867848    1.4238991    28123 
 7737000  0.060652392  -0.23695629    1.1858926  0.022611214  -0.23695629    1.4228489    28074 
 7738000  0.060653169  -0.23422877    1.1895004  0.022994807  -0.23422877    1.4237292    28057 
 7739000  0.060338286  -0.23182262    1.1863855  0.022604361  -0.23182262    1.4182081    28020 
 7740000  0.060419359  -0.23491204    1.1875877    0.0227263  -0.23491204    1.4224998    27973 
 7741000  0.060641012  -0.23709788    1.1910799  0.022596971  -0.23709788    1.4281778    27964 
 7742000  0.060548712  -0.23604133    1.1910344  0.022692612  -0.23604133    1.4270757    27943 
 7743000  0.060537401  -0.22997506    1.1974982  0.022842036  -0.22997506    1.4274732    27930 
 7744000  0.060404741  -0.23321656    1.1928134   0.02261558  -0.23321656      1.42603    27897 
 7745000  0.060361658   -0.2360463    1.1916278  0.022479258   -0.2360463    1.4276741    27845 
 7746000   0.06008643   -0.2311311    1.1933585  0.022418193   -0.2311311    1.4244896    27780 
 7747000  0.060229468  -0.23090079    1.1982146  0.022245544  -0.23090079    1.4291153    27756 
 7748000  0.060211308   -0.2293712    1.1993647  0.022637009   -0.2293712    1.4287359    27755 
 7749000  0.060042742  -0.22988614    1.1973697  0.022579506  -0.22988614    1.4272558    27706 
 7750000  0.059847254  -0.23049606    1.1945303  0.022740449  -0.23049606    1.4250263    27659 
 7751000  0.059557856  -0.22800819    1.1916671  0.022473664  -0.22800819    1.4196753    27629 
 7752000  0.059753155   -0.2314743    1.1952317  0.023096585   -0.2314743     1.426706    27583 
 7753000  0.059472863  -0.22922613    1.1935728  0.022208437  -0.22922613     1.422799    27529 
 7754000   0.05945014  -0.23152813    1.1887152  0.022469752  -0.23152813    1.4202433    27568 
 7755000   0.05964166   -0.2275617    1.1976706  0.022567026   -0.2275617    1.4252323    27560 
 7756000  0.059652283  -0.22880676    1.1966276   0.02225428  -0.22880676    1.4254344    27561 
 7757000  0.059551107  -0.22956449    1.1947959  0.022655737  -0.22956449    1.4243604    27535 
 7758000   0.05942777  -0.23048878    1.1931448   0.02230306  -0.23048878    1.4236336    27492 
 7759000  0.059648599  -0.22788495    1.2018709  0.022532438  -0.22788495    1.4297558    27476 
 7760000  0.059562054  -0.23155658    1.1988319  0.022132304  -0.23155658    1.4303885    27424 
 7761000  0.059345324  -0.22777867    1.2019406  0.022219549  -0.22777867    1.4297193    27337 
 7762000  0.059309273  -0.22845694    1.2004461  0.022478571  -0.22845694    1.4289031    27336 
 7763000  0.059457479  -0.22763116    1.2050522  0.022258282  -0.22763116    1.4326833    27332 
 7764000  0.059141411  -0.22636327    1.2001133  0.022198649  -0.22636327    1.4264765    27305 
 7765000  0.059090033  -0.23097329    1.1956747  0.022041767  -0.23097329     1.426648    27278 
 7766000  0.059114097  -0.22723421    1.1987402  0.022179897  -0.22723421    1.4259744    27302 
 7767000  0.058960597   -0.2233126    1.2023532  0.022490016   -0.2233126    1.4256658    27237 
 7768000  0.058946521  -0.22598129    1.2032798  0.022195378  -0.22598129    1.4292611    27162 
 7769000  0.059062942  -0.22675842    1.2063279  0.021876174  -0.22675842    1.4330864    27143 
 7770000  0.059084378  -0.22513439    1.2094234  0.022200092  -0.22513439    1.4345578    27125 
 7771000  0.058821464   -0.2238078    1.2066869  0.022315474   -0.2238078    1.4304947    27081 
 7772000  0.058574065    -0.224392    1.2023516  0.021940765    -0.224392    1.4267436    27038 
 7773000  0.058746006  -0.22428762    1.2064854  0.021894225  -0.22428762     1.430773    27041 
 7774000  0.058476093  -0.22310765    1.2041528  0.022230429  -0.22310765    1.4272605    26983 
 7775000  0.058337075  -0.22300281    1.2028726  0.022274799  -0.22300281    1.4258754    26945 
 7776000  0.058072185  -0.21984536    1.2011905  0.021985074  -0.21984536    1.4210359    26914 
 7777000  0.058038486  -0.22170325    1.1988247  0.021933902  -0.22170325     1.420528    26908 
 7778000   0.05795626  -0.22044909    1.2001253  0.021858599  -0.22044909    1.4205744    26869 
 7779000  0.058105998  -0.22327046    1.2021413  0.022331102  -0.22327046    1.4254117    26847 
 7780000  0.058202545  -0.22693121    1.1979829  0.021996709  -0.22693121    1.4249141    26901 
 7781000  0.057724946   -0.2249494    1.1918007  0.021916021   -0.2249494    1.4167501    26834 
 7782000  0.058112723  -0.22935446    1.1958507  0.021595551  -0.22935446    1.4252051    26854 
 7783000  0.057827066  -0.22704806    1.1926845  0.021637843  -0.22704806    1.4197326    26825 
 7784000  0.057682969  -0.22712342    1.1912393  0.021890477  -0.22712342    1.4183627    26784 
 7785000  0.057824413  -0.22528155    1.1965591  0.021724035  -0.22528155    1.4218407    26784 
 7786000  0.057735181  -0.22017774    1.2004766  0.021920418  -0.22017774    1.4206543    26765 
 7787000  0.057849705  -0.22049509    1.2036157  0.021930621  -0.22049509    1.4241108    26753 
 7788000  0.057755511  -0.22029041    1.2028847  0.021701674  -0.22029041    1.4231751    26727 
 7789000  0.057619407  -0.21995482     1.200717  0.021991669  -0.21995482    1.4206718    26711 
 7790000   0.05768594  -0.22347154    1.2011875  0.021610349  -0.22347154    1.4246591    26667 
 7791000  0.057721841  -0.22353646    1.2036683    0.0219008  -0.22353646    1.4272048    26636 
 7792000  0.057834087  -0.22471194    1.2035523  0.021851203  -0.22471194    1.4282643    26668 
 7793000  0.057683725  -0.22294071    1.2024119  0.021728619  -0.22294071    1.4253527    26653 
 7794000  0.057501928  -0.22669031    1.1957713  0.021545294  -0.22669031    1.4224616    26623 
 7795000   0.05744436  -0.22065885    1.2020887  0.021712139  -0.22065885    1.4227476    26591 
 7796000    0.0574147  -0.22297744    1.2008025  0.021563377  -0.22297744    1.4237799    26558 
 7797000  0.057210666    -0.223095    1.1976046  0.021678055    -0.223095    1.4206996    26521 
 7798000  0.057164359   -0.2227838    1.1977835  0.021583267   -0.2227838    1.4205673    26502 
 7799000  0.057228331  -0.22086365    1.2031203  0.021743915  -0.22086365    1.4239839    26468 
 7800000  0.057459665  -0.22550805    1.2054214  0.021873338  -0.22550805    1.4309295    26446 
 7801000  0.057209855  -0.22245164    1.2038208  0.021816737  -0.22245164    1.4262724    26417 
 7802000  0.057112065  -0.21721023    1.2055471  0.021614278  -0.21721023    1.4227573    26437 
 7803000   0.05697348  -0.21578623    1.2052926  0.021638186  -0.21578623    1.4210788    26404 
 7804000  0.056789084  -0.21458295      1.20453  0.021436762  -0.21458295     1.419113    26355 
 7805000  0.056975631  -0.21833315     1.207389  0.021929226  -0.21833315    1.4257221    26319 
 7806000  0.056907755  -0.21598372    1.2093939  0.021893209  -0.21598372    1.4253776    26294 
 7807000  0.056687033  -0.21702581    1.2049866  0.021394317  -0.21702581    1.4220124    26254 
 7808000  0.056858712  -0.21516467    1.2114804  0.021855299  -0.21516467     1.426645    26248 
 7809000  0.056923098  -0.22059698    1.2061959  0.021569249  -0.22059698    1.4267929    26275 
 7810000  0.057201515  -0.22596749    1.2066045  0.021546477  -0.22596749     1.432572    26297 
 7811000  0.057240166   -0.2211226     1.210512  0.021460799   -0.2211226    1.4316346    26332 
 7812000  0.057083882  -0.21983235    1.2087614  0.021657374  -0.21983235    1.4285938    26316 
 7813000  0.057342307  -0.21853387     1.215002  0.021547118  -0.21853387    1.4335359    26344 
 7814000  0.057246988  -0.21895444    1.2163939  0.021873873  -0.21895444    1.4353483    26267 
 7815000  0.057178275  -0.21940452    1.2127488  0.021488074  -0.21940452    1.4321534    26294 
 7816000  0.057327608  -0.21924231    1.2175804  0.021694392  -0.21924231    1.4368227    26277 
 7817000  0.057048681  -0.21694154    1.2142519  0.021708545  -0.21694154    1.4311935    26252 
 7818000  0.057155249  -0.21650865    1.2177954   0.02140915  -0.21650865    1.4343041    26244 
 7819000    0.0572512  -0.21733049    1.2191625   0.02175843  -0.21733049     1.436493    26248 
 7820000  0.057361096  -0.21781035    1.2217691  0.021777243  -0.21781035    1.4395795    26242 
 7821000  0.057170176  -0.21686522    1.2200583  0.021402077  -0.21686522    1.4369235    26203 
 7822000  0.057339341  -0.21931325    1.2257224  0.021752155  -0.21931325    1.4450356    26133 
 7823000  0.057207277  -0.21987562    1.2223837   0.02201205  -0.21987562    1.4422593    26123 
 7824000  0.056972717  -0.21458653    1.2235209  0.021763137  -0.21458653    1.4381074    26091 
 7825000  0.057122002  -0.21352178      1.22946  0.021731845  -0.21352178    1.4429818    26071 
 7826000   0.05745261  -0.21646192    1.2345376  0.021436701  -0.21646192    1.4509995    26077 
 7827000  0.057189845  -0.21649487    1.2293654  0.021819239  -0.21649487    1.4458603    26050 
 7828000   0.05712711  -0.21465989    1.2304464  0.021995609  -0.21465989    1.4451063    26035 
 7829000  0.056997807  -0.21380758    1.2286373   0.02154047  -0.21380758    1.4424449    26024 
 7830000  0.057164378  -0.21490075    1.2325382  0.021677816  -0.21490075     1.447439    26010 
 7831000  0.057412007  -0.21577781    1.2378754  0.021922226  -0.21577781    1.4536532    26011 
 7832000   0.05705765  -0.21286882    1.2317566  0.021706024  -0.21286882    1.4446255    26012 
 7833000  0.057233956  -0.21508511    1.2340599  0.021445397  -0.21508511     1.449145    26011 
 7834000  0.057144897  -0.21305965    1.2370081  0.021954281  -0.21305965    1.4500677    25954 
 7835000  0.056832405  -0.20965957    1.2313681   0.02171685  -0.20965957    1.4410277    25974 
 7836000  0.057055614  -0.21463598    1.2342268  0.021699884  -0.21463598    1.4488628    25935 
 7837000  0.057136495  -0.21456214    1.2365224  0.022076932  -0.21456214    1.4510845    25932 
 7838000  0.057065271  -0.21570045    1.2350298  0.021597934  -0.21570045    1.4507302    25906 
 7839000   0.05703756  -0.21425661    1.2347064  0.021861983  -0.21425661     1.448963    25925 
 7840000   0.05691841  -0.21164443    1.2345707  0.021597297  -0.21164443    1.4462151    25920 
 7841000  0.056745198  -0.20846741    1.2364684  0.021563648  -0.20846741    1.4449358    25864 
 7842000  0.056930246  -0.21254972     1.237771  0.021923586  -0.21254972    1.4503207    25852 
 7843000   0.05671635  -0.21066575    1.2349887  0.021779941  -0.21066575    1.4456545    25838 
 7844000  0.056782415  -0.21441475    1.2319161  0.021838234  -0.21441475    1.4463309    25856 
 7845000  0.056791179  -0.21466275     1.232787  0.021566543  -0.21466275    1.4474498    25840 
 7846000  0.056649852   -0.2117515    1.2338865  0.021547188   -0.2117515     1.445638    25808 
 7847000  0.056788172  -0.20663314    1.2435461  0.021630137  -0.20663314    1.4501792    25790 
 7848000  0.056816894  -0.20900498    1.2435974  0.021823455  -0.20900498    1.4526024    25760 
 7849000  0.056908611  -0.21106115    1.2439426  0.022026748  -0.21106115    1.4550038    25759 
 7850000  0.056925079  -0.21289501    1.2441136  0.021483957  -0.21289501    1.4570086    25731 
 7851000  0.056887106  -0.21040564    1.2444436  0.021644673  -0.21040564    1.4548493    25752 
 7852000  0.056543221  -0.20902097    1.2398468  0.021503553  -0.20902097    1.4488678    25702 
 7853000  0.056894427  -0.20793299    1.2480081  0.021746761  -0.20793299    1.4559411    25736 
 7854000  0.056849852  -0.20845917    1.2483224  0.021936566  -0.20845917    1.4567816    25701 
 7855000  0.056935288  -0.21184722    1.2481462  0.021835039  -0.21184722    1.4599934    25683 
 7856000  0.056828999  -0.21188891    1.2470263  0.021780262  -0.21188891    1.4589152    25654 
 7857000   0.05701147  -0.21198074    1.2540189  0.021608904  -0.21198074    1.4659997    25612 
 7858000  0.056820072  -0.21160315     1.250274  0.021738604  -0.21160315    1.4618772    25598 
 7859000  0.056917106  -0.21304258    1.2501307  0.021568666  -0.21304258    1.4631733    25619 
 7860000  0.056961128  -0.21115528    1.2529211  0.021800164  -0.21115528    1.4640764    25623 
 7861000  0.056652359  -0.21356368    1.2443403   0.02173733  -0.21356368    1.4579039    25592 
 7862000  0.056714008  -0.21262007    1.2470985  0.021826542  -0.21262007    1.4597186    25588 
 7863000  0.056787353  -0.20909978    1.2507379  0.021531142  -0.20909978    1.4598377    25619 
 7864000  0.057067744  -0.21027175    1.2572896  0.021819731  -0.21027175    1.4675613    25610 
 7865000  0.057305367   -0.2119129    1.2606667  0.021814364   -0.2119129    1.4725796    25629 
 7866000  0.056708422  -0.20567268    1.2577339  0.021982739  -0.20567268    1.4634066    25521 
 7867000   0.05688785  -0.20678514    1.2591838  0.021532972  -0.20678514     1.465969    25557 
 7868000  0.056975384  -0.20841377    1.2582041  0.021902106  -0.20841377    1.4666179    25585 
 7869000  0.056663219  -0.20760438    1.2535479  0.021521302  -0.20760438    1.4611523    25540 
 7870000   0.05687292  -0.21223134    1.2559956  0.021651946  -0.21223134    1.4682269    25511 
 7871000  0.056663011  -0.20913736    1.2555077  0.021656453  -0.20913736    1.4646451    25479 
 7872000  0.056969955  -0.20899319    1.2618541  0.021904593  -0.20899319    1.4708473    25509 
 7873000  0.057203936  -0.21050549    1.2658618  0.022283696  -0.21050549    1.4763673    25518 
 7874000   0.05716926  -0.20977668    1.2645979  0.022161363  -0.20977668    1.4743745    25537 
 7875000  0.056946642  -0.20903437    1.2616146  0.021838658  -0.20903437    1.4706489    25502 
 7876000  0.056881482  -0.20787909     1.259591  0.021830581  -0.20787909      1.46747    25528 
 7877000  0.056916412  -0.20702638    1.2639955  0.021945518  -0.20702638    1.4710219    25482 
 7878000  0.056844385  -0.20752933    1.2619193   0.02158211  -0.20752933    1.4694487    25477 
 7879000  0.056904004  -0.20611475    1.2648751  0.021565542  -0.20611475    1.4709898    25477 
 7880000  0.056555136  -0.20579308    1.2563506  0.021678752  -0.20579308    1.4621436    25474 
 7881000  0.056680851  -0.20529779    1.2627469  0.021570192  -0.20529779    1.4680447    25428 
 7882000  0.056659792  -0.20534983    1.2628424  0.021741489  -0.20534983    1.4681922    25416 
 7883000  0.056823885  -0.20775672    1.2632406  0.022224495  -0.20775672    1.4709973    25441 
 7884000  0.057094066  -0.20530227    1.2708325  0.022306254  -0.20530227    1.4761348    25473 
 7885000   0.05670448  -0.20330297    1.2644302  0.021953503  -0.20330297    1.4677332    25444 
 7886000  0.056812647  -0.20313356    1.2696569  0.021996843  -0.20313356    1.4727905    25405 
 7887000  0.056851094  -0.20384811    1.2718559  0.021845418  -0.20384811     1.475704    25372 
 7888000  0.056963742  -0.20779712    1.2689684  0.022023124  -0.20779712    1.4767655    25404 
 7889000  0.057087734  -0.21007468    1.2707796  0.022132907  -0.21007468    1.4808543    25389 
 7890000  0.056880033  -0.20811973    1.2677537  0.022035877  -0.20811973    1.4758735    25382 
 7891000  0.057097685   -0.2096546    1.2708164  0.021886139   -0.2096546     1.480471    25400 
 7892000  0.057040258   -0.2046119    1.2732646  0.021951394   -0.2046119    1.4778765    25419 
 7893000  0.056896582  -0.20452769    1.2716007  0.021979617  -0.20452769    1.4761284    25385 
 7894000   0.05719725  -0.20594987    1.2800279  0.022580187  -0.20594987    1.4859778    25350 
 7895000  0.056810348  -0.20072156    1.2759036  0.021916674  -0.20072156    1.4766251    25338 
 7896000  0.056799298  -0.20686325    1.2697078  0.021905663  -0.20686325     1.476571    25334 
 7897000  0.056674487  -0.20411261     1.268923  0.021889302  -0.20411261    1.4730356    25339 
 7898000  0.056626936  -0.20649864    1.2653592  0.021479004  -0.20649864    1.4718578    25338 
 7899000  0.056500769  -0.20430998    1.2665324  0.021596291  -0.20430998    1.4708424    25299 
 7900000  0.056901531  -0.20995259    1.2682258  0.021731241  -0.20995259    1.4781784    25352 
 7901000  0.056370178  -0.20602848    1.2606027  0.021520909  -0.20602848    1.4666312    25313 
 7902000  0.056363262  -0.21051798    1.2569768  0.021657462  -0.21051798    1.4674948    25295 
 7903000   0.05608948  -0.20697816    1.2555276  0.021544097  -0.20697816    1.4625058    25258 
 7904000  0.056125235  -0.20655047    1.2581634  0.021656041  -0.20655047    1.4647138    25236 
 7905000   0.05617301  -0.20565721    1.2597228  0.021627419  -0.20565721      1.46538    25246 
 7906000   0.05598312  -0.20606557    1.2545922  0.021511332  -0.20606557    1.4606578    25242 
 7907000   0.05600855  -0.20710266    1.2541607  0.021419504  -0.20710266    1.4612634    25243 
 7908000  0.056222133  -0.21134169    1.2572976  0.021657199  -0.21134169    1.4686393    25212 
 7909000  0.055679498  -0.20590478    1.2504082  0.021117149  -0.20590478     1.456313    25180 
 7910000    0.0559432  -0.20782111     1.256785  0.021411334  -0.20782111    1.4646061    25156 
 7911000  0.055991182  -0.21007419    1.2567794  0.021386885  -0.21007419    1.4668536    25139 
 7912000  0.055983203  -0.20508277    1.2615618   0.02130696  -0.20508277    1.4666446    25139 
 7913000  0.056146548   -0.2054509    1.2638948  0.021602475   -0.2054509    1.4693457    25166 
 7914000  0.055921439  -0.20508073    1.2590139  0.021407104  -0.20508073    1.4640946    25155 
 7915000  0.056081425  -0.20624717    1.2622696  0.021347299  -0.20624717    1.4685168    25151 
 7916000  0.055952573  -0.20253096    1.2622041  0.021440192  -0.20253096    1.4647351    25158 
 7917000   0.05592751  -0.20336427    1.2613551  0.021311972  -0.20336427    1.4647194    25147 
 7918000  0.056151756  -0.20751264    1.2632551  0.021580407  -0.20751264    1.4707678    25144 
 7919000  0.056306698  -0.20904346    1.2618049  0.021594847  -0.20904346    1.4708483    25212 
 7920000  0.056030245  -0.20811696    1.2577192   0.02147938  -0.20811696    1.4658362    25174 
 7921000  0.056065052  -0.20731727    1.2568123  0.021391577  -0.20731727    1.4641295    25219 
 7922000    0.0564781  -0.20997679    1.2630703  0.021760134  -0.20997679    1.4730471    25251 
 7923000  0.056221017  -0.20551253    1.2633307  0.021552459  -0.20551253    1.4688432    25208 
 7924000  0.056079972  -0.20510957    1.2621441  0.021364877  -0.20510957    1.4672537    25172 
 7925000  0.056369733   -0.2069084    1.2677507  0.021488468   -0.2069084    1.4746591    25175 
 7926000  0.056171774   -0.2057655    1.2637732  0.021465064   -0.2057655    1.4695387    25174 
 7927000  0.056372264  -0.20785442    1.2673396  0.021469909  -0.20785442    1.4751941    25167 
 7928000  0.056237953  -0.20732384    1.2657017  0.021641712  -0.20732384    1.4730255    25144 
 7929000  0.056275863  -0.20493608    1.2694342  0.021453645  -0.20493608    1.4743703    25138 
 7930000  0.056277416  -0.20577242    1.2668226  0.021811648  -0.20577242     1.472595    25169 
 7931000  0.056185165  -0.20548483    1.2663922  0.021378196  -0.20548483     1.471877    25140 
 7932000  0.056194131   -0.2086316    1.2644178  0.021570277   -0.2086316    1.4730494    25124 
 7933000  0.056207828   -0.2053415    1.2684776  0.021705033   -0.2053415    1.4738191    25117 
 7934000  0.056063482  -0.20723353    1.2617479  0.021794332  -0.20723353    1.4689815    25135 
 7935000  0.056171343  -0.20565367     1.266857  0.021701455  -0.20565367    1.4725106    25123 
 7936000  0.056230539  -0.20803835    1.2659068  0.021435571  -0.20803835    1.4739451    25125 
 7937000  0.055962976  -0.20527449    1.2599076  0.021887369  -0.20527449    1.4651821    25155 
 7938000  0.056228006  -0.20489969    1.2668702  0.021661491  -0.20489969    1.4717699    25161 
 7939000  0.056134653   -0.2031037    1.2678011  0.021564903   -0.2031037    1.4709048    25134 
 7940000  0.056170744  -0.20534559     1.267677  0.021555984  -0.20534559    1.4730226    25114 
 7941000   0.05624224  -0.20706521    1.2718957  0.021538035  -0.20706521     1.478961    25045 
 7942000  0.055826043   -0.1994594    1.2690262  0.021401171   -0.1994594    1.4684856    25037 
 7943000  0.055824584  -0.19973416    1.2684785  0.021624452  -0.19973416    1.4682126    25041 
 7944000  0.055994607  -0.20364074    1.2688084   0.02130744  -0.20364074    1.4724491    25045 
 7945000  0.055761982  -0.20339141    1.2617121  0.021209347  -0.20339141    1.4651035    25066 
 7946000  0.056044109  -0.20481013    1.2687054  0.021405875  -0.20481013    1.4735155    25049 
 7947000  0.055849053  -0.20131015    1.2688964  0.021523344  -0.20131015    1.4702066    25018 
 7948000  0.055815949  -0.20038717    1.2673639   0.02160694  -0.20038717    1.4677511    25045 
 7949000  0.055575583   -0.2005662    1.2632605   0.02157389   -0.2005662    1.4638267    25004 
 7950000  0.055629124  -0.20270204    1.2627693  0.021217383  -0.20270204    1.4654714    25000 
 7951000  0.055645342  -0.20315268     1.263626   0.02146084  -0.20315268    1.4667787    24985 
 7952000  0.055854585  -0.20346949     1.267353  0.021421509  -0.20346949    1.4708225    25010 
 7953000  0.055871299  -0.20655218    1.2647105  0.021414555  -0.20655218    1.4712626    25010 
 7954000  0.055616668   -0.2019299    1.2631548  0.021496448   -0.2019299    1.4650847    25001 
 7955000  0.055793269  -0.20585174    1.2636499  0.021428399  -0.20585174    1.4695016    25005 
 7956000  0.055886375  -0.20199735    1.2665502  0.021456198  -0.20199735    1.4685476    25063 
 7957000  0.055845718  -0.20396438    1.2646868  0.021658112  -0.20396438    1.4686512    25043 
 7958000  0.055606709  -0.20262032    1.2620848  0.021230534  -0.20262032    1.4647051    25003 
 7959000  0.055643005  -0.20412642    1.2613003  0.021542046  -0.20412642    1.4654267    25007 
 7960000  0.055466992  -0.20480217    1.2591503  0.021159413  -0.20480217    1.4639525    24953 
 7961000  0.055739644  -0.20580297    1.2677669  0.021347434  -0.20580297    1.4735699    24912 
 7962000  0.055718507  -0.20186099     1.270559  0.021357826  -0.20186099      1.47242    24922 
 7963000  0.055360067  -0.20138703     1.263736  0.021177374  -0.20138703     1.465123    24885 
 7964000  0.055465632  -0.20634507    1.2628116  0.021433973  -0.20634507    1.4691566    24864 
 7965000  0.055282878  -0.20298368    1.2635736   0.02112559  -0.20298368    1.4665573    24826 
 7966000  0.055299412  -0.20262847     1.264013  0.021096641  -0.20262847    1.4666414    24832 
 7967000  0.055525945  -0.20587806    1.2649944  0.021411191  -0.20587806    1.4708725    24862 
 7968000  0.055092749  -0.19812898     1.262208  0.020865362  -0.19812898     1.460337    24846 
 7969000  0.055493187  -0.20371787    1.2669376  0.021065511  -0.20371787    1.4706554    24851 
 7970000  0.055455919  -0.20121881    1.2699882  0.021430203  -0.20121881     1.471207    24825 
 7971000  0.055152697  -0.20163061    1.2643667  0.021287667  -0.20163061    1.4659973    24777 
 7972000  0.055131893  -0.19884516     1.266067  0.021275582  -0.19884516    1.4649122    24786 
 7973000  0.055016916  -0.20094904    1.2622659   0.02125773  -0.20094904    1.4632149    24763 
 7974000  0.055104471  -0.20209638    1.2634471  0.021251243  -0.20209638    1.4655435    24763 
 7975000   0.05515166  -0.20173684    1.2664253  0.021360921  -0.20173684    1.4681622    24740 
 7976000  0.055291887  -0.20226675    1.2699854  0.021302544  -0.20226675    1.4722521    24734 
 7977000  0.055244793  -0.20364066     1.266169   0.02101409  -0.20364066    1.4698097    24754 
 7978000  0.055361157  -0.20191822    1.2702142  0.021079528  -0.20191822    1.4721324    24767 
 7979000  0.055470079  -0.20467166    1.2689292  0.021204218  -0.20467166    1.4736009    24791 
 7980000  0.055486486  -0.20106133    1.2717872  0.021180126  -0.20106133    1.4728485    24811 
 7981000  0.055517188  -0.20232022    1.2707496  0.021334069  -0.20232022    1.4730698    24821 
 7982000  0.055522836  -0.20272301    1.2699033  0.021423077  -0.20272301    1.4726263    24831 
 7983000  0.055566859  -0.20501492    1.2677707  0.021417962  -0.20501492    1.4727856    24848 
 7984000  0.055429742  -0.20121021    1.2713191  0.021291941  -0.20121021    1.4725293    24791 
 7985000   0.05546686  -0.19821169    1.2753037   0.02154588  -0.19821169    1.4735154    24791 
 7986000  0.055429681   -0.2003211     1.273455  0.021444815   -0.2003211    1.4737761    24770 
 7987000  0.055369938  -0.20521068    1.2653147  0.021184012  -0.20521068    1.4705253    24798 
 7988000  0.055405603   -0.2024712    1.2711406  0.021375617   -0.2024712    1.4736118    24762 
 7989000  0.055216645  -0.20347814    1.2645744  0.021211669  -0.20347814    1.4680526    24771 
 7990000  0.055512841  -0.20675496    1.2696494  0.021383013  -0.20675496    1.4764044    24763 
 7991000  0.055252313  -0.20211937    1.2696741  0.021311068  -0.20211937    1.4717934    24724 
 7992000  0.055434513  -0.20126958    1.2746609  0.021282574  -0.20126958    1.4759305    24736 
 7993000  0.055521912  -0.20324487    1.2757301  0.021211163  -0.20324487    1.4789749    24724 
 7994000  0.055205695  -0.19676893    1.2746159  0.021289751  -0.19676893    1.4713848    24710 
 7995000   0.05550951   -0.1997412    1.2826808  0.021050092   -0.1997412     1.482422    24661 
 7996000  0.055489913  -0.20216394    1.2773349  0.021426267  -0.20216394    1.4794989    24701 
 7997000  0.055114563  -0.19870348    1.2743658   0.02156267  -0.19870348    1.4730693    24641 
 7998000  0.055103419  -0.19814012    1.2737353  0.020971472  -0.19814012    1.4718754    24656 
 7999000  0.055244378  -0.19880295     1.277736  0.021345569  -0.19880295    1.4765389    24641 
 8000000  0.055225804  -0.19874567    1.2775364  0.021102267  -0.19874567    1.4762821    24637 
Loop time of 7468.3 on 192 procs for 5000000 steps with 24637 atoms

Performance: 289222.499 tau/day, 669.497 timesteps/s
99.0% CPU use with 192 MPI tasks x 1 OpenMP threads

MPI task timing breakdown:
Section |  min time  |  avg time  |  max time  |%varavg|  %CPU | %total
-----------------------------------------------------------------------
Pair    | 785.58     | 1672.7     | 1933.5     | 808.0 |  99.0 | 22.40
Bond    | 3.193      | 3.3301     | 3.4741     |   3.1 | 100.0 |  0.04
Neigh   | 445.64     | 807.54     | 937.56     | 468.3 |  99.4 | 10.81
Comm    | 1222.1     | 1564       | 2858.9     |1203.7 |  98.7 | 20.94
Output  | 287.05     | 289.85     | 289.88     |   1.2 |  98.9 |  3.88
Modify  | 2984.5     | 3053.1     | 3293.1     | 175.5 |  99.2 | 40.88
Other   |            | 77.76      |            |       |       |  1.04

Nlocal:        128.318 ave         162 max          98 min
Histogram: 2 13 24 27 47 29 29 10 9 2
Nghost:        169.427 ave         205 max         120 min
Histogram: 5 6 19 18 14 24 45 29 19 13
Neighs:        174.661 ave         350 max          85 min
Histogram: 6 30 52 48 30 12 9 2 1 2

Total # of neighbors = 33535
Ave neighs/atom = 1.3611641
Ave special neighs/atom = 0.0000000
Neighbor list builds = 505000
Dangerous builds = 450000

write_restart   restart_write.dat
System init for write_restart ...
write_data	data.write
System init for write_data ...
WARNING: Not all mixed pair coeffs generated from mixing. Use write_data with 'pair ij' option to store all pair coeffs. (src/write_data.cpp:312)

Total wall time: 2:04:34
