LAMMPS (24 Dec 2020)
OMP_NUM_THREADS environment is not set. Defaulting to 1 thread. (src/comm.cpp:94)
  using 1 OpenMP thread(s) per MPI task
# Simple rigid body system
# needed variables: startTemp, temp

units		lj
atom_style	full
dimension 	3
boundary	p p f
pair_style	lj/smooth 2.5 3.0



variable 	sigma		equal 1.0
variable 	epsilon 	equal 1.0


region		box block 0 80 0 80 0 80
create_box 	3 box
Created orthogonal box = (0.0000000 0.0000000 0.0000000) to (80.000000 80.000000 80.000000)
  6 by 4 by 4 MPI processor grid
lattice 	sc 1.0
Lattice spacing in x,y,z = 1.0000000 1.0000000 1.0000000

create_atoms 	1 region box
Created 512000 atoms
  create_atoms CPU = 0.134 seconds

mass		1 1.0
mass		2 1.0
mass		3 1.0


group		solvent type 1
512000 atoms in group solvent


velocity 	solvent create ${startTemp} 563435 loop geom
velocity 	solvent create 0.5 563435 loop geom

read_data	data.vac add append
Reading data file ...
  orthogonal box = (0.0000000 0.0000000 0.0000000) to (80.000000 80.000000 160.00000)
  3 by 4 by 8 MPI processor grid
Finding 1-2 1-3 1-4 neighbors ...
  special bond factors lj:    0        0        0       
  special bond factors coul:  0        0        0       
     0 = max # of 1-2 neighbors
     0 = max # of 1-3 neighbors
     0 = max # of 1-4 neighbors
     1 = max # of special neighbors
  special bonds CPU = 0.471 seconds
  read_data CPU = 0.478 seconds

neighbor 	0.4 bin

pair_coeff	1 1 1.0 1.0
pair_coeff	2 2 0.0 0.0
pair_coeff	3 3 0.0 0.0
pair_coeff	2 3 0.0 0.0
pair_coeff	1 2*3 0.0 0.0

pair_modify 	shift yes

pair_write      1 1 1000 r 1.0 3.1 pair.txt LJ
Creating table file pair.txt with DATE: 2021-05-19
Neighbor list info ...
  update every 1 steps, delay 10 steps, check yes
  max neighbors/atom: 2000, page size: 100000
  master list distance cutoff = 3.4
  ghost atom cutoff = 3.4
  binsize = 1.7, bins = 48 48 95
  1 neighbor lists, perpetual/occasional/extra = 1 0 0
  (1) pair lj/smooth, perpetual
      attributes: half, newton on
      pair build: half/bin/newton
      stencil: half/bin/3d/newton
      bin: standard
balance 	1.05 shift z 10 1.05
Balancing ...
 rebalancing time: 0.009 seconds
  iteration count = 5
  initial/final maximal load/proc = 10800.000 6480.0000
  initial/final imbalance factor  = 2.0250000 1.2150000
  x cuts: 0.0000000 0.33333333 0.66666667 1.0000000
  y cuts: 0.0000000 0.25000000 0.50000000 0.75000000 1.0000000
  z cuts: 0.0000000 0.062500000 0.12890625 0.18750000 0.25781250 0.30859375 0.38671875 0.43750000 1.0000000


####################### WALLS ###########################


region	       low block  EDGE EDGE EDGE EDGE 0 2

region 	       top block  EDGE EDGE EDGE EDGE 159 160


delete_atoms   region low
WARNING: Ignoring 'compress yes' for molecular system (src/delete_atoms.cpp:125)
Deleted 19200 atoms, new total = 492800

delete_atoms   region top
WARNING: Ignoring 'compress yes' for molecular system (src/delete_atoms.cpp:125)
Deleted 0 atoms, new total = 492800


variable       epsilonWall equal 2*${epsilon}
variable       epsilonWall equal 2*1

variable       cutoffTop   equal   0.7147*${sigma}
variable       cutoffTop   equal   0.7147*1

variable       cutoffLow   equal   3*${sigma}
variable       cutoffLow   equal   3*1


fix            topWall all wall/lj93 zhi EDGE                ${epsilonWall} ${sigma} ${cutoffTop} units box
fix            topWall all wall/lj93 zhi EDGE                2 ${sigma} ${cutoffTop} units box
fix            topWall all wall/lj93 zhi EDGE                2 1 ${cutoffTop} units box
fix            topWall all wall/lj93 zhi EDGE                2 1 0.7147 units box

fix            lowWall all wall/lj93 zlo EDGE                ${epsilonWall} ${sigma} ${cutoffLow} units box
fix            lowWall all wall/lj93 zlo EDGE                2 ${sigma} ${cutoffLow} units box
fix            lowWall all wall/lj93 zlo EDGE                2 1 ${cutoffLow} units box
fix            lowWall all wall/lj93 zlo EDGE                2 1 3 units box


###################### COMPUTES ##########################

compute        bin1 solvent chunk/atom bin/1d z upper 1.0



######################	FIXES ############################


fix 		peclet solvent ave/chunk 1000 1 1000 bin1 density/number norm 		 none ave one file density.profile

fix 		 temp solvent ave/chunk 1000 1 1000 bin1 temp norm none ave one 		 file temp.profile

fix 		2 solvent nve

## Thermostat


region		regthermo block EDGE EDGE EDGE EDGE 0 20

group 		thermo dynamic solvent region regthermo every 1000
dynamic group thermo defined

fix 		3 thermo langevin ${startTemp} ${temp} 10 156453
fix 		3 thermo langevin 0.5 ${temp} 10 156453
fix 		3 thermo langevin 0.5 .8 10 156453



#### Load balancing


fix 		bal all balance 1000 1.05 shift z 10 1.05


############### Diagnostics and computes ###################
#compute 	com cube	  rigid/local	1 mol x y z
#compute 	quat cube	  rigid/local	1 mol quatw quati quatj quatk

thermo 		1000
thermo_style 	custom step temp epair evdwl etotal press pe ke vol

dump		1 all custom 100000 dump.lammpstrj id mol type x y z
dump 		2 all image 10000 image.*.png type type
dump 		3 all movie 1000 movie.avi type type
#dump 		com cube local 1000 dump.*.xyz c_com[*]
#dump		quat cube      local 1000 dump.*.quat c_quat[*]


restart 	500000 restart.dat
timestep 	0.0025
timer 		full
New timer settings: style=full  mode=nosync  timeout=off


run		1000000
Per MPI rank memory allocation (min/avg/max) = 12.19 | 12.58 | 12.81 Mbytes
Step Temp E_pair E_vdwl TotEng Press PotEng KinEng Volume 
       0   0.49998514   -3.5955076   -3.5955076   -2.8455314     8.314756   -3.5955076   0.74997619      1024000 
    1000    1.4099306   -5.0833027   -5.0833027    -2.968411    3.5473429   -5.0833027    2.1148917      1024000 
    2000    1.3466278   -5.1257634   -5.1257634   -3.1058259    2.3483828   -5.1257634    2.0199375      1024000 
    3000     1.238166   -5.0907338   -5.0907338   -3.2334885    1.5356367   -5.0907338    1.8572452      1024000 
    4000    1.1841342     -5.09639     -5.09639   -3.3201923    0.6359535     -5.09639    1.7761977      1024000 
    5000    1.1097981    -5.028737    -5.028737   -3.3640432 0.0027667978    -5.028737    1.6646938      1024000 
    6000    1.0301894   -4.9255107   -4.9255107   -3.3802297  -0.33494959   -4.9255107     1.545281      1024000 
    7000   0.97137753   -4.8406916   -4.8406916   -3.3836283  -0.42270992   -4.8406916    1.4570633      1024000 
    8000   0.96129726   -4.8282179   -4.8282179   -3.3862749  -0.28174379   -4.8282179     1.441943      1024000 
    9000   0.97985798   -4.8648599   -4.8648599   -3.3950759  -0.10902844   -4.8648599     1.469784      1024000 
   10000   0.98686905   -4.8911304   -4.8911304   -3.4108298 -0.019941654   -4.8911304    1.4803006      1024000 
   11000   0.98365333   -4.9011243   -4.9011243   -3.4256473 -0.0065693796   -4.9011243     1.475477      1024000 
   12000   0.98351682   -4.9113118   -4.9113118   -3.4360395  0.013475245   -4.9113118    1.4752722      1024000 
   13000   0.98644555   -4.9253427   -4.9253427   -3.4456774   0.04786424   -4.9253427    1.4796653      1024000 
   14000   0.98656239   -4.9344473   -4.9344473   -3.4546068  0.070793187   -4.9344473    1.4798406      1024000 
   15000    0.9852697   -4.9395609   -4.9395609   -3.4616594  0.072237097   -4.9395609    1.4779016      1024000 
   16000    0.9827476   -4.9414828   -4.9414828   -3.4673644  0.069239549   -4.9414828    1.4741184      1024000 
   17000   0.98136463   -4.9440363   -4.9440363   -3.4719924   0.07646864   -4.9440363     1.472044      1024000 
   18000   0.98196954   -4.9491314   -4.9491314     -3.47618  0.080912644   -4.9491314    1.4729513      1024000 
   19000   0.98385285    -4.956241    -4.956241   -3.4804648  0.089744205    -4.956241    1.4757763      1024000 
   20000   0.98475317   -4.9620951   -4.9620951   -3.4849684   0.10594094   -4.9620951    1.4771268      1024000 
   21000   0.98573651   -4.9668402   -4.9668402   -3.4882385   0.11028496   -4.9668402    1.4786018      1024000 
   22000   0.98385103   -4.9669067   -4.9669067   -3.4911332   0.11355139   -4.9669067    1.4757736      1024000 
   23000   0.98417446   -4.9703988   -4.9703988   -3.4941401   0.11960555   -4.9703988    1.4762587      1024000 
   24000   0.98390624   -4.9724423   -4.9724423   -3.4965859   0.12624557   -4.9724423    1.4758564      1024000 
   25000   0.98465621   -4.9758523   -4.9758523    -3.498871   0.12765956   -4.9758523    1.4769813      1024000 
   26000   0.98843223    -4.983863    -4.983863   -3.5012176   0.18534764    -4.983863    1.4826453      1024000 
   27000    1.0019406   -5.0073887   -5.0073887   -3.5044808   0.60356617   -5.0073887    1.5029078      1024000 
   28000    1.0171191   -5.0320111   -5.0320111   -3.5063356     1.107563   -5.0320111    1.5256755      1024000 
   29000     1.033097    -5.057796    -5.057796   -3.5081536    1.6086206    -5.057796    1.5496424      1024000 
   30000    1.0430143   -5.0740612   -5.0740612    -3.509543    1.7314045   -5.0740612    1.5645183      1024000 
   31000    1.0280139   -5.0532629   -5.0532629   -3.5112451     1.319812   -5.0532629    1.5420178      1024000 
   32000    1.0105916   -5.0278301   -5.0278301   -3.5119458   0.90392395   -5.0278301    1.5158843      1024000 
   33000   0.98245747   -4.9866171   -4.9866171   -3.5129339   0.53175341   -4.9866171    1.4736832      1024000 
   34000   0.94051934    -4.925376    -4.925376   -3.5145999   0.26007378    -4.925376    1.4107762      1024000 
   35000   0.89779032   -4.8632369   -4.8632369   -3.5165541  0.064005469   -4.8632369    1.3466827      1024000 
   36000   0.86352728   -4.8135156   -4.8135156   -3.5182273  -0.05657927   -4.8135156    1.2952883      1024000 
   37000   0.83908709   -4.7777367   -4.7777367   -3.5191086   -0.1232457   -4.7777367    1.2586281      1024000 
   38000   0.82513814   -4.7583723   -4.7583723   -3.5206676  -0.15564772   -4.7583723    1.2377047      1024000 
   39000   0.82363752   -4.7571699   -4.7571699   -3.5217162  -0.14076215   -4.7571699    1.2354538      1024000 
   40000   0.83354143   -4.7733014   -4.7733014   -3.5229918  -0.10173961   -4.7733014    1.2503096      1024000 
   41000   0.84769564   -4.7954819   -4.7954819    -3.523941 -0.037977231   -4.7954819    1.2715409      1024000 
   42000   0.86730981   -4.8264542   -4.8264542   -3.5254921  0.044174256   -4.8264542    1.3009621      1024000 
   43000     0.886282   -4.8564154   -4.8564154    -3.526995   0.14245806   -4.8564154    1.3294203      1024000 
   44000   0.89945185   -4.8773069   -4.8773069   -3.5281319   0.22246567   -4.8773069     1.349175      1024000 
   45000   0.90433045   -4.8859818   -4.8859818   -3.5294889   0.24291288   -4.8859818    1.3564929      1024000 
   46000   0.89612689   -4.8746375   -4.8746375   -3.5304499   0.20130792   -4.8746375    1.3441876      1024000 
   47000    0.8793209   -4.8511146   -4.8511146   -3.5321359    0.1089874   -4.8511146    1.3189787      1024000 
   48000   0.85957627   -4.8227681   -4.8227681   -3.5334063   0.02091431   -4.8227681    1.2893618      1024000 
   49000   0.84547504   -4.8034214   -4.8034214   -3.5352114 -0.042882196   -4.8034214      1.26821      1024000 
   50000   0.83533043   -4.7897374   -4.7897374   -3.5367443 -0.068459955   -4.7897374    1.2529931      1024000 
   51000   0.83203723   -4.7861102   -4.7861102   -3.5380569 -0.076640791   -4.7861102    1.2480533      1024000 
   52000   0.83683096   -4.7944859   -4.7944859   -3.5392421 -0.059229377   -4.7944859    1.2552439      1024000 
   53000   0.84789096   -4.8134692   -4.8134692   -3.5416354 -0.013169844   -4.8134692    1.2718339      1024000 
   54000   0.86192195   -4.8368924   -4.8368924   -3.5440121  0.054954159   -4.8368924    1.2928803      1024000 
   55000   0.87555789   -4.8588887   -4.8588887   -3.5455546   0.12653089   -4.8588887    1.3133342      1024000 
   56000   0.88739908   -4.8784723   -4.8784723   -3.5473764   0.16941562   -4.8784723    1.3310959      1024000 
   57000   0.88967793   -4.8840531   -4.8840531   -3.5495389   0.18661945   -4.8840531    1.3345142      1024000 
   58000   0.88562853   -4.8800561   -4.8800561    -3.551616   0.15900704   -4.8800561    1.3284401      1024000 
   59000   0.87662455   -4.8689271   -4.8689271   -3.5539929   0.11852488   -4.8689271    1.3149342      1024000 
   60000   0.86609377   -4.8554779   -4.8554779   -3.5563399  0.071933815   -4.8554779     1.299138      1024000 
   61000   0.85700742   -4.8445491   -4.8445491   -3.5590406  0.041432773   -4.8445491    1.2855085      1024000 
   62000    0.8552233   -4.8450189   -4.8450189   -3.5621866  0.043430907   -4.8450189    1.2828324      1024000 
   63000   0.85799123   -4.8532964   -4.8532964   -3.5663122  0.064818727   -4.8532964    1.2869842      1024000 
   64000    0.8660888   -4.8697345   -4.8697345    -3.570604   0.11041785   -4.8697345    1.2991306      1024000 
   65000   0.87990091   -4.8952109   -4.8952109   -3.5753623   0.18022869   -4.8952109    1.3198487      1024000 
   66000   0.89505924    -4.923933    -4.923933   -3.5813469   0.28554743    -4.923933    1.3425861      1024000 
   67000   0.90812524   -4.9501162   -4.9501162   -3.5879311   0.38901502   -4.9501162    1.3621851      1024000 
   68000   0.91342636   -4.9669762   -4.9669762   -3.5968395   0.46108441   -4.9669762    1.3701368      1024000 
   69000   0.91046113   -4.9734615   -4.9734615   -3.6077725   0.47847552   -4.9734615    1.3656889      1024000 
   70000   0.89745242   -4.9687167   -4.9687167   -3.6225408   0.43060229   -4.9687167    1.3461759      1024000 
   71000   0.87785951   -4.9570026   -4.9570026   -3.6402161    0.3438167   -4.9570026    1.3167866      1024000 
   72000   0.85305883    -4.937004    -4.937004   -3.6574183   0.24516795    -4.937004    1.2795856      1024000 
   73000   0.83034872   -4.9164424   -4.9164424   -3.6709219   0.18864184   -4.9164424    1.2455206      1024000 
   74000   0.81546296   -4.9154723   -4.9154723   -3.6922804    0.2658309   -4.9154723     1.223192      1024000 
   75000   0.80740993    -4.933725    -4.933725   -3.7226126   0.33884509    -4.933725    1.2111124      1024000 
   76000   0.80726009   -4.9590907   -4.9590907   -3.7482031   0.32411791   -4.9590907    1.2108877      1024000 
   77000    0.8102247   -4.9823199   -4.9823199   -3.7669853   0.30497756   -4.9823199    1.2153346      1024000 
   78000   0.81411148    -5.001908    -5.001908   -3.7807433   0.32675651    -5.001908    1.2211647      1024000 
   79000   0.82139906   -5.0225171   -5.0225171    -3.790421   0.36914589   -5.0225171    1.2320961      1024000 
   80000   0.82935831   -5.0429236   -5.0429236   -3.7988887   0.43117328   -5.0429236    1.2440349      1024000 
   81000   0.82537555   -5.0442546   -5.0442546   -3.8061938   0.41525709   -5.0442546    1.2380608      1024000 
   82000   0.80684301   -5.0239803   -5.0239803   -3.8137183   0.30549641   -5.0239803    1.2102621      1024000 
   83000    0.7871581   -5.0025623   -5.0025623   -3.8218276   0.22204007   -5.0025623    1.1807348      1024000 
   84000   0.77152615    -4.987494    -4.987494   -3.8302071   0.15767438    -4.987494    1.1572869      1024000 
   85000   0.75787041   -4.9755043   -4.9755043    -3.838701   0.11518845   -4.9755043    1.1368033      1024000 
   86000   0.74747506   -4.9680592   -4.9680592   -3.8468489  0.069044501   -4.9680592    1.1212103      1024000 
   87000   0.74027388    -4.963896    -4.963896   -3.8534874 0.0071948558    -4.963896    1.1104086      1024000 
   88000   0.73328393   -4.9575443   -4.9575443   -3.8576207 -0.047542785   -4.9575443    1.0999237      1024000 
   89000   0.72677845   -4.9482753   -4.9482753   -3.8581098 -0.099529455   -4.9482753    1.0901655      1024000 
   90000   0.72015856   -4.9367056   -4.9367056   -3.8564699  -0.14759875   -4.9367056    1.0802356      1024000 
   91000   0.71260447   -4.9219252   -4.9219252   -3.8530206  -0.18035091   -4.9219252    1.0689045      1024000 
   92000   0.70573227   -4.9070899   -4.9070899   -3.8484937  -0.20711855   -4.9070899    1.0585962      1024000 
   93000    0.6999538   -4.8955218   -4.8955218   -3.8455933   -0.2287614   -4.8955218    1.0499286      1024000 
   94000   0.69442303   -4.8859179   -4.8859179   -3.8442854  -0.23340693   -4.8859179    1.0416324      1024000 
   95000   0.69084346   -4.8805486   -4.8805486   -3.8442855  -0.23837105   -4.8805486    1.0362631      1024000 
   96000   0.68923573   -4.8789558   -4.8789558   -3.8451043  -0.23413715   -4.8789558    1.0338515      1024000 
   97000   0.68938109   -4.8812145   -4.8812145    -3.847145  -0.22863478   -4.8812145    1.0340695      1024000 
   98000   0.69189945   -4.8871224   -4.8871224   -3.8492753  -0.21158924   -4.8871224    1.0378471      1024000 
   99000   0.69881388   -4.8990041   -4.8990041   -3.8507854  -0.20049897   -4.8990041    1.0482187      1024000 
  100000   0.70419454   -4.9082928   -4.9082928   -3.8520031  -0.17535162   -4.9082928    1.0562897      1024000 
  101000     0.712961   -4.9232039   -4.9232039   -3.8537646  -0.14853163   -4.9232039    1.0694393      1024000 
  102000   0.72177998   -4.9372536   -4.9372536   -3.8545858   -0.1150024   -4.9372536    1.0826678      1024000 
  103000   0.73025291   -4.9519039   -4.9519039   -3.8565268 -0.075096457   -4.9519039    1.0953771      1024000 
  104000   0.73660786   -4.9632861   -4.9632861   -3.8583766 -0.032248297   -4.9632861    1.1049095      1024000 
  105000   0.74404727   -4.9773208   -4.9773208   -3.8612521 -0.0024717962   -4.9773208    1.1160686      1024000 
  106000   0.74789771   -4.9874753   -4.9874753   -3.8656311  0.041413223   -4.9874753    1.1218443      1024000 
  107000   0.75309728   -5.0006537   -5.0006537   -3.8710101  0.080400314   -5.0006537    1.1296436      1024000 
  108000    0.7579158   -5.0151793   -5.0151793   -3.8783079   0.12090816   -5.0151793    1.1368714      1024000 
  109000   0.76108519   -5.0281632   -5.0281632   -3.8865377    0.1612797   -5.0281632    1.1416255      1024000 
  110000   0.76474802   -5.0422336   -5.0422336   -3.8951139   0.19664534   -5.0422336    1.1471197      1024000 
  111000   0.76768293   -5.0550556   -5.0550556   -3.9035336   0.21979287   -5.0550556    1.1515221      1024000 
  112000   0.76837925   -5.0639471   -5.0639471   -3.9113805   0.23294134   -5.0639471    1.1525665      1024000 
  113000   0.76935446   -5.0725893   -5.0725893   -3.9185599   0.23492586   -5.0725893    1.1540294      1024000 
  114000   0.76567094   -5.0726876   -5.0726876   -3.9241835   0.23488727   -5.0726876    1.1485041      1024000 
  115000   0.76211628    -5.072874    -5.072874   -3.9297019    0.2151785    -5.072874    1.1431721      1024000 
  116000   0.75626204   -5.0690729   -5.0690729   -3.9346822   0.18985873   -5.0690729    1.1343908      1024000 
  117000   0.74940022   -5.0636862   -5.0636862   -3.9395881    0.1576979   -5.0636862     1.124098      1024000 
  118000    0.7428878   -5.0574864   -5.0574864    -3.943157   0.11375376   -5.0574864    1.1143294      1024000 
  119000   0.73480622    -5.049144    -5.049144   -3.9469369  0.076082451    -5.049144    1.1022071      1024000 
  120000   0.72896373   -5.0435313   -5.0435313   -3.9500879   0.03165604   -5.0435313    1.0934434      1024000 
  121000   0.72302103   -5.0360933   -5.0360933    -3.951564 -0.0042681244   -5.0360933    1.0845293      1024000 
  122000   0.71733597   -5.0281362   -5.0281362   -3.9521344 -0.040519847   -5.0281362    1.0760018      1024000 
  123000   0.71140936   -5.0186594   -5.0186594   -3.9515475 -0.070311192   -5.0186594    1.0671119      1024000 
  124000   0.70648888   -5.0105033   -5.0105033   -3.9507721 -0.097255926   -5.0105033    1.0597312      1024000 
  125000   0.70331178   -5.0041419   -5.0041419   -3.9491763  -0.12588937   -5.0041419    1.0549655      1024000 
  126000   0.69901863   -4.9959183   -4.9959183   -3.9473925  -0.13500302   -4.9959183    1.0485258      1024000 
  127000   0.69561497   -4.9901936   -4.9901936   -3.9467732  -0.14532127   -4.9901936    1.0434203      1024000 
  128000   0.69343155   -4.9865494   -4.9865494   -3.9464042  -0.15280056   -4.9865494    1.0401452      1024000 
  129000   0.69420173   -4.9873511   -4.9873511   -3.9460506  -0.15861719   -4.9873511    1.0413005      1024000 
  130000   0.69574266   -4.9884706   -4.9884706   -3.9448588  -0.14892412   -4.9884706    1.0436119      1024000 
  131000   0.69708609   -4.9906631   -4.9906631   -3.9450361  -0.13647831   -4.9906631     1.045627      1024000 
  132000   0.70076933   -4.9970532   -4.9970532   -3.9459014  -0.12418477   -4.9970532    1.0511519      1024000 
  133000   0.70530968   -5.0045365   -5.0045365   -3.9465741  -0.10717202   -5.0045365    1.0579624      1024000 
  134000   0.71086016   -5.0133312   -5.0133312   -3.9470431 -0.087289229   -5.0133312    1.0662881      1024000 
  135000   0.71499312    -5.020615    -5.020615   -3.9481275 -0.055950796    -5.020615    1.0724875      1024000 
  136000   0.71955194    -5.028904    -5.028904   -3.9495783 -0.023563239    -5.028904    1.0793257      1024000 
  137000   0.72474887   -5.0388751   -5.0388751    -3.951754 0.0068695433   -5.0388751    1.0871211      1024000 
  138000   0.72781516   -5.0474251   -5.0474251   -3.9557045  0.038083996   -5.0474251    1.0917205      1024000 
  139000   0.73189574   -5.0568213   -5.0568213   -3.9589799  0.061622615   -5.0568213    1.0978414      1024000 
  140000   0.73365289   -5.0640682   -5.0640682   -3.9635911  0.089460703   -5.0640682    1.1004771      1024000 
  141000   0.73750174   -5.0747545   -5.0747545   -3.9685041   0.10529465   -5.0747545    1.1062504      1024000 
  142000   0.73751272   -5.0807253   -5.0807253   -3.9744585   0.12804582   -5.0807253    1.1062668      1024000 
  143000   0.73884444   -5.0877394   -5.0877394    -3.979475    0.1392378   -5.0877394    1.1082644      1024000 
  144000   0.73947331   -5.0934443   -5.0934443   -3.9842366   0.14016263   -5.0934443    1.1092077      1024000 
  145000   0.73772716    -5.095161    -5.095161   -3.9885725   0.14417278    -5.095161    1.1065885      1024000 
  146000   0.73536033   -5.0962149   -5.0962149   -3.9931767   0.13701352   -5.0962149    1.1030383      1024000 
  147000   0.73292511   -5.0962003   -5.0962003   -3.9968149   0.12775081   -5.0962003    1.0993854      1024000 
  148000   0.72942857   -5.0937705   -5.0937705   -3.9996298   0.10871611   -5.0937705    1.0941406      1024000 
  149000   0.72670091   -5.0931088   -5.0931088   -4.0030596   0.08493373   -5.0931088    1.0900492      1024000 
  150000   0.72155948   -5.0878235   -5.0878235   -4.0054864  0.056863776   -5.0878235     1.082337      1024000 
  151000   0.71715633   -5.0837275   -5.0837275   -4.0079952  0.038248145   -5.0837275    1.0757323      1024000 
  152000   0.71355111   -5.0803718   -5.0803718   -4.0100473 0.0087875283   -5.0803718    1.0703245      1024000 
  153000   0.70957068   -5.0745908   -5.0745908   -4.0102369 -0.011890374   -5.0745908    1.0643539      1024000 
  154000   0.70570321   -5.0691332   -5.0691332   -4.0105806 -0.034525988   -5.0691332    1.0585527      1024000 
  155000   0.70227928   -5.0644767   -5.0644767   -4.0110599 -0.052818372   -5.0644767    1.0534168      1024000 
  156000      0.70081    -5.061305    -5.061305   -4.0100921 -0.069446237    -5.061305    1.0512129      1024000 
  157000    0.6989598   -5.0579244   -5.0579244   -4.0094868 -0.079119356   -5.0579244    1.0484376      1024000 
  158000   0.69679942   -5.0538938   -5.0538938   -4.0086967  -0.08327115   -5.0538938     1.045197      1024000 
  159000   0.69784912   -5.0551753   -5.0551753   -4.0084038 -0.092438366   -5.0551753    1.0467715      1024000 
  160000   0.69627336   -5.0528821   -5.0528821   -4.0084742  -0.08537026   -5.0528821    1.0444079      1024000 
  161000   0.69678804   -5.0543477   -5.0543477   -4.0091678 -0.083524244   -5.0543477    1.0451799      1024000 
  162000   0.69846685   -5.0571154   -5.0571154   -4.0094172 -0.083997028   -5.0571154    1.0476982      1024000 
  163000   0.70062689   -5.0600917   -5.0600917   -4.0091535 -0.068556244   -5.0600917    1.0509382      1024000 
  164000   0.70260281   -5.0638125   -5.0638125   -4.0099104 -0.052846089   -5.0638125    1.0539021      1024000 
  165000   0.70517495   -5.0694685   -5.0694685   -4.0117083 -0.042076483   -5.0694685    1.0577603      1024000 
  166000   0.70696982   -5.0731064   -5.0731064   -4.0126538 -0.018649902   -5.0731064    1.0604526      1024000 
  167000   0.71021694   -5.0800255   -5.0800255   -4.0147023 -0.0061739062   -5.0800255    1.0653232      1024000 
  168000   0.71298778    -5.086568    -5.086568   -4.0170885  0.013885345    -5.086568    1.0694795      1024000 
  169000   0.71390279   -5.0903371   -5.0903371   -4.0194851  0.040224321   -5.0903371     1.070852      1024000 
  170000   0.71681502   -5.0971833   -5.0971833   -4.0219629  0.048255618   -5.0971833    1.0752203      1024000 
  171000   0.71849458   -5.1023732   -5.1023732   -4.0246335    0.0604811   -5.1023732    1.0777397      1024000 
  172000   0.71950904   -5.1065214   -5.1065214     -4.02726  0.073688241   -5.1065214    1.0792614      1024000 
  173000   0.72213852    -5.113473    -5.113473   -4.0302674  0.075004136    -5.113473    1.0832056      1024000 
  174000   0.72056516   -5.1147018   -5.1147018   -4.0338563  0.085526042   -5.1147018    1.0808455      1024000 
  175000   0.72002229   -5.1174887   -5.1174887   -4.0374574  0.089793211   -5.1174887    1.0800312      1024000 
  176000   0.71876094   -5.1186372   -5.1186372   -4.0404979  0.086056239   -5.1186372    1.0781392      1024000 
  177000   0.71852102   -5.1210508   -5.1210508   -4.0432715  0.071894866   -5.1210508    1.0777793      1024000 
  178000   0.71579405   -5.1203959   -5.1203959    -4.046707  0.068512574   -5.1203959    1.0736889      1024000 
  179000   0.71349149   -5.1192166   -5.1192166   -4.0489816  0.058214601   -5.1192166    1.0702351      1024000 
  180000   0.71102338   -5.1177544   -5.1177544   -4.0512215  0.046080315   -5.1177544    1.0665329      1024000 
  181000    0.7097222   -5.1178902   -5.1178902   -4.0533091  0.025625126   -5.1178902    1.0645811      1024000 
  182000   0.70611902   -5.1137733   -5.1137733   -4.0545969  0.012340715   -5.1137733    1.0591764      1024000 
  183000   0.70412934   -5.1111147   -5.1111147   -4.0549229 -0.00033289271   -5.1111147    1.0561919      1024000 
  184000   0.70232499   -5.1091519   -5.1091519   -4.0556665 -0.012689626   -5.1091519    1.0534853      1024000 
  185000   0.69947442   -5.1059006   -5.1059006   -4.0566911 -0.022231125   -5.1059006    1.0492095      1024000 
  186000   0.69902282   -5.1056992   -5.1056992   -4.0571671 -0.035845674   -5.1056992    1.0485321      1024000 
  187000   0.69818855   -5.1052833   -5.1052833   -4.0580026 -0.045742196   -5.1052833    1.0472807      1024000 
  188000   0.69706421   -5.1036588   -5.1036588   -4.0580646 -0.045677708   -5.1036588    1.0455942      1024000 
  189000   0.69667649    -5.103711    -5.103711   -4.0586984 -0.050097883    -5.103711    1.0450126      1024000 
  190000   0.69526566   -5.1017334   -5.1017334    -4.058837 -0.045186927   -5.1017334    1.0428964      1024000 
  191000   0.69633835   -5.1032303   -5.1032303   -4.0587249  -0.04437848   -5.1032303    1.0445054      1024000 
  192000   0.69804774   -5.1070489   -5.1070489   -4.0599794 -0.045994045   -5.1070489    1.0470695      1024000 
  193000     0.698077   -5.1080888   -5.1080888   -4.0609754 -0.037536536   -5.1080888    1.0471134      1024000 
  194000   0.69933507    -5.110833    -5.110833   -4.0618326 -0.026335998    -5.110833    1.0490005      1024000 
  195000    0.7010298   -5.1147481   -5.1147481   -4.0632056 -0.017306538   -5.1147481    1.0515426      1024000 
  196000   0.70286331   -5.1185915   -5.1185915   -4.0642987 -0.0092718154   -5.1185915    1.0542928      1024000 
  197000    0.7050746    -5.122975    -5.122975   -4.0653653 -0.00091285803    -5.122975    1.0576098      1024000 
  198000    0.7055496   -5.1266299   -5.1266299   -4.0683076  0.012950807   -5.1266299    1.0583223      1024000 
  199000   0.70702893   -5.1305023   -5.1305023    -4.069961  0.025042256   -5.1305023    1.0605412      1024000 
  200000   0.70777669   -5.1338502   -5.1338502   -4.0721874  0.033564922   -5.1338502    1.0616629      1024000 
  201000   0.70881178   -5.1380353   -5.1380353   -4.0748197  0.039990032   -5.1380353    1.0632155      1024000 
  202000   0.70910304   -5.1410057   -5.1410057   -4.0773533   0.04516177   -5.1410057    1.0636524      1024000 
  203000   0.70869039   -5.1421882   -5.1421882   -4.0791547  0.051522386   -5.1421882    1.0630334      1024000 
  204000   0.70825787   -5.1444022   -5.1444022   -4.0820175  0.057821745   -5.1444022    1.0623846      1024000 
  205000   0.70838178   -5.1474629   -5.1474629   -4.0848924  0.050052629   -5.1474629    1.0625705      1024000 
  206000   0.70736418   -5.1482514   -5.1482514   -4.0872073  0.046205845   -5.1482514    1.0610441      1024000 
  207000   0.70672034   -5.1510725   -5.1510725   -4.0909941  0.040980666   -5.1510725    1.0600784      1024000 
  208000    0.7050971   -5.1501644   -5.1501644   -4.0925209  0.037538675   -5.1501644    1.0576435      1024000 
  209000   0.70502133   -5.1522139   -5.1522139   -4.0946841  0.028940948   -5.1522139    1.0575299      1024000 
  210000   0.70371501   -5.1518543   -5.1518543    -4.096284   0.02021574   -5.1518543    1.0555704      1024000 
  211000   0.70122558   -5.1497132   -5.1497132    -4.097877  0.016929697   -5.1497132    1.0518362      1024000 
  212000   0.70075281   -5.1506806   -5.1506806   -4.0995535 0.0014927898   -5.1506806    1.0511271      1024000 
  213000   0.69955236   -5.1501445   -5.1501445   -4.1008181 -0.00010966492   -5.1501445    1.0493264      1024000 
  214000   0.69674606   -5.1477992   -5.1477992   -4.1026822 -0.0089247756   -5.1477992     1.045117      1024000 
  215000   0.69534891   -5.1467216   -5.1467216   -4.1037003 -0.015206609   -5.1467216    1.0430213      1024000 
  216000   0.69496559    -5.147315    -5.147315   -4.1048687 -0.017697164    -5.147315    1.0424463      1024000 
  217000   0.69592691   -5.1502339   -5.1502339   -4.1063457 -0.024329859   -5.1502339    1.0438882      1024000 
  218000   0.69497255   -5.1503567   -5.1503567      -4.1079 -0.028761475   -5.1503567    1.0424567      1024000 
  219000   0.69409454   -5.1491456   -5.1491456   -4.1080059 -0.027897578   -5.1491456    1.0411397      1024000 
  220000   0.69539017   -5.1520972   -5.1520972    -4.109014 -0.023485856   -5.1520972    1.0430831      1024000 
  221000   0.69491343   -5.1529241   -5.1529241   -4.1105561 -0.018176266   -5.1529241     1.042368      1024000 
  222000   0.69607545   -5.1557181   -5.1557181   -4.1116071 -0.017389089   -5.1557181     1.044111      1024000 
  223000   0.69642303   -5.1571092   -5.1571092   -4.1124768  -0.01308177   -5.1571092    1.0446324      1024000 
  224000   0.69670412   -5.1587163   -5.1587163   -4.1136623 -0.0081669748   -5.1587163    1.0450541      1024000 
  225000   0.69755662   -5.1616901   -5.1616901   -4.1153573 -0.001162876   -5.1616901    1.0463328      1024000 
  226000   0.69786479   -5.1641676   -5.1641676   -4.1173726 0.0017896971   -5.1641676    1.0467951      1024000 
  227000   0.69933797    -5.167154    -5.167154   -4.1181491 0.0083251777    -5.167154    1.0490048      1024000 
  228000   0.69980968   -5.1696142   -5.1696142   -4.1199018  0.021983673   -5.1696142    1.0497124      1024000 
  229000   0.70098309   -5.1739418   -5.1739418   -4.1224693  0.020273728   -5.1739418    1.0514725      1024000 
  230000   0.70096132   -5.1761209   -5.1761209    -4.124681   0.02916565   -5.1761209    1.0514398      1024000 
  231000   0.70078898   -5.1780781   -5.1780781   -4.1268967  0.033217409   -5.1780781    1.0511813      1024000 
  232000   0.70029959   -5.1794352   -5.1794352   -4.1289879  0.036655894   -5.1794352    1.0504473      1024000 
  233000   0.70224445   -5.1837657   -5.1837657   -4.1304012  0.031385928   -5.1837657    1.0533645      1024000 
  234000   0.70053189   -5.1830725   -5.1830725   -4.1322768  0.035546829   -5.1830725    1.0507957      1024000 
  235000   0.70072858   -5.1855756   -5.1855756   -4.1344848   0.02569488   -5.1855756    1.0510907      1024000 
  236000    0.6996083   -5.1865698   -5.1865698   -4.1371594  0.022305456   -5.1865698    1.0494103      1024000 
  237000   0.69871955   -5.1876502   -5.1876502    -4.139573  0.022714937   -5.1876502    1.0480772      1024000 
  238000   0.69722103   -5.1874217   -5.1874217   -4.1415923   0.02060185   -5.1874217    1.0458294      1024000 
  239000   0.69646988   -5.1886129   -5.1886129   -4.1439102  0.017087776   -5.1886129    1.0447027      1024000 
  240000   0.69789708   -5.1928452   -5.1928452   -4.1460017 5.2153747e-05   -5.1928452    1.0468435      1024000 
  241000   0.69609708   -5.1912872   -5.1912872   -4.1471437 0.0026680846   -5.1912872    1.0441435      1024000 
  242000   0.69599884   -5.1923965   -5.1923965   -4.1484004 -0.0010067932   -5.1923965    1.0439961      1024000 
  243000   0.69456452   -5.1918799   -5.1918799   -4.1500352 -0.003719516   -5.1918799    1.0418447      1024000 
  244000   0.69504534    -5.193917    -5.193917   -4.1513511 -0.0088405698    -5.193917    1.0425659      1024000 
  245000   0.69396239   -5.1932027   -5.1932027   -4.1522612 -0.0075058092   -5.1932027    1.0409415      1024000 
  246000   0.69376663   -5.1941649   -5.1941649   -4.1535171 -0.0072248579   -5.1941649    1.0406478      1024000 
  247000   0.69348244   -5.1954241   -5.1954241   -4.1552025 -0.0073094352   -5.1954241    1.0402216      1024000 
  248000   0.69383406   -5.1975067   -5.1975067   -4.1567577 -0.0066260836   -5.1975067     1.040749      1024000 
  249000   0.69408679    -5.199309    -5.199309   -4.1581809 -0.006081443    -5.199309    1.0411281      1024000 
  250000   0.69391001    -5.200763    -5.200763   -4.1599001 -0.0053577391    -5.200763    1.0408629      1024000 
  251000   0.69385477   -5.2036327   -5.2036327   -4.1628527 -0.0056431988   -5.2036327      1.04078      1024000 
  252000   0.69392995   -5.2051544   -5.2051544   -4.1642616 0.0012272962   -5.2051544    1.0408928      1024000 
  253000   0.69421018   -5.2072197   -5.2072197   -4.1659066 0.0078713529   -5.2072197    1.0413132      1024000 
  254000   0.69498118   -5.2109064   -5.2109064   -4.1684367 0.0052767468   -5.2109064    1.0424696      1024000 
  255000   0.69478894   -5.2122292   -5.2122292   -4.1700479 0.0084721337   -5.2122292    1.0421813      1024000 
  256000    0.6947132   -5.2137813   -5.2137813   -4.1717136  0.011163043   -5.2137813    1.0420677      1024000 
  257000   0.69532155   -5.2169282   -5.2169282    -4.173948  0.012089597   -5.2169282    1.0429802      1024000 
  258000   0.69557481   -5.2190022   -5.2190022   -4.1756421  0.014749748   -5.2190022    1.0433601      1024000 
  259000   0.69580207   -5.2210132   -5.2210132   -4.1773122  0.017532637   -5.2210132     1.043701      1024000 
  260000     0.696666   -5.2246181   -5.2246181   -4.1796212  0.013767728   -5.2246181    1.0449969      1024000 
  261000   0.69551684   -5.2245308   -5.2245308   -4.1812577  0.020511158   -5.2245308    1.0432731      1024000 
  262000   0.69639132   -5.2276399   -5.2276399   -4.1830551  0.018779171   -5.2276399    1.0445849      1024000 
  263000    0.6953719   -5.2277122   -5.2277122   -4.1846565  0.017120182   -5.2277122    1.0430557      1024000 
  264000   0.69483862   -5.2286377   -5.2286377   -4.1863819  0.019247954   -5.2286377    1.0422558      1024000 
  265000   0.69472137   -5.2309749   -5.2309749    -4.188895  0.017316598   -5.2309749    1.0420799      1024000 
  266000   0.69346093   -5.2311886   -5.2311886   -4.1909993  0.016170682   -5.2311886    1.0401893      1024000 
  267000   0.69381672   -5.2339336   -5.2339336   -4.1932106 0.0077404648   -5.2339336     1.040723      1024000 
  268000   0.69215928   -5.2335919   -5.2335919   -4.1953551 0.0098426552   -5.2335919    1.0382368      1024000 
  269000   0.69239497   -5.2358178   -5.2358178   -4.1972275 0.0058430638   -5.2358178    1.0385903      1024000 
  270000   0.69264384   -5.2378337   -5.2378337   -4.1988701 0.0061328844   -5.2378337    1.0389637      1024000 
  271000   0.69255504   -5.2388411   -5.2388411   -4.2000106  0.003129261   -5.2388411    1.0388305      1024000 
  272000   0.69238618     -5.23977     -5.23977   -4.2011929 0.0039028531     -5.23977    1.0385772      1024000 
  273000   0.69259698   -5.2405434   -5.2405434   -4.2016501 0.0036192918   -5.2405434    1.0388934      1024000 
  274000   0.69300589   -5.2426858   -5.2426858    -4.203179 0.0014396918   -5.2426858    1.0395067      1024000 
  275000   0.69170507   -5.2427344   -5.2427344   -4.2051789 0.0041266417   -5.2427344    1.0375555      1024000 
  276000   0.69186074   -5.2445975   -5.2445975   -4.2068085 0.00090488271   -5.2445975     1.037789      1024000 
  277000   0.69149986   -5.2449375   -5.2449375   -4.2076898 0.0024920656   -5.2449375    1.0372477      1024000 
  278000   0.69238529   -5.2473952   -5.2473952   -4.2088194 0.0022683791   -5.2473952    1.0385758      1024000 
  279000    0.6918342    -5.248125    -5.248125   -4.2103758 0.0052407692    -5.248125    1.0377492      1024000 
  280000   0.69216884   -5.2497195   -5.2497195   -4.2114684 0.0091129181   -5.2497195    1.0382512      1024000 
  281000   0.69273281   -5.2519787   -5.2519787   -4.2128816 0.0078363872   -5.2519787    1.0390971      1024000 
  282000   0.69268714   -5.2540446   -5.2540446    -4.215016 0.0036022415   -5.2540446    1.0390286      1024000 
  283000   0.69278592   -5.2556225   -5.2556225   -4.2164457 0.0087199039   -5.2556225    1.0391768      1024000 
  284000   0.69296725   -5.2573665   -5.2573665   -4.2179177 0.0084969117   -5.2573665    1.0394488      1024000 
  285000    0.6919986   -5.2577813   -5.2577813   -4.2197855  0.010377049   -5.2577813    1.0379958      1024000 
  286000   0.69262058   -5.2607873   -5.2607873   -4.2218586 0.0060660324   -5.2607873    1.0389288      1024000 
  287000   0.69191615   -5.2616393   -5.2616393   -4.2237672 0.0040039914   -5.2616393    1.0378721      1024000 
  288000   0.69223846   -5.2635977   -5.2635977   -4.2252421 0.0049279632   -5.2635977    1.0383556      1024000 
  289000   0.69244302   -5.2645976   -5.2645976   -4.2259352 0.0086488176   -5.2645976    1.0386624      1024000 
  290000   0.69231173     -5.26626     -5.26626   -4.2277945  0.015002365     -5.26626    1.0384655      1024000 
  291000   0.69205926   -5.2674806   -5.2674806   -4.2293938 0.0088925437   -5.2674806    1.0380868      1024000 
  292000   0.69166298   -5.2679706   -5.2679706   -4.2304782 0.0092393155   -5.2679706    1.0374924      1024000 
  293000   0.69127928   -5.2694317   -5.2694317   -4.2325148 0.0084266178   -5.2694317    1.0369168      1024000 
  294000   0.69247797   -5.2725932   -5.2725932   -4.2338784 0.0035087523   -5.2725932    1.0387149      1024000 
  295000   0.69135124   -5.2732126   -5.2732126   -4.2361878 0.0072592227   -5.2732126    1.0370248      1024000 
  296000   0.69059128   -5.2737966   -5.2737966   -4.2379118  0.009541847   -5.2737966    1.0358848      1024000 
  297000    0.6902185   -5.2749441   -5.2749441   -4.2396184 0.0076086877   -5.2749441    1.0353257      1024000 
  298000   0.69002893   -5.2770184   -5.2770184   -4.2419771 0.0041206471   -5.2770184    1.0350413      1024000 
  299000   0.69005831   -5.2781624   -5.2781624    -4.243077 0.0072773994   -5.2781624    1.0350854      1024000 
  300000   0.68900017   -5.2776744   -5.2776744   -4.2441762 0.0085735403   -5.2776744    1.0334982      1024000 
  301000   0.69097012   -5.2819932   -5.2819932   -4.2455402 0.0031692843   -5.2819932    1.0364531      1024000 
  302000   0.69001134   -5.2822412   -5.2822412   -4.2472263 0.0031906581   -5.2822412    1.0350149      1024000 
  303000   0.69092596   -5.2849678   -5.2849678   -4.2485809 0.0029849934   -5.2849678    1.0363868      1024000 
  304000   0.69018062   -5.2854534   -5.2854534   -4.2501846 0.0041083281   -5.2854534    1.0352688      1024000 
  305000   0.68957383   -5.2867572   -5.2867572   -4.2523986 0.0031980445   -5.2867572    1.0343586      1024000 
  306000    0.6895468   -5.2873696   -5.2873696   -4.2530515 0.0076613215   -5.2873696    1.0343181      1024000 
  307000   0.68938155   -5.2888723   -5.2888723   -4.2548021  0.010712692   -5.2888723    1.0340702      1024000 
  308000   0.69051657   -5.2917275   -5.2917275   -4.2559547  0.010691111   -5.2917275    1.0357728      1024000 
  309000   0.68976842   -5.2914792   -5.2914792   -4.2568287  0.013132294   -5.2914792    1.0346505      1024000 
  310000   0.69061184   -5.2945841   -5.2945841   -4.2586684 0.0052302106   -5.2945841    1.0359157      1024000 
  311000   0.68967504   -5.2943359   -5.2943359   -4.2598254 0.0097425629   -5.2943359    1.0345105      1024000 
  312000   0.69000652   -5.2967584   -5.2967584   -4.2617507 0.0094018472   -5.2967584    1.0350077      1024000 
  313000   0.69029532   -5.2989378   -5.2989378    -4.263497 0.0074346035   -5.2989378    1.0354409      1024000 
  314000   0.69017285   -5.3004644   -5.3004644   -4.2652072 0.0084508069   -5.3004644    1.0352572      1024000 
  315000   0.68954819   -5.3002592   -5.3002592    -4.265939 0.0075197419   -5.3002592    1.0343202      1024000 
  316000   0.69011654   -5.3027101   -5.3027101   -4.2675374  0.011160291   -5.3027101    1.0351727      1024000 
  317000   0.68966527   -5.3032147   -5.3032147   -4.2687189 0.0096482286   -5.3032147    1.0344958      1024000 
  318000   0.68985719   -5.3044902   -5.3044902   -4.2697065  0.008474397   -5.3044902    1.0347837      1024000 
  319000   0.68893329   -5.3048731   -5.3048731   -4.2714753  0.010012019   -5.3048731    1.0333978      1024000 
  320000   0.68879151   -5.3055483   -5.3055483   -4.2723631  0.014286935   -5.3055483    1.0331852      1024000 
  321000   0.68930126    -5.307714    -5.307714   -4.2737642 0.0089995517    -5.307714    1.0339498      1024000 
  322000   0.68992918   -5.3089536   -5.3089536   -4.2740619 0.0090068811   -5.3089536    1.0348917      1024000 
  323000   0.69001329   -5.3108219   -5.3108219    -4.275804 0.0062747946   -5.3108219    1.0350178      1024000 
  324000   0.68967015   -5.3110904   -5.3110904   -4.2765873 0.0057720782   -5.3110904    1.0345031      1024000 
  325000   0.68849949   -5.3111203   -5.3111203   -4.2783731 0.0034460389   -5.3111203    1.0327471      1024000 
  326000   0.68889174   -5.3129363   -5.3129363   -4.2796008  0.002037217   -5.3129363    1.0333355      1024000 
  327000   0.68947939    -5.314928    -5.314928   -4.2807111 0.00085013047    -5.314928     1.034217      1024000 
  328000   0.68824918   -5.3136395   -5.3136395   -4.2812679 0.0040831022   -5.3136395    1.0323717      1024000 
  329000   0.68901583   -5.3150384   -5.3150384   -4.2815168 0.0053685079   -5.3150384    1.0335216      1024000 
  330000    0.6890164   -5.3155409   -5.3155409   -4.2820183 0.0040705987   -5.3155409    1.0335225      1024000 
  331000   0.68909038   -5.3172466   -5.3172466   -4.2836131 -0.0024374902   -5.3172466    1.0336335      1024000 
  332000   0.68842258   -5.3178006   -5.3178006   -4.2851688 -0.0021037997   -5.3178006    1.0326318      1024000 
  333000   0.68921957    -5.319691    -5.319691   -4.2858637 -0.0035941147    -5.319691    1.0338273      1024000 
  334000   0.68900132   -5.3200287   -5.3200287   -4.2865288 -0.0026749154   -5.3200287    1.0334999      1024000 
  335000   0.68810851   -5.3194898   -5.3194898   -4.2873292 0.00062524813   -5.3194898    1.0321607      1024000 
  336000   0.68851702   -5.3205606   -5.3205606   -4.2877871 0.0036894204   -5.3205606    1.0327734      1024000 
  337000   0.68770422   -5.3208102   -5.3208102   -4.2892559 0.00032921123   -5.3208102    1.0315542      1024000 
  338000   0.68873033   -5.3233999   -5.3233999   -4.2903065 -0.0042398806   -5.3233999    1.0330934      1024000 
  339000    0.6892943   -5.3253727   -5.3253727   -4.2914334 -0.0032121595   -5.3253727    1.0339394      1024000 
  340000   0.68795992   -5.3243281   -5.3243281   -4.2923904 -0.00010574281   -5.3243281    1.0319378      1024000 
  341000   0.68855712   -5.3262104   -5.3262104   -4.2933768 -0.0039569281   -5.3262104    1.0328336      1024000 
  342000   0.68892317   -5.3268979   -5.3268979   -4.2935153 0.00090298009   -5.3268979    1.0333827      1024000 
  343000   0.68809419   -5.3264492   -5.3264492     -4.29431 -0.0021642033   -5.3264492    1.0321392      1024000 
  344000   0.68838051   -5.3285045   -5.3285045   -4.2959358 -0.0019105995   -5.3285045    1.0325687      1024000 
  345000   0.68850249   -5.3303383   -5.3303383   -4.2975867 -0.0034726833   -5.3303383    1.0327516      1024000 
  346000   0.68881912   -5.3321657   -5.3321657   -4.2989391 -0.0021942909   -5.3321657    1.0332266      1024000 
  347000   0.68859917   -5.3335831   -5.3335831   -4.3006864 -4.4842906e-05   -5.3335831    1.0328967      1024000 
  348000     0.688683   -5.3346359   -5.3346359   -4.3016135 -0.0042981565   -5.3346359    1.0330224      1024000 
  349000   0.68858903   -5.3349547   -5.3349547   -4.3020733 -0.0044435784   -5.3349547    1.0328814      1024000 
  350000   0.68800181   -5.3343587   -5.3343587   -4.3023581 -0.00093674855   -5.3343587    1.0320006      1024000 
  351000   0.68754578   -5.3352518   -5.3352518   -4.3039352 -0.0021300412   -5.3352518    1.0313166      1024000 
  352000   0.68766893   -5.3374123   -5.3374123    -4.305911 -0.0067704551   -5.3374123    1.0315013      1024000 
  353000   0.68713259   -5.3389758   -5.3389758   -4.3082791 -0.011050597   -5.3389758    1.0306968      1024000 
  354000   0.68794817   -5.3398477   -5.3398477   -4.3079276 -0.0074823625   -5.3398477    1.0319202      1024000 
  355000    0.6870321   -5.3396882   -5.3396882   -4.3091422 -0.0096579515   -5.3396882    1.0305461      1024000 
  356000   0.68714499   -5.3410792   -5.3410792   -4.3103638 -0.009359212   -5.3410792    1.0307154      1024000 
  357000   0.68743083   -5.3420824   -5.3420824   -4.3109383 -0.0086373994   -5.3420824    1.0311441      1024000 
  358000   0.68689031   -5.3420882   -5.3420882   -4.3117548 -0.0059941875   -5.3420882    1.0303334      1024000 
  359000   0.68741908   -5.3436976   -5.3436976   -4.3125711 -0.010340578   -5.3436976    1.0311265      1024000 
  360000   0.68720943   -5.3444175   -5.3444175   -4.3136055 -0.0098855378   -5.3444175    1.0308121      1024000 
  361000   0.68681394   -5.3443261   -5.3443261   -4.3141072 -0.0080135327   -5.3443261    1.0302188      1024000 
  362000    0.6867497   -5.3454717   -5.3454717   -4.3153492 -0.0085226616   -5.3454717    1.0301225      1024000 
  363000    0.6873958   -5.3473676   -5.3473676    -4.316276 -0.013849524   -5.3473676    1.0310916      1024000 
  364000   0.68712356   -5.3472827   -5.3472827   -4.3165994 -0.0090907401   -5.3472827    1.0306833      1024000 
  365000   0.68625775   -5.3467475   -5.3467475    -4.317363 -0.0085123785   -5.3467475    1.0293845      1024000 
  366000   0.68643269   -5.3472468   -5.3472468   -4.3175999 -0.0048950699   -5.3472468    1.0296469      1024000 
  367000   0.68701421   -5.3485129   -5.3485129   -4.3179937 -0.0077118669   -5.3485129    1.0305192      1024000 
  368000   0.68758604   -5.3501614   -5.3501614   -4.3187845  -0.01203314   -5.3501614     1.031377      1024000 
  369000   0.68750924   -5.3512685   -5.3512685   -4.3200067 -0.0095783574   -5.3512685    1.0312618      1024000 
  370000   0.68747178   -5.3514385   -5.3514385   -4.3202329 -0.0085807077   -5.3514385    1.0312056      1024000 
  371000   0.68719411    -5.352164    -5.352164   -4.3213749 -0.012173226    -5.352164    1.0307891      1024000 
  372000   0.68658692   -5.3522569   -5.3522569   -4.3223786 -0.0098522753   -5.3522569    1.0298783      1024000 
  373000   0.68696586   -5.3541796   -5.3541796   -4.3237329 -0.012440969   -5.3541796    1.0304467      1024000 
  374000   0.68610307   -5.3536185   -5.3536185    -4.324466 -0.0094573669   -5.3536185    1.0291525      1024000 
  375000   0.68676671   -5.3549299   -5.3549299   -4.3247819 -0.012340509   -5.3549299     1.030148      1024000 
  376000   0.68754174   -5.3564243   -5.3564243   -4.3251137 -0.011765814   -5.3564243    1.0313105      1024000 
  377000    0.6866819   -5.3555362   -5.3555362   -4.3255155 -0.0097388021   -5.3555362    1.0300208      1024000 
  378000   0.68608284   -5.3560463   -5.3560463   -4.3269241 -0.0094652895   -5.3560463    1.0291222      1024000 
  379000   0.68594498   -5.3568797   -5.3568797   -4.3279643 -0.0083380788   -5.3568797    1.0289154      1024000 
  380000   0.68749164   -5.3598635   -5.3598635   -4.3286281 -0.012616042   -5.3598635    1.0312354      1024000 
  381000   0.68797408   -5.3610003   -5.3610003   -4.3290413 -0.016326834   -5.3610003     1.031959      1024000 
  382000   0.68612881   -5.3585379   -5.3585379   -4.3293468 -0.0078010294   -5.3585379    1.0291911      1024000 
  383000   0.68717146   -5.3606953   -5.3606953   -4.3299402 -0.010291635   -5.3606953    1.0307551      1024000 
  384000   0.68566041   -5.3602635   -5.3602635    -4.331775 -0.0099594542   -5.3602635    1.0284885      1024000 
  385000    0.6880602   -5.3646323   -5.3646323   -4.3325441 -0.013254209   -5.3646323    1.0320882      1024000 
  386000   0.68656483   -5.3631753   -5.3631753   -4.3333301 -0.011890015   -5.3631753    1.0298451      1024000 
  387000   0.68655768   -5.3638739   -5.3638739   -4.3340395 -0.014235216   -5.3638739    1.0298344      1024000 
  388000   0.68684835   -5.3650014   -5.3650014   -4.3347309 -0.008581847   -5.3650014    1.0302704      1024000 
  389000   0.68662222   -5.3649867   -5.3649867   -4.3350555 -0.0061483043   -5.3649867    1.0299312      1024000 
  390000    0.6864936   -5.3656407   -5.3656407   -4.3359024 -0.0075958914   -5.3656407    1.0297383      1024000 
  391000   0.68749245    -5.368023    -5.368023   -4.3367865 -0.011379818    -5.368023    1.0312366      1024000 
  392000   0.68706702   -5.3673958   -5.3673958   -4.3367974 -0.014602102   -5.3673958    1.0305984      1024000 
  393000   0.68819352    -5.369681    -5.369681   -4.3373929 -0.015948704    -5.369681    1.0322882      1024000 
  394000   0.68648947   -5.3681348   -5.3681348   -4.3384027  -0.01451868   -5.3681348    1.0297321      1024000 
  395000   0.68705055   -5.3690825   -5.3690825   -4.3385088 -0.010483054   -5.3690825    1.0305737      1024000 
  396000   0.68572944   -5.3676355   -5.3676355   -4.3390434 -0.0078778659   -5.3676355    1.0285921      1024000 
  397000   0.68584352   -5.3689406   -5.3689406   -4.3401774 -0.011012788   -5.3689406    1.0287632      1024000 
  398000   0.68613125   -5.3701768   -5.3701768    -4.340982 -0.011558382   -5.3701768    1.0291948      1024000 
  399000   0.68539452   -5.3702355   -5.3702355   -4.3421458 -0.017254035   -5.3702355    1.0280897      1024000 
  400000   0.68531775   -5.3700399   -5.3700399   -4.3420654 -0.014073281   -5.3700399    1.0279745      1024000 
  401000   0.68604406   -5.3708962   -5.3708962   -4.3418322 -0.013774407   -5.3708962     1.029064      1024000 
  402000   0.68591137   -5.3712291   -5.3712291   -4.3423641 -0.015121995   -5.3712291     1.028865      1024000 
  403000    0.6849787   -5.3700075   -5.3700075   -4.3425415 -0.011383871   -5.3700075     1.027466      1024000 
  404000   0.68487984   -5.3701542   -5.3701542   -4.3428365 -0.011208676   -5.3701542    1.0273177      1024000 
  405000   0.68689818   -5.3726332   -5.3726332    -4.342288 -0.011707135   -5.3726332    1.0303452      1024000 
  406000   0.68665474   -5.3736608   -5.3736608   -4.3436808 -0.0080832837   -5.3736608      1.02998      1024000 
  407000   0.68646401   -5.3734299   -5.3734299    -4.343736 -0.0084745047   -5.3734299    1.0296939      1024000 
  408000   0.68733814   -5.3748782   -5.3748782   -4.3438731 -0.010598907   -5.3748782    1.0310051      1024000 
  409000   0.68646891   -5.3739927   -5.3739927   -4.3442915 -0.0063850551   -5.3739927    1.0297013      1024000 
  410000   0.68605983   -5.3739663   -5.3739663   -4.3448787 -0.0047663837   -5.3739663    1.0290877      1024000 
  411000   0.68667666   -5.3754769   -5.3754769    -4.345464 -0.010802791   -5.3754769    1.0300129      1024000 
  412000   0.68602282    -5.375291    -5.375291   -4.3462588 -0.0087966007    -5.375291    1.0290321      1024000 
  413000   0.68641845   -5.3770619   -5.3770619   -4.3474363 -0.011105276   -5.3770619    1.0296256      1024000 
  414000    0.6874384   -5.3782145   -5.3782145    -4.347059  -0.01059423   -5.3782145    1.0311555      1024000 
  415000   0.68609576   -5.3767339   -5.3767339   -4.3475924 -0.0060409386   -5.3767339    1.0291416      1024000 
  416000   0.68706543   -5.3781688   -5.3781688   -4.3475728 -0.0075616249   -5.3781688    1.0305961      1024000 
  417000   0.68597596   -5.3771389   -5.3771389    -4.348177 -0.0068813422   -5.3771389    1.0289619      1024000 
  418000     0.687539   -5.3794591   -5.3794591   -4.3481527 -0.015501098   -5.3794591    1.0313064      1024000 
  419000    0.6860439   -5.3777017   -5.3777017    -4.348638 -0.013828775   -5.3777017    1.0290638      1024000 
  420000   0.68605667   -5.3789802   -5.3789802   -4.3498973 -0.014977286   -5.3789802    1.0290829      1024000 
  421000   0.68584121   -5.3797535   -5.3797535   -4.3509938 -0.014734932   -5.3797535    1.0287597      1024000 
  422000   0.68486122   -5.3794198   -5.3794198   -4.3521301 -0.012601351   -5.3794198    1.0272897      1024000 
  423000   0.68636596   -5.3815714   -5.3815714   -4.3520245 -0.015713953   -5.3815714    1.0295469      1024000 
  424000   0.68539348   -5.3806853   -5.3806853   -4.3525971 -0.014956525   -5.3806853    1.0280881      1024000 
  425000    0.6861091    -5.382715    -5.382715   -4.3535534 -0.014707431    -5.382715    1.0291616      1024000 
  426000   0.68618378   -5.3833599   -5.3833599   -4.3540864 -0.016818906   -5.3833599    1.0292736      1024000 
  427000   0.68563888    -5.382735    -5.382735   -4.3542787 -0.0087671695    -5.382735    1.0284562      1024000 
  428000   0.68653273   -5.3840831   -5.3840831   -4.3542861 -0.010669381   -5.3840831     1.029797      1024000 
  429000    0.6856177   -5.3825898   -5.3825898   -4.3541654 -0.0089883432   -5.3825898    1.0284245      1024000 
  430000   0.68671802   -5.3842642   -5.3842642   -4.3541893 -0.011977892   -5.3842642    1.0300749      1024000 
  431000   0.68604854    -5.383534    -5.383534   -4.3544633 -0.0070294236    -5.383534    1.0290707      1024000 
  432000   0.68687204   -5.3848588   -5.3848588   -4.3545529 -0.0045545724   -5.3848588     1.030306      1024000 
  433000   0.68712109    -5.384989    -5.384989   -4.3543095 -0.0040166699    -5.384989    1.0306795      1024000 
  434000   0.68744337   -5.3859742   -5.3859742   -4.3548113 -0.0039348664   -5.3859742     1.031163      1024000 
  435000   0.68667687   -5.3849118   -5.3849118   -4.3548986 -0.0047176568   -5.3849118    1.0300132      1024000 
  436000   0.68640079    -5.386118    -5.386118   -4.3565189 -0.0089303817    -5.386118    1.0295991      1024000 
  437000   0.68667121   -5.3858652   -5.3858652   -4.3558605 -0.0054735039   -5.3858652    1.0300047      1024000 
  438000   0.68655551   -5.3860135   -5.3860135   -4.3561823 -0.0077187415   -5.3860135    1.0298312      1024000 
  439000   0.68656095   -5.3864911   -5.3864911   -4.3566517 -0.0086320628   -5.3864911    1.0298393      1024000 
  440000   0.68629237   -5.3862282   -5.3862282   -4.3567918 -0.0086554506   -5.3862282    1.0294365      1024000 
  441000   0.68653422   -5.3859618   -5.3859618   -4.3561626 -0.0075310262   -5.3859618    1.0297992      1024000 
  442000   0.68552584    -5.385435    -5.385435   -4.3571483 -0.010896207    -5.385435    1.0282867      1024000 
  443000   0.68619209   -5.3874088   -5.3874088   -4.3581227 -0.013717346   -5.3874088     1.029286      1024000 
  444000   0.68547676   -5.3861149   -5.3861149   -4.3579018 -0.013504438   -5.3861149     1.028213      1024000 
  445000   0.68493565   -5.3853692   -5.3853692   -4.3579678 -0.0086116818   -5.3853692    1.0274014      1024000 
  446000   0.68595421   -5.3860346   -5.3860346   -4.3571054 -0.013628908   -5.3860346    1.0289292      1024000 
  447000    0.6858952   -5.3856278   -5.3856278   -4.3567871 -0.012090518   -5.3856278    1.0288407      1024000 
  448000   0.68623282   -5.3858044   -5.3858044   -4.3564573 -0.011189929   -5.3858044    1.0293471      1024000 
  449000   0.68593957   -5.3860796   -5.3860796   -4.3571724 -0.0075027198   -5.3860796    1.0289073      1024000 
  450000    0.6867285   -5.3872224   -5.3872224   -4.3571318 -0.011199835   -5.3872224    1.0300907      1024000 
  451000   0.68563694   -5.3860423   -5.3860423    -4.357589 -0.0063101941   -5.3860423    1.0284533      1024000 
  452000   0.68590901   -5.3866685   -5.3866685   -4.3578071 -0.0076217656   -5.3866685    1.0288614      1024000 
  453000   0.68580031    -5.385927    -5.385927   -4.3572286 -0.0092546447    -5.385927    1.0286984      1024000 
  454000   0.68642963   -5.3867272   -5.3867272   -4.3570848 -0.0044910116   -5.3867272    1.0296424      1024000 
  455000   0.68685801    -5.387055    -5.387055     -4.35677 -0.0071823939    -5.387055    1.0302849      1024000 
  456000   0.68668316   -5.3871869   -5.3871869   -4.3571643 -0.008644739   -5.3871869    1.0300226      1024000 
  457000   0.68691785   -5.3870926   -5.3870926   -4.3567179 -0.0055464774   -5.3870926    1.0303747      1024000 
  458000   0.68743218   -5.3875812   -5.3875812    -4.356435 -0.0058752519   -5.3875812    1.0311462      1024000 
  459000   0.68761952    -5.387139    -5.387139   -4.3557118 -0.0045283432    -5.387139    1.0314272      1024000 
  460000   0.68726448   -5.3867608   -5.3867608   -4.3558662 -0.0044585008   -5.3867608    1.0308946      1024000 
  461000   0.68731261   -5.3870099   -5.3870099   -4.3560431 -0.0079358287   -5.3870099    1.0309668      1024000 
  462000   0.68694272   -5.3865586   -5.3865586   -4.3561467 -0.0097645569   -5.3865586     1.030412      1024000 
  463000    0.6862875   -5.3855579   -5.3855579   -4.3561288 -0.0096661698   -5.3855579    1.0294292      1024000 
  464000   0.68623207   -5.3852621   -5.3852621    -4.355916 -0.0086717036   -5.3852621     1.029346      1024000 
  465000   0.68522145   -5.3835793   -5.3835793   -4.3557492 -0.0042363111   -5.3835793    1.0278301      1024000 
  466000   0.68629294   -5.3848848   -5.3848848   -4.3554475 -0.0046090253   -5.3848848    1.0294373      1024000 
  467000   0.68614516   -5.3848546   -5.3848546   -4.3556389 -0.0068295957   -5.3848546    1.0292157      1024000 
  468000    0.6846463   -5.3823826   -5.3823826   -4.3554152 -0.0047955013   -5.3823826    1.0269674      1024000 
  469000   0.68597306   -5.3835616   -5.3835616   -4.3546041 -0.0080156132   -5.3835616    1.0289575      1024000 
  470000   0.68621179    -5.383616    -5.383616   -4.3543004 -0.0096739148    -5.383616    1.0293156      1024000 
  471000   0.68625444   -5.3833209   -5.3833209   -4.3539413 -0.0068932053   -5.3833209    1.0293796      1024000 
  472000   0.68561083   -5.3826653   -5.3826653   -4.3542511 -0.005733825   -5.3826653    1.0284142      1024000 
  473000   0.68667206   -5.3842626   -5.3842626   -4.3542566 -0.0060597194   -5.3842626     1.030006      1024000 
  474000   0.68562533   -5.3827781   -5.3827781   -4.3543422 -0.0023408756   -5.3827781    1.0284359      1024000 
  475000   0.68577129   -5.3824811   -5.3824811   -4.3538263 -0.0050943453   -5.3824811    1.0286548      1024000 
  476000    0.6867816   -5.3834003   -5.3834003     -4.35323 -0.0058940788   -5.3834003    1.0301703      1024000 
  477000    0.6874704   -5.3840197   -5.3840197   -4.3528162 -0.0076692648   -5.3840197    1.0312035      1024000 
  478000   0.68727587   -5.3844581   -5.3844581   -4.3535464 -0.0069117859   -5.3844581    1.0309117      1024000 
  479000    0.6867642   -5.3833099   -5.3833099   -4.3531657 -0.0043196834   -5.3833099    1.0301442      1024000 
  480000   0.68627312   -5.3829615   -5.3829615   -4.3535539 -0.0036322071   -5.3829615    1.0294076      1024000 
  481000   0.68643821   -5.3824783   -5.3824783   -4.3528231 -0.004798368   -5.3824783    1.0296552      1024000 
  482000   0.68600109   -5.3813689   -5.3813689   -4.3523693 -0.0031551598   -5.3813689    1.0289995      1024000 
  483000   0.68607793   -5.3819153   -5.3819153   -4.3528005 -0.0056536843   -5.3819153    1.0291148      1024000 
  484000   0.68611772   -5.3814678   -5.3814678   -4.3522933 -0.0035667882   -5.3814678    1.0291745      1024000 
  485000   0.68637569   -5.3828145   -5.3828145    -4.353253 -0.0046341563   -5.3828145    1.0295615      1024000 
  486000   0.68590911   -5.3816584   -5.3816584   -4.3527969 -0.0030206146   -5.3816584    1.0288616      1024000 
  487000   0.68597026   -5.3814156   -5.3814156   -4.3524623 -0.0080164137   -5.3814156    1.0289533      1024000 
  488000   0.68636275   -5.3814417   -5.3814417   -4.3518996 -0.0070302787   -5.3814417     1.029542      1024000 
  489000   0.68659385   -5.3811213   -5.3811213   -4.3512326 -0.0076344359   -5.3811213    1.0298887      1024000 
  490000   0.68618321    -5.380834    -5.380834   -4.3515613 -0.0061153161    -5.380834    1.0292727      1024000 
  491000   0.68736398   -5.3816943   -5.3816943   -4.3506505 -0.010705577   -5.3816943    1.0310439      1024000 
  492000   0.68672466   -5.3809089   -5.3809089    -4.350824 -0.0056243849   -5.3809089    1.0300849      1024000 
  493000   0.68618847   -5.3795796   -5.3795796   -4.3502989 -0.002110623   -5.3795796    1.0292806      1024000 
  494000   0.68746814   -5.3807151   -5.3807151    -4.349515 -0.0063219307   -5.3807151    1.0312001      1024000 
  495000   0.68634218    -5.378491    -5.378491   -4.3489798 -0.0021329675    -5.378491    1.0295112      1024000 
  496000   0.68562529   -5.3774667   -5.3774667   -4.3490308 0.00029487602   -5.3774667    1.0284358      1024000 
  497000   0.68620462   -5.3779415   -5.3779415   -4.3486366 -0.00074758623   -5.3779415    1.0293048      1024000 
  498000   0.68563131   -5.3772967   -5.3772967   -4.3488518 -0.0011558347   -5.3772967    1.0284449      1024000 
  499000   0.68583131   -5.3764131   -5.3764131   -4.3476682 0.00048654985   -5.3764131    1.0287449      1024000 
  500000   0.68717673   -5.3772654   -5.3772654   -4.3465024 -0.0019745594   -5.3772654     1.030763      1024000 
  501000   0.68721929   -5.3756344   -5.3756344   -4.3448076 0.00090257614   -5.3756344    1.0308268      1024000 
  502000   0.68653915   -5.3743219   -5.3743219   -4.3445153 0.0020450958   -5.3743219    1.0298066      1024000 
  503000   0.68660086   -5.3745546   -5.3745546   -4.3446554 0.0030139121   -5.3745546    1.0298992      1024000 
  504000   0.68597921   -5.3727081   -5.3727081   -4.3437414 0.00074396901   -5.3727081    1.0289667      1024000 
  505000   0.68743573   -5.3737328   -5.3737328   -4.3425813 -0.00070897345   -5.3737328    1.0311515      1024000 
  506000   0.68693653   -5.3728485   -5.3728485   -4.3424458 -0.0011463297   -5.3728485    1.0304027      1024000 
  507000   0.68643289   -5.3715314   -5.3715314   -4.3418841 -0.0054244678   -5.3715314    1.0296472      1024000 
  508000   0.68638486   -5.3706138   -5.3706138   -4.3410386 -0.0032292887   -5.3706138    1.0295752      1024000 
  509000   0.68609038   -5.3701043   -5.3701043   -4.3409708 -0.0031145744   -5.3701043    1.0291335      1024000 
  510000   0.68590527   -5.3683362   -5.3683362   -4.3394803 -0.0020579955   -5.3683362    1.0288558      1024000 
  511000   0.68544152   -5.3668237   -5.3668237   -4.3386635 -0.0016710201   -5.3668237    1.0281602      1024000 
  512000   0.68592233   -5.3665265   -5.3665265   -4.3376451 -0.0053805805   -5.3665265    1.0288814      1024000 
  513000   0.68556148   -5.3642845   -5.3642845   -4.3359444 -0.0012487427   -5.3642845    1.0283401      1024000 
  514000   0.68629673   -5.3643396   -5.3643396   -4.3348966 -0.0045001814   -5.3643396     1.029443      1024000 
  515000   0.68572465   -5.3626845   -5.3626845   -4.3340996 0.00017722713   -5.3626845    1.0285849      1024000 
  516000   0.68626465   -5.3629533   -5.3629533   -4.3335585 0.00068568244   -5.3629533    1.0293949      1024000 
  517000   0.68624413   -5.3621814   -5.3621814   -4.3328173 0.0021224764   -5.3621814    1.0293641      1024000 
  518000   0.68653814   -5.3622798   -5.3622798   -4.3324746 -0.00031607475   -5.3622798    1.0298051      1024000 
  519000   0.68704177   -5.3611806   -5.3611806     -4.33062 -0.0015849771   -5.3611806    1.0305606      1024000 
  520000   0.68777815   -5.3606577   -5.3606577   -4.3289926 0.0034238617   -5.3606577    1.0316651      1024000 
  521000   0.68676252   -5.3576992   -5.3576992   -4.3275575 0.0068020407   -5.3576992    1.0301417      1024000 
  522000   0.68807579   -5.3581251   -5.3581251   -4.3260135 0.00094750908   -5.3581251    1.0321116      1024000 
  523000   0.68691104   -5.3565001   -5.3565001   -4.3261356 0.0015025376   -5.3565001    1.0303645      1024000 
  524000   0.68700749   -5.3557626   -5.3557626   -4.3252534 0.0023369923   -5.3557626    1.0305091      1024000 
  525000   0.68746143   -5.3555865   -5.3555865   -4.3243965 0.00045999473   -5.3555865      1.03119      1024000 
  526000   0.68663971   -5.3538957   -5.3538957   -4.3239382 0.0011040593   -5.3538957    1.0299575      1024000 
  527000   0.68727426   -5.3530738   -5.3530738   -4.3221645 0.00027182176   -5.3530738    1.0309093      1024000 
  528000   0.68637663   -5.3507005   -5.3507005   -4.3211376 0.0019509036   -5.3507005    1.0295629      1024000 
  529000   0.68706628   -5.3505228   -5.3505228   -4.3199254 -0.001907569   -5.3505228    1.0305973      1024000 
  530000   0.68662093    -5.348735    -5.348735   -4.3188057 -0.0034587774    -5.348735    1.0299293      1024000 
  531000    0.6865347   -5.3485163   -5.3485163   -4.3187163 0.0011050694   -5.3485163       1.0298      1024000 
  532000   0.68632308   -5.3465531   -5.3465531   -4.3170706 -0.0025072861   -5.3465531    1.0294825      1024000 
  533000   0.68651172   -5.3447901   -5.3447901   -4.3150246 -0.00026510553   -5.3447901    1.0297655      1024000 
  534000   0.68613986   -5.3427586   -5.3427586   -4.3135509 0.00091244564   -5.3427586    1.0292077      1024000 
  535000   0.68649645    -5.342051    -5.342051   -4.3123084  0.002447953    -5.342051    1.0297426      1024000 
  536000   0.68754601   -5.3425431   -5.3425431   -4.3112262 0.00044212399   -5.3425431    1.0313169      1024000 
  537000   0.68762776   -5.3410658   -5.3410658   -4.3096262 0.0004410347   -5.3410658    1.0314395      1024000 
  538000   0.68664163   -5.3385392   -5.3385392   -4.3085788 0.0068005257   -5.3385392    1.0299604      1024000 
  539000   0.68749853   -5.3388393   -5.3388393   -4.3075936 0.0019429246   -5.3388393    1.0312457      1024000 
  540000   0.68723149   -5.3368064   -5.3368064   -4.3059612 0.0022054864   -5.3368064    1.0308451      1024000 
  541000   0.68772493   -5.3367901   -5.3367901   -4.3052048 0.0048306449   -5.3367901    1.0315853      1024000 
  542000   0.68762774   -5.3354307   -5.3354307   -4.3039912 0.0043697095   -5.3354307    1.0314395      1024000 
  543000   0.68762985   -5.3340965   -5.3340965   -4.3026538 0.0054986136   -5.3340965    1.0314427      1024000 
  544000   0.68871616   -5.3340283   -5.3340283   -4.3009561 0.0063349556   -5.3340283    1.0330721      1024000 
  545000   0.68893141   -5.3326141   -5.3326141    -4.299219 0.0075289009   -5.3326141     1.033395      1024000 
  546000   0.68796863   -5.3297629   -5.3297629    -4.297812 0.0098795632   -5.3297629    1.0319508      1024000 
  547000   0.68873465   -5.3295107   -5.3295107   -4.2964108 0.0050720832   -5.3295107    1.0330999      1024000 
  548000    0.6879025   -5.3260483   -5.3260483   -4.2941966 0.0083623069   -5.3260483    1.0318516      1024000 
  549000   0.68892928   -5.3262685   -5.3262685   -4.2928766 0.0033532879   -5.3262685    1.0333918      1024000 
  550000   0.68825844   -5.3231423   -5.3231423   -4.2907568 0.0063766113   -5.3231423    1.0323856      1024000 
  551000   0.68809013      -5.3217      -5.3217   -4.2895669  0.011547563      -5.3217    1.0321331      1024000 
  552000   0.68829438    -5.321354    -5.321354   -4.2889145 0.0039450115    -5.321354    1.0324395      1024000 
  553000    0.6879695   -5.3200846   -5.3200846   -4.2881325 0.0048705072   -5.3200846    1.0319522      1024000 
  554000   0.68878175   -5.3193436   -5.3193436   -4.2861731 -0.00010592819   -5.3193436    1.0331705      1024000 
  555000   0.68822578    -5.316619    -5.316619   -4.2842824 0.0006802324    -5.316619    1.0323366      1024000 
  556000   0.68686344   -5.3137634   -5.3137634   -4.2834704 0.00054988071   -5.3137634    1.0302931      1024000 
  557000   0.68734619   -5.3126792   -5.3126792    -4.281662 -0.0044831492   -5.3126792    1.0310172      1024000 
  558000   0.68751415   -5.3108843   -5.3108843   -4.2796151 0.0029408145   -5.3108843    1.0312691      1024000 
  559000    0.6874326    -5.308669    -5.308669   -4.2775222 0.0017479636    -5.308669    1.0311468      1024000 
  560000    0.6883888   -5.3081783   -5.3081783   -4.2755972 0.0052603977   -5.3081783    1.0325811      1024000 
  561000   0.68849994   -5.3068605   -5.3068605   -4.2741127 0.0036875721   -5.3068605    1.0327478      1024000 
  562000   0.68794937   -5.3034614   -5.3034614   -4.2715395 0.0031168953   -5.3034614     1.031922      1024000 
  563000   0.68856749   -5.3018673   -5.3018673   -4.2690182 0.0069251109   -5.3018673    1.0328491      1024000 
  564000   0.68871158   -5.3002472   -5.3002472   -4.2671819 0.0086841927   -5.3002472    1.0330653      1024000 
  565000   0.68941599   -5.3000388   -5.3000388   -4.2659169 0.0089750931   -5.3000388    1.0341219      1024000 
  566000   0.68841327   -5.2974269   -5.2974269   -4.2648091  0.010864048   -5.2974269    1.0326178      1024000 
  567000   0.69016414   -5.2990808   -5.2990808   -4.2638366 0.0052578208   -5.2990808    1.0352441      1024000 
  568000   0.68833629   -5.2957567   -5.2957567   -4.2632544  0.011027592   -5.2957567    1.0325023      1024000 
  569000   0.68917546   -5.2939845   -5.2939845   -4.2602234 0.0098372733   -5.2939845    1.0337611      1024000 
  570000    0.6875014   -5.2902634   -5.2902634   -4.2590134  0.010454375   -5.2902634      1.03125      1024000 
  571000   0.68949074   -5.2902155   -5.2902155   -4.2559815 0.0096447063   -5.2902155     1.034234      1024000 
  572000   0.68893541   -5.2876422   -5.2876422   -4.2542411 0.0098703704   -5.2876422     1.033401      1024000 
  573000   0.68930635   -5.2863574   -5.2863574   -4.2523999  0.005706541   -5.2863574    1.0339574      1024000 
  574000   0.68883686   -5.2835927   -5.2835927   -4.2503395 0.0079506263   -5.2835927    1.0332532      1024000 
  575000   0.68951521   -5.2823253   -5.2823253   -4.2480545 0.0084079174   -5.2823253    1.0342707      1024000 
  576000   0.68999547   -5.2811101   -5.2811101    -4.246119 0.0091107349   -5.2811101    1.0349911      1024000 
  577000    0.6887376   -5.2776391   -5.2776391   -4.2445348  0.011079918   -5.2776391    1.0331043      1024000 
  578000    0.6884169   -5.2747514   -5.2747514   -4.2421282  0.012465422   -5.2747514    1.0326233      1024000 
  579000   0.68961513   -5.2740965   -5.2740965   -4.2396759 0.0087934232   -5.2740965    1.0344206      1024000 
  580000   0.68922369   -5.2711091   -5.2711091   -4.2372757  0.008167366   -5.2711091    1.0338334      1024000 
  581000   0.68993143   -5.2698088   -5.2698088   -4.2349138 0.0075106776   -5.2698088     1.034895      1024000 
  582000   0.68883787   -5.2669172   -5.2669172   -4.2336625 0.0083205182   -5.2669172    1.0332547      1024000 
  583000   0.68902994   -5.2645602   -5.2645602   -4.2310174  0.011949585   -5.2645602    1.0335428      1024000 
  584000   0.68894015   -5.2631286   -5.2631286   -4.2297205  0.011731706   -5.2631286    1.0334081      1024000 
  585000   0.68982466   -5.2624917   -5.2624917   -4.2277568 0.0033355056   -5.2624917    1.0347349      1024000 
  586000   0.68827215   -5.2581568   -5.2581568   -4.2257507 0.0094406911   -5.2581568    1.0324061      1024000 
  587000   0.68870558   -5.2567901   -5.2567901   -4.2237338 0.0096340668   -5.2567901    1.0330563      1024000 
  588000   0.68853334   -5.2536092   -5.2536092   -4.2208113  0.011122189   -5.2536092    1.0327979      1024000 
  589000   0.68840106   -5.2512859   -5.2512859   -4.2186864 0.0094916621   -5.2512859    1.0325995      1024000 
  590000   0.69017812   -5.2526421   -5.2526421   -4.2173771 -0.0039508985   -5.2526421    1.0352651      1024000 
  591000   0.68851662   -5.2476755   -5.2476755   -4.2149027 0.0088489036   -5.2476755    1.0327728      1024000 
  592000   0.68977032   -5.2474845   -5.2474845   -4.2128311 0.0071658692   -5.2474845    1.0346534      1024000 
  593000   0.68968949   -5.2453689   -5.2453689   -4.2108368 0.0044595403   -5.2453689    1.0345321      1024000 
  594000    0.6888368   -5.2420612   -5.2420612   -4.2088081 0.0081906776   -5.2420612    1.0332531      1024000 
  595000   0.68904736   -5.2392028   -5.2392028   -4.2056338 0.0076002572   -5.2392028    1.0335689      1024000 
  596000   0.68944837   -5.2374548   -5.2374548   -4.2032844 0.0098082771   -5.2374548    1.0341705      1024000 
  597000   0.68930145   -5.2355115   -5.2355115   -4.2015615 0.0065853434   -5.2355115    1.0339501      1024000 
  598000   0.69053363   -5.2354301   -5.2354301   -4.1996317 0.0041082956   -5.2354301    1.0357983      1024000 
  599000   0.69041316   -5.2333972   -5.2333972   -4.1977796  0.006304628   -5.2333972    1.0356176      1024000 
  600000   0.69008978   -5.2311853   -5.2311853   -4.1960527 0.0078308607   -5.2311853    1.0351326      1024000 
  601000   0.69014436   -5.2278239   -5.2278239   -4.1926095  0.012144297   -5.2278239    1.0352144      1024000 
  602000   0.69115027   -5.2274178   -5.2274178   -4.1906945  0.010028828   -5.2274178    1.0367233      1024000 
  603000   0.69198581   -5.2264111   -5.2264111   -4.1884345 0.0063497872   -5.2264111    1.0379766      1024000 
  604000   0.69020259   -5.2219266   -5.2219266   -4.1866248  0.010373608   -5.2219266    1.0353018      1024000 
  605000   0.68990427   -5.2193184   -5.2193184   -4.1844641 0.0069912759   -5.2193184    1.0348543      1024000 
  606000   0.69109474   -5.2189276   -5.2189276   -4.1822876 0.0043749167   -5.2189276      1.03664      1024000 
  607000   0.69139473   -5.2171667   -5.2171667   -4.1800767  0.010888982   -5.2171667      1.03709      1024000 
  608000   0.69073662   -5.2140044   -5.2140044   -4.1779016   0.01329017   -5.2140044    1.0361028      1024000 
  609000   0.69174955   -5.2137756   -5.2137756   -4.1761534 0.0083665492   -5.2137756    1.0376222      1024000 
  610000   0.69108578   -5.2101538   -5.2101538   -4.1735273   0.01110482   -5.2101538    1.0366266      1024000 
  611000   0.69129672   -5.2073742   -5.2073742   -4.1704312  0.012037033   -5.2073742     1.036943      1024000 
  612000     0.691707   -5.2056325   -5.2056325   -4.1680741  0.014750005   -5.2056325    1.0375584      1024000 
  613000   0.69122313   -5.2028304   -5.2028304   -4.1659978  0.014523087   -5.2028304    1.0368326      1024000 
  614000   0.69192641   -5.2019747   -5.2019747   -4.1640872 0.0089180935   -5.2019747    1.0378875      1024000 
  615000   0.69085212   -5.1978668   -5.1978668   -4.1615907 0.0095218245   -5.1978668    1.0362761      1024000 
  616000    0.6912687   -5.1965014   -5.1965014   -4.1596005 0.0092607325   -5.1965014    1.0369009      1024000 
  617000    0.6921051   -5.1954195   -5.1954195    -4.157264 0.0036664794   -5.1954195    1.0381555      1024000 
  618000   0.69038445   -5.1898372   -5.1898372   -4.1542627 0.0090494619   -5.1898372    1.0355746      1024000 
  619000   0.69174752   -5.1895703   -5.1895703   -4.1519511 0.0077423206   -5.1895703    1.0376192      1024000 
  620000   0.69116612   -5.1869053   -5.1869053   -4.1501582 0.0077536393   -5.1869053    1.0367471      1024000 
  621000   0.69182045   -5.1855376   -5.1855376    -4.147809   0.00785084   -5.1855376    1.0377286      1024000 
  622000   0.69227278   -5.1841328   -5.1841328   -4.1457257 0.0039807237   -5.1841328    1.0384071      1024000 
  623000   0.69130284   -5.1804668   -5.1804668   -4.1435146 0.0042587691   -5.1804668    1.0369522      1024000 
  624000   0.69176556   -5.1786924   -5.1786924   -4.1410461  0.002665394   -5.1786924    1.0376462      1024000 
  625000    0.6919633   -5.1774622   -5.1774622   -4.1395194  0.001089324   -5.1774622    1.0379428      1024000 
  626000   0.69173074   -5.1752263   -5.1752263   -4.1376323 0.0031700113   -5.1752263     1.037594      1024000 
  627000   0.69250136   -5.1741824   -5.1741824   -4.1354325  0.002396519   -5.1741824    1.0387499      1024000 
  628000   0.69179684   -5.1708839   -5.1708839   -4.1331908 0.0075355825   -5.1708839    1.0376931      1024000 
  629000   0.69405789   -5.1724233   -5.1724233   -4.1313386 0.0006056157   -5.1724233    1.0410847      1024000 
  630000   0.69358409   -5.1698333   -5.1698333   -4.1294593 0.0017389006   -5.1698333     1.040374      1024000 
  631000   0.69452805   -5.1687245   -5.1687245   -4.1269345 0.0013953357   -5.1687245      1.04179      1024000 
  632000   0.69504879   -5.1685506   -5.1685506   -4.1259795 -5.191859e-05   -5.1685506    1.0425711      1024000 
  633000   0.69271609     -5.16277     -5.16277    -4.123698 0.0081340378     -5.16277     1.039072      1024000 
  634000   0.69455113    -5.164096    -5.164096   -4.1222715 0.0028066165    -5.164096    1.0418246      1024000 
  635000   0.69484317   -5.1630489   -5.1630489   -4.1207862  0.003080325   -5.1630489    1.0422626      1024000 
  636000   0.69548413   -5.1617018   -5.1617018   -4.1184777  0.003461273   -5.1617018    1.0432241      1024000 
  637000     0.694611   -5.1598489   -5.1598489   -4.1179345 0.0055229018   -5.1598489    1.0419144      1024000 
  638000   0.69477176   -5.1588293   -5.1588293   -4.1166737 0.0022458405   -5.1588293    1.0421555      1024000 
  639000   0.69562749    -5.158773    -5.158773   -4.1153339 -0.00025565142    -5.158773    1.0434391      1024000 
  640000    0.6954423    -5.156662    -5.156662   -4.1135007 0.0064536599    -5.156662    1.0431613      1024000 
  641000   0.69542023   -5.1557912   -5.1557912    -4.112663 0.0046447623   -5.1557912    1.0431282      1024000 
  642000    0.6951311   -5.1545044   -5.1545044   -4.1118098 0.0030989003   -5.1545044    1.0426945      1024000 
  643000   0.69554344     -5.15316     -5.15316    -4.109847 0.0036204184     -5.15316    1.0433131      1024000 
  644000   0.69660856   -5.1529502   -5.1529502   -4.1080395 0.0036594382   -5.1529502    1.0449107      1024000 
  645000   0.69613109    -5.151568    -5.151568   -4.1073735 0.0052127895    -5.151568    1.0441945      1024000 
  646000   0.69688824   -5.1525537   -5.1525537   -4.1072234  0.002120775   -5.1525537    1.0453302      1024000 
  647000   0.69608805   -5.1504973   -5.1504973   -4.1063674 -0.00053005268   -5.1504973      1.04413      1024000 
  648000   0.69611698   -5.1495662   -5.1495662   -4.1053929 0.0059288752   -5.1495662    1.0441733      1024000 
  649000   0.69563143    -5.148101    -5.148101   -4.1046559 0.0065257027    -5.148101     1.043445      1024000 
  650000    0.6966028   -5.1485582   -5.1485582   -4.1036561 0.0026295006   -5.1485582    1.0449021      1024000 
  651000    0.6960432   -5.1469694   -5.1469694   -4.1029067 0.0035405387   -5.1469694    1.0440627      1024000 
  652000   0.69733929   -5.1475286   -5.1475286   -4.1015218 0.0020370594   -5.1475286    1.0460068      1024000 
  653000   0.69691398   -5.1465235   -5.1465235   -4.1011547 0.0034772069   -5.1465235    1.0453689      1024000 
  654000   0.69653867   -5.1450707   -5.1450707   -4.1002648 0.0047304573   -5.1450707    1.0448059      1024000 
  655000   0.69794145   -5.1454378   -5.1454378   -4.0985278 0.0030754119   -5.1454378      1.04691      1024000 
  656000   0.69857779   -5.1458237   -5.1458237   -4.0979591 0.0029140715   -5.1458237    1.0478646      1024000 
  657000   0.69868258   -5.1458921   -5.1458921   -4.0978704 0.0054394172   -5.1458921    1.0480218      1024000 
  658000   0.69916965   -5.1460602   -5.1460602   -4.0973078  0.005418889   -5.1460602    1.0487523      1024000 
  659000   0.69957625   -5.1453865   -5.1453865   -4.0960243 0.0047751143   -5.1453865    1.0493622      1024000 
  660000   0.69956486    -5.144823    -5.144823   -4.0954778 0.0045366155    -5.144823    1.0493452      1024000 
  661000   0.69989784   -5.1447153   -5.1447153   -4.0948707  0.003174849   -5.1447153    1.0498446      1024000 
  662000   0.69926445    -5.143731    -5.143731   -4.0948365 0.0040818601    -5.143731    1.0488945      1024000 
  663000   0.69760139   -5.1407063   -5.1407063   -4.0943063 0.0047288373   -5.1407063       1.0464      1024000 
  664000   0.69857277   -5.1425079   -5.1425079   -4.0946508 -0.00087186202   -5.1425079     1.047857      1024000 
  665000   0.69957315   -5.1432163   -5.1432163   -4.0938587 -0.0021656569   -5.1432163    1.0493576      1024000 
  666000   0.69912098   -5.1411576   -5.1411576   -4.0924782 0.0030955404   -5.1411576    1.0486793      1024000 
  667000   0.69887237   -5.1398487   -5.1398487   -4.0915422 0.00035045443   -5.1398487    1.0483064      1024000 
  668000   0.69957523   -5.1415391   -5.1415391   -4.0921784 0.0038449095   -5.1415391    1.0493607      1024000 
  669000   0.69996129   -5.1412954   -5.1412954   -4.0913556  0.004622749   -5.1412954    1.0499398      1024000 
  670000   0.70013032   -5.1406417   -5.1406417   -4.0904484 0.0051436403   -5.1406417    1.0501933      1024000 
  671000   0.70068422   -5.1409538   -5.1409538   -4.0899296 0.0060608338   -5.1409538    1.0510242      1024000 
  672000   0.69999865   -5.1386023   -5.1386023   -4.0886064 0.0083488333   -5.1386023    1.0499958      1024000 
  673000   0.70063573    -5.139146    -5.139146   -4.0881946 0.0044885951    -5.139146    1.0509515      1024000 
  674000   0.70024461   -5.1389137   -5.1389137   -4.0885489 0.0044102466   -5.1389137    1.0503648      1024000 
  675000   0.69959409    -5.137899    -5.137899     -4.08851 0.0051976183    -5.137899     1.049389      1024000 
  676000   0.70019207   -5.1374123   -5.1374123   -4.0871263 0.0042496778   -5.1374123     1.050286      1024000 
  677000   0.70045307   -5.1374548   -5.1374548   -4.0867774 0.0062851242   -5.1374548    1.0506775      1024000 
  678000   0.70145618   -5.1383442   -5.1383442    -4.086162 0.0016888515   -5.1383442    1.0521821      1024000 
  679000   0.70238856   -5.1388818   -5.1388818   -4.0853011 0.0030003399   -5.1388818    1.0535807      1024000 
  680000   0.70197902   -5.1376899   -5.1376899   -4.0847235 0.0057575256   -5.1376899    1.0529664      1024000 
  681000   0.70179834   -5.1375129   -5.1375129   -4.0848175 0.0071093221   -5.1375129    1.0526954      1024000 
  682000   0.70158586   -5.1362614   -5.1362614   -4.0838847 0.0051786059   -5.1362614    1.0523767      1024000 
  683000    0.7018809   -5.1361346   -5.1361346   -4.0833154 0.0019891848   -5.1361346    1.0528192      1024000 
  684000   0.70125984   -5.1350267   -5.1350267    -4.083139 0.0052518411   -5.1350267    1.0518876      1024000 
  685000   0.70181409   -5.1354194   -5.1354194   -4.0827004 -0.0012480414   -5.1354194     1.052719      1024000 
  686000   0.70175843   -5.1350768   -5.1350768   -4.0824413 -0.0019987493   -5.1350768    1.0526355      1024000 
  687000   0.70145639   -5.1342691   -5.1342691   -4.0820866 0.0029992687   -5.1342691    1.0521824      1024000 
  688000   0.70079141   -5.1330909   -5.1330909   -4.0819059 0.0060030158   -5.1330909     1.051185      1024000 
  689000   0.70122156   -5.1330667   -5.1330667   -4.0812365 0.0076138202   -5.1330667    1.0518302      1024000 
  690000   0.70145854   -5.1331716   -5.1331716   -4.0809859  0.005606409   -5.1331716    1.0521857      1024000 
  691000   0.70215889   -5.1327524   -5.1327524   -4.0795162  0.010703726   -5.1327524    1.0532362      1024000 
  692000   0.70173394   -5.1328466   -5.1328466   -4.0802478 0.0036946268   -5.1328466    1.0525988      1024000 
  693000   0.70156659   -5.1319245   -5.1319245   -4.0795767 0.0039945788   -5.1319245    1.0523478      1024000 
  694000   0.70294469   -5.1336596   -5.1336596   -4.0792447 -0.0036990868   -5.1336596    1.0544149      1024000 
  695000   0.70148228   -5.1315111   -5.1315111   -4.0792898 0.00087139891   -5.1315111    1.0522213      1024000 
  696000   0.70119781   -5.1306005   -5.1306005   -4.0788059 0.00025095289   -5.1306005    1.0517946      1024000 
  697000   0.70135677   -5.1299991   -5.1299991    -4.077966 6.4342395e-05   -5.1299991     1.052033      1024000 
  698000   0.70154142   -5.1299672   -5.1299672   -4.0776572 0.0057521485   -5.1299672      1.05231      1024000 
  699000   0.70190446   -5.1301855   -5.1301855   -4.0773309 0.0037278166   -5.1301855    1.0528545      1024000 
  700000   0.70432862   -5.1334864   -5.1334864   -4.0769956  0.003116835   -5.1334864    1.0564908      1024000 
  701000   0.70350138   -5.1309046   -5.1309046   -4.0756547 0.0088854269   -5.1309046    1.0552499      1024000 
  702000   0.70356818   -5.1297935   -5.1297935   -4.0744434 0.0086281611   -5.1297935    1.0553501      1024000 
  703000   0.70385395   -5.1286052   -5.1286052   -4.0728264  0.013193618   -5.1286052    1.0557788      1024000 
  704000   0.70451516   -5.1290383   -5.1290383   -4.0722677  0.015062099   -5.1290383    1.0567706      1024000 
  705000   0.70336345   -5.1279512   -5.1279512   -4.0729082  0.013192009   -5.1279512     1.055043      1024000 
  706000   0.70332679   -5.1271902   -5.1271902   -4.0722021   0.01371947   -5.1271902    1.0549881      1024000 
  707000   0.70475162   -5.1286709   -5.1286709   -4.0715457 0.0059978664   -5.1286709    1.0571253      1024000 
  708000   0.70327456   -5.1262706   -5.1262706   -4.0713609 0.0068002229   -5.1262706    1.0549097      1024000 
  709000   0.70313891    -5.125432    -5.125432   -4.0707258 0.0098338049    -5.125432    1.0547062      1024000 
  710000   0.70440439   -5.1275464   -5.1275464   -4.0709419 0.0047875278   -5.1275464    1.0566044      1024000 
  711000   0.70434191   -5.1263371   -5.1263371   -4.0698264 0.0026017554   -5.1263371    1.0565107      1024000 
  712000   0.70347239   -5.1245937   -5.1245937   -4.0693873 0.0020794027   -5.1245937    1.0552064      1024000 
  713000   0.70430956   -5.1248284   -5.1248284   -4.0683662 0.0051740887   -5.1248284    1.0564622      1024000 
  714000   0.70335335   -5.1235142   -5.1235142   -4.0684864 0.0064018687   -5.1235142    1.0550279      1024000 
  715000   0.70416172   -5.1236866   -5.1236866   -4.0674462 0.0013543959   -5.1236866    1.0562404      1024000 
  716000   0.70421748   -5.1231993   -5.1231993   -4.0668752 0.0038404975   -5.1231993    1.0563241      1024000 
  717000   0.70395322    -5.122092    -5.122092   -4.0661643 0.0034272266    -5.122092    1.0559277      1024000 
  718000   0.70400382   -5.1213542   -5.1213542   -4.0653506 0.0051727306   -5.1213542    1.0560036      1024000 
  719000   0.70427135   -5.1208428   -5.1208428   -4.0644379 0.0054185299   -5.1208428    1.0564049      1024000 
  720000   0.70559011   -5.1214564   -5.1214564   -4.0630733 0.0023433215   -5.1214564     1.058383      1024000 
  721000   0.70417671   -5.1191053   -5.1191053   -4.0628424 0.0040413879   -5.1191053    1.0562629      1024000 
  722000   0.70484019   -5.1198785   -5.1198785   -4.0626204 0.0034313693   -5.1198785    1.0572581      1024000 
  723000   0.70486484   -5.1194422   -5.1194422   -4.0621471 0.0055282907   -5.1194422    1.0572951      1024000 
  724000   0.70451644   -5.1187846   -5.1187846    -4.062012 0.0061234642   -5.1187846    1.0567725      1024000 
  725000   0.70536778   -5.1195091   -5.1195091   -4.0614596 0.00056459757   -5.1195091    1.0580495      1024000 
  726000    0.7064892   -5.1198357   -5.1198357   -4.0601041  0.001605536   -5.1198357    1.0597316      1024000 
  727000   0.70615419     -5.11844     -5.11844   -4.0592109 0.0026979101     -5.11844    1.0592291      1024000 
  728000   0.70432571   -5.1158692   -5.1158692   -4.0593828 0.0087064776   -5.1158692    1.0564864      1024000 
  729000   0.70589302   -5.1180578   -5.1180578   -4.0592204 0.0015608922   -5.1180578    1.0588374      1024000 
  730000   0.70510515   -5.1166356   -5.1166356     -4.05898 0.0023358475   -5.1166356    1.0576556      1024000 
  731000   0.70645068   -5.1178798   -5.1178798   -4.0582059 -0.00076396158   -5.1178798    1.0596739      1024000 
  732000   0.70628595   -5.1167379   -5.1167379   -4.0573112  0.001196278   -5.1167379    1.0594268      1024000 
  733000   0.70561644   -5.1155847   -5.1155847   -4.0571622  0.004323354   -5.1155847    1.0584225      1024000 
  734000   0.70589214   -5.1154997   -5.1154997   -4.0566636  0.003614862   -5.1154997    1.0588361      1024000 
  735000   0.70657138   -5.1153298   -5.1153298   -4.0554749 0.0024022417   -5.1153298    1.0598549      1024000 
  736000   0.70621761   -5.1141987   -5.1141987   -4.0548744 0.0040133143   -5.1141987    1.0593243      1024000 
  737000   0.70672491   -5.1153965   -5.1153965   -4.0553113 0.0013475839   -5.1153965    1.0600852      1024000 
  738000   0.70770372   -5.1168114   -5.1168114    -4.055258 0.0043647366   -5.1168114    1.0615534      1024000 
  739000   0.70576966   -5.1133393   -5.1133393   -4.0546869 0.0086555695   -5.1133393    1.0586523      1024000 
  740000   0.70714342   -5.1152741   -5.1152741   -4.0545611 0.0064384147   -5.1152741     1.060713      1024000 
  741000   0.70632499   -5.1132318   -5.1132318   -4.0537465 0.0034590239   -5.1132318    1.0594853      1024000 
  742000   0.70688002   -5.1128057   -5.1128057   -4.0524878  0.003879006   -5.1128057    1.0603179      1024000 
  743000   0.70854531   -5.1144664   -5.1144664   -4.0516506 0.0049899116   -5.1144664    1.0628158      1024000 
  744000   0.70722387   -5.1126678   -5.1126678   -4.0518342 0.0080322131   -5.1126678    1.0608337      1024000 
  745000   0.70836199   -5.1132531   -5.1132531   -4.0507122 0.0067752503   -5.1132531    1.0625408      1024000 
  746000   0.70785407   -5.1120778   -5.1120778   -4.0502989 0.0076978888   -5.1120778     1.061779      1024000 
  747000   0.70839849   -5.1127051   -5.1127051   -4.0501095 0.0085865849   -5.1127051    1.0625956      1024000 
  748000   0.70717723   -5.1096955   -5.1096955   -4.0489318  0.014457148   -5.1096955    1.0607637      1024000 
  749000   0.70791994   -5.1097078   -5.1097078     -4.04783  0.012775188   -5.1097078    1.0618778      1024000 
  750000    0.7095001   -5.1117561   -5.1117561   -4.0475081 0.0046058968   -5.1117561     1.064248      1024000 
  751000   0.70876832    -5.110631    -5.110631   -4.0474807 0.0083446674    -5.110631    1.0631503      1024000 
  752000   0.70846954   -5.1100304   -5.1100304   -4.0473283 0.0079912271   -5.1100304    1.0627022      1024000 
  753000    0.7083374   -5.1094599   -5.1094599   -4.0469559 0.0055384679   -5.1094599    1.0625039      1024000 
  754000   0.70788257   -5.1077369   -5.1077369   -4.0459152 0.0090482304   -5.1077369    1.0618217      1024000 
  755000   0.70898534   -5.1092856   -5.1092856   -4.0458097 -0.00027222749   -5.1092856    1.0634759      1024000 
  756000   0.70912323   -5.1081831   -5.1081831   -4.0445004 0.00083526556   -5.1081831    1.0636827      1024000 
  757000    0.7083481   -5.1065566   -5.1065566   -4.0440366 0.0041140163   -5.1065566      1.06252      1024000 
  758000   0.70863082   -5.1064913   -5.1064913   -4.0435472 0.0041406313   -5.1064913    1.0629441      1024000 
  759000   0.70893498   -5.1061068   -5.1061068   -4.0427065 0.0055782777   -5.1061068    1.0634003      1024000 
  760000   0.70946547   -5.1065611   -5.1065611   -4.0423651  0.002754695   -5.1065611     1.064196      1024000 
  761000   0.70893845   -5.1046437   -5.1046437   -4.0412382  0.007401772   -5.1046437    1.0634055      1024000 
  762000   0.70989728   -5.1058245   -5.1058245   -4.0409808 0.0032337636   -5.1058245    1.0648438      1024000 
  763000   0.71066337   -5.1062343   -5.1062343   -4.0402414 -0.0021897874   -5.1062343    1.0659929      1024000 
  764000   0.70989737   -5.1044689   -5.1044689    -4.039625 -0.00073115255   -5.1044689    1.0648439      1024000 
  765000    0.7100184   -5.1038277   -5.1038277   -4.0388023 -0.0027648149   -5.1038277    1.0650254      1024000 
  766000   0.70960766   -5.1021517   -5.1021517   -4.0377423 -0.0017102477   -5.1021517    1.0644093      1024000 
  767000   0.70928158   -5.1011606   -5.1011606   -4.0372404 -0.00015920675   -5.1011606    1.0639202      1024000 
  768000   0.70981837   -5.1009223   -5.1009223   -4.0361969 0.0073720998   -5.1009223    1.0647254      1024000 
  769000   0.71101645   -5.1020522   -5.1020522   -4.0355297 0.0018831495   -5.1020522    1.0665225      1024000 
  770000   0.71089235   -5.1016499   -5.1016499   -4.0353135 0.0055180298   -5.1016499    1.0663364      1024000 
  771000   0.71139766   -5.1015456   -5.1015456   -4.0344512 0.0061527371   -5.1015456    1.0670943      1024000 
  772000   0.71041907   -5.0988862   -5.0988862   -4.0332598  0.010561798   -5.0988862    1.0656264      1024000 
  773000   0.71108171   -5.0985045   -5.0985045   -4.0318841  0.011891353   -5.0985045    1.0666204      1024000 
  774000    0.7115424   -5.0985681   -5.0985681   -4.0312566 0.0099292153   -5.0985681    1.0673114      1024000 
  775000   0.71157306   -5.0984455   -5.0984455   -4.0310881 0.0079207004   -5.0984455    1.0673574      1024000 
  776000   0.71123173   -5.0970266   -5.0970266   -4.0301812 0.0012633982   -5.0970266    1.0668454      1024000 
  777000   0.71118534    -5.097596    -5.097596   -4.0308201 -0.0026994024    -5.097596    1.0667758      1024000 
  778000    0.7115388   -5.0975733   -5.0975733   -4.0302673 -0.0018837266   -5.0975733     1.067306      1024000 
  779000   0.71052358   -5.0951472   -5.0951472    -4.029364 0.00056070058   -5.0951472    1.0657832      1024000 
  780000   0.71088812   -5.0951063   -5.0951063   -4.0287763 -0.0022981528   -5.0951063      1.06633      1024000 
  781000   0.71090253   -5.0940415   -5.0940415   -4.0276898 0.0045986757   -5.0940415    1.0663516      1024000 
  782000   0.71186511   -5.0943685   -5.0943685    -4.026573 0.0067010249   -5.0943685    1.0677955      1024000 
  783000   0.71288598   -5.0954725   -5.0954725   -4.0261457  0.003302914   -5.0954725    1.0693268      1024000 
  784000   0.71221585   -5.0941854   -5.0941854   -4.0258638 0.0059590558   -5.0941854    1.0683216      1024000 
  785000   0.71200641   -5.0942808   -5.0942808   -4.0262733 0.0052873006   -5.0942808    1.0680074      1024000 
  786000   0.71303328   -5.0946014   -5.0946014   -4.0250537 0.0013914217   -5.0946014    1.0695477      1024000 
  787000   0.71285967   -5.0929065   -5.0929065   -4.0236191 0.0019423662   -5.0929065    1.0692873      1024000 
  788000   0.71306015   -5.0921149   -5.0921149   -4.0225269 0.0071384978   -5.0921149    1.0695881      1024000 
  789000   0.71282463   -5.0910361   -5.0910361   -4.0218013  0.004393216   -5.0910361    1.0692348      1024000 
  790000    0.7120075   -5.0898083   -5.0898083   -4.0217992 0.0028260622   -5.0898083    1.0680091      1024000 
  791000   0.71202157   -5.0899762   -5.0899762    -4.021946 0.00047187499   -5.0899762    1.0680302      1024000 
  792000   0.71353618   -5.0920918   -5.0920918   -4.0217897 0.0045651938   -5.0920918    1.0703021      1024000 
  793000   0.71383307   -5.0919409   -5.0919409   -4.0211935 0.0048852943   -5.0919409    1.0707474      1024000 
  794000   0.71358851   -5.0910941   -5.0910941   -4.0207135 0.0057965278   -5.0910941    1.0703806      1024000 
  795000   0.71320079   -5.0896518   -5.0896518   -4.0198528 0.0085383819   -5.0896518     1.069799      1024000 
  796000   0.71399773   -5.0897851   -5.0897851   -4.0187907  0.010455693   -5.0897851    1.0709944      1024000 
  797000   0.71421873   -5.0889624   -5.0889624   -4.0176364 0.0093020057   -5.0889624    1.0713259      1024000 
  798000   0.71420606   -5.0889193   -5.0889193   -4.0176123 0.0072894285   -5.0889193    1.0713069      1024000 
  799000   0.71434328   -5.0884243   -5.0884243   -4.0169115 0.0067124555   -5.0884243    1.0715128      1024000 
  800000   0.71343645   -5.0869827   -5.0869827   -4.0168302 0.0024928572   -5.0869827    1.0701525      1024000 
  801000   0.71369386   -5.0873555   -5.0873555   -4.0168169 0.0031272682   -5.0873555    1.0705386      1024000 
  802000   0.71451431   -5.0875879   -5.0875879   -4.0158186 0.0032239764   -5.0875879    1.0717693      1024000 
  803000   0.71411354   -5.0867685   -5.0867685   -4.0156004 0.0014295311   -5.0867685    1.0711681      1024000 
  804000   0.71336084   -5.0846951   -5.0846951    -4.014656 0.0058810104   -5.0846951    1.0700391      1024000 
  805000   0.71525982   -5.0866727   -5.0866727   -4.0137851 0.0045605008   -5.0866727    1.0728876      1024000 
  806000   0.71463232   -5.0853596   -5.0853596   -4.0134133 0.0062915649   -5.0853596    1.0719463      1024000 
  807000   0.71468062   -5.0844388   -5.0844388   -4.0124201 0.0062014485   -5.0844388    1.0720188      1024000 
  808000   0.71480911   -5.0844755   -5.0844755    -4.012264 0.0050028301   -5.0844755    1.0722115      1024000 
  809000   0.71448462   -5.0834834   -5.0834834   -4.0117587 0.0085449265   -5.0834834    1.0717248      1024000 
  810000   0.71441545    -5.083011    -5.083011     -4.01139 0.0065527543    -5.083011     1.071621      1024000 
  811000   0.71497916   -5.0832108   -5.0832108   -4.0107442 0.0077446063   -5.0832108    1.0724666      1024000 
  812000   0.71575066   -5.0829251   -5.0829251   -4.0093013 0.0018130806   -5.0829251    1.0736238      1024000 
  813000   0.71467952   -5.0812254   -5.0812254   -4.0092083 0.0043036788   -5.0812254    1.0720171      1024000 
  814000   0.71541589   -5.0819727   -5.0819727   -4.0088511 -0.00067653949   -5.0819727    1.0731217      1024000 
  815000   0.71439685   -5.0796753   -5.0796753   -4.0080822 0.0034931269   -5.0796753    1.0715931      1024000 
  816000   0.71501122   -5.0796615   -5.0796615   -4.0071468 0.0018025217   -5.0796615    1.0725147      1024000 
  817000    0.7153115   -5.0797602   -5.0797602   -4.0067951 0.0036310462   -5.0797602    1.0729651      1024000 
  818000    0.7150409   -5.0794944   -5.0794944   -4.0069352 0.0048864448   -5.0794944    1.0725592      1024000 
  819000   0.71616649   -5.0800339   -5.0800339   -4.0057863 0.0023873521   -5.0800339    1.0742476      1024000 
  820000   0.71652848   -5.0800925   -5.0800925   -4.0053019 0.0021270569   -5.0800925    1.0747905      1024000 
  821000   0.71706174   -5.0797251   -5.0797251   -4.0041347 0.0049360165   -5.0797251    1.0755904      1024000 
  822000   0.71604869    -5.077647    -5.077647   -4.0035762  0.006065633    -5.077647    1.0740709      1024000 
  823000   0.71687644   -5.0772237   -5.0772237   -4.0019113 0.0058839914   -5.0772237    1.0753125      1024000 
  824000   0.71658257   -5.0761485   -5.0761485   -4.0012769 0.0078352461   -5.0761485    1.0748717      1024000 
  825000   0.71802735   -5.0771943   -5.0771943   -4.0001555 0.0023097558   -5.0771943    1.0770388      1024000 
  826000   0.71783573   -5.0770513   -5.0770513   -4.0002999 0.0033331236   -5.0770513    1.0767514      1024000 
  827000   0.71764514   -5.0765233   -5.0765233   -4.0000578 0.0057893509   -5.0765233    1.0764655      1024000 
  828000   0.71643392   -5.0756356   -5.0756356   -4.0009869  0.003559878   -5.0756356    1.0746487      1024000 
  829000   0.71716645   -5.0753595   -5.0753595    -3.999612  0.004790223   -5.0753595    1.0757475      1024000 
  830000   0.71774626   -5.0753777   -5.0753777   -3.9987605 0.0048145474   -5.0753777    1.0766172      1024000 
  831000   0.71817141   -5.0759611   -5.0759611   -3.9987061  0.002111943   -5.0759611    1.0772549      1024000 
  832000   0.71637398   -5.0724751   -5.0724751   -3.9979163 0.0059470344   -5.0724751    1.0745588      1024000 
  833000   0.71735184   -5.0728965   -5.0728965   -3.9968709 -0.00033471758   -5.0728965    1.0760256      1024000 
  834000   0.71731668    -5.071708    -5.071708   -3.9957351 0.0038767248    -5.071708    1.0759728      1024000 
  835000   0.71821021   -5.0718663   -5.0718663   -3.9945532 0.0047777523   -5.0718663    1.0773131      1024000 
  836000   0.71846732   -5.0698759   -5.0698759   -3.9921771  0.011840983   -5.0698759    1.0776988      1024000 
  837000   0.72039736   -5.0725547   -5.0725547   -3.9919609 0.0050033566   -5.0725547    1.0805938      1024000 
  838000   0.71890451   -5.0698269   -5.0698269   -3.9914723  0.011454626   -5.0698269    1.0783546      1024000 
  839000   0.71951372   -5.0698296   -5.0698296   -3.9905612 0.0072227888   -5.0698296    1.0792684      1024000 
  840000   0.72033501   -5.0704791   -5.0704791   -3.9899787    0.0045465   -5.0704791    1.0805003      1024000 
  841000   0.71923193   -5.0687998   -5.0687998   -3.9899541  0.005722912   -5.0687998    1.0788457      1024000 
  842000    0.7203091   -5.0693129   -5.0693129   -3.9888514 0.0028592899   -5.0693129    1.0804615      1024000 
  843000   0.71944303   -5.0679818   -5.0679818   -3.9888194 0.0039123505   -5.0679818    1.0791624      1024000 
  844000   0.71843857   -5.0662646   -5.0662646   -3.9886089 0.0055494896   -5.0662646    1.0776557      1024000 
  845000   0.71804915   -5.0656785   -5.0656785    -3.988607 0.0049175223   -5.0656785    1.0770715      1024000 
  846000   0.71913825   -5.0667543   -5.0667543   -3.9880491 0.0023619042   -5.0667543    1.0787052      1024000 
  847000   0.71966841   -5.0664304   -5.0664304     -3.98693 0.0011966911   -5.0664304    1.0795004      1024000 
  848000   0.72052386   -5.0668681   -5.0668681   -3.9860845 -0.0015331999   -5.0668681    1.0807836      1024000 
  849000   0.71952342    -5.065152    -5.065152    -3.985869 0.0030128614    -5.065152    1.0792829      1024000 
  850000    0.7203856    -5.065075    -5.065075   -3.9844988 -0.00014802361    -5.065075    1.0805762      1024000 
  851000   0.71951663   -5.0632109   -5.0632109   -3.9839382 0.0033157415   -5.0632109    1.0792728      1024000 
  852000   0.71898374   -5.0626989   -5.0626989   -3.9842254 0.00015062366   -5.0626989    1.0784734      1024000 
  853000   0.71984739   -5.0622193   -5.0622193   -3.9824504 0.0029200356   -5.0622193    1.0797689      1024000 
  854000   0.72033827   -5.0619961   -5.0619961   -3.9814908 0.0023486971   -5.0619961    1.0805052      1024000 
  855000   0.72034501   -5.0618234   -5.0618234    -3.981308 0.0057580721   -5.0618234    1.0805153      1024000 
  856000   0.72053378   -5.0609157   -5.0609157   -3.9801172 0.0050333456   -5.0609157    1.0807985      1024000 
  857000   0.72179587   -5.0612453   -5.0612453   -3.9785537 0.0049307572   -5.0612453    1.0826916      1024000 
  858000   0.72120345    -5.059778    -5.059778    -3.977975  0.007748814    -5.059778     1.081803      1024000 
  859000   0.72172337   -5.0600094   -5.0600094   -3.9774266  0.012743789   -5.0600094    1.0825829      1024000 
  860000   0.72201061   -5.0595285   -5.0595285   -3.9765148 0.0056346646   -5.0595285    1.0830137      1024000 
  861000   0.72260085   -5.0597744   -5.0597744   -3.9758753 0.0056473164   -5.0597744    1.0838991      1024000 
  862000   0.72282333   -5.0593312   -5.0593312   -3.9750985 0.0079343383   -5.0593312    1.0842328      1024000 
  863000    0.7226237   -5.0588651   -5.0588651   -3.9749318 0.0047891692   -5.0588651    1.0839334      1024000 
  864000   0.72197709   -5.0561062   -5.0561062   -3.9731428 0.0094200058   -5.0561062    1.0829634      1024000 
  865000   0.72207211   -5.0556934   -5.0556934   -3.9725875 0.0066795768   -5.0556934     1.083106      1024000 
  866000   0.72264643   -5.0558449   -5.0558449   -3.9718775  0.005175319   -5.0558449    1.0839674      1024000 
  867000   0.72297983   -5.0550956   -5.0550956   -3.9706281 0.0023216925   -5.0550956    1.0844675      1024000 
  868000   0.72359702   -5.0556214   -5.0556214    -3.970228 0.00067164436   -5.0556214    1.0853933      1024000 
  869000   0.72279083   -5.0541218   -5.0541218   -3.9699378  0.002226296   -5.0541218     1.084184      1024000 
  870000   0.72252618   -5.0533436   -5.0533436   -3.9695566 0.0035202619   -5.0533436    1.0837871      1024000 
  871000   0.72326193   -5.0539686   -5.0539686   -3.9690779 0.00049849197   -5.0539686    1.0848907      1024000 
  872000   0.72206809   -5.0506771   -5.0506771   -3.9675772 0.0091194446   -5.0506771    1.0830999      1024000 
  873000   0.72211997   -5.0505339   -5.0505339   -3.9673562 0.0027749195   -5.0505339    1.0831778      1024000 
  874000   0.72325606    -5.050872    -5.050872   -3.9659901 0.0023576256    -5.050872    1.0848819      1024000 
  875000   0.72273703   -5.0491221   -5.0491221   -3.9650187 0.0029716801   -5.0491221    1.0841033      1024000 
  876000   0.72332751   -5.0499761   -5.0499761    -3.964987 0.00082072969   -5.0499761    1.0849891      1024000 
  877000   0.72333058   -5.0499839   -5.0499839   -3.9649903 -0.0014667392   -5.0499839    1.0849937      1024000 
  878000   0.72370268   -5.0492371   -5.0492371   -3.9636853 -0.0013113251   -5.0492371    1.0855518      1024000 
  879000    0.7248245   -5.0505801   -5.0505801   -3.9633456 -0.0058035413   -5.0505801    1.0872345      1024000 
  880000   0.72381667   -5.0486012   -5.0486012   -3.9628784 0.00014384031   -5.0486012    1.0857228      1024000 
  881000    0.7245714   -5.0483907   -5.0483907   -3.9615358 -0.0015148234   -5.0483907    1.0868549      1024000 
  882000   0.72381441   -5.0461438   -5.0461438   -3.9604244  0.010066981   -5.0461438    1.0857194      1024000 
  883000   0.72472134   -5.0471793   -5.0471793   -3.9600995 0.0043040599   -5.0471793    1.0870798      1024000 
  884000   0.72482474   -5.0479947   -5.0479947   -3.9607598 0.0011448051   -5.0479947    1.0872349      1024000 
  885000   0.72430589   -5.0463647   -5.0463647   -3.9599081 0.0027643027   -5.0463647    1.0864566      1024000 
  886000   0.72453013   -5.0454763   -5.0454763   -3.9586833 0.0024116536   -5.0454763     1.086793      1024000 
  887000   0.72522045   -5.0459405   -5.0459405    -3.958112  0.004838236   -5.0459405    1.0878285      1024000 
  888000   0.72460921   -5.0437382   -5.0437382   -3.9568266 0.0044659553   -5.0437382    1.0869116      1024000 
  889000   0.72442946   -5.0429058   -5.0429058   -3.9562638 0.0090857446   -5.0429058     1.086642      1024000 
  890000   0.72633676   -5.0457301   -5.0457301   -3.9562271 0.0056467456   -5.0457301    1.0895029      1024000 
  891000   0.72597945   -5.0433892   -5.0433892   -3.9544222  0.010413754   -5.0433892     1.088967      1024000 
  892000   0.72583589   -5.0421455   -5.0421455   -3.9533939  0.010625968   -5.0421455    1.0887516      1024000 
  893000   0.72721613   -5.0437887   -5.0437887   -3.9529667 0.0094875935   -5.0437887     1.090822      1024000 
  894000   0.72699434   -5.0429005   -5.0429005   -3.9524112  0.011842652   -5.0429005    1.0904893      1024000 
  895000   0.72664574   -5.0419327   -5.0419327   -3.9519663  0.010134591   -5.0419327    1.0899664      1024000 
  896000   0.72727541   -5.0416224   -5.0416224   -3.9507115 0.0068996685   -5.0416224    1.0909109      1024000 
  897000   0.72718855   -5.0401539   -5.0401539   -3.9493733 0.0072706222   -5.0401539    1.0907806      1024000 
  898000   0.72813061   -5.0402695   -5.0402695   -3.9480758 0.0042000082   -5.0402695    1.0921937      1024000 
  899000   0.72586232    -5.036099    -5.036099   -3.9473077  0.006867496    -5.036099    1.0887913      1024000 
  900000   0.72677814   -5.0373389   -5.0373389   -3.9471739 0.0031290607   -5.0373389     1.090165      1024000 
  901000   0.72608127   -5.0360013   -5.0360013   -3.9468816 0.0017827898   -5.0360013    1.0891197      1024000 
  902000   0.72708877    -5.037381    -5.037381   -3.9467501 0.0029140211    -5.037381    1.0906309      1024000 
  903000   0.72685985   -5.0355432   -5.0355432   -3.9452557 0.0050774347   -5.0355432    1.0902876      1024000 
  904000   0.72701033   -5.0353179   -5.0353179   -3.9448046 0.0056150681   -5.0353179    1.0905133      1024000 
  905000   0.72876482   -5.0369004   -5.0369004   -3.9437554 0.0044845651   -5.0369004     1.093145      1024000 
  906000   0.72870138   -5.0351966   -5.0351966   -3.9421467 0.0045932694   -5.0351966    1.0930498      1024000 
  907000   0.72858634   -5.0335286   -5.0335286   -3.9406513 0.0016385801   -5.0335286    1.0928773      1024000 
  908000   0.72770979   -5.0313004   -5.0313004   -3.9397379 0.0062299145   -5.0313004    1.0915625      1024000 
  909000   0.72841351   -5.0321042   -5.0321042   -3.9394861 -0.0020548466   -5.0321042     1.092618      1024000 
  910000   0.72814123   -5.0306872   -5.0306872   -3.9384775   0.00538494   -5.0306872    1.0922096      1024000 
  911000    0.7282409   -5.0306972   -5.0306972    -3.938338 0.0013584847   -5.0306972    1.0923591      1024000 
  912000   0.72681439   -5.0274046   -5.0274046   -3.9371853 0.0061961354   -5.0274046    1.0902194      1024000 
  913000   0.72874437   -5.0293918   -5.0293918   -3.9362775 0.00063970447   -5.0293918    1.0931143      1024000 
  914000   0.72855978   -5.0285022   -5.0285022   -3.9356648   0.00146066   -5.0285022    1.0928374      1024000 
  915000   0.72897056   -5.0279402   -5.0279402   -3.9344866 0.00056827341   -5.0279402    1.0934536      1024000 
  916000   0.72979942   -5.0278302   -5.0278302   -3.9331333 0.0062398712   -5.0278302    1.0946969      1024000 
  917000   0.72918019    -5.026588    -5.026588     -3.93282 0.0023268147    -5.026588    1.0937681      1024000 
  918000    0.7286852   -5.0259599   -5.0259599   -3.9329343 -0.0011404835   -5.0259599    1.0930256      1024000 
  919000   0.72960747    -5.025707    -5.025707    -3.931298 0.0002226993    -5.025707     1.094409      1024000 
  920000   0.73043433   -5.0262469   -5.0262469   -3.9305976 -0.00082348644   -5.0262469    1.0956493      1024000 
  921000   0.72981546    -5.024408    -5.024408    -3.929687 -0.0011012625    -5.024408     1.094721      1024000 
  922000   0.72989412   -5.0248713   -5.0248713   -3.9300324 -0.002910178   -5.0248713     1.094839      1024000 
  923000   0.72898372   -5.0230955   -5.0230955   -3.9296221 0.0037698985   -5.0230955    1.0934734      1024000 
  924000   0.72997393   -5.0243392   -5.0243392   -3.9293805  0.002963954   -5.0243392    1.0949587      1024000 
  925000   0.73062761   -5.0232215   -5.0232215   -3.9272823 0.0089756941   -5.0232215    1.0959392      1024000 
  926000   0.73069842   -5.0223936   -5.0223936   -3.9263482 0.0069248808   -5.0223936    1.0960454      1024000 
  927000   0.73110309   -5.0218295   -5.0218295   -3.9251771 0.0059446982   -5.0218295    1.0966524      1024000 
  928000   0.73235333   -5.0231315   -5.0231315   -3.9246038  0.002423868   -5.0231315    1.0985278      1024000 
  929000   0.73144424   -5.0217763   -5.0217763   -3.9246121 0.0097461904   -5.0217763    1.0971641      1024000 
  930000    0.7312633   -5.0211774   -5.0211774   -3.9242847 0.0092341391   -5.0211774    1.0968927      1024000 
  931000   0.73095769    -5.019985    -5.019985   -3.9235506 0.0087634517    -5.019985    1.0964343      1024000 
  932000   0.73149452   -5.0204587   -5.0204587   -3.9232191 0.0046661188   -5.0204587    1.0972396      1024000 
  933000    0.7311411    -5.019733    -5.019733   -3.9230235 0.0050364776    -5.019733    1.0967094      1024000 
  934000   0.73174615   -5.0189395   -5.0189395   -3.9213225 0.0047953591   -5.0189395     1.097617      1024000 
  935000   0.73174145   -5.0174535   -5.0174535   -3.9198435 0.0064743451   -5.0174535      1.09761      1024000 
  936000   0.73201858   -5.0174098   -5.0174098   -3.9193841 0.0079514247   -5.0174098    1.0980256      1024000 
  937000    0.7325935   -5.0181406   -5.0181406   -3.9192526 0.00028126973   -5.0181406     1.098888      1024000 
  938000   0.73340786   -5.0186038   -5.0186038   -3.9184942 0.0030412085   -5.0186038    1.1001096      1024000 
  939000   0.73368716    -5.018613    -5.018613   -3.9180845 0.0010372033    -5.018613    1.1005285      1024000 
  940000    0.7328558   -5.0163445   -5.0163445    -3.917063  0.010893988   -5.0163445    1.0992815      1024000 
  941000    0.7327253   -5.0160133   -5.0160133   -3.9169276 0.0050879393   -5.0160133    1.0990857      1024000 
  942000   0.73329207    -5.015459    -5.015459   -3.9155231 0.0068988383    -5.015459    1.0999359      1024000 
  943000   0.73352348   -5.0145552   -5.0145552   -3.9142723  0.007530978   -5.0145552     1.100283      1024000 
  944000   0.73261184   -5.0125006   -5.0125006   -3.9135851 0.0085776702   -5.0125006    1.0989155      1024000 
  945000   0.73365901   -5.0140263   -5.0140263     -3.91354 0.0010379929   -5.0140263    1.1004863      1024000 
  946000   0.73387494   -5.0138426   -5.0138426   -3.9130324 -0.0014430214   -5.0138426    1.1008102      1024000 
  947000    0.7328258   -5.0121978   -5.0121978   -3.9129613 0.0013181833   -5.0121978    1.0992365      1024000 
  948000    0.7334311   -5.0118714   -5.0118714    -3.911727 -0.00024046052   -5.0118714    1.1001444      1024000 
  949000   0.73386783   -5.0114434   -5.0114434   -3.9106439 -0.00055691116   -5.0114434    1.1007995      1024000 
  950000   0.73297501   -5.0097753   -5.0097753    -3.910315 0.0044066519   -5.0097753    1.0994603      1024000 
  951000    0.7338076   -5.0092846   -5.0092846   -3.9085754 0.0047073663   -5.0092846    1.1007092      1024000 
  952000   0.73418582    -5.009448    -5.009448   -3.9081715 0.0019082305    -5.009448    1.1012765      1024000 
  953000   0.73364104   -5.0086033   -5.0086033    -3.908144 0.0043094941   -5.0086033    1.1004593      1024000 
  954000   0.73466229   -5.0077813   -5.0077813   -3.9057901 0.0068075586   -5.0077813    1.1019912      1024000 
  955000   0.73455668    -5.006772    -5.006772   -3.9049392 0.0040798108    -5.006772    1.1018328      1024000 
  956000   0.73396538   -5.0047125   -5.0047125   -3.9037667 0.0051213416   -5.0047125    1.1009458      1024000 
  957000   0.73504909   -5.0053805   -5.0053805   -3.9028091 0.0046793297   -5.0053805    1.1025714      1024000 
  958000   0.73665577   -5.0068019   -5.0068019   -3.9018205 -0.00071852602   -5.0068019    1.1049814      1024000 
  959000   0.73604193   -5.0042939   -5.0042939   -3.9002333 0.00047572709   -5.0042939    1.1040607      1024000 
  960000   0.73503523   -5.0025262   -5.0025262   -3.8999756 0.0075826669   -5.0025262    1.1025506      1024000 
  961000   0.73547473   -5.0028634   -5.0028634   -3.8996535  0.004388008   -5.0028634    1.1032099      1024000 
  962000   0.73529719   -5.0025246   -5.0025246   -3.8995811 0.0090792977   -5.0025246    1.1029436      1024000 
  963000    0.7359887   -5.0034975   -5.0034975   -3.8995167 0.00018885522   -5.0034975    1.1039808      1024000 
  964000   0.73488278   -5.0008834   -5.0008834   -3.8985615 0.0024859745   -5.0008834    1.1023219      1024000 
  965000   0.73556846   -5.0010201   -5.0010201   -3.8976696 0.0051387135   -5.0010201    1.1033504      1024000 
  966000   0.73627163   -5.0001708   -5.0001708   -3.8957656 0.0068893703   -5.0001708    1.1044052      1024000 
  967000   0.73823634   -5.0023952   -5.0023952    -3.895043 5.1919564e-05   -5.0023952    1.1073523      1024000 
  968000   0.73626991   -4.9987347   -4.9987347    -3.894332 -6.8811159e-05   -4.9987347    1.1044026      1024000 
  969000   0.73691249   -4.9981383   -4.9981383   -3.8927718 0.0049200947   -4.9981383    1.1053665      1024000 
  970000   0.73682516   -4.9965013   -4.9965013   -3.8912659  0.011421781   -4.9965013    1.1052355      1024000 
  971000   0.73758318   -4.9968656   -4.9968656   -3.8904931 0.0096405608   -4.9968656    1.1063725      1024000 
  972000   0.73797999   -4.9977283   -4.9977283   -3.8907605 0.0060312221   -4.9977283    1.1069677      1024000 
  973000   0.73795844   -4.9973642   -4.9973642   -3.8904288 0.0071936301   -4.9973642    1.1069354      1024000 
  974000   0.73812375   -4.9961634   -4.9961634   -3.8889801 0.0076248563   -4.9961634    1.1071834      1024000 
  975000   0.73862611   -4.9955621   -4.9955621   -3.8876252  0.009086428   -4.9955621    1.1079369      1024000 
  976000   0.73800212   -4.9932981   -4.9932981   -3.8862971 0.0081559681   -4.9932981    1.1070009      1024000 
  977000   0.73811458   -4.9931151   -4.9931151   -3.8859454 0.0065677513   -4.9931151    1.1071696      1024000 
  978000    0.7388853   -4.9941942   -4.9941942   -3.8858685 -0.0037663007   -4.9941942    1.1083257      1024000 
  979000   0.73896078   -4.9928449   -4.9928449    -3.884406 0.0017950701   -4.9928449    1.1084389      1024000 
  980000   0.73838057   -4.9908969   -4.9908969   -3.8833283 0.0036447311   -4.9908969    1.1075686      1024000 
  981000   0.73866622    -4.990464    -4.990464   -3.8824669 0.0020985597    -4.990464    1.1079971      1024000 
  982000   0.73978181   -4.9914439   -4.9914439   -3.8817734 0.00091568028   -4.9914439    1.1096705      1024000 
  983000   0.73843099   -4.9889297   -4.9889297   -3.8812854 0.0032979851   -4.9889297    1.1076442      1024000 
  984000   0.73924216   -4.9887103   -4.9887103   -3.8798493 0.00058087019   -4.9887103     1.108861      1024000 
  985000   0.73898569    -4.987245    -4.987245   -3.8787687 0.00013846497    -4.987245    1.1084763      1024000 
  986000   0.73913402   -4.9870754   -4.9870754   -3.8783766 0.0021629236   -4.9870754    1.1086988      1024000 
  987000   0.73913104   -4.9854397   -4.9854397   -3.8767454 0.0083039391   -4.9854397    1.1086943      1024000 
  988000   0.73959429   -4.9846672   -4.9846672    -3.875278 0.0068664111   -4.9846672    1.1093892      1024000 
  989000   0.73918385   -4.9844956   -4.9844956   -3.8757221 0.0013668091   -4.9844956    1.1087735      1024000 
  990000    0.7390746    -4.985004    -4.985004   -3.8763943 -0.00035550059    -4.985004    1.1086097      1024000 
  991000     0.739219   -4.9834527   -4.9834527   -3.8746264 -0.0031140592   -4.9834527    1.1088263      1024000 
  992000   0.73875923   -4.9821846   -4.9821846    -3.874048 -0.0011638721   -4.9821846    1.1081366      1024000 
  993000    0.7400303   -4.9834757   -4.9834757   -3.8734325 0.0027287451   -4.9834757    1.1100432      1024000 
  994000   0.73989546   -4.9825332   -4.9825332   -3.8726922  0.003761144   -4.9825332    1.1098409      1024000 
  995000   0.74065805   -4.9827377   -4.9827377   -3.8717529 0.0017776376   -4.9827377    1.1109848      1024000 
  996000    0.7405161   -4.9810929   -4.9810929    -3.870321 0.0036315181   -4.9810929    1.1107719      1024000 
  997000   0.74077015   -4.9803638   -4.9803638   -3.8692109 0.0033013724   -4.9803638     1.111153      1024000 
  998000   0.74167459   -4.9811028   -4.9811028   -3.8685932 0.0033464233   -4.9811028    1.1125096      1024000 
  999000    0.7411557   -4.9794406   -4.9794406   -3.8677093  0.010880106   -4.9794406    1.1117313      1024000 
 1000000   0.74234884   -4.9792351   -4.9792351   -3.8657141 0.0095284253   -4.9792351     1.113521      1024000 
Loop time of 8125.82 on 96 procs for 1000000 steps with 492800 atoms

Performance: 26581.921 tau/day, 123.064 timesteps/s
99.5% CPU use with 96 MPI tasks x 1 OpenMP threads

MPI task timing breakdown:
Section |  min time  |  avg time  |  max time  |%varavg|  %CPU | %total
-----------------------------------------------------------------------
Pair    | 4588       | 5665.5     | 6290.2     | 526.0 |  99.5 | 69.72
Bond    | 0.76648    | 0.8157     | 0.88569    |   2.7 | 100.0 |  0.01
Neigh   | 518.28     | 631.5      | 685.32     | 160.3 |  99.6 |  7.77
Comm    | 688.46     | 1319       | 2295.5     | 984.6 |  99.3 | 16.23
Output  | 41.099     | 41.277     | 41.284     |   0.3 |  98.9 |  0.51
Modify  | 69.589     | 119.02     | 316        | 743.0 |  99.5 |  1.46
Other   |            | 348.7      |            |       |       |  4.29

Nlocal:        5133.33 ave        5308 max        4872 min
Histogram: 2 1 1 3 3 37 32 9 6 2
Nghost:        7679.65 ave        8468 max        5737 min
Histogram: 23 1 0 0 0 0 0 0 17 55
Neighs:        323736.0 ave      343345 max      270993 min
Histogram: 5 2 2 2 1 6 14 13 26 25

Total # of neighbors = 31078639
Ave neighs/atom = 63.065420
Ave special neighs/atom = 0.0000000
Neighbor list builds = 57397
Dangerous builds = 480
Total wall time: 2:15:27
