LAMMPS (24 Dec 2020)
OMP_NUM_THREADS environment is not set. Defaulting to 1 thread. (src/comm.cpp:94)
  using 1 OpenMP thread(s) per MPI task
#Read the equilibrated lj fluid and add nanocubes

units           lj
atom_style      full
atom_modify     map array first cubes
dimension       3
boundary        p p f
pair_style      lj/cut/opt 2.5

variable        sigma           equal 1.0
variable        epsilon         equal 1.0
read_restart	restart.dat.3000000
Reading restart file ...
  restart file = 29 Oct 2020, LAMMPS = 24 Dec 2020
  restoring atom style full from restart
  orthogonal box = (0.0000000 0.0000000 0.0000000) to (100.00000 100.00000 200.00000)
  4 by 5 by 12 MPI processor grid
  restoring pair style lj/cut/opt from restart
  1010000 atoms
Finding 1-2 1-3 1-4 neighbors ...
  special bond factors lj:    0        0        0       
  special bond factors coul:  0        0        0       
     0 = max # of 1-2 neighbors
     0 = max # of 1-3 neighbors
     0 = max # of 1-4 neighbors
     1 = max # of special neighbors
  special bonds CPU = 1.866 seconds
  read_restart CPU = 2.449 seconds

group		solvent type 1
1010000 atoms in group solvent
read_data	data490_500.cubes group cubes add append
Reading data file ...
  orthogonal box = (0.0000000 0.0000000 0.0000000) to (100.00000 100.00000 200.00000)
  4 by 5 by 12 MPI processor grid
  reading atoms ...
  560070 atoms
  reading velocities ...
  560070 velocities
Finding 1-2 1-3 1-4 neighbors ...
  special bond factors lj:    0        0        0       
  special bond factors coul:  0        0        0       
     0 = max # of 1-2 neighbors
     0 = max # of 1-3 neighbors
     0 = max # of 1-4 neighbors
     1 = max # of special neighbors
  special bonds CPU = 0.006 seconds
  read_data CPU = 1.341 seconds

group 		hull  type 2
218540 atoms in group hull
group 		dummy type 3
341530 atoms in group dummy

neighbor      0.4 bin
neigh_modify  exclude molecule/intra cubes


pair_modify   shift yes

pair_coeff    1 1 1.0 1.0 #solvent
pair_coeff    2 2 0.6 1.0 0.7147 #np
pair_coeff    3 3 0.0 0.0 0.0 #dummy
pair_coeff    2 3 0.0 0.0 0.0 #np dummy
pair_coeff    1 2 0.8 1.0 #np solvent
pair_coeff    1 3 0.0 0.0 2.5 #dummy solvent

# delete solvent where the cubes are
delete_atoms  overlap 1.0 solvent cubes
System init for delete_atoms ...
Neighbor list info ...
  update every 1 steps, delay 10 steps, check yes
  max neighbors/atom: 2000, page size: 100000
  master list distance cutoff = 2.9
  ghost atom cutoff = 2.9
  binsize = 1.45, bins = 69 69 138
  2 neighbor lists, perpetual/occasional/extra = 1 1 0
  (1) command delete_atoms, occasional
      attributes: full, newton on
      pair build: full/bin
      stencil: full/bin/3d
      bin: standard
  (2) pair lj/cut/opt, perpetual
      attributes: half, newton on
      pair build: half/bin/newton
      stencil: half/bin/3d/newton
      bin: standard
WARNING: Delete_atoms cutoff > minimum neighbor cutoff (src/delete_atoms.cpp:307)
WARNING: Ignoring 'compress yes' for molecular system (src/delete_atoms.cpp:125)
Deleted 499530 atoms, new total = 1070540


pair_coeff    1 1 1.0 1.0 #solvent
pair_coeff    2 2 0.6 1.0 0.7147 #np
pair_coeff    3 3 0.0 0.0 0.0 #dummy
pair_coeff    2 3 0.0 0.0 0.0 #np dummy
pair_coeff    1 2 0.8 1.0 #np solvent
pair_coeff    1 3 0.0 0.0 0.0 #dummy solvent


comm_modify   mode multi cutoff/multi 1 2.5 cutoff/multi 2 2.5 cutoff/multi 3 6.95

reset_timestep 	0

balance 	1.05 shift z 10 1.05
Balancing ...
Neighbor list info ...
  update every 1 steps, delay 10 steps, check yes
  max neighbors/atom: 2000, page size: 100000
  master list distance cutoff = 2.9
  ghost atom cutoff = 6.95
  binsize = 1.45, bins = 69 69 138
  1 neighbor lists, perpetual/occasional/extra = 1 0 0
  (1) pair lj/cut/opt, perpetual
      attributes: half, newton on
      pair build: half/bin/newton
      stencil: half/bin/3d/newton
      bin: standard
 rebalancing time: 0.012 seconds
  iteration count = 5
  initial/final maximal load/proc = 6759.0000 5358.0000
  initial/final imbalance factor  = 1.5152727 1.2011882
  x cuts: 0.0000000 0.25000000 0.50000000 0.75000000 1.0000000
  y cuts: 0.0000000 0.20000000 0.40000000 0.60000000 0.80000000 1.0000000
  z cuts: 0.0000000 0.059895833 0.11718750 0.17447917 0.23437500 0.28645833 0.34895833 0.40364583 0.47135417 0.52343750 0.57291667 0.63541667 1.0000000

####################### WALLS ###########################

variable       epsilonWall equal 2*${epsilon}
variable       epsilonWall equal 2*1
variable       repulsive   equal   0.7147*${sigma}
variable       repulsive   equal   0.7147*1
variable       full	   equal   3*${sigma}
variable       full	   equal   3*1
region         lowWall block EDGE EDGE EDGE EDGE EDGE 2

fix            topWall all wall/lj93 zhi EDGE 	       ${epsilonWall} ${sigma} ${repulsive} units box
fix            topWall all wall/lj93 zhi EDGE 	       2 ${sigma} ${repulsive} units box
fix            topWall all wall/lj93 zhi EDGE 	       2 1 ${repulsive} units box
fix            topWall all wall/lj93 zhi EDGE 	       2 1 0.7147 units box
fix            lowSol solvent wall/lj93 zlo EDGE                ${epsilonWall} ${sigma} ${full} units box
fix            lowSol solvent wall/lj93 zlo EDGE                2 ${sigma} ${full} units box
fix            lowSol solvent wall/lj93 zlo EDGE                2 1 ${full} units box
fix            lowSol solvent wall/lj93 zlo EDGE                2 1 3 units box
fix 	       lowCub cubes wall/lj93 zlo EDGE                ${epsilonWall} ${sigma} ${repulsive} units box
fix 	       lowCub cubes wall/lj93 zlo EDGE                2 ${sigma} ${repulsive} units box
fix 	       lowCub cubes wall/lj93 zlo EDGE                2 1 ${repulsive} units box
fix 	       lowCub cubes wall/lj93 zlo EDGE                2 1 0.7147 units box


###################### COMPUTES ##########################

compute        bin1 solvent chunk/atom bin/1d z upper 1.0


######################  FIXES ############################


fix             peclet solvent ave/chunk 10000 1 10000 bin1 density/number norm                  none ave one file density.profile

fix              temp solvent ave/chunk 10000 1 10000 bin1 temp norm                  none ave one file temp.profile

fix             1 cubes rigid/nve/small molecule #temp ${temp} ${temp} 10
  create bodies CPU = 0.053 seconds
  490 rigid bodies with 560070 atoms
  6.9283411 = max distance from body owner to body atom

fix             2 solvent nvt temp ${temp} ${temp} 10
fix             2 solvent nvt temp 1.0 ${temp} 10
fix             2 solvent nvt temp 1.0 1.0 10

#### Load balancing

fix             bal all balance 1000 1.05 shift z 10 1.05

############### Diagnostics and computes ###################

compute        	com cubes          rigid/local   1 mol x y z
compute        	quat cubes         rigid/local   1 mol quatw quati quatj quatk

compute 	cc2 cubes 	   chunk/atom 	 molecule
compute 	msd cubes 	   msd/chunk 	 cc2

fix 		msd all ave/time  1 1 10000 c_msd[*] file dump.msd ave one mode vector

dump            1 all custom 500000 dump.lammpstrj id mol type x y z
dump		cubetrj hull custom 500000 cubes.lammpstrj id mol type x y z
dump            com cubes local 10000 dump.*.xyz c_com[*]
dump	        xyz hull xyz 100000 cubes.xyz
dump            quat cubes      local 10000 dump.*.quat c_quat[*]
#dump		mol cubes molfile 10000 mol.xyz xyz


dump            2 all image 10000 image.*.png type type
dump_modify     2 pad 8
dump		image cubes image 10000 image_cubes.*.png type type
dump_modify	image pad 8
dump            3 all movie 5000 movie.avi type type
dump		4 cubes movie 5000 movie_cubes.avi type type


thermo          1000
thermo_style    custom step temp epair evdwl etotal press pe ke atoms

restart         1000000 restart.dat
timestep        0.005
timer           full
New timer settings: style=full  mode=nosync  timeout=off

#equilibration run with nvt on
run            2000000
Per MPI rank memory allocation (min/avg/max) = 19.34 | 29.04 | 32.49 Mbytes
Step Temp E_pair E_vdwl TotEng Press PotEng KinEng Atoms 
       0   0.85367057   -1.9697504   -1.9697504   -1.3579905  -0.35004369   -1.9697504    0.6117599  1070540 
    1000   0.86483126   -1.9708944   -1.9708944   -1.3511365  -0.04044057   -1.9708944    0.6197579  1070540 
    2000     0.878667   -1.9700504   -1.9700504   -1.3403775 -0.016785342   -1.9700504   0.62967291  1070540 
    3000   0.89141065   -1.9673908   -1.9673908   -1.3285855 0.00024002888   -1.9673908    0.6388053  1070540 
    4000   0.90146819   -1.9624221   -1.9624221   -1.3164093    0.0291427   -1.9624221   0.64601276  1070540 
    5000   0.91322736   -1.9583852   -1.9583852   -1.3039455   0.03380552   -1.9583852   0.65443966  1070540 
    6000   0.92318659   -1.9531074   -1.9531074   -1.2915307  0.058768965   -1.9531074   0.66157667  1070540 
    7000   0.93348634   -1.9481127   -1.9481127    -1.279155  0.068858087   -1.9481127   0.66895771  1070540 
    8000   0.94387341    -1.943339    -1.943339   -1.2669377  0.079080343    -1.943339   0.67640132  1070540 
    9000   0.95426797   -1.9389987   -1.9389987   -1.2551484  0.089792494   -1.9389987    0.6838503  1070540 
   10000   0.96221085   -1.9338042   -1.9338042   -1.2442618   0.10923303   -1.9338042   0.68954235  1070540 
   11000   0.96841678   -1.9274074   -1.9274074   -1.2334178   0.10762149   -1.9274074   0.69398966  1070540 
   12000   0.97480268   -1.9220042   -1.9220042   -1.2234382   0.11124951   -1.9220042   0.69856594  1070540 
   13000   0.97831151   -1.9149783   -1.9149783   -1.2138978   0.11188682   -1.9149783   0.70108045  1070540 
   14000   0.97804427   -1.9056118   -1.9056118   -1.2047229   0.11356268   -1.9056118   0.70088894  1070540 
   15000   0.97937045   -1.8973383   -1.8973383    -1.195499   0.10160206   -1.8973383   0.70183931  1070540 
   16000   0.97848964   -1.8875674   -1.8875674   -1.1863593  0.079930861   -1.8875674    0.7012081  1070540 
   17000   0.97439453   -1.8752679   -1.8752679   -1.1769945  0.068252281   -1.8752679   0.69827345  1070540 
   18000   0.97336411   -1.8649058   -1.8649058   -1.1673707  0.055860528   -1.8649058   0.69753503  1070540 
   19000   0.97169861   -1.8535252   -1.8535252   -1.1571837  0.035601733   -1.8535252    0.6963415  1070540 
   20000   0.97091572   -1.8428114   -1.8428114    -1.147031  0.034116536   -1.8428114   0.69578046  1070540 
   21000    0.9698832   -1.8314774   -1.8314774   -1.1364369  0.014065612   -1.8314774   0.69504053  1070540 
   22000   0.96939977   -1.8207565   -1.8207565   -1.1260624  0.017719311   -1.8207565   0.69469409  1070540 
   23000   0.97027798    -1.810829    -1.810829   -1.1155055  0.017202987    -1.810829   0.69532344  1070540 
   24000   0.97031592    -1.800334    -1.800334   -1.1049834    0.0126427    -1.800334   0.69535062  1070540 
   25000   0.97115933   -1.7904148   -1.7904148   -1.0944598 0.0099795415   -1.7904148   0.69595503  1070540 
   26000    0.9724792   -1.7809518   -1.7809518   -1.0840509 0.0069233832   -1.7809518   0.69690089  1070540 
   27000   0.97253457   -1.7706652   -1.7706652   -1.0737246  0.011710111   -1.7706652   0.69694056  1070540 
   28000     0.976452    -1.763172    -1.763172   -1.0634241 0.0092138944    -1.763172   0.69974788  1070540 
   29000   0.97898595   -1.7551825   -1.7551825   -1.0536187  0.010501141   -1.7551825   0.70156377  1070540 
   30000   0.98130772   -1.7473594   -1.7473594   -1.0441318 0.0055023681   -1.7473594   0.70322761  1070540 
   31000   0.98360097   -1.7396599   -1.7396599   -1.0347889  0.015824363   -1.7396599     0.704871  1070540 
   32000   0.98677162   -1.7330115   -1.7330115   -1.0258683  0.011720653   -1.7330115   0.70714316  1070540 
   33000   0.98925725   -1.7263435   -1.7263435   -1.0174191  0.011534365   -1.7263435   0.70892442  1070540 
   34000   0.98979716   -1.7187517   -1.7187517   -1.0094404  0.012798416   -1.7187517   0.70931133  1070540 
   35000   0.99244898    -1.713163    -1.713163   -1.0019513  0.016111196    -1.713163   0.71121169  1070540 
   36000   0.99482769   -1.7076392   -1.7076392  -0.99472289  0.025511842   -1.7076392   0.71291632  1070540 
   37000    0.9969625   -1.7025765   -1.7025765  -0.98813034  0.020330349   -1.7025765   0.71444618  1070540 
   38000   0.99849141   -1.6979655   -1.6979655  -0.98242366  0.023300214   -1.6979655   0.71554183  1070540 
   39000   0.99828649   -1.6925309   -1.6925309  -0.97713589  0.021654359   -1.6925309   0.71539498  1070540 
   40000    1.0003041   -1.6892862   -1.6892862  -0.97244542  0.020278147   -1.6892862   0.71684083  1070540 
   41000    1.0009063   -1.6855074   -1.6855074  -0.96823502  0.029206068   -1.6855074    0.7172724  1070540 
   42000    1.0023882   -1.6832213   -1.6832213  -0.96488692  0.026492996   -1.6832213   0.71833435  1070540 
   43000    1.0018433   -1.6805569   -1.6805569  -0.96261303  0.032596852   -1.6805569   0.71794388  1070540 
   44000    1.0042005   -1.6808445   -1.6808445  -0.96121138  0.021056062   -1.6808445   0.71963307  1070540 
   45000    1.0019942   -1.6785695   -1.6785695  -0.96051753  0.020351192   -1.6785695   0.71805199  1070540 
   46000    1.0013032   -1.6778866   -1.6778866  -0.96032976  0.023179866   -1.6778866   0.71755684  1070540 
   47000    1.0008801   -1.6780426   -1.6780426  -0.96078901  0.027333428   -1.6780426   0.71725359  1070540 
   48000   0.99926317   -1.6776321   -1.6776321  -0.96153718  0.025975237   -1.6776321   0.71609489  1070540 
   49000   0.99853003    -1.677536    -1.677536  -0.96196651  0.021170537    -1.677536   0.71556951  1070540 
   50000   0.99942822   -1.6780855   -1.6780855  -0.96187236  0.028720332   -1.6780855   0.71621317  1070540 
   51000   0.99931299   -1.6775418   -1.6775418  -0.96141123  0.023780044   -1.6775418   0.71613059  1070540 
   52000   0.99940983   -1.6767292   -1.6767292  -0.96052923  0.027004637   -1.6767292   0.71619999  1070540 
   53000     1.001056    -1.676863    -1.676863  -0.95948327  0.029835929    -1.676863   0.71737969  1070540 
   54000    1.0014223   -1.6766528   -1.6766528  -0.95901059  0.035638837   -1.6766528    0.7176422  1070540 
   55000    1.0005942   -1.6761072   -1.6761072  -0.95905852  0.029672174   -1.6761072   0.71704871  1070540 
   56000    1.0010906   -1.6769959   -1.6769959  -0.95959144  0.031476265   -1.6769959   0.71740447  1070540 
   57000     1.001462   -1.6783542   -1.6783542  -0.96068355   0.02943494   -1.6783542   0.71767065  1070540 
   58000    1.0003309   -1.6788933   -1.6788933  -0.96203332  0.029262777   -1.6788933   0.71686003  1070540 
   59000    1.0001867   -1.6803126   -1.6803126  -0.96355588  0.024146097   -1.6803126   0.71675674  1070540 
   60000   0.99961988   -1.6815338   -1.6815338  -0.96518324  0.032564692   -1.6815338   0.71635051  1070540 
   61000   0.99965586   -1.6832539   -1.6832539  -0.96687759  0.035096588   -1.6832539    0.7163763  1070540 
   62000   0.99798809   -1.6834909   -1.6834909  -0.96830981  0.025733869   -1.6834909   0.71518114  1070540 
   63000    1.0011322   -1.6867455   -1.6867455   -0.9693112  0.030463607   -1.6867455   0.71743432  1070540 
   64000    1.0010868   -1.6876128   -1.6876128  -0.97021105  0.036512605   -1.6876128   0.71740174  1070540 
   65000   0.99988984   -1.6879379   -1.6879379  -0.97139394  0.036743085   -1.6879379   0.71654398  1070540 
   66000    1.0006247   -1.6895798   -1.6895798  -0.97250914  0.030664097   -1.6895798   0.71707062  1070540 
   67000     1.002395   -1.6925011   -1.6925011  -0.97416187  0.038060726   -1.6925011   0.71833924  1070540 
   68000    1.0019883   -1.6942634   -1.6942634  -0.97621564  0.040383025   -1.6942634   0.71804778  1070540 
   69000    1.0016284   -1.6966151   -1.6966151  -0.97882521  0.037270687   -1.6966151   0.71778987  1070540 
   70000   0.99990496   -1.6980763   -1.6980763  -0.98152149  0.045411197   -1.6980763   0.71655481  1070540 
   71000   0.99961489    -1.700558    -1.700558   -0.9842111  0.033494797    -1.700558   0.71634694  1070540 
   72000   0.99950411   -1.7027163   -1.7027163  -0.98644876  0.038850368   -1.7027163   0.71626755  1070540 
   73000    0.9994412   -1.7046861   -1.7046861  -0.98846359  0.043565945   -1.7046861   0.71622247  1070540 
   74000    1.0002331   -1.7069837   -1.7069837  -0.99019368  0.051587682   -1.7069837      0.71679  1070540 
   75000    1.0011019   -1.7094747   -1.7094747  -0.99206214  0.044610369   -1.7094747   0.71741255  1070540 
   76000    1.0020422   -1.7123133   -1.7123133  -0.99422688  0.049860734   -1.7123133   0.71808642  1070540 
   77000   0.99994518   -1.7132134   -1.7132134  -0.99662979  0.042804925   -1.7132134   0.71658363  1070540 
   78000   0.99969654   -1.7155317   -1.7155317  -0.99912626  0.042137766   -1.7155317   0.71640546  1070540 
   79000    1.0004561   -1.7183222   -1.7183222   -1.0013725  0.038572594   -1.7183222   0.71694977  1070540 
   80000   0.99848985    -1.718588    -1.718588   -1.0030473  0.056920375    -1.718588   0.71554071  1070540 
   81000    1.0010769   -1.7219576   -1.7219576   -1.0045629  0.043900318   -1.7219576   0.71739468  1070540 
   82000    1.0020965   -1.7241976   -1.7241976   -1.0060723  0.051916324   -1.7241976   0.71812529  1070540 
   83000    1.0009243   -1.7251679   -1.7251679   -1.0078826  0.049318137   -1.7251679   0.71728529  1070540 
   84000    1.0000932   -1.7264883   -1.7264883   -1.0097986   0.04828554   -1.7264883    0.7166897  1070540 
   85000   0.99834114   -1.7272434   -1.7272434   -1.0118093     0.039263   -1.7272434   0.71543414  1070540 
   86000   0.99734985   -1.7279441   -1.7279441   -1.0132204  0.047971731   -1.7279441   0.71472376  1070540 
   87000   0.99772106   -1.7290826   -1.7290826   -1.0140928  0.043544177   -1.7290826   0.71498978  1070540 
   88000    0.9984995   -1.7297306   -1.7297306   -1.0141829   0.04491087   -1.7297306   0.71554763  1070540 
   89000     1.000379   -1.7305736   -1.7305736    -1.013679  0.057673831   -1.7305736   0.71689454  1070540 
   90000    1.0005109   -1.7302196   -1.7302196   -1.0132305  0.057556402   -1.7302196   0.71698908  1070540 
   91000    1.0011999   -1.7306386   -1.7306386   -1.0131558  0.044718139   -1.7306386   0.71748277  1070540 
   92000    1.0006205   -1.7307223   -1.7307223   -1.0136547  0.055831253   -1.7307223   0.71706759  1070540 
   93000    1.0010237   -1.7317444   -1.7317444   -1.0143879  0.051029198   -1.7317444   0.71735654  1070540 
   94000    0.9998123   -1.7315954   -1.7315954   -1.0151069  0.045879236   -1.7315954   0.71648841  1070540 
   95000   0.99693972   -1.7296667   -1.7296667   -1.0152368   0.04982092   -1.7296667   0.71442985  1070540 
   96000   0.99812261   -1.7302454   -1.7302454   -1.0149678  0.051058758   -1.7302454   0.71527754  1070540 
   97000   0.99725176   -1.7286311   -1.7286311   -1.0139776  0.043843788   -1.7286311   0.71465347  1070540 
   98000   0.99846693   -1.7279084   -1.7279084   -1.0123841  0.050952256   -1.7279084   0.71552429  1070540 
   99000   0.99925812   -1.7265921   -1.7265921   -1.0105008  0.049215499   -1.7265921   0.71609127  1070540 
  100000   0.99971381   -1.7249087   -1.7249087   -1.0084908  0.046078977   -1.7249087   0.71641783  1070540 
  101000    1.0011071   -1.7239452   -1.7239452   -1.0065289  0.052469379   -1.7239452    0.7174163  1070540 
  102000    1.0019245   -1.7226925   -1.7226925   -1.0046905  0.039628778   -1.7226925   0.71800207  1070540 
  103000    1.0005807   -1.7203532   -1.7203532   -1.0033142  0.050625876   -1.7203532   0.71703906  1070540 
  104000   0.99871983   -1.7181096   -1.7181096   -1.0024041  0.049232927   -1.7181096   0.71570552  1070540 
  105000   0.99900708   -1.7172813   -1.7172813   -1.0013699  0.048137181   -1.7172813   0.71591137  1070540 
  106000    0.9994387   -1.7163551   -1.7163551   -1.0001344  0.054345279   -1.7163551   0.71622068  1070540 
  107000   0.99770981   -1.7138262   -1.7138262   -0.9988445  0.039229516   -1.7138262   0.71498172  1070540 
  108000   0.99891516   -1.7128761   -1.7128761  -0.99703062  0.043622454   -1.7128761    0.7158455  1070540 
  109000   0.99918198   -1.7107732   -1.7107732  -0.99473651  0.036926791   -1.7107732   0.71603671  1070540 
  110000    1.0003598   -1.7089607   -1.7089607  -0.99207994  0.040714522   -1.7089607   0.71688078  1070540 
  111000    1.0003431   -1.7064275   -1.7064275  -0.98955867  0.046351738   -1.7064275   0.71686883  1070540 
  112000     1.001577   -1.7050417   -1.7050417  -0.98728865  0.045788524   -1.7050417   0.71775305  1070540 
  113000    1.0026273   -1.7043101   -1.7043101  -0.98580447  0.041513031   -1.7043101   0.71850567  1070540 
  114000    1.0012843   -1.7022618   -1.7022618   -0.9847185  0.032227351   -1.7022618   0.71754327  1070540 
  115000   0.99862067   -1.6992783   -1.6992783  -0.98364388  0.037105814   -1.6992783   0.71563446  1070540 
  116000   0.99949114    -1.698466    -1.698466  -0.98220775  0.034298703    -1.698466   0.71625826  1070540 
  117000    1.0016283   -1.6982189   -1.6982189  -0.98042913  0.039788123   -1.6982189   0.71778979  1070540 
  118000    1.0010646   -1.6964492   -1.6964492  -0.97906331  0.041862114   -1.6964492   0.71738586  1070540 
  119000   0.99938215   -1.6939521   -1.6939521  -0.97777194  0.041590375   -1.6939521   0.71618015  1070540 
  120000   0.99861802   -1.6922627   -1.6922627   -0.9766301  0.041680962   -1.6922627   0.71563256  1070540 
  121000   0.99913963   -1.6914793   -1.6914793  -0.97547298  0.035632582   -1.6914793   0.71600636  1070540 
  122000    1.0012294   -1.6916336   -1.6916336  -0.97412964  0.039574395   -1.6916336   0.71750394  1070540 
  123000    1.0000702   -1.6897601   -1.6897601  -0.97308683  0.040306607   -1.6897601   0.71667322  1070540 
  124000   0.99967974   -1.6886299   -1.6886299  -0.97223649     0.040622   -1.6886299   0.71639341  1070540 
  125000   0.99937878   -1.6876937   -1.6876937  -0.97151599  0.034649937   -1.6876937   0.71617774  1070540 
  126000     1.001001   -1.6883829   -1.6883829  -0.97104267  0.040198868   -1.6883829   0.71734024  1070540 
  127000   0.99934115   -1.6870879   -1.6870879  -0.97093715  0.041206279   -1.6870879   0.71615077  1070540 
  128000   0.99757431   -1.6854919   -1.6854919  -0.97060728  0.039727689   -1.6854919   0.71488461  1070540 
  129000   0.99839359   -1.6851832   -1.6851832  -0.96971149   0.03129773   -1.6851832   0.71547173  1070540 
  130000    1.0008286   -1.6856331   -1.6856331  -0.96841637  0.033850131   -1.6856331   0.71721669  1070540 
  131000    1.0001589   -1.6840724   -1.6840724  -0.96733563  0.041843477   -1.6840724   0.71673678  1070540 
  132000    1.0021937   -1.6846821   -1.6846821  -0.96648713  0.031269045   -1.6846821   0.71819501  1070540 
  133000    1.0026275   -1.6844419   -1.6844419  -0.96593599  0.037015465   -1.6844419   0.71850588  1070540 
  134000    1.0021131   -1.6842225   -1.6842225  -0.96608526   0.03365213   -1.6842225   0.71813723  1070540 
  135000    1.0015001   -1.6843038   -1.6843038  -0.96660584  0.036565937   -1.6843038   0.71769792  1070540 
  136000    1.0000945   -1.6844456   -1.6844456   -0.9677549  0.045178383   -1.6844456   0.71669067  1070540 
  137000   0.99922447   -1.6848749   -1.6848749  -0.96880779  0.039905928   -1.6848749   0.71606716  1070540 
  138000   0.99889208   -1.6855291   -1.6855291  -0.96970014  0.030580279   -1.6855291   0.71582896  1070540 
  139000   0.99702954   -1.6847569   -1.6847569  -0.97026271  0.040741643   -1.6847569   0.71449422  1070540 
  140000    0.9988596   -1.6860702   -1.6860702  -0.97026451  0.043405026   -1.6860702   0.71580568  1070540 
  141000    1.0004586   -1.6868033   -1.6868033  -0.96985178  0.033205098   -1.6868033   0.71695156  1070540 
  142000    1.0011147   -1.6867861   -1.6867861  -0.96936432  0.043358409   -1.6867861   0.71742174  1070540 
  143000    1.0016536   -1.6871116   -1.6871116  -0.96930367  0.045765365   -1.6871116   0.71780793  1070540 
  144000    1.0022792   -1.6880747   -1.6880747  -0.96981851  0.043222035   -1.6880747   0.71825622  1070540 
  145000    1.0000237   -1.6875925   -1.6875925  -0.97095254  0.046405798   -1.6875925   0.71663993  1070540 
  146000   0.99881062   -1.6879049   -1.6879049  -0.97213428   0.04209892   -1.6879049   0.71577058  1070540 
  147000   0.99915104   -1.6891602   -1.6891602  -0.97314571  0.039257759   -1.6891602   0.71601454  1070540 
  148000   0.99825861   -1.6893755   -1.6893755   -0.9740005  0.037801176   -1.6893755     0.715375  1070540 
  149000   0.99908148   -1.6905199   -1.6905199  -0.97455518   0.05081105   -1.6905199   0.71596469  1070540 
  150000     1.000981    -1.692292    -1.692292  -0.97496608  0.042244509    -1.692292   0.71732594  1070540 
  151000   0.99998651   -1.6923247   -1.6923247  -0.97571146  0.036357258   -1.6923247   0.71661325  1070540 
  152000   0.99978809   -1.6928403   -1.6928403  -0.97636921  0.048880943   -1.6928403   0.71647106  1070540 
  153000    1.0011698   -1.6947743   -1.6947743  -0.97731305  0.037005753   -1.6947743   0.71746125  1070540 
  154000     1.001084   -1.6957502   -1.6957502  -0.97835041  0.041028373   -1.6957502   0.71739976  1070540 
  155000    1.0011215   -1.6967698   -1.6967698  -0.97934325  0.036708904   -1.6967698   0.71742658  1070540 
  156000    1.0002129    -1.697256    -1.697256  -0.98048058  0.045933527    -1.697256   0.71677546  1070540 
  157000   0.99827142   -1.6969951   -1.6969951  -0.98161093  0.048693459   -1.6969951   0.71538418  1070540 
  158000    1.0006926   -1.6997283   -1.6997283  -0.98260905  0.044607533   -1.6997283   0.71711926  1070540 
  159000     1.000218   -1.7007265   -1.7007265  -0.98394739  0.040679161   -1.7007265   0.71677914  1070540 
  160000   0.99937789   -1.7016094   -1.7016094  -0.98543233  0.047958218   -1.7016094    0.7161771  1070540 
  161000    0.9988256   -1.7021941   -1.7021941  -0.98641283  0.042100331   -1.7021941   0.71578131  1070540 
  162000   0.99835932   -1.7024765   -1.7024765  -0.98702933  0.044451849   -1.7024765   0.71544717  1070540 
  163000    1.0005795   -1.7041704   -1.7041704  -0.98713213   0.05402599   -1.7041704   0.71703824  1070540 
  164000     1.000368   -1.7041756   -1.7041756  -0.98728903  0.051898179   -1.7041756   0.71688661  1070540 
  165000   0.99992001    -1.704334    -1.704334  -0.98776844  0.044574466    -1.704334   0.71656559  1070540 
  166000   0.99887071   -1.7039661   -1.7039661  -0.98815251   0.04643744   -1.7039661   0.71581364  1070540 
  167000    1.0003052   -1.7051066   -1.7051066  -0.98826499  0.052711084   -1.7051066   0.71684163  1070540 
  168000    1.0010609   -1.7058923   -1.7058923  -0.98850914  0.049401262   -1.7058923   0.71738316  1070540 
  169000    1.0001941   -1.7056762   -1.7056762  -0.98891411  0.046094711   -1.7056762   0.71676205  1070540 
  170000   0.99846611   -1.7048157   -1.7048157  -0.98929201  0.052340525   -1.7048157    0.7155237  1070540 
  171000    1.0002538   -1.7065348   -1.7065348  -0.98973001  0.048819919   -1.7065348   0.71680483  1070540 
  172000    1.0003959   -1.7067264   -1.7067264  -0.98981974  0.048128284   -1.7067264   0.71690665  1070540 
  173000   0.99938742   -1.7063093   -1.7063093   -0.9901254  0.050196919   -1.7063093   0.71618393  1070540 
  174000     1.000051   -1.7072392   -1.7072392  -0.99057974   0.04637594   -1.7072392   0.71665946  1070540 
  175000   0.99896221   -1.7065288   -1.7065288  -0.99064955  0.046324605   -1.7065288   0.71587922  1070540 
  176000    1.0001924   -1.7072623   -1.7072623  -0.99050147  0.044297111   -1.7072623   0.71676082  1070540 
  177000   0.99960447   -1.7065226   -1.7065226  -0.99018317  0.052298861   -1.7065226   0.71633948  1070540 
  178000    1.0007071    -1.706293    -1.706293  -0.98916334    0.0371904    -1.706293   0.71712962  1070540 
  179000   0.99974621   -1.7048565   -1.7048565  -0.98841542  0.056010532   -1.7048565   0.71644105  1070540 
  180000   0.99953944   -1.7040012   -1.7040012  -0.98770837  0.052846491   -1.7040012   0.71629287  1070540 
  181000    1.0003544    -1.703817    -1.703817  -0.98694009  0.056628137    -1.703817   0.71687687  1070540 
  182000   0.99934129   -1.7026187   -1.7026187  -0.98646782  0.047797392   -1.7026187   0.71615087  1070540 
  183000   0.99980669   -1.7025475   -1.7025475  -0.98606307  0.046817639   -1.7025475   0.71648439  1070540 
  184000   0.99869194   -1.7012706   -1.7012706  -0.98558504  0.038452815   -1.7012706   0.71568554  1070540 
  185000   0.99948839   -1.7010662   -1.7010662  -0.98480992  0.039251499   -1.7010662   0.71625629  1070540 
  186000    1.0003675   -1.7008801   -1.7008801   -0.9839938  0.047249863   -1.7008801   0.71688626  1070540 
  187000    1.0004871   -1.7001685   -1.7001685  -0.98319648   0.04410776   -1.7001685   0.71697201  1070540 
  188000   0.99991935   -1.6990495   -1.6990495  -0.98248443  0.045523378   -1.6990495   0.71656512  1070540 
  189000   0.99908938   -1.6975885   -1.6975885  -0.98161817   0.04053035   -1.6975885   0.71597035  1070540 
  190000    1.0006669   -1.6979053   -1.6979053  -0.98080453  0.056404947   -1.6979053   0.71710081  1070540 
  191000    1.0006922   -1.6972186   -1.6972186  -0.98009959  0.040584453   -1.6972186   0.71711898  1070540 
  192000    1.0009286   -1.6967899   -1.6967899  -0.97950151  0.048248952   -1.6967899   0.71728838  1070540 
  193000     1.001466   -1.6966628   -1.6966628  -0.97898938   0.04251521   -1.6966628   0.71767347  1070540 
  194000   0.99891367   -1.6944535   -1.6944535  -0.97860908  0.044634879   -1.6944535   0.71584443  1070540 
  195000   0.99852075   -1.6932149   -1.6932149  -0.97765208  0.039948179   -1.6932149   0.71556286  1070540 
  196000   0.99948886   -1.6930363   -1.6930363  -0.97677965   0.04529528   -1.6930363   0.71625662  1070540 
  197000   0.99969534   -1.6919808   -1.6919808  -0.97557619  0.045236465   -1.6919808   0.71640459  1070540 
  198000   0.99991062   -1.6912722   -1.6912722  -0.97471336   0.04918087   -1.6912722   0.71655887  1070540 
  199000    1.0012249   -1.6914295   -1.6914295  -0.97392878   0.04306808   -1.6914295    0.7175007  1070540 
  200000    1.0005493   -1.6904033   -1.6904033  -0.97338682  0.047745582   -1.6904033   0.71701653  1070540 
  201000    1.0001913   -1.6895457   -1.6895457  -0.97278572  0.043940323   -1.6895457   0.71675999  1070540 
  202000    1.0005007   -1.6892819   -1.6892819  -0.97230017  0.036913338   -1.6892819   0.71698171  1070540 
  203000   0.99932002   -1.6880223   -1.6880223  -0.97188664  0.047355691   -1.6880223   0.71613563  1070540 
  204000    1.0009987   -1.6886963   -1.6886963  -0.97135772  0.039666166   -1.6886963   0.71733859  1070540 
  205000    1.0010303   -1.6880468   -1.6880468  -0.97068557  0.045795873   -1.6880468   0.71736127  1070540 
  206000    1.0001884   -1.6871761   -1.6871761  -0.97041819  0.041757771   -1.6871761   0.71675793  1070540 
  207000     1.000012   -1.6866417   -1.6866417  -0.97001018  0.040704694   -1.6866417   0.71663154  1070540 
  208000    1.0006735   -1.6866222   -1.6866222  -0.96951666  0.045395861   -1.6866222   0.71710558  1070540 
  209000    1.0010953   -1.6866322   -1.6866322  -0.96922431  0.042316722   -1.6866322   0.71740787  1070540 
  210000    1.0012526   -1.6864513   -1.6864513  -0.96893077  0.044049748   -1.6864513   0.71752053  1070540 
  211000   0.99995806   -1.6856406   -1.6856406   -0.9690477  0.047124735   -1.6856406   0.71659287  1070540 
  212000    1.0003652   -1.6863063   -1.6863063  -0.96942163  0.041490119   -1.6863063   0.71688465  1070540 
  213000    1.0002244   -1.6865505   -1.6865505  -0.96976679  0.041970257   -1.6865505   0.71678373  1070540 
  214000   0.99981653   -1.6868352   -1.6868352  -0.97034372  0.042912445   -1.6868352   0.71649144  1070540 
  215000    1.0004409   -1.6877139   -1.6877139    -0.970775  0.031994519   -1.6877139    0.7169389  1070540 
  216000    0.9998623   -1.6875324   -1.6875324  -0.97100815  0.046854387   -1.6875324   0.71652424  1070540 
  217000    0.9991467    -1.686897    -1.686897  -0.97088557   0.04372268    -1.686897   0.71601143  1070540 
  218000    1.0003153   -1.6872825   -1.6872825  -0.97043359    0.0377595   -1.6872825   0.71684889  1070540 
  219000    1.0019561   -1.6880393   -1.6880393  -0.97001459  0.042000954   -1.6880393    0.7180247  1070540 
  220000    1.0014119      -1.6874      -1.6874  -0.96976524  0.042751424      -1.6874   0.71763474  1070540 
  221000   0.99954279   -1.6861058   -1.6861058  -0.96981052  0.044833189   -1.6861058   0.71629527  1070540 
  222000   0.99988484   -1.6867447   -1.6867447  -0.97020431  0.046871161   -1.6867447   0.71654039  1070540 
  223000    1.0004553   -1.6878577   -1.6878577  -0.97090854  0.045693375   -1.6878577   0.71694919  1070540 
  224000   0.99926084   -1.6876225   -1.6876225  -0.97152923  0.050870111   -1.6876225   0.71609322  1070540 
  225000    1.0000713   -1.6887818   -1.6887818  -0.97210782  0.037558369   -1.6887818     0.716674  1070540 
  226000    1.0008913   -1.6898009   -1.6898009  -0.97253928  0.046385356   -1.6898009   0.71726162  1070540 
  227000   0.99994637   -1.6897023   -1.6897023  -0.97311784  0.041797843   -1.6897023   0.71658449  1070540 
  228000    1.0004513   -1.6906625   -1.6906625  -0.97371623  0.043088204   -1.6906625    0.7169463  1070540 
  229000    1.0002066   -1.6910342   -1.6910342  -0.97426316    0.0445644   -1.6910342   0.71677099  1070540 
  230000   0.99968924   -1.6911704   -1.6911704  -0.97477018  0.040133968   -1.6911704   0.71640022  1070540 
  231000    1.0004082   -1.6921398   -1.6921398  -0.97522436  0.041724612   -1.6921398   0.71691547  1070540 
  232000     1.000176   -1.6926604   -1.6926604  -0.97591133  0.053777125   -1.6926604   0.71674905  1070540 
  233000   0.99840564   -1.6917854   -1.6917854  -0.97630499  0.044158251   -1.6917854   0.71548036  1070540 
  234000   0.99858688   -1.6919556   -1.6919556   -0.9763454  0.047170784   -1.6919556   0.71561024  1070540 
  235000    1.0002898    -1.692998    -1.692998  -0.97616743  0.045873437    -1.692998   0.71683058  1070540 
  236000   0.99988165   -1.6924498   -1.6924498  -0.97591168  0.051760335   -1.6924498   0.71653811  1070540 
  237000    1.0020186   -1.6937437   -1.6937437  -0.97567423  0.049176507   -1.6937437   0.71806952  1070540 
  238000    1.0023161    -1.694267    -1.694267  -0.97598429  0.043520873    -1.694267   0.71828267  1070540 
  239000    1.0011013    -1.694395    -1.694395  -0.97698286  0.050009611    -1.694395   0.71741214  1070540 
  240000   0.99978454   -1.6946539   -1.6946539  -0.97818542  0.045420848   -1.6946539   0.71646851  1070540 
  241000    1.0005681   -1.6965094   -1.6965094  -0.97947938  0.047165641   -1.6965094   0.71703003  1070540 
  242000   0.99901599   -1.6963356   -1.6963356   -0.9804178  0.047930701   -1.6963356   0.71591776  1070540 
  243000   0.99891384   -1.6970099   -1.6970099  -0.98116535  0.043430242   -1.6970099   0.71584455  1070540 
  244000   0.99872126   -1.6973175   -1.6973175  -0.98161091  0.049074785   -1.6973175   0.71570654  1070540 
  245000   0.99777756   -1.6965478   -1.6965478  -0.98151756   0.03858838   -1.6965478   0.71503026  1070540 
  246000    1.0001737   -1.6978166   -1.6978166  -0.98106924  0.043598705   -1.6978166   0.71674738  1070540 
  247000    1.0009413   -1.6979562   -1.6979562   -0.9806587  0.055249963   -1.6979562    0.7172975  1070540 
  248000    1.0005964    -1.697411    -1.697411  -0.98036069  0.050201563    -1.697411   0.71705033  1070540 
  249000    1.0005028   -1.6973904   -1.6973904  -0.98040715   0.04723665   -1.6973904   0.71698322  1070540 
  250000    1.0003733   -1.6974654   -1.6974654  -0.98057494  0.048203592   -1.6974654   0.71689044  1070540 
  251000    1.0012866   -1.6987106   -1.6987106   -0.9811656  0.052987691   -1.6987106   0.71754496  1070540 
  252000    1.0005301    -1.698879    -1.698879  -0.98187619  0.051013106    -1.698879   0.71700283  1070540 
  253000   0.99886331   -1.6986342   -1.6986342  -0.98282589  0.053962561   -1.6986342   0.71580834  1070540 
  254000   0.99823544    -1.698988    -1.698988  -0.98362962  0.055657945    -1.698988   0.71535839  1070540 
  255000   0.99892223   -1.6999448   -1.6999448  -0.98409421  0.039089339   -1.6999448   0.71585056  1070540 
  256000   0.99924369   -1.7000812   -1.7000812  -0.98400024  0.038784433   -1.7000812   0.71608093  1070540 
  257000   0.99953763   -1.6996902   -1.6996902  -0.98339862  0.047705387   -1.6996902   0.71629158  1070540 
  258000    1.0002968   -1.6994927   -1.6994927  -0.98265703  0.049091455   -1.6994927   0.71683565  1070540 
  259000    1.0007835   -1.6989816   -1.6989816   -0.9817972  0.045265885   -1.6989816   0.71718442  1070540 
  260000   0.99998665   -1.6977561   -1.6977561  -0.98114275  0.044799843   -1.6977561   0.71661335  1070540 
  261000   0.99993505    -1.697306    -1.697306  -0.98072964  0.047677923    -1.697306   0.71657637  1070540 
  262000     1.001321   -1.6980713   -1.6980713   -0.9805017  0.053506542   -1.6980713   0.71756958  1070540 
  263000    1.0011631   -1.6981036   -1.6981036  -0.98064715  0.041276156   -1.6981036    0.7174564  1070540 
  264000    1.0017452   -1.6986363   -1.6986363  -0.98076273  0.043475058   -1.6986363   0.71787357  1070540 
  265000   0.99773521   -1.6960736   -1.6960736  -0.98107372  0.048516172   -1.6960736   0.71499992  1070540 
  266000   0.99893926   -1.6970956   -1.6970956  -0.98123281  0.048455497   -1.6970956   0.71586277  1070540 
  267000   0.99968246   -1.6972222   -1.6972222  -0.98082685  0.047097135   -1.6972222   0.71639536  1070540 
  268000    1.0008831   -1.6977558   -1.6977558  -0.98050003  0.048499245   -1.6977558   0.71725576  1070540 
  269000   0.99845829   -1.6955685   -1.6955685  -0.98005045  0.047626054   -1.6955685   0.71551809  1070540 
  270000   0.99892686   -1.6953553   -1.6953553  -0.97950147  0.052311016   -1.6953553   0.71585388  1070540 
  271000   0.99969462   -1.6949732   -1.6949732   -0.9785691  0.052045747   -1.6949732   0.71640407  1070540 
  272000    1.0011372   -1.6953537   -1.6953537  -0.97791582  0.042986691   -1.6953537   0.71743783  1070540 
  273000    1.0002546   -1.6944452   -1.6944452  -0.97763981  0.048000155   -1.6944452    0.7168054  1070540 
  274000    1.0018312   -1.6948497   -1.6948497  -0.97691445  0.039660816   -1.6948497   0.71793523  1070540 
  275000    1.0003326   -1.6935505   -1.6935505  -0.97668921   0.04792864   -1.6935505   0.71686125  1070540 
  276000    1.0008021   -1.6937213   -1.6937213  -0.97652356  0.044589234   -1.6937213   0.71719774  1070540 
  277000    1.0007706   -1.6938394   -1.6938394  -0.97666424  0.044144351   -1.6938394   0.71717518  1070540 
  278000   0.99988022   -1.6932712   -1.6932712   -0.9767341  0.043453533   -1.6932712   0.71653708  1070540 
  279000   0.99830162   -1.6919585   -1.6919585  -0.97655267  0.047607974   -1.6919585   0.71540582  1070540 
  280000   0.99933538    -1.692204    -1.692204  -0.97605732  0.045677022    -1.692204   0.71614664  1070540 
  281000   0.99984375   -1.6916654   -1.6916654  -0.97515447  0.041841756   -1.6916654   0.71651095  1070540 
  282000   0.99939792   -1.6903461   -1.6903461  -0.97415463  0.037497711   -1.6903461   0.71619146  1070540 
  283000    1.0004864   -1.6901179   -1.6901179  -0.97314637   0.04426506   -1.6901179   0.71697151  1070540 
  284000    1.0006868    -1.689458    -1.689458  -0.97234294  0.045479125    -1.689458   0.71711509  1070540 
  285000    1.0018753   -1.6898733   -1.6898733  -0.97190657  0.044695291   -1.6898733   0.71796677  1070540 
  286000    1.0011821   -1.6895661   -1.6895661  -0.97209608  0.043172967   -1.6895661   0.71747001  1070540 
  287000    1.0008756   -1.6898275   -1.6898275  -0.97257711   0.04060815   -1.6898275   0.71725043  1070540 
  288000    1.0014105   -1.6905878   -1.6905878  -0.97295408  0.034161887   -1.6905878   0.71763373  1070540 
  289000   0.99950438   -1.6893838   -1.6893838  -0.97311602  0.038109477   -1.6893838   0.71626774  1070540 
  290000   0.99922204   -1.6892159   -1.6892159   -0.9731505  0.041800365   -1.6892159   0.71606542  1070540 
  291000    1.0004474   -1.6896304   -1.6896304   -0.9726868  0.038412715   -1.6896304   0.71694356  1070540 
  292000    1.0004831   -1.6893185   -1.6893185   -0.9723494  0.034187649   -1.6893185    0.7169691  1070540 
  293000    1.0009181   -1.6889825   -1.6889825  -0.97170161  0.043848824   -1.6889825   0.71728085  1070540 
  294000    1.0011551   -1.6885322   -1.6885322  -0.97108149  0.040582887   -1.6885322   0.71745071  1070540 
  295000    1.0006939   -1.6879842   -1.6879842  -0.97086406  0.043089633   -1.6879842   0.71712015  1070540 
  296000    1.0009677   -1.6879788   -1.6879788  -0.97066238  0.047391808   -1.6879788   0.71731638  1070540 
  297000    1.0005547   -1.6880112   -1.6880112   -0.9709907   0.03655713   -1.6880112   0.71702047  1070540 
  298000   0.99991373   -1.6877432   -1.6877432  -0.97118212  0.047179663   -1.6877432    0.7165611  1070540 
  299000   0.99864874   -1.6874362   -1.6874362   -0.9717816  0.049248807   -1.6874362   0.71565458  1070540 
  300000   0.99913587   -1.6880927   -1.6880927  -0.97208902  0.042704888   -1.6880927   0.71600367  1070540 
  301000   0.99754835   -1.6869365   -1.6869365  -0.97207045  0.051938286   -1.6869365   0.71486601  1070540 
  302000   0.99991564    -1.688751    -1.688751   -0.9721885   0.04624297    -1.688751   0.71656246  1070540 
  303000    1.0017318   -1.6902717   -1.6902717  -0.97240771  0.045242122   -1.6902717   0.71786398  1070540 
  304000    1.0003579   -1.6898305   -1.6898305   -0.9729511  0.044355886   -1.6898305   0.71687939  1070540 
  305000   0.99899891   -1.6894249   -1.6894249  -0.97351938  0.050123237   -1.6894249   0.71590551  1070540 
  306000    1.0009558   -1.6913923   -1.6913923  -0.97408445  0.041105958   -1.6913923   0.71730786  1070540 
  307000   0.99915384   -1.6906765   -1.6906765  -0.97465997  0.033906056   -1.6906765   0.71601654  1070540 
  308000     1.000085   -1.6917644   -1.6917644  -0.97508056  0.041983614   -1.6917644   0.71668387  1070540 
  309000    1.0005636    -1.692564    -1.692564  -0.97553721   0.03922419    -1.692564   0.71702679  1070540 
  310000   0.99899354   -1.6917472   -1.6917472  -0.97584551  0.046700171   -1.6917472   0.71590166  1070540 
  311000   0.99991454   -1.6925193   -1.6925193  -0.97595763  0.051565719   -1.6925193   0.71656168  1070540 
  312000   0.99943107   -1.6923464   -1.6923464   -0.9761312  0.048398266   -1.6923464   0.71621521  1070540 
  313000    1.0012501   -1.6940016   -1.6940016  -0.97648281  0.047413792   -1.6940016   0.71751878  1070540 
  314000    1.0007294   -1.6938046   -1.6938046  -0.97665902  0.054543685   -1.6938046   0.71714559  1070540 
  315000   0.99993976   -1.6934916   -1.6934916  -0.97691188  0.042443989   -1.6934916   0.71657975  1070540 
  316000    1.0008471    -1.694556    -1.694556  -0.97732605  0.050947487    -1.694556   0.71722994  1070540 
  317000    1.0002907   -1.6947765   -1.6947765  -0.97794531  0.050701917   -1.6947765   0.71683124  1070540 
  318000    0.9990669   -1.6947403   -1.6947403  -0.97878602  0.052366497   -1.6947403   0.71595424  1070540 
  319000    1.0008918   -1.6969991   -1.6969991  -0.97973716  0.040532404   -1.6969991   0.71726199  1070540 
  320000    1.0006296   -1.6973841   -1.6973841  -0.98030993  0.044312165   -1.6973841   0.71707414  1070540 
  321000   0.99848872   -1.6964053   -1.6964053  -0.98086541  0.042870082   -1.6964053    0.7155399  1070540 
  322000   0.99872834   -1.6967866   -1.6967866  -0.98107501  0.049671931   -1.6967866   0.71571162  1070540 
  323000   0.99866962   -1.6963062   -1.6963062  -0.98063666  0.048284375   -1.6963062   0.71566954  1070540 
  324000   0.99973356   -1.6967922   -1.6967922  -0.98036019  0.049531607   -1.6967922   0.71643198  1070540 
  325000   0.99954435   -1.6961825   -1.6961825  -0.97988611  0.055346898   -1.6961825   0.71629639  1070540 
  326000    1.0010968   -1.6968026   -1.6968026  -0.97939367  0.053061614   -1.6968026   0.71740892  1070540 
  327000    1.0011585   -1.6969136   -1.6969136  -0.97946043  0.052804981   -1.6969136   0.71745314  1070540 
  328000    1.0009169    -1.697161    -1.697161  -0.97988103  0.055447754    -1.697161   0.71727999  1070540 
  329000   0.99956371   -1.6967646   -1.6967646  -0.98045429  0.044952955   -1.6967646   0.71631026  1070540 
  330000   0.99800486   -1.6963475   -1.6963475  -0.98115432  0.048922486   -1.6963475   0.71519316  1070540 
  331000   0.99869002   -1.6972667   -1.6972667  -0.98158254  0.043669471   -1.6972667   0.71568416  1070540 
  332000     1.000002   -1.6983728   -1.6983728  -0.98174845  0.044901653   -1.6983728   0.71662436  1070540 
  333000   0.99854166   -1.6972318   -1.6972318  -0.98165399  0.042671816   -1.6972318   0.71557784  1070540 
  334000   0.99875697   -1.6969264   -1.6969264  -0.98119426  0.046873357   -1.6969264   0.71573213  1070540 
  335000    1.0006842   -1.6975364   -1.6975364  -0.98042316   0.04431874   -1.6975364   0.71711325  1070540 
  336000   0.99987337   -1.6963215   -1.6963215  -0.97978935   0.04330872   -1.6963215   0.71653218  1070540 
  337000    1.0005499   -1.6962825   -1.6962825  -0.97926549  0.050575945   -1.6962825   0.71701697  1070540 
  338000    1.0008247   -1.6958132   -1.6958132  -0.97859928  0.045070096   -1.6958132   0.71721392  1070540 
  339000    1.0002951   -1.6947069   -1.6947069  -0.97787251  0.056303072   -1.6947069   0.71683439  1070540 
  340000     1.000704   -1.6948493   -1.6948493  -0.97772182  0.046231008   -1.6948493   0.71712744  1070540 
  341000    1.0006847   -1.6952275   -1.6952275   -0.9781139   0.04316885   -1.6952275   0.71711359  1070540 
  342000   0.99934162   -1.6949436   -1.6949436  -0.97879244  0.050434115   -1.6949436   0.71615111  1070540 
  343000   0.99724967   -1.6940187   -1.6940187  -0.97936672  0.054336999   -1.6940187   0.71465197  1070540 
  344000   0.99751098   -1.6941827   -1.6941827  -0.97934351  0.046320037   -1.6941827   0.71483923  1070540 
  345000   0.99985905   -1.6952146   -1.6952146  -0.97869264   0.04729564   -1.6952146   0.71652191  1070540 
  346000    1.0005884    -1.695039    -1.695039  -0.97799445  0.051206995    -1.695039   0.71704457  1070540 
  347000    1.0009703   -1.6946278   -1.6946278  -0.97730958  0.050966023   -1.6946278   0.71731826  1070540 
  348000    1.0014848   -1.6948738   -1.6948738  -0.97718682   0.05145357   -1.6948738   0.71768699  1070540 
  349000   0.99968691   -1.6934612   -1.6934612  -0.97706262  0.052792332   -1.6934612   0.71639855  1070540 
  350000    1.0009099     -1.69444     -1.69444  -0.97716501  0.050200631     -1.69444   0.71727498  1070540 
  351000   0.99964988     -1.69382     -1.69382  -0.97744799  0.049950909     -1.69382   0.71637201  1070540 
  352000   0.99942329   -1.6934981   -1.6934981  -0.97728842  0.048882624   -1.6934981   0.71620964  1070540 
  353000   0.99776092   -1.6922807   -1.6922807  -0.97726232  0.048634827   -1.6922807   0.71501834  1070540 
  354000   0.99873684   -1.6923702   -1.6923702  -0.97665254  0.048085322   -1.6923702   0.71571771  1070540 
  355000   0.99801795   -1.6908362   -1.6908362  -0.97563368  0.045838215   -1.6908362   0.71520254  1070540 
  356000    1.0004027   -1.6911344   -1.6911344  -0.97422285  0.044225857   -1.6911344   0.71691151  1070540 
  357000    1.0013378   -1.6905504   -1.6905504  -0.97296875  0.050385945   -1.6905504   0.71758162  1070540 
  358000    1.0014579   -1.6898215   -1.6898215  -0.97215379   0.04676118   -1.6898215   0.71766771  1070540 
  359000    1.0022614   -1.6900607   -1.6900607  -0.97181722  0.046749084   -1.6900607    0.7182435  1070540 
  360000            1   -1.6887927   -1.6887927  -0.97216976  0.044735133   -1.6887927   0.71662295  1070540 
  361000   0.99897822   -1.6885164   -1.6885164  -0.97262575  0.045338626   -1.6885164   0.71589069  1070540 
  362000   0.99930879   -1.6892767   -1.6892767  -0.97314908  0.056609659   -1.6892767   0.71612759  1070540 
  363000    0.9991356   -1.6896855   -1.6896855  -0.97368201  0.044562224   -1.6896855   0.71600347  1070540 
  364000    0.9993366   -1.6900579   -1.6900579   -0.9739104  0.044085645   -1.6900579   0.71614751  1070540 
  365000   0.99788534   -1.6887741   -1.6887741  -0.97366655  0.046206597   -1.6887741   0.71510751  1070540 
  366000   0.99838635   -1.6885475   -1.6885475    -0.973081  0.047980034   -1.6885475   0.71546654  1070540 
  367000   0.99993483   -1.6887281   -1.6887281  -0.97215184  0.043378374   -1.6887281   0.71657622  1070540 
  368000    1.0006754   -1.6884605   -1.6884605  -0.97135355  0.050093584   -1.6884605   0.71710696  1070540 
  369000    1.0001921   -1.6876616   -1.6876616  -0.97090106  0.044681763   -1.6876616   0.71676058  1070540 
  370000    1.0015465   -1.6883178   -1.6883178  -0.97058666  0.039613569   -1.6883178   0.71773115  1070540 
  371000     1.002052   -1.6888727   -1.6888727  -0.97077922  0.051690239   -1.6888727   0.71809346  1070540 
  372000    1.0015394   -1.6893187   -1.6893187  -0.97159267  0.046505247   -1.6893187   0.71772606  1070540 
  373000    1.0001373   -1.6894983   -1.6894983  -0.97277704  0.045763175   -1.6894983   0.71672129  1070540 
  374000    0.9998229   -1.6901773   -1.6901773  -0.97368125  0.042764207   -1.6901773     0.716496  1070540 
  375000   0.99919138    -1.690358    -1.690358  -0.97431459  0.049188952    -1.690358   0.71604344  1070540 
  376000   0.99909777   -1.6906641   -1.6906641  -0.97468775   0.04154612   -1.6906641   0.71597636  1070540 
  377000   0.99970085   -1.6911783   -1.6911783   -0.9747698  0.040178872   -1.6911783   0.71640854  1070540 
  378000   0.99879887   -1.6906586   -1.6906586   -0.9748964  0.048184836   -1.6906586   0.71576216  1070540 
  379000   0.99950402   -1.6910663   -1.6910663  -0.97479881  0.048644695   -1.6910663   0.71626749  1070540 
  380000    1.0000371   -1.6913043   -1.6913043  -0.97465477  0.039113485   -1.6913043   0.71664952  1070540 
  381000    1.0016665   -1.6923747   -1.6923747   -0.9745576  0.042392303   -1.6923747   0.71781715  1070540 
  382000    1.0007917   -1.6919026   -1.6919026  -0.97471234  0.051521399   -1.6919026   0.71719024  1070540 
  383000   0.99979535   -1.6916614   -1.6916614  -0.97518515  0.049616115   -1.6916614   0.71647626  1070540 
  384000   0.99960698   -1.6917553   -1.6917553  -0.97541399  0.040941483   -1.6917553   0.71634127  1070540 
  385000   0.99915373   -1.6917811   -1.6917811  -0.97576467  0.049239493   -1.6917811   0.71601646  1070540 
  386000   0.99923522   -1.6919871   -1.6919871  -0.97591224  0.036967321   -1.6919871   0.71607486  1070540 
  387000    1.0008494   -1.6937126   -1.6937126  -0.97648099  0.050763434   -1.6937126   0.71723162  1070540 
  388000    1.0000636   -1.6938689   -1.6938689  -0.97720036  0.043503711   -1.6938689   0.71666853  1070540 
  389000    1.0007535   -1.6947654   -1.6947654  -0.97760251    0.0446346   -1.6947654    0.7171629  1070540 
  390000   0.99997442   -1.6946073   -1.6946073  -0.97800271  0.041260102   -1.6946073   0.71660459  1070540 
  391000   0.99770714   -1.6934421   -1.6934421  -0.97846234   0.04930443   -1.6934421    0.7149798  1070540 
  392000   0.99876936   -1.6944195   -1.6944195  -0.97867846  0.048278057   -1.6944195   0.71574102  1070540 
  393000   0.99905369   -1.6944013   -1.6944013  -0.97845658   0.05106406   -1.6944013   0.71594477  1070540 
  394000   0.99973623   -1.6945934   -1.6945934  -0.97815952  0.052195919   -1.6945934    0.7164339  1070540 
  395000    1.0012723   -1.6953666   -1.6953666  -0.97783192  0.048069624   -1.6953666   0.71753471  1070540 
  396000    1.0006793    -1.694489    -1.694489   -0.9773793  0.048738393    -1.694489   0.71710974  1070540 
  397000    1.0012938   -1.6947559   -1.6947559  -0.97720579  0.054301453   -1.6947559   0.71755012  1070540 
  398000    1.0016742   -1.6952622   -1.6952622  -0.97743947  0.049831135   -1.6952622    0.7178227  1070540 
  399000    1.0011904   -1.6960327   -1.6960327  -0.97855668  0.046206596   -1.6960327   0.71747597  1070540 
  400000    0.9996416   -1.6958397   -1.6958397  -0.97947358   0.04833757   -1.6958397   0.71636608  1070540 
  401000    0.9991255   -1.6959266   -1.6959266  -0.97993042  0.044850977   -1.6959266   0.71599623  1070540 
  402000    1.0004322   -1.6971874   -1.6971874  -0.98025471  0.052461944   -1.6971874   0.71693265  1070540 
  403000   0.99901902    -1.696215    -1.696215  -0.98029512  0.053663971    -1.696215   0.71591993  1070540 
  404000    1.0001165   -1.6973629   -1.6973629  -0.98065651   0.05629878   -1.6973629   0.71670643  1070540 
  405000   0.99937781   -1.6971527   -1.6971527  -0.98097567    0.0476408   -1.6971527   0.71617705  1070540 
  406000     1.000207   -1.6980206   -1.6980206  -0.98124931  0.057722457   -1.6980206   0.71677126  1070540 
  407000    0.9983567   -1.6974689   -1.6974689  -0.98202358  0.048182434   -1.6974689   0.71544529  1070540 
  408000   0.99854636   -1.6984472   -1.6984472  -0.98286603   0.05073649   -1.6984472   0.71558121  1070540 
  409000   0.99801777   -1.6984648   -1.6984648  -0.98326237  0.050453515   -1.6984648   0.71520241  1070540 
  410000    0.9977465   -1.6979173   -1.6979173  -0.98290932  0.047017484   -1.6979173   0.71500801  1070540 
  411000      0.99919   -1.6978093   -1.6978093  -0.98176681  0.049274347   -1.6978093   0.71604245  1070540 
  412000    1.0007373   -1.6978757   -1.6978757  -0.98072442  0.050577139   -1.6978757   0.71715127  1070540 
  413000   0.99902917   -1.6961556   -1.6961556  -0.98022835  0.052782453   -1.6961556    0.7159272  1070540 
  414000   0.99980979   -1.6964907   -1.6964907  -0.98000411  0.049736725   -1.6964907   0.71648661  1070540 
  415000     1.000808   -1.6971675   -1.6971675  -0.97996548  0.052636159   -1.6971675   0.71720198  1070540 
  416000    1.0000494    -1.696516    -1.696516  -0.97985769  0.049575227    -1.696516   0.71665829  1070540 
  417000   0.99929288   -1.6961241   -1.6961241  -0.98000793  0.039623249   -1.6961241   0.71611618  1070540 
  418000   0.99940342   -1.6961539   -1.6961539  -0.97995852  0.050264575   -1.6961539   0.71619539  1070540 
  419000    1.0000027   -1.6958148   -1.6958148  -0.97918992  0.050201482   -1.6958148   0.71662489  1070540 
  420000    1.0021894   -1.6960807   -1.6960807  -0.97788882  0.045651339   -1.6960807   0.71819189  1070540 
  421000    1.0011192   -1.6947559   -1.6947559  -0.97733098  0.048303687   -1.6947559   0.71742495  1070540 
  422000    1.0019154   -1.6955396   -1.6955396   -0.9775441  0.045783904   -1.6955396   0.71799551  1070540 
  423000    1.0005793    -1.695012    -1.695012  -0.97797395  0.042532568    -1.695012   0.71703806  1070540 
  424000    1.0008568   -1.6956065   -1.6956065  -0.97836961  0.050740763   -1.6956065   0.71723691  1070540 
  425000   0.99906873   -1.6947405   -1.6947405   -0.9787849  0.049436149   -1.6947405   0.71595555  1070540 
  426000   0.99860303   -1.6944782   -1.6944782  -0.97885639  0.046523572   -1.6944782   0.71562182  1070540 
  427000   0.99869249   -1.6940661   -1.6940661  -0.97838014  0.046256844   -1.6940661   0.71568592  1070540 
  428000    1.0006672   -1.6939513   -1.6939513  -0.97685026  0.042304622   -1.6939513   0.71710108  1070540 
  429000    1.0027828   -1.6944442   -1.6944442  -0.97582708  0.047529829   -1.6944442   0.71861715  1070540 
  430000    1.0013435   -1.6932698   -1.6932698  -0.97568411  0.053135839   -1.6932698   0.71758573  1070540 
  431000    1.0009802   -1.6935306   -1.6935306  -0.97620529  0.047088493   -1.6935306   0.71732535  1070540 
  432000    1.0007695   -1.6937109   -1.6937109  -0.97653657  0.044486941   -1.6937109   0.71717434  1070540 
  433000   0.99796003   -1.6922272   -1.6922272  -0.97706618  0.048333086   -1.6922272   0.71516103  1070540 
  434000    1.0001602   -1.6939782   -1.6939782   -0.9772405  0.042926026   -1.6939782    0.7167377  1070540 
  435000   0.99912939    -1.692765    -1.692765  -0.97676603  0.041312536    -1.692765   0.71599902  1070540 
  436000   0.99925728   -1.6916886   -1.6916886  -0.97559795  0.044975282   -1.6916886   0.71609067  1070540 
  437000   0.99949336   -1.6909077   -1.6909077   -0.9746478  0.042183699   -1.6909077   0.71625985  1070540 
  438000    1.0002634   -1.6909091   -1.6909091  -0.97409743   0.05148009   -1.6909091   0.71681169  1070540 
  439000    1.0001891   -1.6907682   -1.6907682  -0.97400974  0.052481987   -1.6907682   0.71675843  1070540 
  440000    1.0004723   -1.6908819   -1.6908819  -0.97392052  0.050940975   -1.6908819   0.71696139  1070540 
  441000    1.0013766   -1.6912749   -1.6912749  -0.97366545  0.048028819   -1.6912749   0.71760942  1070540 
  442000   0.99902553   -1.6893135   -1.6893135  -0.97338894  0.043819066   -1.6893135   0.71592459  1070540 
  443000    1.0003778   -1.6900724   -1.6900724   -0.9731788  0.043427615   -1.6900724   0.71689365  1070540 
  444000    1.0017882   -1.6909253   -1.6909253  -0.97302093  0.040366994   -1.6909253    0.7179044  1070540 
  445000    1.0003423   -1.6900102   -1.6900102    -0.973142  0.046541575   -1.6900102   0.71686824  1070540 
  446000    1.0001576   -1.6902569   -1.6902569    -0.973521  0.052436027   -1.6902569   0.71673588  1070540 
  447000    1.0000721   -1.6910127   -1.6910127  -0.97433816  0.044074963   -1.6910127   0.71667457  1070540 
  448000    1.0004919   -1.6922683   -1.6922683  -0.97529293  0.055439155   -1.6922683   0.71697542  1070540 
  449000   0.99831769   -1.6915359   -1.6915359  -0.97611858  0.043514096   -1.6915359   0.71541734  1070540 
  450000   0.99880789   -1.6919208   -1.6919208  -0.97615218  0.039962288   -1.6919208   0.71576862  1070540 
  451000   0.99909162   -1.6919041   -1.6919041   -0.9759321  0.043985853   -1.6919041   0.71597195  1070540 
  452000    1.0002916   -1.6920864   -1.6920864  -0.97525455  0.044903094   -1.6920864   0.71683187  1070540 
  453000    1.0001851   -1.6912606   -1.6912606  -0.97450501  0.048269205   -1.6912606   0.71675556  1070540 
  454000     1.000171    -1.690492    -1.690492  -0.97374648  0.045559061    -1.690492   0.71674549  1070540 
  455000    1.0029222   -1.6920835   -1.6920835  -0.97336649  0.042040635   -1.6920835   0.71871704  1070540 
  456000        1.003   -1.6925083   -1.6925083  -0.97373551  0.045952496   -1.6925083   0.71877276  1070540 
  457000    1.0013078   -1.6917999   -1.6917999  -0.97423981   0.05006157   -1.6917999    0.7175601  1070540 
  458000     1.000818   -1.6920813   -1.6920813  -0.97487212   0.04886623   -1.6920813   0.71720914  1070540 
  459000   0.99986131   -1.6920617   -1.6920617  -0.97553821  0.049766337   -1.6920617   0.71652353  1070540 
  460000    1.0002637   -1.6930038   -1.6930038  -0.97619187  0.057273313   -1.6930038   0.71681192  1070540 
  461000    1.0004727   -1.6937719   -1.6937719   -0.9768102  0.051571866   -1.6937719   0.71696169  1070540 
  462000   0.99871072   -1.6930248   -1.6930248  -0.97732583  0.041961269   -1.6930248   0.71569899  1070540 
  463000   0.99881004   -1.6932969   -1.6932969  -0.97752671  0.045928983   -1.6932969   0.71577017  1070540 
  464000   0.99987167   -1.6935864   -1.6935864  -0.97705546  0.049539546   -1.6935864   0.71653096  1070540 
  465000     1.000588   -1.6933866   -1.6933866  -0.97634226  0.051777138   -1.6933866   0.71704433  1070540 
  466000    1.0001974   -1.6925978   -1.6925978  -0.97583341  0.046211556   -1.6925978   0.71676435  1070540 
  467000    1.0017878   -1.6933469   -1.6933469   -0.9754428  0.050494856   -1.6933469   0.71790407  1070540 
  468000    1.0009808   -1.6927319   -1.6927319  -0.97540611  0.050994456   -1.6927319   0.71732581  1070540 
  469000    1.0020782   -1.6938978   -1.6938978  -0.97578558  0.053867459   -1.6938978   0.71811218  1070540 
  470000   0.99927503   -1.6922683   -1.6922683  -0.97616487  0.051837972   -1.6922683   0.71610339  1070540 
  471000    1.0014286   -1.6943784   -1.6943784  -0.97673168  0.052595583   -1.6943784   0.71764669  1070540 
  472000    1.0005016   -1.6942613   -1.6942613  -0.97727887  0.045443338   -1.6942613   0.71698239  1070540 
  473000     1.000437   -1.6943755   -1.6943755  -0.97743937  0.049405628   -1.6943755    0.7169361  1070540 
  474000    0.9995518   -1.6939577   -1.6939577  -0.97765594  0.052040317   -1.6939577   0.71630173  1070540 
  475000   0.99872929    -1.693342    -1.693342  -0.97762966  0.048318146    -1.693342    0.7157123  1070540 
  476000   0.99962318   -1.6935618   -1.6935618  -0.97720894  0.054339554   -1.6935618   0.71635288  1070540 
  477000    1.0002583   -1.6933345   -1.6933345  -0.97652643  0.055819321   -1.6933345   0.71680806  1070540 
  478000   0.99982111   -1.6918102   -1.6918102  -0.97531548  0.044858488   -1.6918102   0.71649472  1070540 
  479000    1.0012187   -1.6920314   -1.6920314   -0.9745351  0.048141011   -1.6920314   0.71749626  1070540 
  480000    1.0020122   -1.6925387   -1.6925387  -0.97447382  0.058208705   -1.6925387   0.71806488  1070540 
  481000    1.0018723   -1.6929888   -1.6929888  -0.97502415   0.05301972   -1.6929888   0.71796468  1070540 
  482000    1.0012163   -1.6933733   -1.6933733  -0.97587871  0.052702789   -1.6933733   0.71749457  1070540 
  483000   0.99983139   -1.6929868   -1.6929868  -0.97648468  0.053923951   -1.6929868   0.71650209  1070540 
  484000   0.99916954    -1.692918    -1.692918  -0.97689016  0.051585269    -1.692918   0.71602779  1070540 
  485000   0.99957673   -1.6936338   -1.6936338   -0.9773142  0.045937088   -1.6936338   0.71631959  1070540 
  486000   0.99783704   -1.6924841   -1.6924841  -0.97741118  0.048144121   -1.6924841   0.71507289  1070540 
  487000    1.0001733   -1.6938761   -1.6938761  -0.97712895  0.054556645   -1.6938761   0.71674714  1070540 
  488000    1.0001832   -1.6933276   -1.6933276   -0.9765734  0.048336662   -1.6933276   0.71675423  1070540 
  489000    1.0007129   -1.6930052   -1.6930052  -0.97587139  0.048521247   -1.6930052    0.7171338  1070540 
  490000    1.0014033   -1.6929433   -1.6929433  -0.97531468   0.04731573   -1.6929433   0.71762859  1070540 
  491000    1.0026217   -1.6932801   -1.6932801  -0.97477838    0.0499896   -1.6932801   0.71850171  1070540 
  492000    1.0000097   -1.6914574   -1.6914574  -0.97482748  0.051618411   -1.6914574   0.71662988  1070540 
  493000    1.0004975   -1.6923465   -1.6923465  -0.97536701  0.038011638   -1.6923465   0.71697947  1070540 
  494000    1.0005291   -1.6932597   -1.6932597   -0.9762576  0.051353023   -1.6932597    0.7170021  1070540 
  495000   0.99915013   -1.6929872   -1.6929872  -0.97697331  0.053560121   -1.6929872   0.71601388  1070540 
  496000   0.99803486    -1.692636    -1.692636  -0.97742135  0.047419093    -1.692636   0.71521466  1070540 
  497000   0.99893608   -1.6930168   -1.6930168  -0.97715628  0.053811164   -1.6930168   0.71586049  1070540 
  498000   0.99872182   -1.6920816   -1.6920816  -0.97637467  0.042335946   -1.6920816   0.71570695  1070540 
  499000   0.99972861   -1.6917313   -1.6917313   -0.9753029  0.050222848   -1.6917313   0.71642844  1070540 
  500000     1.001377   -1.6923331   -1.6923331  -0.97472335  0.051134775   -1.6923331   0.71760972  1070540 
  501000    1.0005648   -1.6918978   -1.6918978  -0.97487013  0.052417483   -1.6918978    0.7170277  1070540 
  502000   0.99997908   -1.6918186   -1.6918186  -0.97521067  0.050895819   -1.6918186   0.71660793  1070540 
  503000    1.0004411   -1.6925071   -1.6925071  -0.97556802  0.047300723   -1.6925071   0.71693905  1070540 
  504000    1.0000978   -1.6924863   -1.6924863  -0.97579338  0.047857242   -1.6924863   0.71669297  1070540 
  505000   0.99930625   -1.6918864   -1.6918864   -0.9757606  0.047281118   -1.6918864   0.71612576  1070540 
  506000   0.99996268   -1.6919105   -1.6919105   -0.9753143  0.046726116   -1.6919105   0.71659618  1070540 
  507000    1.0022827    -1.692819    -1.692819  -0.97456031  0.040417653    -1.692819   0.71825873  1070540 
  508000    1.0021326   -1.6920188   -1.6920188  -0.97386765  0.050030039   -1.6920188    0.7181512  1070540 
  509000    1.0007451   -1.6905918   -1.6905918  -0.97343494  0.046472973   -1.6905918   0.71715687  1070540 
  510000    1.0010015   -1.6905077   -1.6905077  -0.97316716  0.048164664   -1.6905077   0.71734059  1070540 
  511000      1.00062   -1.6904391   -1.6904391  -0.97337183  0.048210253   -1.6904391   0.71706723  1070540 
  512000   0.99993027   -1.6902193   -1.6902193  -0.97364634  0.044290222   -1.6902193   0.71657295  1070540 
  513000   0.99946898   -1.6907719   -1.6907719  -0.97452951  0.047099049   -1.6907719   0.71624238  1070540 
  514000   0.99940989   -1.6914351   -1.6914351  -0.97523509  0.046646702   -1.6914351   0.71620003  1070540 
  515000   0.99931294   -1.6918818   -1.6918818  -0.97575128  0.044010084   -1.6918818   0.71613055  1070540 
  516000   0.99826277    -1.691297    -1.691297  -0.97591897  0.044908903    -1.691297   0.71537798  1070540 
  517000    1.0002382    -1.692485    -1.692485  -0.97569144  0.040473752    -1.692485   0.71679361  1070540 
  518000    1.0014923   -1.6929245   -1.6929245  -0.97523216  0.053352239   -1.6929245   0.71769232  1070540 
  519000    1.0024791   -1.6928406   -1.6928406  -0.97444109  0.054913313   -1.6928406   0.71839953  1070540 
  520000    1.0033543     -1.69302     -1.69302  -0.97399328   0.04999986     -1.69302   0.71902667  1070540 
  521000    1.0016696   -1.6920838   -1.6920838  -0.97426439  0.051979147   -1.6920838   0.71781936  1070540 
  522000   0.99925647   -1.6914288   -1.6914288  -0.97533872  0.056205212   -1.6914288   0.71609009  1070540 
  523000    1.0002182   -1.6931206   -1.6931206   -0.9763413  0.055120525   -1.6931206   0.71677931  1070540 
  524000   0.99995492   -1.6935041   -1.6935041  -0.97691353  0.050476174   -1.6935041   0.71659061  1070540 
  525000   0.99844203   -1.6924098   -1.6924098  -0.97690331  0.045185064   -1.6924098   0.71550644  1070540 
  526000   0.99925828   -1.6927267   -1.6927267  -0.97663531  0.038678636   -1.6927267   0.71609139  1070540 
  527000    1.0011239   -1.6935477   -1.6935477  -0.97611931  0.043359416   -1.6935477   0.71742836  1070540 
  528000    1.0012299   -1.6931746   -1.6931746  -0.97567032  0.040533566   -1.6931746    0.7175043  1070540 
  529000    1.0018661   -1.6929897   -1.6929897  -0.97502944  0.047082569   -1.6929897   0.71796024  1070540 
  530000    1.0012657    -1.692264    -1.692264    -0.974734  0.047615107    -1.692264   0.71752996  1070540 
  531000    1.0020404    -1.692689    -1.692689  -0.97460386  0.046768431    -1.692689   0.71808512  1070540 
  532000    1.0010826   -1.6927737   -1.6927737  -0.97537502    0.0461746   -1.6927737   0.71739872  1070540 
  533000    1.0014544   -1.6940965   -1.6940965  -0.97643137   0.05178548   -1.6940965   0.71766517  1070540 
  534000    1.0008893   -1.6946583   -1.6946583  -0.97739807  0.049078023   -1.6946583   0.71726018  1070540 
  535000    1.0002229   -1.6949326   -1.6949326  -0.97814995  0.047894762   -1.6949326   0.71678268  1070540 
  536000   0.99931998   -1.6948649   -1.6948649  -0.97872929  0.046939278   -1.6948649    0.7161356  1070540 
  537000     1.000142   -1.6955316   -1.6955316  -0.97880687   0.05330465   -1.6955316   0.71672468  1070540 
  538000    1.0005241   -1.6958439   -1.6958439  -0.97884542  0.052892425   -1.6958439    0.7169985  1070540 
  539000    1.0001537   -1.6960946   -1.6960946  -0.97936158  0.056449726   -1.6960946   0.71673307  1070540 
  540000   0.99951565   -1.6963143   -1.6963143  -0.98003852  0.045889795   -1.6963143   0.71627583  1070540 
  541000   0.99987195   -1.6973048   -1.6973048  -0.98077369  0.044680404   -1.6973048   0.71653115  1070540 
  542000   0.99870893    -1.697272    -1.697272  -0.98157428  0.040717437    -1.697272   0.71569771  1070540 
  543000   0.99858684   -1.6973511   -1.6973511  -0.98174085  0.049768547   -1.6973511   0.71561022  1070540 
  544000    0.9989813   -1.6975883   -1.6975883  -0.98169543  0.046805432   -1.6975883    0.7158929  1070540 
  545000    1.0003059   -1.6977377   -1.6977377  -0.98089555  0.048110142   -1.6977377   0.71684217  1070540 
  546000    1.0019444   -1.6976868   -1.6976868  -0.97967047  0.051159563   -1.6976868   0.71801631  1070540 
  547000     1.002437     -1.69747     -1.69747  -0.97910071  0.054865512     -1.69747    0.7183693  1070540 
  548000    1.0027665   -1.6980888   -1.6980888  -0.97948334  0.056330742   -1.6980888   0.71860544  1070540 
  549000    1.0017877   -1.6984165   -1.6984165  -0.98051242  0.052190995   -1.6984165   0.71790403  1070540 
  550000   0.99869969   -1.6970806   -1.6970806  -0.98138952  0.053366163   -1.6970806   0.71569109  1070540 
  551000   0.99994789   -1.6984748   -1.6984748  -0.98188923  0.051339723   -1.6984748   0.71658558  1070540 
  552000    1.0003746   -1.6990464   -1.6990464  -0.98215501  0.051801579   -1.6990464   0.71689138  1070540 
  553000     0.999326   -1.6987297   -1.6987297  -0.98258981  0.049417143   -1.6987297   0.71613992  1070540 
  554000   0.99839158    -1.698267    -1.698267  -0.98279669   0.05499771    -1.698267   0.71547029  1070540 
  555000   0.99991745   -1.6992055   -1.6992055  -0.98264174  0.051905305   -1.6992055   0.71656377  1070540 
  556000    1.0005194   -1.6993566   -1.6993566  -0.98236146   0.05081232   -1.6993566   0.71699512  1070540 
  557000     1.001427   -1.7003213   -1.7003213  -0.98267569   0.05056862   -1.7003213   0.71764557  1070540 
  558000    1.0002132   -1.7000457   -1.7000457  -0.98327001  0.051255423   -1.7000457   0.71677567  1070540 
  559000   0.99934206     -1.70027     -1.70027  -0.98411859  0.048283323     -1.70027   0.71615142  1070540 
  560000   0.99961261   -1.7012471   -1.7012471  -0.98490177  0.041890995   -1.7012471   0.71634531  1070540 
  561000   0.99980831   -1.7015081   -1.7015081   -0.9850225  0.054564741   -1.7015081   0.71648555  1070540 
  562000   0.99850081     -1.70045     -1.70045  -0.98490144  0.042762964     -1.70045   0.71554857  1070540 
  563000   0.99980134   -1.7007967   -1.7007967  -0.98431611   0.05025176   -1.7007967   0.71648055  1070540 
  564000    1.0010227   -1.7006213   -1.7006213  -0.98326552  0.049757474   -1.7006213   0.71735582  1070540 
  565000    1.0011359   -1.6998894   -1.6998894  -0.98245253  0.050204792   -1.6998894   0.71743691  1070540 
  566000    1.0006133    -1.699482    -1.699482  -0.98241957  0.047817663    -1.699482   0.71706243  1070540 
  567000   0.99954715   -1.6986205   -1.6986205  -0.98232209  0.050668836   -1.6986205   0.71629839  1070540 
  568000    1.0017317   -1.7003689   -1.7003689  -0.98250497  0.044700868   -1.7003689   0.71786393  1070540 
  569000   0.99844974   -1.6979601   -1.6979601  -0.98244809   0.05314732   -1.6979601   0.71551197  1070540 
  570000   0.99983937   -1.6990097   -1.6990097  -0.98250185   0.04603181   -1.6990097   0.71650781  1070540 
  571000   0.99916007   -1.6983175   -1.6983175  -0.98229652  0.053379049   -1.6983175   0.71602101  1070540 
  572000     0.999485   -1.6983572   -1.6983572  -0.98210336  0.051291658   -1.6983572   0.71625386  1070540 
  573000    1.0005273   -1.6988942   -1.6988942  -0.98189339  0.048353319   -1.6988942   0.71700079  1070540 
  574000    1.0001778   -1.6981774   -1.6981774  -0.98142708  0.052033586   -1.6981774   0.71675031  1070540 
  575000   0.99970516   -1.6974791   -1.6974791   -0.9810675  0.047300526   -1.6974791   0.71641163  1070540 
  576000     1.001143   -1.6973341   -1.6973341  -0.97989204  0.048187833   -1.6973341   0.71744204  1070540 
  577000    1.0010553   -1.6962382   -1.6962382  -0.97885905  0.049434489   -1.6962382   0.71737914  1070540 
  578000    1.0017589    -1.696285    -1.696285  -0.97840157  0.046329515    -1.696285    0.7178834  1070540 
  579000    1.0018484   -1.6964909   -1.6964909  -0.97854338  0.047675303   -1.6964909   0.71794752  1070540 
  580000    1.0005136   -1.6961291   -1.6961291  -0.97913806  0.050635935   -1.6961291   0.71699099  1070540 
  581000    1.0001911   -1.6963932   -1.6963932  -0.97963339  0.044407754   -1.6963932   0.71675986  1070540 
  582000   0.99887954   -1.6959106   -1.6959106  -0.98009061  0.049448835   -1.6959106   0.71581997  1070540 
  583000   0.99984088   -1.6967882   -1.6967882  -0.98027934  0.044874332   -1.6967882   0.71650889  1070540 
  584000   0.99972507   -1.6967117   -1.6967117  -0.98028583  0.052972501   -1.6967117    0.7164259  1070540 
  585000   0.99849128   -1.6951641   -1.6951641  -0.97962235  0.043585021   -1.6951641   0.71554174  1070540 
  586000    1.0003954   -1.6952034   -1.6952034  -0.97829713  0.051953634   -1.6952034   0.71690629  1070540 
  587000    1.0019561    -1.695524    -1.695524  -0.97749925  0.049186274    -1.695524   0.71802472  1070540 
  588000    1.0015562   -1.6951849   -1.6951849  -0.97744682  0.048155083   -1.6951849    0.7177381  1070540 
  589000    1.0021706   -1.6957498   -1.6957498  -0.97757139   0.04693259   -1.6957498   0.71817839  1070540 
  590000    1.0010627   -1.6959163   -1.6959163  -0.97853182   0.05095476   -1.6959163   0.71738451  1070540 
  591000    1.0009661   -1.6967176   -1.6967176  -0.97940237  0.041905949   -1.6967176   0.71731528  1070540 
  592000   0.99948484   -1.6963967   -1.6963967  -0.98014298  0.051826619   -1.6963967   0.71625374  1070540 
  593000   0.99970445   -1.6968865   -1.6968865  -0.98047536  0.046252622   -1.6968865   0.71641112  1070540 
  594000   0.99918771    -1.696724    -1.696724  -0.98068317    0.0524903    -1.696724   0.71604081  1070540 
  595000   0.99951844   -1.6968579   -1.6968579  -0.98058006  0.048384819   -1.6968579   0.71627783  1070540 
  596000   0.99978355   -1.6968262   -1.6968262  -0.98035843  0.047921669   -1.6968262    0.7164678  1070540 
  597000    1.0005348   -1.6966712   -1.6966712  -0.97966507  0.054283276   -1.6966712   0.71700615  1070540 
  598000    1.0017296   -1.6964371   -1.6964371   -0.9785747  0.050063985   -1.6964371   0.71786242  1070540 
  599000    1.0017651   -1.6955599   -1.6955599  -0.97767206  0.055529462   -1.6955599   0.71788785  1070540 
  600000    1.0012453    -1.695241    -1.695241  -0.97772567  0.054760548    -1.695241   0.71751531  1070540 
  601000    1.0013875    -1.695826    -1.695826  -0.97820876  0.049402291    -1.695826   0.71761726  1070540 
  602000    1.0004711   -1.6958639   -1.6958639  -0.97890332  0.046964075   -1.6958639   0.71696055  1070540 
  603000   0.99926692   -1.6953199   -1.6953199  -0.97922235   0.05194353   -1.6953199   0.71609758  1070540 
  604000   0.99900675   -1.6951765   -1.6951765  -0.97926533  0.040402532   -1.6951765   0.71591113  1070540 
  605000    1.0016324   -1.6967687   -1.6967687  -0.97897592  0.049220517   -1.6967687   0.71779273  1070540 
  606000    1.0007066   -1.6961405   -1.6961405  -0.97901118  0.052573989   -1.6961405   0.71712929  1070540 
  607000    1.0001568   -1.6960543   -1.6960543  -0.97931903     0.049514   -1.6960543   0.71673532  1070540 
  608000    0.9995498   -1.6959366   -1.6959366  -0.97963633  0.039264321   -1.6959366   0.71630029  1070540 
  609000    0.9985639   -1.6958663   -1.6958663  -0.98027247   0.05037888   -1.6958663   0.71559378  1070540 
  610000   0.99821682   -1.6962773   -1.6962773  -0.98093229  0.048746753   -1.6962773   0.71534505  1070540 
  611000   0.99650337   -1.6954762   -1.6954762  -0.98135905  0.041255581   -1.6954762   0.71411715  1070540 
  612000   0.99884264   -1.6968103   -1.6968103  -0.98101672  0.048876889   -1.6968103   0.71579353  1070540 
  613000    1.0006974   -1.6969438   -1.6969438  -0.97982111  0.047606145   -1.6969438   0.71712271  1070540 
  614000    1.0000552   -1.6955292   -1.6955292  -0.97886677  0.044900435   -1.6955292   0.71666247  1070540 
  615000    1.0015475   -1.6964027   -1.6964027  -0.97867078  0.040973021   -1.6964027   0.71773189  1070540 
  616000    1.0010904   -1.6960147   -1.6960147  -0.97861031  0.048552711   -1.6960147   0.71740434  1070540 
  617000    1.0008534   -1.6960353   -1.6960353  -0.97880082  0.057481628   -1.6960353    0.7172345  1070540 
  618000    1.0002647   -1.6961944   -1.6961944  -0.97938183  0.048774233   -1.6961944   0.71681259  1070540 
  619000   0.99997167   -1.6967721   -1.6967721  -0.98016951  0.056329484   -1.6967721   0.71660262  1070540 
  620000     1.000019   -1.6974468   -1.6974468  -0.98081023    0.0506424   -1.6974468   0.71663655  1070540 
  621000    0.9997037   -1.6974774   -1.6974774  -0.98106685  0.051360206   -1.6974774   0.71641059  1070540 
  622000    1.0008106   -1.6984196   -1.6984196  -0.98121578  0.050520874   -1.6984196   0.71720384  1070540 
  623000    1.0000376   -1.6979813   -1.6979813  -0.98133138  0.052458979   -1.6979813    0.7166499  1070540 
  624000   0.99993335   -1.6979759   -1.6979759  -0.98140076  0.052734971   -1.6979759   0.71657516  1070540 
  625000   0.99994337   -1.6981023   -1.6981023  -0.98151994  0.049398954   -1.6981023   0.71658234  1070540 
  626000     1.000463   -1.6986514   -1.6986514  -0.98169673  0.047628535   -1.6986514   0.71695468  1070540 
  627000   0.99888246   -1.6975972   -1.6975972  -0.98177511  0.051017761   -1.6975972   0.71582207  1070540 
  628000   0.99847757   -1.6973726   -1.6973726  -0.98184072  0.051871863   -1.6973726   0.71553191  1070540 
  629000   0.99898488   -1.6975286   -1.6975286  -0.98163314  0.051792776   -1.6975286   0.71589546  1070540 
  630000    1.0000767   -1.6981421   -1.6981421  -0.98146425  0.056825414   -1.6981421   0.71667786  1070540 
  631000    1.0008853   -1.6985371   -1.6985371  -0.98127979  0.050639504   -1.6985371   0.71725735  1070540 
  632000    1.0017141   -1.6990755   -1.6990755  -0.98122422  0.051967544   -1.6990755    0.7178513  1070540 
  633000    1.0001966   -1.6981239   -1.6981239  -0.98136007  0.058695356   -1.6981239    0.7167638  1070540 
  634000     1.000251   -1.6990221   -1.6990221  -0.98221933  0.048892819   -1.6990221   0.71680277  1070540 
  635000    0.9994148   -1.6992805   -1.6992805  -0.98307693  0.051323219   -1.6992805   0.71620355  1070540 
  636000   0.99990908   -1.7002965   -1.7002965  -0.98373871  0.048293042   -1.7002965   0.71655776  1070540 
  637000   0.99886491   -1.6995406   -1.6995406   -0.9837311  0.054060499   -1.6995406   0.71580949  1070540 
  638000    1.0008382   -1.7010401   -1.7010401  -0.98381646  0.051115609   -1.7010401    0.7172236  1070540 
  639000    1.0002777   -1.7005558   -1.7005558  -0.98373383  0.047827886   -1.7005558   0.71682196  1070540 
  640000   0.99972778   -1.7002699   -1.7002699  -0.98384206  0.045588468   -1.7002699   0.71642784  1070540 
  641000   0.99945665   -1.6998655   -1.6998655  -0.98363192  0.053907588   -1.6998655   0.71623354  1070540 
  642000    1.0002207    -1.699898    -1.699898  -0.98311695  0.055256991    -1.699898   0.71678108  1070540 
  643000    1.0002836   -1.6994366   -1.6994366  -0.98261048  0.061992619   -1.6994366   0.71682616  1070540 
  644000   0.99981552   -1.6986913   -1.6986913  -0.98220056  0.051019303   -1.6986913   0.71649072  1070540 
  645000   0.99995678   -1.6981692   -1.6981692  -0.98157728  0.039575854   -1.6981692   0.71659195  1070540 
  646000    1.0013693   -1.6988048   -1.6988048  -0.98120061  0.050374069   -1.6988048   0.71760419  1070540 
  647000    1.0009355   -1.6984231   -1.6984231  -0.98112979  0.057146739   -1.6984231    0.7172933  1070540 
  648000    1.0012478   -1.6989939   -1.6989939  -0.98147677  0.045521157   -1.6989939   0.71751711  1070540 
  649000   0.99841318   -1.6980259   -1.6980259  -0.98254014  0.051289379   -1.6980259   0.71548577  1070540 
  650000    0.9979618   -1.6985935   -1.6985935  -0.98343116   0.05323766   -1.6985935    0.7151623  1070540 
  651000   0.99876463   -1.6994647   -1.6994647  -0.98372703  0.048799949   -1.6994647   0.71573762  1070540 
  652000   0.99818986   -1.6988668   -1.6988668  -0.98354104  0.052784216   -1.6988668   0.71532573  1070540 
  653000   0.99897655   -1.6988401   -1.6988401  -0.98295061  0.055611329   -1.6988401   0.71588949  1070540 
  654000   0.99952902   -1.6987942   -1.6987942  -0.98250878  0.055313459   -1.6987942    0.7162854  1070540 
  655000    1.0004754   -1.6993182   -1.6993182  -0.98235465   0.05940957   -1.6993182   0.71696357  1070540 
  656000    1.0003206   -1.6991939   -1.6991939  -0.98234129  0.052465784   -1.6991939   0.71685265  1070540 
  657000   0.99875849   -1.6980454   -1.6980454   -0.9823122  0.049834336   -1.6980454   0.71573322  1070540 
  658000   0.99813947   -1.6974031   -1.6974031  -0.98211349  0.058622012   -1.6974031   0.71528962  1070540 
  659000   0.99917152   -1.6974197   -1.6974197  -0.98139048   0.04501024   -1.6974197   0.71602921  1070540 
  660000    1.0006108   -1.6970232   -1.6970232  -0.97996256  0.055790467   -1.6970232   0.71706063  1070540 
  661000    1.0008336   -1.6967598   -1.6967598  -0.97953951  0.055035583   -1.6967598    0.7172203  1070540 
  662000    1.0018498   -1.6975871   -1.6975871  -0.97963852  0.046096918   -1.6975871   0.71794856  1070540 
  663000    1.0006726   -1.6970628   -1.6970628  -0.97995787  0.050801169   -1.6970628    0.7171049  1070540 
  664000   0.99925241   -1.6966388   -1.6966388  -0.98055162  0.053073244   -1.6966388   0.71608718  1070540 
  665000   0.99943268   -1.6972749   -1.6972749  -0.98105855  0.052278274   -1.6972749   0.71621637  1070540 
  666000   0.99945254   -1.6977411   -1.6977411  -0.98151049  0.046687021   -1.6977411    0.7162306  1070540 
  667000    1.0004329   -1.6986313   -1.6986313  -0.98169809  0.048422264   -1.6986313   0.71693317  1070540 
  668000    1.0010836    -1.699179    -1.699179   -0.9817795   0.05458594    -1.699179   0.71739946  1070540 
  669000    0.9999117   -1.6989157   -1.6989157  -0.98235607  0.045799267   -1.6989157   0.71655964  1070540 
  670000   0.99790247   -1.6984614   -1.6984614  -0.98334158  0.056309355   -1.6984614   0.71511978  1070540 
  671000    0.9967042   -1.6984342   -1.6984342  -0.98417317  0.054078631   -1.6984342   0.71426108  1070540 
  672000   0.99858131   -1.6997668   -1.6997668  -0.98416056  0.044256479   -1.6997668   0.71560626  1070540 
  673000   0.99801683   -1.6989062   -1.6989062  -0.98370449  0.048901897   -1.6989062   0.71520174  1070540 
  674000   0.99992461   -1.6992819   -1.6992819  -0.98271304  0.046426437   -1.6992819   0.71656889  1070540 
  675000    1.0002983    -1.698761    -1.698761  -0.98192431  0.046198592    -1.698761   0.71683668  1070540 
  676000   0.99982753   -1.6980327   -1.6980327   -0.9815334  0.049134786   -1.6980327   0.71649932  1070540 
  677000    1.0009432   -1.6988036   -1.6988036  -0.98150475  0.050193986   -1.6988036   0.71729882  1070540 
  678000    1.0007121   -1.6986874   -1.6986874   -0.9815542  0.056694295   -1.6986874   0.71713322  1070540 
  679000    1.0005599   -1.6988818   -1.6988818  -0.98185762  0.054765179   -1.6988818   0.71702417  1070540 
  680000    1.0003091   -1.6990926   -1.6990926  -0.98224817   0.05912338   -1.6990926   0.71684446  1070540 
  681000     1.000199   -1.6996596   -1.6996596  -0.98289401  0.054560822   -1.6996596   0.71676556  1070540 
  682000   0.99997109   -1.7000966   -1.7000966  -0.98349439  0.059256541   -1.7000966    0.7166022  1070540 
  683000   0.99926941   -1.7000132   -1.7000132  -0.98391387  0.047844799   -1.7000132   0.71609936  1070540 
  684000   0.99912275   -1.7000078   -1.7000078   -0.9840135   0.04585771   -1.7000078   0.71599426  1070540 
  685000   0.99902853   -1.6998054   -1.6998054  -0.98387867  0.053951022   -1.6998054   0.71592674  1070540 
  686000   0.99849727    -1.699037    -1.699037  -0.98349096  0.054762123    -1.699037   0.71554603  1070540 
  687000   0.99894274   -1.6987086   -1.6987086  -0.98284331  0.051302239   -1.6987086   0.71586526  1070540 
  688000   0.99981825   -1.6986946   -1.6986946  -0.98220191   0.05003586   -1.6986946   0.71649267  1070540 
  689000    1.0011857   -1.6991494   -1.6991494  -0.98167677    0.0560599   -1.6991494   0.71747261  1070540 
  690000    1.0004459   -1.6985065   -1.6985065  -0.98156402  0.051853536   -1.6985065   0.71694245  1070540 
  691000    1.0002816   -1.6983622   -1.6983622   -0.9815375  0.056920567   -1.6983622   0.71682471  1070540 
  692000    1.0008462   -1.6991063   -1.6991063  -0.98187692  0.049485588   -1.6991063   0.71722933  1070540 
  693000   0.99977636   -1.6990498   -1.6990498  -0.98258719  0.056047079   -1.6990498   0.71646265  1070540 
  694000   0.99885528   -1.6996222   -1.6996222   -0.9838196  0.055110349   -1.6996222   0.71580259  1070540 
  695000   0.99838817   -1.6999254   -1.6999254  -0.98445757  0.047470778   -1.6999254   0.71546784  1070540 
  696000    0.9986439   -1.6999682   -1.6999682  -0.98431711  0.051842466   -1.6999682   0.71565111  1070540 
  697000   0.99865893   -1.6991365   -1.6991365  -0.98347467  0.055964216   -1.6991365   0.71566188  1070540 
  698000   0.99978537   -1.6990801   -1.6990801  -0.98261096  0.051517883   -1.6990801   0.71646911  1070540 
  699000   0.99965857   -1.6986022   -1.6986022  -0.98222391  0.052856205   -1.6986022   0.71637824  1070540 
  700000    1.0010379    -1.699312    -1.699312  -0.98194534  0.050663763    -1.699312    0.7173667  1070540 
  701000    1.0014103   -1.6995959   -1.6995959  -0.98196234  0.050512435   -1.6995959    0.7176336  1070540 
  702000    1.0000769   -1.6988488   -1.6988488  -0.98217076  0.053073597   -1.6988488   0.71667805  1070540 
  703000   0.99961461   -1.6987778   -1.6987778  -0.98243109  0.051739625   -1.6987778   0.71634674  1070540 
  704000    1.0000378   -1.6994924   -1.6994924  -0.98284236   0.04938577   -1.6994924      0.71665  1070540 
  705000   0.99844397   -1.6991308   -1.6991308  -0.98362295  0.053995005   -1.6991308   0.71550783  1070540 
  706000   0.99901536   -1.7008277   -1.7008277  -0.98491042   0.04651796   -1.7008277   0.71591731  1070540 
  707000   0.99784009   -1.7007907   -1.7007907  -0.98571565  0.050361109   -1.7007907   0.71507508  1070540 
  708000   0.99850764   -1.7012387   -1.7012387   -0.9856852  0.050886815   -1.7012387   0.71555346  1070540 
  709000   0.99803509   -1.7005047   -1.7005047  -0.98528989   0.05073292   -1.7005047   0.71521482  1070540 
  710000   0.99941514   -1.7011176   -1.7011176  -0.98491385  0.052376461   -1.7011176   0.71620379  1070540 
  711000   0.99716627   -1.6990306   -1.6990306   -0.9844384   0.05394951   -1.6990306   0.71459221  1070540 
  712000   0.99912901   -1.6998869   -1.6998869  -0.98388812   0.05481751   -1.6998869   0.71599875  1070540 
  713000    1.0009918   -1.7007745   -1.7007745   -0.9834408  0.062467164   -1.7007745   0.71733366  1070540 
  714000    1.0001793   -1.7003754   -1.7003754  -0.98362398  0.043706688   -1.7003754    0.7167514  1070540 
  715000    1.0004033   -1.7007838   -1.7007838  -0.98387189  0.054337566   -1.7007838   0.71691192  1070540 
  716000   0.99930372   -1.7002912   -1.7002912  -0.98416722  0.050352304   -1.7002912   0.71612395  1070540 
  717000    1.0005777    -1.701568    -1.701568  -0.98453113  0.048018998    -1.701568   0.71703689  1070540 
  718000   0.99968033   -1.7017879   -1.7017879  -0.98539407   0.05129214   -1.7017879   0.71639384  1070540 
  719000   0.99810505   -1.7016042   -1.7016042  -0.98633923  0.043455619   -1.7016042   0.71526495  1070540 
  720000   0.99727598   -1.7015483   -1.7015483  -0.98687747  0.050201811   -1.7015483   0.71467082  1070540 
  721000   0.99898393   -1.7025155   -1.7025155  -0.98662068  0.051834837   -1.7025155   0.71589478  1070540 
  722000    0.9995005   -1.7018897   -1.7018897  -0.98562474  0.058021279   -1.7018897   0.71626497  1070540 
  723000   0.99920304   -1.7009818   -1.7009818  -0.98493003  0.063715338   -1.7009818    0.7160518  1070540 
  724000   0.99945239   -1.7007429   -1.7007429  -0.98451239  0.057110408   -1.7007429   0.71623049  1070540 
  725000    1.0002895   -1.7011132   -1.7011132  -0.98428282  0.054871122   -1.7011132   0.71683037  1070540 
  726000    1.0005799   -1.7014129   -1.7014129  -0.98437436  0.051891029   -1.7014129   0.71703852  1070540 
  727000    1.0014002   -1.7023923   -1.7023923  -0.98476602  0.049496466   -1.7023923   0.71762632  1070540 
  728000    1.0000837   -1.7017282   -1.7017282  -0.98504528  0.045708593   -1.7017282   0.71668292  1070540 
  729000   0.99992304   -1.7020473   -1.7020473  -0.98547952  0.053238691   -1.7020473   0.71656777  1070540 
  730000   0.99934643    -1.701882    -1.701882   -0.9857274   0.05325643    -1.701882   0.71615456  1070540 
  731000   0.99731643   -1.7004766   -1.7004766  -0.98577675  0.060819086   -1.7004766   0.71469981  1070540 
  732000   0.99874406   -1.7010205   -1.7010205  -0.98529759   0.05504269   -1.7010205   0.71572288  1070540 
  733000   0.99973837   -1.7009119   -1.7009119  -0.98447646  0.048777114   -1.7009119   0.71643543  1070540 
  734000    1.0009802   -1.7006547   -1.7006547  -0.98332932  0.049507364   -1.7006547   0.71732538  1070540 
  735000    1.0012365      -1.7003      -1.7003  -0.98279098  0.053826874      -1.7003   0.71750901  1070540 
  736000    1.0008672   -1.7001955   -1.7001955  -0.98295111  0.054768045   -1.7001955   0.71724441  1070540 
  737000    1.0008748   -1.7003946   -1.7003946  -0.98314477  0.052066883   -1.7003946   0.71724979  1070540 
  738000   0.99969331    -1.700469    -1.700469  -0.98406587  0.051477453    -1.700469   0.71640314  1070540 
  739000   0.99826305   -1.7000353   -1.7000353   -0.9846571  0.053411133   -1.7000353   0.71537818  1070540 
  740000    1.0000071   -1.7011539   -1.7011539   -0.9845259  0.038016737   -1.7011539   0.71662799  1070540 
  741000   0.99836603   -1.6995328   -1.6995328   -0.9840808  0.055974111   -1.6995328   0.71545198  1070540 
  742000   0.99947496   -1.6997375   -1.6997375  -0.98349088  0.050967062   -1.6997375   0.71624666  1070540 
  743000   0.99927854   -1.6991286   -1.6991286  -0.98302271  0.045890916   -1.6991286   0.71610591  1070540 
  744000    1.0007862    -1.700022    -1.700022  -0.98283571  0.051150044    -1.700022   0.71718634  1070540 
  745000    1.0001459   -1.6994531   -1.6994531  -0.98272565  0.049734933   -1.6994531   0.71672746  1070540 
  746000   0.99922093   -1.6985508   -1.6985508  -0.98248623   0.05278157   -1.6985508   0.71606462  1070540 
  747000    1.0006385   -1.6993134   -1.6993134  -0.98223298  0.044334322   -1.6993134   0.71708047  1070540 
  748000   0.99982172   -1.6986155   -1.6986155  -0.98212034  0.050377858   -1.6986155   0.71649516  1070540 
  749000   0.99851246   -1.6972123   -1.6972123  -0.98165536   0.05570902   -1.6972123   0.71555691  1070540 
  750000    1.0011765   -1.6983057   -1.6983057  -0.98083963  0.043728336   -1.6983057   0.71746603  1070540 
  751000    1.0004485   -1.6968363   -1.6968363  -0.97989199  0.054302097   -1.6968363   0.71694435  1070540 
  752000   0.99952305   -1.6956856   -1.6956856  -0.97940449  0.046445388   -1.6956856   0.71628113  1070540 
  753000    1.0010058   -1.6968057   -1.6968057  -0.97946201  0.047938547   -1.6968057   0.71734369  1070540 
  754000    1.0031376   -1.6985519   -1.6985519  -0.97968048   0.04385168   -1.6985519   0.71887138  1070540 
  755000    1.0004709   -1.6974242   -1.6974242  -0.98046386  0.051003865   -1.6974242   0.71696038  1070540 
  756000   0.99928223   -1.6972958   -1.6972958  -0.98118725  0.051797475   -1.6972958   0.71610855  1070540 
  757000    1.0010469   -1.6987419   -1.6987419  -0.98136874  0.044914565   -1.6987419   0.71737314  1070540 
  758000    1.0015273    -1.699114    -1.699114  -0.98139657  0.048346802    -1.699114   0.71771743  1070540 
  759000   0.99944898   -1.6976902   -1.6976902  -0.98146212  0.047425468   -1.6976902   0.71622805  1070540 
  760000   0.99954066    -1.697767    -1.697767  -0.98147321  0.052228831    -1.697767   0.71629375  1070540 
  761000   0.99892485   -1.6969776   -1.6969776   -0.9811252  0.052840823   -1.6969776   0.71585245  1070540 
  762000   0.99954865   -1.6968392   -1.6968392  -0.98053971  0.054772288   -1.6968392   0.71629947  1070540 
  763000    1.0006274   -1.6971052   -1.6971052  -0.98003272  0.049633007   -1.6971052   0.71707252  1070540 
  764000    1.0026184   -1.6978951   -1.6978951   -0.9793958  0.040416617   -1.6978951    0.7184993  1070540 
  765000    1.0025812   -1.6974519   -1.6974519  -0.97897926  0.050462976   -1.6974519   0.71847265  1070540 
  766000    1.0003739   -1.6961799   -1.6961799  -0.97928902  0.049541991   -1.6961799   0.71689088  1070540 
  767000    1.0007573   -1.6974266   -1.6974266  -0.98026096  0.047373523   -1.6974266    0.7171656  1070540 
  768000    1.0003421   -1.6982612   -1.6982612  -0.98139312  0.048024127   -1.6982612   0.71686804  1070540 
  769000   0.99895215   -1.6979888   -1.6979888  -0.98211685  0.054135861   -1.6979888     0.715872  1070540 
  770000    1.0006307   -1.6995459   -1.6995459  -0.98247098  0.046309774   -1.6995459    0.7170749  1070540 
  771000    1.0006093   -1.6994172   -1.6994172  -0.98235762  0.048612152   -1.6994172   0.71705954  1070540 
  772000   0.99975497   -1.6986424   -1.6986424  -0.98219512  0.052854227   -1.6986424   0.71644733  1070540 
  773000    1.0013804     -1.69952     -1.69952  -0.98190781   0.05031205     -1.69952   0.71761215  1070540 
  774000    1.0010107   -1.6989471   -1.6989471  -0.98159987  0.057702941   -1.6989471   0.71734724  1070540 
  775000    1.0010835   -1.6989908   -1.6989908  -0.98159143  0.054674802   -1.6989908   0.71739941  1070540 
  776000   0.99999194   -1.6985513   -1.6985513  -0.98193417  0.054785702   -1.6985513   0.71661714  1070540 
  777000   0.99798241   -1.6979731   -1.6979731  -0.98279606  0.052486059   -1.6979731   0.71517707  1070540 
  778000   0.99894337   -1.6992139   -1.6992139   -0.9833482  0.046488286   -1.6992139   0.71586572  1070540 
  779000   0.99950921   -1.6997444   -1.6997444  -0.98347317  0.049769522   -1.6997444   0.71627121  1070540 
  780000   0.99964393   -1.6997167   -1.6997167    -0.983349  0.047183188   -1.6997167   0.71636775  1070540 
  781000   0.99960067   -1.6991725   -1.6991725   -0.9828358  0.053242155   -1.6991725   0.71633675  1070540 
  782000    1.0009793    -1.699563    -1.699563  -0.98223824  0.052543036    -1.699563   0.71732473  1070540 
  783000    1.0013946   -1.6993115   -1.6993115  -0.98168922  0.067565652   -1.6993115   0.71762229  1070540 
  784000    1.0014441   -1.6996259   -1.6996259  -0.98196809  0.059005596   -1.6996259   0.71765778  1070540 
  785000   0.99989359   -1.6994827   -1.6994827  -0.98293601  0.056185278   -1.6994827   0.71654666  1070540 
  786000   0.99922574   -1.7002996   -1.7002996   -0.9842315  0.049675121   -1.7002996   0.71606807  1070540 
  787000   0.99947388   -1.7008314   -1.7008314  -0.98458556  0.056176909   -1.7008314   0.71624589  1070540 
  788000   0.99873898    -1.700441    -1.700441  -0.98472179  0.062602742    -1.700441   0.71571924  1070540 
  789000    0.9993508   -1.7008735   -1.7008735  -0.98471581  0.054356317   -1.7008735   0.71615768  1070540 
  790000   0.99938586   -1.7003756   -1.7003756  -0.98419279  0.055927849   -1.7003756   0.71618281  1070540 
  791000   0.99864774   -1.6991194   -1.6991194   -0.9834655  0.057395655   -1.6991194   0.71565386  1070540 
  792000    1.0023334   -1.7009418   -1.7009418  -0.98264666    0.0620114   -1.7009418   0.71829509  1070540 
  793000    1.0013332   -1.6999413   -1.6999413  -0.98236297  0.048918979   -1.6999413   0.71757829  1070540 
  794000    1.0014564   -1.6996843   -1.6996843  -0.98201766  0.050109941   -1.6996843   0.71766662  1070540 
  795000   0.99898111    -1.697678    -1.697678  -0.98178526  0.058784096    -1.697678   0.71589276  1070540 
  796000    1.0008569    -1.699202    -1.699202    -0.981965  0.054424065    -1.699202   0.71723703  1070540 
  797000    1.0011974   -1.6997313   -1.6997313  -0.98225033  0.050665422   -1.6997313   0.71748097  1070540 
  798000    1.0003894   -1.7006845   -1.7006845  -0.98378245  0.043172656   -1.7006845     0.716902  1070540 
  799000   0.99909247   -1.7006732   -1.7006732  -0.98470062  0.041828469   -1.7006732   0.71597256  1070540 
  800000   0.99919244   -1.7008873   -1.7008873  -0.98484305  0.050217721   -1.7008873    0.7160442  1070540 
  801000   0.99934403   -1.7003318   -1.7003318  -0.98417894  0.044693717   -1.7003318   0.71615284  1070540 
  802000     1.000085   -1.6998135   -1.6998135  -0.98312975  0.056883019   -1.6998135    0.7166838  1070540 
  803000    1.0007077   -1.6993968   -1.6993968  -0.98226672  0.046839318   -1.6993968   0.71713009  1070540 
  804000    1.0013307   -1.6993692   -1.6993692  -0.98179265  0.057597931   -1.6993692   0.71757651  1070540 
  805000   0.99947949   -1.6980063   -1.6980063  -0.98175637  0.057864799   -1.6980063   0.71624991  1070540 
  806000    1.0014022   -1.6994456   -1.6994456  -0.98181781   0.05740996   -1.6994456   0.71762778  1070540 
  807000    1.0000232   -1.6986557   -1.6986557  -0.98201614  0.052013395   -1.6986557   0.71663953  1070540 
  808000   0.99958392   -1.6989748   -1.6989748  -0.98265004  0.049347677   -1.6989748   0.71632474  1070540 
  809000   0.99844428   -1.6990141   -1.6990141  -0.98350604  0.045067894   -1.6990141   0.71550806  1070540 
  810000     0.998336   -1.6992573   -1.6992573  -0.98382688  0.047105413   -1.6992573   0.71543046  1070540 
  811000   0.99839091   -1.6988787   -1.6988787  -0.98340892  0.046299405   -1.6988787   0.71546981  1070540 
  812000   0.99920123   -1.6978498   -1.6978498  -0.98179933  0.051216023   -1.6978498    0.7160505  1070540 
  813000    1.0000737   -1.6974522   -1.6974522  -0.98077644  0.044637557   -1.6974522   0.71667577  1070540 
  814000   0.99991696   -1.6968974   -1.6968974  -0.98033403  0.050704762   -1.6968974   0.71656341  1070540 
  815000    1.0014038   -1.6977907   -1.6977907  -0.98016176  0.047427081   -1.6977907   0.71762891  1070540 
  816000   0.99948804   -1.6967513   -1.6967513  -0.98049522   0.05766682   -1.6967513   0.71625603  1070540 
  817000    0.9990904   -1.6968274   -1.6968274  -0.98085627   0.04809869   -1.6968274   0.71597108  1070540 
  818000   0.99978081   -1.6977942   -1.6977942  -0.98132841  0.047841879   -1.6977942   0.71646584  1070540 
  819000   0.99885685   -1.6975271   -1.6975271   -0.9817234  0.047316157   -1.6975271   0.71580371  1070540 
  820000    1.0004522   -1.6988675   -1.6988675  -0.98192049  0.049827174   -1.6988675   0.71694698  1070540 
  821000      1.00014   -1.6983473   -1.6983473  -0.98162404  0.050063444   -1.6983473   0.71672328  1070540 
  822000   0.99978057   -1.6978434   -1.6978434  -0.98137768  0.059387355   -1.6978434   0.71646567  1070540 
  823000   0.99930617   -1.6969481   -1.6969481  -0.98082243  0.050405544   -1.6969481    0.7161257  1070540 
  824000   0.99955674     -1.69636     -1.69636  -0.98005469  0.058524992     -1.69636   0.71630527  1070540 
  825000    1.0016293   -1.6972719   -1.6972719  -0.97948131  0.052654526   -1.6972719   0.71779054  1070540 
  826000    1.0019426   -1.6976353   -1.6976353  -0.97962031  0.057085002   -1.6976353   0.71801501  1070540 
  827000    1.0000372   -1.6967763   -1.6967763  -0.98012671  0.056255119   -1.6967763   0.71664959  1070540 
  828000   0.99998649   -1.6977272   -1.6977272  -0.98111396  0.051194785   -1.6977272   0.71661324  1070540 
  829000    1.0001958   -1.6986914   -1.6986914  -0.98192814  0.051667794   -1.6986914   0.71676324  1070540 
  830000   0.99864763    -1.697995    -1.697995  -0.98234125  0.059364564    -1.697995   0.71565378  1070540 
  831000   0.99927604   -1.6985612   -1.6985612  -0.98245712  0.049930908   -1.6985612   0.71610411  1070540 
  832000   0.99974734   -1.6986325   -1.6986325  -0.98219062  0.050718273   -1.6986325   0.71644186  1070540 
  833000    1.0007024   -1.6990574   -1.6990574  -0.98193114  0.046495762   -1.6990574   0.71712629  1070540 
  834000   0.99999268   -1.6983086   -1.6983086  -0.98169096  0.055089839   -1.6983086   0.71661767  1070540 
  835000    1.0010581   -1.6990608   -1.6990608  -0.98167959  0.047917261   -1.6990608   0.71738121  1070540 
  836000    1.0017459   -1.6997172   -1.6997172  -0.98184311  0.045764544   -1.6997172   0.71787409  1070540 
  837000    1.0002824   -1.6991068   -1.6991068  -0.98228143  0.045935722   -1.6991068   0.71682533  1070540 
  838000   0.99991146   -1.6997529   -1.6997529  -0.98319341  0.045823448   -1.6997529   0.71655947  1070540 
  839000   0.99928445   -1.7004292   -1.7004292  -0.98431908  0.050445937   -1.7004292   0.71611014  1070540 
  840000   0.99992085   -1.7014003   -1.7014003   -0.9848341  0.055897827   -1.7014003    0.7165662  1070540 
  841000   0.99814325   -1.7006938   -1.7006938  -0.98540148  0.060638594   -1.7006938   0.71529233  1070540 
  842000   0.99973197   -1.7020022   -1.7020022  -0.98557135  0.056581403   -1.7020022   0.71643084  1070540 
  843000    1.0001257   -1.7024372   -1.7024372  -0.98572417  0.051069206   -1.7024372     0.716713  1070540 
  844000   0.99950021   -1.7016603   -1.7016603  -0.98539549  0.050277957   -1.7016603   0.71626476  1070540 
  845000   0.99963596   -1.7009567   -1.7009567  -0.98459465   0.04953824   -1.7009567   0.71636204  1070540 
  846000    1.0005514   -1.7002402   -1.7002402  -0.98322216  0.053980485   -1.7002402   0.71701804  1070540 
  847000     1.001298   -1.7002447   -1.7002447  -0.98269158  0.059740366   -1.7002447   0.71755308  1070540 
  848000   0.99992811   -1.6992966   -1.6992966  -0.98272525  0.058141299   -1.6992966    0.7165714  1070540 
  849000    1.0012417   -1.7007169   -1.7007169  -0.98320412  0.059267843   -1.7007169   0.71751275  1070540 
  850000    1.0010488   -1.7011575   -1.7011575    -0.983783  0.049157519   -1.7011575   0.71737449  1070540 
  851000   0.99942931    -1.700769    -1.700769  -0.98455508  0.053802337    -1.700769   0.71621395  1070540 
  852000   0.99819346   -1.7000971   -1.7000971  -0.98476877  0.057341134   -1.7000971   0.71532831  1070540 
  853000   0.99861362   -1.7006819   -1.7006819  -0.98505254  0.052820129   -1.7006819   0.71562941  1070540 
  854000   0.99895662   -1.7008374   -1.7008374  -0.98496218  0.053256938   -1.7008374   0.71587521  1070540 
  855000    1.0005718   -1.7014894   -1.7014894  -0.98445668  0.050836115   -1.7014894    0.7170327  1070540 
  856000    1.0007919   -1.7013091   -1.7013091  -0.98411867  0.050730563   -1.7013091   0.71719041  1070540 
  857000   0.99986763    -1.700384    -1.700384  -0.98385597  0.054391023    -1.700384   0.71652806  1070540 
  858000   0.99913614   -1.6996952   -1.6996952  -0.98369137  0.056855012   -1.6996952   0.71600386  1070540 
  859000    1.0000657   -1.7002529   -1.7002529  -0.98358294  0.051916589   -1.7002529   0.71666998  1070540 
  860000   0.99845265   -1.6989384   -1.6989384  -0.98342439  0.055790569   -1.6989384   0.71551406  1070540 
  861000   0.99919791   -1.6987155   -1.6987155  -0.98266735  0.048689113   -1.6987155   0.71604812  1070540 
  862000   0.99980602   -1.6983452   -1.6983452  -0.98186125   0.04018581   -1.6983452   0.71648391  1070540 
  863000    1.0013713   -1.6986638   -1.6986638  -0.98105815   0.05208113   -1.6986638   0.71760562  1070540 
  864000    1.0013985   -1.6982353   -1.6982353   -0.9806101  0.044896511   -1.6982353   0.71762515  1070540 
  865000     1.001997   -1.6986291   -1.6986291  -0.98057505  0.050947173   -1.6986291   0.71805401  1070540 
  866000   0.99937954    -1.697477    -1.697477  -0.98129872  0.053764559    -1.697477   0.71617828  1070540 
  867000    1.0001278   -1.6996179   -1.6996179  -0.98290338  0.046391945   -1.6996179   0.71671451  1070540 
  868000   0.99807236   -1.6988295   -1.6988295  -0.98358793  0.050337834   -1.6988295   0.71524153  1070540 
  869000   0.99833156   -1.6991132   -1.6991132  -0.98368589  0.048850434   -1.6991132   0.71542728  1070540 
  870000   0.99879636   -1.6986622   -1.6986622  -0.98290187  0.051793479   -1.6986622   0.71576036  1070540 
  871000    1.0009196   -1.6994274   -1.6994274  -0.98214547   0.05510365   -1.6994274   0.71728193  1070540 
  872000    1.0005995   -1.6984746   -1.6984746  -0.98142212  0.053176438   -1.6984746   0.71705252  1070540 
  873000   0.99973739   -1.6976883   -1.6976883  -0.98125352    0.0549251   -1.6976883   0.71643473  1070540 
  874000    1.0007275   -1.6978691   -1.6978691  -0.98072487  0.054499365   -1.6978691   0.71714426  1070540 
  875000    1.0005894   -1.6976554   -1.6976554  -0.98061014  0.051900841   -1.6976554   0.71704529  1070540 
  876000   0.99930382   -1.6968794   -1.6968794  -0.98075536   0.05253243   -1.6968794   0.71612402  1070540 
  877000   0.99984003   -1.6973314   -1.6973314   -0.9808231  0.057724734   -1.6973314   0.71650828  1070540 
  878000    1.0010259   -1.6981483   -1.6981483  -0.98079018  0.050367849   -1.6981483    0.7173581  1070540 
  879000    1.0018635   -1.6988429   -1.6988429  -0.98088455  0.047081711   -1.6988429   0.71795837  1070540 
  880000   0.99961639   -1.6978471   -1.6978471  -0.98149909  0.060877068   -1.6978471   0.71634802  1070540 
  881000   0.99950578   -1.6986296   -1.6986296  -0.98236083  0.045496119   -1.6986296   0.71626875  1070540 
  882000   0.99868311   -1.6987444   -1.6987444  -0.98306521  0.048703578   -1.6987444   0.71567921  1070540 
  883000    1.0008065   -1.7006201   -1.7006201  -0.98341918  0.050462625   -1.7006201    0.7172009  1070540 
  884000   0.99925085   -1.6996574   -1.6996574  -0.98357136  0.052461756   -1.6996574   0.71608606  1070540 
  885000   0.99896865   -1.6990704   -1.6990704  -0.98318659  0.053412646   -1.6990704   0.71588383  1070540 
  886000    1.0004253   -1.6992673   -1.6992673   -0.9823396  0.055925053   -1.6992673   0.71692768  1070540 
  887000    1.0006674   -1.6984847   -1.6984847  -0.98138351  0.049804577   -1.6984847   0.71710122  1070540 
  888000    1.0017608   -1.6985843   -1.6985843  -0.98069957  0.053650959   -1.6985843   0.71788476  1070540 
  889000    1.0025696   -1.6994702   -1.6994702  -0.98100585  0.055527902   -1.6994702   0.71846433  1070540 
  890000    1.0016369   -1.6992691   -1.6992691  -0.98147306    0.0412219   -1.6992691   0.71779599  1070540 
  891000    1.0009047   -1.6989577   -1.6989577  -0.98168647  0.054926793   -1.6989577   0.71727125  1070540 
  892000    1.0000046   -1.6986829   -1.6986829  -0.98205671  0.052870795   -1.6986829   0.71662621  1070540 
  893000   0.99947176   -1.6982632   -1.6982632  -0.98201881  0.049734502   -1.6982632   0.71624437  1070540 
  894000   0.99980633   -1.6984168   -1.6984168  -0.98193271   0.05036331   -1.6984168   0.71648413  1070540 
  895000    1.0003864   -1.6984397   -1.6984397  -0.98153995  0.055262056   -1.6984397   0.71689979  1070540 
  896000    1.0016975   -1.6989115   -1.6989115  -0.98107208  0.058215142   -1.6989115   0.71783938  1070540 
  897000    1.0002789   -1.6976365   -1.6976365  -0.98081371   0.05277572   -1.6976365   0.71682275  1070540 
  898000    1.0014485   -1.6978049   -1.6978049  -0.98014393  0.047287142   -1.6978049   0.71766097  1070540 
  899000    1.0032555    -1.698607    -1.698607  -0.97965111  0.054219892    -1.698607   0.71895589  1070540 
  900000    1.0023374   -1.6981992   -1.6981992  -0.97990124  0.056466113   -1.6981992   0.71829798  1070540 
  901000    1.0003598   -1.6978998   -1.6978998  -0.98101899  0.061606168   -1.6978998   0.71688077  1070540 
  902000   0.99961307   -1.6982629   -1.6982629  -0.98191724  0.044781084   -1.6982629   0.71634564  1070540 
  903000   0.99891208   -1.6982734   -1.6982734  -0.98243012  0.047853127   -1.6982734   0.71584329  1070540 
  904000   0.99879756   -1.6984025   -1.6984025  -0.98264128  0.041650101   -1.6984025   0.71576122  1070540 
  905000    0.9999203   -1.6990111   -1.6990111  -0.98244532  0.051903534   -1.6990111   0.71656581  1070540 
  906000    1.0004187    -1.699285    -1.699285  -0.98236203  0.051097988    -1.699285   0.71692298  1070540 
  907000    1.0008954   -1.6993884   -1.6993884  -0.98212386  0.054697921   -1.6993884   0.71726457  1070540 
  908000     1.000585   -1.6991426   -1.6991426  -0.98210042  0.051661213   -1.6991426   0.71704213  1070540 
  909000   0.99801956   -1.6980053   -1.6980053  -0.98280157  0.050340596   -1.6980053   0.71520369  1070540 
  910000   0.99968723   -1.6997768   -1.6997768  -0.98337804  0.039228992   -1.6997768   0.71639878  1070540 
  911000    0.9978577   -1.6988569   -1.6988569  -0.98376918  0.051481423   -1.6988569    0.7150877  1070540 
  912000    1.0003908   -1.7006113   -1.7006113  -0.98370839  0.051858463   -1.7006113   0.71690295  1070540 
  913000    1.0000934   -1.6994958   -1.6994958  -0.98280592  0.042014629   -1.6994958   0.71668987  1070540 
  914000    0.9988804   -1.6973519   -1.6973519  -0.98153132  0.052100057   -1.6973519   0.71582059  1070540 
  915000    1.0006174   -1.6980884   -1.6980884  -0.98102296  0.045574232   -1.6980884   0.71706539  1070540 
  916000     1.001349   -1.6986418   -1.6986418  -0.98105218  0.059676274   -1.6986418   0.71758963  1070540 
  917000    1.0007399   -1.6988464   -1.6988464  -0.98169324  0.049970821   -1.6988464   0.71715313  1070540 
  918000   0.99898761   -1.6982673   -1.6982673  -0.98236985  0.056382135   -1.6982673   0.71589742  1070540 
  919000   0.99972989   -1.6992626   -1.6992626  -0.98283326  0.049580846   -1.6992626   0.71642935  1070540 
  920000   0.99939462   -1.6992768   -1.6992768  -0.98308771  0.045638255   -1.6992768   0.71618909  1070540 
  921000    1.0011778    -1.700775    -1.700775  -0.98330802  0.051457651    -1.700775   0.71746693  1070540 
  922000      1.00026   -1.7001053   -1.7001053  -0.98329613  0.052298214   -1.7001053   0.71680921  1070540 
  923000   0.99812485   -1.6988542   -1.6988542  -0.98357511  0.051266622   -1.6988542   0.71527914  1070540 
  924000   0.99985005   -1.6999722   -1.6999722  -0.98345679   0.05116408   -1.6999722   0.71651546  1070540 
  925000    1.0010945   -1.6999826   -1.6999826  -0.98257534  0.048094229   -1.6999826   0.71740728  1070540 
  926000    1.0008197   -1.6987191   -1.6987191  -0.98150874  0.058293888   -1.6987191   0.71721034  1070540 
  927000    1.0018055   -1.6991671   -1.6991671  -0.98125038  0.054618193   -1.6991671   0.71791675  1070540 
  928000    1.0002043    -1.698187    -1.698187  -0.98141763  0.060884515    -1.698187   0.71676933  1070540 
  929000    1.0019817   -1.7002776   -1.7002776  -0.98223452  0.052936674   -1.7002776   0.71804307  1070540 
  930000   0.99885394   -1.6990378   -1.6990378  -0.98323621  0.052917384   -1.6990378   0.71580163  1070540 
  931000   0.99929055   -1.6997149   -1.6997149   -0.9836004  0.051566011   -1.6997149   0.71611451  1070540 
  932000   0.99818141   -1.6991044   -1.6991044  -0.98378469  0.049042163   -1.6991044   0.71531968  1070540 
  933000   0.99911278   -1.6993096   -1.6993096  -0.98332245  0.055436191   -1.6993096   0.71598712  1070540 
  934000   0.99950726   -1.6991428   -1.6991428  -0.98287299  0.047940493   -1.6991428   0.71626981  1070540 
  935000    1.0013443   -1.6999687   -1.6999687  -0.98238243  0.049489795   -1.6999687    0.7175863  1070540 
  936000    1.0022424   -1.7003131   -1.7003131  -0.98208318  0.055274981   -1.7003131   0.71822988  1070540 
  937000    1.0008823   -1.6996434   -1.6996434  -0.98238823  0.050583442   -1.6996434   0.71725518  1070540 
  938000   0.99907902   -1.6986233   -1.6986233  -0.98266036  0.050132883   -1.6986233   0.71596292  1070540 
  939000     1.000261   -1.6995359   -1.6995359  -0.98272592  0.052742687   -1.6995359   0.71680993  1070540 
  940000    1.0000492   -1.6994869   -1.6994869  -0.98282876  0.052427739   -1.6994869   0.71665815  1070540 
  941000   0.99998221   -1.6994681   -1.6994681  -0.98285789  0.058778156   -1.6994681   0.71661017  1070540 
  942000    1.0001584   -1.7000271   -1.7000271  -0.98329063  0.052668877   -1.7000271   0.71673645  1070540 
  943000    1.0003863   -1.7007175   -1.7007175  -0.98381775  0.051117113   -1.7007175   0.71689974  1070540 
  944000   0.99828823    -1.699666    -1.699666  -0.98426979  0.053038427    -1.699666   0.71539622  1070540 
  945000   0.99661556    -1.698545    -1.698545  -0.98434745  0.049629542    -1.698545   0.71419756  1070540 
  946000   0.99970886   -1.6999118   -1.6999118  -0.98349753  0.056154707   -1.6999118   0.71641428  1070540 
  947000    1.0010664   -1.6996985   -1.6996985  -0.98231135  0.050019882   -1.6996985   0.71738711  1070540 
  948000    1.0006575   -1.6988601   -1.6988601  -0.98176601  0.052755793   -1.6988601   0.71709408  1070540 
  949000    1.0013572   -1.6992255   -1.6992255     -0.98163  0.057940543   -1.6992255   0.71759549  1070540 
  950000    1.0000842   -1.6983276   -1.6983276  -0.98164429  0.057701484   -1.6983276   0.71668328  1070540 
  951000    1.0007937   -1.6992737   -1.6992737  -0.98208198  0.047071977   -1.6992737   0.71719169  1070540 
  952000   0.99966991   -1.6988769   -1.6988769  -0.98249058  0.051631774   -1.6988769   0.71638637  1070540 
  953000   0.99991838    -1.699352    -1.699352  -0.98278759  0.048424379    -1.699352   0.71656443  1070540 
  954000   0.99951337   -1.6991059   -1.6991059  -0.98283169  0.053491035   -1.6991059   0.71627419  1070540 
  955000    1.0002457   -1.6996781   -1.6996781  -0.98287909  0.053686559   -1.6996781   0.71679902  1070540 
  956000    1.0001233   -1.6998928   -1.6998928   -0.9831815  0.054389145   -1.6998928   0.71671127  1070540 
  957000   0.99815845   -1.6992925   -1.6992925  -0.98398923  0.052458097   -1.6992925   0.71530323  1070540 
  958000   0.99713858   -1.6998275   -1.6998275  -0.98525519  0.053619921   -1.6998275   0.71457236  1070540 
  959000   0.99704951    -1.700247    -1.700247  -0.98573844  0.050148531    -1.700247   0.71450853  1070540 
  960000   0.99858303   -1.7009378   -1.7009378  -0.98533033  0.052842385   -1.7009378   0.71560749  1070540 
  961000   0.99909891   -1.7004731   -1.7004731  -0.98449592   0.05507814   -1.7004731   0.71597718  1070540 
  962000   0.99933946   -1.6997208   -1.6997208  -0.98357119  0.053509802   -1.6997208   0.71614956  1070540 
  963000   0.99894239   -1.6989442   -1.6989442  -0.98307917   0.05673914   -1.6989442   0.71586501  1070540 
  964000    0.9994503   -1.6990257   -1.6990257  -0.98279671  0.063227836   -1.6990257   0.71622899  1070540 
  965000    1.0008564   -1.6999858   -1.6999858  -0.98274914  0.061159966   -1.6999858   0.71723665  1070540 
  966000    1.0016098   -1.7007424   -1.7007424  -0.98296586  0.054336975   -1.7007424   0.71777653  1070540 
  967000   0.99947606   -1.6998524   -1.6998524  -0.98360499  0.061949909   -1.6998524   0.71624745  1070540 
  968000   0.99832713   -1.6996466   -1.6996466  -0.98422251  0.053843399   -1.6996466    0.7154241  1070540 
  969000   0.99871033   -1.7002237   -1.7002237  -0.98452501  0.049533249   -1.7002237   0.71569871  1070540 
  970000   0.99929014   -1.7007851   -1.7007851  -0.98467086  0.052977329   -1.7007851   0.71611421  1070540 
  971000    1.0002723   -1.7017256   -1.7017256  -0.98490758  0.048489134   -1.7017256   0.71681807  1070540 
  972000   0.99832927   -1.7009365   -1.7009365  -0.98551085  0.051824022   -1.7009365   0.71542563  1070540 
  973000   0.99835053   -1.7012212   -1.7012212  -0.98578035  0.056064642   -1.7012212   0.71544087  1070540 
  974000   0.99855581   -1.7014896   -1.7014896  -0.98590162  0.052014318   -1.7014896   0.71558798  1070540 
  975000   0.99942485   -1.7015626   -1.7015626  -0.98535182  0.049355082   -1.7015626   0.71621076  1070540 
  976000   0.99957593   -1.7010267   -1.7010267  -0.98470767  0.059832904   -1.7010267   0.71631902  1070540 
  977000   0.99984446   -1.7005831   -1.7005831   -0.9840716  0.058882553   -1.7005831   0.71651146  1070540 
  978000    1.0015352   -1.7013991   -1.7013991  -0.98367608  0.057770677   -1.7013991   0.71772306  1070540 
  979000     1.002571   -1.7019984   -1.7019984  -0.98353309   0.05400385   -1.7019984   0.71846535  1070540 
  980000    1.0009616   -1.7013858   -1.7013858  -0.98407377    0.0571974   -1.7013858   0.71731203  1070540 
  981000    1.0008058   -1.7022958   -1.7022958  -0.98509546  0.058575433   -1.7022958   0.71720035  1070540 
  982000   0.99750158   -1.7008929   -1.7008929  -0.98606036  0.056873493   -1.7008929    0.7148325  1070540 
  983000    0.9985466   -1.7018274   -1.7018274  -0.98624604  0.047967078   -1.7018274   0.71558138  1070540 
  984000    0.9990816   -1.7019902   -1.7019902  -0.98602541  0.051646856   -1.7019902   0.71596477  1070540 
  985000    0.9980526    -1.700596    -1.700596  -0.98536861  0.048639679    -1.700596   0.71522737  1070540 
  986000   0.99918691    -1.700733    -1.700733  -0.98469275  0.056645834    -1.700733   0.71604024  1070540 
  987000   0.99927728   -1.7002014   -1.7002014  -0.98409643  0.057624131   -1.7002014     0.716105  1070540 
  988000   0.99991115   -1.6999779   -1.6999779  -0.98341866  0.051920567   -1.6999779   0.71655925  1070540 
  989000    1.0019832   -1.7012023   -1.7012023  -0.98315815   0.05501788   -1.7012023   0.71804416  1070540 
  990000    1.0016464    -1.701206    -1.701206  -0.98340323  0.056502892    -1.701206   0.71780279  1070540 
  991000    1.0012497   -1.7013778   -1.7013778  -0.98385927    0.0545984   -1.7013778   0.71751851  1070540 
  992000   0.99881501   -1.7004066   -1.7004066  -0.98463287  0.048563565   -1.7004066   0.71577373  1070540 
  993000   0.99851922   -1.7006234   -1.7006234  -0.98506165  0.056204272   -1.7006234   0.71556176  1070540 
  994000   0.99818639   -1.7004394   -1.7004394  -0.98511614  0.057182643   -1.7004394   0.71532325  1070540 
  995000   0.99998717   -1.7010677   -1.7010677  -0.98445395  0.048154806   -1.7010677   0.71661373  1070540 
  996000    1.0007343   -1.7000931   -1.7000931  -0.98294395  0.049204027   -1.7000931   0.71714914  1070540 
  997000    1.0001344   -1.6987504   -1.6987504  -0.98203124  0.057595452   -1.6987504    0.7167192  1070540 
  998000    1.0010673    -1.699371    -1.699371  -0.98198325  0.047206205    -1.699371   0.71738776  1070540 
  999000    1.0018585   -1.7002186   -1.7002186  -0.98226387  0.058025101   -1.7002186   0.71795474  1070540 
 1000000   0.99957197   -1.6989748   -1.6989748  -0.98265862  0.044559331   -1.6989748   0.71631618  1070540 
 1001000    0.9989383   -1.6988585   -1.6988585  -0.98299646  0.056151344   -1.6988585   0.71586208  1070540 
 1002000   0.99872957   -1.6988708   -1.6988708  -0.98315831  0.057652356   -1.6988708    0.7157125  1070540 
 1003000   0.99891134   -1.6986484   -1.6986484  -0.98280566  0.058703373   -1.6986484   0.71584276  1070540 
 1004000    1.0002025   -1.6993953   -1.6993953  -0.98262732  0.053382775   -1.6993953   0.71676802  1070540 
 1005000    1.0013828   -1.6992802   -1.6992802  -0.98166638  0.055821209   -1.6992802   0.71761384  1070540 
 1006000    1.0010296   -1.6984327   -1.6984327  -0.98107193  0.058602905   -1.6984327   0.71736073  1070540 
 1007000    1.0002444   -1.6976019   -1.6976019  -0.98080385  0.048723395   -1.6976019   0.71679808  1070540 
 1008000    1.0006558   -1.6979797   -1.6979797  -0.98088688  0.060271705   -1.6979797   0.71709285  1070540 
 1009000   0.99995779   -1.6979466   -1.6979466  -0.98135397  0.052767574   -1.6979466   0.71659267  1070540 
 1010000   0.99847188    -1.697814    -1.697814  -0.98228619  0.050667579    -1.697814   0.71552783  1070540 
 1011000   0.99825874   -1.6985173   -1.6985173  -0.98314222   0.05540694   -1.6985173   0.71537509  1070540 
 1012000   0.99773734   -1.6981487   -1.6981487  -0.98314729  0.050068333   -1.6981487   0.71500145  1070540 
 1013000   0.99774747   -1.6975091   -1.6975091  -0.98250044   0.05547114   -1.6975091   0.71500871  1070540 
 1014000    1.0013113   -1.6990205   -1.6990205  -0.98145786  0.041042583   -1.6990205    0.7175626  1070540 
 1015000    1.0012574   -1.6983811   -1.6983811  -0.98085705  0.048853507   -1.6983811   0.71752401  1070540 
 1016000    1.0004228   -1.6976941   -1.6976941  -0.98076821  0.056684202   -1.6976941   0.71692591  1070540 
 1017000    1.0000509   -1.6977273   -1.6977273  -0.98106791  0.062782509   -1.6977273   0.71665937  1070540 
 1018000    1.0006886   -1.6988272   -1.6988272  -0.98171078  0.050654813   -1.6988272    0.7171164  1070540 
 1019000    1.0000623   -1.6987687   -1.6987687   -0.9821012  0.050655609   -1.6987687   0.71666754  1070540 
 1020000   0.99924424   -1.6985601   -1.6985601  -0.98247878  0.059668259   -1.6985601   0.71608132  1070540 
 1021000   0.99731996    -1.697508    -1.697508   -0.9828057  0.055218089    -1.697508   0.71470234  1070540 
 1022000   0.99998978   -1.6991397   -1.6991397  -0.98252408  0.057169287   -1.6991397    0.7166156  1070540 
 1023000    1.0009681   -1.6992865   -1.6992865  -0.98196978  0.043692606   -1.6992865    0.7173167  1070540 
 1024000    1.0005342   -1.6979804   -1.6979804  -0.98097464  0.054566989   -1.6979804   0.71700577  1070540 
 1025000    1.0013474   -1.6978765   -1.6978765  -0.98028802  0.060950833   -1.6978765   0.71758848  1070540 
 1026000    1.0022851    -1.698469    -1.698469  -0.98020851  0.053936862    -1.698469   0.71826044  1070540 
 1027000    1.0005366   -1.6978718   -1.6978718  -0.98086434  0.052856427   -1.6978718   0.71700743  1070540 
 1028000   0.99891233   -1.6975269   -1.6975269  -0.98168347  0.052896727   -1.6975269   0.71584347  1070540 
 1029000   0.99971724   -1.6985896   -1.6985896  -0.98216936  0.054836468   -1.6985896   0.71642029  1070540 
 1030000    0.9982908   -1.6977203   -1.6977203  -0.98232221  0.053380829   -1.6977203   0.71539807  1070540 
 1031000    1.0006358   -1.6994931   -1.6994931  -0.98241449  0.059314671   -1.6994931   0.71707857  1070540 
 1032000   0.99909585    -1.698445    -1.698445  -0.98247003  0.059922526    -1.698445   0.71597499  1070540 
 1033000   0.99944405   -1.6986031   -1.6986031  -0.98237861  0.048301213   -1.6986031   0.71622451  1070540 
 1034000   0.99978175   -1.6986616   -1.6986616  -0.98219512  0.061127008   -1.6986616   0.71646652  1070540 
 1035000   0.99961328   -1.6987488   -1.6987488  -0.98240299  0.059517767   -1.6987488   0.71634578  1070540 
 1036000   0.99973819   -1.6989796   -1.6989796  -0.98254429  0.061942073   -1.6989796    0.7164353  1070540 
 1037000    1.0007882   -1.6998284   -1.6998284  -0.98264062  0.051720434   -1.6998284   0.71718776  1070540 
 1038000   0.99986663   -1.6993518   -1.6993518   -0.9828245  0.063566694   -1.6993518   0.71652734  1070540 
 1039000    1.0004913   -1.7000477   -1.7000477  -0.98307267  0.045223117   -1.7000477   0.71697503  1070540 
 1040000    0.9982839   -1.6989475   -1.6989475  -0.98355435  0.052099537   -1.6989475   0.71539312  1070540 
 1041000    1.0001162   -1.7011096   -1.7011096  -0.98440338  0.051029979   -1.7011096   0.71670619  1070540 
 1042000    0.9974893   -1.6998076   -1.6998076  -0.98498392  0.057346513   -1.6998076   0.71482369  1070540 
 1043000   0.99817873   -1.7010107   -1.7010107  -0.98569297  0.052543654   -1.7010107   0.71531775  1070540 
 1044000   0.99858269   -1.7015426   -1.7015426  -0.98593533  0.056791954   -1.7015426   0.71560725  1070540 
 1045000   0.99802844   -1.7010922   -1.7010922  -0.98588217   0.05455848   -1.7010922   0.71521005  1070540 
 1046000    1.0008148   -1.7022302   -1.7022302  -0.98502335  0.052956921   -1.7022302   0.71720681  1070540 
 1047000   0.99996662   -1.7006922   -1.7006922   -0.9840932  0.054210838   -1.7006922     0.716599  1070540 
 1048000    1.0008756   -1.7007543   -1.7007543  -0.98350383  0.055707758   -1.7007543   0.71725043  1070540 
 1049000    1.0002335   -1.7001551   -1.7001551  -0.98336485  0.060214293   -1.7001551   0.71679022  1070540 
 1050000    1.0002701   -1.7002999   -1.7002999  -0.98348344  0.053299758   -1.7002999   0.71681646  1070540 
 1051000    1.0006109   -1.7009106   -1.7009106   -0.9838499  0.057646956   -1.7009106    0.7170607  1070540 
 1052000   0.99914646   -1.7007975   -1.7007975  -0.98478621  0.056573383   -1.7007975   0.71601125  1070540 
 1053000    0.9989394   -1.7018829   -1.7018829  -0.98602003  0.053700383   -1.7018829   0.71586287  1070540 
 1054000    0.9986964   -1.7022232   -1.7022232  -0.98653449  0.047647863   -1.7022232   0.71568873  1070540 
 1055000   0.99936343   -1.7023553   -1.7023553  -0.98618855  0.053112312   -1.7023553   0.71616674  1070540 
 1056000   0.99855643     -1.70133     -1.70133  -0.98574154  0.054569504     -1.70133   0.71558842  1070540 
 1057000   0.99897047   -1.7013381   -1.7013381  -0.98545296  0.046020584   -1.7013381   0.71588514  1070540 
 1058000   0.99981736   -1.7016495   -1.7016495  -0.98515744  0.045824232   -1.7016495   0.71649203  1070540 
 1059000   0.99969009   -1.7013207   -1.7013207  -0.98491991  0.049969882   -1.7013207   0.71640083  1070540 
 1060000    1.0012466   -1.7024233   -1.7024233  -0.98490703  0.052616667   -1.7024233   0.71751628  1070540 
 1061000    1.0000235   -1.7016756   -1.7016756  -0.98503583  0.054112808   -1.7016756   0.71663978  1070540 
 1062000   0.99885543   -1.7009131   -1.7009131  -0.98511036  0.056585736   -1.7009131    0.7158027  1070540 
 1063000   0.99877626   -1.7009145   -1.7009145  -0.98516852  0.045039161   -1.7009145   0.71574596  1070540 
 1064000   0.99901364   -1.7005244   -1.7005244   -0.9846083  0.052808685   -1.7005244   0.71591607  1070540 
 1065000    1.0020754   -1.7010771   -1.7010771  -0.98296696  0.050430565   -1.7010771   0.71811018  1070540 
 1066000    1.0009653   -1.6995121   -1.6995121  -0.98219747  0.050638255   -1.6995121   0.71731464  1070540 
 1067000     1.003097   -1.7011916   -1.7011916  -0.98234926  0.051368978   -1.7011916   0.71884232  1070540 
 1068000    0.9998566   -1.6994804   -1.6994804  -0.98296029  0.063767338   -1.6994804   0.71652016  1070540 
 1069000   0.99910891   -1.6997778   -1.6997778  -0.98379345  0.052325391   -1.6997778   0.71598434  1070540 
 1070000     1.000043    -1.700918    -1.700918   -0.9842642   0.04805547    -1.700918   0.71665377  1070540 
 1071000   0.99957029   -1.7006712   -1.7006712  -0.98435624  0.061511583   -1.7006712   0.71631498  1070540 
 1072000   0.99924832   -1.7003368   -1.7003368  -0.98425258  0.051786133   -1.7003368   0.71608425  1070540 
 1073000   0.99917243   -1.6998791   -1.6998791  -0.98384924  0.056897199   -1.6998791   0.71602986  1070540 
 1074000    1.0005582   -1.7002368   -1.7002368  -0.98321389  0.062463337   -1.7002368   0.71702292  1070540 
 1075000    1.0023499   -1.7004174   -1.7004174  -0.98211045  0.050227965   -1.7004174    0.7183069  1070540 
 1076000    1.0020867   -1.6993375   -1.6993375  -0.98121922  0.057804809   -1.6993375   0.71811829  1070540 
 1077000    1.0028122   -1.6998496   -1.6998496  -0.98121135  0.061240224   -1.6998496   0.71863823  1070540 
 1078000    1.0007139   -1.6987528   -1.6987528  -0.98161826  0.049748746   -1.6987528   0.71713455  1070540 
 1079000   0.99895224   -1.6982925   -1.6982925  -0.98242042  0.055222945   -1.6982925   0.71587207  1070540 
 1080000    0.9998983   -1.6996752   -1.6996752  -0.98312517  0.052845605   -1.6996752   0.71655004  1070540 
 1081000   0.99750625    -1.698047    -1.698047  -0.98321119  0.055383494    -1.698047   0.71483584  1070540 
 1082000   0.99890891   -1.6986564   -1.6986564  -0.98281534  0.049385761   -1.6986564   0.71584102  1070540 
 1083000   0.99978928   -1.6990206   -1.6990206  -0.98254866  0.052448077   -1.6990206   0.71647191  1070540 
 1084000   0.99980386   -1.6989224   -1.6989224  -0.98244001  0.049276657   -1.6989224   0.71648236  1070540 
 1085000    1.0008002   -1.6994463   -1.6994463  -0.98224997  0.051144703   -1.6994463   0.71719637  1070540 
 1086000    1.0009297    -1.699605    -1.699605  -0.98231583  0.057728031    -1.699605   0.71728919  1070540 
 1087000    1.0000946   -1.6994183   -1.6994183  -0.98272755  0.056801019   -1.6994183   0.71669073  1070540 
 1088000   0.99848486   -1.6988466   -1.6988466  -0.98330948  0.047987944   -1.6988466   0.71553713  1070540 
 1089000    1.0002235   -1.7003696   -1.7003696  -0.98358651  0.042868741   -1.7003696   0.71678307  1070540 
 1090000   0.99930878   -1.7000102   -1.7000102  -0.98388266  0.048758058   -1.7000102   0.71612758  1070540 
 1091000   0.99834203   -1.6993491   -1.6993491  -0.98391437  0.056290087   -1.6993491   0.71543478  1070540 
 1092000   0.99982506   -1.6997287   -1.6997287  -0.98323116  0.047142182   -1.6997287   0.71649756  1070540 
 1093000    1.0007659   -1.6993672   -1.6993672  -0.98219546  0.051218483   -1.6993672   0.71717175  1070540 
 1094000    1.0010116   -1.6986307   -1.6986307  -0.98128292  0.051772562   -1.6986307   0.71734783  1070540 
 1095000    1.0013181   -1.6987855   -1.6987855  -0.98121804  0.049592508   -1.6987855   0.71756747  1070540 
 1096000    1.0013419   -1.6991133   -1.6991133  -0.98152872  0.049698211   -1.6991133   0.71758459  1070540 
 1097000    1.0009152   -1.6998034   -1.6998034   -0.9825246  0.060137844   -1.6998034   0.71727879  1070540 
 1098000   0.99972766   -1.6997011   -1.6997011  -0.98327339  0.057405946   -1.6997011   0.71642776  1070540 
 1099000   0.99965311   -1.7000457   -1.7000457   -0.9836714  0.054521675   -1.7000457   0.71637433  1070540 
 1100000    1.0005271   -1.7008134   -1.7008134  -0.98381281  0.058565563   -1.7008134   0.71700064  1070540 
 1101000    1.0004702   -1.7011242   -1.7011242  -0.98416434  0.050908408   -1.7011242   0.71695987  1070540 
 1102000   0.99931435   -1.7003039   -1.7003039  -0.98417229  0.054172437   -1.7003039   0.71613156  1070540 
 1103000   0.99999138   -1.7009614   -1.7009614  -0.98434464  0.046321352   -1.7009614   0.71661674  1070540 
 1104000    1.0006487   -1.7015028   -1.7015028  -0.98441502  0.051852549   -1.7015028    0.7170878  1070540 
 1105000    1.0001247   -1.7015207   -1.7015207  -0.98480836  0.050994373   -1.7015207   0.71671229  1070540 
 1106000   0.99950332   -1.7017474   -1.7017474   -0.9854804  0.052413422   -1.7017474   0.71626698  1070540 
 1107000   0.99855499   -1.7019848   -1.7019848  -0.98639743  0.052660471   -1.7019848   0.71558739  1070540 
 1108000   0.99804157   -1.7021887   -1.7021887  -0.98696927  0.058034925   -1.7021887   0.71521946  1070540 
 1109000   0.99914911   -1.7030182   -1.7030182  -0.98700508  0.057803797   -1.7030182   0.71601315  1070540 
 1110000   0.99848703   -1.7021263   -1.7021263  -0.98658759  0.052702454   -1.7021263   0.71553869  1070540 
 1111000   0.99939527   -1.7016635   -1.7016635   -0.9854739  0.056761691   -1.7016635   0.71618956  1070540 
 1112000    1.0005923   -1.7015658   -1.7015658  -0.98451843  0.052218191   -1.7015658   0.71704735  1070540 
 1113000   0.99992542   -1.7004822   -1.7004822  -0.98391272  0.052264285   -1.7004822   0.71656948  1070540 
 1114000   0.99999142   -1.7003305   -1.7003305  -0.98371372  0.055645348   -1.7003305   0.71661677  1070540 
 1115000   0.99954864    -1.699819    -1.699819  -0.98351953  0.050835056    -1.699819   0.71629947  1070540 
 1116000    1.0010035   -1.7009115   -1.7009115  -0.98356944   0.05459677   -1.7009115   0.71734205  1070540 
 1117000     1.000369   -1.7004907   -1.7004907  -0.98360339  0.052161065   -1.7004907   0.71688734  1070540 
 1118000    1.0010888   -1.7015305   -1.7015305  -0.98412734  0.051988792   -1.7015305   0.71740315  1070540 
 1119000   0.99889233   -1.7007326   -1.7007326  -0.98490344  0.052305143   -1.7007326   0.71582914  1070540 
 1120000   0.99858178   -1.7017819   -1.7017819  -0.98617536  0.053974933   -1.7017819   0.71560659  1070540 
 1121000   0.99962506   -1.7028442   -1.7028442  -0.98649001  0.060176794   -1.7028442   0.71635423  1070540 
 1122000   0.99963568   -1.7030229   -1.7030229  -0.98666106  0.052991181   -1.7030229   0.71636184  1070540 
 1123000    0.9977185    -1.701418    -1.701418  -0.98643011  0.058347305    -1.701418   0.71498794  1070540 
 1124000   0.99885998   -1.7016364   -1.7016364   -0.9858304  0.056139576   -1.7016364   0.71580596  1070540 
 1125000    1.0004493   -1.7021194   -1.7021194  -0.98517454  0.053159185   -1.7021194   0.71694488  1070540 
 1126000    1.0002052   -1.7015214   -1.7015214  -0.98475142  0.049297574   -1.7015214      0.71677  1070540 
 1127000   0.99914309   -1.7004799   -1.7004799  -0.98447109  0.056327676   -1.7004799   0.71600884  1070540 
 1128000   0.99955945   -1.7007522   -1.7007522  -0.98444501  0.049796405   -1.7007522   0.71630721  1070540 
 1129000   0.99962164   -1.7006405   -1.7006405  -0.98428868  0.060186677   -1.7006405   0.71635177  1070540 
 1130000   0.99971504   -1.7004853   -1.7004853  -0.98406663  0.053330901   -1.7004853   0.71641871  1070540 
 1131000    0.9995193   -1.7002816   -1.7002816  -0.98400316  0.057170178   -1.7002816   0.71627844  1070540 
 1132000    1.0008381   -1.7012717   -1.7012717  -0.98404811  0.057388731   -1.7012717   0.71722354  1070540 
 1133000   0.99969885   -1.7005967   -1.7005967  -0.98418957  0.050202745   -1.7005967   0.71640711  1070540 
 1134000    1.0001017   -1.7012643   -1.7012643  -0.98456852  0.052004104   -1.7012643   0.71669581  1070540 
 1135000   0.99839612   -1.7009124   -1.7009124   -0.9854389  0.057126806   -1.7009124   0.71547354  1070540 
 1136000   0.99923856   -1.7021577   -1.7021577  -0.98608048  0.049427811   -1.7021577   0.71607725  1070540 
 1137000    0.9977216   -1.7013322   -1.7013322  -0.98634208  0.055044805   -1.7013322   0.71499017  1070540 
 1138000    0.9979474   -1.7012254   -1.7012254  -0.98607342  0.054250708   -1.7012254   0.71515198  1070540 
 1139000    1.0017331   -1.7028901   -1.7028901  -0.98502515  0.051647813   -1.7028901   0.71786491  1070540 
 1140000    1.0005243   -1.7012347   -1.7012347  -0.98423603  0.054517614   -1.7012347   0.71699863  1070540 
 1141000    1.0000364   -1.7004532   -1.7004532  -0.98380414  0.056556046   -1.7004532   0.71664903  1070540 
 1142000    1.0007804   -1.7011414   -1.7011414  -0.98395915  0.056933405   -1.7011414   0.71718221  1070540 
 1143000      1.00001   -1.7006199   -1.7006199  -0.98398981  0.057751184   -1.7006199   0.71663005  1070540 
 1144000   0.99958363   -1.7003476   -1.7003476  -0.98402304  0.056922421   -1.7003476   0.71632454  1070540 
 1145000   0.99883919   -1.6996671   -1.6996671  -0.98387607  0.056004824   -1.6996671   0.71579106  1070540 
 1146000    1.0014737   -1.7005151   -1.7005151  -0.98283612  0.052246098   -1.7005151     0.717679  1070540 
 1147000    1.0021629   -1.6995771   -1.6995771   -0.9814042  0.064771493   -1.6995771   0.71817289  1070540 
 1148000    1.0021605   -1.6992466   -1.6992466  -0.98107549  0.055633851   -1.6992466   0.71817116  1070540 
 1149000    1.0005404   -1.6983381   -1.6983381  -0.98132785   0.05270616   -1.6983381    0.7170102  1070540 
 1150000    1.0016114   -1.6995117   -1.6995117  -0.98173401  0.058472974   -1.6995117   0.71777771  1070540 
 1151000    1.0002195   -1.6991663   -1.6991663  -0.98238607  0.050489497   -1.6991663   0.71678021  1070540 
 1152000   0.99953721   -1.6993469   -1.6993469  -0.98305559  0.053947221   -1.6993469   0.71629128  1070540 
 1153000   0.99830153   -1.6987518   -1.6987518  -0.98334601  0.054004759   -1.6987518   0.71540576  1070540 
 1154000   0.99939674   -1.6990946   -1.6990946  -0.98290396  0.054255178   -1.6990946   0.71619061  1070540 
 1155000    1.0007929   -1.6995392   -1.6995392  -0.98234814  0.051812017   -1.6995392   0.71719111  1070540 
 1156000    1.0012653   -1.6992027   -1.6992027  -0.98167298  0.059038829   -1.6992027   0.71752969  1070540 
 1157000    1.0005495   -1.6979471   -1.6979471  -0.98093042  0.057628578   -1.6979471   0.71701673  1070540 
 1158000    1.0025781   -1.6985076   -1.6985076  -0.98003712  0.058041808   -1.6985076   0.71847046  1070540 
 1159000    1.0034162   -1.6984516   -1.6984516  -0.97938054  0.057494559   -1.6984516   0.71907101  1070540 
 1160000    1.0032788   -1.6981168   -1.6981168  -0.97914427  0.055478666   -1.6981168   0.71897257  1070540 
 1161000    1.0015452   -1.6977531   -1.6977531  -0.98002285  0.050159415   -1.6977531   0.71773023  1070540 
 1162000    1.0010377   -1.6987498   -1.6987498  -0.98138323  0.055791209   -1.6987498   0.71736655  1070540 
 1163000   0.99916916   -1.6981659   -1.6981659  -0.98213838  0.052826707   -1.6981659   0.71602752  1070540 
 1164000   0.99863845   -1.6978339   -1.6978339  -0.98218673  0.044493333   -1.6978339    0.7156472  1070540 
 1165000   0.99871402    -1.697857    -1.697857  -0.98215561  0.050512565    -1.697857   0.71570136  1070540 
 1166000    1.0007812   -1.6987597   -1.6987597  -0.98157691  0.051802773   -1.6987597   0.71718275  1070540 
 1167000   0.99973131   -1.6976887   -1.6976887  -0.98125829   0.05873267   -1.6976887   0.71643037  1070540 
 1168000   0.99966482   -1.6972642   -1.6972642  -0.98088143  0.052682302   -1.6972642   0.71638272  1070540 
 1169000    1.0012806    -1.697552    -1.697552  -0.98001137  0.055248389    -1.697552   0.71754066  1070540 
 1170000    1.0032007   -1.6985589   -1.6985589  -0.97964227  0.055754171   -1.6985589   0.71891661  1070540 
 1171000    1.0009301   -1.6971639   -1.6971639  -0.97987451  0.059579002   -1.6971639   0.71728942  1070540 
 1172000   0.99964876    -1.697569    -1.697569  -0.98119782  0.050291035    -1.697569   0.71637121  1070540 
 1173000   0.99958933   -1.6987452   -1.6987452  -0.98241659    0.0519024   -1.6987452   0.71632862  1070540 
 1174000    1.0006192   -1.6997974   -1.6997974  -0.98273076  0.052078924   -1.6997974   0.71706666  1070540 
 1175000    1.0005479   -1.6997561   -1.6997561  -0.98274058  0.051943152   -1.6997561   0.71701554  1070540 
 1176000    1.0001475   -1.6997511   -1.6997511  -0.98302248  0.051175736   -1.6997511    0.7167286  1070540 
 1177000    1.0007964   -1.7001577   -1.7001577    -0.982964  0.052094181   -1.7001577   0.71719367  1070540 
 1178000   0.99861817   -1.6987224   -1.6987224  -0.98308973  0.064210879   -1.6987224   0.71563267  1070540 
 1179000   0.99967061   -1.6996257   -1.6996257  -0.98323883  0.059112323   -1.6996257   0.71638687  1070540 
 1180000   0.99874499   -1.6993116   -1.6993116  -0.98358802  0.054794031   -1.6993116   0.71572355  1070540 
 1181000   0.99990837   -1.7002806   -1.7002806  -0.98372333  0.053126231   -1.7002806   0.71655726  1070540 
 1182000    1.0001472   -1.7002396   -1.7002396   -0.9835112  0.050993088   -1.7002396    0.7167284  1070540 
 1183000    1.0005988   -1.7000778   -1.7000778  -0.98302573  0.049875235   -1.7000778   0.71705204  1070540 
 1184000    1.0014501   -1.7003121   -1.7003121  -0.98264998  0.054360324   -1.7003121   0.71766211  1070540 
 1185000    1.0014793   -1.6998377   -1.6998377  -0.98215471  0.057376012   -1.6998377   0.71768299  1070540 
 1186000    1.0011644   -1.6996356   -1.6996356  -0.98217821  0.066320572   -1.6996356   0.71745736  1070540 
 1187000    1.0013275   -1.7002903   -1.7002903    -0.982716   0.05207801   -1.7002903   0.71757426  1070540 
 1188000   0.99994757   -1.7007123   -1.7007123  -0.98412698  0.059802742   -1.7007123   0.71658535  1070540 
 1189000   0.99873959   -1.7005988   -1.7005988  -0.98487911  0.050020692   -1.7005988   0.71571968  1070540 
 1190000   0.99907872   -1.7008442   -1.7008442  -0.98488149  0.048948224   -1.7008442   0.71596271  1070540 
 1191000   0.99960165   -1.7010224   -1.7010224  -0.98468499  0.057294142   -1.7010224   0.71633745  1070540 
 1192000    1.0001271   -1.7010034   -1.7010034  -0.98428939  0.056397239   -1.7010034   0.71671403  1070540 
 1193000    1.0003692   -1.7006987   -1.7006987  -0.98381119  0.054601737   -1.7006987    0.7168875  1070540 
 1194000    1.0007604   -1.7004835   -1.7004835   -0.9833157  0.054100675   -1.7004835   0.71716781  1070540 
 1195000    1.0013721   -1.7006354   -1.7006354  -0.98302925   0.05097537   -1.7006354    0.7176062  1070540 
 1196000    1.0018613   -1.7010901   -1.7010901  -0.98313334  0.056116646   -1.7010901   0.71795674  1070540 
 1197000    1.0012527   -1.7017421   -1.7017421  -0.98422151  0.057706394   -1.7017421   0.71752063  1070540 
 1198000   0.99959758   -1.7019376   -1.7019376  -0.98560305  0.055606127   -1.7019376   0.71633454  1070540 
 1199000   0.99862751   -1.7019333   -1.7019333  -0.98629393  0.054556928   -1.7019333   0.71563936  1070540 
 1200000    1.0008002   -1.7035968   -1.7035968  -0.98640042  0.051965957   -1.7035968   0.71719637  1070540 
 1201000   0.99981517    -1.702755    -1.702755  -0.98626455  0.050663025    -1.702755   0.71649047  1070540 
 1202000   0.99968819   -1.7022003   -1.7022003  -0.98580078  0.050603318   -1.7022003   0.71639947  1070540 
 1203000    1.0002168   -1.7017848   -1.7017848   -0.9850065  0.052665983   -1.7017848   0.71677828  1070540 
 1204000    1.0007468   -1.7013059   -1.7013059  -0.98414778  0.049691051   -1.7013059   0.71715808  1070540 
 1205000    1.0004821   -1.7007072   -1.7007072  -0.98373873   0.05701746   -1.7007072   0.71696844  1070540 
 1206000   0.99916018   -1.6995633   -1.6995633  -0.98354218  0.053001887   -1.6995633   0.71602109  1070540 
 1207000    1.0023518   -1.7015541   -1.7015541  -0.98324582  0.051925435   -1.7015541   0.71830828  1070540 
 1208000   0.99942509   -1.6998951   -1.6998951  -0.98368415   0.05615312   -1.6998951   0.71621092  1070540 
 1209000   0.99889064   -1.7006838   -1.7006838  -0.98485586  0.053482052   -1.7006838   0.71582792  1070540 
 1210000   0.99786169   -1.7011406   -1.7011406  -0.98605009  0.048133236   -1.7011406   0.71509055  1070540 
 1211000   0.99884907   -1.7020999   -1.7020999   -0.9863018   0.05538923   -1.7020999   0.71579814  1070540 
 1212000   0.99855705   -1.7013532   -1.7013532  -0.98576432  0.053141137   -1.7013532   0.71558887  1070540 
 1213000    1.0001624   -1.7019654   -1.7019654  -0.98522616  0.047930757   -1.7019654   0.71673926  1070540 
 1214000    1.0003232   -1.7014859   -1.7014859  -0.98463139  0.047754087   -1.7014859   0.71685455  1070540 
 1215000    1.0005574   -1.7011026   -1.7011026  -0.98408018  0.061490273   -1.7011026   0.71702238  1070540 
 1216000     1.001666   -1.7016413   -1.7016413  -0.98382446   0.04991562   -1.7016413   0.71781683  1070540 
 1217000   0.99991882   -1.7002197   -1.7002197  -0.98365492  0.063102257   -1.7002197   0.71656474  1070540 
 1218000    1.0003338   -1.7003118   -1.7003118  -0.98344965  0.059643286   -1.7003118   0.71686211  1070540 
 1219000    1.0017954   -1.7012059   -1.7012059  -0.98329636   0.06061557   -1.7012059   0.71790951  1070540 
 1220000    1.0000031   -1.7000335   -1.7000335  -0.98340841  0.055612564   -1.7000335   0.71662513  1070540 
 1221000   0.99906294   -1.7002136   -1.7002136  -0.98426223  0.048738693   -1.7002136    0.7159514  1070540 
 1222000   0.99784446   -1.7005894   -1.7005894  -0.98551119  0.049990141   -1.7005894   0.71507821  1070540 
 1223000   0.99668523   -1.6999665   -1.6999665    -0.985719  0.057243385   -1.6999665   0.71424748  1070540 
 1224000    0.9979138    -1.699934    -1.699934   -0.9848061  0.049707126    -1.699934    0.7151279  1070540 
 1225000   0.99746316   -1.6984794   -1.6984794  -0.98367444  0.055179855   -1.6984794   0.71480496  1070540 
 1226000   0.99929971   -1.6989161   -1.6989161  -0.98279507  0.057232461   -1.6989161   0.71612108  1070540 
 1227000    1.0011029   -1.6996764   -1.6996764  -0.98226314  0.051905855   -1.6996764   0.71741331  1070540 
 1228000    1.0013693   -1.6996747   -1.6996747  -0.98207051   0.05193936   -1.6996747   0.71760423  1070540 
 1229000    1.0022685    -1.700491    -1.700491  -0.98224248  0.054505856    -1.700491   0.71824857  1070540 
 1230000   0.99989702   -1.6991748   -1.6991748  -0.98262564  0.052545461   -1.6991748   0.71654912  1070540 
 1231000   0.99948675   -1.6995607   -1.6995607  -0.98330556  0.054549331   -1.6995607   0.71625511  1070540 
 1232000   0.99944439   -1.7004178   -1.7004178  -0.98419309  0.050126758   -1.7004178   0.71622476  1070540 
 1233000    0.9983424   -1.7000131   -1.7000131  -0.98457802   0.04900416   -1.7000131   0.71543504  1070540 
 1234000   0.99912346   -1.7005233   -1.7005233  -0.98452852  0.056711805   -1.7005233   0.71599477  1070540 
 1235000   0.99968373   -1.7000743   -1.7000743  -0.98367803  0.051241807   -1.7000743   0.71639628  1070540 
 1236000    1.0003827   -1.6992328   -1.6992328   -0.9823356  0.053598352   -1.6992328   0.71689715  1070540 
 1237000   0.99992849   -1.6982467   -1.6982467  -0.98167501  0.058578943   -1.6982467   0.71657167  1070540 
 1238000     1.001729   -1.6995896   -1.6995896  -0.98172766  0.066091633   -1.6995896   0.71786193  1070540 
 1239000    1.0005743   -1.6991629   -1.6991629  -0.98212839  0.054268309   -1.6991629   0.71703447  1070540 
 1240000   0.99994176    -1.699013    -1.699013  -0.98243183  0.051222796    -1.699013   0.71658118  1070540 
 1241000    1.0014743   -1.7005078   -1.7005078  -0.98282834  0.049193578   -1.7005078   0.71767942  1070540 
 1242000   0.99961311    -1.699684    -1.699684  -0.98333828  0.050437587    -1.699684   0.71634567  1070540 
 1243000   0.99828654   -1.6993582   -1.6993582  -0.98396314  0.051505549   -1.6993582   0.71539501  1070540 
 1244000   0.99862235   -1.6997663   -1.6997663  -0.98413061  0.057323431   -1.6997663   0.71563566  1070540 
 1245000   0.99856814   -1.6992933   -1.6992933  -0.98369651  0.051653616   -1.6992933   0.71559681  1070540 
 1246000    1.0006535   -1.6995989   -1.6995989  -0.98250763  0.044621036   -1.6995989   0.71709125  1070540 
 1247000    1.0012599   -1.6989193   -1.6989193  -0.98139355  0.056313165   -1.6989193   0.71752577  1070540 
 1248000    1.0011289   -1.6986851   -1.6986851  -0.98125318  0.056388194   -1.6986851   0.71743188  1070540 
 1249000    1.0004372    -1.698386    -1.698386  -0.98144982    0.0521758    -1.698386   0.71693621  1070540 
 1250000   0.99997083   -1.6985674   -1.6985674   -0.9819654  0.061436675   -1.6985674   0.71660202  1070540 
 1251000   0.99934885   -1.6988048   -1.6988048   -0.9826485  0.053919931   -1.6988048   0.71615629  1070540 
 1252000    1.0005091   -1.7001913   -1.7001913  -0.98320357  0.052196816   -1.7001913   0.71698777  1070540 
 1253000     1.000613   -1.7007681   -1.7007681  -0.98370591  0.053061741   -1.7007681   0.71706223  1070540 
 1254000   0.99934734   -1.7002534   -1.7002534  -0.98409814  0.052211492   -1.7002534   0.71615521  1070540 
 1255000   0.99867253   -1.6998353   -1.6998353  -0.98416372  0.047742543   -1.6998353   0.71567163  1070540 
 1256000    1.0005521   -1.7010624   -1.7010624  -0.98404376  0.052116747   -1.7010624    0.7170186  1070540 
 1257000   0.99890583   -1.6996541   -1.6996541  -0.98381527  0.054296811   -1.6996541   0.71583881  1070540 
 1258000    1.0010015   -1.7011546   -1.7011546  -0.98381391  0.059401166   -1.7011546   0.71734064  1070540 
 1259000   0.99930071   -1.6997958   -1.6997958  -0.98367398  0.048142659   -1.6997958   0.71612179  1070540 
 1260000   0.99980795   -1.7003505   -1.7003505  -0.98386517  0.055374937   -1.7003505   0.71648529  1070540 
 1261000    1.0005748   -1.7007092   -1.7007092  -0.98367433  0.054650282   -1.7007092   0.71703484  1070540 
 1262000   0.99987791   -1.7002878   -1.7002878  -0.98375237  0.051668122   -1.7002878   0.71653543  1070540 
 1263000    1.0009316   -1.7017088   -1.7017088  -0.98441826  0.054909095   -1.7017088   0.71729055  1070540 
 1264000    0.9989368   -1.7018693   -1.7018693  -0.98600827  0.051389423   -1.7018693   0.71586101  1070540 
 1265000    0.9982993   -1.7020625   -1.7020625  -0.98665833  0.062754139   -1.7020625   0.71540416  1070540 
 1266000   0.99953305   -1.7031285   -1.7031285  -0.98684017  0.062693711   -1.7031285   0.71628829  1070540 
 1267000     1.000618   -1.7036656   -1.7036656  -0.98659978  0.054362931   -1.7036656   0.71706578  1070540 
 1268000   0.99936028   -1.7023217   -1.7023217   -0.9861572  0.052877639   -1.7023217   0.71616448  1070540 
 1269000    1.0018743   -1.7034914   -1.7034914  -0.98552533   0.04712172   -1.7034914   0.71796611  1070540 
 1270000    1.0019984   -1.7033009   -1.7033009  -0.98524586  0.056079837   -1.7033009   0.71805501  1070540 
 1271000    1.0015187   -1.7030254   -1.7030254  -0.98531419   0.05771465   -1.7030254   0.71771125  1070540 
 1272000    1.0008539   -1.7037078   -1.7037078  -0.98647292  0.049738554   -1.7037078   0.71723486  1070540 
 1273000   0.99898743   -1.7034424   -1.7034424  -0.98754512  0.050839848   -1.7034424   0.71589729  1070540 
 1274000   0.99699192   -1.7022076   -1.7022076  -0.98774032  0.059142649   -1.7022076   0.71446726  1070540 
 1275000   0.99798908   -1.7024668   -1.7024668    -0.987285  0.062662742   -1.7024668   0.71518185  1070540 
 1276000   0.99905353   -1.7023958   -1.7023958  -0.98645111  0.054358575   -1.7023958   0.71594466  1070540 
 1277000   0.99924908   -1.7019809   -1.7019809  -0.98589615  0.058044562   -1.7019809   0.71608479  1070540 
 1278000   0.99998697   -1.7022318   -1.7022318   -0.9856182  0.053936314   -1.7022318   0.71661358  1070540 
 1279000    1.0007534   -1.7024439   -1.7024439  -0.98528106  0.056901808   -1.7024439   0.71716283  1070540 
 1280000   0.99974946   -1.7017953   -1.7017953  -0.98535192  0.057677377   -1.7017953   0.71644338  1070540 
 1281000    1.0014812   -1.7033407   -1.7033407  -0.98565627  0.059100565   -1.7033407   0.71768438  1070540 
 1282000    1.0008405   -1.7037048   -1.7037048  -0.98647951  0.067677804   -1.7037048   0.71722524  1070540 
 1283000   0.99912639   -1.7038258   -1.7038258   -0.9878289  0.056270661   -1.7038258   0.71599687  1070540 
 1284000   0.99887973   -1.7040965   -1.7040965  -0.98827642   0.05581791   -1.7040965   0.71582011  1070540 
 1285000   0.99949218   -1.7045104   -1.7045104  -0.98825136  0.051683643   -1.7045104   0.71625901  1070540 
 1286000   0.99934297    -1.704027    -1.704027   -0.9878749  0.053222986    -1.704027   0.71615208  1070540 
 1287000   0.99930751   -1.7032299   -1.7032299  -0.98710323  0.056330612   -1.7032299   0.71612666  1070540 
 1288000   0.99997685   -1.7030942   -1.7030942  -0.98648783  0.067544932   -1.7030942   0.71660633  1070540 
 1289000   0.99941626   -1.7020532   -1.7020532  -0.98584863  0.049553616   -1.7020532    0.7162046  1070540 
 1290000   0.99975205   -1.7017077   -1.7017077  -0.98526249  0.052054141   -1.7017077   0.71644524  1070540 
 1291000   0.99970958   -1.7012231   -1.7012231  -0.98480829  0.056964795   -1.7012231    0.7164148  1070540 
 1292000    1.0005181   -1.7013347   -1.7013347  -0.98434053  0.049169511   -1.7013347    0.7169942  1070540 
 1293000   0.99977905   -1.7007909   -1.7007909  -0.98432635  0.047523064   -1.7007909   0.71646458  1070540 
 1294000   0.99969305   -1.7005663   -1.7005663  -0.98416331  0.056321692   -1.7005663   0.71640295  1070540 
 1295000    1.0015318   -1.7017069   -1.7017069  -0.98398624  0.061827553   -1.7017069   0.71772063  1070540 
 1296000   0.99988357   -1.7003075   -1.7003075  -0.98376798  0.055480742   -1.7003075   0.71653948  1070540 
 1297000    1.0011615   -1.7008684   -1.7008684  -0.98341316  0.055440853   -1.7008684   0.71745527  1070540 
 1298000     1.000972   -1.7002953   -1.7002953  -0.98297586  0.055684876   -1.7002953   0.71731944  1070540 
 1299000    1.0021082   -1.7009776   -1.7009776  -0.98284391  0.061590562   -1.7009776   0.71813371  1070540 
 1300000    0.9995012   -1.6997566   -1.6997566  -0.98349118  0.059098979   -1.6997566   0.71626547  1070540 
 1301000   0.99964841   -1.7004934   -1.7004934  -0.98412244  0.053642642   -1.7004934   0.71637096  1070540 
 1302000   0.99843637   -1.6999686   -1.6999686  -0.98446626  0.049328648   -1.6999686   0.71550239  1070540 
 1303000   0.99951036   -1.7007478   -1.7007478  -0.98447574  0.055400096   -1.7007478   0.71627203  1070540 
 1304000   0.99792707   -1.6987969   -1.6987969  -0.98365949  0.054541071   -1.6987969   0.71513741  1070540 
 1305000   0.99967932    -1.698901    -1.698901  -0.98250786  0.048532621    -1.698901   0.71639311  1070540 
 1306000    1.0002848   -1.6986571   -1.6986571  -0.98183011   0.05451989   -1.6986571   0.71682703  1070540 
 1307000    1.0002541   -1.6982886   -1.6982886  -0.98148354  0.053368203   -1.6982886   0.71680502  1070540 
 1308000    1.0005139   -1.6985305   -1.6985305  -0.98153935  0.048687106   -1.6985305   0.71699118  1070540 
 1309000    1.0002551   -1.6984107   -1.6984107  -0.98160491  0.056258977   -1.6984107   0.71680574  1070540 
 1310000   0.99988863   -1.6985456   -1.6985456  -0.98200246   0.04860314   -1.6985456   0.71654311  1070540 
 1311000   0.99804691   -1.6976166   -1.6976166  -0.98239334  0.056673909   -1.6976166   0.71522329  1070540 
 1312000   0.99838931    -1.698311    -1.698311  -0.98284232   0.05553291    -1.698311   0.71546866  1070540 
 1313000   0.99914961   -1.6991289   -1.6991289  -0.98311541  0.045296363   -1.6991289   0.71601351  1070540 
 1314000   0.99839276   -1.6984923   -1.6984923  -0.98302114   0.05959505   -1.6984923   0.71547114  1070540 
 1315000   0.99943878   -1.6986503   -1.6986503  -0.98242958  0.050200243   -1.6986503   0.71622074  1070540 
 1316000   0.99977994   -1.6983895   -1.6983895  -0.98192423  0.054427957   -1.6983895   0.71646522  1070540 
 1317000    1.0010093   -1.6988138   -1.6988138  -0.98146765   0.05027578   -1.6988138   0.71734619  1070540 
 1318000    1.0008188   -1.6986092   -1.6986092  -0.98139948  0.064944657   -1.6986092   0.71720967  1070540 
 1319000     1.000563   -1.6989132   -1.6989132  -0.98188685  0.053649131   -1.6989132   0.71702638  1070540 
 1320000     1.000838   -1.7000671   -1.7000671  -0.98284369  0.061186315   -1.7000671   0.71722343  1070540 
 1321000   0.99833306   -1.6992435   -1.6992435  -0.98381514   0.05522953   -1.6992435   0.71542835  1070540 
 1322000   0.99888971   -1.7001006   -1.7001006  -0.98427336  0.045985005   -1.7001006   0.71582726  1070540 
 1323000   0.99934125   -1.7002368   -1.7002368  -0.98408599  0.056749617   -1.7002368   0.71615084  1070540 
 1324000    0.9993958   -1.6999362   -1.6999362  -0.98374623  0.052847714   -1.6999362   0.71618993  1070540 
 1325000    1.0003005   -1.7002782   -1.7002782  -0.98343992  0.050767653   -1.7002782    0.7168383  1070540 
 1326000    1.0017144   -1.7011093   -1.7011093  -0.98325784  0.051398359   -1.7011093   0.71785148  1070540 
 1327000    1.0008104   -1.7002802   -1.7002802  -0.98307654  0.057503632   -1.7002802   0.71720366  1070540 
 1328000    1.0011923   -1.7010601   -1.7010601  -0.98358277  0.062192137   -1.7010601   0.71747738  1070540 
 1329000    0.9987335   -1.7007484   -1.7007484   -0.9850331  0.060297629   -1.7007484   0.71571532  1070540 
 1330000   0.99810211   -1.7010492   -1.7010492  -0.98578639   0.05028167   -1.7010492   0.71526285  1070540 
 1331000   0.99873636   -1.7017471   -1.7017471  -0.98602976   0.05481193   -1.7017471   0.71571737  1070540 
 1332000   0.99833952   -1.7011781   -1.7011781  -0.98574516  0.056081808   -1.7011781   0.71543298  1070540 
 1333000    0.9993748   -1.7013123   -1.7013123  -0.98513741  0.045314607   -1.7013123   0.71617489  1070540 
 1334000    1.0013319   -1.7018787   -1.7018787  -0.98430125  0.054904391   -1.7018787    0.7175774  1070540 
 1335000    1.0011131   -1.7013419   -1.7013419  -0.98392133  0.059819731   -1.7013419   0.71742058  1070540 
 1336000    1.0010368   -1.7014456   -1.7014456  -0.98407966  0.059496274   -1.7014456   0.71736589  1070540 
 1337000    1.0006418   -1.7018709   -1.7018709  -0.98478797  0.049470671   -1.7018709   0.71708288  1070540 
 1338000    1.0005423   -1.7024707   -1.7024707  -0.98545917  0.054626712   -1.7024707   0.71701157  1070540 
 1339000   0.99981796   -1.7024634   -1.7024634  -0.98597093  0.054200214   -1.7024634   0.71649246  1070540 
 1340000   0.99809855   -1.7011835   -1.7011835  -0.98592319  0.055779491   -1.7011835    0.7152603  1070540 
 1341000    1.0002227   -1.7024662   -1.7024662  -0.98568368  0.050821582   -1.7024662    0.7167825  1070540 
 1342000   0.99890753   -1.7012067   -1.7012067   -0.9853667  0.055511626   -1.7012067   0.71584003  1070540 
 1343000    1.0018806   -1.7030036   -1.7030036  -0.98503302  0.053104729   -1.7030036   0.71797057  1070540 
 1344000    1.0019735   -1.7031027   -1.7031027  -0.98506555  0.042751591   -1.7031027   0.71803714  1070540 
 1345000    1.0003482   -1.7021664   -1.7021664  -0.98529399  0.061803876   -1.7021664   0.71687243  1070540 
 1346000   0.99931343   -1.7022441   -1.7022441  -0.98611316  0.060808823   -1.7022441   0.71613091  1070540 
 1347000   0.99834251   -1.7021472   -1.7021472  -0.98671207  0.047366157   -1.7021472   0.71543512  1070540 
 1348000   0.99805391   -1.7026875   -1.7026875  -0.98745916  0.057579035   -1.7026875   0.71522831  1070540 
 1349000   0.99803361   -1.7025459   -1.7025459  -0.98733214  0.047573899   -1.7025459   0.71521376  1070540 
 1350000    0.9995956   -1.7026188   -1.7026188  -0.98628572  0.051766533   -1.7026188   0.71633312  1070540 
 1351000    1.0004014     -1.70169     -1.70169  -0.98477944  0.053193681     -1.70169   0.71691059  1070540 
 1352000    1.0015671   -1.7019322   -1.7019322  -0.98418625  0.055464009   -1.7019322   0.71774596  1070540 
 1353000    1.0005777   -1.7010504   -1.7010504  -0.98401352   0.05433678   -1.7010504   0.71703692  1070540 
 1354000   0.99868729   -1.6996203   -1.6996203  -0.98393815  0.055422884   -1.6996203    0.7156822  1070540 
 1355000   0.99923433   -1.6997578   -1.6997578  -0.98368356    0.0536277   -1.6997578   0.71607423  1070540 
 1356000   0.99978124   -1.6997821   -1.6997821  -0.98331591  0.056309614   -1.6997821   0.71646615  1070540 
 1357000    0.9999132   -1.6995362   -1.6995362  -0.98297553  0.049630273   -1.6995362   0.71656071  1070540 
 1358000    1.0011482   -1.7000419   -1.7000419  -0.98259614  0.062895084   -1.7000419   0.71744572  1070540 
 1359000    1.0020935   -1.7003848   -1.7003848  -0.98226166   0.05810353   -1.7003848   0.71812313  1070540 
 1360000     1.002772   -1.7010111   -1.7010111  -0.98240175  0.056866925   -1.7010111   0.71860937  1070540 
 1361000   0.99895185   -1.6995347   -1.6995347  -0.98366294  0.056974826   -1.6995347   0.71587179  1070540 
 1362000   0.99930563   -1.7007001   -1.7007001  -0.98457475   0.05588757   -1.7007001   0.71612532  1070540 
 1363000   0.99924002   -1.7009942   -1.7009942  -0.98491593  0.049491307   -1.7009942    0.7160783  1070540 
 1364000   0.99808765   -1.7000641   -1.7000641  -0.98481165  0.062078642   -1.7000641   0.71525248  1070540 
 1365000     0.999595   -1.7007846   -1.7007846  -0.98445194  0.054190542   -1.7007846   0.71633268  1070540 
 1366000   0.99927359   -1.6998758   -1.6998758  -0.98377345  0.052378061   -1.6998758   0.71610236  1070540 
 1367000   0.99971153   -1.6992849   -1.6992849  -0.98286871  0.058557367   -1.6992849   0.71641619  1070540 
 1368000     1.000025   -1.6988442   -1.6988442  -0.98220329  0.055910944   -1.6988442   0.71664086  1070540 
 1369000    1.0000783    -1.698587    -1.698587    -0.981908  0.058849557    -1.698587   0.71667902  1070540 
 1370000      1.00053   -1.6989538   -1.6989538  -0.98195103   0.05369888   -1.6989538   0.71700274  1070540 
 1371000    1.0004508   -1.6989004   -1.6989004  -0.98195438  0.057814578   -1.6989004   0.71694597  1070540 
 1372000   0.99927466   -1.6982427   -1.6982427   -0.9821396  0.055932959   -1.6982427   0.71610312  1070540 
 1373000   0.99950966    -1.698418    -1.698418  -0.98214649  0.055273085    -1.698418   0.71627153  1070540 
 1374000    0.9998065   -1.6986987   -1.6986987  -0.98221442  0.054666442   -1.6986987   0.71648425  1070540 
 1375000     1.000407   -1.6993395   -1.6993395  -0.98242492  0.050350554   -1.6993395   0.71691455  1070540 
 1376000   0.99947154   -1.6988987   -1.6988987  -0.98265446  0.057304746   -1.6988987   0.71624422  1070540 
 1377000    0.9986343   -1.6985214   -1.6985214  -0.98287719  0.054284634   -1.6985214   0.71564423  1070540 
 1378000    1.0002368   -1.6998901   -1.6998901   -0.9830975  0.054973226   -1.6998901   0.71679262  1070540 
 1379000   0.99958069   -1.6997229   -1.6997229  -0.98340044  0.055590211   -1.6997229   0.71632243  1070540 
 1380000    0.9994824   -1.6998892   -1.6998892  -0.98363718  0.057720537   -1.6998892     0.716252  1070540 
 1381000   0.99937103   -1.7000607   -1.7000607  -0.98388853  0.059119058   -1.7000607   0.71617218  1070540 
 1382000   0.99941948   -1.6999868   -1.6999868  -0.98377994   0.05544185   -1.6999868    0.7162069  1070540 
 1383000   0.99852444   -1.6986454   -1.6986454  -0.98307987  0.047653757   -1.6986454    0.7155655  1070540 
 1384000    1.0010536   -1.6994358   -1.6994358  -0.98205784  0.052543209   -1.6994358   0.71737794  1070540 
 1385000    1.0007617   -1.6985815   -1.6985815  -0.98141273  0.062701717   -1.6985815   0.71716878  1070540 
 1386000   0.99944267   -1.6974841   -1.6974841  -0.98126056  0.052283885   -1.6974841   0.71622353  1070540 
 1387000   0.99932139   -1.6972695   -1.6972695  -0.98113292  0.053433162   -1.6972695   0.71613661  1070540 
 1388000    1.0002794     -1.69807     -1.69807  -0.98124684  0.063044557     -1.69807   0.71682316  1070540 
 1389000   0.99934616   -1.6981371   -1.6981371  -0.98198275  0.068356191   -1.6981371   0.71615436  1070540 
 1390000    1.0015704   -1.7006536   -1.7006536  -0.98290536  0.049080141   -1.7006536   0.71774829  1070540 
 1391000    1.0001035   -1.7005907   -1.7005907  -0.98389367  0.045900561   -1.7005907   0.71669706  1070540 
 1392000   0.99879214   -1.7000937   -1.7000937  -0.98433637  0.054073764   -1.7000937   0.71575734  1070540 
 1393000    1.0002951    -1.701004    -1.701004  -0.98416955  0.060401936    -1.701004    0.7168344  1070540 
 1394000   0.99968349   -1.7003911   -1.7003911  -0.98399503   0.05044894   -1.7003911    0.7163961  1070540 
 1395000    1.0010698   -1.7014073   -1.7014073  -0.98401779  0.054367258   -1.7014073   0.71738956  1070540 
 1396000   0.99949838    -1.700062    -1.700062  -0.98379853  0.056395851    -1.700062   0.71626345  1070540 
 1397000   0.99970361   -1.6997699   -1.6997699  -0.98335936  0.051904066   -1.6997699   0.71641052  1070540 
 1398000    1.0003707   -1.6994481   -1.6994481  -0.98255958   0.04843024   -1.6994481   0.71688856  1070540 
 1399000    1.0014229   -1.6992112   -1.6992112  -0.98156856  0.055624082   -1.6992112   0.71764259  1070540 
 1400000    1.0014821   -1.6983433   -1.6983433   -0.9806583   0.06141444   -1.6983433     0.717685  1070540 
 1401000    1.0020976   -1.6987301   -1.6987301  -0.98060395  0.057327751   -1.6987301   0.71812611  1070540 
 1402000    1.0020064   -1.6991446   -1.6991446  -0.98108386  0.058655039   -1.6991446   0.71806074  1070540 
 1403000    1.0020648    -1.700015    -1.700015   -0.9819124  0.057750643    -1.700015   0.71810259  1070540 
 1404000    1.0021899     -1.70085     -1.70085  -0.98265773   0.06240761     -1.70085   0.71819227  1070540 
 1405000    1.0010184     -1.70046     -1.70046  -0.98310727  0.061414244     -1.70046   0.71735276  1070540 
 1406000   0.99934508   -1.7001631   -1.7001631  -0.98400955  0.052966958   -1.7001631   0.71615359  1070540 
 1407000    1.0001643   -1.7013937   -1.7013937  -0.98465306  0.062689937   -1.7013937   0.71674068  1070540 
 1408000    1.0000779   -1.7020106   -1.7020106   -0.9853319  0.062011065   -1.7020106   0.71667874  1070540 
 1409000   0.99856399   -1.7013028   -1.7013028  -0.98570896  0.055894997   -1.7013028   0.71559384  1070540 
 1410000   0.99850768   -1.7014839   -1.7014839  -0.98593043  0.048203028   -1.7014839   0.71555349  1070540 
 1411000   0.99789758   -1.7004742   -1.7004742  -0.98535796  0.052534779   -1.7004742   0.71511628  1070540 
 1412000    1.0001286   -1.7009796   -1.7009796  -0.98426456  0.050745043   -1.7009796   0.71671506  1070540 
 1413000   0.99987513   -1.7000087   -1.7000087  -0.98347522  0.051892039   -1.7000087   0.71653344  1070540 
 1414000    1.0006502   -1.7001909   -1.7001909  -0.98310198  0.062995399   -1.7001909    0.7170889  1070540 
 1415000    1.0007441   -1.7003821   -1.7003821  -0.98322594  0.059949428   -1.7003821   0.71715619  1070540 
 1416000     1.000032   -1.7000214   -1.7000214  -0.98337555    0.0466151   -1.7000214   0.71664588  1070540 
 1417000   0.99985305   -1.7002558   -1.7002558  -0.98373817  0.052029418   -1.7002558   0.71651761  1070540 
 1418000   0.99899929   -1.6998369   -1.6998369  -0.98393107  0.048213515   -1.6998369   0.71590579  1070540 
 1419000   0.99773937   -1.6986616   -1.6986616  -0.98365869  0.063354838   -1.6986616    0.7150029  1070540 
 1420000    1.0006001   -1.6995826   -1.6995826   -0.9825296  0.057498967   -1.6995826   0.71705297  1070540 
 1421000    1.0000465   -1.6981495   -1.6981495  -0.98149325  0.061099157   -1.6981495   0.71665624  1070540 
 1422000     1.001228   -1.6986266   -1.6986266  -0.98112374  0.057258778   -1.6986266   0.71750291  1070540 
 1423000    1.0006331   -1.6982985   -1.6982985   -0.9812219  0.058269028   -1.6982985   0.71707658  1070540 
 1424000     1.001254     -1.69932     -1.69932  -0.98179848  0.050906911     -1.69932   0.71752153  1070540 
 1425000   0.99974342   -1.6990041   -1.6990041  -0.98256503  0.051004152   -1.6990041   0.71643905  1070540 
 1426000     1.000994   -1.7006484   -1.7006484  -0.98331312   0.05673114   -1.7006484   0.71733526  1070540 
 1427000   0.99892202   -1.6992734   -1.6992734  -0.98342295  0.051194036   -1.6992734   0.71585042  1070540 
 1428000   0.99950962   -1.6999113   -1.6999113  -0.98363982  0.056060993   -1.6999113    0.7162715  1070540 
 1429000    0.9991322   -1.6992202   -1.6992202  -0.98321918  0.057075344   -1.6992202   0.71600103  1070540 
 1430000    1.0002038   -1.6994581   -1.6994581  -0.98268914  0.059202225   -1.6994581   0.71676895  1070540 
 1431000    1.0018094   -1.7003846   -1.7003846  -0.98246507  0.051668942   -1.7003846   0.71791956  1070540 
 1432000    1.0005664   -1.6992596   -1.6992596  -0.98223077  0.062200927   -1.6992596   0.71702885  1070540 
 1433000   0.99992178   -1.6987802   -1.6987802  -0.98221335  0.059585455   -1.6987802   0.71656687  1070540 
 1434000   0.99981744   -1.6989755   -1.6989755  -0.98248341  0.057591335   -1.6989755   0.71649209  1070540 
 1435000   0.99989095   -1.6998397   -1.6998397  -0.98329491  0.050770167   -1.6998397   0.71654477  1070540 
 1436000   0.99855934   -1.6998332   -1.6998332  -0.98424274  0.054664019   -1.6998332   0.71559051  1070540 
 1437000   0.99720352   -1.6990372   -1.6990372  -0.98441835  0.055836333   -1.6990372    0.7146189  1070540 
 1438000   0.99863408   -1.6996464   -1.6996464  -0.98400233  0.058089065   -1.6996464   0.71564407  1070540 
 1439000    1.0001928   -1.6997479   -1.6997479  -0.98298684  0.057327114   -1.6997479   0.71676111  1070540 
 1440000     1.000197   -1.6990643   -1.6990643  -0.98230021  0.058253972   -1.6990643    0.7167641  1070540 
 1441000    1.0008587   -1.6994017   -1.6994017  -0.98216343   0.05589721   -1.6994017   0.71723831  1070540 
 1442000    1.0008137   -1.6996401   -1.6996401    -0.982434  0.057669781   -1.6996401   0.71720607  1070540 
 1443000   0.99940434   -1.6991234   -1.6991234  -0.98292732  0.060392836   -1.6991234   0.71619605  1070540 
 1444000   0.99960293   -1.6997293   -1.6997293  -0.98339089  0.053431301   -1.6997293   0.71633837  1070540 
 1445000    1.0019713   -1.7015912   -1.7015912  -0.98355562   0.05654244   -1.7015912   0.71803559  1070540 
 1446000    0.9996392   -1.7004074   -1.7004074  -0.98404301  0.055199667   -1.7004074   0.71636436  1070540 
 1447000   0.99944707   -1.7007128   -1.7007128  -0.98448609  0.059948409   -1.7007128   0.71622668  1070540 
 1448000   0.99947369   -1.7008694   -1.7008694  -0.98462364  0.052951315   -1.7008694   0.71624575  1070540 
 1449000   0.99895373   -1.7002823   -1.7002823  -0.98440912  0.062259789   -1.7002823   0.71587314  1070540 
 1450000   0.99911776   -1.7000511   -1.7000511  -0.98406043  0.058717775   -1.7000511   0.71599069  1070540 
 1451000    1.0006611   -1.7009401   -1.7009401  -0.98384345  0.052073452   -1.7009401   0.71709668  1070540 
 1452000    1.0009938   -1.7008625   -1.7008625  -0.98352735  0.057019844   -1.7008625   0.71733512  1070540 
 1453000     1.000862   -1.7008164   -1.7008164  -0.98357583  0.057951431   -1.7008164   0.71724062  1070540 
 1454000    1.0002631   -1.7008196   -1.7008196  -0.98400814  0.052912984   -1.7008196   0.71681147  1070540 
 1455000   0.99870747   -1.7005791   -1.7005791  -0.98488246  0.057400583   -1.7005791   0.71569667  1070540 
 1456000   0.99795853   -1.7009587   -1.7009587  -0.98579873  0.053602478   -1.7009587   0.71515996  1070540 
 1457000   0.99870662   -1.7017523   -1.7017523  -0.98605621  0.049619487   -1.7017523   0.71569605  1070540 
 1458000   0.99842438   -1.7011402   -1.7011402  -0.98564642  0.057222865   -1.7011402   0.71549379  1070540 
 1459000   0.99873512   -1.7003264   -1.7003264  -0.98460995  0.051102993   -1.7003264   0.71571648  1070540 
 1460000    1.0004745   -1.7002973   -1.7002973   -0.9833343  0.052880333   -1.7002973   0.71696297  1070540 
 1461000    1.0005531   -1.6999379   -1.6999379  -0.98291859  0.060794086   -1.6999379   0.71701926  1070540 
 1462000    1.0007948   -1.7001551   -1.7001551   -0.9829626  0.058585713   -1.7001551   0.71719247  1070540 
 1463000    0.9993927   -1.6996047   -1.6996047  -0.98341697  0.062770126   -1.6996047   0.71618771  1070540 
 1464000   0.99999428   -1.7003344   -1.7003344  -0.98371561  0.057007474   -1.7003344   0.71661882  1070540 
 1465000   0.99981598   -1.7006973   -1.7006973  -0.98420626  0.054749906   -1.7006973   0.71649105  1070540 
 1466000   0.99855509   -1.7004624   -1.7004624  -0.98487492  0.057108357   -1.7004624   0.71558747  1070540 
 1467000   0.99751379    -1.700129    -1.700129   -0.9852878  0.048887192    -1.700129   0.71484124  1070540 
 1468000   0.99807339    -1.700218    -1.700218  -0.98497572  0.057120324    -1.700218   0.71524227  1070540 
 1469000    1.0007006   -1.7006877   -1.7006877   -0.9835627  0.050570767   -1.7006877   0.71712498  1070540 
 1470000    1.0000497   -1.6990844   -1.6990844   -0.9824259  0.052945393   -1.6990844   0.71665852  1070540 
 1471000    1.0018451   -1.7001354   -1.7001354  -0.98219018  0.051263902   -1.7001354   0.71794519  1070540 
 1472000   0.99895072   -1.6981391   -1.6981391  -0.98226808   0.06152253   -1.6981391   0.71587098  1070540 
 1473000   0.99924679   -1.6984382   -1.6984382  -0.98235508  0.058165274   -1.6984382   0.71608315  1070540 
 1474000    1.0016171   -1.7002522   -1.7002522  -0.98247046    0.0475239   -1.7002522   0.71778177  1070540 
 1475000   0.99837278   -1.6977919   -1.6977919  -0.98233512  0.059661416   -1.6977919   0.71545682  1070540 
 1476000    1.0016278   -1.6998452   -1.6998452  -0.98205573  0.062899129   -1.6998452   0.71778945  1070540 
 1477000    1.0011213   -1.6995009   -1.6995009   -0.9820744  0.052589359   -1.6995009   0.71742646  1070540 
 1478000    1.0005209   -1.6991949   -1.6991949  -0.98219872  0.058153176   -1.6991949   0.71699621  1070540 
 1479000    1.0010021    -1.699927    -1.699927  -0.98258597  0.061058406    -1.699927   0.71734102  1070540 
 1480000   0.99929086   -1.6992143   -1.6992143  -0.98309956  0.058805457   -1.6992143   0.71611473  1070540 
 1481000   0.99928315    -1.699735    -1.699735  -0.98362579  0.054978008    -1.699735   0.71610921  1070540 
 1482000    0.9992141   -1.6999114   -1.6999114  -0.98385164  0.044356987   -1.6999114   0.71605973  1070540 
 1483000   0.99905317   -1.6998694   -1.6998694  -0.98392496  0.058316985   -1.6998694    0.7159444  1070540 
 1484000   0.99837263   -1.6990874   -1.6990874  -0.98363068  0.057648205   -1.6990874   0.71545671  1070540 
 1485000   0.99989521   -1.6991063   -1.6991063  -0.98255845   0.05256078   -1.6991063   0.71654783  1070540 
 1486000    1.0007288   -1.6988445   -1.6988445  -0.98169922   0.05746789   -1.6988445   0.71714523  1070540 
 1487000    1.0017904   -1.6992059   -1.6992059  -0.98129995  0.057624069   -1.6992059   0.71790594  1070540 
 1488000    1.0016971   -1.6992535   -1.6992535  -0.98141433  0.058402177   -1.6992535   0.71783912  1070540 
 1489000    1.0003691   -1.6989183   -1.6989183  -0.98203081  0.058666018   -1.6989183   0.71688744  1070540 
 1490000   0.99910931   -1.6987771   -1.6987771   -0.9827925  0.058689847   -1.6987771   0.71598463  1070540 
 1491000    1.0006107   -1.7001778   -1.7001778  -0.98311728  0.051772033   -1.7001778   0.71706054  1070540 
 1492000    1.0002396    -1.699932    -1.699932  -0.98313732  0.058078115    -1.699932   0.71679464  1070540 
 1493000    1.0004267   -1.6999447   -1.6999447  -0.98301597  0.055667662   -1.6999447   0.71692872  1070540 
 1494000    1.0005864   -1.7002478   -1.7002478  -0.98320466  0.055589718   -1.7002478   0.71704315  1070540 
 1495000   0.99985094   -1.6997509   -1.6997509  -0.98323484  0.059485921   -1.6997509    0.7165161  1070540 
 1496000   0.99914789    -1.699181    -1.699181  -0.98316871  0.056878539    -1.699181   0.71601228  1070540 
 1497000   0.99944552   -1.6990866   -1.6990866  -0.98286107  0.054795227   -1.6990866   0.71622556  1070540 
 1498000    1.0007948   -1.6990848   -1.6990848  -0.98189235  0.059172137   -1.6990848   0.71719248  1070540 
 1499000    1.0016431   -1.6987346   -1.6987346  -0.98093417  0.052635051   -1.6987346    0.7178004  1070540 
 1500000    1.0027099   -1.6992578   -1.6992578  -0.98069295   0.05539957   -1.6992578    0.7185649  1070540 
 1501000    1.0027028    -1.699485    -1.699485  -0.98092519  0.058336568    -1.699485   0.71855982  1070540 
 1502000     1.001341   -1.6994909   -1.6994909  -0.98190699  0.049424782   -1.6994909   0.71758393  1070540 
 1503000   0.99966581   -1.6992107   -1.6992107  -0.98282732  0.059695304   -1.6992107   0.71638343  1070540 
 1504000    0.9998418   -1.6996087   -1.6996087  -0.98309912  0.049703072   -1.6996087   0.71650955  1070540 
 1505000    1.0000336    -1.699947    -1.699947  -0.98329994  0.060979128    -1.699947   0.71664701  1070540 
 1506000   0.99948474   -1.6996992   -1.6996992  -0.98344551  0.049529622   -1.6996992   0.71625367  1070540 
 1507000   0.99956802   -1.6998593   -1.6998593  -0.98354597  0.054204264   -1.6998593   0.71631336  1070540 
 1508000    1.0003824    -1.700443    -1.700443  -0.98354601  0.051113529    -1.700443   0.71689695  1070540 
 1509000   0.99985195   -1.7000729   -1.7000729  -0.98355611  0.052893552   -1.7000729   0.71651682  1070540 
 1510000   0.99889526   -1.6995589   -1.6995589   -0.9837277  0.053550291   -1.6995589   0.71583124  1070540 
 1511000   0.99904216   -1.6999421   -1.6999421  -0.98400563  0.057499083   -1.6999421   0.71593651  1070540 
 1512000   0.99941654   -1.7006265   -1.7006265  -0.98442166   0.05672289   -1.7006265   0.71620479  1070540 
 1513000   0.99917673   -1.7006025   -1.7006025  -0.98456956  0.063646091   -1.7006025   0.71603295  1070540 
 1514000    1.0003304   -1.7017649   -1.7017649  -0.98490524  0.058635528   -1.7017649   0.71685968  1070540 
 1515000   0.99963501   -1.7012116   -1.7012116  -0.98485025  0.054770357   -1.7012116   0.71636136  1070540 
 1516000    1.0001937   -1.7015976   -1.7015976  -0.98483584  0.055803714   -1.7015976   0.71676174  1070540 
 1517000    1.0002192   -1.7013891   -1.7013891   -0.9846091  0.055600662   -1.7013891      0.71678  1070540 
 1518000    1.0017852   -1.7022692   -1.7022692  -0.98436698  0.054970305   -1.7022692   0.71790223  1070540 
 1519000    1.0017797   -1.7023059   -1.7023059  -0.98440767  0.063256701   -1.7023059   0.71789827  1070540 
 1520000   0.99866823   -1.7005008   -1.7005008  -0.98483231  0.056386118   -1.7005008   0.71566854  1070540 
 1521000    1.0003272    -1.702363    -1.702363  -0.98550554   0.05634317    -1.702363   0.71685742  1070540 
 1522000    0.9997653   -1.7026172   -1.7026172   -0.9861625  0.058342595   -1.7026172   0.71645473  1070540 
 1523000   0.99965859   -1.7027494   -1.7027494  -0.98637118   0.05413209   -1.7027494   0.71637826  1070540 
 1524000   0.99958998   -1.7027615   -1.7027615  -0.98643239  0.045845784   -1.7027615   0.71632909  1070540 
 1525000   0.99955698   -1.7022764   -1.7022764    -0.985971  0.058434288   -1.7022764   0.71630544  1070540 
 1526000    1.0004571   -1.7017683   -1.7017683  -0.98481778  0.055651122   -1.7017683   0.71695049  1070540 
 1527000    1.0011503   -1.7013543   -1.7013543  -0.98390706  0.054257174   -1.7013543   0.71744728  1070540 
 1528000    1.0021143   -1.7019612   -1.7019612  -0.98382315  0.056321645   -1.7019612   0.71813808  1070540 
 1529000      1.00213   -1.7023705   -1.7023705  -0.98422113  0.048344115   -1.7023705   0.71814933  1070540 
 1530000     1.001576   -1.7026581   -1.7026581  -0.98490578  0.050652248   -1.7026581   0.71775229  1070540 
 1531000   0.99957347   -1.7017183   -1.7017183    -0.985401  0.052983302   -1.7017183   0.71631726  1070540 
 1532000   0.99868655    -1.701276    -1.701276  -0.98559433  0.056118864    -1.701276   0.71568167  1070540 
 1533000   0.99884671   -1.7013593   -1.7013593  -0.98556285  0.060277453   -1.7013593   0.71579644  1070540 
 1534000   0.99973182   -1.7019511   -1.7019511  -0.98552035  0.051425548   -1.7019511   0.71643073  1070540 
 1535000    1.0003819   -1.7017623   -1.7017623  -0.98486571  0.060124986   -1.7017623   0.71689659  1070540 
 1536000   0.99996708   -1.7012087   -1.7012087  -0.98460938  0.063175277   -1.7012087   0.71659933  1070540 
 1537000   0.99974149   -1.7006081   -1.7006081  -0.98417044  0.058891434   -1.7006081   0.71643766  1070540 
 1538000    1.0003864   -1.7004214   -1.7004214  -0.98352154  0.056324973   -1.7004214   0.71689985  1070540 
 1539000    1.0021025   -1.7006216   -1.7006216  -0.98249195  0.061487854   -1.7006216    0.7181296  1070540 
 1540000    1.0015669   -1.6995873   -1.6995873  -0.98184148  0.059060742   -1.6995873    0.7177458  1070540 
 1541000     1.001733   -1.6998079   -1.6998079  -0.98194309  0.052985484   -1.6998079   0.71786481  1070540 
 1542000    1.0018723   -1.7008987   -1.7008987  -0.98293402  0.050014144   -1.7008987   0.71796468  1070540 
 1543000   0.99898901   -1.6998304   -1.6998304  -0.98393194  0.058439804   -1.6998304   0.71589842  1070540 
 1544000   0.99985282    -1.701056    -1.701056  -0.98453852  0.045561355    -1.701056   0.71651745  1070540 
 1545000   0.99813592   -1.6996842   -1.6996842  -0.98439711  0.059064353   -1.6996842   0.71528708  1070540 
 1546000   0.99952023   -1.7003735   -1.7003735  -0.98409444  0.046905101   -1.7003735   0.71627911  1070540 
 1547000   0.99944543   -1.6996841   -1.6996841  -0.98345857  0.057825002   -1.6996841    0.7162255  1070540 
 1548000     1.000001   -1.6997162   -1.6997162  -0.98309256   0.05909595   -1.6997162   0.71662363  1070540 
 1549000   0.99948843   -1.6990193   -1.6990193  -0.98276303  0.058692499   -1.6990193   0.71625632  1070540 
 1550000   0.99987983   -1.6988646   -1.6988646  -0.98232785  0.059737898   -1.6988646    0.7165368  1070540 
 1551000    1.0012403   -1.6997655   -1.6997655  -0.98225376  0.053305347   -1.6997655   0.71751172  1070540 
 1552000    1.0002941   -1.6991303   -1.6991303  -0.98229661  0.056448704   -1.6991303   0.71683366  1070540 
 1553000   0.99838381   -1.6986807   -1.6986807  -0.98321596  0.052295453   -1.6986807   0.71546472  1070540 
 1554000   0.99766884   -1.6989616   -1.6989616  -0.98400921  0.063499085   -1.6989616   0.71495235  1070540 
 1555000   0.99725481   -1.6990289   -1.6990289  -0.98437323  0.053603203   -1.6990289   0.71465565  1070540 
 1556000   0.99980541   -1.7004481   -1.7004481  -0.98396464  0.051220684   -1.7004481   0.71648347  1070540 
 1557000     1.000162   -1.7000911   -1.7000911  -0.98335211  0.049449836   -1.7000911   0.71673899  1070540 
 1558000    1.0008246   -1.6996907   -1.6996907  -0.98247681   0.05532447   -1.6996907   0.71721385  1070540 
 1559000    1.0003549   -1.6988686   -1.6988686   -0.9819913  0.059314508   -1.6988686   0.71687726  1070540 
 1560000    1.0022632   -1.7001459   -1.7001459  -0.98190108  0.051390128   -1.7001459   0.71824477  1070540 
 1561000     1.000523   -1.6992341   -1.6992341  -0.98223637  0.052603321   -1.6992341   0.71699774  1070540 
 1562000   0.99909769   -1.6991113   -1.6991113  -0.98313503   0.06192137   -1.6991113   0.71597631  1070540 
 1563000   0.99892137   -1.7001137   -1.7001137  -0.98426378  0.059815858   -1.7001137   0.71584995  1070540 
 1564000   0.99896118   -1.7007722   -1.7007722  -0.98489376   0.05453331   -1.7007722   0.71587847  1070540 
 1565000   0.99922356   -1.7012587   -1.7012587  -0.98519222  0.060171457   -1.7012587    0.7160665  1070540 
 1566000   0.99945026   -1.7011688   -1.7011688  -0.98493982  0.066637331   -1.7011688   0.71622896  1070540 
 1567000   0.99991536   -1.7014063   -1.7014063  -0.98484404  0.056651973   -1.7014063   0.71656227  1070540 
 1568000   0.99969256   -1.7010349   -1.7010349  -0.98463225  0.054326912   -1.7010349    0.7164026  1070540 
 1569000   0.99967338   -1.7006884   -1.7006884  -0.98429953  0.051967458   -1.7006884   0.71638886  1070540 
 1570000    1.0011569   -1.7011381   -1.7011381  -0.98368612   0.05323046   -1.7011381     0.717452  1070540 
 1571000    1.0007486   -1.7002328   -1.7002328  -0.98307339  0.051325788   -1.7002328   0.71715941  1070540 
 1572000    1.0016496   -1.7004097   -1.7004097  -0.98260459   0.05992744   -1.7004097   0.71780507  1070540 
 1573000    1.0019455   -1.7006239   -1.7006239  -0.98260674  0.057995852   -1.7006239   0.71801713  1070540 
 1574000    1.0023337   -1.7015924   -1.7015924  -0.98329704   0.05956961   -1.7015924   0.71829533  1070540 
 1575000    1.0003059   -1.7018083   -1.7018083  -0.98496614  0.054066981   -1.7018083   0.71684217  1070540 
 1576000   0.99975262   -1.7019676   -1.7019676  -0.98552196   0.05844907   -1.7019676   0.71644564  1070540 
 1577000    0.9992465   -1.7018965   -1.7018965  -0.98581355  0.047950584   -1.7018965   0.71608294  1070540 
 1578000    1.0000556   -1.7023934   -1.7023934  -0.98573067  0.060839153   -1.7023934   0.71666273  1070540 
 1579000   0.99971477   -1.7021116   -1.7021116  -0.98569308  0.059705007   -1.7021116   0.71641851  1070540 
 1580000    1.0000957     -1.70217     -1.70217   -0.9854785    0.0561153     -1.70217   0.71669153  1070540 
 1581000    1.0009378   -1.7026329   -1.7026329  -0.98533791  0.059716958   -1.7026329   0.71729499  1070540 
 1582000    1.0004964   -1.7025193   -1.7025193  -0.98554063  0.061155676   -1.7025193   0.71697862  1070540 
 1583000    1.0004017   -1.7030436   -1.7030436  -0.98613283  0.059900611   -1.7030436   0.71691076  1070540 
 1584000    0.9999332   -1.7033804   -1.7033804  -0.98680537   0.06104792   -1.7033804   0.71657505  1070540 
 1585000   0.99914026    -1.703385    -1.703385  -0.98737818  0.053592069    -1.703385   0.71600681  1070540 
 1586000   0.99952277    -1.704091    -1.704091  -0.98781007  0.051832642    -1.704091   0.71628093  1070540 
 1587000   0.99916576   -1.7036822   -1.7036822  -0.98765712  0.052189908   -1.7036822   0.71602508  1070540 
 1588000   0.99872577   -1.7026088   -1.7026088  -0.98689903  0.053308415   -1.7026088   0.71570978  1070540 
 1589000    0.9997032   -1.7019401   -1.7019401  -0.98552984  0.056221692   -1.7019401   0.71641022  1070540 
 1590000    1.0009047    -1.701956    -1.701956  -0.98468473  0.055633746    -1.701956   0.71727127  1070540 
 1591000    1.0019367   -1.7025852   -1.7025852  -0.98457441  0.059012481   -1.7025852   0.71801077  1070540 
 1592000    1.0004131   -1.7018821   -1.7018821   -0.9849631  0.055771764   -1.7018821   0.71691895  1070540 
 1593000    1.0013221   -1.7028337   -1.7028337  -0.98526327  0.057050469   -1.7028337   0.71757038  1070540 
 1594000   0.99976264   -1.7022698   -1.7022698    -0.985817  0.051138364   -1.7022698   0.71645282  1070540 
 1595000   0.99963827   -1.7024652   -1.7024652  -0.98610146  0.057141807   -1.7024652    0.7163637  1070540 
 1596000   0.99895919   -1.7026062   -1.7026062  -0.98672918  0.049085771   -1.7026062   0.71587705  1070540 
 1597000   0.99863653   -1.7028055   -1.7028055  -0.98715964  0.057169522   -1.7028055   0.71564582  1070540 
 1598000   0.99804669   -1.7025617   -1.7025617  -0.98733852  0.052139941   -1.7025617   0.71522313  1070540 
 1599000     1.000173   -1.7034051   -1.7034051  -0.98665817  0.057216234   -1.7034051    0.7167469  1070540 
 1600000   0.99983555   -1.7016856   -1.7016856   -0.9851805  0.056737216   -1.7016856   0.71650507  1070540 
 1601000    1.0012244   -1.7018923   -1.7018923  -0.98439198  0.056898679   -1.7018923   0.71750037  1070540 
 1602000   0.99955191   -1.7002049   -1.7002049  -0.98390307  0.062301525   -1.7002049   0.71630181  1070540 
 1603000    1.0001504   -1.7004071   -1.7004071  -0.98367638  0.050096356   -1.7004071   0.71673071  1070540 
 1604000    1.0006037   -1.7007078   -1.7007078  -0.98365229  0.054304121   -1.7007078   0.71705552  1070540 
 1605000    1.0008853   -1.7010418   -1.7010418  -0.98378447  0.055857211   -1.7010418   0.71725736  1070540 
 1606000   0.99837735   -1.6995562   -1.6995562  -0.98409608  0.064024899   -1.6995562   0.71546009  1070540 
 1607000   0.99846184   -1.7001241   -1.7001241  -0.98460343  0.051902901   -1.7001241   0.71552064  1070540 
 1608000    1.0001641   -1.7020271   -1.7020271   -0.9852866   0.05721007   -1.7020271   0.71674053  1070540 
 1609000   0.99843788   -1.7015447   -1.7015447  -0.98604124  0.048954056   -1.7015447   0.71550347  1070540 
 1610000   0.99811007   -1.7014069   -1.7014069  -0.98613835  0.049426052   -1.7014069   0.71526855  1070540 
 1611000   0.99835966   -1.7007853   -1.7007853  -0.98533793  0.054101373   -1.7007853   0.71544741  1070540 
 1612000   0.99943603    -1.700218    -1.700218  -0.98399928  0.059462567    -1.700218   0.71621876  1070540 
 1613000    1.0011772   -1.7009239   -1.7009239  -0.98345731  0.056952957   -1.7009239   0.71746654  1070540 
 1614000    1.0002132   -1.7002077   -1.7002077  -0.98343196  0.056859721   -1.7002077   0.71677573  1070540 
 1615000    1.0007991   -1.7006853   -1.7006853  -0.98348975  0.049996811   -1.7006853   0.71719557  1070540 
 1616000   0.99778325   -1.6984965   -1.6984965  -0.98346218  0.056589162   -1.6984965   0.71503434  1070540 
 1617000   0.99891943    -1.698973    -1.698973  -0.98312445  0.051777063    -1.698973   0.71584856  1070540 
 1618000    1.0010933   -1.6998769   -1.6998769  -0.98247047  0.059694841   -1.6998769   0.71740643  1070540 
 1619000    1.0004776   -1.6989047   -1.6989047  -0.98193952  0.066889179   -1.6989047   0.71696515  1070540 
 1620000    1.0017354   -1.6997521   -1.6997521  -0.98188558  0.054388029   -1.6997521   0.71786656  1070540 
 1621000    1.0010139   -1.7000643   -1.7000643  -0.98271479  0.058728642   -1.7000643    0.7173495  1070540 
 1622000    1.0001893   -1.7010171   -1.7010171  -0.98425855  0.059359136   -1.7010171   0.71675858  1070540 
 1623000    1.0001605   -1.7018076   -1.7018076  -0.98506969  0.054971181   -1.7018076   0.71673794  1070540 
 1624000    1.0001425   -1.7018934   -1.7018934  -0.98516831  0.052302257   -1.7018934   0.71672506  1070540 
 1625000   0.99829124   -1.7007283   -1.7007283   -0.9853299  0.059361862   -1.7007283   0.71539839  1070540 
 1626000    1.0000907   -1.7018998   -1.7018998  -0.98521184  0.066621236   -1.7018998   0.71668795  1070540 
 1627000    1.0010529   -1.7025955   -1.7025955  -0.98521808  0.056269175   -1.7025955   0.71737744  1070540 
 1628000   0.99997236   -1.7021765   -1.7021765  -0.98557337  0.057556463   -1.7021765   0.71660311  1070540 
 1629000   0.99776046   -1.7008941   -1.7008941  -0.98587611  0.058625243   -1.7008941   0.71501801  1070540 
 1630000   0.99940262   -1.7021884   -1.7021884  -0.98599352   0.06064645   -1.7021884   0.71619483  1070540 
 1631000   0.99975506    -1.702241    -1.702241  -0.98579358  0.057818037    -1.702241   0.71644739  1070540 
 1632000    1.0007133   -1.7026645   -1.7026645  -0.98553043  0.063460643   -1.7026645    0.7171341  1070540 
 1633000   0.99997011   -1.7018441   -1.7018441  -0.98524262  0.058373682   -1.7018441    0.7166015  1070540 
 1634000    1.0005985   -1.7022256   -1.7022256  -0.98517376  0.059863417   -1.7022256   0.71705184  1070540 
 1635000    1.0014592   -1.7029138   -1.7029138  -0.98524514  0.054473849   -1.7029138   0.71766865  1070540 
 1636000   0.99988288   -1.7020933   -1.7020933  -0.98555432  0.051109095   -1.7020933   0.71653899  1070540 
 1637000   0.99998768   -1.7029567   -1.7029567  -0.98634257   0.05356542   -1.7029567   0.71661409  1070540 
 1638000    0.9985199   -1.7024679   -1.7024679  -0.98690562  0.056985219   -1.7024679   0.71556225  1070540 
 1639000   0.99936955   -1.7037126   -1.7037126  -0.98754151  0.055811734   -1.7037126   0.71617112  1070540 
 1640000   0.99966622   -1.7040312   -1.7040312  -0.98764747  0.064585436   -1.7040312   0.71638373  1070540 
 1641000   0.99890925   -1.7037767   -1.7037767   -0.9879354  0.051888344   -1.7037767   0.71584126  1070540 
 1642000   0.99840242    -1.703543    -1.703543  -0.98806496   0.06264976    -1.703543   0.71547805  1070540 
 1643000   0.99819005   -1.7033789   -1.7033789  -0.98805301  0.055697104   -1.7033789   0.71532587  1070540 
 1644000   0.99826478   -1.7023558   -1.7023558  -0.98697634  0.053479643   -1.7023558   0.71537942  1070540 
 1645000    0.9991443   -1.7017423   -1.7017423  -0.98573263  0.055256073   -1.7017423    0.7160097  1070540 
 1646000    1.0011777   -1.7024956   -1.7024956  -0.98502877  0.050367195   -1.7024956   0.71746687  1070540 
 1647000    1.0014903   -1.7024061   -1.7024061  -0.98471518  0.057157259   -1.7024061   0.71769093  1070540 
 1648000      1.00019   -1.7013646   -1.7013646  -0.98460551  0.061955663   -1.7013646   0.71675906  1070540 
 1649000    1.0014206   -1.7026106   -1.7026106  -0.98496964  0.056682117   -1.7026106   0.71764095  1070540 
 1650000    1.0005233   -1.7026188   -1.7026188  -0.98562085  0.060690741   -1.7026188   0.71699794  1070540 
 1651000   0.99873285   -1.7017788   -1.7017788  -0.98606399  0.056339235   -1.7017788   0.71571485  1070540 
 1652000   0.99898935    -1.702534    -1.702534  -0.98663538  0.052568831    -1.702534   0.71589866  1070540 
 1653000   0.99681608   -1.7010227   -1.7010227  -0.98668147   0.05446385   -1.7010227   0.71434125  1070540 
 1654000   0.99985897   -1.7024465   -1.7024465   -0.9859246  0.055000136   -1.7024465   0.71652185  1070540 
 1655000    1.0021282   -1.7025993   -1.7025993  -0.98445129  0.056776969   -1.7025993   0.71814804  1070540 
 1656000    1.0001896   -1.7006158   -1.7006158  -0.98385697  0.065942485   -1.7006158   0.71675879  1070540 
 1657000    1.0011497   -1.7013135   -1.7013135   -0.9838667  0.054865898   -1.7013135   0.71744684  1070540 
 1658000   0.99936382    -1.700395    -1.700395  -0.98422801  0.056050408    -1.700395   0.71616702  1070540 
 1659000   0.99974505   -1.7011183   -1.7011183  -0.98467809  0.050695685   -1.7011183   0.71644022  1070540 
 1660000   0.99955679   -1.7012667   -1.7012667  -0.98496138  0.055822925   -1.7012667    0.7163053  1070540 
 1661000   0.99814197   -1.7003625   -1.7003625   -0.9850711  0.053931518   -1.7003625   0.71529141  1070540 
 1662000    1.0003516   -1.7019769   -1.7019769  -0.98510195  0.054537872   -1.7019769   0.71687491  1070540 
 1663000   0.99940113   -1.7007545   -1.7007545  -0.98456077  0.058804487   -1.7007545   0.71619375  1070540 
 1664000    1.0007542    -1.700852    -1.700852  -0.98368859  0.047988687    -1.700852   0.71716336  1070540 
 1665000   0.99993627   -1.6995589   -1.6995589   -0.9829817  0.061322718   -1.6995589   0.71657725  1070540 
 1666000    1.0011872   -1.6999568   -1.6999568  -0.98248308  0.053612359   -1.6999568   0.71747371  1070540 
 1667000    1.0015125    -1.699906    -1.699906   -0.9821992  0.055661212    -1.699906   0.71770684  1070540 
 1668000    1.0006435   -1.6991436   -1.6991436  -0.98205951  0.055458178   -1.6991436   0.71708407  1070540 
 1669000    1.0014013   -1.6997737   -1.6997737  -0.98214662  0.052299756   -1.6997737   0.71762709  1070540 
 1670000    1.0015221   -1.7001294   -1.7001294  -0.98241567  0.052994899   -1.7001294   0.71771368  1070540 
 1671000   0.99882076    -1.699347    -1.699347  -0.98356912  0.055761666    -1.699347   0.71577785  1070540 
 1672000   0.99937302   -1.7004917   -1.7004917   -0.9843181  0.054479065   -1.7004917   0.71617361  1070540 
 1673000   0.99924981    -1.700736    -1.700736  -0.98465069  0.053347533    -1.700736   0.71608531  1070540 
 1674000   0.99961496    -1.700785    -1.700785  -0.98443804  0.058107322    -1.700785   0.71634699  1070540 
 1675000    1.0006168   -1.7013188   -1.7013188  -0.98425393  0.055407783   -1.7013188   0.71706491  1070540 
 1676000   0.99934775   -1.7000985   -1.7000985  -0.98394295  0.054023042   -1.7000985    0.7161555  1070540 
 1677000   0.99956066   -1.6994665   -1.6994665  -0.98315847  0.058640257   -1.6994665   0.71630807  1070540 
 1678000    1.0014052   -1.6997285   -1.6997285  -0.98209853  0.062430153   -1.6997285   0.71762992  1070540 
 1679000    1.0021355   -1.6998398   -1.6998398  -0.98168654  0.050257045   -1.6998398   0.71815327  1070540 
 1680000    1.0012894   -1.6995355   -1.6995355  -0.98198857   0.05598588   -1.6995355   0.71754696  1070540 
 1681000    1.0003532   -1.6997825   -1.6997825  -0.98290651  0.061424202   -1.6997825   0.71687603  1070540 
 1682000   0.99993266   -1.7003604   -1.7003604  -0.98378579  0.045625233   -1.7003604   0.71657466  1070540 
 1683000    1.0001683   -1.7006534   -1.7006534  -0.98390988  0.047779108   -1.7006534   0.71674353  1070540 
 1684000    1.0002735   -1.7005943   -1.7005943  -0.98377534  0.063590628   -1.7005943   0.71681893  1070540 
 1685000   0.99891606   -1.6996229   -1.6996229  -0.98377676   0.05717569   -1.6996229   0.71584614  1070540 
 1686000    1.0006906   -1.7009106   -1.7009106  -0.98379281  0.050553379   -1.7009106   0.71711782  1070540 
 1687000    1.0005668   -1.7008408   -1.7008408  -0.98381165  0.055151063   -1.7008408   0.71702911  1070540 
 1688000    1.0010183   -1.7011055   -1.7011055  -0.98375281  0.059682004   -1.7011055   0.71735267  1070540 
 1689000    1.0011821    -1.701524    -1.701524  -0.98405393  0.060495259    -1.701524   0.71747006  1070540 
 1690000    1.0006476   -1.7023167   -1.7023167  -0.98522966  0.048320815   -1.7023167   0.71708703  1070540 
 1691000   0.99834263    -1.701978    -1.701978  -0.98654277  0.053034066    -1.701978   0.71543521  1070540 
 1692000   0.99736601   -1.7013029   -1.7013029  -0.98656758  0.056597861   -1.7013029   0.71473534  1070540 
 1693000   0.99970418   -1.7023279   -1.7023279  -0.98591693  0.054777862   -1.7023279   0.71641093  1070540 
 1694000   0.99980292   -1.7020554   -1.7020554  -0.98557371  0.054943948   -1.7020554   0.71648169  1070540 
 1695000    1.0002644   -1.7017003   -1.7017003  -0.98488789  0.055196238   -1.7017003   0.71681242  1070540 
 1696000   0.99950477   -1.7009418   -1.7009418  -0.98467376  0.066980922   -1.7009418   0.71626803  1070540 
 1697000    1.0018798   -1.7027092   -1.7027092  -0.98473912  0.054123261   -1.7027092   0.71797005  1070540 
 1698000     1.001328    -1.702619    -1.702619  -0.98504442  0.057192208    -1.702619   0.71757458  1070540 
 1699000   0.99929136   -1.7021882   -1.7021882  -0.98607314  0.057371421   -1.7021882   0.71611509  1070540 
 1700000   0.99794335   -1.7023042   -1.7023042   -0.9871551  0.060961809   -1.7023042   0.71514908  1070540 
 1701000    0.9988606   -1.7030784   -1.7030784  -0.98727196  0.058444667   -1.7030784    0.7158064  1070540 
 1702000   0.99846956   -1.7024542   -1.7024542  -0.98692801  0.065553415   -1.7024542   0.71552617  1070540 
 1703000    1.0000798    -1.703057    -1.703057  -0.98637682  0.057556881    -1.703057   0.71668013  1070540 
 1704000   0.99991221   -1.7023915   -1.7023915  -0.98583153  0.058118852   -1.7023915      0.71656  1070540 
 1705000     1.000871   -1.7028806   -1.7028806  -0.98563355  0.054313837   -1.7028806   0.71724708  1070540 
 1706000    1.0018495   -1.7035148   -1.7035148  -0.98556644  0.059052189   -1.7035148   0.71794832  1070540 
 1707000   0.99912115   -1.7024924   -1.7024924  -0.98649926  0.058515683   -1.7024924   0.71599312  1070540 
 1708000   0.99884638   -1.7036667   -1.7036667   -0.9878705  0.051302882   -1.7036667   0.71579621  1070540 
 1709000   0.99788937   -1.7031546   -1.7031546   -0.9880442  0.047590511   -1.7031546   0.71511039  1070540 
 1710000   0.99905013   -1.7034572   -1.7034572  -0.98751498  0.051575317   -1.7034572   0.71594222  1070540 
 1711000   0.99840885    -1.701851    -1.701851  -0.98636834  0.059125714    -1.701851   0.71548267  1070540 
 1712000   0.99938199   -1.7018574   -1.7018574   -0.9856774  0.056304948   -1.7018574   0.71618004  1070540 
 1713000    1.0008413   -1.7022989   -1.7022989  -0.98507307  0.054336202   -1.7022989    0.7172258  1070540 
 1714000    0.9999595   -1.7014483   -1.7014483  -0.98485436  0.057506875   -1.7014483    0.7165939  1070540 
 1715000    1.0026851   -1.7031286   -1.7031286  -0.98458146  0.050531568   -1.7031286   0.71854711  1070540 
 1716000    1.0000299   -1.7017631   -1.7017631   -0.9851188  0.066793951   -1.7017631   0.71664433  1070540 
 1717000   0.99939134   -1.7020574   -1.7020574  -0.98587069  0.053025599   -1.7020574   0.71618674  1070540 
 1718000   0.99951907   -1.7029768   -1.7029768  -0.98669856  0.060984238   -1.7029768   0.71627828  1070540 
 1719000   0.99956408   -1.7032528   -1.7032528  -0.98694228  0.050390987   -1.7032528   0.71631053  1070540 
 1720000   0.99796708   -1.7019235   -1.7019235   -0.9867574  0.060412261   -1.7019235   0.71516608  1070540 
 1721000   0.99956899   -1.7026805   -1.7026805  -0.98636645  0.060736115   -1.7026805   0.71631405  1070540 
 1722000   0.99985757   -1.7026305   -1.7026305  -0.98610969  0.053110336   -1.7026305   0.71652085  1070540 
 1723000   0.99900364   -1.7017296   -1.7017296  -0.98582069  0.050872014   -1.7017296   0.71590891  1070540 
 1724000   0.99913374   -1.7015847   -1.7015847  -0.98558259  0.063585391   -1.7015847   0.71600214  1070540 
 1725000    1.0000433   -1.7018402   -1.7018402  -0.98518628  0.055172917   -1.7018402   0.71665393  1070540 
 1726000    1.0004464   -1.7017462   -1.7017462  -0.98480332  0.055492838   -1.7017462   0.71694284  1070540 
 1727000    1.0001079   -1.7009159   -1.7009159   -0.9842157  0.055480444   -1.7009159   0.71670024  1070540 
 1728000    1.0019864    -1.701694    -1.701694  -0.98364756  0.050670732    -1.701694   0.71804641  1070540 
 1729000    1.0019098   -1.7013373   -1.7013373  -0.98334577  0.060799333   -1.7013373   0.71799151  1070540 
 1730000    1.0020596   -1.7018708   -1.7018708  -0.98377193  0.066679213   -1.7018708   0.71809891  1070540 
 1731000    1.0010054   -1.7023991   -1.7023991  -0.98505567  0.058963461   -1.7023991   0.71734341  1070540 
 1732000   0.99901976   -1.7020391   -1.7020391  -0.98611867  0.051040014   -1.7020391   0.71592046  1070540 
 1733000   0.99997932   -1.7031712   -1.7031712  -0.98656305  0.052314185   -1.7031712    0.7166081  1070540 
 1734000   0.99887659   -1.7022814   -1.7022814  -0.98646353  0.055520889   -1.7022814   0.71581786  1070540 
 1735000   0.99995488   -1.7025967   -1.7025967  -0.98600608  0.060341069   -1.7025967   0.71659058  1070540 
 1736000   0.99982361   -1.7016622   -1.7016622  -0.98516564  0.061824306   -1.7016622   0.71649652  1070540 
 1737000    1.0018496   -1.7026986   -1.7026986  -0.98475022   0.05958486   -1.7026986   0.71794836  1070540 
 1738000    1.0009613   -1.7020472   -1.7020472  -0.98473541  0.064996474   -1.7020472   0.71731179  1070540 
 1739000   0.99955445   -1.7016399   -1.7016399  -0.98533623  0.059695918   -1.7016399   0.71630363  1070540 
 1740000   0.99918937   -1.7022047   -1.7022047  -0.98616267  0.055187491   -1.7022047     0.716042  1070540 
 1741000   0.99786506    -1.701935    -1.701935  -0.98684207  0.051237302    -1.701935   0.71509297  1070540 
 1742000   0.99783025   -1.7023477   -1.7023477  -0.98727964  0.057636172   -1.7023477   0.71506803  1070540 
 1743000   0.99787998   -1.7020839   -1.7020839  -0.98698023  0.048013301   -1.7020839   0.71510367  1070540 
 1744000    1.0005606   -1.7029581   -1.7029581  -0.98593349  0.057876534   -1.7029581   0.71702464  1070540 
 1745000    1.0004284   -1.7016019   -1.7016019  -0.98467194  0.062618284   -1.7016019   0.71692995  1070540 
 1746000    1.0022811   -1.7026018   -1.7026018  -0.98434416  0.055525621   -1.7026018   0.71825763  1070540 
 1747000    1.0004117   -1.7012222   -1.7012222  -0.98430425  0.062595183   -1.7012222   0.71691797  1070540 
 1748000   0.99996267   -1.7011752   -1.7011752  -0.98457899  0.059731085   -1.7011752   0.71659617  1070540 
 1749000   0.99959276   -1.7014013   -1.7014013  -0.98507021  0.055365707   -1.7014013   0.71633108  1070540 
 1750000   0.99988999   -1.7021603   -1.7021603   -0.9856162  0.061613191   -1.7021603   0.71654409  1070540 
 1751000   0.99890533   -1.7016112   -1.7016112  -0.98577278  0.061868266   -1.7016112   0.71583846  1070540 
 1752000   0.99917068   -1.7017222   -1.7017222  -0.98569355  0.053490795   -1.7017222   0.71602861  1070540 
 1753000    1.0018015   -1.7021937   -1.7021937  -0.98427973  0.051943614   -1.7021937   0.71791394  1070540 
 1754000    1.0013472   -1.7005896   -1.7005896  -0.98300124  0.060575627   -1.7005896   0.71758836  1070540 
 1755000    1.0014318   -1.7002919   -1.7002919  -0.98264293  0.058998625   -1.7002919   0.71764895  1070540 
 1756000    1.0012016   -1.7005256   -1.7005256   -0.9830416  0.053742005   -1.7005256   0.71748404  1070540 
 1757000    1.0018018   -1.7018427   -1.7018427  -0.98392857  0.057743847   -1.7018427   0.71791414  1070540 
 1758000    0.9995389    -1.701113    -1.701113  -0.98482052  0.060335965    -1.701113   0.71629249  1070540 
 1759000    1.0004137   -1.7024783   -1.7024783  -0.98555894  0.054139824   -1.7024783   0.71691936  1070540 
 1760000    1.0000402   -1.7024382   -1.7024382  -0.98578646  0.057408001   -1.7024382   0.71665174  1070540 
 1761000    1.0000331   -1.7025619   -1.7025619   -0.9859152  0.051983197   -1.7025619   0.71664665  1070540 
 1762000   0.99957101   -1.7021568   -1.7021568  -0.98584132  0.052599873   -1.7021568    0.7163155  1070540 
 1763000    1.0005399   -1.7024195   -1.7024195  -0.98540968  0.052741835   -1.7024195   0.71700984  1070540 
 1764000    1.0012055   -1.7021892   -1.7021892  -0.98470239  0.053629404   -1.7021892   0.71748682  1070540 
 1765000    1.0011541   -1.7012003   -1.7012003  -0.98375032  0.061170656   -1.7012003   0.71744998  1070540 
 1766000    1.0009519   -1.7002325   -1.7002325  -0.98292737  0.057881922   -1.7002325   0.71730509  1070540 
 1767000    1.0018181   -1.7006194   -1.7006194  -0.98269357  0.060052319   -1.7006194   0.71792581  1070540 
 1768000    1.0016585   -1.7009128   -1.7009128  -0.98310136   0.06454446   -1.7009128   0.71781143  1070540 
 1769000    1.0013759   -1.7020477   -1.7020477  -0.98443875  0.055802099   -1.7020477   0.71760893  1070540 
 1770000   0.99873079   -1.7010647   -1.7010647  -0.98535134  0.054997034   -1.7010647   0.71571338  1070540 
 1771000   0.99857134   -1.7009261   -1.7009261  -0.98532698  0.051345648   -1.7009261   0.71559911  1070540 
 1772000   0.99936748   -1.7011981   -1.7011981  -0.98502851  0.050778696   -1.7011981   0.71616964  1070540 
 1773000     1.001371   -1.7022253   -1.7022253  -0.98461996  0.057244383   -1.7022253   0.71760537  1070540 
 1774000   0.99972385    -1.700646    -1.700646  -0.98422099  0.059390524    -1.700646   0.71642502  1070540 
 1775000    1.0016611   -1.7016408   -1.7016408  -0.98382752  0.055062356   -1.7016408   0.71781332  1070540 
 1776000     1.000232   -1.7006619   -1.7006619  -0.98387278  0.055661038   -1.7006619   0.71678915  1070540 
 1777000    1.0004101   -1.7010008   -1.7010008  -0.98408402  0.060867813   -1.7010008    0.7169168  1070540 
 1778000   0.99879384    -1.700427    -1.700427  -0.98466842  0.060656206    -1.700427   0.71575856  1070540 
 1779000   0.99900854   -1.7012573   -1.7012573   -0.9853449  0.051568602   -1.7012573   0.71591242  1070540 
 1780000   0.99724097    -1.700217    -1.700217  -0.98557122  0.063990593    -1.700217   0.71464573  1070540 
 1781000    0.9979227   -1.7005921   -1.7005921  -0.98545785  0.049991696   -1.7005921   0.71513428  1070540 
 1782000    1.0006921   -1.7011808   -1.7011808  -0.98406192   0.05716624   -1.7011808   0.71711887  1070540 
 1783000    1.0008937    -1.700271    -1.700271  -0.98300762  0.057329956    -1.700271   0.71726334  1070540 
 1784000    1.0004967   -1.6998105   -1.6998105  -0.98283167  0.056137834   -1.6998105   0.71697884  1070540 
 1785000    1.0011523   -1.7003551   -1.7003551  -0.98290638  0.060120089   -1.7003551   0.71744869  1070540 
 1786000    1.0003424   -1.7004477   -1.7004477  -0.98357941  0.063804536   -1.7004477    0.7168683  1070540 
 1787000   0.99972862   -1.7005133   -1.7005133  -0.98408488  0.048379644   -1.7005133   0.71642844  1070540 
 1788000   0.99955325   -1.7008002   -1.7008002  -0.98449738   0.05600489   -1.7008002   0.71630277  1070540 
 1789000   0.99871069   -1.7004003   -1.7004003  -0.98470129   0.04892898   -1.7004003   0.71569897  1070540 
 1790000   0.99917809   -1.7005097   -1.7005097  -0.98447574  0.059313896   -1.7005097   0.71603392  1070540 
 1791000    1.0010382   -1.7012984   -1.7012984  -0.98393156  0.056440974   -1.7012984   0.71736689  1070540 
 1792000    1.0011444   -1.7002969   -1.7002969  -0.98285385  0.060811917   -1.7002969   0.71744304  1070540 
 1793000    1.0011676   -1.6996115   -1.6996115  -0.98215183  0.053546492   -1.6996115   0.71745965  1070540 
 1794000    1.0010894   -1.6993313   -1.6993313  -0.98192768   0.06377427   -1.6993313   0.71740357  1070540 
 1795000    1.0007107   -1.6997101   -1.6997101  -0.98257784  0.063277218   -1.6997101   0.71713222  1070540 
 1796000    1.0011988   -1.7013221   -1.7013221  -0.98384007  0.066307446   -1.7013221   0.71748201  1070540 
 1797000   0.99987956   -1.7011316   -1.7011316  -0.98459494  0.062158892   -1.7011316   0.71653661  1070540 
 1798000    1.0013597   -1.7027389   -1.7027389  -0.98514162  0.047144973   -1.7027389   0.71759732  1070540 
 1799000    1.0006361   -1.7028379   -1.7028379  -0.98575918  0.054840775   -1.7028379   0.71707876  1070540 
 1800000    1.0008182   -1.7033404   -1.7033404  -0.98613114  0.055828956   -1.7033404   0.71720927  1070540 
 1801000   0.99939552   -1.7028885   -1.7028885  -0.98669881  0.059175418   -1.7028885   0.71618973  1070540 
 1802000    0.9997463   -1.7034837   -1.7034837  -0.98704258  0.053415454   -1.7034837   0.71644111  1070540 
 1803000   0.99896436   -1.7030824   -1.7030824  -0.98720165  0.057849871   -1.7030824   0.71588075  1070540 
 1804000   0.99857669   -1.7023396   -1.7023396  -0.98673669  0.063892071   -1.7023396   0.71560294  1070540 
 1805000   0.99922228   -1.7019383   -1.7019383  -0.98587268   0.05839851   -1.7019383   0.71606559  1070540 
 1806000    1.0003682   -1.7016035   -1.7016035  -0.98471668  0.066992902   -1.7016035    0.7168868  1070540 
 1807000    1.0020473   -1.7021544   -1.7021544  -0.98406431  0.058350465   -1.7021544   0.71809008  1070540 
 1808000    1.0011384   -1.7015407   -1.7015407   -0.9841019  0.055941913   -1.7015407   0.71743875  1070540 
 1809000   0.99945989   -1.7004855   -1.7004855   -0.9842496  0.064527737   -1.7004855   0.71623586  1070540 
 1810000    1.0004679   -1.7014194   -1.7014194  -0.98446118   0.06541958   -1.7014194   0.71695824  1070540 
 1811000   0.99830593   -1.7003207   -1.7003207  -0.98491179  0.055507069   -1.7003207   0.71540891  1070540 
 1812000   0.99971189   -1.7017356   -1.7017356  -0.98531912  0.054806538   -1.7017356   0.71641646  1070540 
 1813000     1.000487   -1.7030842   -1.7030842   -0.9861123  0.060418585   -1.7030842   0.71697192  1070540 
 1814000   0.99931574   -1.7032965   -1.7032965  -0.98716396  0.053800622   -1.7032965   0.71613256  1070540 
 1815000   0.99812423   -1.7031674   -1.7031674  -0.98788868  0.058742249   -1.7031674    0.7152787  1070540 
 1816000   0.99805305   -1.7031189   -1.7031189   -0.9878912  0.054470061   -1.7031189   0.71522769  1070540 
 1817000   0.99821958   -1.7024677   -1.7024677  -0.98712068  0.054643797   -1.7024677   0.71534703  1070540 
 1818000    1.0001371   -1.7027595   -1.7027595  -0.98603839  0.054198718   -1.7027595   0.71672114  1070540 
 1819000   0.99948094   -1.7018412   -1.7018412  -0.98559022  0.057251642   -1.7018412   0.71625095  1070540 
 1820000   0.99995886   -1.7021385   -1.7021385  -0.98554501  0.067566628   -1.7021385   0.71659344  1070540 
 1821000   0.99986472   -1.7019549   -1.7019549  -0.98542892  0.061097023   -1.7019549   0.71652597  1070540 
 1822000    1.0005763   -1.7024878   -1.7024878  -0.98545193   0.05516401   -1.7024878   0.71703591  1070540 
 1823000   0.99929329   -1.7016316   -1.7016316  -0.98551516  0.063332967   -1.7016316   0.71611647  1070540 
 1824000   0.99994116   -1.7024879   -1.7024879  -0.98590718  0.059002325   -1.7024879   0.71658075  1070540 
 1825000   0.99861372     -1.70251     -1.70251  -0.98688055  0.058444374     -1.70251   0.71562948  1070540 
 1826000   0.99786216   -1.7027518   -1.7027518  -0.98766089   0.04870611   -1.7027518    0.7150909  1070540 
 1827000   0.99807916   -1.7029429   -1.7029429  -0.98769652  0.057794615   -1.7029429    0.7152464  1070540 
 1828000   0.99900259   -1.7032245   -1.7032245  -0.98731631   0.05240068   -1.7032245   0.71590815  1070540 
 1829000    1.0004427   -1.7033417   -1.7033417  -0.98640156  0.058759547   -1.7033417   0.71694014  1070540 
 1830000    1.0007771   -1.7030566   -1.7030566  -0.98587682  0.058592507   -1.7030566   0.71717982  1070540 
 1831000    1.0011655   -1.7032751   -1.7032751  -0.98581699  0.061290112   -1.7032751   0.71745816  1070540 
 1832000   0.99974408   -1.7024546   -1.7024546  -0.98601512  0.056619734   -1.7024546   0.71643952  1070540 
 1833000   0.99925395   -1.7021816   -1.7021816  -0.98609331  0.056051181   -1.7021816   0.71608828  1070540 
 1834000     1.001437   -1.7037854   -1.7037854  -0.98613263  0.068067744   -1.7037854   0.71765274  1070540 
 1835000   0.99853199   -1.7020226   -1.7020226  -0.98645173  0.053499686   -1.7020226   0.71557091  1070540 
 1836000   0.99954952   -1.7029052   -1.7029052  -0.98660515  0.051981574   -1.7029052    0.7163001  1070540 
 1837000   0.99909016    -1.702477    -1.702477   -0.9865061  0.055349909    -1.702477    0.7159709  1070540 
 1838000    1.0002778   -1.7029241   -1.7029241   -0.9861021  0.055482237   -1.7029241     0.716822  1070540 
 1839000     1.000321   -1.7021876   -1.7021876  -0.98533465   0.06333465   -1.7021876   0.71685298  1070540 
 1840000    1.0008349   -1.7018756   -1.7018756   -0.9846544  0.062224379   -1.7018756   0.71722122  1070540 
 1841000    1.0008327   -1.7013997   -1.7013997  -0.98418011  0.053834749   -1.7013997   0.71721962  1070540 
 1842000     1.001993    -1.702229    -1.702229  -0.98417783   0.05536778    -1.702229   0.71805113  1070540 
 1843000    1.0011991   -1.7028549   -1.7028549  -0.98537268  0.062963219   -1.7028549    0.7174822  1070540 
 1844000   0.99944728   -1.7027936   -1.7027936  -0.98656673  0.049206977   -1.7027936   0.71622683  1070540 
 1845000   0.99857279   -1.7023752   -1.7023752  -0.98677503  0.067892528   -1.7023752   0.71560015  1070540 
 1846000     1.000063   -1.7032261   -1.7032261  -0.98655798  0.051772441   -1.7032261   0.71666808  1070540 
 1847000   0.99899099   -1.7019438   -1.7019438    -0.986044   0.05651837   -1.7019438   0.71589984  1070540 
 1848000   0.99896078   -1.7011541   -1.7011541  -0.98527588  0.057448195   -1.7011541   0.71587819  1070540 
 1849000    1.0003793   -1.7014428   -1.7014428  -0.98454803  0.058698656   -1.7014428   0.71689476  1070540 
 1850000    1.0011297   -1.7016611   -1.7016611  -0.98422862  0.062175281   -1.7016611   0.71743249  1070540 
 1851000    1.0002932   -1.7010911   -1.7010911  -0.98425807  0.061699364   -1.7010911     0.716833  1070540 
 1852000     1.001831   -1.7027501   -1.7027501  -0.98481508  0.058207975   -1.7027501   0.71793507  1070540 
 1853000    1.0002034   -1.7022532   -1.7022532  -0.98548453  0.048936864   -1.7022532   0.71676869  1070540 
 1854000   0.99960738    -1.702251    -1.702251  -0.98590943  0.063096042    -1.702251   0.71634156  1070540 
 1855000     1.001168   -1.7035717   -1.7035717   -0.9861117  0.056212628   -1.7035717   0.71745996  1070540 
 1856000   0.99974033   -1.7027715   -1.7027715   -0.9863347  0.050017777   -1.7027715   0.71643684  1070540 
 1857000   0.99999217   -1.7025732   -1.7025732  -0.98595587  0.058013996   -1.7025732   0.71661731  1070540 
 1858000    0.9999832   -1.7021469   -1.7021469  -0.98553602  0.058138364   -1.7021469   0.71661088  1070540 
 1859000    1.0008973   -1.7024055   -1.7024055  -0.98513955  0.058369134   -1.7024055   0.71726594  1070540 
 1860000    1.0009605    -1.702075    -1.702075  -0.98476374  0.062076272    -1.702075   0.71731124  1070540 
 1861000     1.000588   -1.7022282   -1.7022282   -0.9851839   0.05947321   -1.7022282   0.71704429  1070540 
 1862000   0.99980995   -1.7023183   -1.7023183  -0.98583153  0.065153343   -1.7023183   0.71648673  1070540 
 1863000   0.99864404   -1.7027445   -1.7027445  -0.98709327   0.04667957   -1.7027445    0.7156512  1070540 
 1864000   0.99828497    -1.702817    -1.702817   -0.9874231  0.053455196    -1.702817   0.71539389  1070540 
 1865000    0.9996798     -1.70374     -1.70374  -0.98734653  0.059576564     -1.70374   0.71639345  1070540 
 1866000    1.0004268   -1.7040826   -1.7040826   -0.9871538  0.056434574   -1.7040826   0.71692879  1070540 
 1867000    1.0006151   -1.7036625   -1.7036625  -0.98659876  0.063826145   -1.7036625   0.71706373  1070540 
 1868000    1.0008817    -1.703189    -1.703189   -0.9859342  0.060973464    -1.703189   0.71725476  1070540 
 1869000    1.0009743   -1.7025193   -1.7025193  -0.98519815  0.064640705   -1.7025193   0.71732116  1070540 
 1870000    1.0019874   -1.7025792   -1.7025792  -0.98453204  0.056218433   -1.7025792   0.71804714  1070540 
 1871000    1.0017202   -1.7020166   -1.7020166  -0.98416096  0.055164588   -1.7020166   0.71785567  1070540 
 1872000    1.0012718   -1.7021614   -1.7021614  -0.98462703  0.052713925   -1.7021614   0.71753435  1070540 
 1873000   0.99926319   -1.7019625   -1.7019625  -0.98586756  0.067483836   -1.7019625    0.7160949  1070540 
 1874000   0.99942699   -1.7030992   -1.7030992  -0.98688692  0.060251896   -1.7030992   0.71621229  1070540 
 1875000   0.99651194   -1.7013688   -1.7013688  -0.98724548  0.063071778   -1.7013688    0.7141233  1070540 
 1876000   0.99883063   -1.7029107   -1.7029107  -0.98712577  0.060604476   -1.7029107   0.71578492  1070540 
 1877000   0.99981148   -1.7032537   -1.7032537  -0.98676587  0.060104766   -1.7032537   0.71648782  1070540 
 1878000    1.0002517   -1.7030017   -1.7030017   -0.9861984  0.054017894   -1.7030017   0.71680328  1070540 
 1879000    1.0013174   -1.7032907   -1.7032907  -0.98572374   0.06195272   -1.7032907   0.71756697  1070540 
 1880000   0.99953257   -1.7018772   -1.7018772   -0.9855893  0.062633959   -1.7018772   0.71628795  1070540 
 1881000    1.0011748   -1.7028548   -1.7028548  -0.98538995  0.056967477   -1.7028548   0.71746484  1070540 
 1882000    1.0000545   -1.7020824   -1.7020824  -0.98542046    0.0670908   -1.7020824   0.71666195  1070540 
 1883000    1.0013695   -1.7033624   -1.7033624  -0.98575812   0.05341985   -1.7033624   0.71760432  1070540 
 1884000    1.0004446   -1.7033374   -1.7033374  -0.98639587  0.058825878   -1.7033374    0.7169415  1070540 
 1885000   0.99885282   -1.7026978   -1.7026978  -0.98689695  0.055375738   -1.7026978   0.71580082  1070540 
 1886000   0.99955928   -1.7034374   -1.7034374  -0.98713031   0.05591784   -1.7034374   0.71630709  1070540 
 1887000    1.0004313   -1.7039671   -1.7039671  -0.98703516  0.055744504   -1.7039671   0.71693196  1070540 
 1888000    1.0004026   -1.7037291   -1.7037291  -0.98681765  0.055867778   -1.7037291   0.71691144  1070540 
 1889000   0.99898669   -1.7023329   -1.7023329  -0.98643612   0.06034651   -1.7023329   0.71589676  1070540 
 1890000    1.0020279   -1.7037739   -1.7037739  -0.98569775  0.060597474   -1.7037739   0.71807613  1070540 
 1891000   0.99998809   -1.7016036   -1.7016036  -0.98498926  0.068715929   -1.7016036   0.71661438  1070540 
 1892000    1.0014138    -1.702459    -1.702459    -0.984823  0.048758761    -1.702459   0.71763605  1070540 
 1893000    1.0009624   -1.7020819   -1.7020819  -0.98476934  0.066617321   -1.7020819    0.7173126  1070540 
 1894000    1.0004371   -1.7022104   -1.7022104   -0.9852743  0.062985766   -1.7022104   0.71693612  1070540 
 1895000   0.99876918   -1.7023025   -1.7023025  -0.98656158   0.05717323   -1.7023025   0.71574088  1070540 
 1896000   0.99776006   -1.7023394   -1.7023394  -0.98732169  0.047673912   -1.7023394   0.71501773  1070540 
 1897000     0.998498   -1.7027463   -1.7027463  -0.98719972   0.05956722   -1.7027463   0.71554655  1070540 
 1898000    0.9991088   -1.7025818   -1.7025818  -0.98659754   0.05661182   -1.7025818   0.71598426  1070540 
 1899000   0.99973644   -1.7026227   -1.7026227  -0.98618866  0.058173133   -1.7026227   0.71643405  1070540 
 1900000    1.0004467   -1.7026071   -1.7026071  -0.98566407  0.058513561   -1.7026071   0.71694304  1070540 
 1901000    1.0002413   -1.7022815   -1.7022815  -0.98548569   0.05640741   -1.7022815   0.71679581  1070540 
 1902000    1.0003656   -1.7023631   -1.7023631  -0.98547823  0.057813395   -1.7023631   0.71688489  1070540 
 1903000    1.0002298   -1.7023318   -1.7023318  -0.98554424  0.059408869   -1.7023318    0.7167876  1070540 
 1904000   0.99913421    -1.701835    -1.701835  -0.98583257  0.057340681    -1.701835   0.71600248  1070540 
 1905000    1.0007088   -1.7029545   -1.7029545  -0.98582366  0.054784501   -1.7029545   0.71713087  1070540 
 1906000   0.99937041   -1.7021669   -1.7021669  -0.98599519   0.05901875   -1.7021669   0.71617174  1070540 
 1907000   0.99884907   -1.7019861   -1.7019861  -0.98618792  0.055267659   -1.7019861   0.71579813  1070540 
 1908000     1.000021   -1.7024883   -1.7024883  -0.98585038  0.051173982   -1.7024883   0.71663795  1070540 
 1909000    1.0011774   -1.7025727   -1.7025727  -0.98510606  0.057681648   -1.7025727   0.71746666  1070540 
 1910000    1.0023945   -1.7013957   -1.7013957  -0.98305686  0.065205711   -1.7013957   0.71833884  1070540 
 1911000    1.0031974   -1.7016057   -1.7016057  -0.98269141  0.054519023   -1.7016057   0.71891425  1070540 
 1912000    1.0033274   -1.7020077   -1.7020077  -0.98300031  0.062214708   -1.7020077   0.71900743  1070540 
 1913000    1.0019743   -1.7019026   -1.7019026  -0.98386485   0.05967471   -1.7019026   0.71803776  1070540 
 1914000   0.99926001   -1.7008798   -1.7008798  -0.98478718  0.055667095   -1.7008798   0.71609262  1070540 
 1915000   0.99937049   -1.7015587   -1.7015587  -0.98538688  0.055707639   -1.7015587    0.7161718  1070540 
 1916000   0.99933175   -1.7020303   -1.7020303  -0.98588631  0.059667513   -1.7020303   0.71614404  1070540 
 1917000    0.9987296   -1.7016931   -1.7016931  -0.98598059  0.057259327   -1.7016931   0.71571252  1070540 
 1918000   0.99997256   -1.7024619   -1.7024619  -0.98585867  0.057678514   -1.7024619   0.71660326  1070540 
 1919000   0.99946359   -1.7018956   -1.7018956  -0.98565708  0.054717208   -1.7018956   0.71623852  1070540 
 1920000    1.0012423   -1.7026142   -1.7026142  -0.98510095  0.055018706   -1.7026142    0.7175132  1070540 
 1921000    1.0005769   -1.7015891   -1.7015891   -0.9845527   0.05508411   -1.7015891   0.71703635  1070540 
 1922000   0.99939446   -1.7001057   -1.7001057  -0.98391677  0.057887071   -1.7001057   0.71618897  1070540 
 1923000    1.0006377   -1.7005448   -1.7005448  -0.98346483  0.057933174   -1.7005448   0.71707994  1070540 
 1924000     1.002043   -1.7012213   -1.7012213  -0.98313435  0.056809465   -1.7012213   0.71808698  1070540 
 1925000    1.0007963   -1.7008309   -1.7008309  -0.98363734  0.063952493   -1.7008309   0.71719353  1070540 
 1926000   0.99805004   -1.7001832   -1.7001832  -0.98495769   0.05929925   -1.7001832   0.71522553  1070540 
 1927000   0.99909234     -1.70143     -1.70143  -0.98545754  0.054367951     -1.70143   0.71597247  1070540 
 1928000   0.99838249   -1.7011747   -1.7011747   -0.9857109  0.063256628   -1.7011747   0.71546377  1070540 
 1929000   0.99880372   -1.7012608   -1.7012608  -0.98549513  0.057317667   -1.7012608   0.71576564  1070540 
 1930000    0.9981305   -1.7004527   -1.7004527  -0.98516949  0.056634269   -1.7004527   0.71528319  1070540 
 1931000    1.0007763   -1.7017404   -1.7017404  -0.98456114  0.054183999   -1.7017404   0.71717925  1070540 
 1932000    1.0007009   -1.7013471   -1.7013471  -0.98422192  0.059509444   -1.7013471   0.71712523  1070540 
 1933000    1.0013327   -1.7016252   -1.7016252  -0.98404723  0.060245705   -1.7016252   0.71757796  1070540 
 1934000     1.001179   -1.7018966   -1.7018966  -0.98442882  0.065743047   -1.7018966   0.71746781  1070540 
 1935000    1.0000974   -1.7013572   -1.7013572  -0.98466455  0.060137699   -1.7013572   0.71669269  1070540 
 1936000    1.0003281   -1.7017273   -1.7017273  -0.98486926  0.063742893   -1.7017273   0.71685802  1070540 
 1937000   0.99991589   -1.7017809   -1.7017809   -0.9852183  0.052949073   -1.7017809   0.71656264  1070540 
 1938000   0.99989107   -1.7019338   -1.7019338  -0.98538898  0.056558653   -1.7019338   0.71654486  1070540 
 1939000   0.99925681   -1.7013734   -1.7013734  -0.98528304  0.060644419   -1.7013734   0.71609033  1070540 
 1940000   0.99889698   -1.7009233   -1.7009233  -0.98509084  0.056412249   -1.7009233   0.71583247  1070540 
 1941000    1.0012618   -1.7021018   -1.7021018   -0.9845747  0.055803631   -1.7021018   0.71752714  1070540 
 1942000    1.0020069   -1.7017572   -1.7017572  -0.98369604  0.057360132   -1.7017572   0.71806113  1070540 
 1943000     1.001207   -1.7004375   -1.7004375  -0.98294964  0.064332224   -1.7004375   0.71748787  1070540 
 1944000    1.0014525   -1.7007194   -1.7007194  -0.98305557  0.055719085   -1.7007194    0.7176638  1070540 
 1945000    1.0016504   -1.7013533   -1.7013533  -0.98354766  0.055627712   -1.7013533   0.71780563  1070540 
 1946000    1.0005263   -1.7015011   -1.7015011  -0.98450103  0.055543196   -1.7015011    0.7170001  1070540 
 1947000   0.99980056   -1.7017251   -1.7017251  -0.98524515  0.062439913   -1.7017251   0.71647999  1070540 
 1948000    1.0001837   -1.7023443   -1.7023443  -0.98558972  0.051666726   -1.7023443   0.71675454  1070540 
 1949000   0.99860752   -1.7012493   -1.7012493  -0.98562422  0.069137828   -1.7012493   0.71562504  1070540 
 1950000   0.99930154   -1.7013328   -1.7013328  -0.98521037  0.055311663   -1.7013328   0.71612239  1070540 
 1951000   0.99985004   -1.7013002   -1.7013002  -0.98478473  0.054815026   -1.7013002   0.71651545  1070540 
 1952000   0.99999567   -1.7008726   -1.7008726  -0.98425282  0.065995324   -1.7008726   0.71661982  1070540 
 1953000    1.0030347    -1.702698    -1.702698  -0.98390031  0.057890292    -1.702698   0.71879768  1070540 
 1954000    1.0013109   -1.7015837   -1.7015837  -0.98402143  0.060263716   -1.7015837   0.71756232  1070540 
 1955000    1.0000753   -1.7012816   -1.7012816  -0.98460474  0.057887339   -1.7012816   0.71667685  1070540 
 1956000   0.99928924   -1.7014334   -1.7014334  -0.98531981  0.057169919   -1.7014334   0.71611357  1070540 
 1957000   0.99934867     -1.70192     -1.70192  -0.98576382  0.058709203     -1.70192   0.71615616  1070540 
 1958000   0.99818559   -1.7018331   -1.7018331  -0.98651041   0.06371099   -1.7018331   0.71532267  1070540 
 1959000   0.99837416   -1.7036883   -1.7036883  -0.98823052  0.060024717   -1.7036883   0.71545781  1070540 
 1960000   0.99687995   -1.7034661   -1.7034661  -0.98907904  0.052348908   -1.7034661   0.71438702  1070540 
 1961000   0.99769619   -1.7035341   -1.7035341  -0.98856214  0.058971686   -1.7035341   0.71497196  1070540 
 1962000   0.99848897   -1.7030867   -1.7030867   -0.9875466    0.0527727   -1.7030867   0.71554008  1070540 
 1963000   0.99937149   -1.7025424   -1.7025424  -0.98636993  0.057759901   -1.7025424   0.71617251  1070540 
 1964000   0.99982197   -1.7020342   -1.7020342  -0.98553887  0.065134673   -1.7020342   0.71649534  1070540 
 1965000     1.000721   -1.7022222   -1.7022222  -0.98508263  0.059782493   -1.7022222   0.71713961  1070540 
 1966000    1.0007865    -1.702071    -1.702071  -0.98488449  0.061096788    -1.702071   0.71718651  1070540 
 1967000   0.99964547   -1.7013219   -1.7013219    -0.984953  0.065237097   -1.7013219   0.71636885  1070540 
 1968000    1.0011049   -1.7028102   -1.7028102  -0.98539543  0.053021976   -1.7028102   0.71741475  1070540 
 1969000    1.0004817   -1.7032258   -1.7032258  -0.98625768  0.057692883   -1.7032258   0.71696809  1070540 
 1970000   0.99954834   -1.7033271   -1.7033271  -0.98702788  0.057051098   -1.7033271   0.71629925  1070540 
 1971000   0.99976439   -1.7038809   -1.7038809  -0.98742686  0.060394446   -1.7038809   0.71645408  1070540 
 1972000   0.99968086   -1.7041772   -1.7041772  -0.98778294  0.059370825   -1.7041772   0.71639421  1070540 
 1973000   0.99951935   -1.7042188   -1.7042188  -0.98794036  0.050847296   -1.7042188   0.71627848  1070540 
 1974000    1.0000892   -1.7046277   -1.7046277  -0.98794081  0.061803322   -1.7046277   0.71668688  1070540 
 1975000   0.99969599   -1.7041464   -1.7041464  -0.98774137  0.058406456   -1.7041464   0.71640506  1070540 
 1976000   0.99922541   -1.7029358   -1.7029358  -0.98686795  0.057632264   -1.7029358   0.71606783  1070540 
 1977000    1.0021033    -1.703784    -1.703784  -0.98565383  0.054230417    -1.703784   0.71813018  1070540 
 1978000    1.0006266   -1.7020887   -1.7020887  -0.98501679  0.061213487   -1.7020887   0.71707194  1070540 
 1979000    1.0003318   -1.7016911   -1.7016911  -0.98483043  0.056001862   -1.7016911    0.7168607  1070540 
 1980000    1.0004742   -1.7017688   -1.7017688  -0.98480603    0.0601535   -1.7017688   0.71696274  1070540 
 1981000    1.0007198   -1.7020885   -1.7020885  -0.98494974  0.057210267   -1.7020885   0.71713876  1070540 
 1982000    1.0010565   -1.7028472   -1.7028472  -0.98546713   0.06175756   -1.7028472   0.71738002  1070540 
 1983000    0.9991358   -1.7024539   -1.7024539  -0.98645028  0.064984306   -1.7024539   0.71600362  1070540 
 1984000   0.99892867   -1.7028709   -1.7028709  -0.98701574  0.055241795   -1.7028709   0.71585518  1070540 
 1985000   0.99903492   -1.7034639   -1.7034639  -0.98753259   0.05172541   -1.7034639   0.71593132  1070540 
 1986000   0.99894671   -1.7030649   -1.7030649  -0.98719681  0.056687493   -1.7030649   0.71586811  1070540 
 1987000   0.99933296   -1.7028186   -1.7028186  -0.98667369  0.056695586   -1.7028186    0.7161449  1070540 
 1988000    1.0009211   -1.7032459   -1.7032459  -0.98596286  0.057072308   -1.7032459   0.71728302  1070540 
 1989000    1.0007448   -1.7027258   -1.7027258  -0.98556916  0.057544621   -1.7027258   0.71715668  1070540 
 1990000   0.99985171   -1.7021184   -1.7021184  -0.98560178  0.062957182   -1.7021184   0.71651665  1070540 
 1991000    1.0003247   -1.7026129   -1.7026129  -0.98575722  0.058352317   -1.7026129   0.71685564  1070540 
 1992000    0.9995401   -1.7020682   -1.7020682  -0.98577487  0.062192657   -1.7020682   0.71629334  1070540 
 1993000    1.0003866   -1.7029007   -1.7029007  -0.98600069  0.059839887   -1.7029007   0.71689999  1070540 
 1994000   0.99990106   -1.7025328   -1.7025328  -0.98598077  0.054743413   -1.7025328   0.71655202  1070540 
 1995000   0.99941658   -1.7022319   -1.7022319  -0.98602712  0.062969029   -1.7022319   0.71620483  1070540 
 1996000    1.0000222   -1.7022395   -1.7022395   -0.9856006  0.066192663   -1.7022395   0.71663885  1070540 
 1997000    1.0002957   -1.7018283   -1.7018283  -0.98499349  0.047039058   -1.7018283   0.71683482  1070540 
 1998000    1.0023383   -1.7024088   -1.7024088  -0.98411023  0.062101494   -1.7024088   0.71829857  1070540 
 1999000    1.0013591   -1.7013965   -1.7013965   -0.9837996  0.054179774   -1.7013965   0.71759685  1070540 
 2000000    1.0019833   -1.7018343   -1.7018343   -0.9837901  0.056367487   -1.7018343   0.71804418  1070540 
Loop time of 7038.71 on 240 procs for 2000000 steps with 1070540 atoms

Performance: 122749.743 tau/day, 284.143 timesteps/s
96.2% CPU use with 240 MPI tasks x 1 OpenMP threads

MPI task timing breakdown:
Section |  min time  |  avg time  |  max time  |%varavg|  %CPU | %total
-----------------------------------------------------------------------
Pair    | 1111.2     | 1451.7     | 1885.6     | 319.3 |  97.6 | 20.62
Bond    | 1.3595     | 1.4902     | 1.7237     |   4.8 | 100.0 |  0.02
Neigh   | 886.63     | 1814.8     | 2183.2     | 560.6 |  99.4 | 25.78
Comm    | 2133.9     | 2678.4     | 3820       | 585.2 |  94.4 | 38.05
Output  | 67.7       | 67.851     | 67.861     |   0.1 |  89.8 |  0.96
Modify  | 704.11     | 936.44     | 1312.5     | 400.7 |  94.7 | 13.30
Other   |            | 88         |            |       |       |  1.25

Nlocal:        4460.58 ave        5284 max        3783 min
Histogram: 4 9 24 44 65 61 29 2 1 1
Nghost:        10434.5 ave       12535 max        5031 min
Histogram: 5 5 13 14 6 8 16 51 82 40
Neighs:        67695.9 ave       94813 max       34806 min
Histogram: 2 8 6 8 49 81 61 22 2 1

Total # of neighbors = 16247020
Ave neighs/atom = 15.176472
Ave special neighs/atom = 0.0000000
Neighbor list builds = 200000
Dangerous builds = 198000

#real run at target temp with nve+langevin
unfix 	       2
fix 	       2 solvent nve

## Thermostat
region          regthermo block EDGE EDGE EDGE EDGE 0 10
group           thermo dynamic solvent region regthermo every 1000
dynamic group thermo defined
fix             3 thermo langevin ${temp} ${temp} 10 156453
fix             3 thermo langevin 1.0 ${temp} 10 156453
fix             3 thermo langevin 1.0 1.0 10 156453

run 		2000000
Per MPI rank memory allocation (min/avg/max) = 19.41 | 29.61 | 32.56 Mbytes
Step Temp E_pair E_vdwl TotEng Press PotEng KinEng Atoms 
 2000000    1.0019833   -1.7018343   -1.7018343   -0.9837901   0.15455287   -1.7018343   0.71804418  1070540 
 2001000    1.0022963   -1.7025048   -1.7025048  -0.98423627  0.061321449   -1.7025048   0.71826853  1070540 
 2002000    1.0010305   -1.7016538   -1.7016538  -0.98429243  0.066824557   -1.7016538   0.71736137  1070540 
 2003000   0.99986526   -1.7011074   -1.7011074  -0.98458104  0.054582589   -1.7011074   0.71652636  1070540 
 2004000   0.99926382   -1.7009284   -1.7009284  -0.98483299  0.055754912   -1.7009284   0.71609536  1070540 
 2005000   0.99785929     -1.70031     -1.70031  -0.98522113  0.058107058     -1.70031   0.71508883  1070540 
 2006000   0.99850373   -1.7009652   -1.7009652   -0.9854145  0.055781121   -1.7009652   0.71555066  1070540 
 2007000    0.9985197   -1.7009002   -1.7009002  -0.98533805  0.058151375   -1.7009002    0.7155621  1070540 
 2008000   0.99984407   -1.7015703   -1.7015703  -0.98505915  0.059386069   -1.7015703   0.71651117  1070540 
 2009000   0.99984073   -1.7012851   -1.7012851  -0.98477633  0.063468713   -1.7012851   0.71650878  1070540 
 2010000   0.99971493   -1.7020661   -1.7020661  -0.98564751  0.058553864   -1.7020661   0.71641863  1070540 
 2011000   0.99856126   -1.7013312   -1.7013312  -0.98573931  0.050752036   -1.7013312   0.71559189  1070540 
 2012000   0.99938165   -1.7017052   -1.7017052  -0.98552542  0.057603724   -1.7017052    0.7161798  1070540 
 2013000   0.99807395   -1.7012155   -1.7012155  -0.98597287  0.059764407   -1.7012155   0.71524267  1070540 
 2014000   0.99929733   -1.7024026   -1.7024026  -0.98628319  0.056477722   -1.7024026   0.71611937  1070540 
 2015000   0.99795549   -1.7014876   -1.7014876  -0.98632985  0.058044157   -1.7014876   0.71515777  1070540 
 2016000    1.0002868   -1.7036482   -1.7036482  -0.98681975   0.05389153   -1.7036482   0.71682845  1070540 
 2017000   0.99771204   -1.7021012   -1.7021012  -0.98711784  0.048716856   -1.7021012   0.71498332  1070540 
 2018000   0.99880849   -1.7025425   -1.7025425  -0.98677346  0.065530922   -1.7025425   0.71576905  1070540 
 2019000   0.99843435   -1.7024117   -1.7024117  -0.98691076  0.063233242   -1.7024117   0.71550094  1070540 
 2020000    1.0006574   -1.7043067   -1.7043067  -0.98721266  0.049456751   -1.7043067   0.71709405  1070540 
 2021000     1.000596   -1.7040018   -1.7040018  -0.98695172  0.059030643   -1.7040018   0.71705004  1070540 
 2022000   0.99976697    -1.704216    -1.704216  -0.98776007  0.066532409    -1.704216   0.71645593  1070540 
 2023000     1.000001   -1.7042251   -1.7042251  -0.98760146  0.059580067   -1.7042251   0.71662367  1070540 
 2024000   0.99963582   -1.7043689   -1.7043689  -0.98800692     0.061127   -1.7043689   0.71636194  1070540 
 2025000   0.99961142   -1.7047539   -1.7047539  -0.98840941  0.060072792   -1.7047539   0.71634445  1070540 
 2026000   0.99984982   -1.7043046   -1.7043046  -0.98778927  0.061228618   -1.7043046   0.71651529  1070540 
 2027000    0.9996297   -1.7047422   -1.7047422  -0.98838462  0.067628875   -1.7047422   0.71635755  1070540 
 2028000     1.001583   -1.7062424   -1.7062424  -0.98848513  0.054939196   -1.7062424    0.7177573  1070540 
 2029000   0.99979342   -1.7049456   -1.7049456  -0.98847076  0.064485223   -1.7049456   0.71647488  1070540 
 2030000    1.0010427   -1.7057033   -1.7057033   -0.9883332  0.056265903   -1.7057033   0.71737011  1070540 
 2031000    1.0016838   -1.7062232   -1.7062232  -0.98839365  0.066230155   -1.7062232   0.71782956  1070540 
 2032000    1.0008855   -1.7057937   -1.7057937  -0.98853615  0.062898471   -1.7057937   0.71725751  1070540 
 2033000    1.0006249   -1.7062196   -1.7062196  -0.98914884  0.057269564   -1.7062196   0.71707077  1070540 
 2034000    1.0008073   -1.7061414   -1.7061414  -0.98893992  0.061831627   -1.7061414   0.71720145  1070540 
 2035000   0.99926161   -1.7052989   -1.7052989  -0.98920513  0.053262901   -1.7052989   0.71609377  1070540 
 2036000   0.99912959   -1.7050004   -1.7050004   -0.9890012   0.05430604   -1.7050004   0.71599916  1070540 
 2037000   0.99893324    -1.704996    -1.704996  -0.98913755  0.068534972    -1.704996   0.71585846  1070540 
 2038000   0.99987745   -1.7057684   -1.7057684   -0.9892333  0.070564633   -1.7057684    0.7165351  1070540 
 2039000   0.99916949    -1.704972    -1.704972  -0.98894425  0.068127636    -1.704972   0.71602776  1070540 
 2040000   0.99880716   -1.7055313   -1.7055313   -0.9897632  0.049781828   -1.7055313    0.7157681  1070540 
 2041000    0.9993128   -1.7055631   -1.7055631  -0.98943261  0.054319391   -1.7055631   0.71613045  1070540 
 2042000   0.99763843   -1.7041944   -1.7041944  -0.98926382  0.057728932   -1.7041944   0.71493056  1070540 
 2043000   0.99679465    -1.703758    -1.703758  -0.98943212  0.050316138    -1.703758   0.71432589  1070540 
 2044000   0.99744398   -1.7046336   -1.7046336   -0.9898424  0.060457597   -1.7046336   0.71479122  1070540 
 2045000   0.99690403   -1.7044103   -1.7044103    -0.990006  0.047236414   -1.7044103   0.71440428  1070540 
 2046000    0.9967868   -1.7043764   -1.7043764   -0.9900561  0.057951641   -1.7043764   0.71432027  1070540 
 2047000   0.99636243   -1.7036933   -1.7036933  -0.98967718  0.059972582   -1.7036933   0.71401615  1070540 
 2048000   0.99632484   -1.7037877   -1.7037877  -0.98979846  0.052493094   -1.7037877   0.71398921  1070540 
 2049000   0.99609695   -1.7035556   -1.7035556  -0.98972967  0.047341721   -1.7035556    0.7138259  1070540 
 2050000   0.99709402     -1.70425     -1.70425  -0.98970958   0.05606778     -1.70425   0.71454043  1070540 
 2051000   0.99738887   -1.7040892   -1.7040892  -0.98933751  0.053964869   -1.7040892   0.71475172  1070540 
 2052000   0.99804549   -1.7045192   -1.7045192  -0.98929689   0.05227064   -1.7045192   0.71522227  1070540 
 2053000   0.99764244   -1.7043835   -1.7043835  -0.98945004  0.064692524   -1.7043835   0.71493344  1070540 
 2054000   0.99902012   -1.7052808   -1.7052808  -0.98936005  0.059537144   -1.7052808   0.71592072  1070540 
 2055000   0.99850478    -1.704836    -1.704836  -0.98928459  0.059249596    -1.704836   0.71555141  1070540 
 2056000   0.99943164   -1.7060438   -1.7060438  -0.98982821  0.057850272   -1.7060438   0.71621562  1070540 
 2057000   0.99826695   -1.7052826   -1.7052826  -0.98990159  0.060711932   -1.7052826   0.71538098  1070540 
 2058000    1.0000969   -1.7065221   -1.7065221  -0.98982971  0.055929016   -1.7065221   0.71669237  1070540 
 2059000   0.99967012   -1.7057778   -1.7057778  -0.98939127  0.052375699   -1.7057778   0.71638652  1070540 
 2060000    1.0009668   -1.7069387   -1.7069387  -0.98962287  0.057973529   -1.7069387   0.71731578  1070540 
 2061000    1.0013329   -1.7070174   -1.7070174  -0.98943924  0.069040006   -1.7070174   0.71757814  1070540 
 2062000    1.0009753   -1.7068494   -1.7068494  -0.98952759  0.061452043   -1.7068494   0.71732183  1070540 
 2063000    1.0007593   -1.7068525   -1.7068525  -0.98968547  0.062447226   -1.7068525   0.71716706  1070540 
 2064000    1.0014096   -1.7079289   -1.7079289  -0.99029586  0.059556273   -1.7079289   0.71763305  1070540 
 2065000    1.0005543   -1.7071369   -1.7071369  -0.99011671  0.062915562   -1.7071369   0.71702015  1070540 
 2066000     1.000747   -1.7071897   -1.7071897  -0.99003143  0.060157223   -1.7071897   0.71715823  1070540 
 2067000    1.0004394   -1.7071122   -1.7071122  -0.99017442  0.058839345   -1.7071122   0.71693781  1070540 
 2068000   0.99941459   -1.7067869   -1.7067869  -0.99058346   0.06206925   -1.7067869    0.7162034  1070540 
 2069000     1.000004   -1.7074409   -1.7074409  -0.99081507  0.057869585   -1.7074409    0.7166258  1070540 
 2070000   0.99866684   -1.7062342   -1.7062342  -0.99056662  0.061864986   -1.7062342   0.71566754  1070540 
 2071000   0.99917117     -1.70667     -1.70667    -0.990641  0.062501772     -1.70667   0.71602896  1070540 
 2072000    0.9995182   -1.7069853   -1.7069853  -0.99070765  0.058943607   -1.7069853   0.71627765  1070540 
 2073000   0.99856115   -1.7062297   -1.7062297  -0.99063789  0.059692595   -1.7062297    0.7155918  1070540 
 2074000   0.99784835   -1.7055237   -1.7055237  -0.99044266  0.057944034   -1.7055237     0.715081  1070540 
 2075000   0.99793892   -1.7052941   -1.7052941  -0.99014818  0.060012601   -1.7052941    0.7151459  1070540 
 2076000   0.99741727   -1.7052772   -1.7052772  -0.99050512  0.063670945   -1.7052772   0.71477207  1070540 
 2077000   0.99937964   -1.7064788   -1.7064788  -0.99030044  0.051830143   -1.7064788   0.71617836  1070540 
 2078000   0.99822289    -1.705583    -1.705583  -0.99023362  0.060494335    -1.705583    0.7153494  1070540 
 2079000   0.99865663   -1.7060972   -1.7060972    -0.990437  0.057655736   -1.7060972   0.71566023  1070540 
 2080000   0.99918611   -1.7065763   -1.7065763  -0.99053662   0.05983008   -1.7065763   0.71603967  1070540 
 2081000   0.99969873   -1.7070485   -1.7070485  -0.99064146  0.056072879   -1.7070485   0.71640702  1070540 
 2082000   0.99782235   -1.7058657   -1.7058657  -0.99080333  0.055900434   -1.7058657   0.71506236  1070540 
 2083000   0.99760334   -1.7051714   -1.7051714  -0.99026602  0.060077943   -1.7051714   0.71490542  1070540 
 2084000    0.9982832   -1.7057731   -1.7057731   -0.9903805  0.059087254   -1.7057731   0.71539262  1070540 
 2085000   0.99810841   -1.7057787   -1.7057787  -0.99051133   0.05012056   -1.7057787   0.71526736  1070540 
 2086000   0.99913618   -1.7064263   -1.7064263   -0.9904224  0.061836137   -1.7064263   0.71600389  1070540 
 2087000   0.99870526   -1.7063012   -1.7063012  -0.99060617   0.06620603   -1.7063012   0.71569508  1070540 
 2088000    0.9984946   -1.7059146   -1.7059146  -0.99037046  0.063378225   -1.7059146   0.71554412  1070540 
 2089000   0.99836807   -1.7058545   -1.7058545  -0.99040102  0.056973346   -1.7058545   0.71545344  1070540 
 2090000   0.99899313   -1.7062797   -1.7062797  -0.99037833   0.05832157   -1.7062797   0.71590137  1070540 
 2091000   0.99894591   -1.7062824   -1.7062824  -0.99041489  0.050838207   -1.7062824   0.71586753  1070540 
 2092000   0.99780751   -1.7052162   -1.7052162  -0.99016445  0.058826945   -1.7052162   0.71505173  1070540 
 2093000   0.99869007   -1.7056289   -1.7056289  -0.98994474  0.064737752   -1.7056289   0.71568419  1070540 
 2094000   0.99832433   -1.7051377   -1.7051377  -0.98971561  0.064690491   -1.7051377   0.71542209  1070540 
 2095000    0.9985405   -1.7053108   -1.7053108  -0.98973382  0.062073166   -1.7053108   0.71557701  1070540 
 2096000   0.99915801   -1.7062686   -1.7062686  -0.99024909  0.057332789   -1.7062686   0.71601953  1070540 
 2097000   0.99815827   -1.7054279   -1.7054279  -0.99012476  0.049994812   -1.7054279    0.7153031  1070540 
 2098000   0.99844514   -1.7054434   -1.7054434  -0.98993474  0.059263242   -1.7054434   0.71550867  1070540 
 2099000   0.99952368   -1.7059799   -1.7059799  -0.98969828  0.051044504   -1.7059799   0.71628158  1070540 
 2100000   0.99709712   -1.7044159   -1.7044159  -0.98987329  0.057719623   -1.7044159   0.71454265  1070540 
 2101000   0.99765117   -1.7047964   -1.7047964   -0.9898567  0.061670889   -1.7047964   0.71493969  1070540 
 2102000   0.99760213   -1.7046928   -1.7046928   -0.9897882  0.062991721   -1.7046928   0.71490455  1070540 
 2103000   0.99892014   -1.7057293   -1.7057293  -0.98988026  0.052779884   -1.7057293   0.71584907  1070540 
 2104000    0.9983233   -1.7047775   -1.7047775  -0.98935611  0.052441009   -1.7047775   0.71542136  1070540 
 2105000   0.99949006   -1.7058221   -1.7058221  -0.98956462    0.0547783   -1.7058221   0.71625748  1070540 
 2106000   0.99918157   -1.7057501   -1.7057501  -0.98971367  0.058325025   -1.7057501   0.71603641  1070540 
 2107000   0.99923079   -1.7054105   -1.7054105  -0.98933877  0.063898098   -1.7054105   0.71607169  1070540 
 2108000   0.99943662   -1.7052128   -1.7052128  -0.98899365  0.061583204   -1.7052128   0.71621919  1070540 
 2109000   0.99980697   -1.7053926   -1.7053926  -0.98890804  0.066497025   -1.7053926   0.71648459  1070540 
 2110000    1.0003523   -1.7059948   -1.7059948  -0.98911943  0.054747765   -1.7059948   0.71687541  1070540 
 2111000   0.99941232   -1.7052345   -1.7052345  -0.98903269  0.061991534   -1.7052345   0.71620178  1070540 
 2112000   0.99909688   -1.7051159   -1.7051159   -0.9891402  0.053639053   -1.7051159   0.71597572  1070540 
 2113000   0.99868251    -1.705048    -1.705048  -0.98936921  0.058551726    -1.705048   0.71567878  1070540 
 2114000   0.99877946   -1.7048336   -1.7048336  -0.98908532  0.059435212   -1.7048336   0.71574825  1070540 
 2115000    0.9996757   -1.7055966   -1.7055966  -0.98920607  0.063367707   -1.7055966   0.71639052  1070540 
 2116000    1.0001816   -1.7056718   -1.7056718  -0.98891869  0.050132331   -1.7056718   0.71675307  1070540 
 2117000     1.000379   -1.7060551   -1.7060551  -0.98916057  0.062113494   -1.7060551    0.7168945  1070540 
 2118000    1.0014557   -1.7068486   -1.7068486  -0.98918248  0.066605448   -1.7068486   0.71766613  1070540 
 2119000   0.99961824   -1.7057407   -1.7057407  -0.98939139  0.060991974   -1.7057407   0.71634934  1070540 
 2120000   0.99880562   -1.7051452   -1.7051452  -0.98937818  0.064187101   -1.7051452     0.715767  1070540 
 2121000   0.99873472   -1.7051713   -1.7051713  -0.98945513  0.065481712   -1.7051713   0.71571619  1070540 
 2122000    1.0003627   -1.7065758   -1.7065758    -0.989693  0.063292093   -1.7065758   0.71688281  1070540 
 2123000   0.99937712    -1.706042    -1.706042  -0.98986548  0.057685124    -1.706042   0.71617655  1070540 
 2124000   0.99976601   -1.7065295   -1.7065295   -0.9900743  0.054344577   -1.7065295   0.71645524  1070540 
 2125000   0.99821263    -1.705776    -1.705776  -0.99043399  0.058472161    -1.705776   0.71534205  1070540 
 2126000   0.99776379   -1.7056987   -1.7056987  -0.99067832  0.058328099   -1.7056987    0.7150204  1070540 
 2127000   0.99866632   -1.7060815   -1.7060815  -0.99041433  0.054823189   -1.7060815   0.71566717  1070540 
 2128000   0.99851915   -1.7058962   -1.7058962  -0.99033449  0.058395872   -1.7058962   0.71556171  1070540 
 2129000   0.99710503   -1.7051781   -1.7051781  -0.99062974  0.061013722   -1.7051781   0.71454832  1070540 
 2130000   0.99826049   -1.7066754   -1.7066754  -0.99129906  0.067109315   -1.7066754   0.71537635  1070540 
 2131000   0.99846277   -1.7064511   -1.7064511  -0.99092975  0.057793362   -1.7064511   0.71552131  1070540 
 2132000    0.9989062   -1.7070246   -1.7070246  -0.99118554  0.057264506   -1.7070246   0.71583908  1070540 
 2133000   0.99787038   -1.7062157   -1.7062157  -0.99111888  0.064344041   -1.7062157   0.71509678  1070540 
 2134000   0.99800738   -1.7065761   -1.7065761  -0.99138112  0.052664993   -1.7065761   0.71519497  1070540 
 2135000   0.99722439   -1.7058658   -1.7058658  -0.99123193  0.062066652   -1.7058658   0.71463385  1070540 
 2136000   0.99969114   -1.7071325   -1.7071325  -0.99073092  0.065354166   -1.7071325   0.71640158  1070540 
 2137000    0.9982566    -1.706415    -1.706415  -0.99104144  0.063200757    -1.706415   0.71537356  1070540 
 2138000   0.99941547   -1.7070995   -1.7070995  -0.99089543  0.059585195   -1.7070995   0.71620403  1070540 
 2139000   0.99916836   -1.7073187   -1.7073187   -0.9912918  0.049151855   -1.7073187   0.71602694  1070540 
 2140000   0.99834743   -1.7064329   -1.7064329  -0.99099425  0.050368143   -1.7064329   0.71543865  1070540 
 2141000   0.99926797   -1.7073532   -1.7073532  -0.99125489  0.053504687   -1.7073532   0.71609833  1070540 
 2142000   0.99899807    -1.707011    -1.707011  -0.99110606  0.055225591    -1.707011   0.71590491  1070540 
 2143000   0.99916056   -1.7066877   -1.7066877  -0.99066634  0.065975768   -1.7066877   0.71602136  1070540 
 2144000   0.99893444   -1.7065932   -1.7065932  -0.99073391  0.059506277   -1.7065932   0.71585932  1070540 
 2145000   0.99933018   -1.7069927   -1.7069927  -0.99084976  0.053079984   -1.7069927   0.71614291  1070540 
 2146000   0.99908605   -1.7070459   -1.7070459  -0.99107791  0.059252014   -1.7070459   0.71596796  1070540 
 2147000   0.99870643   -1.7065901   -1.7065901  -0.99089414  0.063575698   -1.7065901   0.71569591  1070540 
 2148000   0.99884072   -1.7063041   -1.7063041  -0.99051192    0.0636144   -1.7063041   0.71579215  1070540 
 2149000   0.99994215   -1.7068574   -1.7068574  -0.99027589  0.062276928   -1.7068574   0.71658146  1070540 
 2150000   0.99972376    -1.706838    -1.706838  -0.99041305  0.066559175    -1.706838   0.71642496  1070540 
 2151000   0.99891046   -1.7062795   -1.7062795  -0.99043737  0.066195672   -1.7062795   0.71584213  1070540 
 2152000   0.99972842   -1.7067524   -1.7067524  -0.99032414   0.05842546   -1.7067524    0.7164283  1070540 
 2153000   0.99887592   -1.7067398   -1.7067398  -0.99092245  0.060166529   -1.7067398   0.71581738  1070540 
 2154000   0.99704736   -1.7052852   -1.7052852  -0.99077826  0.059016835   -1.7052852   0.71450699  1070540 
 2155000     0.998011   -1.7060312   -1.7060312   -0.9908336  0.053297965   -1.7060312   0.71519755  1070540 
 2156000   0.99794584   -1.7061218   -1.7061218  -0.99097094  0.059985266   -1.7061218   0.71515086  1070540 
 2157000    1.0000903   -1.7069635   -1.7069635  -0.99027581  0.050309275   -1.7069635   0.71668765  1070540 
 2158000   0.99763518   -1.7053936   -1.7053936  -0.99046538  0.049713525   -1.7053936   0.71492824  1070540 
 2159000   0.99910097    -1.706443    -1.706443  -0.99046434  0.051325963    -1.706443   0.71597866  1070540 
 2160000   0.99774794   -1.7051596   -1.7051596  -0.99015056  0.055510111   -1.7051596   0.71500904  1070540 
 2161000   0.99880045    -1.706225    -1.706225  -0.99046174    0.0524867    -1.706225   0.71576329  1070540 
 2162000   0.99837795   -1.7056434   -1.7056434  -0.99018292  0.063374729   -1.7056434   0.71546052  1070540 
 2163000   0.99966294   -1.7066632   -1.7066632  -0.99028182  0.058069944   -1.7066632   0.71638138  1070540 
 2164000    0.9984285   -1.7059625   -1.7059625   -0.9904658  0.063981242   -1.7059625   0.71549675  1070540 
 2165000    0.9977628   -1.7054178   -1.7054178  -0.99039806  0.059231772   -1.7054178   0.71501969  1070540 
 2166000   0.99881394   -1.7058794   -1.7058794  -0.99010639  0.059051482   -1.7058794   0.71577296  1070540 
 2167000   0.99789006   -1.7054579   -1.7054579  -0.99034697  0.058264282   -1.7054579   0.71511089  1070540 
 2168000   0.99835166   -1.7054204   -1.7054204  -0.98997868  0.048490722   -1.7054204   0.71544168  1070540 
 2169000   0.99927152   -1.7060466   -1.7060466  -0.98994572  0.056439303   -1.7060466   0.71610087  1070540 
 2170000   0.99897927   -1.7064238   -1.7064238  -0.99053232  0.062163149   -1.7064238   0.71589144  1070540 
 2171000    0.9979796   -1.7057411   -1.7057411  -0.99056607  0.062940769   -1.7057411   0.71517506  1070540 
 2172000   0.99829849   -1.7064855   -1.7064855  -0.99108188  0.058166855   -1.7064855   0.71540358  1070540 
 2173000   0.99729163   -1.7058759   -1.7058759   -0.9911939  0.051617065   -1.7058759   0.71468204  1070540 
 2174000   0.99815027   -1.7061767   -1.7061767   -0.9908793   0.05677702   -1.7061767   0.71529736  1070540 
 2175000   0.99955346   -1.7070451   -1.7070451  -0.99074219  0.056600213   -1.7070451   0.71630292  1070540 
 2176000   0.99902596   -1.7067068   -1.7067068   -0.9907819  0.051384569   -1.7067068    0.7159249  1070540 
 2177000   0.99897588   -1.7066198   -1.7066198  -0.99073077  0.046887442   -1.7066198   0.71588901  1070540 
 2178000   0.99971544   -1.7067868   -1.7067868  -0.99036782  0.061722475   -1.7067868     0.716419  1070540 
 2179000    0.9994345   -1.7073015   -1.7073015  -0.99108383  0.059089403   -1.7073015   0.71621767  1070540 
 2180000    1.0007825   -1.7076573   -1.7076573  -0.99047362  0.057267758   -1.7076573   0.71718365  1070540 
 2181000   0.99926509   -1.7065923   -1.7065923  -0.99049607  0.065474302   -1.7065923   0.71609626  1070540 
 2182000   0.99937107   -1.7068296   -1.7068296  -0.99065735  0.057637029   -1.7068296   0.71617221  1070540 
 2183000   0.99846064   -1.7060102   -1.7060102  -0.99049045   0.06072525   -1.7060102   0.71551978  1070540 
 2184000   0.99917141    -1.706339    -1.706339  -0.99030986  0.061973517    -1.706339   0.71602913  1070540 
 2185000    1.0002553   -1.7073856   -1.7073856  -0.99057971  0.062695173   -1.7073856   0.71680585  1070540 
 2186000    1.0000376   -1.7074168   -1.7074168  -0.99076691   0.05592809   -1.7074168    0.7166499  1070540 
 2187000   0.99977836    -1.707163    -1.707163  -0.99069891  0.061417511    -1.707163   0.71646408  1070540 
 2188000   0.99882216   -1.7062489   -1.7062489  -0.99047001  0.056674837   -1.7062489   0.71577885  1070540 
 2189000   0.99787646   -1.7057466   -1.7057466  -0.99064546  0.062167999   -1.7057466   0.71510114  1070540 
 2190000   0.99840061   -1.7063231   -1.7063231  -0.99084633  0.058397321   -1.7063231   0.71547676  1070540 
 2191000   0.99850489   -1.7062863   -1.7062863  -0.99073479  0.055251607   -1.7062863   0.71555149  1070540 
 2192000   0.99863464    -1.706443    -1.706443  -0.99079857   0.06184002    -1.706443   0.71564447  1070540 
 2193000    1.0000283   -1.7071719   -1.7071719  -0.99052866  0.061522201   -1.7071719   0.71664322  1070540 
 2194000   0.99940697   -1.7063268   -1.7063268  -0.99012888  0.062925391   -1.7063268   0.71619794  1070540 
 2195000    1.0006046   -1.7073862   -1.7073862  -0.99033008   0.06017174   -1.7073862   0.71705617  1070540 
 2196000    1.0004433   -1.7073521   -1.7073521  -0.99041156    0.0547975   -1.7073521   0.71694059  1070540 
 2197000   0.99924036   -1.7067382   -1.7067382  -0.99065964  0.063226318   -1.7067382   0.71607854  1070540 
 2198000   0.99775985   -1.7056208   -1.7056208   -0.9906032  0.056999044   -1.7056208   0.71501758  1070540 
 2199000   0.99807605   -1.7057459   -1.7057459  -0.99050178  0.062234794   -1.7057459   0.71524417  1070540 
 2200000   0.99953926   -1.7068355   -1.7068355  -0.99054276   0.05484056   -1.7068355   0.71629275  1070540 
 2201000   0.99940452   -1.7066303   -1.7066303  -0.99043414   0.05760243   -1.7066303   0.71619619  1070540 
 2202000   0.99945209   -1.7065285   -1.7065285  -0.99029821  0.061842146   -1.7065285   0.71623027  1070540 
 2203000   0.99904164   -1.7060814   -1.7060814  -0.99014522  0.057641254   -1.7060814   0.71593614  1070540 
 2204000    1.0004772   -1.7066802   -1.7066802  -0.98971533  0.056532533   -1.7066802   0.71696488  1070540 
 2205000    0.9997138   -1.7060813   -1.7060813   -0.9896635  0.053744536   -1.7060813   0.71641782  1070540 
 2206000   0.99918457   -1.7058366   -1.7058366  -0.98979808  0.060987494   -1.7058366   0.71603856  1070540 
 2207000   0.99793011   -1.7048411   -1.7048411  -0.98970151  0.059045098   -1.7048411   0.71513959  1070540 
 2208000   0.99820612   -1.7052278   -1.7052278  -0.98989042  0.054398023   -1.7052278   0.71533738  1070540 
 2209000   0.99855022   -1.7051859   -1.7051859  -0.98960191  0.061910305   -1.7051859   0.71558397  1070540 
 2210000    0.9973406   -1.7041726   -1.7041726  -0.98945546  0.059594538   -1.7041726   0.71471713  1070540 
 2211000   0.99936024   -1.7054811   -1.7054811  -0.98931664  0.059386608   -1.7054811   0.71616445  1070540 
 2212000    1.0000729   -1.7060445   -1.7060445  -0.98936934  0.052461553   -1.7060445   0.71667517  1070540 
 2213000   0.99862307   -1.7052104   -1.7052104  -0.98957422  0.067040083   -1.7052104   0.71563618  1070540 
 2214000   0.99746305   -1.7046328   -1.7046328  -0.98982792  0.059995872   -1.7046328   0.71480489  1070540 
 2215000   0.99801868   -1.7046808   -1.7046808  -0.98947773  0.068096933   -1.7046808   0.71520306  1070540 
 2216000   0.99939631   -1.7055967   -1.7055967  -0.98940642   0.05771915   -1.7055967    0.7161903  1070540 
 2217000   0.99819218   -1.7052572   -1.7052572  -0.98992984  0.047106954   -1.7052572   0.71532739  1070540 
 2218000   0.99770816    -1.704792    -1.704792  -0.98981149  0.051197972    -1.704792   0.71498054  1070540 
 2219000   0.99874051   -1.7056397   -1.7056397   -0.9899194  0.067563493   -1.7056397   0.71572034  1070540 
 2220000   0.99855437   -1.7058858   -1.7058858   -0.9902989  0.055211824   -1.7058858   0.71558695  1070540 
 2221000   0.99970245   -1.7064904   -1.7064904  -0.99008072    0.0511191   -1.7064904   0.71640969  1070540 
 2222000   0.99910256   -1.7058878   -1.7058878  -0.98990804  0.061458074   -1.7058878   0.71597979  1070540 
 2223000    1.0012706   -1.7074073   -1.7074073  -0.98987383  0.065960004   -1.7074073   0.71753349  1070540 
 2224000    1.0000725    -1.706478    -1.706478  -0.98980308  0.064823497    -1.706478   0.71667487  1070540 
 2225000   0.99897825   -1.7060319   -1.7060319  -0.99014118   0.05778994   -1.7060319   0.71589071  1070540 
 2226000    1.0002245   -1.7069877   -1.7069877  -0.99020384    0.0516682   -1.7069877   0.71678382  1070540 
 2227000   0.99938513   -1.7067255   -1.7067255  -0.99054325  0.052530588   -1.7067255   0.71618229  1070540 
 2228000   0.99802796   -1.7056021   -1.7056021  -0.99039235   0.05400374   -1.7056021   0.71520971  1070540 
 2229000   0.99938942   -1.7070479   -1.7070479  -0.99086256  0.068041203   -1.7070479   0.71618536  1070540 
 2230000   0.99737395   -1.7053037   -1.7053037  -0.99056262  0.064010627   -1.7053037   0.71474103  1070540 
 2231000    1.0005772   -1.7079845   -1.7079845  -0.99094798  0.064300247   -1.7079845   0.71703654  1070540 
 2232000   0.99825853   -1.7063184   -1.7063184  -0.99094348  0.060009389   -1.7063184   0.71537494  1070540 
 2233000   0.99868183   -1.7073784   -1.7073784  -0.99170008   0.06209873   -1.7073784   0.71567829  1070540 
 2234000   0.99853877   -1.7075502   -1.7075502  -0.99197443  0.053321175   -1.7075502   0.71557577  1070540 
 2235000   0.99868048   -1.7075338   -1.7075338  -0.99185643  0.049448179   -1.7075338   0.71567732  1070540 
 2236000   0.99919411   -1.7077271   -1.7077271  -0.99168165  0.062342356   -1.7077271    0.7160454  1070540 
 2237000   0.99835192   -1.7071744   -1.7071744  -0.99173257  0.055649828   -1.7071744   0.71544187  1070540 
 2238000   0.99771083   -1.7067649   -1.7067649  -0.99178247  0.056437384   -1.7067649   0.71498245  1070540 
 2239000   0.99667216   -1.7059657   -1.7059657  -0.99172758  0.062724661   -1.7059657   0.71423811  1070540 
 2240000   0.99736828    -1.705831    -1.705831  -0.99109404  0.057399273    -1.705831   0.71473697  1070540 
 2241000   0.99705574    -1.705886    -1.705886  -0.99137302  0.064495422    -1.705886     0.714513  1070540 
 2242000   0.99878416   -1.7072451   -1.7072451  -0.99149349  0.060701817   -1.7072451   0.71575162  1070540 
 2243000   0.99694055   -1.7063984   -1.7063984  -0.99196797  0.055564078   -1.7063984   0.71443045  1070540 
 2244000   0.99814635   -1.7077025   -1.7077025  -0.99240796  0.055574684   -1.7077025   0.71529455  1070540 
 2245000   0.99678726   -1.7067022   -1.7067022  -0.99238158  0.058097784   -1.7067022    0.7143206  1070540 
 2246000   0.99787164   -1.7073725   -1.7073725  -0.99227485  0.066980361   -1.7073725   0.71509769  1070540 
 2247000   0.99885138   -1.7076223   -1.7076223  -0.99182247  0.060686254   -1.7076223   0.71579979  1070540 
 2248000   0.99880012   -1.7077372   -1.7077372  -0.99197409  0.064568083   -1.7077372   0.71576306  1070540 
 2249000   0.99869278   -1.7075451   -1.7075451  -0.99185894  0.065977404   -1.7075451   0.71568613  1070540 
 2250000   0.99948624    -1.708049    -1.708049  -0.99179428  0.061743847    -1.708049   0.71625475  1070540 
 2251000   0.99997455   -1.7081227   -1.7081227    -0.991518  0.059257741   -1.7081227   0.71660468  1070540 
 2252000   0.99973968   -1.7079586   -1.7079586  -0.99152227   0.05732907   -1.7079586   0.71643637  1070540 
 2253000   0.99943526   -1.7074899   -1.7074899   -0.9912717  0.063967273   -1.7074899   0.71621821  1070540 
 2254000   0.99858012   -1.7064561   -1.7064561  -0.99085071  0.059158562   -1.7064561    0.7156054  1070540 
 2255000   0.99766866   -1.7058034   -1.7058034  -0.99085121   0.05941406   -1.7058034   0.71495223  1070540 
 2256000   0.99762427   -1.7062349   -1.7062349  -0.99131444  0.061546931   -1.7062349   0.71492042  1070540 
 2257000   0.99928203    -1.707381    -1.707381  -0.99127264  0.061670111    -1.707381   0.71610841  1070540 
 2258000   0.99886304   -1.7071048   -1.7071048  -0.99129666  0.064699885   -1.7071048   0.71580815  1070540 
 2259000   0.99838108   -1.7068694   -1.7068694  -0.99140665  0.060631313   -1.7068694   0.71546276  1070540 
 2260000   0.99909411   -1.7069791   -1.7069791  -0.99100537  0.060995484   -1.7069791   0.71597374  1070540 
 2261000   0.99864809   -1.7064825   -1.7064825  -0.99082843  0.067069521   -1.7064825   0.71565411  1070540 
 2262000   0.99871158   -1.7072847   -1.7072847  -0.99158512  0.054712921   -1.7072847   0.71569961  1070540 
 2263000   0.99747757   -1.7064735   -1.7064735  -0.99165819   0.05876613   -1.7064735   0.71481529  1070540 
 2264000   0.99749116   -1.7057199   -1.7057199  -0.99089483  0.061722208   -1.7057199   0.71482502  1070540 
 2265000   0.99767058   -1.7058993   -1.7058993  -0.99094569  0.056792886   -1.7058993    0.7149536  1070540 
 2266000   0.99796159   -1.7062748   -1.7062748  -0.99111261  0.065231795   -1.7062748   0.71516214  1070540 
 2267000   0.99761659   -1.7060466   -1.7060466  -0.99113171  0.067715141   -1.7060466   0.71491491  1070540 
 2268000   0.99700749   -1.7052777   -1.7052777  -0.99079925  0.061450556   -1.7052777   0.71447842  1070540 
 2269000   0.99792451    -1.705896    -1.705896  -0.99076043  0.056025985    -1.705896   0.71513557  1070540 
 2270000   0.99805646   -1.7063354   -1.7063354  -0.99110529  0.053511138   -1.7063354   0.71523013  1070540 
 2271000   0.99899664   -1.7068186   -1.7068186  -0.99091471  0.059630689   -1.7068186   0.71590389  1070540 
 2272000   0.99937291     -1.70689     -1.70689  -0.99071644  0.062285226     -1.70689   0.71617353  1070540 
 2273000   0.99728893   -1.7052595   -1.7052595  -0.99057935  0.058483447   -1.7052595    0.7146801  1070540 
 2274000   0.99981538   -1.7066736   -1.7066736    -0.990183  0.058858479   -1.7066736   0.71649062  1070540 
 2275000   0.99956516   -1.7065358   -1.7065358  -0.99022452  0.053309878   -1.7065358    0.7163113  1070540 
 2276000   0.99886485   -1.7066247   -1.7066247  -0.99081524  0.057497562   -1.7066247   0.71580944  1070540 
 2277000   0.99807725   -1.7063715   -1.7063715  -0.99112652   0.06196984   -1.7063715   0.71524503  1070540 
 2278000   0.99799614   -1.7063961   -1.7063961  -0.99120917  0.051429751   -1.7063961   0.71518691  1070540 
 2279000   0.99953935   -1.7075819   -1.7075819  -0.99128911   0.05368564   -1.7075819    0.7162928  1070540 
 2280000    0.9991233   -1.7072233   -1.7072233  -0.99122864  0.057351903   -1.7072233   0.71599466  1070540 
 2281000   0.99921394   -1.7067703   -1.7067703   -0.9907107    0.0579676   -1.7067703   0.71605961  1070540 
 2282000    0.9990352   -1.7070793   -1.7070793  -0.99114778  0.060947099   -1.7070793   0.71593152  1070540 
 2283000   0.99903216   -1.7067955   -1.7067955  -0.99086619  0.058632532   -1.7067955   0.71592934  1070540 
 2284000   0.99905556   -1.7071181   -1.7071181  -0.99117198  0.056077626   -1.7071181   0.71594611  1070540 
 2285000   0.99955543    -1.707229    -1.707229   -0.9909247  0.059045823    -1.707229   0.71630433  1070540 
 2286000    0.9990351   -1.7068134   -1.7068134  -0.99088196  0.057456782   -1.7068134   0.71593145  1070540 
 2287000   0.99742665   -1.7057411   -1.7057411  -0.99096227  0.059668682   -1.7057411    0.7147788  1070540 
 2288000   0.99796096   -1.7063064   -1.7063064  -0.99114468  0.061072742   -1.7063064    0.7151617  1070540 
 2289000   0.99854525   -1.7067617   -1.7067617  -0.99118128  0.052684033   -1.7067617   0.71558042  1070540 
 2290000    0.9967047   -1.7049816   -1.7049816  -0.99072015  0.058728667   -1.7049816   0.71426143  1070540 
 2291000    0.9976642   -1.7057762   -1.7057762  -0.99082719   0.06287958   -1.7057762   0.71494903  1070540 
 2292000   0.99853897   -1.7061497   -1.7061497  -0.99057376  0.055340599   -1.7061497   0.71557591  1070540 
 2293000   0.99719146   -1.7056114   -1.7056114  -0.99100114  0.050361813   -1.7056114   0.71461025  1070540 
 2294000   0.99693035   -1.7054565   -1.7054565  -0.99103337   0.06057811   -1.7054565   0.71442314  1070540 
 2295000   0.99803572   -1.7063155   -1.7063155  -0.99110024  0.058085172   -1.7063155   0.71521527  1070540 
 2296000    1.0002793   -1.7080642   -1.7080642  -0.99124112  0.056600605   -1.7080642   0.71682304  1070540 
 2297000   0.99959971   -1.7072028   -1.7072028  -0.99086669  0.051203416   -1.7072028   0.71633606  1070540 
 2298000   0.99897087   -1.7071037   -1.7071037  -0.99121829   0.05730063   -1.7071037   0.71588542  1070540 
 2299000   0.99925634   -1.7073437   -1.7073437  -0.99125373  0.060565723   -1.7073437      0.71609  1070540 
 2300000    0.9987219   -1.7070127   -1.7070127  -0.99130568  0.049580334   -1.7070127     0.715707  1070540 
 2301000    0.9987644   -1.7072135   -1.7072135  -0.99147607  0.057756038   -1.7072135   0.71573746  1070540 
 2302000   0.99878201    -1.706676    -1.706676  -0.99092595  0.058884795    -1.706676   0.71575008  1070540 
 2303000   0.99944874   -1.7070304   -1.7070304   -0.9908025  0.054090991   -1.7070304   0.71622787  1070540 
 2304000   0.99885691   -1.7069415   -1.7069415  -0.99113776  0.058408207   -1.7069415   0.71580376  1070540 
 2305000   0.99823604   -1.7067229   -1.7067229  -0.99136408  0.058975085   -1.7067229   0.71535883  1070540 
 2306000   0.99698251    -1.706114    -1.706114   -0.9916535  0.058992354    -1.706114   0.71446052  1070540 
 2307000   0.99827801   -1.7063736   -1.7063736  -0.99098467  0.057721549   -1.7063736   0.71538891  1070540 
 2308000   0.99781183   -1.7064074   -1.7064074  -0.99135252  0.058609349   -1.7064074   0.71505483  1070540 
 2309000   0.99882349   -1.7067944   -1.7067944  -0.99101456  0.057666461   -1.7067944   0.71577981  1070540 
 2310000   0.99996884   -1.7072516   -1.7072516  -0.99065103  0.065655493   -1.7072516   0.71660059  1070540 
 2311000    1.0004468   -1.7075696   -1.7075696  -0.99062646  0.067699311   -1.7075696   0.71694311  1070540 
 2312000    1.0001548   -1.7072035   -1.7072035  -0.99046972  0.061073643   -1.7072035   0.71673383  1070540 
 2313000    1.0001871   -1.7070258   -1.7070258  -0.99026879  0.057061486   -1.7070258     0.716757  1070540 
 2314000   0.99935638   -1.7063762   -1.7063762  -0.99021452   0.05841022   -1.7063762   0.71616169  1070540 
 2315000    1.0007043   -1.7074664   -1.7074664  -0.99033873  0.057180428   -1.7074664   0.71712765  1070540 
 2316000   0.99996365   -1.7068935   -1.7068935  -0.99029665  0.061243293   -1.7068935   0.71659687  1070540 
 2317000    0.9996465   -1.7068943   -1.7068943  -0.99052472  0.061021325   -1.7068943   0.71636959  1070540 
 2318000   0.99909098   -1.7067883   -1.7067883  -0.99081676  0.056973591   -1.7067883   0.71597149  1070540 
 2319000   0.99890208   -1.7064654   -1.7064654  -0.99062928  0.050938389   -1.7064654   0.71583612  1070540 
 2320000   0.99789791   -1.7056515   -1.7056515  -0.99053502  0.051716535   -1.7056515   0.71511651  1070540 
 2321000   0.99839276   -1.7062601   -1.7062601  -0.99078893   0.05862976   -1.7062601   0.71547114  1070540 
 2322000   0.99906247    -1.706632    -1.706632  -0.99068095   0.05733611    -1.706632   0.71595106  1070540 
 2323000   0.99821619   -1.7065219   -1.7065219  -0.99117732  0.052101692   -1.7065219    0.7153446  1070540 
 2324000   0.99894307   -1.7068815   -1.7068815  -0.99101602  0.054571985   -1.7068815    0.7158655  1070540 
 2325000   0.99888401   -1.7067042   -1.7067042  -0.99088103  0.056861886   -1.7067042   0.71582318  1070540 
 2326000   0.99930546   -1.7075272   -1.7075272  -0.99140202  0.061290974   -1.7075272    0.7161252  1070540 
 2327000   0.99805836   -1.7062609   -1.7062609  -0.99102937  0.063643726   -1.7062609   0.71523149  1070540 
 2328000   0.99939046    -1.707415    -1.707415  -0.99122888  0.058593748    -1.707415   0.71618611  1070540 
 2329000   0.99820436   -1.7057343   -1.7057343  -0.99039813  0.065635833   -1.7057343   0.71533612  1070540 
 2330000   0.99922139   -1.7070168   -1.7070168  -0.99095187  0.067596899   -1.7070168   0.71606495  1070540 
 2331000   0.99986251   -1.7073705   -1.7073705  -0.99084611   0.05906832   -1.7073705   0.71652439  1070540 
 2332000   0.99750033   -1.7061771   -1.7061771  -0.99134549   0.05225452   -1.7061771    0.7148316  1070540 
 2333000   0.99768262   -1.7061224   -1.7061224  -0.99116021  0.065809914   -1.7061224   0.71496223  1070540 
 2334000   0.99964837   -1.7072876   -1.7072876  -0.99091669  0.059372049   -1.7072876   0.71637093  1070540 
 2335000   0.99863979   -1.7067694   -1.7067694  -0.99112121  0.058642878   -1.7067694   0.71564816  1070540 
 2336000   0.99663464   -1.7056124   -1.7056124  -0.99140121    0.0548313   -1.7056124   0.71421122  1070540 
 2337000   0.99733938    -1.706142    -1.706142  -0.99142577  0.066424292    -1.706142   0.71471626  1070540 
 2338000   0.99740365   -1.7065242   -1.7065242  -0.99176187  0.058333766   -1.7065242   0.71476232  1070540 
 2339000   0.99941029   -1.7076373   -1.7076373  -0.99143695  0.056128009   -1.7076373   0.71620032  1070540 
 2340000   0.99787376   -1.7067194   -1.7067194  -0.99162023  0.060478233   -1.7067194   0.71509921  1070540 
 2341000   0.99829695   -1.7067589   -1.7067589  -0.99135639  0.057059741   -1.7067589   0.71540248  1070540 
 2342000   0.99910804    -1.707155    -1.707155  -0.99117128  0.056805657    -1.707155   0.71598372  1070540 
 2343000    0.9983298   -1.7070853   -1.7070853  -0.99165929  0.061804947   -1.7070853   0.71542601  1070540 
 2344000   0.99935038   -1.7075232   -1.7075232  -0.99136578  0.063358487   -1.7075232   0.71615739  1070540 
 2345000    1.0000912   -1.7082164   -1.7082164   -0.9915281  0.058285276   -1.7082164   0.71668829  1070540 
 2346000   0.99808312   -1.7072035   -1.7072035  -0.99195425  0.062811487   -1.7072035   0.71524924  1070540 
 2347000    0.9993071   -1.7078854   -1.7078854  -0.99175904  0.048396489   -1.7078854   0.71612637  1070540 
 2348000   0.99878291   -1.7075394   -1.7075394   -0.9917887  0.054253331   -1.7075394   0.71575072  1070540 
 2349000   0.99979568   -1.7079874   -1.7079874  -0.99151095  0.059157312   -1.7079874    0.7164765  1070540 
 2350000   0.99997996   -1.7087939   -1.7087939  -0.99218539   0.06049357   -1.7087939   0.71660856  1070540 
 2351000   0.99979935   -1.7090612   -1.7090612  -0.99258203  0.065411285   -1.7090612   0.71647913  1070540 
 2352000    1.0001531   -1.7090599   -1.7090599  -0.99232725  0.056073016   -1.7090599   0.71673263  1070540 
 2353000    1.0004258   -1.7089256   -1.7089256  -0.99199753    0.0597617   -1.7089256   0.71692807  1070540 
 2354000   0.99965399   -1.7080768   -1.7080768  -0.99170189  0.056311873   -1.7080768   0.71637496  1070540 
 2355000    1.0007511   -1.7084942   -1.7084942  -0.99133305  0.060701148   -1.7084942    0.7171612  1070540 
 2356000    1.0022618   -1.7091479   -1.7091479  -0.99090413   0.05979006   -1.7091479   0.71824379  1070540 
 2357000    1.0019832   -1.7094786   -1.7094786  -0.99143452  0.062971192   -1.7094786    0.7180441  1070540 
 2358000   0.99998572   -1.7079459   -1.7079459  -0.99133326  0.066061213   -1.7079459   0.71661268  1070540 
 2359000   0.99897435   -1.7076569   -1.7076569    -0.991769  0.065409104   -1.7076569   0.71588791  1070540 
 2360000   0.99893298   -1.7075655   -1.7075655  -0.99170724  0.061309563   -1.7075655   0.71585827  1070540 
 2361000   0.99942503   -1.7078458   -1.7078458  -0.99163495  0.056557098   -1.7078458   0.71621089  1070540 
 2362000   0.99841291   -1.7078338   -1.7078338  -0.99234823  0.052196865   -1.7078338   0.71548557  1070540 
 2363000   0.99753734   -1.7075914   -1.7075914  -0.99273332  0.049715631   -1.7075914   0.71485812  1070540 
 2364000   0.99762634   -1.7072726   -1.7072726  -0.99235067  0.052166176   -1.7072726    0.7149219  1070540 
 2365000    0.9964219   -1.7065914   -1.7065914  -0.99253263  0.053097773   -1.7065914   0.71405877  1070540 
 2366000   0.99765519   -1.7073042   -1.7073042   -0.9923616  0.050395813   -1.7073042   0.71494257  1070540 
 2367000   0.99499109   -1.7054543   -1.7054543  -0.99242089  0.053412211   -1.7054543   0.71303342  1070540 
 2368000   0.99566693   -1.7059155   -1.7059155  -0.99239778  0.053270896   -1.7059155   0.71351774  1070540 
 2369000   0.99756869   -1.7070249   -1.7070249  -0.99214432  0.048731741   -1.7070249   0.71488059  1070540 
 2370000   0.99787147    -1.707376    -1.707376  -0.99227842  0.054731811    -1.707376   0.71509757  1070540 
 2371000   0.99754079   -1.7071319   -1.7071319  -0.99227132  0.056191695   -1.7071319   0.71486059  1070540 
 2372000   0.99842275   -1.7072754   -1.7072754  -0.99178281  0.056157457   -1.7072754   0.71549263  1070540 
 2373000   0.99886969   -1.7075396   -1.7075396  -0.99172673  0.063945589   -1.7075396   0.71581292  1070540 
 2374000    1.0000426   -1.7079308   -1.7079308  -0.99127736   0.06086341   -1.7079308   0.71665348  1070540 
 2375000   0.99960192   -1.7074416   -1.7074416  -0.99110399  0.055009097   -1.7074416   0.71633765  1070540 
 2376000   0.99831229   -1.7065473   -1.7065473  -0.99113382  0.064374394   -1.7065473   0.71541347  1070540 
 2377000   0.99861189    -1.707023    -1.707023  -0.99139486  0.043999394    -1.707023   0.71562817  1070540 
 2378000   0.99761246   -1.7068731   -1.7068731  -0.99196113  0.062238983   -1.7068731   0.71491195  1070540 
 2379000   0.99705265   -1.7066815   -1.7066815   -0.9921707  0.065622923   -1.7066815   0.71451078  1070540 
 2380000   0.99717609   -1.7065819   -1.7065819  -0.99198268  0.056955214   -1.7065819   0.71459924  1070540 
 2381000   0.99946187    -1.707718    -1.707718  -0.99148069  0.055120191    -1.707718   0.71623728  1070540 
 2382000   0.99883077   -1.7070782   -1.7070782  -0.99129315  0.057615154   -1.7070782   0.71578502  1070540 
 2383000    0.9997584   -1.7075004   -1.7075004  -0.99105058  0.055770938   -1.7075004   0.71644978  1070540 
 2384000   0.99857949   -1.7067426   -1.7067426   -0.9911377  0.054558877   -1.7067426   0.71560495  1070540 
 2385000   0.99881506   -1.7068712   -1.7068712  -0.99109739  0.061590787   -1.7068712   0.71577376  1070540 
 2386000   0.99967422   -1.7075199   -1.7075199  -0.99113048  0.063757573   -1.7075199   0.71638946  1070540 
 2387000   0.99995357   -1.7079924   -1.7079924  -0.99140271  0.063951498   -1.7079924   0.71658964  1070540 
 2388000    1.0003963   -1.7086071   -1.7086071   -0.9917002  0.058144513   -1.7086071   0.71690695  1070540 
 2389000   0.99869895   -1.7072444   -1.7072444  -0.99155389  0.053420304   -1.7072444   0.71569056  1070540 
 2390000   0.99801837   -1.7070404   -1.7070404  -0.99183757  0.057813247   -1.7070404   0.71520284  1070540 
 2391000   0.99698864   -1.7062602   -1.7062602  -0.99179532  0.052713324   -1.7062602   0.71446491  1070540 
 2392000   0.99852645   -1.7070885   -1.7070885  -0.99152155  0.049644257   -1.7070885   0.71556694  1070540 
 2393000   0.99685787   -1.7059677   -1.7059677  -0.99159653  0.062688244   -1.7059677   0.71437119  1070540 
 2394000   0.99761888   -1.7062954   -1.7062954  -0.99137886   0.05210022   -1.7062954   0.71491656  1070540 
 2395000   0.99913001   -1.7073363   -1.7073363  -0.99133681  0.062367566   -1.7073363   0.71599946  1070540 
 2396000   0.99895347   -1.7074379   -1.7074379  -0.99156491  0.057251305   -1.7074379   0.71587295  1070540 
 2397000   0.99792586   -1.7065672   -1.7065672  -0.99143066   0.05918253   -1.7065672   0.71513655  1070540 
 2398000   0.99885149   -1.7073141   -1.7073141  -0.99151419  0.061382499   -1.7073141   0.71579987  1070540 
 2399000   0.99896384   -1.7070452   -1.7070452   -0.9911648  0.055392278   -1.7070452   0.71588038  1070540 
 2400000   0.99802217   -1.7065779   -1.7065779  -0.99137235  0.060009128   -1.7065779   0.71520556  1070540 
 2401000   0.99881931   -1.7066578   -1.7066578  -0.99088103  0.057787872   -1.7066578   0.71577681  1070540 
 2402000    0.9989352   -1.7071094   -1.7071094  -0.99124953  0.069096834   -1.7071094   0.71585986  1070540 
 2403000   0.99861558   -1.7063299   -1.7063299  -0.99069908  0.059097041   -1.7063299   0.71563081  1070540 
 2404000    1.0000204    -1.707047    -1.707047  -0.99040943  0.063976849    -1.707047   0.71663752  1070540 
 2405000   0.99941016   -1.7067218   -1.7067218  -0.99052153  0.064992875   -1.7067218   0.71620023  1070540 
 2406000   0.99975127   -1.7065695   -1.7065695   -0.9901248  0.054848204   -1.7065695   0.71644467  1070540 
 2407000   0.99959702   -1.7063077   -1.7063077  -0.98997359  0.054298968   -1.7063077   0.71633413  1070540 
 2408000     0.999583   -1.7069339   -1.7069339  -0.99060985  0.063067635   -1.7069339   0.71632409  1070540 
 2409000   0.99985312   -1.7071528   -1.7071528  -0.99063511  0.060719064   -1.7071528   0.71651766  1070540 
 2410000   0.99975086    -1.706967    -1.706967  -0.99052267  0.066099896    -1.706967   0.71644438  1070540 
 2411000    1.0000759   -1.7072922   -1.7072922   -0.9906149  0.054982048   -1.7072922   0.71667734  1070540 
 2412000    1.0006789   -1.7075621   -1.7075621  -0.99045263   0.06365502   -1.7075621   0.71710943  1070540 
 2413000   0.99975613   -1.7073334   -1.7073334  -0.99088525  0.058473446   -1.7073334   0.71644816  1070540 
 2414000   0.99962931   -1.7072229   -1.7072229  -0.99086567  0.049214004   -1.7072229   0.71635728  1070540 
 2415000   0.99884134   -1.7065302   -1.7065302  -0.99073759  0.066245058   -1.7065302   0.71579259  1070540 
 2416000    1.0013523   -1.7080111   -1.7080111  -0.99041908  0.062703046   -1.7080111   0.71759201  1070540 
 2417000   0.99788411   -1.7057511   -1.7057511  -0.99064449  0.055838507   -1.7057511   0.71510663  1070540 
 2418000    1.0003846   -1.7072907   -1.7072907  -0.99039213  0.059042254   -1.7072907   0.71689855  1070540 
 2419000   0.99898438   -1.7067237   -1.7067237  -0.99082862  0.071918993   -1.7067237   0.71589511  1070540 
 2420000    0.9992657   -1.7066909   -1.7066909  -0.99059417   0.06471075   -1.7066909    0.7160967  1070540 
 2421000   0.99854335   -1.7063102   -1.7063102  -0.99073116  0.061144158   -1.7063102   0.71557905  1070540 
 2422000   0.99945617   -1.7069802   -1.7069802  -0.99074698  0.057077079   -1.7069802   0.71623319  1070540 
 2423000   0.99839979   -1.7064179   -1.7064179  -0.99094168   0.04568236   -1.7064179   0.71547617  1070540 
 2424000   0.99789672   -1.7058021   -1.7058021  -0.99068639  0.058896338   -1.7058021   0.71511566  1070540 
 2425000   0.99797634   -1.7060326   -1.7060326  -0.99085986  0.068005546   -1.7060326   0.71517272  1070540 
 2426000   0.99843092   -1.7064612   -1.7064612   -0.9909627      0.05639   -1.7064612   0.71549848  1070540 
 2427000   0.99931293   -1.7066716   -1.7066716   -0.9905411  0.061170414   -1.7066716   0.71613055  1070540 
 2428000   0.99834348   -1.7059267   -1.7059267  -0.99049088  0.059037603   -1.7059267   0.71543582  1070540 
 2429000    1.0002444   -1.7074399   -1.7074399  -0.99064182  0.054076967   -1.7074399   0.71679809  1070540 
 2430000   0.99991627   -1.7061806   -1.7061806  -0.98961767   0.05890016   -1.7061806   0.71656292  1070540 
 2431000     1.000313   -1.7064175   -1.7064175   -0.9895703  0.061987799   -1.7064175   0.71684724  1070540 
 2432000   0.99943882    -1.705823    -1.705823  -0.98960221  0.061220132    -1.705823   0.71622077  1070540 
 2433000   0.99972269   -1.7059798   -1.7059798  -0.98955564  0.060113795   -1.7059798   0.71642419  1070540 
 2434000   0.99980728   -1.7063592   -1.7063592  -0.98987436  0.058489959   -1.7063592   0.71648481  1070540 
 2435000   0.99987913   -1.7061168   -1.7061168  -0.98958045  0.058403038   -1.7061168    0.7165363  1070540 
 2436000    1.0003812   -1.7065389   -1.7065389  -0.98964283  0.060210239   -1.7065389   0.71689611  1070540 
 2437000    1.0002475   -1.7061763   -1.7061763  -0.98937598  0.060536204   -1.7061763   0.71680031  1070540 
 2438000    0.9991843   -1.7056726   -1.7056726  -0.98963428  0.054864502   -1.7056726   0.71603837  1070540 
 2439000   0.99891639   -1.7055986   -1.7055986  -0.98975221  0.061138884   -1.7055986   0.71584638  1070540 
 2440000    1.0002477    -1.706039    -1.706039  -0.98923854  0.055110496    -1.706039   0.71680042  1070540 
 2441000   0.99880065    -1.705264    -1.705264  -0.98950058  0.061301042    -1.705264   0.71576344  1070540 
 2442000    1.0004059   -1.7064633   -1.7064633  -0.98954953  0.052201375   -1.7064633   0.71691379  1070540 
 2443000    1.0006297   -1.7065149   -1.7065149  -0.98944065  0.054053452   -1.7065149   0.71707421  1070540 
 2444000   0.99874903   -1.7055042   -1.7055042  -0.98977779  0.060774059   -1.7055042   0.71572645  1070540 
 2445000   0.99792536   -1.7050594   -1.7050594  -0.98992317  0.054828515   -1.7050594   0.71513619  1070540 
 2446000   0.99869327   -1.7051001   -1.7051001  -0.98941358  0.059233294   -1.7051001   0.71568649  1070540 
 2447000    0.9991724   -1.7058466   -1.7058466  -0.98981675  0.055652794   -1.7058466   0.71602984  1070540 
 2448000   0.99824705   -1.7056169   -1.7056169  -0.99025022  0.058304159   -1.7056169   0.71536671  1070540 
 2449000    1.0001462   -1.7064016   -1.7064016  -0.98967391  0.052600278   -1.7064016   0.71672767  1070540 
 2450000    0.9991443   -1.7053572   -1.7053572  -0.98934752  0.063588679   -1.7053572    0.7160097  1070540 
 2451000   0.99992994   -1.7056022   -1.7056022  -0.98902947  0.062190251   -1.7056022   0.71657271  1070540 
 2452000   0.99730413   -1.7040356   -1.7040356  -0.98934461    0.0551319   -1.7040356     0.714691  1070540 
 2453000   0.99940778   -1.7054302   -1.7054302  -0.98923163  0.064433382   -1.7054302   0.71619852  1070540 
 2454000   0.99859738   -1.7045834   -1.7045834   -0.9889656   0.06151817   -1.7045834   0.71561777  1070540 
 2455000   0.99859873   -1.7048861   -1.7048861  -0.98926738   0.06444887   -1.7048861   0.71561874  1070540 
 2456000    0.9987072   -1.7053744   -1.7053744   -0.9896779  0.055783051   -1.7053744   0.71569647  1070540 
 2457000   0.99877609   -1.7053748   -1.7053748  -0.98962892  0.056047378   -1.7053748   0.71574584  1070540 
 2458000   0.99917361   -1.7051957   -1.7051957  -0.98916499  0.064948805   -1.7051957   0.71603071  1070540 
 2459000   0.99868999   -1.7050391   -1.7050391  -0.98935494  0.056461571   -1.7050391   0.71568414  1070540 
 2460000   0.99936547   -1.7054037   -1.7054037  -0.98923552  0.057391367   -1.7054037    0.7161682  1070540 
 2461000    1.0000643    -1.705627    -1.705627  -0.98895802  0.061247518    -1.705627   0.71666902  1070540 
 2462000    0.9996029   -1.7053795   -1.7053795  -0.98904111  0.057517909   -1.7053795   0.71633835  1070540 
 2463000    1.0012735   -1.7060356   -1.7060356   -0.9885001  0.058591837   -1.7060356   0.71753554  1070540 
 2464000   0.99940644   -1.7044182   -1.7044182  -0.98822065  0.058343308   -1.7044182   0.71619756  1070540 
 2465000     0.999697   -1.7049787   -1.7049787  -0.98857296  0.060438659   -1.7049787   0.71640578  1070540 
 2466000     1.000004   -1.7055202   -1.7055202  -0.98889445  0.059613716   -1.7055202   0.71662576  1070540 
 2467000   0.99995958   -1.7050891   -1.7050891  -0.98849518  0.065157578   -1.7050891   0.71659395  1070540 
 2468000   0.99851409   -1.7043948   -1.7043948  -0.98883672  0.063193402   -1.7043948   0.71555808  1070540 
 2469000   0.99884635   -1.7047509   -1.7047509  -0.98895472  0.056842708   -1.7047509   0.71579619  1070540 
 2470000   0.99829379   -1.7043486   -1.7043486  -0.98894844  0.065504142   -1.7043486   0.71540021  1070540 
 2471000   0.99905633   -1.7047679   -1.7047679  -0.98882126  0.049318473   -1.7047679   0.71594667  1070540 
 2472000   0.99802274   -1.7049391   -1.7049391  -0.98973314  0.051749959   -1.7049391   0.71520597  1070540 
 2473000   0.99831683   -1.7049327   -1.7049327    -0.989516  0.058188961   -1.7049327   0.71541672  1070540 
 2474000   0.99788974   -1.7044628   -1.7044628   -0.9893521  0.053441318   -1.7044628   0.71511066  1070540 
 2475000   0.99849902   -1.7045418   -1.7045418  -0.98899454  0.055626889   -1.7045418   0.71554728  1070540 
 2476000     1.000083   -1.7057549   -1.7057549  -0.98907254  0.056851788   -1.7057549   0.71668237  1070540 
 2477000   0.99992714   -1.7052343   -1.7052343  -0.98866359  0.063485808   -1.7052343   0.71657071  1070540 
 2478000    0.9988536   -1.7049431   -1.7049431   -0.9891417  0.063146105   -1.7049431   0.71580138  1070540 
 2479000    1.0000515   -1.7058387   -1.7058387   -0.9891789  0.064656625   -1.7058387    0.7166598  1070540 
 2480000   0.99962071   -1.7053782   -1.7053782  -0.98902705  0.062529776   -1.7053782   0.71635111  1070540 
 2481000    0.9990714   -1.7049733   -1.7049733  -0.98901585  0.055367573   -1.7049733   0.71595746  1070540 
 2482000   0.99873601   -1.7050159   -1.7050159  -0.98929878   0.05965015   -1.7050159   0.71571711  1070540 
 2483000   0.99901024   -1.7051746   -1.7051746  -0.98926094  0.058656289   -1.7051746   0.71591363  1070540 
 2484000   0.99963816   -1.7058212   -1.7058212  -0.98945762  0.057644869   -1.7058212   0.71636362  1070540 
 2485000   0.99951264   -1.7052611   -1.7052611  -0.98898739  0.062210098   -1.7052611   0.71627367  1070540 
 2486000   0.99945523   -1.7053722   -1.7053722  -0.98913968   0.06682863   -1.7053722   0.71623253  1070540 
 2487000   0.99955646   -1.7053346   -1.7053346  -0.98902958  0.060309845   -1.7053346   0.71630507  1070540 
 2488000    1.0015866   -1.7068726   -1.7068726  -0.98911273  0.057023833   -1.7068726   0.71775991  1070540 
 2489000    1.0008209    -1.706203    -1.706203  -0.98899174  0.067719823    -1.706203   0.71721123  1070540 
 2490000     1.000787    -1.705778    -1.705778  -0.98859115  0.061220863    -1.705778   0.71718688  1070540 
 2491000    1.0011392   -1.7052466   -1.7052466  -0.98780726  0.062125407   -1.7052466   0.71743933  1070540 
 2492000    1.0012455   -1.7055032   -1.7055032  -0.98798774  0.068821275   -1.7055032   0.71751548  1070540 
 2493000     1.000692   -1.7050777   -1.7050777  -0.98795889  0.059521691   -1.7050777   0.71711884  1070540 
 2494000    1.0008688   -1.7059528   -1.7059528   -0.9887073  0.063536847   -1.7059528    0.7172455  1070540 
 2495000   0.99990789   -1.7053849   -1.7053849  -0.98882796  0.060787056   -1.7053849   0.71655691  1070540 
 2496000   0.99967055   -1.7052409   -1.7052409   -0.9888541  0.065885631   -1.7052409   0.71638683  1070540 
 2497000   0.99785485   -1.7041365   -1.7041365  -0.98905082   0.05749445   -1.7041365   0.71508565  1070540 
 2498000   0.99827649   -1.7046428   -1.7046428    -0.989255  0.055912911   -1.7046428   0.71538781  1070540 
 2499000    0.9985676   -1.7044324   -1.7044324    -0.988836  0.060863054   -1.7044324   0.71559643  1070540 
 2500000   0.99976261   -1.7050018   -1.7050018  -0.98854901  0.053103155   -1.7050018    0.7164528  1070540 
 2501000   0.99823815   -1.7042512   -1.7042512  -0.98889084  0.060368855   -1.7042512   0.71536033  1070540 
 2502000    1.0003321   -1.7050963   -1.7050963  -0.98823542  0.069284843   -1.7050963   0.71686092  1070540 
 2503000   0.99957857   -1.7047197   -1.7047197  -0.98839874  0.066129611   -1.7047197   0.71632091  1070540 
 2504000    1.0001018   -1.7048279   -1.7048279  -0.98813206  0.056549202   -1.7048279   0.71669586  1070540 
 2505000    1.0001245   -1.7053461   -1.7053461  -0.98863396  0.057677289   -1.7053461   0.71671214  1070540 
 2506000    1.0013166   -1.7063279   -1.7063279  -0.98876154  0.052698485   -1.7063279   0.71756639  1070540 
 2507000   0.99931997   -1.7049173   -1.7049173  -0.98878167  0.053871436   -1.7049173   0.71613559  1070540 
 2508000   0.99734013   -1.7034127   -1.7034127  -0.98869594  0.059943983   -1.7034127   0.71471679  1070540 
 2509000   0.99870529   -1.7047151   -1.7047151  -0.98901997  0.058934144   -1.7047151    0.7156951  1070540 
 2510000    0.9995039     -1.70515     -1.70515  -0.98888259  0.059896522     -1.70515    0.7162674  1070540 
 2511000   0.99923527   -1.7047643   -1.7047643  -0.98868945  0.060390784   -1.7047643   0.71607489  1070540 
 2512000   0.99917526   -1.7050357   -1.7050357  -0.98900378   0.05778448   -1.7050357   0.71603189  1070540 
 2513000   0.99837734   -1.7040191   -1.7040191  -0.98855898  0.061614637   -1.7040191   0.71546008  1070540 
 2514000   0.99874303    -1.704706    -1.704706  -0.98898387  0.054234116    -1.704706   0.71572215  1070540 
 2515000   0.99969455   -1.7056518   -1.7056518   -0.9892478  0.068591942   -1.7056518   0.71640403  1070540 
 2516000   0.99914125   -1.7056754   -1.7056754  -0.98966791  0.053669036   -1.7056754   0.71600752  1070540 
 2517000   0.99952018   -1.7059149   -1.7059149  -0.98963579  0.061085794   -1.7059149   0.71627907  1070540 
 2518000   0.99946024   -1.7059734   -1.7059734  -0.98973731  0.069814024   -1.7059734   0.71623611  1070540 
 2519000   0.99933338   -1.7060761   -1.7060761  -0.98993087  0.063961945   -1.7060761   0.71614521  1070540 
 2520000   0.99983342   -1.7060664   -1.7060664   -0.9895629  0.057344619   -1.7060664   0.71650355  1070540 
 2521000    1.0002202   -1.7069483   -1.7069483  -0.99016757  0.052547693   -1.7069483    0.7167807  1070540 
 2522000    1.0013535   -1.7079757   -1.7079757  -0.99038288  0.056569865   -1.7079757   0.71759286  1070540 
 2523000   0.99995115   -1.7067468   -1.7067468  -0.99015885  0.068522828   -1.7067468   0.71658791  1070540 
 2524000   0.99996827   -1.7067316   -1.7067316  -0.99013142  0.062154942   -1.7067316   0.71660018  1070540 
 2525000    1.0009839   -1.7077455   -1.7077455   -0.9904175  0.057504717   -1.7077455   0.71732802  1070540 
 2526000    1.0004146    -1.707751    -1.707751  -0.99083099  0.054279746    -1.707751   0.71692001  1070540 
 2527000    1.0002007   -1.7076478   -1.7076478  -0.99088107   0.05907967   -1.7076478   0.71676673  1070540 
 2528000    1.0008562    -1.708011    -1.708011  -0.99077453  0.064110973    -1.708011   0.71723651  1070540 
 2529000     1.001403   -1.7082901   -1.7082901  -0.99066178  0.059034393   -1.7082901   0.71762833  1070540 
 2530000    1.0006032    -1.707824    -1.707824  -0.99076881  0.061888479    -1.707824   0.71705521  1070540 
 2531000   0.99993642     -1.70712     -1.70712  -0.99054263    0.0713832     -1.70712   0.71657736  1070540 
 2532000    1.0011385   -1.7081025   -1.7081025  -0.99066372  0.065343734   -1.7081025   0.71743877  1070540 
 2533000    1.0000391   -1.7076716   -1.7076716  -0.99102072  0.065627075   -1.7076716   0.71665093  1070540 
 2534000   0.99962966   -1.7073046   -1.7073046  -0.99094704  0.059480565   -1.7073046   0.71635752  1070540 
 2535000   0.99901523   -1.7066917   -1.7066917  -0.99077447  0.056105936   -1.7066917   0.71591721  1070540 
 2536000   0.99895904   -1.7068943   -1.7068943  -0.99101735  0.060813997   -1.7068943   0.71587694  1070540 
 2537000   0.99845781   -1.7065257   -1.7065257  -0.99100795    0.0579498   -1.7065257   0.71551775  1070540 
 2538000   0.99874021   -1.7064439   -1.7064439  -0.99072377  0.059149079   -1.7064439   0.71572013  1070540 
 2539000    0.9990634   -1.7063133   -1.7063133  -0.99036159  0.066951217   -1.7063133   0.71595173  1070540 
 2540000   0.99949403   -1.7065373   -1.7065373  -0.99027696  0.060598414   -1.7065373   0.71626033  1070540 
 2541000   0.99971716   -1.7067546   -1.7067546  -0.99033436  0.064418067   -1.7067546   0.71642023  1070540 
 2542000    1.0008437   -1.7073957   -1.7073957  -0.99016824   0.05630224   -1.7073957    0.7172275  1070540 
 2543000    1.0008109   -1.7070538   -1.7070538  -0.98984975  0.061483101   -1.7070538   0.71720401  1070540 
 2544000   0.99939505   -1.7062088   -1.7062088  -0.99001942  0.063150822   -1.7062088    0.7161894  1070540 
 2545000    1.0004454   -1.7067141   -1.7067141  -0.98977201  0.057961088   -1.7067141   0.71694212  1070540 
 2546000    1.0003979   -1.7064685   -1.7064685   -0.9895605  0.056982925   -1.7064685   0.71690804  1070540 
 2547000    1.0002686   -1.7065327   -1.7065327  -0.98971733  0.059694329   -1.7065327   0.71681538  1070540 
 2548000   0.99919261   -1.7058837   -1.7058837  -0.98983933   0.06155192   -1.7058837   0.71604433  1070540 
 2549000   0.99904654   -1.7057727   -1.7057727  -0.98983308  0.059951008   -1.7057727   0.71593965  1070540 
 2550000    0.9970286   -1.7045355   -1.7045355  -0.99004194    0.0632431   -1.7045355   0.71449355  1070540 
 2551000   0.99907922   -1.7059106   -1.7059106  -0.98994749  0.055215952   -1.7059106   0.71596307  1070540 
 2552000    1.0003196   -1.7067971   -1.7067971  -0.98994517  0.061888412   -1.7067971   0.71685195  1070540 
 2553000   0.99905895   -1.7058206   -1.7058206  -0.98987206  0.056300467   -1.7058206   0.71594854  1070540 
 2554000   0.99960295   -1.7060509   -1.7060509  -0.98971247  0.057767173   -1.7060509   0.71633839  1070540 
 2555000   0.99867307   -1.7054396   -1.7054396  -0.98976759  0.059983644   -1.7054396   0.71567201  1070540 
 2556000    1.0001801   -1.7062875   -1.7062875  -0.98953553  0.063503324   -1.7062875   0.71675196  1070540 
 2557000    1.0011005   -1.7068411   -1.7068411  -0.98942949   0.05456989   -1.7068411    0.7174116  1070540 
 2558000    1.0000933   -1.7062663   -1.7062663  -0.98957657  0.058003181   -1.7062663   0.71668975  1070540 
 2559000    0.9998953   -1.7057365   -1.7057365  -0.98918866  0.060707294   -1.7057365   0.71654789  1070540 
 2560000    0.9999644   -1.7063386   -1.7063386  -0.98974116  0.065498161   -1.7063386   0.71659741  1070540 
 2561000   0.99981902   -1.7061593   -1.7061593  -0.98966609  0.069452389   -1.7061593   0.71649322  1070540 
 2562000   0.99924371   -1.7061561   -1.7061561  -0.99007511  0.059546793   -1.7061561   0.71608094  1070540 
 2563000   0.99861626   -1.7058497   -1.7058497  -0.99021837  0.059032321   -1.7058497    0.7156313  1070540 
 2564000   0.99863451   -1.7061386   -1.7061386  -0.99049427  0.071680796   -1.7061386   0.71564438  1070540 
 2565000   0.99946149   -1.7069156   -1.7069156   -0.9906786  0.058501947   -1.7069156   0.71623701  1070540 
 2566000   0.99853012   -1.7065006   -1.7065006  -0.99093099  0.065177152   -1.7065006   0.71556957  1070540 
 2567000    1.0003266   -1.7075537   -1.7075537  -0.99069674  0.057939192   -1.7075537   0.71685696  1070540 
 2568000   0.99930297   -1.7071213   -1.7071213  -0.99099791  0.061248147   -1.7071213   0.71612341  1070540 
 2569000    1.0008899   -1.7078766   -1.7078766  -0.99061596  0.056173615   -1.7078766   0.71726064  1070540 
 2570000    1.0011392   -1.7081722   -1.7081722  -0.99073291  0.064353998   -1.7081722   0.71743931  1070540 
 2571000    1.0010477   -1.7082805   -1.7082805  -0.99090677  0.058179875   -1.7082805   0.71737372  1070540 
 2572000    1.0001457   -1.7075274   -1.7075274  -0.99080009  0.063962264   -1.7075274   0.71672734  1070540 
 2573000    1.0007241   -1.7079133   -1.7079133  -0.99077146   0.06311967   -1.7079133   0.71714185  1070540 
 2574000    1.0022466   -1.7089618   -1.7089618  -0.99072899   0.06959196   -1.7089618   0.71823285  1070540 
 2575000    1.0019348   -1.7085285   -1.7085285  -0.99051909  0.066561121   -1.7085285   0.71800946  1070540 
 2576000    1.0008058   -1.7079299   -1.7079299  -0.99072957  0.069259676   -1.7079299   0.71720034  1070540 
 2577000    0.9987726   -1.7068289   -1.7068289  -0.99108554  0.064467629   -1.7068289   0.71574334  1070540 
 2578000      1.00027   -1.7076762   -1.7076762  -0.99085977  0.062571259   -1.7076762   0.71681644  1070540 
 2579000    1.0010552   -1.7078208   -1.7078208   -0.9904417  0.066831981   -1.7078208   0.71737906  1070540 
 2580000   0.99876895   -1.7066389   -1.7066389   -0.9908982  0.059386452   -1.7066389   0.71574072  1070540 
 2581000    1.0002402   -1.7075681   -1.7075681  -0.99077306  0.060953651   -1.7075681   0.71679505  1070540 
 2582000   0.99898741   -1.7066225   -1.7066225  -0.99072527  0.055986952   -1.7066225   0.71589728  1070540 
 2583000    0.9990073   -1.7066894   -1.7066894  -0.99077782   0.05764393   -1.7066894   0.71591153  1070540 
 2584000   0.99812125   -1.7058102   -1.7058102  -0.99053363  0.059979386   -1.7058102   0.71527656  1070540 
 2585000    0.9981236   -1.7059272   -1.7059272    -0.990649  0.059257687   -1.7059272   0.71527825  1070540 
 2586000   0.99828346   -1.7060899   -1.7060899  -0.99069711   0.05534471   -1.7060899   0.71539281  1070540 
 2587000   0.99853244    -1.706451    -1.706451   -0.9908798  0.061138345    -1.706451   0.71557123  1070540 
 2588000   0.99844546   -1.7060284   -1.7060284  -0.99051947  0.057478689   -1.7060284    0.7155089  1070540 
 2589000   0.99868971   -1.7060918   -1.7060918  -0.99040786  0.066057249   -1.7060918   0.71568394  1070540 
 2590000   0.99907114   -1.7064853   -1.7064853  -0.99052805  0.054551926   -1.7064853   0.71595728  1070540 
 2591000   0.99764351   -1.7050215   -1.7050215  -0.99008732  0.059503877   -1.7050215    0.7149342  1070540 
 2592000   0.99706483   -1.7047695   -1.7047695  -0.99025002  0.067025463   -1.7047695   0.71451951  1070540 
 2593000   0.99716271    -1.705113    -1.705113  -0.99052337  0.060863845    -1.705113   0.71458965  1070540 
 2594000   0.99707647   -1.7046353   -1.7046353  -0.99010749  0.057087451   -1.7046353   0.71452785  1070540 
 2595000   0.99660588   -1.7043273   -1.7043273   -0.9901367  0.049690932   -1.7043273   0.71419062  1070540 
 2596000   0.99782621   -1.7053573   -1.7053573   -0.9902922  0.051041887   -1.7053573   0.71506513  1070540 
 2597000    0.9988228   -1.7063274   -1.7063274  -0.99054809   0.05335141   -1.7063274   0.71577931  1070540 
 2598000   0.99859864   -1.7058441   -1.7058441  -0.99022544  0.063963962   -1.7058441   0.71561867  1070540 
 2599000   0.99866661    -1.706197    -1.706197  -0.99052963  0.059775063    -1.706197   0.71566738  1070540 
 2600000   0.99798148   -1.7055997   -1.7055997  -0.99042334  0.061612028   -1.7055997    0.7151764  1070540 
 2601000   0.99938656    -1.706576    -1.706576  -0.99039273  0.051426557    -1.706576   0.71618332  1070540 
 2602000   0.99982283   -1.7067552   -1.7067552  -0.99025928  0.051739066   -1.7067552   0.71649595  1070540 
 2603000    1.0008849   -1.7075716   -1.7075716  -0.99031456  0.068593857   -1.7075716   0.71725704  1070540 
 2604000   0.99999675   -1.7061599   -1.7061599  -0.98953929  0.067060502   -1.7061599   0.71662059  1070540 
 2605000    1.0009525   -1.7069389   -1.7069389  -0.98963334  0.054885628   -1.7069389   0.71730552  1070540 
 2606000   0.99986371   -1.7065664   -1.7065664  -0.99004116  0.055489173   -1.7065664   0.71652525  1070540 
 2607000   0.99933861   -1.7059425   -1.7059425  -0.98979354  0.058964824   -1.7059425   0.71614895  1070540 
 2608000     0.999755   -1.7064039   -1.7064039  -0.98995657  0.063642656   -1.7064039   0.71644735  1070540 
 2609000    1.0008402   -1.7068763   -1.7068763  -0.98965126  0.057759962   -1.7068763   0.71722499  1070540 
 2610000    1.0010662   -1.7075446   -1.7075446   -0.9901576  0.060440176   -1.7075446     0.717387  1070540 
 2611000   0.99960708   -1.7061518   -1.7061518  -0.98981042  0.062127691   -1.7061518   0.71634135  1070540 
 2612000   0.99985521   -1.7063813   -1.7063813  -0.98986213  0.056332596   -1.7063813   0.71651916  1070540 
 2613000   0.99836478   -1.7054515   -1.7054515  -0.99000044  0.064453312   -1.7054515   0.71545108  1070540 
 2614000   0.99973753   -1.7061656   -1.7061656  -0.98973078  0.066332163   -1.7061656   0.71643483  1070540 
 2615000   0.99889165   -1.7058427   -1.7058427  -0.99001404  0.062338201   -1.7058427   0.71582865  1070540 
 2616000   0.99919945   -1.7061687   -1.7061687  -0.99011942  0.053712777   -1.7061687   0.71604923  1070540 
 2617000   0.99910241   -1.7059433   -1.7059433   -0.9899636  0.062565272   -1.7059433   0.71597969  1070540 
 2618000   0.99918295   -1.7063004   -1.7063004  -0.99026301  0.064154554   -1.7063004    0.7160374  1070540 
 2619000    1.0010256   -1.7070821   -1.7070821  -0.98972428  0.063352643   -1.7070821   0.71735787  1070540 
 2620000   0.99981216   -1.7062095   -1.7062095  -0.98972119  0.056366859   -1.7062095   0.71648831  1070540 
 2621000     1.000773   -1.7066455   -1.7066455  -0.98946861  0.060664864   -1.7066455   0.71717687  1070540 
 2622000   0.99955125   -1.7059234   -1.7059234  -0.98962205  0.067640316   -1.7059234   0.71630134  1070540 
 2623000   0.99976019     -1.70652     -1.70652   -0.9900689  0.059396205     -1.70652   0.71645107  1070540 
 2624000   0.99969999   -1.7063255   -1.7063255  -0.98991753  0.055875457   -1.7063255   0.71640792  1070540 
 2625000     0.998008   -1.7048119   -1.7048119   -0.9896165  0.063354968   -1.7048119   0.71519541  1070540 
 2626000   0.99873356   -1.7054333   -1.7054333  -0.98971794  0.057558246   -1.7054333   0.71571536  1070540 
 2627000   0.99887776   -1.7055378   -1.7055378  -0.98971914  0.053085894   -1.7055378    0.7158187  1070540 
 2628000    0.9997801   -1.7061004   -1.7061004   -0.9896351  0.056418356   -1.7061004   0.71646533  1070540 
 2629000   0.99886749   -1.7054717   -1.7054717  -0.98966037  0.065295083   -1.7054717   0.71581133  1070540 
 2630000    0.9977607   -1.7052955   -1.7052955  -0.99027727  0.061742506   -1.7052955   0.71501819  1070540 
 2631000   0.99891385   -1.7055869   -1.7055869  -0.98974234  0.061348012   -1.7055869   0.71584456  1070540 
 2632000    1.0009724   -1.7071993   -1.7071993  -0.98987954  0.054392523   -1.7071993   0.71731975  1070540 
 2633000   0.99905798   -1.7057239   -1.7057239  -0.98977609  0.066051965   -1.7057239   0.71594784  1070540 
 2634000   0.99998627   -1.7061884   -1.7061884  -0.98957533  0.061454249   -1.7061884   0.71661308  1070540 
 2635000   0.99935838   -1.7054421   -1.7054421  -0.98927894  0.059148861   -1.7054421   0.71616312  1070540 
 2636000    0.9996599   -1.7057473   -1.7057473  -0.98936814  0.057274705   -1.7057473    0.7163792  1070540 
 2637000   0.99790675   -1.7042232   -1.7042232  -0.98910036  0.072049269   -1.7042232   0.71512285  1070540 
 2638000   0.99876046   -1.7054073   -1.7054073  -0.98967264  0.061898311   -1.7054073   0.71573464  1070540 
 2639000   0.99978528    -1.706307    -1.706307  -0.98983793  0.054444329    -1.706307   0.71646905  1070540 
 2640000   0.99838477   -1.7050442   -1.7050442   -0.9895788  0.064324198   -1.7050442   0.71546541  1070540 
 2641000   0.99995915   -1.7057178   -1.7057178  -0.98912412  0.056027474   -1.7057178   0.71659365  1070540 
 2642000    1.0008482   -1.7064827   -1.7064827  -0.98925193  0.060566081   -1.7064827   0.71723074  1070540 
 2643000     1.000413   -1.7063477   -1.7063477  -0.98942883  0.063242451   -1.7063477   0.71691888  1070540 
 2644000    1.0012062   -1.7063793   -1.7063793  -0.98889201  0.059853342   -1.7063793   0.71748733  1070540 
 2645000     1.000152    -1.705475    -1.705475  -0.98874322  0.063343124    -1.705475   0.71673182  1070540 
 2646000    1.0005547   -1.7060022   -1.7060022  -0.98898171  0.052264061   -1.7060022   0.71702046  1070540 
 2647000   0.99887322   -1.7051271   -1.7051271  -0.98931161  0.063898034   -1.7051271   0.71581545  1070540 
 2648000   0.99911182   -1.7052057   -1.7052057  -0.98921931  0.060171131   -1.7052057   0.71598643  1070540 
 2649000   0.99834268   -1.7050399   -1.7050399  -0.98960466  0.060199128   -1.7050399   0.71543524  1070540 
 2650000   0.99926709   -1.7059105   -1.7059105  -0.98981282  0.061721428   -1.7059105    0.7160977  1070540 
 2651000    0.9972471   -1.7039991   -1.7039991    -0.989349   0.05164025   -1.7039991   0.71465013  1070540 
 2652000   0.99985824   -1.7056723   -1.7056723  -0.98915097  0.063165092   -1.7056723   0.71652133  1070540 
 2653000     1.000759   -1.7062685   -1.7062685  -0.98910166  0.063757603   -1.7062685   0.71716686  1070540 
 2654000    1.0003609   -1.7061883   -1.7061883   -0.9893068   0.05788341   -1.7061883   0.71688151  1070540 
 2655000    1.0002021   -1.7055649   -1.7055649  -0.98879722  0.064557968   -1.7055649   0.71676772  1070540 
 2656000   0.99920322    -1.705156    -1.705156  -0.98910412  0.057299188    -1.705156   0.71605192  1070540 
 2657000   0.99892892   -1.7052796   -1.7052796  -0.98942427  0.056549749   -1.7052796   0.71585536  1070540 
 2658000   0.99819738   -1.7048733   -1.7048733  -0.98954214  0.065514349   -1.7048733   0.71533112  1070540 
 2659000   0.99864743   -1.7053686   -1.7053686  -0.98971493  0.054390014   -1.7053686   0.71565364  1070540 
 2660000    0.9992999   -1.7060747   -1.7060747   -0.9899535  0.059412653   -1.7060747   0.71612121  1070540 
 2661000   0.99754158   -1.7048654   -1.7048654  -0.99000423  0.057088559   -1.7048654   0.71486116  1070540 
 2662000   0.99912203   -1.7058265   -1.7058265  -0.98983274  0.062144533   -1.7058265   0.71599375  1070540 
 2663000   0.99794383   -1.7049877   -1.7049877  -0.98983826  0.060027311   -1.7049877   0.71514942  1070540 
 2664000   0.99746936   -1.7045205   -1.7045205  -0.98971114  0.061044323   -1.7045205    0.7148094  1070540 
 2665000   0.99814439   -1.7049678   -1.7049678  -0.98967467  0.062923476   -1.7049678   0.71529315  1070540 
 2666000   0.99846094   -1.7050748   -1.7050748  -0.98955476  0.060638153   -1.7050748   0.71551999  1070540 
 2667000   0.99809618   -1.7054115   -1.7054115  -0.99015287  0.060033977   -1.7054115    0.7152586  1070540 
 2668000   0.99838792   -1.7059043   -1.7059043  -0.99043667  0.060878496   -1.7059043   0.71546767  1070540 
 2669000   0.99787318   -1.7049594   -1.7049594  -0.98986057  0.061208434   -1.7049594   0.71509879  1070540 
 2670000   0.99929879   -1.7054932   -1.7054932  -0.98937277  0.057691695   -1.7054932   0.71612042  1070540 
 2671000   0.99858664   -1.7051246   -1.7051246  -0.98951452  0.062188986   -1.7051246   0.71561008  1070540 
 2672000   0.99819634   -1.7047829   -1.7047829  -0.98945256    0.0661441   -1.7047829   0.71533037  1070540 
 2673000   0.99948694   -1.7054739   -1.7054739  -0.98921864  0.067376763   -1.7054739   0.71625525  1070540 
 2674000    1.0019513   -1.7070629   -1.7070629  -0.98904165  0.062365669   -1.7070629    0.7180213  1070540 
 2675000    1.0003682   -1.7058412   -1.7058412   -0.9889544  0.060502095   -1.7058412   0.71688677  1070540 
 2676000     1.000658   -1.7060469   -1.7060469  -0.98895248  0.066729226   -1.7060469   0.71709446  1070540 
 2677000    0.9999685   -1.7058449   -1.7058449  -0.98924457  0.057432544   -1.7058449   0.71660035  1070540 
 2678000    1.0004459    -1.706192    -1.706192  -0.98924955  0.063145717    -1.706192   0.71694245  1070540 
 2679000   0.99934811   -1.7055123   -1.7055123  -0.98935655  0.061312677   -1.7055123   0.71615576  1070540 
 2680000   0.99898489   -1.7052905   -1.7052905  -0.98939507  0.061886463   -1.7052905   0.71589547  1070540 
 2681000    1.0003901   -1.7063797   -1.7063797  -0.98947723  0.056921841   -1.7063797    0.7169025  1070540 
 2682000    0.9975888   -1.7046177   -1.7046177  -0.98972271  0.064659662   -1.7046177     0.714895  1070540 
 2683000   0.99768384   -1.7050345   -1.7050345  -0.99007142  0.060228795   -1.7050345   0.71496311  1070540 
 2684000   0.99833006   -1.7057675   -1.7057675  -0.99034125  0.059554036   -1.7057675    0.7154262  1070540 
 2685000   0.99938748   -1.7064228   -1.7064228  -0.99023885   0.04481403   -1.7064228   0.71618398  1070540 
 2686000    0.9992492   -1.7058013   -1.7058013  -0.98971646  0.054803426   -1.7058013   0.71608488  1070540 
 2687000   0.99836624   -1.7054382   -1.7054382   -0.9899861   0.05407698   -1.7054382   0.71545213  1070540 
 2688000   0.99991801   -1.7060336   -1.7060336  -0.98946947  0.065817969   -1.7060336   0.71656417  1070540 
 2689000   0.99984854   -1.7056058   -1.7056058  -0.98909141  0.061859484   -1.7056058   0.71651438  1070540 
 2690000   0.99904904   -1.7054017   -1.7054017  -0.98946025  0.058754251   -1.7054017   0.71594144  1070540 
 2691000    1.0002674   -1.7060381   -1.7060381  -0.98922354  0.063368656   -1.7060381   0.71681454  1070540 
 2692000    1.0002235   -1.7065678   -1.7065678  -0.98978475   0.05973776   -1.7065678   0.71678308  1070540 
 2693000   0.99926447   -1.7058233   -1.7058233  -0.98972749  0.072549117   -1.7058233   0.71609582  1070540 
 2694000   0.99994098   -1.7060205   -1.7060205  -0.98943992  0.062787697   -1.7060205   0.71658063  1070540 
 2695000   0.99878782   -1.7054139   -1.7054139  -0.98965969  0.055385856   -1.7054139   0.71575424  1070540 
 2696000    1.0007297   -1.7062655   -1.7062655  -0.98911965  0.058216489   -1.7062655   0.71714586  1070540 
 2697000    1.0007785   -1.7066282   -1.7066282  -0.98944739  0.058538357   -1.7066282   0.71718083  1070540 
 2698000   0.99963725   -1.7055498   -1.7055498  -0.98918688  0.056601909   -1.7055498   0.71636296  1070540 
 2699000   0.99968042   -1.7053775   -1.7053775  -0.98898364  0.058727815   -1.7053775    0.7163939  1070540 
 2700000    1.0009043   -1.7062303   -1.7062303  -0.98895929  0.057167544   -1.7062303   0.71727097  1070540 
 2701000    1.0000928    -1.705244    -1.705244  -0.98855459  0.058140998    -1.705244   0.71668939  1070540 
 2702000    1.0005397   -1.7053504   -1.7053504  -0.98834075  0.061552127   -1.7053504   0.71700966  1070540 
 2703000    1.0000339   -1.7051801   -1.7051801  -0.98853287  0.053623166   -1.7051801   0.71664719  1070540 
 2704000   0.99958958   -1.7051204   -1.7051204  -0.98879165  0.064703118   -1.7051204    0.7163288  1070540 
 2705000   0.99957177   -1.7051635   -1.7051635  -0.98884747  0.062297939   -1.7051635   0.71631604  1070540 
 2706000   0.99860087    -1.704218    -1.704218  -0.98859775  0.058512349    -1.704218   0.71562027  1070540 
 2707000   0.99972776   -1.7050567   -1.7050567  -0.98862891  0.057049299   -1.7050567   0.71642783  1070540 
 2708000    1.0001973   -1.7050933   -1.7050933  -0.98832906  0.054549976   -1.7050933   0.71676428  1070540 
 2709000    1.0006459   -1.7055533   -1.7055533  -0.98846755  0.056144319   -1.7055533   0.71708578  1070540 
 2710000    1.0000927   -1.7054348   -1.7054348  -0.98874548  0.059523207   -1.7054348   0.71668932  1070540 
 2711000   0.99871581   -1.7040934   -1.7040934  -0.98839075  0.052410126   -1.7040934   0.71570264  1070540 
 2712000   0.99862905   -1.7038667   -1.7038667   -0.9882262  0.056967656   -1.7038667   0.71564047  1070540 
 2713000   0.99921931   -1.7046135   -1.7046135  -0.98855003  0.055807571   -1.7046135   0.71606346  1070540 
 2714000   0.99901792   -1.7042594   -1.7042594  -0.98834026  0.056804339   -1.7042594   0.71591914  1070540 
 2715000    1.0005227   -1.7049961   -1.7049961  -0.98799858  0.061954826   -1.7049961   0.71699748  1070540 
 2716000    0.9998981   -1.7045092   -1.7045092  -0.98795931  0.057473676   -1.7045092    0.7165499  1070540 
 2717000    1.0006061   -1.7048249   -1.7048249  -0.98776763   0.06347947   -1.7048249    0.7170573  1070540 
 2718000   0.99934639   -1.7042297   -1.7042297  -0.98807515  0.057577944   -1.7042297   0.71615453  1070540 
 2719000    1.0002283   -1.7049742   -1.7049742   -0.9881877  0.061035123   -1.7049742   0.71678651  1070540 
 2720000    1.0008161    -1.705561    -1.705561  -0.98835331  0.059006061    -1.705561   0.71720773  1070540 
 2721000    1.0018242   -1.7059684   -1.7059684  -0.98803824  0.062179726   -1.7059684   0.71793016  1070540 
 2722000    1.0017981   -1.7059249   -1.7059249  -0.98801345  0.061460884   -1.7059249   0.71791149  1070540 
 2723000    1.0007572   -1.7049457   -1.7049457  -0.98778011  0.060416159   -1.7049457   0.71716557  1070540 
 2724000    1.0010406   -1.7052481   -1.7052481  -0.98787941  0.060630811   -1.7052481   0.71736867  1070540 
 2725000    1.0018537   -1.7060912   -1.7060912  -0.98813987  0.060542077   -1.7060912   0.71795133  1070540 
 2726000    1.0003233   -1.7049674   -1.7049674  -0.98811281  0.061662794   -1.7049674   0.71685461  1070540 
 2727000    1.0000503   -1.7050412   -1.7050412  -0.98838227  0.069143273   -1.7050412   0.71665894  1070540 
 2728000    0.9991373   -1.7046901   -1.7046901  -0.98868536  0.064733859   -1.7046901   0.71600469  1070540 
 2729000   0.99939685   -1.7050386   -1.7050386  -0.98884795  0.067112881   -1.7050386   0.71619069  1070540 
 2730000    1.0013748   -1.7062653   -1.7062653  -0.98865721  0.062717266   -1.7062653   0.71760813  1070540 
 2731000    1.0005993   -1.7056312   -1.7056312   -0.9885788  0.061460204   -1.7056312   0.71705242  1070540 
 2732000    0.9997805   -1.7053934   -1.7053934  -0.98892778  0.059359547   -1.7053934   0.71646562  1070540 
 2733000    1.0007845   -1.7056981   -1.7056981  -0.98851299  0.062433034   -1.7056981   0.71718509  1070540 
 2734000      1.00165   -1.7066438   -1.7066438  -0.98883845  0.056253443   -1.7066438   0.71780534  1070540 
 2735000    1.0007295   -1.7062801   -1.7062801  -0.98913441  0.057908813   -1.7062801   0.71714569  1070540 
 2736000   0.99914452   -1.7045561   -1.7045561  -0.98854625  0.065679845   -1.7045561   0.71600987  1070540 
 2737000   0.99973767   -1.7051371   -1.7051371  -0.98870217  0.055957555   -1.7051371   0.71643493  1070540 
 2738000   0.99837414   -1.7038123   -1.7038123  -0.98835448  0.061686457   -1.7038123   0.71545779  1070540 
 2739000   0.99943312   -1.7043478   -1.7043478  -0.98813112  0.060053074   -1.7043478   0.71621668  1070540 
 2740000   0.99894477   -1.7044206   -1.7044206  -0.98855385  0.063440247   -1.7044206   0.71586672  1070540 
 2741000   0.99895466   -1.7041715   -1.7041715  -0.98829774  0.058589659   -1.7041715   0.71587381  1070540 
 2742000   0.99917909   -1.7041825   -1.7041825  -0.98814784  0.056125394   -1.7041825   0.71603464  1070540 
 2743000   0.99968119   -1.7038597   -1.7038597  -0.98746529  0.065448596   -1.7038597   0.71639446  1070540 
 2744000    1.0002334   -1.7045259   -1.7045259  -0.98773571  0.053827523   -1.7045259   0.71679018  1070540 
 2745000   0.99960643    -1.703904    -1.703904  -0.98756316   0.05865097    -1.703904   0.71634088  1070540 
 2746000   0.99967774   -1.7037839   -1.7037839  -0.98739189  0.061371934   -1.7037839   0.71639198  1070540 
 2747000   0.99876038   -1.7028652   -1.7028652  -0.98713062  0.071691429   -1.7028652   0.71573458  1070540 
 2748000   0.99905633   -1.7031698   -1.7031698  -0.98722316   0.05796735   -1.7031698   0.71594666  1070540 
 2749000    0.9987803   -1.7031968   -1.7031968  -0.98744796  0.056857525   -1.7031968   0.71574885  1070540 
 2750000     0.999366   -1.7037903   -1.7037903  -0.98762174  0.064417537   -1.7037903   0.71616858  1070540 
 2751000   0.99954202   -1.7031996   -1.7031996  -0.98690484  0.051442933   -1.7031996   0.71629472  1070540 
 2752000   0.99895836    -1.703379    -1.703379  -0.98750259  0.063377668    -1.703379   0.71587646  1070540 
 2753000   0.99823907   -1.7033341   -1.7033341  -0.98797312  0.054890355   -1.7033341   0.71536099  1070540 
 2754000   0.99814048   -1.7029359   -1.7029359  -0.98764555   0.06693812   -1.7029359   0.71529035  1070540 
 2755000   0.99956381    -1.703896    -1.703896  -0.98758568  0.055642894    -1.703896   0.71631034  1070540 
 2756000   0.99781176   -1.7022368   -1.7022368  -0.98718201  0.059017806   -1.7022368   0.71505478  1070540 
 2757000   0.99993503   -1.7037836   -1.7037836  -0.98720729  0.050683957   -1.7037836   0.71657636  1070540 
 2758000   0.99849504   -1.7030929   -1.7030929  -0.98754843  0.060477217   -1.7030929   0.71554443  1070540 
 2759000   0.99784523   -1.7023503   -1.7023503  -0.98727152  0.061232267   -1.7023503   0.71507876  1070540 
 2760000   0.99791827   -1.7028305   -1.7028305  -0.98769942  0.062045242   -1.7028305    0.7151311  1070540 
 2761000    0.9994417   -1.7038167   -1.7038167   -0.9875939   0.05027907   -1.7038167   0.71622283  1070540 
 2762000   0.99904954   -1.7030009   -1.7030009  -0.98705913  0.060158786   -1.7030009   0.71594179  1070540 
 2763000   0.99948518   -1.7031896   -1.7031896  -0.98693564  0.060229488   -1.7031896   0.71625399  1070540 
 2764000    1.0006979   -1.7038642   -1.7038642  -0.98674116  0.056235244   -1.7038642   0.71712306  1070540 
 2765000   0.99920782   -1.7035745   -1.7035745  -0.98751925  0.047584159   -1.7035745   0.71605523  1070540 
 2766000   0.99832865    -1.703304    -1.703304  -0.98787882  0.064178909    -1.703304   0.71542519  1070540 
 2767000   0.99970904    -1.704099    -1.704099  -0.98768456  0.062370865    -1.704099   0.71641441  1070540 
 2768000   0.99952224   -1.7042227   -1.7042227  -0.98794217  0.058200917   -1.7042227   0.71628055  1070540 
 2769000   0.99803296   -1.7032462   -1.7032462  -0.98803289  0.062480542   -1.7032462   0.71521329  1070540 
 2770000    1.0008821   -1.7052432   -1.7052432  -0.98798809  0.063447762   -1.7052432   0.71725508  1070540 
 2771000   0.99856124   -1.7042083   -1.7042083  -0.98861646  0.060540844   -1.7042083   0.71559187  1070540 
 2772000    1.0002807   -1.7052505   -1.7052505  -0.98842643  0.052787179   -1.7052505   0.71682408  1070540 
 2773000    1.0006749   -1.7047034   -1.7047034  -0.98759687  0.060522565   -1.7047034   0.71710658  1070540 
 2774000    1.0005165   -1.7046295   -1.7046295  -0.98763647  0.059760982   -1.7046295   0.71699303  1070540 
 2775000    1.0018057   -1.7057525   -1.7057525  -0.98783554  0.062424721   -1.7057525   0.71791695  1070540 
 2776000    1.0008953   -1.7051687   -1.7051687  -0.98790413  0.058099727   -1.7051687   0.71726454  1070540 
 2777000    1.0012353   -1.7054693   -1.7054693  -0.98796109  0.064226641   -1.7054693   0.71750819  1070540 
 2778000    1.0017915   -1.7057892   -1.7057892  -0.98788245   0.06756313   -1.7057892   0.71790676  1070540 
 2779000    1.0008644   -1.7056129   -1.7056129  -0.98837047  0.063063889   -1.7056129   0.71724239  1070540 
 2780000    1.0015179   -1.7062653   -1.7062653  -0.98855461  0.064631574   -1.7062653   0.71771071  1070540 
 2781000    1.0019818   -1.7063827   -1.7063827   -0.9883396  0.064005555   -1.7063827   0.71804309  1070540 
 2782000    1.0003756   -1.7053944   -1.7053944  -0.98850232  0.062674659   -1.7053944   0.71689211  1070540 
 2783000    1.0011136   -1.7055143   -1.7055143  -0.98809333  0.058633117   -1.7055143   0.71742096  1070540 
 2784000    1.0016631   -1.7057494   -1.7057494  -0.98793466  0.057682583   -1.7057494   0.71781471  1070540 
 2785000    1.0014264   -1.7056937   -1.7056937  -0.98804866  0.062249428   -1.7056937   0.71764509  1070540 
 2786000    1.0012902    -1.705639    -1.705639  -0.98809149  0.063495911    -1.705639   0.71754747  1070540 
 2787000   0.99959008   -1.7044682   -1.7044682  -0.98813901  0.065471428   -1.7044682   0.71632916  1070540 
 2788000   0.99996466   -1.7047545   -1.7047545  -0.98815691  0.059212847   -1.7047545   0.71659759  1070540 
 2789000   0.99976902   -1.7044142   -1.7044142  -0.98795677  0.059303673   -1.7044142   0.71645739  1070540 
 2790000   0.99967877   -1.7045549   -1.7045549  -0.98816214  0.057799906   -1.7045549   0.71639272  1070540 
 2791000   0.99718968   -1.7031246   -1.7031246  -0.98851565  0.058224661   -1.7031246   0.71460898  1070540 
 2792000   0.99825912   -1.7034918   -1.7034918  -0.98811644  0.054869393   -1.7034918   0.71537537  1070540 
 2793000   0.99809097   -1.7035019   -1.7035019  -0.98824702  0.053625048   -1.7035019   0.71525486  1070540 
 2794000   0.99771599   -1.7030302   -1.7030302  -0.98804407  0.059333558   -1.7030302   0.71498614  1070540 
 2795000   0.99936398   -1.7040915   -1.7040915  -0.98792439  0.066422257   -1.7040915   0.71616714  1070540 
 2796000   0.99911989   -1.7040722   -1.7040722  -0.98807995  0.052655884   -1.7040722   0.71599221  1070540 
 2797000   0.99696503   -1.7022399   -1.7022399  -0.98779186  0.060647337   -1.7022399   0.71444799  1070540 
 2798000   0.99991785   -1.7042048   -1.7042048  -0.98764076  0.059206918   -1.7042048   0.71656405  1070540 
 2799000   0.99794493   -1.7026432   -1.7026432  -0.98749294  0.057589425   -1.7026432   0.71515021  1070540 
 2800000    1.0002863   -1.7040833   -1.7040833  -0.98725514  0.062415547   -1.7040833   0.71682812  1070540 
 2801000    0.9985298   -1.7027657   -1.7027657  -0.98719637  0.062926846   -1.7027657   0.71556934  1070540 
 2802000   0.99848578   -1.7026735   -1.7026735   -0.9871357  0.061636008   -1.7026735    0.7155378  1070540 
 2803000   0.99986332   -1.7031722   -1.7031722  -0.98664727  0.059694409   -1.7031722   0.71652497  1070540 
 2804000   0.99907744    -1.702471    -1.702471  -0.98650917  0.048788774    -1.702471   0.71596179  1070540 
 2805000    1.0007231    -1.703972    -1.703972  -0.98683087   0.04916859    -1.703972   0.71714109  1070540 
 2806000   0.99977903   -1.7035543   -1.7035543  -0.98708972  0.055043586   -1.7035543   0.71646456  1070540 
 2807000    1.0007678   -1.7037601   -1.7037601  -0.98658701  0.055862297   -1.7037601   0.71717312  1070540 
 2808000    1.0017304   -1.7043777   -1.7043777  -0.98651471  0.053002216   -1.7043777   0.71786299  1070540 
 2809000    1.0001286   -1.7036369   -1.7036369   -0.9869218  0.062606053   -1.7036369   0.71671509  1070540 
 2810000   0.99993724   -1.7031234   -1.7031234   -0.9865455  0.062877657   -1.7031234   0.71657794  1070540 
 2811000     1.001623   -1.7039734   -1.7039734  -0.98618733   0.05065467   -1.7039734   0.71778603  1070540 
 2812000    1.0017701   -1.7041362   -1.7041362   -0.9862448  0.060594413   -1.7041362   0.71789143  1070540 
 2813000    1.0008708   -1.7039781   -1.7039781  -0.98673114  0.065740813   -1.7039781   0.71724696  1070540 
 2814000   0.99988026   -1.7034252   -1.7034252  -0.98688804  0.053033866   -1.7034252   0.71653711  1070540 
 2815000     1.000736   -1.7039807   -1.7039807  -0.98683039  0.063582391   -1.7039807   0.71715034  1070540 
 2816000    1.0005539   -1.7043065   -1.7043065  -0.98728669  0.060537228   -1.7043065   0.71701983  1070540 
 2817000   0.99950924   -1.7038321   -1.7038321  -0.98756086  0.063299176   -1.7038321   0.71627123  1070540 
 2818000   0.99860762    -1.703338    -1.703338   -0.9877129  0.060058812    -1.703338   0.71562511  1070540 
 2819000   0.99980555   -1.7039813   -1.7039813   -0.9874977  0.065270894   -1.7039813   0.71648357  1070540 
 2820000    1.0003252   -1.7043188   -1.7043188  -0.98746286  0.055528281   -1.7043188   0.71685596  1070540 
 2821000   0.99891331   -1.7034377   -1.7034377  -0.98759355  0.064340397   -1.7034377   0.71584417  1070540 
 2822000   0.99834829   -1.7029704   -1.7029704  -0.98753118  0.057013465   -1.7029704   0.71543927  1070540 
 2823000   0.99857157   -1.7035549   -1.7035549  -0.98795561  0.060390169   -1.7035549   0.71559928  1070540 
 2824000   0.99894061   -1.7039236   -1.7039236   -0.9880599  0.063081479   -1.7039236   0.71586374  1070540 
 2825000   0.99983798   -1.7047044   -1.7047044   -0.9881976  0.056059568   -1.7047044   0.71650682  1070540 
 2826000   0.99833805   -1.7032492   -1.7032492  -0.98781725  0.059531252   -1.7032492   0.71543193  1070540 
 2827000   0.99786659    -1.703211    -1.703211  -0.98811692  0.064845247    -1.703211   0.71509407  1070540 
 2828000   0.99936243   -1.7042711   -1.7042711  -0.98810505  0.064653071   -1.7042711   0.71616602  1070540 
 2829000   0.99828004   -1.7031588   -1.7031588  -0.98776848  0.064762602   -1.7031588   0.71539036  1070540 
 2830000   0.99868552   -1.7034055   -1.7034055  -0.98772457  0.061847639   -1.7034055   0.71568093  1070540 
 2831000   0.99890664   -1.7033676   -1.7033676   -0.9875282  0.067293634   -1.7033676   0.71583939  1070540 
 2832000    1.0008552   -1.7042183   -1.7042183  -0.98698246  0.064995266   -1.7042183    0.7172358  1070540 
 2833000   0.99998565   -1.7041051   -1.7041051  -0.98749247  0.061467052   -1.7041051   0.71661263  1070540 
 2834000    1.0009214    -1.704899    -1.704899  -0.98761579  0.069536559    -1.704899   0.71728319  1070540 
 2835000    1.0002138   -1.7045888   -1.7045888  -0.98781265  0.058539714   -1.7045888   0.71677614  1070540 
 2836000    1.0002984   -1.7045656   -1.7045656  -0.98772883  0.062621609   -1.7045656   0.71683677  1070540 
 2837000    1.0008582   -1.7048941   -1.7048941  -0.98765616  0.064407787   -1.7048941   0.71723791  1070540 
 2838000   0.99975844    -1.703774    -1.703774  -0.98732423  0.063876232    -1.703774   0.71644982  1070540 
 2839000    1.0000836   -1.7041936   -1.7041936  -0.98751076  0.067326458   -1.7041936   0.71668282  1070540 
 2840000   0.99942727   -1.7041247   -1.7041247  -0.98791222  0.058070987   -1.7041247   0.71621248  1070540 
 2841000     1.000642    -1.704753    -1.704753  -0.98767006  0.060831842    -1.704753   0.71708296  1070540 
 2842000   0.99958867   -1.7044012   -1.7044012  -0.98807301  0.056559867   -1.7044012   0.71632815  1070540 
 2843000   0.99982587   -1.7045378   -1.7045378  -0.98803969   0.06687274   -1.7045378   0.71649813  1070540 
 2844000   0.99958076   -1.7043389   -1.7043389   -0.9880164  0.056438092   -1.7043389   0.71632248  1070540 
 2845000   0.99906878   -1.7036941   -1.7036941  -0.98773849  0.061347824   -1.7036941   0.71595558  1070540 
 2846000   0.99940303   -1.7042316   -1.7042316  -0.98803648  0.055925046   -1.7042316   0.71619512  1070540 
 2847000    0.9994718   -1.7041208   -1.7041208  -0.98787638  0.057962609   -1.7041208    0.7162444  1070540 
 2848000    1.0001886   -1.7045994   -1.7045994  -0.98784141  0.056936116   -1.7045994   0.71675804  1070540 
 2849000   0.99992697   -1.7045634   -1.7045634  -0.98799278  0.056919644   -1.7045634   0.71657058  1070540 
 2850000    0.9995336   -1.7041385   -1.7041385  -0.98784977  0.059459496   -1.7041385   0.71628868  1070540 
 2851000   0.99962446   -1.7042786   -1.7042786  -0.98792476  0.064401725   -1.7042786    0.7163538  1070540 
 2852000    1.0005577    -1.705612    -1.705612  -0.98858947  0.058518694    -1.705612   0.71702256  1070540 
 2853000    1.0009825   -1.7055993   -1.7055993  -0.98827224  0.063295461   -1.7055993   0.71732702  1070540 
 2854000   0.99880186   -1.7042996   -1.7042996  -0.98853529  0.055990721   -1.7042996    0.7157643  1070540 
 2855000   0.99923012   -1.7044837   -1.7044837  -0.98841254  0.049420586   -1.7044837    0.7160712  1070540 
 2856000    1.0000542   -1.7049359   -1.7049359  -0.98827419  0.055088133   -1.7049359   0.71666174  1070540 
 2857000    1.0012137   -1.7050351   -1.7050351   -0.9875424  0.056862554   -1.7050351   0.71749266  1070540 
 2858000   0.99916927   -1.7037019   -1.7037019  -0.98767427   0.06586647   -1.7037019    0.7160276  1070540 
 2859000    1.0002059   -1.7045204   -1.7045204   -0.9877499  0.057752079   -1.7045204   0.71677051  1070540 
 2860000    1.0006913   -1.7051754   -1.7051754  -0.98805709   0.05480565   -1.7051754    0.7171183  1070540 
 2861000    1.0004604   -1.7048829   -1.7048829  -0.98793007  0.059795542   -1.7048829   0.71695286  1070540 
 2862000    1.0000126   -1.7042177   -1.7042177  -0.98758575   0.06707054   -1.7042177   0.71663196  1070540 
 2863000   0.99953864   -1.7043257   -1.7043257  -0.98803345  0.067861653   -1.7043257    0.7162923  1070540 
 2864000    1.0010158   -1.7052768   -1.7052768   -0.9879259  0.061206641   -1.7052768   0.71735085  1070540 
 2865000    1.0006323   -1.7047202   -1.7047202   -0.9876442  0.064903725   -1.7047202   0.71707603  1070540 
 2866000     1.000993   -1.7048293   -1.7048293  -0.98749473  0.054492014   -1.7048293   0.71733455  1070540 
 2867000   0.99968995   -1.7036574   -1.7036574  -0.98725664  0.064650275   -1.7036574   0.71640073  1070540 
 2868000    1.0007372   -1.7043014   -1.7043014  -0.98715013  0.054729453   -1.7043014   0.71715124  1070540 
 2869000    1.0003661   -1.7041872   -1.7041872  -0.98730187  0.060786325   -1.7041872   0.71688531  1070540 
 2870000    1.0008212   -1.7044212   -1.7044212  -0.98720978   0.05769102   -1.7044212    0.7172114  1070540 
 2871000   0.99969587   -1.7038163   -1.7038163  -0.98741136   0.06418905   -1.7038163   0.71640498  1070540 
 2872000    1.0003968   -1.7037023   -1.7037023   -0.9867951  0.065890852   -1.7037023   0.71690724  1070540 
 2873000   0.99898481   -1.7031194   -1.7031194  -0.98722395  0.052643173   -1.7031194   0.71589541  1070540 
 2874000   0.99984747   -1.7034428   -1.7034428  -0.98692923  0.062666096   -1.7034428   0.71651361  1070540 
 2875000     1.001829    -1.704251    -1.704251  -0.98631744  0.058085352    -1.704251    0.7179336  1070540 
 2876000   0.99957171   -1.7031866   -1.7031866  -0.98687061  0.064305405   -1.7031866   0.71631599  1070540 
 2877000   0.99875982   -1.7031128   -1.7031128  -0.98737864  0.066967397   -1.7031128   0.71573418  1070540 
 2878000   0.99982812   -1.7038726   -1.7038726   -0.9873729  0.063742463   -1.7038726   0.71649974  1070540 
 2879000   0.99949921   -1.7035476   -1.7035476  -0.98728359  0.060777192   -1.7035476   0.71626404  1070540 
 2880000   0.99866046    -1.702719    -1.702719  -0.98705605  0.068715603    -1.702719   0.71566298  1070540 
 2881000   0.99937701   -1.7031448   -1.7031448  -0.98696835  0.058001842   -1.7031448   0.71617647  1070540 
 2882000    1.0001696    -1.703759    -1.703759  -0.98701451  0.056523279    -1.703759   0.71674445  1070540 
 2883000   0.99855777   -1.7024353   -1.7024353  -0.98684591  0.057147394   -1.7024353   0.71558939  1070540 
 2884000    0.9992008   -1.7029602   -1.7029602     -0.98691   0.05759065   -1.7029602   0.71605019  1070540 
 2885000    1.0001713   -1.7035168   -1.7035168  -0.98677111  0.064487922   -1.7035168   0.71674567  1070540 
 2886000   0.99872991    -1.702007    -1.702007  -0.98629427  0.069423895    -1.702007   0.71571274  1070540 
 2887000   0.99920423   -1.7027246   -1.7027246  -0.98667195  0.060141813   -1.7027246   0.71605265  1070540 
 2888000   0.99859203   -1.7021998   -1.7021998  -0.98658586  0.055247454   -1.7021998   0.71561394  1070540 
 2889000   0.99904137   -1.7024025   -1.7024025  -0.98646652  0.051377852   -1.7024025   0.71593594  1070540 
 2890000   0.99902945   -1.7023077   -1.7023077  -0.98638028  0.053435482   -1.7023077    0.7159274  1070540 
 2891000   0.99946092   -1.7024387   -1.7024387  -0.98620208  0.064413743   -1.7024387    0.7162366  1070540 
 2892000   0.99989324   -1.7028845   -1.7028845  -0.98633807  0.063538001   -1.7028845   0.71654641  1070540 
 2893000    1.0003027   -1.7028468   -1.7028468  -0.98600694  0.058251306   -1.7028468   0.71683983  1070540 
 2894000   0.99942035   -1.7024834   -1.7024834  -0.98627588  0.064011179   -1.7024834   0.71620753  1070540 
 2895000    1.0003621   -1.7032382   -1.7032382  -0.98635574  0.057339687   -1.7032382   0.71688243  1070540 
 2896000    1.0004198   -1.7032636   -1.7032636  -0.98633987  0.056149968   -1.7032636   0.71692373  1070540 
 2897000    1.0016452   -1.7037686   -1.7037686  -0.98596672  0.054930582   -1.7037686   0.71780189  1070540 
 2898000    1.0003727   -1.7034351   -1.7034351  -0.98654513  0.055300151   -1.7034351   0.71688999  1070540 
 2899000   0.99971494   -1.7027536   -1.7027536  -0.98633491  0.060555013   -1.7027536   0.71641864  1070540 
 2900000    1.0004365    -1.703181    -1.703181  -0.98624528  0.058082882    -1.703181   0.71693571  1070540 
 2901000   0.99939375   -1.7028054   -1.7028054  -0.98661695  0.065825639   -1.7028054   0.71618847  1070540 
 2902000   0.99947704   -1.7027539   -1.7027539   -0.9865057   0.05961619   -1.7027539   0.71624815  1070540 
 2903000   0.99987158   -1.7033122   -1.7033122  -0.98678132  0.063332167   -1.7033122   0.71653089  1070540 
 2904000    1.0001597   -1.7033499   -1.7033499  -0.98661252   0.06608816   -1.7033499   0.71673736  1070540 
 2905000    1.0013777    -1.704174    -1.704174  -0.98656375  0.065788006    -1.704174   0.71761023  1070540 
 2906000    1.0008688   -1.7035582   -1.7035582  -0.98631269  0.060789456   -1.7035582   0.71724554  1070540 
 2907000    1.0011297    -1.704537    -1.704537  -0.98710448  0.060088059    -1.704537    0.7174325  1070540 
 2908000    1.0007215   -1.7043006   -1.7043006  -0.98716066  0.057570429   -1.7043006   0.71713994  1070540 
 2909000   0.99887089    -1.703498    -1.703498  -0.98768425   0.06553302    -1.703498   0.71581377  1070540 
 2910000    0.9976786   -1.7023443   -1.7023443  -0.98738494  0.067327731   -1.7023443   0.71495935  1070540 
 2911000   0.99946398   -1.7036332   -1.7036332   -0.9873944  0.060296663   -1.7036332    0.7162388  1070540 
 2912000   0.99987861   -1.7039533   -1.7039533  -0.98741741  0.056825217   -1.7039533   0.71653593  1070540 
 2913000   0.99760416   -1.7027343   -1.7027343  -0.98782826  0.060364819   -1.7027343   0.71490601  1070540 
 2914000   0.99980765   -1.7038081   -1.7038081  -0.98732298  0.065530442   -1.7038081   0.71648507  1070540 
 2915000    1.0017015   -1.7053273   -1.7053273  -0.98748502  0.061576991   -1.7053273   0.71784228  1070540 
 2916000   0.99963023   -1.7038177   -1.7038177  -0.98745971  0.060227059   -1.7038177   0.71635794  1070540 
 2917000    1.0004345   -1.7040868   -1.7040868  -0.98715252   0.06272721   -1.7040868   0.71693429  1070540 
 2918000    1.0002122   -1.7039234   -1.7039234  -0.98714841  0.062805841   -1.7039234   0.71677499  1070540 
 2919000   0.99966137   -1.7036135   -1.7036135  -0.98723325  0.069835706   -1.7036135   0.71638025  1070540 
 2920000   0.99907826   -1.7027989   -1.7027989  -0.98683656  0.062587493   -1.7027989   0.71596238  1070540 
 2921000   0.99952446   -1.7031082   -1.7031082   -0.9868261  0.058493115   -1.7031082   0.71628214  1070540 
 2922000    1.0001688   -1.7033867   -1.7033867   -0.9866428  0.063345238   -1.7033867   0.71674389  1070540 
 2923000    1.0003304   -1.7036514   -1.7036514  -0.98679169  0.066968004   -1.7036514    0.7168597  1070540 
 2924000    1.0002517   -1.7033548   -1.7033548  -0.98655148  0.062811386   -1.7033548   0.71680329  1070540 
 2925000    1.0003533   -1.7038688   -1.7038688  -0.98699269  0.058160534   -1.7038688   0.71687609  1070540 
 2926000    1.0004763   -1.7037058   -1.7037058  -0.98674161  0.057819738   -1.7037058   0.71696422  1070540 
 2927000    1.0008784    -1.703796    -1.703796  -0.98654362  0.061198396    -1.703796   0.71725242  1070540 
 2928000    1.0012538   -1.7038056   -1.7038056  -0.98628422  0.058273444   -1.7038056   0.71752141  1070540 
 2929000    1.0003516   -1.7032546   -1.7032546  -0.98637971  0.057470844   -1.7032546   0.71687485  1070540 
 2930000    1.0001804   -1.7031576   -1.7031576  -0.98640541  0.066203574   -1.7031576   0.71675217  1070540 
 2931000     1.000778   -1.7035811   -1.7035811  -0.98640066   0.06229805   -1.7035811   0.71718042  1070540 
 2932000    1.0002191   -1.7032945   -1.7032945  -0.98651462   0.05746948   -1.7032945   0.71677993  1070540 
 2933000   0.99840587   -1.7022235   -1.7022235  -0.98674297  0.062772414   -1.7022235   0.71548053  1070540 
 2934000   0.99898337   -1.7027621   -1.7027621  -0.98686772  0.050855341   -1.7027621   0.71589438  1070540 
 2935000   0.99977521   -1.7029605   -1.7029605  -0.98649872  0.060788478   -1.7029605   0.71646183  1070540 
 2936000   0.99962695   -1.7031889   -1.7031889  -0.98683332  0.059130462   -1.7031889   0.71635558  1070540 
 2937000    1.0009942   -1.7038366   -1.7038366  -0.98650122  0.057083337   -1.7038366   0.71733541  1070540 
 2938000    1.0002203    -1.703233    -1.703233  -0.98645223  0.063992195    -1.703233   0.71678082  1070540 
 2939000   0.99984945   -1.7032347   -1.7032347  -0.98671971   0.05899793   -1.7032347   0.71651503  1070540 
 2940000   0.99835822   -1.7018398   -1.7018398  -0.98639338  0.058952888   -1.7018398   0.71544638  1070540 
 2941000   0.99999675   -1.7028387   -1.7028387  -0.98621807  0.067011453   -1.7028387   0.71662059  1070540 
 2942000    1.0003177   -1.7032499   -1.7032499  -0.98639931  0.056049725   -1.7032499   0.71685058  1070540 
 2943000    1.0007949   -1.7033982   -1.7033982  -0.98620558  0.052288621   -1.7033982   0.71719258  1070540 
 2944000   0.99974887   -1.7030897   -1.7030897  -0.98664679  0.062296861   -1.7030897   0.71644295  1070540 
 2945000   0.99933787   -1.7029873   -1.7029873   -0.9868389  0.061105446   -1.7029873   0.71614842  1070540 
 2946000   0.99876182   -1.7024481   -1.7024481   -0.9867125  0.060324206   -1.7024481   0.71573561  1070540 
 2947000   0.99792088   -1.7017398   -1.7017398  -0.98660684  0.061345767   -1.7017398   0.71513298  1070540 
 2948000    1.0013507   -1.7039819   -1.7039819  -0.98639111  0.056327244   -1.7039819   0.71759084  1070540 
 2949000    1.0009352   -1.7038447   -1.7038447  -0.98655166  0.058171992   -1.7038447   0.71729309  1070540 
 2950000   0.99965366   -1.7024785   -1.7024785  -0.98610382  0.067814926   -1.7024785   0.71637472  1070540 
 2951000   0.99968582   -1.7022228   -1.7022228  -0.98582504  0.063021097   -1.7022228   0.71639777  1070540 
 2952000    1.0004163   -1.7028384   -1.7028384  -0.98591716  0.054662179   -1.7028384   0.71692124  1070540 
 2953000    1.0008403    -1.703845    -1.703845  -0.98661994  0.061806675    -1.703845   0.71722509  1070540 
 2954000   0.99915852   -1.7026705   -1.7026705  -0.98665058  0.059212446   -1.7026705   0.71601989  1070540 
 2955000   0.99941317   -1.7027322   -1.7027322  -0.98652979  0.069454344   -1.7027322   0.71620238  1070540 
 2956000   0.99992147    -1.703421    -1.703421  -0.98685432  0.064172956    -1.703421   0.71656664  1070540 
 2957000   0.99982788   -1.7033096   -1.7033096     -0.98681  0.057934164   -1.7033096   0.71649958  1070540 
 2958000    1.0004691   -1.7038845   -1.7038845  -0.98692537  0.050030404   -1.7038845    0.7169591  1070540 
 2959000    1.0003161   -1.7036755   -1.7036755  -0.98682603  0.057588933   -1.7036755   0.71684948  1070540 
 2960000    1.0000228   -1.7037386   -1.7037386  -0.98709935    0.0612713   -1.7037386   0.71663924  1070540 
 2961000    1.0003541   -1.7040079   -1.7040079  -0.98713119  0.061237556   -1.7040079   0.71687668  1070540 
 2962000   0.99963319   -1.7035274   -1.7035274  -0.98716732   0.06327463   -1.7035274   0.71636005  1070540 
 2963000    1.0003148   -1.7042412   -1.7042412  -0.98739276  0.059549873   -1.7042412   0.71684848  1070540 
 2964000   0.99969243   -1.7033916   -1.7033916   -0.9869891  0.061332123   -1.7033916   0.71640251  1070540 
 2965000    0.9994475   -1.7030137   -1.7030137  -0.98678673  0.066978691   -1.7030137   0.71622699  1070540 
 2966000    1.0010445   -1.7044598   -1.7044598  -0.98708832  0.062589875   -1.7044598   0.71737144  1070540 
 2967000    1.0026683   -1.7052784   -1.7052784  -0.98674327  0.059546554   -1.7052784    0.7185351  1070540 
 2968000   0.99923881   -1.7025603   -1.7025603  -0.98648282  0.068805711   -1.7025603   0.71607743  1070540 
 2969000    1.0017783   -1.7045035   -1.7045035  -0.98660621  0.053890193   -1.7045035   0.71789728  1070540 
 2970000    1.0013749   -1.7038709   -1.7038709  -0.98626266  0.057286007   -1.7038709   0.71760824  1070540 
 2971000    1.0021853   -1.7044523   -1.7044523  -0.98626336  0.067111059   -1.7044523   0.71818896  1070540 
 2972000    1.0029018   -1.7047861   -1.7047861  -0.98608363  0.066609282   -1.7047861   0.71870242  1070540 
 2973000     1.001633   -1.7038321   -1.7038321  -0.98603887  0.063659261   -1.7038321   0.71779319  1070540 
 2974000    1.0015421   -1.7038795   -1.7038795  -0.98615148  0.060757462   -1.7038795   0.71772803  1070540 
 2975000    1.0015725   -1.7040292   -1.7040292  -0.98627941  0.057994134   -1.7040292   0.71774984  1070540 
 2976000    1.0006169   -1.7032377   -1.7032377  -0.98617271   0.06247878   -1.7032377   0.71706501  1070540 
 2977000   0.99906735   -1.7022522   -1.7022522  -0.98629762  0.058857163   -1.7022522   0.71595456  1070540 
 2978000   0.99890675   -1.7016937   -1.7016937  -0.98585418  0.062879608   -1.7016937   0.71583947  1070540 
 2979000   0.99964077   -1.7023454   -1.7023454  -0.98597995  0.055836977   -1.7023454   0.71636549  1070540 
 2980000    1.0002888   -1.7023697   -1.7023697  -0.98553983  0.063607237   -1.7023697   0.71682986  1070540 
 2981000   0.99965267   -1.7023513   -1.7023513  -0.98597729  0.059485466   -1.7023513   0.71637401  1070540 
 2982000   0.99915457   -1.7019692   -1.7019692  -0.98595213  0.054605954   -1.7019692   0.71601706  1070540 
 2983000   0.99959095    -1.702156    -1.702156  -0.98582622  0.055390483    -1.702156   0.71632978  1070540 
 2984000   0.99870025   -1.7014205   -1.7014205  -0.98572902  0.055256774   -1.7014205   0.71569149  1070540 
 2985000   0.99997005   -1.7020081   -1.7020081   -0.9854066  0.065112798   -1.7020081   0.71660146  1070540 
 2986000   0.99923795   -1.7017044   -1.7017044  -0.98562763  0.059172398   -1.7017044   0.71607682  1070540 
 2987000   0.99838928   -1.7011416   -1.7011416  -0.98567292  0.057741126   -1.7011416   0.71546864  1070540 
 2988000   0.99871211   -1.7013169   -1.7013169  -0.98561696  0.061991821   -1.7013169   0.71569999  1070540 
 2989000    1.0002524   -1.7017642   -1.7017642  -0.98496042  0.052496773   -1.7017642   0.71680383  1070540 
 2990000    1.0002136    -1.701916    -1.701916  -0.98514005  0.056691494    -1.701916   0.71677598  1070540 
 2991000    1.0000253    -1.702869    -1.702869   -0.9862279  0.062405519    -1.702869   0.71664108  1070540 
 2992000   0.99955486   -1.7020732   -1.7020732  -0.98576931  0.061674798   -1.7020732   0.71630392  1070540 
 2993000      1.00121   -1.7028807   -1.7028807  -0.98539065  0.068682468   -1.7028807   0.71749005  1070540 
 2994000    1.0013201   -1.7029353   -1.7029353  -0.98536641  0.056743105   -1.7029353   0.71756891  1070540 
 2995000    1.0003956   -1.7020526   -1.7020526  -0.98514622  0.057102261   -1.7020526   0.71690641  1070540 
 2996000    1.0014041   -1.7027496   -1.7027496  -0.98512045  0.060910945   -1.7027496   0.71762915  1070540 
 2997000    1.0018914   -1.7029263   -1.7029263  -0.98494794  0.060541463   -1.7029263   0.71797834  1070540 
 2998000    1.0014225   -1.7026249   -1.7026249  -0.98498257  0.058952183   -1.7026249   0.71764228  1070540 
 2999000    1.0007176   -1.7026749   -1.7026749  -0.98553771  0.060091139   -1.7026749   0.71713719  1070540 
 3000000    1.0019428   -1.7029748   -1.7029748  -0.98495962  0.052006217   -1.7029748   0.71801518  1070540 
 3001000    1.0014103   -1.7031265   -1.7031265  -0.98549293  0.059828183   -1.7031265    0.7176336  1070540 
 3002000     1.000286   -1.7020401   -1.7020401  -0.98521219  0.067781226   -1.7020401   0.71682789  1070540 
 3003000    1.0000669   -1.7020376   -1.7020376  -0.98536671  0.068491283   -1.7020376   0.71667086  1070540 
 3004000    1.0011157   -1.7024329   -1.7024329  -0.98501043  0.061758097   -1.7024329   0.71742247  1070540 
 3005000    1.0006266   -1.7022108   -1.7022108  -0.98513885  0.062846619   -1.7022108   0.71707194  1070540 
 3006000   0.99941854   -1.7013949   -1.7013949  -0.98518865  0.065861735   -1.7013949   0.71620623  1070540 
 3007000     1.000579   -1.7023335   -1.7023335  -0.98529567  0.054062317   -1.7023335   0.71703781  1070540 
 3008000     1.001183   -1.7028524   -1.7028524  -0.98538165  0.058664713   -1.7028524   0.71747071  1070540 
 3009000    1.0006808   -1.7023416   -1.7023416  -0.98523083    0.0587913   -1.7023416   0.71711076  1070540 
 3010000    1.0022379   -1.7033554   -1.7033554  -0.98512873  0.059122069   -1.7033554   0.71822665  1070540 
 3011000    1.0008151   -1.7029119   -1.7029119  -0.98570485  0.063964132   -1.7029119     0.717207  1070540 
 3012000    1.0006448    -1.702607    -1.702607  -0.98552195  0.063932873    -1.702607   0.71708501  1070540 
 3013000    1.0007135   -1.7031712   -1.7031712  -0.98603705  0.075726087   -1.7031712    0.7171342  1070540 
 3014000   0.99992465   -1.7026512   -1.7026512  -0.98608233   0.06101128   -1.7026512   0.71656892  1070540 
 3015000   0.99919026   -1.7019183   -1.7019183  -0.98587562  0.057994887   -1.7019183   0.71604264  1070540 
 3016000   0.99925355   -1.7017738   -1.7017738  -0.98568583  0.054228066   -1.7017738   0.71608799  1070540 
 3017000   0.99835888    -1.701156    -1.701156  -0.98570917  0.062181503    -1.701156   0.71544686  1070540 
 3018000   0.99952499   -1.7017712   -1.7017712  -0.98548865  0.059476097   -1.7017712   0.71628252  1070540 
 3019000   0.99838602       -1.701       -1.701  -0.98553369  0.054933531       -1.701    0.7154663  1070540 
 3020000   0.99949207   -1.7016509   -1.7016509  -0.98539198  0.054658538   -1.7016509   0.71625892  1070540 
 3021000   0.99988657   -1.7023588   -1.7023588  -0.98581715  0.055640123   -1.7023588   0.71654163  1070540 
 3022000   0.99967737   -1.7017786   -1.7017786  -0.98538685  0.056042548   -1.7017786   0.71639172  1070540 
 3023000     1.000674   -1.7019472   -1.7019472  -0.98484124  0.058922273   -1.7019472   0.71710593  1070540 
 3024000   0.99992064   -1.7019656   -1.7019656  -0.98539952  0.061155706   -1.7019656   0.71656605  1070540 
 3025000   0.99892948   -1.7011846   -1.7011846  -0.98532882  0.054065659   -1.7011846   0.71585576  1070540 
 3026000    1.0013804    -1.702769    -1.702769  -0.98515687  0.063133015    -1.702769   0.71761217  1070540 
 3027000   0.99861716   -1.7011706   -1.7011706  -0.98553866  0.063531529   -1.7011706   0.71563194  1070540 
 3028000   0.99957827   -1.7018513   -1.7018513  -0.98553056  0.057343198   -1.7018513    0.7163207  1070540 
 3029000   0.99956225   -1.7019278   -1.7019278  -0.98561858   0.05361278   -1.7019278   0.71630922  1070540 
 3030000   0.99941978   -1.7016216   -1.7016216  -0.98541446  0.060087407   -1.7016216   0.71620712  1070540 
 3031000   0.99926544   -1.7014304   -1.7014304  -0.98533384  0.065567206   -1.7014304   0.71609652  1070540 
 3032000    1.0003814   -1.7026953   -1.7026953  -0.98579901  0.061857628   -1.7026953   0.71689626  1070540 
 3033000   0.99990636   -1.7021282   -1.7021282  -0.98557242  0.058127144   -1.7021282   0.71655581  1070540 
 3034000    1.0005972    -1.702808    -1.702808  -0.98575716  0.061301049    -1.702808   0.71705085  1070540 
 3035000      1.00019   -1.7024366   -1.7024366  -0.98567754  0.058655714   -1.7024366   0.71675908  1070540 
 3036000    1.0022156   -1.7037529   -1.7037529  -0.98554225  0.055671607   -1.7037529    0.7182107  1070540 
 3037000    1.0010385   -1.7030242   -1.7030242    -0.985657  0.062506611   -1.7030242   0.71736716  1070540 
 3038000   0.99879324    -1.701186    -1.701186   -0.9854279  0.062266066    -1.701186   0.71575813  1070540 
 3039000    1.0007339   -1.7024771   -1.7024771  -0.98532825  0.062800924   -1.7024771   0.71714886  1070540 
 3040000    1.0012158   -1.7028854   -1.7028854  -0.98539118  0.061533052   -1.7028854   0.71749417  1070540 
 3041000    1.0023187   -1.7036721   -1.7036721  -0.98538753  0.051392299   -1.7036721   0.71828459  1070540 
 3042000    1.0020602   -1.7038402   -1.7038402  -0.98574091  0.067223847   -1.7038402   0.71809931  1070540 
 3043000    1.0005859   -1.7029241   -1.7029241  -0.98588128  0.070255877   -1.7029241   0.71704281  1070540 
 3044000    1.0019524   -1.7039744   -1.7039744  -0.98595234  0.056288868   -1.7039744   0.71802207  1070540 
 3045000    1.0007499   -1.7032534   -1.7032534  -0.98609309  0.061390294   -1.7032534    0.7171603  1070540 
 3046000    1.0019465   -1.7038807   -1.7038807  -0.98586287  0.068987856   -1.7038807   0.71801784  1070540 
 3047000    1.0006116   -1.7032614   -1.7032614  -0.98620018  0.064375204   -1.7032614   0.71706121  1070540 
 3048000    1.0010848   -1.7034842   -1.7034842  -0.98608394  0.064151068   -1.7034842    0.7174003  1070540 
 3049000    1.0016268    -1.703549    -1.703549  -0.98576029  0.063854835    -1.703549   0.71778871  1070540 
 3050000    1.0000269    -1.703127    -1.703127  -0.98648484  0.065128782    -1.703127   0.71664217  1070540 
 3051000     1.000148   -1.7032454   -1.7032454  -0.98651643  0.062773124   -1.7032454   0.71672899  1070540 
 3052000    1.0011357   -1.7035355   -1.7035355  -0.98609875    0.0597943   -1.7035355    0.7174368  1070540 
 3053000   0.99922092   -1.7021485   -1.7021485  -0.98608392  0.061499146   -1.7021485   0.71606462  1070540 
 3054000   0.99989111   -1.7025594   -1.7025594  -0.98601453  0.062404369   -1.7025594   0.71654489  1070540 
 3055000   0.99915356   -1.7026456   -1.7026456  -0.98662928  0.058980466   -1.7026456   0.71601634  1070540 
 3056000    1.0003725   -1.7034622   -1.7034622  -0.98657236  0.059925898   -1.7034622   0.71688983  1070540 
 3057000    1.0000786   -1.7031279   -1.7031279   -0.9864487  0.059977048   -1.7031279   0.71667925  1070540 
 3058000     0.998087   -1.7018545   -1.7018545  -0.98660244   0.06033287   -1.7018545   0.71525202  1070540 
 3059000    1.0005912   -1.7033618   -1.7033618  -0.98631518  0.061287405   -1.7033618   0.71704658  1070540 
 3060000   0.99970371   -1.7025056   -1.7025056  -0.98609499   0.05787539   -1.7025056   0.71641059  1070540 
 3061000   0.99964352   -1.7024076   -1.7024076  -0.98604012   0.05966646   -1.7024076   0.71636746  1070540 
 3062000   0.99922191   -1.7022078   -1.7022078  -0.98614243  0.061022251   -1.7022078   0.71606532  1070540 
 3063000   0.99976983   -1.7024412   -1.7024412  -0.98598324  0.061205318   -1.7024412   0.71645798  1070540 
 3064000    1.0004516   -1.7026873   -1.7026873  -0.98574079  0.060778386   -1.7026873   0.71694654  1070540 
 3065000    1.0015054   -1.7029186   -1.7029186  -0.98521684   0.05906478   -1.7029186   0.71770173  1070540 
 3066000    1.0024842   -1.7034003   -1.7034003  -0.98499719  0.052985042   -1.7034003   0.71840313  1070540 
 3067000    1.0011213   -1.7027097   -1.7027097   -0.9852832  0.057503396   -1.7027097   0.71742647  1070540 
 3068000   0.99971322   -1.7018066   -1.7018066  -0.98538916  0.067625082   -1.7018066   0.71641741  1070540 
 3069000    1.0011225   -1.7025746   -1.7025746  -0.98514733  0.061408623   -1.7025746   0.71742732  1070540 
 3070000   0.99868351   -1.7010077   -1.7010077  -0.98532817  0.065479249   -1.7010077   0.71567949  1070540 
 3071000       1.0003   -1.7018888   -1.7018888  -0.98505094  0.062192018   -1.7018888   0.71683787  1070540 
 3072000     1.000557   -1.7022387   -1.7022387  -0.98521667  0.060453625   -1.7022387   0.71702205  1070540 
 3073000   0.99982411   -1.7018695   -1.7018695  -0.98537268  0.059692197   -1.7018695   0.71649687  1070540 
 3074000   0.99975593   -1.7019197   -1.7019197   -0.9854717  0.068406131   -1.7019197   0.71644801  1070540 
 3075000   0.99921757   -1.7015217   -1.7015217  -0.98545953  0.060369277   -1.7015217   0.71606221  1070540 
 3076000   0.99997075   -1.7024665   -1.7024665  -0.98586452  0.065898528   -1.7024665   0.71660196  1070540 
 3077000    1.0003045   -1.7021289   -1.7021289  -0.98528778  0.057447173   -1.7021289   0.71684115  1070540 
 3078000    1.0003562   -1.7018843   -1.7018843  -0.98500613  0.061973739   -1.7018843   0.71687817  1070540 
 3079000    1.0000884   -1.7021969   -1.7021969  -0.98551067  0.063865598   -1.7021969   0.71668624  1070540 
 3080000    1.0002568   -1.7024287   -1.7024287  -0.98562168  0.073383833   -1.7024287   0.71680697  1070540 
 3081000   0.99918633   -1.7015186   -1.7015186  -0.98547876  0.062147077   -1.7015186   0.71603982  1070540 
 3082000   0.99977848   -1.7018956   -1.7018956  -0.98543139    0.0630353   -1.7018956   0.71646417  1070540 
 3083000   0.99971907   -1.7020971   -1.7020971   -0.9856755  0.062868407   -1.7020971    0.7164216  1070540 
 3084000   0.99945547   -1.7015441   -1.7015441  -0.98531141  0.057356584   -1.7015441    0.7162327  1070540 
 3085000    1.0005013   -1.7023571   -1.7023571  -0.98537495   0.05717653   -1.7023571   0.71698218  1070540 
 3086000    1.0004943   -1.7024936   -1.7024936  -0.98551644  0.062798132   -1.7024936   0.71697711  1070540 
 3087000    1.0016628   -1.7030374   -1.7030374  -0.98522288  0.060396653   -1.7030374   0.71781455  1070540 
 3088000    1.0011615   -1.7030983   -1.7030983  -0.98564301  0.064747008   -1.7030983   0.71745528  1070540 
 3089000   0.99986852   -1.7022468   -1.7022468  -0.98571806  0.059819947   -1.7022468    0.7165287  1070540 
 3090000    1.0004302   -1.7027034   -1.7027034  -0.98577225  0.067395401   -1.7027034   0.71693119  1070540 
 3091000    1.0004252   -1.7031981   -1.7031981  -0.98627041  0.058692301   -1.7031981   0.71692764  1070540 
 3092000   0.99971693   -1.7028087   -1.7028087  -0.98638866  0.061893921   -1.7028087   0.71642006  1070540 
 3093000    1.0014103   -1.7038575   -1.7038575  -0.98622398  0.060956284   -1.7038575   0.71763355  1070540 
 3094000    1.0016388   -1.7039066   -1.7039066  -0.98610935  0.060742245   -1.7039066    0.7177973  1070540 
 3095000    1.0005565    -1.702731    -1.702731  -0.98570924  0.061258425    -1.702731   0.71702172  1070540 
 3096000    1.0010082   -1.7032384   -1.7032384  -0.98589299  0.062237887   -1.7032384   0.71734543  1070540 
 3097000    1.0014448   -1.7035869   -1.7035869  -0.98592855  0.064966411   -1.7035869    0.7176583  1070540 
 3098000    1.0025633   -1.7047225   -1.7047225  -0.98626269   0.05827549   -1.7047225   0.71845983  1070540 
 3099000    1.0008329   -1.7035016   -1.7035016  -0.98628177  0.067074211   -1.7035016   0.71721979  1070540 
 3100000    1.0009092   -1.7035647   -1.7035647  -0.98629024  0.062692148   -1.7035647   0.71727447  1070540 
 3101000    1.0027404   -1.7047612   -1.7047612  -0.98617445  0.056951388   -1.7047612   0.71858676  1070540 
 3102000    1.0010305   -1.7032138   -1.7032138  -0.98585237  0.063894821   -1.7032138   0.71736139  1070540 
 3103000    1.0009124   -1.7036334   -1.7036334   -0.9863566  0.061263586   -1.7036334   0.71727676  1070540 
 3104000   0.99995642   -1.7027958   -1.7027958  -0.98620411  0.058421537   -1.7027958   0.71659169  1070540 
 3105000   0.99943734   -1.7029475   -1.7029475  -0.98672776  0.067954273   -1.7029475    0.7162197  1070540 
 3106000    1.0001367   -1.7030442   -1.7030442  -0.98632329  0.056879889   -1.7030442   0.71672088  1070540 
 3107000     1.001017   -1.7034566   -1.7034566  -0.98610493  0.062750051   -1.7034566   0.71735171  1070540 
 3108000    1.0017934    -1.703629    -1.703629  -0.98572095  0.063504895    -1.703629   0.71790808  1070540 
 3109000    1.0024901   -1.7041588   -1.7041588  -0.98575135  0.060782511   -1.7041588   0.71840741  1070540 
 3110000    1.0004927   -1.7029719   -1.7029719  -0.98599594  0.063481265   -1.7029719   0.71697598  1070540 
 3111000    1.0008881   -1.7028662   -1.7028662  -0.98560688  0.065842351   -1.7028662   0.71725935  1070540 
 3112000    1.0016972   -1.7034653   -1.7034653  -0.98562614  0.065158373   -1.7034653   0.71783916  1070540 
 3113000    1.0020953   -1.7037412   -1.7037412  -0.98561669  0.052057318   -1.7037412   0.71812447  1070540 
 3114000    1.0015299   -1.7033815   -1.7033815  -0.98566224  0.062198373   -1.7033815   0.71771929  1070540 
 3115000    1.0016066   -1.7030617   -1.7030617   -0.9852875  0.064296505   -1.7030617   0.71777421  1070540 
 3116000    1.0010672   -1.7024065   -1.7024065  -0.98501881  0.054346259   -1.7024065   0.71738769  1070540 
 3117000   0.99980393   -1.7012508   -1.7012508  -0.98476843  0.062740499   -1.7012508   0.71648241  1070540 
 3118000   0.99826958   -1.7005713   -1.7005713  -0.98518847  0.069590765   -1.7005713   0.71538286  1070540 
 3119000    1.0004351   -1.7024115   -1.7024115  -0.98547681  0.061539148   -1.7024115   0.71693471  1070540 
 3120000    1.0006194    -1.702389    -1.702389  -0.98532218  0.057248695    -1.702389    0.7170668  1070540 
 3121000   0.99957824    -1.701301    -1.701301  -0.98498029  0.061027597    -1.701301   0.71632068  1070540 
 3122000    0.9995522    -1.701017    -1.701017    -0.984715  0.059359099    -1.701017   0.71630201  1070540 
 3123000   0.99986859   -1.7013917   -1.7013917  -0.98486298  0.062763995   -1.7013917   0.71652875  1070540 
 3124000   0.99988823   -1.7012388   -1.7012388  -0.98469594  0.059446859   -1.7012388   0.71654282  1070540 
 3125000    1.0000924   -1.7009407   -1.7009407  -0.98425153  0.061940182   -1.7009407   0.71668916  1070540 
 3126000      1.00018    -1.701056    -1.701056  -0.98430408  0.057269359    -1.701056   0.71675189  1070540 
 3127000    1.0003042   -1.7012983   -1.7012983  -0.98445737  0.067625608   -1.7012983    0.7168409  1070540 
 3128000   0.99924338    -1.700067    -1.700067  -0.98398629  0.065768457    -1.700067   0.71608071  1070540 
 3129000   0.99936988    -1.700387    -1.700387  -0.98421568  0.064390054    -1.700387   0.71617136  1070540 
 3130000    1.0012773   -1.7014201   -1.7014201  -0.98388179  0.061106161   -1.7014201   0.71753829  1070540 
 3131000     1.001495   -1.7011204   -1.7011204  -0.98342612  0.059047127   -1.7011204    0.7176943  1070540 
 3132000    1.0013084    -1.700976    -1.700976  -0.98341544  0.065777982    -1.700976   0.71756053  1070540 
 3133000    1.0006205   -1.7009275   -1.7009275  -0.98385994  0.066325089   -1.7009275   0.71706759  1070540 
 3134000    1.0001955    -1.700446    -1.700446  -0.98368296  0.067214214    -1.700446     0.716763  1070540 
 3135000     1.000848   -1.7011049   -1.7011049  -0.98387432  0.065560052   -1.7011049   0.71723058  1070540 
 3136000    1.0014766   -1.7015565   -1.7015565  -0.98387536  0.061155928   -1.7015565   0.71768112  1070540 
 3137000    1.0001817   -1.7006556   -1.7006556  -0.98390244  0.062280883   -1.7006556   0.71675316  1070540 
 3138000    1.0016192   -1.7015718   -1.7015718  -0.98378849  0.061045845   -1.7015718   0.71778331  1070540 
 3139000    1.0009032   -1.7013863   -1.7013863  -0.98411613  0.052774688   -1.7013863   0.71727015  1070540 
 3140000    1.0007549   -1.7014679   -1.7014679  -0.98430398  0.069545214   -1.7014679    0.7171639  1070540 
 3141000    1.0022042   -1.7021749   -1.7021749  -0.98397244  0.058862539   -1.7021749   0.71820248  1070540 
 3142000    1.0015392   -1.7020855   -1.7020855  -0.98435953  0.061810027   -1.7020855   0.71772594  1070540 
 3143000    1.0016614   -1.7022533   -1.7022533  -0.98443978  0.059467362   -1.7022533    0.7178135  1070540 
 3144000    1.0021925   -1.7026533   -1.7026533  -0.98445915  0.060726495   -1.7026533   0.71819412  1070540 
 3145000    1.0032486   -1.7030094   -1.7030094  -0.98405844  0.069703478   -1.7030094   0.71895093  1070540 
 3146000    1.0038951   -1.7035558   -1.7035558  -0.98414163  0.060022826   -1.7035558   0.71941422  1070540 
 3147000    1.0009695   -1.7013799   -1.7013799  -0.98406225  0.073374789   -1.7013799   0.71731767  1070540 
 3148000    1.0024359     -1.70231     -1.70231  -0.98394146  0.063506366     -1.70231   0.71836853  1070540 
 3149000    1.0021635   -1.7021123   -1.7021123  -0.98393891  0.069353418   -1.7021123   0.71817334  1070540 
 3150000     1.000882   -1.7016257   -1.7016257  -0.98437066  0.059525256   -1.7016257     0.717255  1070540 
 3151000   0.99959905   -1.7008082   -1.7008082  -0.98447259  0.058597681   -1.7008082   0.71633559  1070540 
 3152000    1.0011778   -1.7019582   -1.7019582  -0.98449123  0.062690562   -1.7019582   0.71746693  1070540 
 3153000    1.0021913   -1.7025382   -1.7025382  -0.98434492  0.059382127   -1.7025382   0.71819325  1070540 
 3154000    1.0011728   -1.7017837   -1.7017837  -0.98432037  0.059448295   -1.7017837   0.71746337  1070540 
 3155000    1.0016057   -1.7018838   -1.7018838  -0.98411018  0.069301641   -1.7018838   0.71777359  1070540 
 3156000    1.0015598   -1.7018544   -1.7018544  -0.98411364  0.065513683   -1.7018544   0.71774072  1070540 
 3157000    1.0039795   -1.7041328   -1.7041328  -0.98465811    0.0624957   -1.7041328   0.71947473  1070540 
 3158000    1.0006966   -1.7013513   -1.7013513  -0.98422915  0.068615637   -1.7013513   0.71712211  1070540 
 3159000    1.0022739   -1.7026104   -1.7026104  -0.98435795  0.056878181   -1.7026104   0.71825244  1070540 
 3160000    1.0024623   -1.7028332   -1.7028332  -0.98444576  0.063510819   -1.7028332   0.71838746  1070540 
 3161000    1.0008484   -1.7020471   -1.7020471  -0.98481626  0.057850109   -1.7020471   0.71723089  1070540 
 3162000    1.0016907   -1.7025965   -1.7025965  -0.98476202  0.058565618   -1.7025965   0.71783453  1070540 
 3163000    1.0010206   -1.7023377   -1.7023377  -0.98498333  0.057919545   -1.7023377   0.71735433  1070540 
 3164000   0.99947688   -1.7011606   -1.7011606  -0.98491258  0.062421053   -1.7011606   0.71624804  1070540 
 3165000    1.0003687   -1.7012315   -1.7012315  -0.98434433  0.059408309   -1.7012315   0.71688717  1070540 
 3166000    1.0006934   -1.7012842   -1.7012842  -0.98416438  0.067421689   -1.7012842   0.71711984  1070540 
 3167000    1.0025792   -1.7026018   -1.7026018  -0.98413059  0.057839106   -1.7026018   0.71847122  1070540 
 3168000    1.0019305   -1.7021514   -1.7021514  -0.98414501  0.058908675   -1.7021514   0.71800635  1070540 
 3169000    1.0006179   -1.7017089   -1.7017089  -0.98464319   0.06219354   -1.7017089   0.71706572  1070540 
 3170000    1.0024468   -1.7028733   -1.7028733  -0.98449693  0.064932467   -1.7028733   0.71837635  1070540 
 3171000    1.0013546   -1.7023245   -1.7023245  -0.98473085  0.058281177   -1.7023245   0.71759367  1070540 
 3172000   0.99971813   -1.7010317   -1.7010317  -0.98461077  0.059303529   -1.7010317   0.71642092  1070540 
 3173000   0.99932366   -1.7008992   -1.7008992  -0.98476098  0.055123868   -1.7008992   0.71613824  1070540 
 3174000   0.99960224   -1.7012536   -1.7012536  -0.98491576  0.052835532   -1.7012536   0.71633788  1070540 
 3175000     1.001115   -1.7021532   -1.7021532  -0.98473122  0.063922786   -1.7021532   0.71742194  1070540 
 3176000    1.0003559    -1.701793    -1.701793  -0.98491499  0.060278654    -1.701793   0.71687798  1070540 
 3177000    1.0005044   -1.7015559   -1.7015559  -0.98457152  0.064892743   -1.7015559   0.71698438  1070540 
 3178000   0.99913691    -1.700817    -1.700817  -0.98481257   0.05871566    -1.700817   0.71600441  1070540 
 3179000    1.0021053   -1.7023776   -1.7023776  -0.98424592  0.063409715   -1.7023776   0.71813166  1070540 
 3180000   0.99980653   -1.7007042   -1.7007042  -0.98421993  0.065276142   -1.7007042   0.71648427  1070540 
 3181000    1.0018208   -1.7022538   -1.7022538  -0.98432606  0.061343583   -1.7022538   0.71792772  1070540 
 3182000    1.0013598   -1.7015387   -1.7015387  -0.98394133   0.06710944   -1.7015387    0.7175974  1070540 
 3183000     1.002247   -1.7019227   -1.7019227  -0.98368947  0.063958673   -1.7019227   0.71823319  1070540 
 3184000    1.0020568   -1.7020717   -1.7020717  -0.98397481  0.061037093   -1.7020717   0.71809685  1070540 
 3185000    1.0019021   -1.7018411   -1.7018411  -0.98385506  0.063503781   -1.7018411   0.71798601  1070540 
 3186000    1.0021013   -1.7018222   -1.7018222  -0.98369342  0.058879472   -1.7018222   0.71812878  1070540 
 3187000    1.0029038   -1.7028006   -1.7028006  -0.98409674  0.058565093   -1.7028006   0.71870385  1070540 
 3188000     1.000278   -1.7007651   -1.7007651  -0.98394292  0.056367195   -1.7007651   0.71682213  1070540 
 3189000    1.0018147   -1.7015031   -1.7015031  -0.98357974  0.060630061   -1.7015031    0.7179234  1070540 
 3190000    1.0003444   -1.7007167   -1.7007167  -0.98384696  0.067391307   -1.7007167   0.71686974  1070540 
 3191000    0.9999455   -1.7007874   -1.7007874  -0.98420358  0.057355926   -1.7007874   0.71658387  1070540 
 3192000    1.0006682   -1.7013424   -1.7013424  -0.98424059  0.068319202   -1.7013424   0.71710177  1070540 
 3193000    1.0006927   -1.7013663   -1.7013663  -0.98424697  0.060639979   -1.7013663    0.7171193  1070540 
 3194000    1.0002381   -1.7008552   -1.7008552  -0.98406168  0.052368617   -1.7008552   0.71679355  1070540 
 3195000    1.0001815   -1.7009637   -1.7009637   -0.9842107   0.06175807   -1.7009637   0.71675299  1070540 
 3196000    1.0011552   -1.7012928   -1.7012928    -0.983842  0.058688543   -1.7012928   0.71745079  1070540 
 3197000     1.000165   -1.7002438   -1.7002438  -0.98350267  0.057407811   -1.7002438   0.71674113  1070540 
 3198000    1.0010566   -1.7012681   -1.7012681  -0.98388799  0.061736398   -1.7012681   0.71738012  1070540 
 3199000    1.0010403   -1.7009555   -1.7009555  -0.98358708  0.068730089   -1.7009555   0.71736841  1070540 
 3200000    1.0002584   -1.7006539   -1.7006539  -0.98384576  0.061973353   -1.7006539   0.71680813  1070540 
 3201000    1.0007096   -1.7008045   -1.7008045  -0.98367308  0.054695019   -1.7008045    0.7171314  1070540 
 3202000    1.0003988   -1.7004671   -1.7004671  -0.98355835  0.061337409   -1.7004671   0.71690872  1070540 
 3203000    1.0006045    -1.700685    -1.700685  -0.98362892  0.059952408    -1.700685   0.71705613  1070540 
 3204000    1.0001567   -1.7006725   -1.7006725  -0.98393726  0.059788012   -1.7006725   0.71673523  1070540 
 3205000    1.0002366   -1.7007484   -1.7007484    -0.983956  0.052158481   -1.7007484   0.71679244  1070540 
 3206000   0.99952776   -1.6999977   -1.6999977  -0.98371323  0.064204453   -1.6999977    0.7162845  1070540 
 3207000    1.0014607   -1.7017351   -1.7017351   -0.9840654  0.059289201   -1.7017351    0.7176697  1070540 
 3208000    1.0005441   -1.7012326   -1.7012326  -0.98421973  0.060794676   -1.7012326   0.71701284  1070540 
 3209000    1.0006676     -1.70177     -1.70177  -0.98466865  0.053947008     -1.70177   0.71710137  1070540 
 3210000    1.0008551   -1.7015067   -1.7015067  -0.98427097   0.06279997   -1.7015067    0.7172357  1070540 
 3211000    1.0005104   -1.7008859   -1.7008859   -0.9838972   0.06382522   -1.7008859   0.71698868  1070540 
 3212000    1.0019993   -1.7018292   -1.7018292  -0.98377356  0.064704552   -1.7018292   0.71805567  1070540 
 3213000   0.99962528   -1.7000488   -1.7000488  -0.98369446  0.060379003   -1.7000488   0.71635439  1070540 
 3214000    1.0006961   -1.7006488   -1.7006488  -0.98352702  0.056788553   -1.7006488   0.71712178  1070540 
 3215000    1.0013943   -1.7011002   -1.7011002  -0.98347816  0.063170824   -1.7011002   0.71762207  1070540 
 3216000    1.0011773   -1.7013635   -1.7013635  -0.98389696   0.05982546   -1.7013635   0.71746658  1070540 
 3217000    1.0012743   -1.7011294   -1.7011294  -0.98359332  0.064112076   -1.7011294   0.71753608  1070540 
 3218000    1.0018535   -1.7015257   -1.7015257  -0.98357448  0.068299677   -1.7015257   0.71795117  1070540 
 3219000    1.0020691     -1.70166     -1.70166  -0.98355434  0.063094435     -1.70166   0.71810566  1070540 
 3220000    1.0023824   -1.7021416   -1.7021416  -0.98381141  0.065891908   -1.7021416    0.7183302  1070540 
 3221000    1.0032846   -1.7027877   -1.7027877  -0.98381097  0.053466853   -1.7027877   0.71897677  1070540 
 3222000    1.0019827   -1.7012701   -1.7012701  -0.98322631  0.063002647   -1.7012701    0.7180438  1070540 
 3223000    1.0022315   -1.7019641   -1.7019641  -0.98374207  0.060127498   -1.7019641   0.71822206  1070540 
 3224000    1.0018465    -1.701834    -1.701834  -0.98388785  0.058927502    -1.701834   0.71794615  1070540 
 3225000    1.0020872   -1.7022429   -1.7022429  -0.98412427  0.059320958   -1.7022429   0.71811863  1070540 
 3226000    1.0020298   -1.7023579   -1.7023579  -0.98428043  0.066754188   -1.7023579   0.71807749  1070540 
 3227000    1.0014552   -1.7018925   -1.7018925  -0.98422673   0.06721011   -1.7018925   0.71766575  1070540 
 3228000    1.0010469   -1.7017664   -1.7017664  -0.98439327  0.057423246   -1.7017664   0.71737317  1070540 
 3229000   0.99986369   -1.7003589   -1.7003589  -0.98383363   0.07046661   -1.7003589   0.71652524  1070540 
 3230000   0.99960213   -1.7002045   -1.7002045  -0.98386666  0.060845683   -1.7002045    0.7163378  1070540 
 3231000    1.0008311   -1.7004799   -1.7004799   -0.9832614   0.06316436   -1.7004799    0.7172185  1070540 
 3232000    1.0017791   -1.7010093   -1.7010093  -0.98311145  0.055375768   -1.7010093    0.7178979  1070540 
 3233000    1.0021943   -1.7014684   -1.7014684  -0.98327304  0.055463274   -1.7014684   0.71819539  1070540 
 3234000    1.0012589   -1.7005772   -1.7005772  -0.98305212  0.059230983   -1.7005772   0.71752507  1070540 
 3235000     1.001018   -1.7004072   -1.7004072  -0.98305474  0.053284758   -1.7004072   0.71735244  1070540 
 3236000    1.0013283   -1.7009366   -1.7009366  -0.98336182  0.069871795   -1.7009366   0.71757478  1070540 
 3237000      1.00168   -1.7010422   -1.7010422  -0.98321538  0.050576398   -1.7010422   0.71782682  1070540 
 3238000    1.0023373   -1.7007129   -1.7007129  -0.98241505  0.066255018   -1.7007129   0.71829785  1070540 
 3239000    1.0008202   -1.6999655   -1.6999655  -0.98275476  0.059512319   -1.6999655    0.7172107  1070540 
 3240000    1.0023766   -1.7011329   -1.7011329  -0.98280692  0.070478782   -1.7011329   0.71832601  1070540 
 3241000    1.0007655   -1.6996265   -1.6996265  -0.98245502   0.06320029   -1.6996265   0.71717147  1070540 
 3242000    1.0013675    -1.700027    -1.700027  -0.98242413  0.057910976    -1.700027   0.71760287  1070540 
 3243000    1.0017124   -1.7002499   -1.7002499  -0.98239985  0.058627773   -1.7002499   0.71785007  1070540 
 3244000    1.0017866   -1.7003293   -1.7003293  -0.98242611  0.065220955   -1.7003293   0.71790321  1070540 
 3245000    1.0011465   -1.7004285   -1.7004285  -0.98298399  0.064303847   -1.7004285   0.71744455  1070540 
 3246000    1.0011971   -1.7005613   -1.7005613  -0.98308056  0.065026341   -1.7005613   0.71748076  1070540 
 3247000    1.0010491   -1.7004229   -1.7004229  -0.98304823  0.062062764   -1.7004229    0.7173747  1070540 
 3248000    1.0012957     -1.70095     -1.70095  -0.98339854  0.061438979     -1.70095   0.71755147  1070540 
 3249000    1.0011078   -1.7006694   -1.7006694  -0.98325254  0.060940037   -1.7006694   0.71741682  1070540 
 3250000    1.0007128   -1.7006675   -1.7006675  -0.98353374  0.061793135   -1.7006675   0.71713376  1070540 
 3251000    1.0014574   -1.7006313   -1.7006313  -0.98296399  0.061712862   -1.7006313   0.71766733  1070540 
 3252000    1.0018702   -1.7008404   -1.7008404  -0.98287721   0.06710728   -1.7008404   0.71796315  1070540 
 3253000    1.0030435   -1.7016504   -1.7016504  -0.98284645  0.058618243   -1.7016504   0.71880394  1070540 
 3254000    1.0031254   -1.7018519   -1.7018519  -0.98298924  0.056389516   -1.7018519   0.71886267  1070540 
 3255000    1.0007076   -1.7001562   -1.7001562  -0.98302622  0.063193821   -1.7001562      0.71713  1070540 
 3256000    1.0004308   -1.7000406   -1.7000406  -0.98310898  0.060367066   -1.7000406   0.71693162  1070540 
 3257000    1.0018673   -1.7011537   -1.7011537  -0.98319257  0.057325879   -1.7011537    0.7179611  1070540 
 3258000    1.0026028   -1.7015251   -1.7015251  -0.98303697  0.060175373   -1.7015251   0.71848813  1070540 
 3259000    1.0017365   -1.7009932   -1.7009932  -0.98312592  0.062502099   -1.7009932    0.7178673  1070540 
 3260000    1.0008381   -1.6999396   -1.6999396   -0.9827161  0.067723445   -1.6999396   0.71722355  1070540 
 3261000    1.0020732   -1.7009977   -1.7009977  -0.98288908  0.062518265   -1.7009977   0.71810863  1070540 
 3262000    1.0022357   -1.7007245   -1.7007245  -0.98249946  0.059231618   -1.7007245   0.71822509  1070540 
 3263000    1.0027146    -1.701111    -1.701111  -0.98254268  0.056755351    -1.701111   0.71856828  1070540 
 3264000    1.0022351   -1.7011751   -1.7011751  -0.98295049  0.056681704   -1.7011751   0.71822465  1070540 
 3265000    1.0013467    -1.700189    -1.700189  -0.98260099  0.066327352    -1.700189   0.71758796  1070540 
 3266000    1.0021723   -1.7010299   -1.7010299  -0.98285027  0.063910187   -1.7010299   0.71817967  1070540 
 3267000    1.0013279   -1.7005333   -1.7005333  -0.98295878  0.063892429   -1.7005333    0.7175745  1070540 
 3268000    1.0011858   -1.7006048   -1.7006048  -0.98313213  0.052964402   -1.7006048    0.7174727  1070540 
 3269000    1.0004958   -1.6997953   -1.6997953  -0.98281708  0.059516907   -1.6997953    0.7169782  1070540 
 3270000   0.99956377   -1.6994628   -1.6994628  -0.98315247  0.062839027   -1.6994628    0.7163103  1070540 
 3271000    1.0002365   -1.7001303   -1.7001303  -0.98333795  0.063030707   -1.7001303   0.71679239  1070540 
 3272000    1.0008562   -1.7010459   -1.7010459  -0.98380944  0.048561292   -1.7010459   0.71723648  1070540 
 3273000   0.99980349   -1.7003433   -1.7003433  -0.98386125  0.056945632   -1.7003433    0.7164821  1070540 
 3274000   0.99983576   -1.7002885   -1.7002885  -0.98378332  0.059326246   -1.7002885   0.71650522  1070540 
 3275000    1.0005107   -1.7004579   -1.7004579  -0.98346894   0.06163634   -1.7004579   0.71698891  1070540 
 3276000    1.0007457   -1.7006457   -1.7006457  -0.98348839  0.065414906   -1.7006457   0.71715727  1070540 
 3277000    1.0017759   -1.7013584   -1.7013584  -0.98346284  0.060492957   -1.7013584   0.71789559  1070540 
 3278000    1.0013323   -1.7011714   -1.7011714  -0.98359372  0.060116586   -1.7011714   0.71757769  1070540 
 3279000    1.0005578   -1.7007381   -1.7007381  -0.98371543  0.058539998   -1.7007381   0.71702265  1070540 
 3280000    1.0004856   -1.7003509   -1.7003509  -0.98338001  0.065309309   -1.7003509   0.71697089  1070540 
 3281000    1.0015266   -1.7014095   -1.7014095   -0.9836926   0.06195088   -1.7014095   0.71771693  1070540 
 3282000    1.0021223   -1.7016897   -1.7016897  -0.98354592  0.061724179   -1.7016897   0.71814378  1070540 
 3283000    1.0008793   -1.7007841   -1.7007841  -0.98353108  0.056163893   -1.7007841   0.71725304  1070540 
 3284000    1.0015031   -1.7015077   -1.7015077  -0.98380756  0.055301946   -1.7015077    0.7177001  1070540 
 3285000    1.0015839     -1.70155     -1.70155  -0.98379199  0.069025738     -1.70155     0.717758  1070540 
 3286000    1.0021737   -1.7020705   -1.7020705  -0.98388986  0.059938476   -1.7020705   0.71818064  1070540 
 3287000    1.0016723   -1.7019255   -1.7019255  -0.98410415  0.062725175   -1.7019255   0.71782132  1070540 
 3288000    1.0027575   -1.7026613   -1.7026613   -0.9840623  0.067213668   -1.7026613   0.71859897  1070540 
 3289000    1.0016604   -1.7020311   -1.7020311  -0.98421836  0.058884967   -1.7020311   0.71781278  1070540 
 3290000    1.0012977   -1.7018819   -1.7018819    -0.984329  0.057262221   -1.7018819   0.71755289  1070540 
 3291000    1.0016128   -1.7020805   -1.7020805  -0.98430183  0.052954505   -1.7020805    0.7177787  1070540 
 3292000    1.0031783   -1.7030075   -1.7030075  -0.98410694  0.064189361   -1.7030075   0.71890058  1070540 
 3293000    1.0026829   -1.7025128   -1.7025128  -0.98396721  0.069499119   -1.7025128   0.71854557  1070540 
 3294000    1.0036219   -1.7029975   -1.7029975  -0.98377903  0.066365005   -1.7029975   0.71921849  1070540 
 3295000    1.0029205   -1.7030123   -1.7030123  -0.98429647  0.061176242   -1.7030123   0.71871584  1070540 
 3296000    1.0030424   -1.7028226   -1.7028226  -0.98401939  0.064858365   -1.7028226   0.71880318  1070540 
 3297000    1.0008584   -1.7015327   -1.7015327  -0.98429464  0.062487022   -1.7015327    0.7172381  1070540 
 3298000    1.0011026   -1.7018294   -1.7018294   -0.9844163  0.066950119   -1.7018294   0.71741309  1070540 
 3299000    1.0013149   -1.7025371   -1.7025371  -0.98497189  0.058238645   -1.7025371   0.71756518  1070540 
 3300000    1.0003567    -1.701387    -1.701387  -0.98450843  0.060916498    -1.701387   0.71687855  1070540 
 3301000   0.99992133   -1.7011525   -1.7011525  -0.98458592  0.062841927   -1.7011525   0.71656654  1070540 
 3302000    1.0007769   -1.7014532   -1.7014532  -0.98427347  0.062667155   -1.7014532   0.71717969  1070540 
 3303000    1.0012815   -1.7017138   -1.7017138   -0.9841725  0.056713099   -1.7017138   0.71754126  1070540 
 3304000    1.0010992   -1.7012422   -1.7012422  -0.98383149  0.061739575   -1.7012422   0.71741066  1070540 
 3305000    1.0022484   -1.7021819   -1.7021819  -0.98394766  0.055482873   -1.7021819   0.71823419  1070540 
 3306000    1.0022597   -1.7021988   -1.7021988  -0.98395647  0.060841776   -1.7021988    0.7182423  1070540 
 3307000    1.0020059   -1.7018439   -1.7018439  -0.98378348  0.063149223   -1.7018439   0.71806042  1070540 
 3308000    1.0011962   -1.7009869   -1.7009869  -0.98350669   0.06738274   -1.7009869   0.71748016  1070540 
 3309000    1.0009285   -1.7012469   -1.7012469  -0.98395857    0.0555025   -1.7012469   0.71728831  1070540 
 3310000    1.0014945   -1.7018584   -1.7018584  -0.98416452  0.066778099   -1.7018584   0.71769392  1070540 
 3311000   0.99965412   -1.7004448   -1.7004448  -0.98406976  0.057110621   -1.7004448   0.71637506  1070540 
 3312000    1.0017085    -1.701585    -1.701585  -0.98373773  0.057853279    -1.701585   0.71784727  1070540 
 3313000   0.99993408   -1.7002453   -1.7002453  -0.98366962  0.061811014   -1.7002453   0.71657568  1070540 
 3314000    1.0007535   -1.7008539   -1.7008539  -0.98369097  0.058790288   -1.7008539   0.71716289  1070540 
 3315000   0.99898563   -1.6994536   -1.6994536  -0.98355756  0.060305769   -1.6994536     0.715896  1070540 
 3316000    1.0003653   -1.7001241   -1.7001241  -0.98323947  0.055196019   -1.7001241   0.71688467  1070540 
 3317000   0.99977195   -1.6999437   -1.6999437  -0.98348416  0.063891299   -1.6999437   0.71645949  1070540 
 3318000    1.0005331   -1.7004708   -1.7004708  -0.98346584   0.05961678   -1.7004708   0.71700494  1070540 
 3319000    1.0018154   -1.7010045   -1.7010045  -0.98308057   0.05099362   -1.7010045   0.71792389  1070540 
 3320000   0.99943679   -1.6992626   -1.6992626  -0.98304325  0.065286174   -1.6992626   0.71621931  1070540 
 3321000    1.0015534   -1.7007938   -1.7007938  -0.98305769  0.060534495   -1.7007938    0.7177361  1070540 
 3322000    1.0012583   -1.7005983   -1.7005983  -0.98307364  0.059851054   -1.7005983   0.71752462  1070540 
 3323000    1.0020643   -1.7008691   -1.7008691   -0.9827669  0.062415349   -1.7008691   0.71810221  1070540 
 3324000    1.0015147   -1.7008055   -1.7008055  -0.98309717  0.063727886   -1.7008055   0.71770838  1070540 
 3325000    1.0013791   -1.7006807   -1.7006807  -0.98306949  0.059179965   -1.7006807   0.71761124  1070540 
 3326000    1.0018763   -1.7010519   -1.7010519  -0.98308435  0.060363462   -1.7010519   0.71796751  1070540 
 3327000    1.0008897   -1.7004473   -1.7004473   -0.9831868  0.061972622   -1.7004473    0.7172605  1070540 
 3328000    1.0022581   -1.7011122   -1.7011122  -0.98287104   0.05556088   -1.7011122   0.71824116  1070540 
 3329000     1.002115   -1.7010718   -1.7010718   -0.9829332  0.064015453   -1.7010718   0.71813858  1070540 
 3330000    1.0018245   -1.7009208   -1.7009208   -0.9829904  0.063753785   -1.7009208   0.71793043  1070540 
 3331000    1.0011259   -1.7007702   -1.7007702  -0.98334045  0.050586607   -1.7007702   0.71742976  1070540 
 3332000    1.0022142   -1.7015858   -1.7015858  -0.98337614  0.060511953   -1.7015858    0.7182097  1070540 
 3333000    1.0007979   -1.6999429   -1.6999429  -0.98274822  0.060750775   -1.6999429   0.71719472  1070540 
 3334000    1.0009664   -1.7001368   -1.7001368  -0.98282132  0.058549081   -1.7001368   0.71731545  1070540 
 3335000   0.99985547   -1.6995036   -1.6995036  -0.98298429   0.06272361   -1.6995036   0.71651934  1070540 
 3336000    1.0004039   -1.7000237   -1.7000237  -0.98311141   0.06166321   -1.7000237   0.71691233  1070540 
 3337000    1.0005091   -1.7005057   -1.7005057  -0.98351795  0.061606749   -1.7005057   0.71698776  1070540 
 3338000   0.99837118   -1.6986839   -1.6986839  -0.98322818  0.058641383   -1.6986839   0.71545567  1070540 
 3339000    1.0003877     -1.70046     -1.70046  -0.98355922  0.070731152     -1.70046   0.71690078  1070540 
 3340000    0.9991986   -1.6994336   -1.6994336  -0.98338495  0.066140902   -1.6994336   0.71604862  1070540 
 3341000    1.0005737   -1.7000792   -1.7000792  -0.98304517  0.065150579   -1.7000792   0.71703402  1070540 
 3342000    1.0017042   -1.7007095   -1.7007095  -0.98286533  0.068463231   -1.7007095   0.71784416  1070540 
 3343000    1.0008344   -1.7005439   -1.7005439  -0.98332303  0.059683973   -1.7005439   0.71722085  1070540 
 3344000    1.0002209     -1.69985     -1.69985  -0.98306878  0.063704132     -1.69985   0.71678121  1070540 
 3345000   0.99986255   -1.6994743   -1.6994743  -0.98294993  0.054129871   -1.6994743   0.71652442  1070540 
 3346000   0.99983302   -1.6994479   -1.6994479  -0.98294467  0.069065984   -1.6994479   0.71650326  1070540 
 3347000   0.99988293   -1.6995419   -1.6995419  -0.98300285  0.064815112   -1.6995419   0.71653902  1070540 
 3348000    1.0001167   -1.6995452   -1.6995452  -0.98283869  0.069908014   -1.6995452   0.71670652  1070540 
 3349000    1.0017438   -1.7000962   -1.7000962  -0.98222359  0.059765384   -1.7000962   0.71787256  1070540 
 3350000   0.99977088    -1.698796    -1.698796  -0.98233729  0.066560659    -1.698796   0.71645873  1070540 
 3351000    1.0014281   -1.7004459   -1.7004459  -0.98279957  0.059386682   -1.7004459   0.71764631  1070540 
 3352000   0.99925571   -1.6992567   -1.6992567  -0.98316715  0.064239894   -1.6992567   0.71608954  1070540 
 3353000   0.99986801   -1.6990993   -1.6990993    -0.982571  0.060193999   -1.6990993   0.71652833  1070540 
 3354000    1.0002911   -1.6991914   -1.6991914  -0.98235987  0.067933341   -1.6991914   0.71683153  1070540 
 3355000   0.99990249   -1.6990583   -1.6990583  -0.98250527  0.066729283   -1.6990583   0.71655304  1070540 
 3356000    1.0006967   -1.6993305   -1.6993305  -0.98220836  0.058630215   -1.6993305   0.71712218  1070540 
 3357000    1.0003227   -1.6995548   -1.6995548  -0.98270062  0.064393135   -1.6995548   0.71685418  1070540 
 3358000    1.0010117     -1.70036     -1.70036  -0.98301211  0.059710542     -1.70036   0.71734792  1070540 
 3359000    1.0007304   -1.7001436   -1.7001436   -0.9829972  0.066336385   -1.7001436   0.71714637  1070540 
 3360000    1.0012055   -1.7001805   -1.7001805  -0.98269377  0.059236141   -1.7001805   0.71748677  1070540 
 3361000    1.0009025   -1.7008308   -1.7008308  -0.98356114  0.062987521   -1.7008308   0.71726967  1070540 
 3362000    1.0019365   -1.7011112   -1.7011112  -0.98310054    0.0575849   -1.7011112   0.71801063  1070540 
 3363000    1.0014189   -1.7003551   -1.7003551  -0.98271536  0.056934809   -1.7003551   0.71763975  1070540 
 3364000    1.0018122   -1.7008313   -1.7008313  -0.98290966  0.059483279   -1.7008313   0.71792159  1070540 
 3365000    1.0010187   -1.7002737   -1.7002737  -0.98292076  0.066185723   -1.7002737   0.71735291  1070540 
 3366000    1.0010414   -1.7005942   -1.7005942  -0.98322499  0.061253744   -1.7005942   0.71736922  1070540 
 3367000    1.0006979   -1.7005353   -1.7005353  -0.98341221  0.059375579   -1.7005353   0.71712308  1070540 
 3368000    1.0017972   -1.7006433   -1.7006433  -0.98273246  0.060386645   -1.7006433   0.71791081  1070540 
 3369000    1.0016368   -1.7005728   -1.7005728   -0.9827769  0.072616666   -1.7005728    0.7177959  1070540 
 3370000    1.0013094   -1.7008239   -1.7008239  -0.98326267  0.059568622   -1.7008239   0.71756127  1070540 
 3371000    1.0022887   -1.7008742   -1.7008742  -0.98261113  0.066111551   -1.7008742   0.71826305  1070540 
 3372000     1.000786   -1.6998286   -1.6998286  -0.98264238   0.06704682   -1.6998286    0.7171862  1070540 
 3373000    1.0005834   -1.6996058   -1.6996058  -0.98256479   0.06129823   -1.6996058   0.71704098  1070540 
 3374000    1.0011778    -1.699625    -1.699625  -0.98215801  0.064133186    -1.699625   0.71746694  1070540 
 3375000    1.0028806   -1.7012786   -1.7012786  -0.98259136  0.066522868   -1.7012786    0.7186872  1070540 
 3376000     1.001432   -1.7000451   -1.7000451  -0.98239595  0.062154255   -1.7000451   0.71764913  1070540 
 3377000     1.000602   -1.6997775   -1.6997775  -0.98272314  0.064382659   -1.6997775   0.71705432  1070540 
 3378000    1.0017093   -1.7002697   -1.7002697  -0.98242188  0.060340914   -1.7002697   0.71784786  1070540 
 3379000    1.0015833   -1.7005931   -1.7005931   -0.9828356  0.052394971   -1.7005931   0.71775752  1070540 
 3380000    1.0014619   -1.6998298   -1.6998298  -0.98215926  0.058026052   -1.6998298   0.71767056  1070540 
 3381000    1.0010733   -1.6996451   -1.6996451  -0.98225303  0.062068514   -1.6996451   0.71739208  1070540 
 3382000    1.0008634   -1.6998349   -1.6998349   -0.9825933  0.062576366   -1.6998349   0.71724163  1070540 
 3383000    1.0007113   -1.6994651   -1.6994651  -0.98233244   0.06238696   -1.6994651   0.71713267  1070540 
 3384000   0.99995538    -1.698442    -1.698442  -0.98185109  0.064230474    -1.698442   0.71659094  1070540 
 3385000   0.99977449   -1.6982389   -1.6982389  -0.98177763  0.073777464   -1.6982389   0.71646131  1070540 
 3386000    1.0001918   -1.6983809   -1.6983809  -0.98162056   0.05487918   -1.6983809   0.71676036  1070540 
 3387000    1.0011774   -1.6987327   -1.6987327  -0.98126604  0.069591375   -1.6987327   0.71746666  1070540 
 3388000    1.0011652   -1.6987772   -1.6987772  -0.98131922  0.056171182   -1.6987772   0.71745795  1070540 
 3389000    1.0016262   -1.6992273   -1.6992273  -0.98143894  0.060740548   -1.6992273   0.71778831  1070540 
 3390000     1.000218   -1.6979885   -1.6979885  -0.98120935  0.063084975   -1.6979885   0.71677917  1070540 
 3391000    1.0024563   -1.7000551   -1.7000551  -0.98167191  0.050825919   -1.7000551   0.71838316  1070540 
 3392000   0.99981902   -1.6984816   -1.6984816  -0.98198842  0.065521767   -1.6984816   0.71649322  1070540 
 3393000    1.0011756   -1.6994387   -1.6994387  -0.98197337  0.060703205   -1.6994387   0.71746537  1070540 
 3394000    1.0010533   -1.6991244   -1.6991244  -0.98174671  0.056409718   -1.6991244   0.71737771  1070540 
 3395000    1.0017186   -1.6990807   -1.6990807  -0.98122621  0.062871331   -1.6990807   0.71785454  1070540 
 3396000    1.0023992   -1.6991983   -1.6991983  -0.98085606  0.064447781   -1.6991983   0.71834226  1070540 
 3397000    1.0017891   -1.6988034   -1.6988034  -0.98089836  0.056978344   -1.6988034   0.71790503  1070540 
 3398000    1.0021182   -1.6988353   -1.6988353  -0.98069448  0.064835387   -1.6988353   0.71814087  1070540 
 3399000    1.0016834    -1.698558    -1.698558  -0.98072872  0.065521736    -1.698558   0.71782931  1070540 
 3400000    1.0020755   -1.6983997   -1.6983997   -0.9802894  0.068612337   -1.6983997   0.71811026  1070540 
 3401000    1.0034252   -1.6991625   -1.6991625  -0.98008497  0.072396225   -1.6991625   0.71907753  1070540 
 3402000    1.0016839   -1.6979527   -1.6979527  -0.98012309  0.064005202   -1.6979527   0.71782961  1070540 
 3403000    1.0009338   -1.6975586   -1.6975586  -0.98026652  0.062928482   -1.6975586   0.71729211  1070540 
 3404000    1.0018256   -1.6988753   -1.6988753  -0.98094412  0.053991831   -1.6988753   0.71793117  1070540 
 3405000    1.0012617   -1.6982496   -1.6982496   -0.9807225  0.063615296   -1.6982496   0.71752707  1070540 
 3406000    1.0011403    -1.698096    -1.698096  -0.98065592  0.066467424    -1.698096   0.71744012  1070540 
 3407000   0.99974724   -1.6968013   -1.6968013  -0.98035951   0.06182688   -1.6968013   0.71644178  1070540 
 3408000    1.0007384     -1.69748     -1.69748  -0.98032796  0.058825278     -1.69748   0.71715209  1070540 
 3409000    1.0008221   -1.6976033   -1.6976033   -0.9803913  0.069306686   -1.6976033   0.71721202  1070540 
 3410000    1.0023313   -1.6988699   -1.6988699  -0.98057627  0.061482517   -1.6988699   0.71829359  1070540 
 3411000    1.0014618   -1.6981559   -1.6981559  -0.98048549  0.066119916   -1.6981559   0.71767045  1070540 
 3412000    1.0012932   -1.6981588   -1.6981588  -0.98060918  0.060307106   -1.6981588   0.71754967  1070540 
 3413000    1.0010861   -1.6981969   -1.6981969  -0.98079562  0.059576567   -1.6981969   0.71740125  1070540 
 3414000    1.0012126   -1.6976386   -1.6976386  -0.98014672  0.062662638   -1.6976386   0.71749186  1070540 
 3415000    1.0026108   -1.6983928   -1.6983928  -0.97989892  0.065103484   -1.6983928   0.71849385  1070540 
 3416000    1.0022727   -1.6982978   -1.6982978  -0.98004622  0.059862076   -1.6982978   0.71825156  1070540 
 3417000    1.0012819   -1.6976837   -1.6976837  -0.98014219  0.061132702   -1.6976837   0.71754156  1070540 
 3418000     1.002007   -1.6983237   -1.6983237  -0.98026247  0.060216545   -1.6983237   0.71806119  1070540 
 3419000    1.0022792   -1.6987034   -1.6987034  -0.98044716  0.062428911   -1.6987034   0.71825625  1070540 
 3420000    1.0011138   -1.6975737   -1.6975737  -0.98015264  0.063235022   -1.6975737   0.71742108  1070540 
 3421000    1.0006619   -1.6972729   -1.6972729  -0.98017566  0.057976034   -1.6972729   0.71709725  1070540 
 3422000    1.0018733    -1.698384    -1.698384  -0.98041868  0.050836796    -1.698384   0.71796534  1070540 
 3423000    1.0021097   -1.6985476   -1.6985476  -0.98041283  0.065079496   -1.6985476   0.71813477  1070540 
 3424000    1.0039831   -1.6998459   -1.6998459  -0.98036854   0.06700119   -1.6998459   0.71947732  1070540 
 3425000     1.001979   -1.6984441   -1.6984441  -0.98040298  0.067846328   -1.6984441   0.71804111  1070540 
 3426000    1.0018774   -1.6988183   -1.6988183  -0.98085002  0.061390961   -1.6988183   0.71796828  1070540 
 3427000    1.0035333    -1.699494    -1.699494  -0.98033907  0.054066104    -1.699494   0.71915497  1070540 
 3428000    1.0041812   -1.6995901   -1.6995901  -0.97997087  0.063273689   -1.6995901   0.71961927  1070540 
 3429000    1.0033273   -1.6992227   -1.6992227  -0.98021537   0.06377556   -1.6992227   0.71900736  1070540 
 3430000    1.0038079   -1.6997459   -1.6997459  -0.98039411  0.062918013   -1.6997459   0.71935176  1070540 
 3431000    1.0029477   -1.6990147   -1.6990147   -0.9802794  0.065301832   -1.6990147   0.71873533  1070540 
 3432000    1.0027242   -1.6986719   -1.6986719  -0.98009678  0.073648328   -1.6986719   0.71857514  1070540 
 3433000    1.0038623   -1.6996521   -1.6996521  -0.98026137  0.062105319   -1.6996521   0.71939072  1070540 
 3434000     1.003183   -1.6994738   -1.6994738   -0.9805699  0.064119436   -1.6994738   0.71890395  1070540 
 3435000    1.0013364   -1.6980627   -1.6980627  -0.98048203  0.062817387   -1.6980627   0.71758064  1070540 
 3436000    1.0036425   -1.6997467   -1.6997467  -0.98051351  0.058462192   -1.6997467   0.71923319  1070540 
 3437000     1.003452   -1.6995011   -1.6995011  -0.98040436   0.06177854   -1.6995011   0.71909672  1070540 
 3438000    1.0026317   -1.6988752   -1.6988752  -0.98036637  0.065890081   -1.6988752   0.71850886  1070540 
 3439000    1.0030825   -1.6987515   -1.6987515  -0.97991962  0.057006874   -1.6987515    0.7188319  1070540 
 3440000    1.0028974   -1.6987939   -1.6987939  -0.98009468   0.05729938   -1.6987939   0.71869924  1070540 
 3441000    1.0026698   -1.6987126   -1.6987126  -0.98017647  0.063658465   -1.6987126   0.71853618  1070540 
 3442000     1.003337   -1.6992873   -1.6992873  -0.98027299  0.059008132   -1.6992873    0.7190143  1070540 
 3443000    1.0023731   -1.6980368   -1.6980368  -0.97971327  0.063039862   -1.6980368   0.71832354  1070540 
 3444000    1.0038987   -1.6990638   -1.6990638  -0.97964699  0.056417761   -1.6990638   0.71941679  1070540 
 3445000    1.0028224   -1.6983374   -1.6983374  -0.97969189  0.064249035   -1.6983374   0.71864554  1070540 
 3446000    1.0014346   -1.6973451   -1.6973451  -0.97969416  0.065112905   -1.6973451   0.71765096  1070540 
 3447000    1.0026002   -1.6983829   -1.6983829  -0.97989654  0.062674188   -1.6983829   0.71848631  1070540 
 3448000    1.0029286   -1.6983992   -1.6983992  -0.97967757  0.059538279   -1.6983992   0.71872159  1070540 
 3449000    1.0030505   -1.6982338   -1.6982338  -0.97942479  0.066253776   -1.6982338   0.71880896  1070540 
 3450000    1.0029916   -1.6983182   -1.6983182  -0.97955146  0.066279416   -1.6983182   0.71876678  1070540 
 3451000    1.0014982   -1.6977082   -1.6977082  -0.98001162  0.061061838   -1.6977082   0.71769655  1070540 
 3452000    1.0018019   -1.6979106   -1.6979106   -0.9799964  0.064336611   -1.6979106   0.71791417  1070540 
 3453000    1.0018038   -1.6980515   -1.6980515  -0.98013587  0.057635986   -1.6980515    0.7179156  1070540 
 3454000    1.0011596   -1.6973751   -1.6973751  -0.97992121   0.06559548   -1.6973751   0.71745392  1070540 
 3455000   0.99971765   -1.6963014   -1.6963014  -0.97988083  0.057739548   -1.6963014   0.71642058  1070540 
 3456000     1.001332   -1.6973334   -1.6973334  -0.97975587  0.072600719   -1.6973334   0.71757748  1070540 
 3457000    1.0015068   -1.6974135   -1.6974135  -0.97971076  0.064472327   -1.6974135   0.71770269  1070540 
 3458000     1.002221   -1.6978382   -1.6978382  -0.97962362  0.059617869   -1.6978382   0.71821454  1070540 
 3459000    1.0032506   -1.6984221   -1.6984221   -0.9794697  0.064714477   -1.6984221   0.71895241  1070540 
 3460000    1.0019645   -1.6975766   -1.6975766  -0.97954585  0.060139641   -1.6975766   0.71803073  1070540 
 3461000     1.003119   -1.6978742   -1.6978742   -0.9790161  0.060406056   -1.6978742   0.71885807  1070540 
 3462000    1.0037764   -1.6983855   -1.6983855  -0.97905628  0.070521904   -1.6983855   0.71932918  1070540 
 3463000    1.0039683   -1.6981391   -1.6981391  -0.97867239  0.062404243   -1.6981391    0.7194667  1070540 
 3464000    1.0018812   -1.6968922   -1.6968922  -0.97892114  0.063846114   -1.6968922   0.71797106  1070540 
 3465000    1.0022619   -1.6973535   -1.6973535  -0.97910959  0.074385455   -1.6973535   0.71824386  1070540 
 3466000    1.0020048   -1.6965499   -1.6965499  -0.97849027  0.066038032   -1.6965499   0.71805963  1070540 
 3467000    1.0016922   -1.6968379   -1.6968379  -0.97900236  0.063800577   -1.6968379   0.71783559  1070540 
 3468000     1.001893   -1.6970552   -1.6970552  -0.97907569  0.061920027   -1.6970552   0.71797946  1070540 
 3469000    1.0025368   -1.6975062   -1.6975062  -0.97906534   0.06410828   -1.6975062   0.71844088  1070540 
 3470000    1.0013573   -1.6969722   -1.6969722  -0.97937662  0.066156287   -1.6969722   0.71759557  1070540 
 3471000    1.0019025   -1.6977637   -1.6977637  -0.97977733  0.055730085   -1.6977637   0.71798632  1070540 
 3472000    1.0016019    -1.696846    -1.696846   -0.9790751  0.065899784    -1.696846   0.71777088  1070540 
 3473000    1.0016436   -1.6975209   -1.6975209  -0.97972009  0.066478201   -1.6975209   0.71780079  1070540 
 3474000    1.0023897   -1.6980572   -1.6980572  -0.97972177   0.05428002   -1.6980572   0.71833546  1070540 
 3475000    1.0011405   -1.6966947   -1.6966947  -0.97925441  0.062330267   -1.6966947   0.71744026  1070540 
 3476000     1.001483   -1.6967917   -1.6967917  -0.97910605   0.06144161   -1.6967917   0.71768568  1070540 
 3477000    1.0027588   -1.6975423   -1.6975423  -0.97894234  0.063170945   -1.6975423   0.71859993  1070540 
 3478000    1.0019533   -1.6969913   -1.6969913  -0.97896853  0.064474486   -1.6969913   0.71802273  1070540 
 3479000    1.0023905   -1.6969962   -1.6969962  -0.97866018  0.064020135   -1.6969962   0.71833597  1070540 
 3480000    1.0023326   -1.6970506   -1.6970506  -0.97875609  0.062989377   -1.6970506   0.71829453  1070540 
 3481000    1.0009768   -1.6963553   -1.6963553  -0.97903236  0.066376661   -1.6963553   0.71732295  1070540 
 3482000    1.0012669   -1.6964886   -1.6964886  -0.97895776  0.049122392   -1.6964886   0.71753083  1070540 
 3483000     1.001677    -1.696889    -1.696889  -0.97906426  0.067004247    -1.696889   0.71782473  1070540 
 3484000    1.0019534    -1.696988    -1.696988   -0.9789652  0.066580504    -1.696988   0.71802275  1070540 
 3485000    1.0034082   -1.6983318   -1.6983318  -0.97926646  0.056259962   -1.6983318   0.71906534  1070540 
 3486000    1.0012977   -1.6967033   -1.6967033  -0.97915047  0.060325608   -1.6967033   0.71755287  1070540 
 3487000   0.99968313   -1.6953251   -1.6953251  -0.97892925    0.0710592   -1.6953251   0.71639584  1070540 
 3488000    1.0013132   -1.6965449   -1.6965449  -0.97898094  0.063974549   -1.6965449   0.71756399  1070540 
 3489000    1.0020508   -1.6968689   -1.6968689  -0.97877627  0.062103301   -1.6968689    0.7180926  1070540 
 3490000    1.0008481    -1.696511    -1.696511   -0.9792803   0.05840388    -1.696511   0.71723072  1070540 
 3491000    1.0007242   -1.6962395   -1.6962395  -0.97909755  0.057471312   -1.6962395   0.71714193  1070540 
 3492000     1.000124   -1.6963546   -1.6963546  -0.97964277  0.059077017   -1.6963546    0.7167118  1070540 
 3493000     1.001989   -1.6971869   -1.6971869  -0.97913858  0.052876423   -1.6971869   0.71804828  1070540 
 3494000    1.0015779   -1.6969719   -1.6969719  -0.97921823   0.05902817   -1.6969719   0.71775366  1070540 
 3495000    1.0039205   -1.6986719   -1.6986719  -0.97923943  0.051641955   -1.6986719   0.71943247  1070540 
 3496000    1.0017762   -1.6967957   -1.6967957  -0.97889991  0.063834609   -1.6967957    0.7178958  1070540 
 3497000    1.0034026   -1.6978769   -1.6978769   -0.9788156  0.060349253   -1.6978769   0.71906131  1070540 
 3498000    1.0030963   -1.6978697   -1.6978697  -0.97902793  0.055772677   -1.6978697   0.71884177  1070540 
 3499000    1.0011618   -1.6967988   -1.6967988  -0.97934331  0.065411517   -1.6967988   0.71745548  1070540 
 3500000    1.0018631   -1.6975345   -1.6975345   -0.9795765  0.057601047   -1.6975345   0.71795803  1070540 
 3501000    1.0032346   -1.6982674   -1.6982674  -0.97932648  0.064240097   -1.6982674   0.71894092  1070540 
 3502000    1.0040835   -1.6987358   -1.6987358  -0.97918661  0.058186342   -1.6987358   0.71954923  1070540 
 3503000    1.0027743   -1.6982215   -1.6982215  -0.97961044  0.065720396   -1.6982215   0.71861104  1070540 
 3504000    1.0041397   -1.6990083   -1.6990083  -0.97941879  0.060583417   -1.6990083    0.7195895  1070540 
 3505000    1.0029117   -1.6981723   -1.6981723  -0.97946276  0.062920133   -1.6981723    0.7187095  1070540 
 3506000    1.0030312   -1.6981251   -1.6981251  -0.97932991  0.057500651   -1.6981251   0.71879517  1070540 
 3507000    1.0030833    -1.698028    -1.698028   -0.9791955  0.059221205    -1.698028   0.71883246  1070540 
 3508000    1.0034279   -1.6983623   -1.6983623  -0.97928284  0.060645217   -1.6983623   0.71907942  1070540 
 3509000    1.0022927   -1.6972892   -1.6972892  -0.97902335   0.07241241   -1.6972892    0.7182659  1070540 
 3510000    1.0034444    -1.698128    -1.698128   -0.9790368  0.069117128    -1.698128   0.71909123  1070540 
 3511000    1.0028357   -1.6982471   -1.6982471   -0.9795921    0.0705898   -1.6982471   0.71865502  1070540 
 3512000    1.0043561    -1.698796    -1.698796   -0.9790514  0.067683844    -1.698796   0.71974462  1070540 
 3513000    1.0034706   -1.6982127   -1.6982127  -0.97910268  0.063020313   -1.6982127   0.71911006  1070540 
 3514000    1.0018604   -1.6971288   -1.6971288  -0.97917268  0.064251619   -1.6971288   0.71795615  1070540 
 3515000    1.0036065   -1.6980641   -1.6980641  -0.97885667  0.064790013   -1.6980641    0.7192074  1070540 
 3516000    1.0039821   -1.6982883   -1.6982883  -0.97881171  0.049461768   -1.6982883    0.7194766  1070540 
 3517000    1.0035487   -1.6980146   -1.6980146  -0.97884862  0.059632548   -1.6980146   0.71916597  1070540 
 3518000    1.0021421   -1.6974464   -1.6974464  -0.97928844  0.060974358   -1.6974464     0.718158  1070540 
 3519000    1.0019889   -1.6974046   -1.6974046   -0.9793564  0.062491819   -1.6974046   0.71804824  1070540 
 3520000    1.0030572   -1.6980845   -1.6980845  -0.97927079   0.05679759   -1.6980845   0.71881374  1070540 
 3521000      1.00055   -1.6966273   -1.6966273  -0.97961026  0.062812404   -1.6966273   0.71701707  1070540 
 3522000    1.0016429    -1.697509    -1.697509  -0.97970878  0.057573875    -1.697509   0.71780026  1070540 
 3523000    1.0008534   -1.6967503   -1.6967503  -0.97951582  0.063598393   -1.6967503   0.71723452  1070540 
 3524000     1.001721    -1.697212    -1.697212  -0.97935578  0.052549193    -1.697212   0.71785623  1070540 
 3525000    1.0007445   -1.6968215   -1.6968215  -0.97966504  0.055336652   -1.6968215   0.71715644  1070540 
 3526000   0.99980254   -1.6960228   -1.6960228  -0.97954141  0.066960996   -1.6960228   0.71648141  1070540 
 3527000    1.0015897   -1.6973232   -1.6973232  -0.97956114  0.061481632   -1.6973232    0.7177621  1070540 
 3528000    1.0014866   -1.6968584   -1.6968584  -0.97917019  0.063740022   -1.6968584   0.71768825  1070540 
 3529000    1.0005006    -1.695986    -1.695986   -0.9790043   0.06292033    -1.695986   0.71698166  1070540 
 3530000    1.0031092   -1.6975895   -1.6975895  -0.97873843  0.057342735   -1.6975895   0.71885105  1070540 
 3531000    1.0020759   -1.6965412   -1.6965412  -0.97843069  0.052494495   -1.6965412   0.71811054  1070540 
 3532000    1.0032087   -1.6975068   -1.6975068   -0.9785845  0.054206536   -1.6975068   0.71892232  1070540 
 3533000    1.0019432   -1.6967971   -1.6967971  -0.97878163  0.069300461   -1.6967971   0.71801547  1070540 
 3534000     1.003697     -1.69779     -1.69779  -0.97851771  0.064476497     -1.69779   0.71927226  1070540 
 3535000    1.0028495    -1.697351    -1.697351  -0.97868603   0.06449581    -1.697351   0.71866494  1070540 
 3536000    1.0022212   -1.6972441   -1.6972441  -0.97902945  0.067748335   -1.6972441   0.71821465  1070540 
 3537000    1.0020145   -1.6974135   -1.6974135  -0.97934694  0.059167709   -1.6974135   0.71806656  1070540 
 3538000    1.0025121   -1.6977728   -1.6977728  -0.97934971  0.067790294   -1.6977728   0.71842314  1070540 
 3539000    1.0022749   -1.6980551   -1.6980551  -0.97980194  0.074043727   -1.6980551   0.71825315  1070540 
 3540000     1.002805   -1.6987986   -1.6987986  -0.98016553  0.065134464   -1.6987986   0.71863305  1070540 
 3541000     1.003005   -1.6989338   -1.6989338  -0.98015746  0.063343153   -1.6989338   0.71877637  1070540 
 3542000    1.0024985   -1.6985191   -1.6985191  -0.98010568  0.066245695   -1.6985191   0.71841341  1070540 
 3543000    1.0028713   -1.6984544   -1.6984544  -0.97977385  0.064038406   -1.6984544   0.71868058  1070540 
 3544000    1.0016962   -1.6973798   -1.6973798  -0.97954141    0.0636648   -1.6973798   0.71783843  1070540 
 3545000    1.0039196   -1.6989437   -1.6989437  -0.97951185  0.060000978   -1.6989437   0.71943181  1070540 
 3546000    1.0029208   -1.6980564   -1.6980564  -0.97934034  0.073002106   -1.6980564   0.71871606  1070540 
 3547000    1.0027195   -1.6982016   -1.6982016  -0.97962978  0.068870146   -1.6982016   0.71857179  1070540 
 3548000    1.0036294   -1.6987934   -1.6987934   -0.9795696  0.068158155   -1.6987934   0.71922382  1070540 
 3549000    1.0036903   -1.6982126   -1.6982126  -0.97894514  0.071022324   -1.6982126   0.71926748  1070540 
 3550000    1.0030482   -1.6979602   -1.6979602  -0.97915289  0.068408355   -1.6979602   0.71880732  1070540 
 3551000    1.0041779   -1.6988611   -1.6988611  -0.97924419  0.059810084   -1.6988611   0.71961689  1070540 
 3552000    1.0025341   -1.6979007   -1.6979007  -0.97946185  0.070273174   -1.6979007   0.71843889  1070540 
 3553000    1.0009337   -1.6966756   -1.6966756  -0.97938352  0.069608912   -1.6966756   0.71729204  1070540 
 3554000    1.0035607    -1.698389    -1.698389  -0.97921441  0.068961733    -1.698389    0.7191746  1070540 
 3555000    1.0033144   -1.6981938   -1.6981938  -0.97919577  0.064498495   -1.6981938   0.71899807  1070540 
 3556000     1.002688    -1.697711    -1.697711  -0.97916184  0.063733638    -1.697711   0.71854921  1070540 
 3557000    1.0018739   -1.6972233   -1.6972233  -0.97925756   0.06004671   -1.6972233   0.71796577  1070540 
 3558000    1.0021215   -1.6969709   -1.6969709  -0.97882763  0.065207649   -1.6969709   0.71814323  1070540 
 3559000    1.0036232   -1.6984518   -1.6984518  -0.97923245  0.062476331   -1.6984518   0.71921939  1070540 
 3560000    1.0033453   -1.6979929   -1.6979929  -0.97897272   0.05231292   -1.6979929   0.71902022  1070540 
 3561000    1.0021013   -1.6971236   -1.6971236  -0.97899486  0.058005087   -1.6971236   0.71812879  1070540 
 3562000    1.0008109   -1.6961342   -1.6961342  -0.97893013  0.060243976   -1.6961342   0.71720404  1070540 
 3563000    1.0015773   -1.6969335   -1.6969335  -0.97918032  0.063365993   -1.6969335   0.71775323  1070540 
 3564000    1.0020995   -1.6971948   -1.6971948   -0.9790674   0.05780516   -1.6971948   0.71812744  1070540 
 3565000    1.0020196    -1.697044    -1.697044   -0.9789738  0.061191152    -1.697044   0.71807018  1070540 
 3566000     1.002646   -1.6977244   -1.6977244   -0.9792053  0.061863822   -1.6977244   0.71851914  1070540 
 3567000    1.0014743   -1.6970749   -1.6970749  -0.97939546  0.059970989   -1.6970749   0.71767945  1070540 
 3568000   0.99985443    -1.696242    -1.696242   -0.9797234  0.064666436    -1.696242    0.7165186  1070540 
 3569000    1.0001715   -1.6966584   -1.6966584  -0.97991258  0.058265697   -1.6966584   0.71674585  1070540 
 3570000    1.0008935   -1.6970874   -1.6970874   -0.9798241  0.060762501   -1.6970874   0.71726326  1070540 
 3571000    1.0019674   -1.6978208   -1.6978208  -0.97978802  0.065507915   -1.6978208    0.7180328  1070540 
 3572000    1.0017462   -1.6975321   -1.6975321  -0.97965785  0.061825478   -1.6975321   0.71787429  1070540 
 3573000    1.0003622   -1.6967234   -1.6967234   -0.9798409  0.068040264   -1.6967234   0.71688251  1070540 
 3574000    1.0026565   -1.6978284   -1.6978284  -0.97930174  0.060286582   -1.6978284   0.71852665  1070540 
 3575000    1.0028725   -1.6979287   -1.6979287  -0.97924721  0.058855072   -1.6979287   0.71868144  1070540 
 3576000    1.0021803   -1.6973816   -1.6973816  -0.97919624  0.064230312   -1.6973816   0.71818539  1070540 
 3577000    1.0023852   -1.6976157   -1.6976157  -0.97928354   0.06281226   -1.6976157   0.71833219  1070540 
 3578000    1.0027874    -1.698191    -1.698191  -0.97957063  0.062717873    -1.698191    0.7186204  1070540 
 3579000    1.0032576   -1.6986351   -1.6986351  -0.97967773  0.069367523   -1.6986351   0.71895741  1070540 
 3580000    1.0029782   -1.6988825   -1.6988825  -0.98012536  0.061526849   -1.6988825   0.71875715  1070540 
 3581000    1.0019643   -1.6979177   -1.6979177  -0.97988717  0.052231918   -1.6979177   0.71803056  1070540 
 3582000    1.0007087   -1.6974733   -1.6974733  -0.98034247  0.060878165   -1.6974733    0.7171308  1070540 
 3583000    1.0025795   -1.6985923   -1.6985923  -0.98012091  0.062122089   -1.6985923   0.71847143  1070540 
 3584000    1.0023509   -1.6983663   -1.6983663  -0.98005867  0.058397776   -1.6983663   0.71830764  1070540 
 3585000    1.0044515   -1.6996093   -1.6996093  -0.97979631  0.058418624   -1.6996093   0.71981296  1070540 
 3586000     1.003014   -1.6985739   -1.6985739  -0.97979109  0.067642122   -1.6985739    0.7187828  1070540 
 3587000    1.0035172   -1.6987332   -1.6987332  -0.97958982  0.057478198   -1.6987332    0.7191434  1070540 
 3588000    1.0023057   -1.6979751   -1.6979751  -0.97969981  0.063056476   -1.6979751   0.71827524  1070540 
 3589000    1.0037405   -1.6987914   -1.6987914  -0.97948796  0.063588023   -1.6987914   0.71930342  1070540 
 3590000     1.002674   -1.6977471   -1.6977471   -0.9792079  0.067531014   -1.6977471   0.71853917  1070540 
 3591000    1.0020424   -1.6975261   -1.6975261  -0.97943953  0.070006643   -1.6975261   0.71808652  1070540 
 3592000    1.0044664   -1.6992502   -1.6992502  -0.97942656  0.063230135   -1.6992502   0.71982368  1070540 
 3593000    1.0016333   -1.6971842   -1.6971842  -0.97939086  0.072045129   -1.6971842   0.71779339  1070540 
 3594000    1.0029437   -1.6983323   -1.6983323  -0.97959987  0.061800484   -1.6983323   0.71873244  1070540 
 3595000    1.0028722   -1.6980497   -1.6980497  -0.97936846  0.059141277   -1.6980497   0.71868119  1070540 
 3596000    1.0029395   -1.6972734   -1.6972734    -0.978544  0.060783961   -1.6972734   0.71872941  1070540 
 3597000    1.0026358   -1.6971988   -1.6971988    -0.978687  0.060597272   -1.6971988   0.71851181  1070540 
 3598000    1.0009425   -1.6960887   -1.6960887  -0.97879031  0.058633024   -1.6960887   0.71729835  1070540 
 3599000    1.0026409   -1.6975097   -1.6975097   -0.9789942  0.060336255   -1.6975097   0.71851546  1070540 
 3600000    1.0028396   -1.6974698   -1.6974698  -0.97881199  0.066343001   -1.6974698   0.71865783  1070540 
 3601000    1.0024509   -1.6974847   -1.6974847   -0.9791054  0.063251642   -1.6974847   0.71837933  1070540 
 3602000    1.0019236   -1.6971476   -1.6971476  -0.97914617   0.06193089   -1.6971476   0.71800139  1070540 
 3603000    1.0013405   -1.6965793   -1.6965793  -0.97899581    0.0676217   -1.6965793   0.71758352  1070540 
 3604000    1.0027121   -1.6969969   -1.6969969  -0.97843048  0.068690057   -1.6969969   0.71856644  1070540 
 3605000    1.0024259   -1.6968693   -1.6968693  -0.97850791  0.058866431   -1.6968693   0.71836138  1070540 
 3606000    1.0014181     -1.69667     -1.69667  -0.97903079  0.062028435     -1.69667   0.71763917  1070540 
 3607000    1.0015768   -1.6966711   -1.6966711  -0.97891828  0.064474811   -1.6966711   0.71775286  1070540 
 3608000    1.0020878   -1.6975896   -1.6975896  -0.97947045  0.063588908   -1.6975896    0.7181191  1070540 
 3609000    1.0003068   -1.6960021   -1.6960021  -0.97915934  0.058627161   -1.6960021   0.71684274  1070540 
 3610000   0.99965946   -1.6958701   -1.6958701  -0.97949121  0.061065761   -1.6958701   0.71637888  1070540 
 3611000    1.0001606   -1.6960734   -1.6960734  -0.97933533  0.060183026   -1.6960734   0.71673803  1070540 
 3612000    1.0023784   -1.6973278   -1.6973278  -0.97900048  0.068644826   -1.6973278   0.71832732  1070540 
 3613000    1.0007675   -1.6955476   -1.6955476  -0.97837466    0.0568371   -1.6955476   0.71717292  1070540 
 3614000    1.0023489   -1.6964436   -1.6964436  -0.97813741  0.061293249   -1.6964436   0.71830618  1070540 
 3615000    1.0025584   -1.6965277   -1.6965277  -0.97807133  0.060142287   -1.6965277   0.71845634  1070540 
 3616000    1.0034763   -1.6972079   -1.6972079  -0.97809375  0.060974574   -1.6972079   0.71911413  1070540 
 3617000    1.0045493   -1.6972884   -1.6972884  -0.97740533  0.063044453   -1.6972884   0.71988302  1070540 
 3618000    1.0042577   -1.6969677   -1.6969677  -0.97729358  0.062569067   -1.6969677   0.71967411  1070540 
 3619000    1.0037206   -1.6968233   -1.6968233  -0.97753416  0.063491827   -1.6968233   0.71928916  1070540 
 3620000    1.0039416   -1.6970326   -1.6970326  -0.97758507  0.064517817   -1.6970326   0.71944757  1070540 
 3621000      1.00337   -1.6970984   -1.6970984  -0.97806051  0.060825406   -1.6970984   0.71903792  1070540 
 3622000    1.0040345   -1.6977892   -1.6977892  -0.97827503  0.054114685   -1.6977892   0.71951417  1070540 
 3623000    1.0045084   -1.6981163   -1.6981163  -0.97826258    0.0676496   -1.6981163   0.71985374  1070540 
 3624000    1.0037284   -1.6981764   -1.6981764  -0.97888161  0.053475952   -1.6981764   0.71929478  1070540 
 3625000    1.0042806   -1.6983669   -1.6983669   -0.9786764  0.060166524   -1.6983669   0.71969047  1070540 
 3626000    1.0028617    -1.697606    -1.697606  -0.97893232  0.064816417    -1.697606   0.71867365  1070540 
 3627000    1.0037928   -1.6976351   -1.6976351  -0.97829414  0.074687333   -1.6976351   0.71934095  1070540 
 3628000    1.0022406    -1.697093    -1.697093  -0.97886445  0.061747484    -1.697093   0.71822857  1070540 
 3629000    1.0019488   -1.6970468   -1.6970468  -0.97902734  0.055212686   -1.6970468   0.71801944  1070540 
 3630000    1.0014825   -1.6965526   -1.6965526  -0.97886722  0.067692886   -1.6965526   0.71768534  1070540 
 3631000    1.0019499   -1.6970506   -1.6970506  -0.97903039  0.063353243   -1.6970506   0.71802025  1070540 
 3632000    1.0008449   -1.6964671   -1.6964671  -0.97923871  0.067658462   -1.6964671   0.71722837  1070540 
 3633000    1.0019765   -1.6967889   -1.6967889  -0.97874959   0.06156219   -1.6967889    0.7180393  1070540 
 3634000    1.0005685   -1.6961353   -1.6961353  -0.97910496   0.06512801   -1.6961353   0.71703034  1070540 
 3635000    1.0015902   -1.6971989   -1.6971989  -0.97943643  0.063346384   -1.6971989   0.71776248  1070540 
 3636000     1.001183   -1.6966017   -1.6966017  -0.97913105  0.069048761   -1.6966017   0.71747065  1070540 
 3637000     1.002995   -1.6979335   -1.6979335  -0.97916427  0.060451293   -1.6979335   0.71876919  1070540 
 3638000    1.0029097   -1.6978407   -1.6978407  -0.97913269  0.065439556   -1.6978407   0.71870805  1070540 
 3639000    1.0015619    -1.697189    -1.697189  -0.97944673  0.060214691    -1.697189   0.71774225  1070540 
 3640000   0.99985206   -1.6955621   -1.6955621  -0.97904524  0.067078464   -1.6955621    0.7165169  1070540 
 3641000    1.0020757   -1.6973866   -1.6973866  -0.97927615  0.056447091   -1.6973866   0.71811044  1070540 
 3642000    1.0017483    -1.696951    -1.696951  -0.97907526  0.057625039    -1.696951   0.71787578  1070540 
 3643000    1.0011303   -1.6965006   -1.6965006  -0.97906768  0.063440237   -1.6965006   0.71743289  1070540 
 3644000    1.0025764   -1.6975163   -1.6975163   -0.9790471  0.066705271   -1.6975163   0.71846922  1070540 
 3645000    1.0021703   -1.6971568   -1.6971568  -0.97897862  0.064649306   -1.6971568   0.71817819  1070540 
 3646000    1.0024611   -1.6968711   -1.6968711  -0.97848451  0.066161722   -1.6968711   0.71838658  1070540 
 3647000    1.0021261   -1.6969052   -1.6969052  -0.97875863  0.063227874   -1.6969052   0.71814657  1070540 
 3648000    1.0029235   -1.6974976   -1.6974976  -0.97877964  0.062613654   -1.6974976   0.71871796  1070540 
 3649000    1.0047565   -1.6986152   -1.6986152  -0.97858362  0.061794313   -1.6986152   0.72003153  1070540 
 3650000    1.0047746   -1.6984787   -1.6984787  -0.97843416  0.060827846   -1.6984787   0.72004453  1070540 
 3651000    1.0027871   -1.6972511   -1.6972511  -0.97863086  0.063094016   -1.6972511   0.71862025  1070540 
 3652000    1.0033096   -1.6976348   -1.6976348  -0.97864008  0.068604097   -1.6976348   0.71899468  1070540 
 3653000    1.0027229   -1.6971495   -1.6971495  -0.97857524   0.05676803   -1.6971495   0.71857424  1070540 
 3654000     1.002786   -1.6976129   -1.6976129  -0.97899348  0.052756861   -1.6976129   0.71861944  1070540 
 3655000    1.0031852   -1.6977945   -1.6977945  -0.97888897  0.062916943   -1.6977945   0.71890549  1070540 
 3656000    1.0021762   -1.6978159   -1.6978159  -0.97963348   0.06192881   -1.6978159    0.7181824  1070540 
 3657000    1.0013138   -1.6972434   -1.6972434  -0.97967893  0.065980959   -1.6972434   0.71756443  1070540 
 3658000    1.0018259    -1.697972    -1.697972  -0.98004055  0.065325123    -1.697972   0.71793141  1070540 
 3659000    1.0004305   -1.6971396   -1.6971396  -0.98020817   0.05219474   -1.6971396   0.71693143  1070540 
 3660000    1.0002184   -1.6969951   -1.6969951  -0.98021569  0.066012537   -1.6969951   0.71677942  1070540 
 3661000    1.0004723   -1.6972812   -1.6972812  -0.98031982  0.061760859   -1.6972812   0.71696137  1070540 
 3662000    1.0021574   -1.6980468   -1.6980468  -0.97987781  0.067128044   -1.6980468   0.71816894  1070540 
 3663000    1.0011967   -1.6971142   -1.6971142  -0.97963367  0.065702352   -1.6971142    0.7174805  1070540 
 3664000    1.0005938   -1.6964729   -1.6964729  -0.97942449  0.063743504   -1.6964729   0.71704845  1070540 
 3665000    1.0024303    -1.697793    -1.697793  -0.97942851  0.061798603    -1.697793   0.71836452  1070540 
 3666000    1.0020339   -1.6973718   -1.6973718  -0.97929134  0.066864804   -1.6973718   0.71808047  1070540 
 3667000     1.001648   -1.6973535   -1.6973535  -0.97954957  0.066535056   -1.6973535   0.71780394  1070540 
 3668000    1.0023722   -1.6980611   -1.6980611  -0.97973822  0.063720726   -1.6980611   0.71832289  1070540 
 3669000    1.0034454    -1.698983    -1.698983  -0.97989099  0.066445367    -1.698983   0.71909197  1070540 
 3670000    1.0014687   -1.6978853   -1.6978853  -0.98020985  0.071668548   -1.6978853   0.71767545  1070540 
 3671000    1.0026694   -1.6990962   -1.6990962  -0.98056035  0.065213699   -1.6990962   0.71853585  1070540 
 3672000    1.0016057   -1.6984889   -1.6984889  -0.98071533  0.066768072   -1.6984889   0.71777361  1070540 
 3673000    1.0016463   -1.6986804   -1.6986804  -0.98087771  0.054265117   -1.6986804   0.71780267  1070540 
 3674000    1.0012083   -1.6976895   -1.6976895  -0.98020069  0.066977215   -1.6976895   0.71748879  1070540 
 3675000      1.00241   -1.6986403   -1.6986403  -0.98029031  0.065553854   -1.6986403   0.71834998  1070540 
 3676000    1.0017443   -1.6983459   -1.6983459  -0.98047293  0.062955055   -1.6983459   0.71787295  1070540 
 3677000    1.0033045   -1.6992339   -1.6992339   -0.9802429  0.070127658   -1.6992339   0.71899101  1070540 
 3678000    1.0026343   -1.6989287   -1.6989287  -0.98041799   0.06637004   -1.6989287   0.71851075  1070540 
 3679000    1.0036011   -1.6995478   -1.6995478  -0.98034427  0.065251727   -1.6995478   0.71920352  1070540 
 3680000    1.0033914   -1.6991818   -1.6991818   -0.9801285  0.068571668   -1.6991818   0.71905326  1070540 
 3681000    1.0044413   -1.6992326   -1.6992326  -0.97942701  0.062212639   -1.6992326   0.71980563  1070540 
 3682000    1.0031823   -1.6986721   -1.6986721  -0.97976859  0.062754468   -1.6986721   0.71890346  1070540 
 3683000    1.0027696   -1.6983026   -1.6983026  -0.97969493  0.063112447   -1.6983026    0.7186077  1070540 
 3684000    1.0005431   -1.6970321   -1.6970321  -0.98002004   0.06068672   -1.6970321    0.7170121  1070540 
 3685000      1.00124    -1.697444    -1.697444  -0.97993251  0.052165038    -1.697444    0.7175115  1070540 
 3686000     1.001431   -1.6975029   -1.6975029  -0.97985455  0.073751718   -1.6975029   0.71764838  1070540 
 3687000    1.0016614   -1.6970022   -1.6970022  -0.97918865  0.061912783   -1.6970022   0.71781354  1070540 
 3688000    1.0036775   -1.6983682   -1.6983682  -0.97910995  0.064778748   -1.6983682   0.71925829  1070540 
 3689000    1.0042798   -1.6987397   -1.6987397   -0.9790498  0.073379094   -1.6987397    0.7196899  1070540 
 3690000    1.0037439   -1.6981965   -1.6981965  -0.97889058  0.067272517   -1.6981965   0.71930591  1070540 
 3691000    1.0030758   -1.6970903   -1.6970903  -0.97826314  0.063552096   -1.6970903   0.71882712  1070540 
 3692000    1.0032456   -1.6970207   -1.6970207  -0.97807184  0.074563421   -1.6970207   0.71894882  1070540 
 3693000    1.0026004   -1.6968922   -1.6968922  -0.97840574  0.067443143   -1.6968922   0.71848643  1070540 
 3694000    1.0020404   -1.6967045   -1.6967045  -0.97861942  0.059596065   -1.6967045   0.71808512  1070540 
 3695000    1.0018094   -1.6965425   -1.6965425  -0.97862295  0.061560131   -1.6965425   0.71791955  1070540 
 3696000    1.0006225   -1.6962781   -1.6962781  -0.97920912  0.067975394   -1.6962781     0.717069  1070540 
 3697000    1.0008924   -1.6961846   -1.6961846  -0.97892219  0.058211253   -1.6961846   0.71726243  1070540 
 3698000    1.0006413   -1.6959976   -1.6959976  -0.97891504  0.059131755   -1.6959976   0.71708252  1070540 
 3699000    1.0015372   -1.6962029   -1.6962029  -0.97847834  0.062361908   -1.6962029   0.71772454  1070540 
 3700000    1.0018019   -1.6962129   -1.6962129  -0.97829865  0.064566044   -1.6962129   0.71791423  1070540 
 3701000    1.0014362    -1.696067    -1.696067   -0.9784149  0.060776055    -1.696067   0.71765212  1070540 
 3702000    1.0012111   -1.6956141   -1.6956141  -0.97812324  0.054790566   -1.6956141   0.71749083  1070540 
 3703000     1.001226   -1.6958433   -1.6958433  -0.97834177  0.055233693   -1.6958433   0.71750153  1070540 
 3704000    1.0018412   -1.6961961   -1.6961961  -0.97825378  0.054110656   -1.6961961   0.71794236  1070540 
 3705000    1.0017772   -1.6961605   -1.6961605  -0.97826401  0.053516081   -1.6961605    0.7178965  1070540 
 3706000    1.0021942   -1.6962196   -1.6962196  -0.97802428   0.05645706   -1.6962196   0.71819535  1070540 
 3707000    1.0003978   -1.6952856   -1.6952856  -0.97837758  0.058800533   -1.6952856     0.716908  1070540 
 3708000    1.0027766   -1.6971664   -1.6971664  -0.97855368  0.061815528   -1.6971664   0.71861273  1070540 
 3709000    1.0019874    -1.696555    -1.696555  -0.97850788  0.059654587    -1.696555   0.71804716  1070540 
 3710000    1.0010295   -1.6957304   -1.6957304  -0.97836971  0.066876398   -1.6957304   0.71736068  1070540 
 3711000    1.0038185   -1.6977364   -1.6977364  -0.97837705  0.057910848   -1.6977364   0.71935934  1070540 
 3712000    1.0029667   -1.6970413   -1.6970413  -0.97829236  0.058411006   -1.6970413   0.71874893  1070540 
 3713000    1.0019246   -1.6966389   -1.6966389  -0.97863673  0.063795181   -1.6966389   0.71800215  1070540 
 3714000    1.0030423    -1.696804    -1.696804  -0.97800087  0.059366718    -1.696804    0.7188031  1070540 
 3715000    1.0036875   -1.6971444   -1.6971444  -0.97787899  0.066787232   -1.6971444   0.71926545  1070540 
 3716000    1.0027036   -1.6966282   -1.6966282  -0.97806782  0.065188701   -1.6966282   0.71856035  1070540 
 3717000     1.002251   -1.6967913   -1.6967913  -0.97855532   0.07091604   -1.6967913   0.71823601  1070540 
 3718000    1.0036069    -1.697985    -1.697985  -0.97877724  0.068254348    -1.697985   0.71920774  1070540 
 3719000    1.0022511   -1.6969942   -1.6969942  -0.97875813  0.071535569   -1.6969942   0.71823608  1070540 
 3720000    1.0019317   -1.6970314   -1.6970314  -0.97902422  0.069341273   -1.6970314   0.71800723  1070540 
 3721000      1.00266   -1.6978772   -1.6978772  -0.97934804  0.072211587   -1.6978772   0.71852915  1070540 
 3722000    1.0010057   -1.6966558   -1.6966558  -0.97931222  0.068642866   -1.6966558    0.7173436  1070540 
 3723000    1.0023645   -1.6974876   -1.6974876  -0.97917022    0.0594329   -1.6974876   0.71831738  1070540 
 3724000    1.0027172    -1.697697    -1.697697   -0.9791269  0.060805694    -1.697697   0.71857011  1070540 
 3725000    1.0019928   -1.6975455   -1.6975455   -0.9794945  0.065522556   -1.6975455   0.71805098  1070540 
 3726000    1.0017575   -1.6974179   -1.6974179  -0.97953549  0.056992226   -1.6974179    0.7178824  1070540 
 3727000    1.0024612   -1.6979878   -1.6979878  -0.97960119  0.062744866   -1.6979878   0.71838664  1070540 
 3728000    1.0009674   -1.6969714   -1.6969714  -0.97965517  0.063295541   -1.6969714   0.71731621  1070540 
 3729000    1.0011602   -1.6971622   -1.6971622  -0.97970782  0.068346333   -1.6971622   0.71745436  1070540 
 3730000    1.0004833   -1.6966644   -1.6966644  -0.97969515  0.062742835   -1.6966644   0.71696926  1070540 
 3731000    1.0014748   -1.6973264   -1.6973264  -0.97964661   0.05337239   -1.6973264   0.71767977  1070540 
 3732000    1.0016824    -1.697434    -1.697434   -0.9796054  0.064854426    -1.697434   0.71782858  1070540 
 3733000    1.0015293     -1.69692     -1.69692  -0.97920114  0.067030059     -1.69692   0.71771883  1070540 
 3734000    1.0007948   -1.6965343   -1.6965343  -0.97934185  0.064744497   -1.6965343    0.7171925  1070540 
 3735000    1.0016436   -1.6970914   -1.6970914  -0.97929069   0.07376182   -1.6970914   0.71780073  1070540 
 3736000    1.0015398   -1.6968396   -1.6968396  -0.97911319  0.058669956   -1.6968396   0.71772637  1070540 
 3737000    1.0009489   -1.6964558   -1.6964558  -0.97915283  0.059715737   -1.6964558   0.71730294  1070540 
 3738000    1.0023912   -1.6975423   -1.6975423  -0.97920576  0.067147351   -1.6975423   0.71833651  1070540 
 3739000    1.0018946   -1.6970035   -1.6970035   -0.9790229  0.058616386   -1.6970035   0.71798062  1070540 
 3740000    1.0030062   -1.6975251   -1.6975251  -0.97874787  0.062342837   -1.6975251   0.71877726  1070540 
 3741000    1.0035951    -1.698647    -1.698647  -0.97944774  0.068362627    -1.698647   0.71919924  1070540 
 3742000    1.0022371   -1.6973742   -1.6973742  -0.97914811  0.058763351   -1.6973742   0.71822605  1070540 
 3743000    1.0028262   -1.6980002   -1.6980002  -0.97935193  0.058107466   -1.6980002   0.71864827  1070540 
 3744000    1.0009379   -1.6964718   -1.6964718   -0.9791767  0.062933525   -1.6964718   0.71729506  1070540 
 3745000    1.0028431    -1.697699    -1.697699  -0.97903864  0.063493162    -1.697699   0.71866038  1070540 
 3746000    1.0024849    -1.697734    -1.697734  -0.97933038  0.067677941    -1.697734   0.71840363  1070540 
 3747000    1.0030955   -1.6980088   -1.6980088  -0.97916761  0.061479017   -1.6980088   0.71884122  1070540 
 3748000    1.0023373   -1.6974987   -1.6974987  -0.97920081  0.058105507   -1.6974987   0.71829788  1070540 
 3749000    1.0026348   -1.6980565   -1.6980565  -0.97954541  0.064711136   -1.6980565   0.71851109  1070540 
 3750000    1.0028089   -1.6977481   -1.6977481  -0.97911228  0.061792026   -1.6977481   0.71863581  1070540 
 3751000     1.004328   -1.6988709   -1.6988709  -0.97914644  0.063542735   -1.6988709   0.71972448  1070540 
 3752000    1.0021027   -1.6971996   -1.6971996  -0.97906978  0.062315465   -1.6971996   0.71812978  1070540 
 3753000    1.0023741   -1.6976964   -1.6976964  -0.97937218  0.060632208   -1.6976964   0.71832425  1070540 
 3754000    1.0022338   -1.6979131   -1.6979131   -0.9796894  0.068097493   -1.6979131   0.71822372  1070540 
 3755000    1.0036656   -1.6982283   -1.6982283   -0.9789785  0.071747595   -1.6982283    0.7192498  1070540 
 3756000    1.0013554    -1.697166    -1.697166  -0.97957179  0.071779459    -1.697166   0.71759423  1070540 
 3757000    1.0035293   -1.6985479   -1.6985479  -0.97939585  0.065650567   -1.6985479   0.71915207  1070540 
 3758000     1.002558   -1.6978142   -1.6978142  -0.97935818   0.05409929   -1.6978142   0.71845604  1070540 
 3759000    1.0019715   -1.6972444   -1.6972444  -0.97920865  0.056108113   -1.6972444   0.71803571  1070540 
 3760000    1.0010988   -1.6970368   -1.6970368  -0.97962647  0.069551863   -1.6970368   0.71741035  1070540 
 3761000    1.0027493   -1.6980178   -1.6980178  -0.97942464  0.055558797   -1.6980178   0.71859317  1070540 
 3762000    1.0015698   -1.6972173   -1.6972173  -0.97946938  0.064071039   -1.6972173   0.71774788  1070540 
 3763000    1.0020926   -1.6980486   -1.6980486  -0.97992609   0.06163156   -1.6980486   0.71812255  1070540 
 3764000    1.0017304   -1.6982598   -1.6982598  -0.98039684  0.073580701   -1.6982598   0.71786299  1070540 
 3765000     1.001948   -1.6980806   -1.6980806  -0.98006172  0.065958738   -1.6980806   0.71801887  1070540 
 3766000    1.0027442   -1.6982948   -1.6982948  -0.97970529  0.054941072   -1.6982948   0.71858948  1070540 
 3767000    1.0015645    -1.697485    -1.697485  -0.97974095   0.06494795    -1.697485   0.71774407  1070540 
 3768000    1.0032407   -1.6985821   -1.6985821  -0.97963688  0.060281181   -1.6985821   0.71894525  1070540 
 3769000    1.0018984   -1.6977344   -1.6977344  -0.97975107  0.065231533   -1.6977344   0.71798338  1070540 
 3770000    1.0013118   -1.6975149   -1.6975149   -0.9799519  0.068813974   -1.6975149     0.717563  1070540 
 3771000    1.0009399   -1.6974379   -1.6974379  -0.98014138  0.057038784   -1.6974379   0.71729649  1070540 
 3772000    1.0011172   -1.6980092   -1.6980092  -0.98058565  0.061378148   -1.6980092   0.71742351  1070540 
 3773000    1.0012576   -1.6977341   -1.6977341  -0.98020991  0.059811233   -1.6977341   0.71752417  1070540 
 3774000    1.0018369   -1.6982153   -1.6982153  -0.98027599  0.058772194   -1.6982153   0.71793926  1070540 
 3775000    1.0005465   -1.6976038   -1.6976038  -0.98058925  0.050144207   -1.6976038   0.71701452  1070540 
 3776000    1.0022267    -1.697962    -1.697962  -0.97974335  0.060610549    -1.697962   0.71821864  1070540 
 3777000    1.0028045   -1.6985453   -1.6985453  -0.97991256   0.05377336   -1.6985453   0.71863271  1070540 
 3778000    1.0011619   -1.6974094   -1.6974094   -0.9799538  0.061802343   -1.6974094   0.71745556  1070540 
 3779000    1.0015476   -1.6975429   -1.6975429  -0.97981096  0.071991708   -1.6975429   0.71773196  1070540 
 3780000    1.0031753   -1.6984165   -1.6984165  -0.97951803  0.062143059   -1.6984165   0.71889842  1070540 
 3781000    1.0016679   -1.6972135   -1.6972135  -0.97939528  0.066041141   -1.6972135   0.71781819  1070540 
 3782000    1.0042042   -1.6992865   -1.6992865  -0.97965074  0.064986139   -1.6992865   0.71963572  1070540 
 3783000    1.0014372   -1.6970173   -1.6970173  -0.97936438  0.067797995   -1.6970173   0.71765287  1070540 
 3784000     1.003122   -1.6983677   -1.6983677  -0.97950747  0.058860979   -1.6983677    0.7188602  1070540 
 3785000    1.0038668   -1.6989482   -1.6989482  -0.97955428  0.062031985   -1.6989482   0.71939393  1070540 
 3786000    1.0024271   -1.6981086   -1.6981086  -0.97974638  0.068791063   -1.6981086   0.71836227  1070540 
 3787000    1.0024423    -1.698062    -1.698062  -0.97968886  0.059305276    -1.698062   0.71837316  1070540 
 3788000    1.0011478   -1.6975303   -1.6975303  -0.98008477  0.063491733   -1.6975303   0.71744548  1070540 
 3789000    1.0022907   -1.6975413   -1.6975413   -0.9792768   0.06734805   -1.6975413   0.71826448  1070540 
 3790000   0.99980606   -1.6955071   -1.6955071  -0.97902311  0.067163828   -1.6955071   0.71648394  1070540 
 3791000    1.0023155   -1.6972626   -1.6972626  -0.97898037  0.066339502   -1.6972626   0.71828226  1070540 
 3792000    1.0013035   -1.6969896   -1.6969896  -0.97943255  0.058499884   -1.6969896   0.71755701  1070540 
 3793000    1.0031543   -1.6980226   -1.6980226  -0.97913917  0.059264639   -1.6980226   0.71888338  1070540 
 3794000   0.99955331   -1.6953828   -1.6953828  -0.97907998  0.067800859   -1.6953828   0.71630281  1070540 
 3795000    1.0017001   -1.6970675   -1.6970675  -0.97922626  0.064825993   -1.6970675   0.71784128  1070540 
 3796000    1.0022956     -1.69738     -1.69738  -0.97911199  0.061610326     -1.69738   0.71826802  1070540 
 3797000    1.0003635     -1.69617     -1.69617  -0.97928655  0.058486369     -1.69617   0.71688341  1070540 
 3798000    1.0016938   -1.6969136   -1.6969136  -0.97907692  0.064096967   -1.6969136   0.71783672  1070540 
 3799000    1.0003209   -1.6956328   -1.6956328  -0.97877993  0.063618529   -1.6956328   0.71685285  1070540 
 3800000    1.0012975   -1.6961445   -1.6961445  -0.97859173  0.059408386   -1.6961445   0.71755274  1070540 
 3801000    1.0015824   -1.6961897   -1.6961897  -0.97843282  0.057139809   -1.6961897   0.71775687  1070540 
 3802000    1.0004621   -1.6951602   -1.6951602   -0.9782062  0.061553722   -1.6951602   0.71695404  1070540 
 3803000    1.0024634   -1.6965545   -1.6965545  -0.97816626  0.062083871   -1.6965545   0.71838822  1070540 
 3804000    1.0012745   -1.6958906   -1.6958906  -0.97835439  0.056762509   -1.6958906   0.71753626  1070540 
 3805000     1.002246   -1.6963532   -1.6963532  -0.97812072  0.061578129   -1.6963532   0.71823245  1070540 
 3806000    1.0024512   -1.6967646   -1.6967646  -0.97838511  0.067175715   -1.6967646   0.71837949  1070540 
 3807000    1.0034978   -1.6971893   -1.6971893  -0.97805977  0.054273113   -1.6971893   0.71912953  1070540 
 3808000    1.0038241   -1.6974304   -1.6974304  -0.97806704  0.066008596   -1.6974304   0.71936335  1070540 
 3809000    1.0038294   -1.6975404   -1.6975404  -0.97817325  0.054607372   -1.6975404   0.71936715  1070540 
 3810000     1.002607   -1.6969459   -1.6969459  -0.97845476  0.072364245   -1.6969459   0.71849113  1070540 
 3811000    1.0030097   -1.6968681   -1.6968681  -0.97808836  0.065117389   -1.6968681   0.71877976  1070540 
 3812000    1.0029767    -1.697009    -1.697009  -0.97825293  0.062860915    -1.697009   0.71875608  1070540 
 3813000    1.0027414   -1.6970705   -1.6970705  -0.97848305  0.062642927   -1.6970705   0.71858747  1070540 
 3814000    1.0022039   -1.6966947   -1.6966947  -0.97849244  0.061482156   -1.6966947   0.71820227  1070540 
 3815000    1.0027606   -1.6973372   -1.6973372  -0.97873599  0.069321698   -1.6973372   0.71860121  1070540 
 3816000     1.002183   -1.6967875   -1.6967875  -0.97860024  0.064780814   -1.6967875   0.71818728  1070540 
 3817000    1.0030576   -1.6979408   -1.6979408   -0.9791268  0.070562913   -1.6979408   0.71881405  1070540 
 3818000    1.0033074   -1.6981954   -1.6981954  -0.97920234  0.061645896   -1.6981954   0.71899305  1070540 
 3819000    1.0028008   -1.6978117   -1.6978117  -0.97918165  0.071448394   -1.6978117   0.71863002  1070540 
 3820000    1.0037275   -1.6979543   -1.6979543  -0.97866016  0.058314491   -1.6979543    0.7192941  1070540 
 3821000     1.000571   -1.6959202   -1.6959202  -0.97888815  0.070440809   -1.6959202   0.71703208  1070540 
 3822000    1.0029364   -1.6972758   -1.6972758  -0.97854862  0.067369538   -1.6972758   0.71872718  1070540 
 3823000    1.0019335   -1.6969904   -1.6969904  -0.97898189  0.063938117   -1.6969904   0.71800853  1070540 
 3824000    1.0000739   -1.6956573   -1.6956573  -0.97898142  0.062137125   -1.6956573   0.71667584  1070540 
 3825000    1.0026899   -1.6973286   -1.6973286   -0.9787781  0.059246249   -1.6973286   0.71855055  1070540 
 3826000    1.0010851   -1.6966366   -1.6966366  -0.97923609  0.063966768   -1.6966366   0.71740052  1070540 
 3827000    1.0007669   -1.6959416   -1.6959416  -0.97876915  0.065771458   -1.6959416   0.71717246  1070540 
 3828000    1.0014016   -1.6965833   -1.6965833  -0.97895589  0.065721473   -1.6965833   0.71762737  1070540 
 3829000     1.001266   -1.6963212   -1.6963212    -0.978791  0.061253506   -1.6963212   0.71753016  1070540 
 3830000    1.0010215   -1.6967255   -1.6967255   -0.9793706  0.058347808   -1.6967255   0.71735495  1070540 
 3831000    1.0010813   -1.6966118   -1.6966118  -0.97921402  0.059733861   -1.6966118    0.7173978  1070540 
 3832000    1.0020349   -1.6968664   -1.6968664  -0.97878518  0.073308976   -1.6968664   0.71808118  1070540 
 3833000    1.0036145   -1.6983352   -1.6983352  -0.97912212  0.057868336   -1.6983352   0.71921312  1070540 
 3834000    1.0023156   -1.6973674   -1.6973674  -0.97908505  0.058187258   -1.6973674   0.71828233  1070540 
 3835000    1.0021758    -1.697171    -1.697171  -0.97898884   0.06502675    -1.697171   0.71818218  1070540 
 3836000    1.0019815   -1.6970962   -1.6970962  -0.97905326  0.061927536   -1.6970962   0.71804293  1070540 
 3837000    1.0030698   -1.6981916   -1.6981916  -0.97936875  0.064855943   -1.6981916   0.71882281  1070540 
 3838000    1.0026067   -1.6974247   -1.6974247   -0.9789338   0.06342592   -1.6974247   0.71849094  1070540 
 3839000    1.0020157   -1.6977771   -1.6977771  -0.97970968  0.062948598   -1.6977771   0.71806742  1070540 
 3840000    1.0028697   -1.6982252   -1.6982252  -0.97954573  0.054035632   -1.6982252   0.71867944  1070540 
 3841000    1.0035754    -1.698924    -1.698924  -0.97973883  0.059991229    -1.698924   0.71918514  1070540 
 3842000    1.0022869   -1.6974597   -1.6974597  -0.97919797  0.071503917   -1.6974597   0.71826176  1070540 
 3843000    1.0039186   -1.6987661   -1.6987661  -0.97933496  0.058053413   -1.6987661    0.7194311  1070540 
 3844000    1.0040997   -1.6985777   -1.6985777  -0.97901682  0.064862041   -1.6985777   0.71956083  1070540 
 3845000    1.0038734   -1.6988097   -1.6988097  -0.97941097  0.062592722   -1.6988097   0.71939871  1070540 
 3846000    1.0026695   -1.6978786   -1.6978786  -0.97934264   0.07317198   -1.6978786   0.71853594  1070540 
 3847000    1.0030496   -1.6983814   -1.6983814  -0.97957311  0.063648715   -1.6983814   0.71880831  1070540 
 3848000    1.0020976   -1.6977624   -1.6977624   -0.9796363  0.067779581   -1.6977624   0.71812613  1070540 
 3849000    1.0009772   -1.6970145   -1.6970145  -0.97969124  0.063775432   -1.6970145   0.71732323  1070540 
 3850000    1.0016411   -1.6977529   -1.6977529   -0.9799539  0.064275766   -1.6977529   0.71779898  1070540 
 3851000    1.0023663     -1.69766     -1.69766   -0.9793414   0.06602995     -1.69766   0.71831863  1070540 
 3852000    1.0014151   -1.6973289   -1.6973289  -0.97969183  0.062544637   -1.6973289   0.71763704  1070540 
 3853000    1.0036066    -1.698605    -1.698605  -0.97939745  0.061554958    -1.698605   0.71920752  1070540 
 3854000    1.0026301   -1.6983875   -1.6983875  -0.97987982  0.061072217   -1.6983875    0.7185077  1070540 
 3855000    1.0004482   -1.6968154   -1.6968154  -0.97987127  0.059158161   -1.6968154   0.71694413  1070540 
 3856000    1.0014522     -1.69726     -1.69726  -0.97959639  0.060771228     -1.69726   0.71766361  1070540 
 3857000    1.0032514   -1.6980337   -1.6980337  -0.97908074  0.062426618   -1.6980337   0.71895296  1070540 
 3858000    1.0012297   -1.6964061   -1.6964061  -0.97890195  0.073868498   -1.6964061   0.71750412  1070540 
 3859000    1.0010655   -1.6964627   -1.6964627  -0.97907619  0.063062677   -1.6964627   0.71738647  1070540 
 3860000    1.0037889    -1.698728    -1.698728  -0.97938992  0.057885493    -1.698728    0.7193381  1070540 
 3861000    1.0004847   -1.6966762   -1.6966762  -0.97970592  0.063218748   -1.6966762   0.71697025  1070540 
 3862000    1.0024994   -1.6981278   -1.6981278  -0.97971376  0.057614723   -1.6981278   0.71841402  1070540 
 3863000    1.0012772   -1.6974151   -1.6974151  -0.97987689  0.061176528   -1.6974151   0.71753817  1070540 
 3864000    1.0004159   -1.6967943   -1.6967943  -0.97987334  0.057692928   -1.6967943   0.71692093  1070540 
 3865000    1.0002782   -1.6969545   -1.6969545  -0.98013225  0.070134384   -1.6969545   0.71682226  1070540 
 3866000    1.0001009   -1.6968359   -1.6968359  -0.98014064  0.065395718   -1.6968359   0.71669521  1070540 
 3867000    1.0007644   -1.6972239   -1.6972239  -0.98005315  0.064519914   -1.6972239   0.71717071  1070540 
 3868000   0.99996735   -1.6969173   -1.6969173  -0.98031777  0.065765655   -1.6969173   0.71659952  1070540 
 3869000    1.0003239   -1.6973353   -1.6973353  -0.98048024   0.06274763   -1.6973353   0.71685505  1070540 
 3870000    1.0008593   -1.6974494   -1.6974494  -0.98021073  0.060684231   -1.6974494    0.7172387  1070540 
 3871000    1.0023895   -1.6984458   -1.6984458  -0.98011053  0.059488963   -1.6984458   0.71833526  1070540 
 3872000    1.0022011   -1.6981543   -1.6981543    -0.979954  0.063301945   -1.6981543   0.71820028  1070540 
 3873000    1.0024163    -1.698314    -1.698314  -0.97995954  0.065800257    -1.698314   0.71835447  1070540 
 3874000    1.0013342   -1.6977327   -1.6977327  -0.98015365  0.070556153   -1.6977327   0.71757904  1070540 
 3875000    1.0008505   -1.6972542   -1.6972542   -0.9800218  0.066133037   -1.6972542   0.71723241  1070540 
 3876000    1.0026281   -1.6984321   -1.6984321  -0.97992589  0.062765686   -1.6984321   0.71850624  1070540 
 3877000    1.0014972   -1.6981478   -1.6981478  -0.98045201  0.063343271   -1.6981478   0.71769584  1070540 
 3878000    1.0014404   -1.6975329   -1.6975329  -0.97987774  0.068313329   -1.6975329   0.71765513  1070540 
 3879000    1.0013606   -1.6974049   -1.6974049  -0.97980698  0.075138068   -1.6974049   0.71759795  1070540 
 3880000    1.0038031   -1.6987174   -1.6987174  -0.97936911   0.06189753   -1.6987174   0.71934828  1070540 
 3881000    1.0022644   -1.6978101   -1.6978101   -0.9795645  0.065834194   -1.6978101   0.71824564  1070540 
 3882000     1.002126   -1.6976119   -1.6976119  -0.97946546  0.064819938   -1.6976119   0.71814649  1070540 
 3883000    1.0025877   -1.6981061   -1.6981061  -0.97962881   0.06473344   -1.6981061   0.71847731  1070540 
 3884000    1.0014527    -1.696962    -1.696962  -0.97929803  0.065378044    -1.696962   0.71766396  1070540 
 3885000    1.0027913   -1.6980823   -1.6980823  -0.97945905  0.064861539   -1.6980823   0.71862322  1070540 
 3886000    1.0022969    -1.697975    -1.697975  -0.97970602  0.070028124    -1.697975   0.71826895  1070540 
 3887000    1.0016537    -1.697763    -1.697763  -0.97995499  0.062320978    -1.697763   0.71780798  1070540 
 3888000    1.0010091    -1.697441    -1.697441  -0.98009491   0.05769003    -1.697441   0.71734606  1070540 
 3889000    1.0018627    -1.698247    -1.698247   -0.9802893   0.05950468    -1.698247   0.71795774  1070540 
 3890000     1.000589   -1.6973979   -1.6973979  -0.98035288  0.061516195   -1.6973979     0.717045  1070540 
 3891000    1.0018479   -1.6979151   -1.6979151   -0.9799679  0.060931079   -1.6979151   0.71794719  1070540 
 3892000    1.0002656   -1.6964777   -1.6964777  -0.97966444  0.057907432   -1.6964777   0.71681324  1070540 
 3893000    1.0019772   -1.6979799   -1.6979799  -0.97994015  0.053594794   -1.6979799   0.71803979  1070540 
 3894000    1.0009561   -1.6967956   -1.6967956   -0.9794875  0.059701397   -1.6967956   0.71730805  1070540 
 3895000    1.0003155   -1.6963579   -1.6963579  -0.97950888   0.06516346   -1.6963579   0.71684905  1070540 
 3896000    1.0013922   -1.6972516   -1.6972516  -0.97963098  0.065123399   -1.6972516   0.71762061  1070540 
 3897000    1.0008548   -1.6966786   -1.6966786  -0.97944311  0.063214234   -1.6966786   0.71723547  1070540 
 3898000   0.99975118   -1.6957278   -1.6957278  -0.97928318  0.059904554   -1.6957278   0.71644461  1070540 
 3899000    1.0010212   -1.6969038   -1.6969038  -0.97954911   0.05323495   -1.6969038   0.71735473  1070540 
 3900000    1.0013777   -1.6972702   -1.6972702  -0.97965993  0.064914921   -1.6972702   0.71761023  1070540 
 3901000    1.0012552   -1.6974398   -1.6974398  -0.97991738   0.06132651   -1.6974398    0.7175224  1070540 
 3902000    1.0012138   -1.6971315   -1.6971315  -0.97963866  0.059031968   -1.6971315   0.71749279  1070540 
 3903000     1.002512   -1.6980598   -1.6980598  -0.97963668  0.063844296   -1.6980598   0.71842309  1070540 
 3904000    1.0021834   -1.6977308   -1.6977308  -0.97954318  0.068483176   -1.6977308   0.71818758  1070540 
 3905000    1.0044251   -1.6990186   -1.6990186  -0.97922459  0.054146819   -1.6990186   0.71979403  1070540 
 3906000    1.0024211   -1.6979237   -1.6979237  -0.97956574  0.056741605   -1.6979237   0.71835792  1070540 
 3907000    1.0021404   -1.6978125   -1.6978125  -0.97965567  0.072700104   -1.6978125   0.71815681  1070540 
 3908000    1.0051601   -1.6997641   -1.6997641  -0.97944334  0.061025498   -1.6997641   0.72032078  1070540 
 3909000    1.0038152   -1.6987004   -1.6987004  -0.97934345  0.067472403   -1.6987004   0.71935697  1070540 
 3910000     1.004214   -1.6989996   -1.6989996  -0.97935683  0.072087733   -1.6989996   0.71964275  1070540 
 3911000    1.0048632   -1.6992653   -1.6992653  -0.97915725   0.07239332   -1.6992653   0.72010803  1070540 
 3912000    1.0027295   -1.6979047   -1.6979047  -0.97932576  0.068509872   -1.6979047   0.71857892  1070540 
 3913000    1.0020517   -1.6976759   -1.6976759  -0.97958264  0.064837291   -1.6976759   0.71809325  1070540 
 3914000    1.0026289   -1.6978888   -1.6978888    -0.979382  0.077477105   -1.6978888   0.71850683  1070540 
 3915000     1.003439     -1.69842     -1.69842  -0.97933262  0.065148392     -1.69842   0.71908741  1070540 
 3916000    1.0016181   -1.6975068   -1.6975068  -0.97972428  0.073567314   -1.6975068   0.71778249  1070540 
 3917000    1.0020598   -1.6975147   -1.6975147  -0.97941565  0.072429494   -1.6975147   0.71809905  1070540 
 3918000    1.0025535   -1.6979536   -1.6979536  -0.97950082   0.06815205   -1.6979536   0.71845283  1070540 
 3919000    1.0018605   -1.6974728   -1.6974728  -0.97951662  0.070245773   -1.6974728    0.7179562  1070540 
 3920000    1.0017527   -1.6975936   -1.6975936  -0.97971464  0.061519672   -1.6975936   0.71787891  1070540 
 3921000     1.001837   -1.6976508   -1.6976508  -0.97971147  0.069576672   -1.6976508   0.71793937  1070540 
 3922000    1.0018823   -1.6977405   -1.6977405  -0.97976863   0.05802533   -1.6977405   0.71797184  1070540 
 3923000    1.0002594   -1.6963295   -1.6963295  -0.97952072  0.064267587   -1.6963295   0.71680881  1070540 
 3924000    1.0011384   -1.6971759   -1.6971759  -0.97973721  0.062728831   -1.6971759   0.71743871  1070540 
 3925000    1.0027319    -1.698281    -1.698281  -0.97970035  0.057079523    -1.698281    0.7185807  1070540 
 3926000    1.0022812    -1.697536    -1.697536  -0.97927831  0.067572775    -1.697536   0.71825765  1070540 
 3927000    1.0024164   -1.6974446   -1.6974446  -0.97909002  0.059650972   -1.6974446   0.71835456  1070540 
 3928000    1.0033533   -1.6976288   -1.6976288  -0.97860286  0.060671378   -1.6976288   0.71902597  1070540 
 3929000    1.0023692   -1.6968526   -1.6968526  -0.97853188  0.066620053   -1.6968526   0.71832071  1070540 
 3930000    1.0041869   -1.6979573   -1.6979573   -0.9783339   0.06876722   -1.6979573   0.71962336  1070540 
 3931000    1.0033447   -1.6971036   -1.6971036  -0.97808379  0.072637305   -1.6971036   0.71901983  1070540 
 3932000    1.0031278   -1.6970712   -1.6970712  -0.97820682  0.068313242   -1.6970712   0.71886436  1070540 
 3933000    1.0018538   -1.6963085   -1.6963085  -0.97835706  0.065772966   -1.6963085   0.71795142  1070540 
 3934000    1.0005434   -1.6953873   -1.6953873  -0.97837496  0.062050378   -1.6953873   0.71701234  1070540 
 3935000    1.0017077   -1.6959116   -1.6959116  -0.97806494  0.060810539   -1.6959116   0.71784666  1070540 
 3936000    1.0021975   -1.6962388   -1.6962388  -0.97804114  0.059369736   -1.6962388   0.71819769  1070540 
 3937000    1.0020592   -1.6958085   -1.6958085  -0.97770994  0.057635037   -1.6958085   0.71809857  1070540 
 3938000    1.0025572   -1.6959989   -1.6959989   -0.9775435  0.064826462   -1.6959989   0.71845544  1070540 
 3939000     1.001572   -1.6951608   -1.6951608  -0.97741136  0.070528221   -1.6951608   0.71774947  1070540 
 3940000    1.0026595   -1.6966102   -1.6966102  -0.97808143  0.061916022   -1.6966102   0.71852875  1070540 
 3941000    1.0013897   -1.6954238   -1.6954238  -0.97780502  0.054606904   -1.6954238    0.7176188  1070540 
 3942000    1.0027339   -1.6967531   -1.6967531  -0.97817103   0.07215546   -1.6967531   0.71858206  1070540 
 3943000     1.004458   -1.6973846   -1.6973846    -0.977567  0.050081894   -1.6973846   0.71981763  1070540 
 3944000     1.001322   -1.6956908   -1.6956908  -0.97812051  0.069627833   -1.6956908   0.71757029  1070540 
 3945000    1.0030188   -1.6968974   -1.6968974  -0.97811111  0.055804134   -1.6968974   0.71878624  1070540 
 3946000     1.002453   -1.6969677   -1.6969677  -0.97858686  0.060975643   -1.6969677    0.7183808  1070540 
 3947000    0.9996121    -1.695077    -1.695077  -0.97873206  0.065212833    -1.695077   0.71634494  1070540 
 3948000     1.001845   -1.6969761   -1.6969761  -0.97903107  0.054636861   -1.6969761   0.71794506  1070540 
 3949000    1.0016239   -1.6965341   -1.6965341  -0.97874743  0.061308083   -1.6965341   0.71778668  1070540 
 3950000    1.0031154   -1.6978428   -1.6978428  -0.97898737  0.062398836   -1.6978428   0.71885546  1070540 
 3951000    1.0016147   -1.6964788   -1.6964788   -0.9786988  0.067648663   -1.6964788   0.71778002  1070540 
 3952000    1.0023881   -1.6972209   -1.6972209  -0.97888665   0.06101128   -1.6972209   0.71833428  1070540 
 3953000    1.0038734   -1.6980713   -1.6980713   -0.9786726    0.0678586   -1.6980713   0.71939866  1070540 
 3954000    1.0034914   -1.6980712   -1.6980712  -0.97894623  0.063488472   -1.6980712   0.71912494  1070540 
 3955000    1.0024561   -1.6975576   -1.6975576  -0.97917463  0.063261899   -1.6975576   0.71838302  1070540 
 3956000     1.002274     -1.69753     -1.69753  -0.97927746   0.06093902     -1.69753   0.71825255  1070540 
 3957000    1.0027345   -1.6976557   -1.6976557  -0.97907319  0.069896699   -1.6976557   0.71858254  1070540 
 3958000    1.0034911   -1.6982821   -1.6982821  -0.97915741  0.072801577   -1.6982821   0.71912472  1070540 
 3959000    1.0021076   -1.6975452   -1.6975452  -0.97941191  0.066014704   -1.6975452   0.71813326  1070540 
 3960000    1.0031987   -1.6980242   -1.6980242  -0.97910902  0.061974204   -1.6980242   0.71891521  1070540 
 3961000    1.0025904   -1.6979104   -1.6979104  -0.97943114  0.068283886   -1.6979104   0.71847924  1070540 
 3962000    1.0036245   -1.6987062   -1.6987062  -0.97948588  0.066619649   -1.6987062    0.7192203  1070540 
 3963000    1.0028373   -1.6972446   -1.6972446  -0.97858839  0.061258405   -1.6972446   0.71865621  1070540 
 3964000    1.0031282   -1.6971637   -1.6971637  -0.97829898  0.066236783   -1.6971637   0.71886468  1070540 
 3965000    1.0034587   -1.6973333   -1.6973333  -0.97823183  0.066883666   -1.6973333   0.71910151  1070540 
 3966000     1.003853   -1.6976537   -1.6976537  -0.97826966  0.064686517   -1.6976537   0.71938403  1070540 
 3967000    1.0021811   -1.6966287   -1.6966287  -0.97844275  0.069030634   -1.6966287   0.71818597  1070540 
 3968000    1.0029308   -1.6971736   -1.6971736  -0.97845038  0.055382401   -1.6971736    0.7187232  1070540 
 3969000    1.0036183   -1.6971269   -1.6971269  -0.97791101  0.060170541   -1.6971269   0.71921585  1070540 
 3970000    1.0036625   -1.6969633   -1.6969633  -0.97771571  0.070351928   -1.6969633   0.71924754  1070540 
 3971000    1.0035562   -1.6969825   -1.6969825  -0.97781111  0.065125168   -1.6969825    0.7191714  1070540 
 3972000    1.0021615   -1.6958407   -1.6958407  -0.97766883  0.062795354   -1.6958407   0.71817187  1070540 
 3973000    1.0025096   -1.6961394   -1.6961394  -0.97771802  0.062068903   -1.6961394   0.71842135  1070540 
 3974000    1.0006067   -1.6949032   -1.6949032  -0.97784547  0.061883706   -1.6949032   0.71705772  1070540 
 3975000    1.0003965    -1.694778    -1.694778  -0.97787092  0.063108155    -1.694778   0.71690703  1070540 
 3976000    1.0004289   -1.6947104   -1.6947104  -0.97778014  0.057543986   -1.6947104   0.71693025  1070540 
 3977000    1.0003012   -1.6942792   -1.6942792  -0.97744042   0.05404317   -1.6942792   0.71683875  1070540 
 3978000    1.0010331   -1.6946839   -1.6946839  -0.97732064  0.053921664   -1.6946839   0.71736323  1070540 
 3979000    1.0012353   -1.6948054   -1.6948054  -0.97729721   0.06201233   -1.6948054   0.71750815  1070540 
 3980000    1.0016243   -1.6950946   -1.6950946  -0.97730768   0.06392224   -1.6950946   0.71778695  1070540 
 3981000    1.0005159   -1.6944547   -1.6944547  -0.97746206  0.062372501   -1.6944547   0.71699262  1070540 
 3982000    1.0025101   -1.6956277   -1.6956277  -0.97720601  0.065305553   -1.6956277   0.71842169  1070540 
 3983000    1.0017304   -1.6945951   -1.6945951   -0.9767322  0.064901294   -1.6945951   0.71786294  1070540 
 3984000    1.0019823   -1.6946446   -1.6946446  -0.97660108  0.064608035   -1.6946446   0.71804351  1070540 
 3985000    1.0021152   -1.6949125   -1.6949125  -0.97677371  0.063401502   -1.6949125   0.71813875  1070540 
 3986000    1.0026106   -1.6957296   -1.6957296  -0.97723589  0.063010348   -1.6957296   0.71849374  1070540 
 3987000    1.0019016   -1.6951413   -1.6951413  -0.97715564  0.058903854   -1.6951413   0.71798562  1070540 
 3988000    1.0033396    -1.696208    -1.696208  -0.97719192  0.062061661    -1.696208   0.71901612  1070540 
 3989000    1.0020915   -1.6956838   -1.6956838  -0.97756208  0.063760165   -1.6956838   0.71812175  1070540 
 3990000    1.0032628   -1.6962897   -1.6962897  -0.97732863  0.066450213   -1.6962897   0.71896109  1070540 
 3991000     1.002275   -1.6954738   -1.6954738  -0.97722064  0.069674728   -1.6954738   0.71825321  1070540 
 3992000    1.0032816   -1.6967841   -1.6967841  -0.97780944  0.062216215   -1.6967841   0.71897462  1070540 
 3993000    1.0030189   -1.6965364   -1.6965364  -0.97775014  0.051793685   -1.6965364    0.7187863  1070540 
 3994000    1.0031783   -1.6970124   -1.6970124   -0.9781119  0.062360784   -1.6970124   0.71890055  1070540 
 3995000     1.003867   -1.6975804   -1.6975804  -0.97818626  0.067510183   -1.6975804    0.7193941  1070540 
 3996000    1.0029132   -1.6964731   -1.6964731  -0.97776249  0.059297417   -1.6964731    0.7187106  1070540 
 3997000    1.0033122   -1.6966264   -1.6966264  -0.97762995   0.06044021   -1.6966264   0.71899649  1070540 
 3998000    1.0043392   -1.6972239   -1.6972239   -0.9774914  0.063287593   -1.6972239   0.71973252  1070540 
 3999000    1.0047432   -1.6972889   -1.6972889  -0.97726687  0.068048843   -1.6972889   0.72002201  1070540 
 4000000    1.0041361   -1.6963096   -1.6963096  -0.97672266  0.067776339   -1.6963096   0.71958697  1070540 
Loop time of 6865.62 on 240 procs for 2000000 steps with 1070540 atoms

Performance: 125844.369 tau/day, 291.306 timesteps/s
96.0% CPU use with 240 MPI tasks x 1 OpenMP threads

MPI task timing breakdown:
Section |  min time  |  avg time  |  max time  |%varavg|  %CPU | %total
-----------------------------------------------------------------------
Pair    | 724.01     | 1438.6     | 1952.5     | 498.1 |  97.3 | 20.95
Bond    | 1.3586     | 1.4876     | 1.7136     |   5.5 | 100.0 |  0.02
Neigh   | 679.14     | 1811       | 2194.5     | 668.1 |  99.4 | 26.38
Comm    | 2089.5     | 2651.8     | 4213.2     | 744.7 |  94.3 | 38.62
Output  | 66.842     | 66.961     | 67.18      |   1.0 |  89.8 |  0.98
Modify  | 622.74     | 803.18     | 1189.5     | 358.0 |  94.6 | 11.70
Other   |            | 92.62      |            |       |       |  1.35

Nlocal:        4460.58 ave        5757 max        3577 min
Histogram: 3 12 32 70 71 41 7 1 2 1
Nghost:        10500.4 ave       13073 max        4269 min
Histogram: 3 5 12 15 7 11 23 52 86 26
Neighs:        67321.2 ave       92230 max       23655 min
Histogram: 3 6 3 4 13 51 72 62 20 6

Total # of neighbors = 16157098
Ave neighs/atom = 15.092475
Ave special neighs/atom = 0.0000000
Neighbor list builds = 200000
Dangerous builds = 198000

Total wall time: 3:51:49
