LAMMPS (24 Dec 2020)
OMP_NUM_THREADS environment is not set. Defaulting to 1 thread. (src/comm.cpp:94)
  using 1 OpenMP thread(s) per MPI task
# Simple rigid body system
# needed variables: startTemp, temp

units		lj
atom_style	full
dimension 	3
boundary	p p f
pair_style	lj/smooth 2.5 3.0



variable 	sigma		equal 1.0
variable 	epsilon 	equal 1.0


region		box block 0 80 0 80 0 80
create_box 	3 box
Created orthogonal box = (0.0000000 0.0000000 0.0000000) to (80.000000 80.000000 80.000000)
  6 by 4 by 4 MPI processor grid
lattice 	sc 1.0
Lattice spacing in x,y,z = 1.0000000 1.0000000 1.0000000

create_atoms 	1 region box
Created 512000 atoms
  create_atoms CPU = 0.104 seconds

mass		1 1.0
mass		2 1.0
mass		3 1.0


group		solvent type 1
512000 atoms in group solvent


velocity 	solvent create ${startTemp} 563435 loop geom
velocity 	solvent create 0.5 563435 loop geom

read_data	data.vac add append
Reading data file ...
  orthogonal box = (0.0000000 0.0000000 0.0000000) to (80.000000 80.000000 160.00000)
  3 by 4 by 8 MPI processor grid
Finding 1-2 1-3 1-4 neighbors ...
  special bond factors lj:    0        0        0       
  special bond factors coul:  0        0        0       
     0 = max # of 1-2 neighbors
     0 = max # of 1-3 neighbors
     0 = max # of 1-4 neighbors
     1 = max # of special neighbors
  special bonds CPU = 0.444 seconds
  read_data CPU = 0.451 seconds

neighbor 	0.4 bin

pair_coeff	1 1 1.0 1.0
pair_coeff	2 2 0.0 0.0
pair_coeff	3 3 0.0 0.0
pair_coeff	2 3 0.0 0.0
pair_coeff	1 2*3 0.0 0.0

pair_modify 	shift yes

pair_write      1 1 1000 r 1.0 3.1 pair.txt LJ
Creating table file pair.txt with DATE: 2021-05-19
Neighbor list info ...
  update every 1 steps, delay 10 steps, check yes
  max neighbors/atom: 2000, page size: 100000
  master list distance cutoff = 3.4
  ghost atom cutoff = 3.4
  binsize = 1.7, bins = 48 48 95
  1 neighbor lists, perpetual/occasional/extra = 1 0 0
  (1) pair lj/smooth, perpetual
      attributes: half, newton on
      pair build: half/bin/newton
      stencil: half/bin/3d/newton
      bin: standard
balance 	1.05 shift z 10 1.05
Balancing ...
 rebalancing time: 0.009 seconds
  iteration count = 5
  initial/final maximal load/proc = 10800.000 6480.0000
  initial/final imbalance factor  = 2.0250000 1.2150000
  x cuts: 0.0000000 0.33333333 0.66666667 1.0000000
  y cuts: 0.0000000 0.25000000 0.50000000 0.75000000 1.0000000
  z cuts: 0.0000000 0.062500000 0.12890625 0.18750000 0.25781250 0.30859375 0.38671875 0.43750000 1.0000000


####################### WALLS ###########################


region	       low block  EDGE EDGE EDGE EDGE 0 2

region 	       top block  EDGE EDGE EDGE EDGE 159 160


delete_atoms   region low
WARNING: Ignoring 'compress yes' for molecular system (src/delete_atoms.cpp:125)
Deleted 19200 atoms, new total = 492800

delete_atoms   region top
WARNING: Ignoring 'compress yes' for molecular system (src/delete_atoms.cpp:125)
Deleted 0 atoms, new total = 492800


variable       epsilonWall equal 2*${epsilon}
variable       epsilonWall equal 2*1

variable       cutoffTop   equal   0.7147*${sigma}
variable       cutoffTop   equal   0.7147*1

variable       cutoffLow   equal   3*${sigma}
variable       cutoffLow   equal   3*1


fix            topWall all wall/lj93 zhi EDGE                ${epsilonWall} ${sigma} ${cutoffTop} units box
fix            topWall all wall/lj93 zhi EDGE                2 ${sigma} ${cutoffTop} units box
fix            topWall all wall/lj93 zhi EDGE                2 1 ${cutoffTop} units box
fix            topWall all wall/lj93 zhi EDGE                2 1 0.7147 units box

fix            lowWall all wall/lj93 zlo EDGE                ${epsilonWall} ${sigma} ${cutoffLow} units box
fix            lowWall all wall/lj93 zlo EDGE                2 ${sigma} ${cutoffLow} units box
fix            lowWall all wall/lj93 zlo EDGE                2 1 ${cutoffLow} units box
fix            lowWall all wall/lj93 zlo EDGE                2 1 3 units box


###################### COMPUTES ##########################

compute        bin1 solvent chunk/atom bin/1d z upper 1.0



######################	FIXES ############################


fix 		peclet solvent ave/chunk 1000 1 1000 bin1 density/number norm 		 none ave one file density.profile

fix 		 temp solvent ave/chunk 1000 1 1000 bin1 temp norm none ave one 		 file temp.profile

fix 		2 solvent nve

## Thermostat


region		regthermo block EDGE EDGE EDGE EDGE 0 20

group 		thermo dynamic solvent region regthermo every 1000
dynamic group thermo defined

fix 		3 thermo langevin ${startTemp} ${temp} 10 156453
fix 		3 thermo langevin 0.5 ${temp} 10 156453
fix 		3 thermo langevin 0.5 .9 10 156453



#### Load balancing


fix 		bal all balance 1000 1.05 shift z 10 1.05


############### Diagnostics and computes ###################
#compute 	com cube	  rigid/local	1 mol x y z
#compute 	quat cube	  rigid/local	1 mol quatw quati quatj quatk

thermo 		1000
thermo_style 	custom step temp epair evdwl etotal press pe ke vol

dump		1 all custom 100000 dump.lammpstrj id mol type x y z
dump 		2 all image 10000 image.*.png type type
dump 		3 all movie 1000 movie.avi type type
#dump 		com cube local 1000 dump.*.xyz c_com[*]
#dump		quat cube      local 1000 dump.*.quat c_quat[*]


restart 	500000 restart.dat
timestep 	0.0025
timer 		full
New timer settings: style=full  mode=nosync  timeout=off


run		1000000
Per MPI rank memory allocation (min/avg/max) = 12.19 | 12.58 | 12.81 Mbytes
Step Temp E_pair E_vdwl TotEng Press PotEng KinEng Volume 
       0   0.49998514   -3.5955076   -3.5955076   -2.8455314     8.314756   -3.5955076   0.74997619      1024000 
    1000    1.4100084   -5.0834361   -5.0834361   -2.9684277    3.5470373   -5.0834361    2.1150083      1024000 
    2000    1.3456295   -5.1246822   -5.1246822    -3.106242    2.3512281   -5.1246822    2.0184402      1024000 
    3000    1.2381282    -5.090978    -5.090978   -3.2337895    1.5359902    -5.090978    1.8571885      1024000 
    4000    1.1827424    -5.094851    -5.094851   -3.3207411   0.64172028    -5.094851      1.77411      1024000 
    5000    1.1105151   -5.0302054   -5.0302054   -3.3644361 0.0047502155   -5.0302054    1.6657693      1024000 
    6000    1.0315086    -4.927358    -4.927358   -3.3800982  -0.32493478    -4.927358    1.5472598      1024000 
    7000   0.97325438   -4.8426079   -4.8426079   -3.3827293  -0.41662012   -4.8426079    1.4598786      1024000 
    8000   0.96173614   -4.8274214   -4.8274214   -3.3848201  -0.27837943   -4.8274214    1.4426013      1024000 
    9000   0.98115843   -4.8654983   -4.8654983   -3.3937637  -0.10810222   -4.8654983    1.4717347      1024000 
   10000   0.98747258   -4.8910157   -4.8910157   -3.4098099 -0.021854224   -4.8910157    1.4812059      1024000 
   11000     0.985202   -4.9013064   -4.9013064   -3.4235064  -0.00329682   -4.9013064       1.4778      1024000 
   12000   0.98469559    -4.911448    -4.911448   -3.4344076  0.016578053    -4.911448    1.4770404      1024000 
   13000    0.9870583   -4.9243226   -4.9243226   -3.4437382  0.052514656   -4.9243226    1.4805844      1024000 
   14000   0.98745367    -4.932757    -4.932757   -3.4515795   0.06431247    -4.932757    1.4811775      1024000 
   15000   0.98135751   -4.9304325   -4.9304325   -3.4583992  0.056365914   -4.9304325    1.4720333      1024000 
   16000   0.97786219     -4.93118     -4.93118   -3.4643897  0.054750239     -4.93118    1.4667903      1024000 
   17000   0.97693844    -4.935995    -4.935995   -3.4705903  0.062274852    -4.935995    1.4654047      1024000 
   18000    0.9777193   -4.9414942   -4.9414942   -3.4749182  0.070346815   -4.9414942     1.466576      1024000 
   19000   0.97787746   -4.9459143   -4.9459143   -3.4791011   0.08207764   -4.9459143    1.4668132      1024000 
   20000   0.97890302   -4.9510782   -4.9510782   -3.4827266  0.095105901   -4.9510782    1.4683516      1024000 
   21000   0.97941648   -4.9552743   -4.9552743   -3.4861525  0.098806204   -4.9552743    1.4691217      1024000 
   22000   0.97968599   -4.9590503   -4.9590503   -3.4895243   0.10026117   -4.9590503     1.469526      1024000 
   23000   0.98006852   -4.9622243   -4.9622243   -3.4921245   0.10601325   -4.9622243    1.4700998      1024000 
   24000   0.98088777   -4.9661589   -4.9661589   -3.4948302   0.11987695   -4.9661589    1.4713287      1024000 
   25000   0.98257065   -4.9706962   -4.9706962   -3.4968432   0.12497779   -4.9706962     1.473853      1024000 
   26000   0.98596826   -4.9786295   -4.9786295   -3.4996801   0.19749789   -4.9786295    1.4789494      1024000 
   27000   0.99904776    -5.000579    -5.000579   -3.5020104   0.62004582    -5.000579    1.4985686      1024000 
   28000    1.0146208   -5.0258188   -5.0258188   -3.5038907    1.1188441   -5.0258188    1.5219281      1024000 
   29000    1.0291355   -5.0489696   -5.0489696   -3.5052696    1.6309259   -5.0489696    1.5437001      1024000 
   30000    1.0382167   -5.0642668   -5.0642668   -3.5069449    1.7359256   -5.0642668    1.5573219      1024000 
   31000     1.020816    -5.039791    -5.039791   -3.5085701    1.2949535    -5.039791    1.5312209      1024000 
   32000    1.0035883   -5.0145432   -5.0145432   -3.5091638   0.84344653   -5.0145432    1.5053794      1024000 
   33000   0.97632102   -4.9744154   -4.9744154   -3.5099368    0.4628297   -4.9744154    1.4644786      1024000 
   34000   0.93565047   -4.9143754   -4.9143754   -3.5109025   0.20351721   -4.9143754    1.4034729      1024000 
   35000   0.89678751     -4.85727     -4.85727   -3.5120915  0.039577113     -4.85727    1.3451785      1024000 
   36000   0.86579678   -4.8120464   -4.8120464   -3.5133538 -0.064004462   -4.8120464    1.2986925      1024000 
   37000   0.84738933    -4.785416    -4.785416   -3.5143346  -0.11653741    -4.785416    1.2710814      1024000 
   38000   0.83887274   -4.7737023   -4.7737023   -3.5153958  -0.12470118   -4.7737023    1.2583066      1024000 
   39000   0.84066549   -4.7774585   -4.7774585   -3.5164628 -0.097209617   -4.7774585    1.2609957      1024000 
   40000   0.85108763   -4.7943324   -4.7943324   -3.5177035 -0.058323802   -4.7943324    1.2766288      1024000 
   41000    0.8679004    -4.820129    -4.820129    -3.518281 0.0047090499    -4.820129     1.301848      1024000 
   42000   0.88700364     -4.84985     -4.84985   -3.5193472   0.10707944     -4.84985    1.3305028      1024000 
   43000   0.90377347   -4.8759467   -4.8759467   -3.5202893   0.19734591   -4.8759467    1.3556575      1024000 
   44000   0.90969811   -4.8859201   -4.8859201   -3.5213757   0.24003985   -4.8859201    1.3645444      1024000 
   45000   0.90574863   -4.8810098   -4.8810098   -3.5223896   0.22516283   -4.8810098    1.3586202      1024000 
   46000   0.89355391   -4.8642394   -4.8642394   -3.5239113   0.15828667   -4.8642394    1.3403281      1024000 
   47000   0.87737119   -4.8408425   -4.8408425   -3.5247884  0.065993832   -4.8408425    1.3160541      1024000 
   48000   0.85874841    -4.813837    -4.813837    -3.525717 -0.004069903    -4.813837      1.28812      1024000 
   49000   0.84635761   -4.7966787   -4.7966787   -3.5271449 -0.055268726   -4.7966787    1.2695338      1024000 
   50000   0.83900509   -4.7866894   -4.7866894   -3.5281843 -0.065067623   -4.7866894    1.2585051      1024000 
   51000   0.83999336   -4.7894749   -4.7894749   -3.5294874 -0.066412827   -4.7894749    1.2599875      1024000 
   52000   0.84663244   -4.8009896   -4.8009896   -3.5310436 -0.035418864   -4.8009896    1.2699461      1024000 
   53000   0.86005774   -4.8224493   -4.8224493   -3.5323654  0.016443772   -4.8224493     1.290084      1024000 
   54000    0.8738499   -4.8445917   -4.8445917   -3.5338195  0.079751422   -4.8445917    1.3107722      1024000 
   55000   0.88701753   -4.8661205   -4.8661205   -3.5355969   0.14654197   -4.8661205    1.3305236      1024000 
   56000    0.8935325   -4.8777976   -4.8777976   -3.5375015    0.1872547   -4.8777976     1.340296      1024000 
   57000   0.89504045   -4.8814609   -4.8814609    -3.538903   0.18294658   -4.8814609     1.342558      1024000 
   58000   0.88750824   -4.8720111   -4.8720111   -3.5407515   0.15043819   -4.8720111    1.3312597      1024000 
   59000   0.88000162   -4.8628703   -4.8628703   -3.5428706   0.11085285   -4.8628703    1.3199998      1024000 
   60000   0.87086649   -4.8521759   -4.8521759   -3.5458789  0.083348334   -4.8521759    1.3062971      1024000 
   61000   0.86610371   -4.8484643   -4.8484643   -3.5493114  0.063264023   -4.8484643    1.2991529      1024000 
   62000   0.86631457   -4.8522852   -4.8522852    -3.552816  0.075956531   -4.8522852    1.2994692      1024000 
   63000   0.87361831   -4.8675019   -4.8675019    -3.557077   0.12212916   -4.8675019    1.3104248      1024000 
   64000   0.88431728   -4.8888534   -4.8888534   -3.5623802   0.19522659   -4.8888534    1.3264732      1024000 
   65000   0.89767022   -4.9150519   -4.9150519   -3.5685493   0.28108624   -4.9150519    1.3465026      1024000 
   66000   0.90763901   -4.9377638   -4.9377638   -3.5763081   0.37579149   -4.9377638    1.3614558      1024000 
   67000   0.91232428   -4.9540715   -4.9540715   -3.5855878   0.44189373   -4.9540715    1.3684836      1024000 
   68000   0.90792341   -4.9590152   -4.9590152   -3.5971329   0.45357296   -4.9590152    1.3618824      1024000 
   69000   0.89672666   -4.9554627   -4.9554627   -3.6103755   0.41385099   -4.9554627    1.3450873      1024000 
   70000   0.87762999   -4.9434991   -4.9434991   -3.6270567   0.32520334   -4.9434991    1.3164423      1024000 
   71000   0.85332432   -4.9247305   -4.9247305   -3.6447466   0.23408269   -4.9247305    1.2799839      1024000 
   72000   0.83327538   -4.9093257   -4.9093257   -3.6594152   0.18019461   -4.9093257    1.2499105      1024000 
   73000   0.81791129   -4.9071782   -4.9071782   -3.6803137   0.24710244   -4.9071782    1.2268644      1024000 
   74000   0.81192876   -4.9270004   -4.9270004   -3.7091097   0.32761812   -4.9270004    1.2178907      1024000 
   75000    0.8108332    -4.952321    -4.952321   -3.7360736    0.3390909    -4.952321    1.2162473      1024000 
   76000   0.81480761   -4.9775552   -4.9775552   -3.7553463   0.31647202   -4.9775552    1.2222089      1024000 
   77000    0.8202078   -5.0007379   -5.0007379   -3.7704286   0.32699048   -5.0007379    1.2303092      1024000 
   78000   0.82519691   -5.0179312   -5.0179312   -3.7801384    0.3795658   -5.0179312    1.2377928      1024000 
   79000    0.8341104   -5.0387602   -5.0387602   -3.7875971    0.4423471   -5.0387602    1.2511631      1024000 
   80000   0.83077103   -5.0412681   -5.0412681   -3.7951141   0.44224634   -5.0412681     1.246154      1024000 
   81000   0.81416834   -5.0246949   -5.0246949   -3.8034449   0.33667973   -5.0246949      1.22125      1024000 
   82000   0.79413192   -5.0026838   -5.0026838   -3.8114883   0.25138473   -5.0026838    1.1911955      1024000 
   83000   0.77767428   -4.9869558   -4.9869558   -3.8204467    0.1848858   -4.9869558    1.1665091      1024000 
   84000   0.76400783   -4.9749221   -4.9749221   -3.8289127   0.13782007   -4.9749221    1.1460094      1024000 
   85000   0.75351168   -4.9674622   -4.9674622    -3.837197  0.082497074   -4.9674622    1.1302652      1024000 
   86000   0.74609319   -4.9629056   -4.9629056   -3.8437681  0.027815861   -4.9629056    1.1191375      1024000 
   87000   0.73896258   -4.9555397   -4.9555397   -3.8470981 -0.029329327   -4.9555397    1.1084416      1024000 
   88000   0.73088232    -4.944396    -4.944396   -3.8480748 -0.088125435    -4.944396    1.0963213      1024000 
   89000   0.72357599   -4.9313829   -4.9313829   -3.8460211  -0.13991378   -4.9313829    1.0853618      1024000 
   90000   0.71649377   -4.9163744   -4.9163744    -3.841636  -0.18260874   -4.9163744    1.0747385      1024000 
   91000   0.70788517   -4.8986127   -4.8986127   -3.8367871  -0.20846235   -4.8986127    1.0618256      1024000 
   92000   0.70169418   -4.8861572   -4.8861572    -3.833618   -0.2274755   -4.8861572    1.0525391      1024000 
   93000   0.69683422   -4.8763006   -4.8763006   -3.8310514  -0.24017738   -4.8763006    1.0452492      1024000 
   94000   0.69173589   -4.8685869   -4.8685869   -3.8309852  -0.24301341   -4.8685869    1.0376017      1024000 
   95000   0.69008203   -4.8668881   -4.8668881   -3.8317671  -0.24590279   -4.8668881    1.0351209      1024000 
   96000   0.69011889   -4.8677327   -4.8677327   -3.8325565  -0.23772025   -4.8677327    1.0351762      1024000 
   97000   0.69339395   -4.8742026   -4.8742026   -3.8341138  -0.22738426   -4.8742026    1.0400888      1024000 
   98000   0.69745263   -4.8814381   -4.8814381   -3.8352613  -0.21456067   -4.8814381    1.0461768      1024000 
   99000   0.70368263   -4.8920108   -4.8920108    -3.836489  -0.19109034   -4.8920108    1.0555218      1024000 
  100000   0.71366919   -4.9081905   -4.9081905   -3.8376889  -0.16235534   -4.9081905    1.0705016      1024000 
  101000    0.7215744   -4.9207988   -4.9207988   -3.8384394  -0.11842712   -4.9207988    1.0823594      1024000 
  102000   0.73094267   -4.9358377   -4.9358377   -3.8394259 -0.078324002   -4.9358377    1.0964118      1024000 
  103000   0.73875019   -4.9497869   -4.9497869   -3.8416639 -0.042630123   -4.9497869     1.108123      1024000 
  104000   0.74563135    -4.962664    -4.962664   -3.8442193 -0.003016861    -4.962664    1.1184448      1024000 
  105000   0.74928788   -4.9727579   -4.9727579   -3.8488283  0.029139852   -4.9727579    1.1239295      1024000 
  106000   0.75194289   -4.9818854   -4.9818854   -3.8539734  0.061875183   -4.9818854     1.127912      1024000 
  107000   0.75570922   -4.9940614   -4.9940614   -3.8604998   0.09175003   -4.9940614    1.1335615      1024000 
  108000   0.75994574     -5.00754     -5.00754   -3.8676237    0.1282002     -5.00754    1.1399163      1024000 
  109000   0.76338342   -5.0196006   -5.0196006   -3.8745278   0.16629877   -5.0196006    1.1450728      1024000 
  110000   0.76783427     -5.03415     -5.03415   -3.8824009   0.19581104     -5.03415    1.1517491      1024000 
  111000   0.77099254     -5.04638     -5.04638   -3.8898935   0.21800018     -5.04638    1.1564865      1024000 
  112000   0.77110182   -5.0530423   -5.0530423   -3.8963919   0.23281968   -5.0530423    1.1566504      1024000 
  113000   0.77079053   -5.0584443   -5.0584443   -3.9022609   0.22701819   -5.0584443    1.1561835      1024000 
  114000   0.76834096   -5.0599628   -5.0599628   -3.9074537   0.21660266   -5.0599628    1.1525091      1024000 
  115000   0.76361186   -5.0574095   -5.0574095    -3.911994   0.19777747   -5.0574095    1.1454155      1024000 
  116000    0.7566452   -5.0516532   -5.0516532   -3.9166877   0.17337751   -5.0516532    1.1349655      1024000 
  117000   0.74966158   -5.0464582   -5.0464582   -3.9219681   0.14057994   -5.0464582    1.1244901      1024000 
  118000   0.74346203   -5.0408743   -5.0408743   -3.9256835  0.099524243   -5.0408743    1.1151908      1024000 
  119000   0.73711254   -5.0349356   -5.0349356   -3.9292691  0.062917949   -5.0349356    1.1056666      1024000 
  120000   0.72967782   -5.0250144   -5.0250144   -3.9304999  0.027616974   -5.0250144    1.0945145      1024000 
  121000   0.72457168   -5.0181023   -5.0181023    -3.931247 -0.008219121   -5.0181023    1.0868553      1024000 
  122000   0.71962125   -5.0107558   -5.0107558   -3.9313261 -0.051786596   -5.0107558    1.0794297      1024000 
  123000   0.71458916   -5.0029303   -5.0029303   -3.9310488 -0.076198623   -5.0029303    1.0718816      1024000 
  124000   0.70971838   -4.9943674   -4.9943674    -3.929792  -0.10121565   -4.9943674    1.0645754      1024000 
  125000   0.70547139   -4.9864941   -4.9864941   -3.9282892  -0.11962075   -4.9864941    1.0582049      1024000 
  126000   0.70223939    -4.979903    -4.979903    -3.926546   -0.1360825    -4.979903     1.053357      1024000 
  127000   0.69962251   -4.9744508   -4.9744508   -3.9250191  -0.14612055   -4.9744508    1.0494316      1024000 
  128000   0.69823135   -4.9724906   -4.9724906   -3.9251457  -0.14973235   -4.9724906    1.0473449      1024000 
  129000   0.69910236   -4.9729621   -4.9729621   -3.9243107  -0.15250951   -4.9729621    1.0486514      1024000 
  130000   0.69952515   -4.9729239   -4.9729239   -3.9236383   -0.1444913   -4.9729239    1.0492856      1024000 
  131000   0.70164137   -4.9762668   -4.9762668   -3.9238069  -0.13134239   -4.9762668    1.0524599      1024000 
  132000   0.70692889   -4.9840128   -4.9840128   -3.9236216   -0.1191394   -4.9840128    1.0603912      1024000 
  133000   0.71068292   -4.9899173   -4.9899173   -3.9238951 -0.098848822   -4.9899173    1.0660222      1024000 
  134000   0.71541119   -4.9968285   -4.9968285   -3.9237139 -0.068239681   -4.9968285    1.0731146      1024000 
  135000   0.72107413   -5.0067681   -5.0067681   -3.9251591 -0.046958744   -5.0067681     1.081609      1024000 
  136000   0.72635897   -5.0159959   -5.0159959   -3.9264597 -0.019714207   -5.0159959    1.0895362      1024000 
  137000   0.72984975   -5.0229712   -5.0229712   -3.9281988  0.014506276   -5.0229712    1.0947724      1024000 
  138000   0.73298123   -5.0310473   -5.0310473   -3.9315777  0.045238885   -5.0310473    1.0994696      1024000 
  139000   0.73561646   -5.0386125   -5.0386125     -3.93519  0.072455846   -5.0386125    1.1034225      1024000 
  140000   0.73856931   -5.0473079   -5.0473079   -3.9394562  0.094023692   -5.0473079    1.1078517      1024000 
  141000   0.74064432   -5.0557075   -5.0557075   -3.9447432   0.11036858   -5.0557075    1.1109642      1024000 
  142000   0.74142679   -5.0617787   -5.0617787   -3.9496408   0.12808809   -5.0617787    1.1121379      1024000 
  143000   0.74160406    -5.067598    -5.067598   -3.9551941   0.13836134    -5.067598    1.1124038      1024000 
  144000   0.74214724   -5.0728919   -5.0728919   -3.9596733   0.13717192   -5.0728919    1.1132186      1024000 
  145000   0.74168628   -5.0766993   -5.0766993   -3.9641721   0.13159637   -5.0766993    1.1125272      1024000 
  146000   0.73925194   -5.0770507   -5.0770507   -3.9681751   0.13184786   -5.0770507    1.1088757      1024000 
  147000   0.73659494   -5.0757813   -5.0757813   -3.9708911   0.12164098   -5.0757813    1.1048902      1024000 
  148000   0.73464571   -5.0757816   -5.0757816   -3.9738152   0.10068201   -5.0757816    1.1019663      1024000 
  149000   0.73033068   -5.0719057   -5.0719057   -3.9764119  0.079298261   -5.0719057    1.0954938      1024000 
  150000   0.72606873   -5.0670264   -5.0670264   -3.9779255  0.057830745   -5.0670264    1.0891009      1024000 
  151000   0.72180624   -5.0626942   -5.0626942    -3.979987  0.036087048   -5.0626942    1.0827072      1024000 
  152000   0.71730224   -5.0568368   -5.0568368   -3.9808856   0.01043132   -5.0568368    1.0759512      1024000 
  153000   0.71441412   -5.0525983   -5.0525983   -3.9809793 -0.013064286   -5.0525983     1.071619      1024000 
  154000   0.71085598   -5.0475586   -5.0475586   -3.9812768 -0.026202099   -5.0475586    1.0662818      1024000 
  155000   0.70939371   -5.0452464   -5.0452464    -3.981158 -0.052804132   -5.0452464    1.0640884      1024000 
  156000   0.70651685   -5.0401314   -5.0401314   -3.9803583 -0.064283178   -5.0401314    1.0597731      1024000 
  157000   0.70298279   -5.0350495   -5.0350495   -3.9805775 -0.071438445   -5.0350495     1.054472      1024000 
  158000   0.70264264   -5.0324786   -5.0324786   -3.9785168 -0.080386339   -5.0324786    1.0539618      1024000 
  159000   0.70221997   -5.0309696   -5.0309696   -3.9776418 -0.085956207   -5.0309696    1.0533278      1024000 
  160000   0.70288165   -5.0309521   -5.0309521   -3.9766318 -0.085739171   -5.0309521    1.0543203      1024000 
  161000   0.70287621   -5.0308586   -5.0308586   -3.9765464 -0.082170829   -5.0308586    1.0543122      1024000 
  162000   0.70343715   -5.0318064   -5.0318064   -3.9766528 -0.073413991   -5.0318064    1.0551536      1024000 
  163000   0.70615745   -5.0354797   -5.0354797   -3.9762457 -0.068766086   -5.0354797     1.059234      1024000 
  164000   0.70759017   -5.0379818   -5.0379818   -3.9765987 -0.057234602   -5.0379818    1.0613831      1024000 
  165000   0.70846216    -5.040171    -5.040171   -3.9774799 -0.035713837    -5.040171    1.0626911      1024000 
  166000   0.71345556   -5.0490029   -5.0490029   -3.9788218 -0.027115584   -5.0490029    1.0701812      1024000 
  167000   0.71598774    -5.053601    -5.053601   -3.9796215 -0.0049695011    -5.053601    1.0739794      1024000 
  168000   0.71852483   -5.0590871   -5.0590871   -3.9813021  0.011809819   -5.0590871    1.0777851      1024000 
  169000   0.72062881   -5.0633681   -5.0633681    -3.982427  0.028836229   -5.0633681     1.080941      1024000 
  170000    0.7232313   -5.0699186   -5.0699186   -3.9850738  0.041748029   -5.0699186    1.0848447      1024000 
  171000   0.72378267   -5.0726372   -5.0726372   -3.9869654  0.061991709   -5.0726372    1.0856718      1024000 
  172000   0.72455151   -5.0769585   -5.0769585   -3.9901335  0.071160254   -5.0769585    1.0868251      1024000 
  173000   0.72461416   -5.0797856   -5.0797856   -3.9928665   0.07811833   -5.0797856     1.086919      1024000 
  174000   0.72601569   -5.0850597   -5.0850597   -3.9960384   0.07824337   -5.0850597    1.0890213      1024000 
  175000   0.72533043   -5.0873825   -5.0873825   -3.9993891  0.081527231   -5.0873825    1.0879934      1024000 
  176000   0.72418466   -5.0887225   -5.0887225   -4.0024477  0.078415459   -5.0887225    1.0862748      1024000 
  177000   0.72256334   -5.0881266   -5.0881266   -4.0042838  0.079423029   -5.0881266    1.0838428      1024000 
  178000   0.72221314    -5.089318    -5.089318   -4.0060005  0.067969185    -5.089318    1.0833175      1024000 
  179000   0.71902432   -5.0864178   -5.0864178   -4.0078835  0.059584918   -5.0864178    1.0785343      1024000 
  180000   0.71700968   -5.0839273   -5.0839273    -4.008415  0.053163321   -5.0839273    1.0755123      1024000 
  181000   0.71603251   -5.0837659   -5.0837659   -4.0097193  0.036199425   -5.0837659    1.0740466      1024000 
  182000   0.71386482   -5.0821357   -5.0821357   -4.0113406  0.020578006   -5.0821357    1.0707951      1024000 
  183000   0.71178447   -5.0788131   -5.0788131   -4.0111386  0.007335659   -5.0788131    1.0676745      1024000 
  184000   0.71015874   -5.0771082   -5.0771082   -4.0118723 -0.0083426457   -5.0771082    1.0652359      1024000 
  185000   0.70698231   -5.0729426   -5.0729426   -4.0124713 -0.014024643   -5.0729426    1.0604713      1024000 
  186000   0.70523518   -5.0702988   -5.0702988   -4.0124482 -0.026680756   -5.0702988    1.0578506      1024000 
  187000   0.70441707   -5.0685096   -5.0685096   -4.0118862 -0.033115101   -5.0685096    1.0566235      1024000 
  188000    0.7036151   -5.0669593   -5.0669593   -4.0115388 -0.037723773   -5.0669593    1.0554205      1024000 
  189000   0.70378311   -5.0673747   -5.0673747   -4.0117022 -0.047217942   -5.0673747    1.0556725      1024000 
  190000   0.70186543   -5.0646702   -5.0646702   -4.0118742 -0.046607302   -5.0646702     1.052796      1024000 
  191000   0.70293796   -5.0660454   -5.0660454   -4.0116406 -0.049742099   -5.0660454    1.0544048      1024000 
  192000   0.70269066   -5.0658841   -5.0658841   -4.0118503 -0.040877382   -5.0658841    1.0540339      1024000 
  193000   0.70415042   -5.0677341   -5.0677341   -4.0115106  -0.03584091   -5.0677341    1.0562235      1024000 
  194000   0.70441843   -5.0685486   -5.0685486   -4.0119231 -0.028674437   -5.0685486    1.0566255      1024000 
  195000    0.7063498   -5.0724584   -5.0724584   -4.0129358 -0.024561964   -5.0724584    1.0595225      1024000 
  196000   0.70698664   -5.0742381   -5.0742381   -4.0137602 -0.015936483   -5.0742381    1.0604778      1024000 
  197000   0.70906419   -5.0785875   -5.0785875   -4.0149933 -0.010249628   -5.0785875    1.0635941      1024000 
  198000   0.70986635   -5.0798915   -5.0798915   -4.0150942 0.0070640233   -5.0798915    1.0647974      1024000 
  199000     0.711141   -5.0826999   -5.0826999   -4.0159905  0.021861759   -5.0826999    1.0667093      1024000 
  200000   0.71401194   -5.0880384   -5.0880384   -4.0170227  0.022606491   -5.0880384    1.0710157      1024000 
  201000   0.71362579    -5.089204    -5.089204   -4.0187675  0.032399241    -5.089204    1.0704365      1024000 
  202000   0.71369747   -5.0907702   -5.0907702   -4.0202261  0.044276715   -5.0907702     1.070544      1024000 
  203000    0.7147153   -5.0945564   -5.0945564   -4.0224856  0.048081753   -5.0945564    1.0720708      1024000 
  204000   0.71473762   -5.0969037   -5.0969037   -4.0247994  0.052185624   -5.0969037    1.0721042      1024000 
  205000   0.71523259   -5.0996377   -5.0996377    -4.026791  0.052557236   -5.0996377    1.0728467      1024000 
  206000   0.71521638   -5.1014311   -5.1014311   -4.0286087  0.051257818   -5.1014311    1.0728224      1024000 
  207000   0.71452128   -5.1012027   -5.1012027    -4.029423  0.051363895   -5.1012027    1.0717797      1024000 
  208000   0.71397723   -5.1017667   -5.1017667    -4.030803  0.045128146   -5.1017667    1.0709637      1024000 
  209000   0.71262616   -5.1013025   -5.1013025   -4.0323654  0.042434843   -5.1013025    1.0689371      1024000 
  210000   0.71139664    -5.100477    -5.100477   -4.0333842  0.033456617    -5.100477    1.0670928      1024000 
  211000   0.70929427    -5.098186    -5.098186   -4.0342467  0.027410907    -5.098186    1.0639392      1024000 
  212000   0.70756912   -5.0962547   -5.0962547   -4.0349032  0.018313709   -5.0962547    1.0613515      1024000 
  213000   0.70598752   -5.0941888   -5.0941888   -4.0352097  0.011333659   -5.0941888    1.0589791      1024000 
  214000   0.70586208   -5.0939837   -5.0939837   -4.0351927 0.0040605353   -5.0939837     1.058791      1024000 
  215000   0.70489239   -5.0924331   -5.0924331   -4.0350966 -5.3815692e-05   -5.0924331    1.0573364      1024000 
  216000    0.7039301   -5.0911656   -5.0911656   -4.0352726 -0.011473782   -5.0911656     1.055893      1024000 
  217000   0.70323512     -5.08978     -5.08978   -4.0349295 -0.013514297     -5.08978    1.0548505      1024000 
  218000   0.70289312   -5.0898789   -5.0898789   -4.0355414 -0.018175105   -5.0898789    1.0543375      1024000 
  219000   0.70232407   -5.0884558   -5.0884558   -4.0349718 -0.021974871   -5.0884558     1.053484      1024000 
  220000   0.70206761   -5.0872904   -5.0872904   -4.0341911 -0.020117152   -5.0872904    1.0530993      1024000 
  221000    0.7019968   -5.0866923   -5.0866923   -4.0336992 -0.017181569   -5.0866923    1.0529931      1024000 
  222000   0.70204417   -5.0868879   -5.0868879   -4.0338238 -0.016901629   -5.0868879    1.0530641      1024000 
  223000    0.7021326   -5.0868233   -5.0868233   -4.0336265  -0.01576846   -5.0868233    1.0531968      1024000 
  224000   0.70302897   -5.0889419   -5.0889419   -4.0344005 -0.012571491   -5.0889419    1.0545413      1024000 
  225000   0.70365938   -5.0903386   -5.0903386   -4.0348517 -0.0083784425   -5.0903386    1.0554869      1024000 
  226000   0.70461448   -5.0917823   -5.0917823   -4.0348627 -0.0077549946   -5.0917823    1.0569196      1024000 
  227000   0.70520764   -5.0931221   -5.0931221   -4.0353128 0.00094794007   -5.0931221    1.0578093      1024000 
  228000   0.70587691   -5.0944496   -5.0944496   -4.0356364 0.0062407603   -5.0944496    1.0588132      1024000 
  229000   0.70649484   -5.0959359   -5.0959359   -4.0361958  0.015134888   -5.0959359    1.0597401      1024000 
  230000     0.706952   -5.0976145   -5.0976145   -4.0371886  0.017197155   -5.0976145    1.0604259      1024000 
  231000   0.70760599   -5.0987717   -5.0987717   -4.0373649  0.024449266   -5.0987717    1.0614068      1024000 
  232000   0.70821819   -5.1006896   -5.1006896   -4.0383644  0.030940489   -5.1006896    1.0623251      1024000 
  233000   0.70977634   -5.1039945   -5.1039945   -4.0393321  0.025688954   -5.1039945    1.0646624      1024000 
  234000   0.70873465   -5.1032334   -5.1032334   -4.0401336  0.031163684   -5.1032334    1.0630998      1024000 
  235000   0.70957909   -5.1054121   -5.1054121   -4.0410456  0.029035745   -5.1054121    1.0643665      1024000 
  236000   0.70819647   -5.1044514   -5.1044514   -4.0421588  0.033874143   -5.1044514    1.0622925      1024000 
  237000   0.70792442    -5.104903    -5.104903   -4.0430185  0.029625688    -5.104903    1.0618845      1024000 
  238000   0.70719506   -5.1051756   -5.1051756   -4.0443851   0.02629921   -5.1051756    1.0607904      1024000 
  239000   0.70729516   -5.1055318   -5.1055318   -4.0445912  0.022782073   -5.1055318    1.0609406      1024000 
  240000   0.70693398    -5.105903    -5.105903   -4.0455042  0.020015404    -5.105903    1.0603988      1024000 
  241000   0.70673085   -5.1062631   -5.1062631   -4.0461689  0.018816194   -5.1062631    1.0600941      1024000 
  242000   0.70584951   -5.1051383   -5.1051383   -4.0463662  0.015999358   -5.1051383    1.0587721      1024000 
  243000    0.7049401   -5.1041878   -5.1041878   -4.0467798  0.011952161   -5.1041878     1.057408      1024000 
  244000    0.7041873   -5.1032015   -5.1032015   -4.0469227 0.0074610232   -5.1032015    1.0562788      1024000 
  245000   0.70445834   -5.1045484   -5.1045484   -4.0478631 -0.0015954092   -5.1045484    1.0566854      1024000 
  246000   0.70311114   -5.1030369   -5.1030369   -4.0483723 -0.00096977746   -5.1030369    1.0546646      1024000 
  247000   0.70241042   -5.1020871   -5.1020871   -4.0484736 -0.0020311887   -5.1020871    1.0536135      1024000 
  248000   0.70244668   -5.1022791   -5.1022791   -4.0486112 -0.0032215955   -5.1022791    1.0536679      1024000 
  249000    0.7006274   -5.0994173   -5.0994173   -4.0484784 -0.0027333705   -5.0994173     1.050939      1024000 
  250000   0.70286573    -5.102021    -5.102021   -4.0477245 -0.0087207435    -5.102021    1.0542965      1024000 
  251000    0.7026847   -5.1011999   -5.1011999   -4.0471749 -0.0064932955   -5.1011999    1.0540249      1024000 
  252000   0.70407599    -5.103482    -5.103482   -4.0473701 -0.0067484527    -5.103482    1.0561118      1024000 
  253000   0.70337807   -5.1021085   -5.1021085   -4.0470435 -0.0021363281   -5.1021085     1.055065      1024000 
  254000   0.70361395   -5.1024426   -5.1024426   -4.0470238 0.00039776254   -5.1024426    1.0554188      1024000 
  255000   0.70354941    -5.102826    -5.102826    -4.047504 0.0019994097    -5.102826     1.055322      1024000 
  256000   0.70421338   -5.1032864   -5.1032864   -4.0469685  0.002150363   -5.1032864    1.0563179      1024000 
  257000   0.70556177   -5.1058236   -5.1058236   -4.0474831 0.0030730697   -5.1058236    1.0583405      1024000 
  258000   0.70360616   -5.1033985   -5.1033985   -4.0479914  0.014644428   -5.1033985    1.0554071      1024000 
  259000   0.70493129   -5.1060649   -5.1060649   -4.0486701 0.0096307283   -5.1060649    1.0573948      1024000 
  260000   0.70466356   -5.1066492   -5.1066492    -4.049656  0.010218719   -5.1066492    1.0569932      1024000 
  261000   0.70533977   -5.1074235   -5.1074235    -4.049416  0.015617296   -5.1074235    1.0580075      1024000 
  262000   0.70523168   -5.1075439   -5.1075439   -4.0496986   0.01932331   -5.1075439    1.0578454      1024000 
  263000   0.70488674   -5.1079012   -5.1079012   -4.0505732  0.020653286   -5.1079012     1.057328      1024000 
  264000   0.70510548   -5.1081938   -5.1081938   -4.0505377  0.017076001   -5.1081938    1.0576561      1024000 
  265000    0.7047117   -5.1083434   -5.1083434    -4.051278  0.018695752   -5.1083434    1.0570654      1024000 
  266000   0.70505433   -5.1093941   -5.1093941   -4.0518148  0.011720054   -5.1093941    1.0575793      1024000 
  267000   0.70447744   -5.1087214   -5.1087214   -4.0520073  0.017938179   -5.1087214     1.056714      1024000 
  268000    0.7038203   -5.1085453   -5.1085453    -4.052817  0.017747081   -5.1085453    1.0557283      1024000 
  269000   0.70460127    -5.110107    -5.110107   -4.0532072  0.013789463    -5.110107    1.0568998      1024000 
  270000   0.70489611   -5.1105509   -5.1105509   -4.0532089  0.011817945   -5.1105509     1.057342      1024000 
  271000   0.70324001    -5.108299    -5.108299   -4.0534411  0.011686108    -5.108299    1.0548579      1024000 
  272000   0.70361424   -5.1089588   -5.1089588   -4.0535395 0.0097501262   -5.1089588    1.0554192      1024000 
  273000   0.70219828   -5.1072983   -5.1072983    -4.054003  0.013303312   -5.1072983    1.0532953      1024000 
  274000   0.70258111   -5.1068832   -5.1068832   -4.0530137  0.012927036   -5.1068832    1.0538695      1024000 
  275000   0.70439725   -5.1099028   -5.1099028   -4.0533091 0.00099913545   -5.1099028    1.0565937      1024000 
  276000   0.70273556   -5.1076906   -5.1076906   -4.0535894 0.0046946127   -5.1076906    1.0541012      1024000 
  277000   0.70329148     -5.10901     -5.10901   -4.0540749 0.00095427123     -5.10901    1.0549351      1024000 
  278000   0.70215983   -5.1072968   -5.1072968   -4.0540591 0.0067643793   -5.1072968    1.0532376      1024000 
  279000   0.70314513     -5.10838     -5.10838   -4.0536645 0.0039097366     -5.10838    1.0547156      1024000 
  280000   0.70346604   -5.1084954   -5.1084954   -4.0532985 0.0034121095   -5.1084954    1.0551969      1024000 
  281000   0.70319156   -5.1075526   -5.1075526   -4.0527674 0.0058563918   -5.1075526    1.0547852      1024000 
  282000   0.70293453   -5.1076845   -5.1076845   -4.0532848 0.0042062091   -5.1076845    1.0543997      1024000 
  283000   0.70239399   -5.1075616   -5.1075616   -4.0539728 0.0031249607   -5.1075616    1.0535889      1024000 
  284000   0.70402847   -5.1100048   -5.1100048   -4.0539643 0.0029898498   -5.1100048    1.0560406      1024000 
  285000   0.70249889   -5.1077362   -5.1077362     -4.05399 0.0076633205   -5.1077362    1.0537462      1024000 
  286000   0.70313778   -5.1094049   -5.1094049   -4.0547004 0.0070285433   -5.1094049    1.0547045      1024000 
  287000   0.70425732   -5.1108892   -5.1108892   -4.0545054 0.0014381537   -5.1108892    1.0563838      1024000 
  288000   0.70333884   -5.1095699   -5.1095699   -4.0545638 0.0048361671   -5.1095699    1.0550061      1024000 
  289000    0.7034544   -5.1102284   -5.1102284   -4.0550489  0.010247287   -5.1102284    1.0551795      1024000 
  290000   0.70294496   -5.1097228   -5.1097228   -4.0553075  0.010974618   -5.1097228    1.0544153      1024000 
  291000    0.7032735   -5.1100211   -5.1100211   -4.0551129  0.011421928   -5.1100211    1.0549081      1024000 
  292000   0.70216078   -5.1095418   -5.1095418   -4.0563027  0.011536049   -5.1095418     1.053239      1024000 
  293000   0.70421219   -5.1133991   -5.1133991   -4.0570829 0.0072359135   -5.1133991    1.0563161      1024000 
  294000   0.70285875   -5.1109778   -5.1109778   -4.0566918  0.012932218   -5.1109778     1.054286      1024000 
  295000     0.703015   -5.1104681   -5.1104681   -4.0559478  0.016421447   -5.1104681    1.0545204      1024000 
  296000   0.70310911   -5.1111913   -5.1111913   -4.0565298   0.01344785   -5.1111913    1.0546615      1024000 
  297000   0.70334952   -5.1116042   -5.1116042   -4.0565821 0.0087568787   -5.1116042    1.0550221      1024000 
  298000   0.70293412   -5.1113949   -5.1113949   -4.0569959  0.008565663   -5.1113949     1.054399      1024000 
  299000   0.70320447    -5.111526    -5.111526   -4.0567214  0.015232391    -5.111526    1.0548046      1024000 
  300000   0.70235651   -5.1108263   -5.1108263   -4.0572937   0.01251779   -5.1108263    1.0535326      1024000 
  301000    0.7026579   -5.1120252   -5.1120252   -4.0580405 0.0074186314   -5.1120252    1.0539847      1024000 
  302000    0.7023648   -5.1114271   -5.1114271    -4.057882  0.011467609   -5.1114271    1.0535451      1024000 
  303000   0.70347943   -5.1130276   -5.1130276   -4.0578106 0.0064719956   -5.1130276     1.055217      1024000 
  304000   0.70198871   -5.1117652   -5.1117652   -4.0587843 0.0054068531   -5.1117652    1.0529809      1024000 
  305000    0.7020777   -5.1119375   -5.1119375   -4.0588231 0.0078984828   -5.1119375    1.0531144      1024000 
  306000   0.70305305   -5.1128446   -5.1128446   -4.0582671 0.0063348772   -5.1128446    1.0545774      1024000 
  307000   0.70263899   -5.1123075   -5.1123075   -4.0583512 0.0081113678   -5.1123075    1.0539563      1024000 
  308000     0.702593   -5.1121027   -5.1121027   -4.0582153  0.007368312   -5.1121027    1.0538874      1024000 
  309000    0.7022958   -5.1108898   -5.1108898   -4.0574483  0.012664754   -5.1108898    1.0534416      1024000 
  310000   0.70322456   -5.1131486   -5.1131486   -4.0583139 0.0079138624   -5.1131486    1.0548347      1024000 
  311000   0.70203236   -5.1111809   -5.1111809   -4.0581345  0.012346702   -5.1111809    1.0530464      1024000 
  312000   0.70277763   -5.1132606   -5.1132606   -4.0590963 0.0062502839   -5.1132606    1.0541643      1024000 
  313000   0.70183617   -5.1118139   -5.1118139   -4.0590617 0.0095905568   -5.1118139    1.0527521      1024000 
  314000   0.70236566   -5.1129217   -5.1129217   -4.0593754  0.010257121   -5.1129217    1.0535464      1024000 
  315000   0.70200358   -5.1120167   -5.1120167   -4.0590134 0.0088926508   -5.1120167    1.0530032      1024000 
  316000   0.70191916   -5.1125245   -5.1125245   -4.0596479  0.006012358   -5.1125245    1.0528766      1024000 
  317000   0.70204176   -5.1127548   -5.1127548   -4.0596943 0.0058581852   -5.1127548    1.0530605      1024000 
  318000   0.70205767    -5.112326    -5.112326   -4.0592416   0.00453463    -5.112326    1.0530844      1024000 
  319000   0.70226213   -5.1132026   -5.1132026   -4.0598116 0.0026168044   -5.1132026    1.0533911      1024000 
  320000   0.70192092   -5.1126575   -5.1126575   -4.0597782  0.009716913   -5.1126575    1.0528792      1024000 
  321000   0.70337533   -5.1145292   -5.1145292   -4.0594683 0.0074491754   -5.1145292    1.0550609      1024000 
  322000    0.7021917   -5.1126957   -5.1126957   -4.0594103  0.012895106   -5.1126957    1.0532854      1024000 
  323000   0.70310622   -5.1133894   -5.1133894   -4.0587322  0.012208371   -5.1133894    1.0546572      1024000 
  324000   0.70362443   -5.1134538   -5.1134538   -4.0580193 0.0099104116   -5.1134538    1.0554345      1024000 
  325000   0.70390769   -5.1138863   -5.1138863   -4.0580269 0.0089352284   -5.1138863    1.0558594      1024000 
  326000   0.70347144   -5.1126368   -5.1126368   -4.0574318  0.012021513   -5.1126368     1.055205      1024000 
  327000   0.70243899   -5.1114244   -5.1114244    -4.057768  0.015933527   -5.1114244    1.0536563      1024000 
  328000    0.7035131   -5.1129508   -5.1129508   -4.0576832  0.011154603   -5.1129508    1.0552675      1024000 
  329000   0.70386628   -5.1131505   -5.1131505   -4.0573532  0.012480644   -5.1131505    1.0557973      1024000 
  330000   0.70320629   -5.1126068   -5.1126068   -4.0577995  0.012553552   -5.1126068    1.0548073      1024000 
  331000   0.70416619   -5.1134061   -5.1134061    -4.057159 0.0094361094   -5.1134061    1.0562471      1024000 
  332000   0.70277472    -5.111784    -5.111784    -4.057624  0.010744856    -5.111784    1.0541599      1024000 
  333000   0.70215441   -5.1108782   -5.1108782   -4.0576487 0.0080909626   -5.1108782    1.0532295      1024000 
  334000   0.70284062   -5.1123234   -5.1123234   -4.0580646 0.0043876759   -5.1123234    1.0542588      1024000 
  335000   0.70230454   -5.1117042   -5.1117042   -4.0582495 0.0058227996   -5.1117042    1.0534547      1024000 
  336000   0.70190369   -5.1109108   -5.1109108   -4.0580574  0.003881743   -5.1109108    1.0528534      1024000 
  337000   0.70266023   -5.1115774   -5.1115774   -4.0575892 0.0015964653   -5.1115774    1.0539882      1024000 
  338000   0.70215902   -5.1113015   -5.1113015   -4.0580651 0.0028262858   -5.1113015    1.0532364      1024000 
  339000   0.70227081   -5.1119535   -5.1119535   -4.0585494 0.0048383495   -5.1119535    1.0534041      1024000 
  340000   0.70203522   -5.1111313   -5.1111313   -4.0580806 0.0046198538   -5.1111313    1.0530507      1024000 
  341000   0.70199396   -5.1105182   -5.1105182   -4.0575294 0.0091461782   -5.1105182    1.0529888      1024000 
  342000   0.70295293   -5.1107908   -5.1107908   -4.0563635 0.0073773061   -5.1107908    1.0544273      1024000 
  343000   0.70327321   -5.1105898   -5.1105898   -4.0556822 0.0097453323   -5.1105898    1.0549077      1024000 
  344000   0.70439906   -5.1121357   -5.1121357   -4.0555393 0.0075954457   -5.1121357    1.0565964      1024000 
  345000    0.7041244    -5.111554    -5.111554   -4.0553695 0.0073324318    -5.111554    1.0561845      1024000 
  346000   0.70260048   -5.1098105   -5.1098105   -4.0559119  0.010598889   -5.1098105    1.0538986      1024000 
  347000   0.70264242   -5.1104471   -5.1104471   -4.0564856 0.0098970463   -5.1104471    1.0539615      1024000 
  348000   0.70469025   -5.1129712   -5.1129712    -4.055938 0.0099823448   -5.1129712    1.0570332      1024000 
  349000   0.70369642   -5.1113021   -5.1113021   -4.0557596 0.0097869159   -5.1113021    1.0555425      1024000 
  350000   0.70268019   -5.1097823   -5.1097823   -4.0557642   0.01179671   -5.1097823    1.0540181      1024000 
  351000   0.70322622    -5.111311    -5.111311   -4.0564738 0.0050942124    -5.111311    1.0548372      1024000 
  352000   0.70348037    -5.111084    -5.111084   -4.0558656  0.011607355    -5.111084    1.0552184      1024000 
  353000    0.7030459   -5.1098916   -5.1098916   -4.0553249  0.010004814   -5.1098916    1.0545667      1024000 
  354000   0.70412134   -5.1108071   -5.1108071   -4.0546273  0.011266726   -5.1108071    1.0561799      1024000 
  355000   0.70328297   -5.1096979   -5.1096979   -4.0547756   0.01256101   -5.1096979    1.0549223      1024000 
  356000   0.70389368   -5.1110584   -5.1110584   -4.0552201 0.0098082948   -5.1110584    1.0558384      1024000 
  357000   0.70397219   -5.1108799   -5.1108799   -4.0549238 0.0070372061   -5.1108799    1.0559561      1024000 
  358000   0.70341141    -5.109839    -5.109839    -4.054724 0.0076261915    -5.109839     1.055115      1024000 
  359000   0.70335862    -5.109613    -5.109613   -4.0545772 0.0096482724    -5.109613    1.0550358      1024000 
  360000   0.70326228   -5.1095357   -5.1095357   -4.0546444  0.011746917   -5.1095357    1.0548913      1024000 
  361000   0.70390498    -5.110798    -5.110798   -4.0549427 0.0062505179    -5.110798    1.0558553      1024000 
  362000   0.70393979   -5.1097625   -5.1097625   -4.0538549  0.010237024   -5.1097625    1.0559075      1024000 
  363000   0.70329469   -5.1095861   -5.1095861   -4.0546462 0.0059621755   -5.1095861    1.0549399      1024000 
  364000    0.7032598   -5.1086647   -5.1086647   -4.0537771  0.010696996   -5.1086647    1.0548876      1024000 
  365000   0.70383744   -5.1099767   -5.1099767   -4.0542226 0.0042825352   -5.1099767     1.055754      1024000 
  366000   0.70441933   -5.1103444   -5.1103444   -4.0537176 0.0059172409   -5.1103444    1.0566268      1024000 
  367000   0.70351334   -5.1084535   -5.1084535   -4.0531856 0.0093336278   -5.1084535    1.0552679      1024000 
  368000   0.70467506   -5.1093264   -5.1093264    -4.052316  0.006518324   -5.1093264    1.0570104      1024000 
  369000   0.70338743   -5.1076485   -5.1076485   -4.0525695  0.007805941   -5.1076485     1.055079      1024000 
  370000   0.70336182   -5.1075012   -5.1075012   -4.0524606 0.0089507817   -5.1075012    1.0550406      1024000 
  371000   0.70496109   -5.1095373   -5.1095373   -4.0520978 0.0064830697   -5.1095373    1.0574395      1024000 
  372000   0.70504225   -5.1099961   -5.1099961   -4.0524349 0.0055702574   -5.1099961    1.0575612      1024000 
  373000   0.70483803   -5.1085735   -5.1085735   -4.0513186  0.010213646   -5.1085735    1.0572549      1024000 
  374000   0.70336533   -5.1063921   -5.1063921   -4.0513462  0.012307124   -5.1063921    1.0550459      1024000 
  375000   0.70433748   -5.1081244   -5.1081244   -4.0516204 0.0091165074   -5.1081244    1.0565041      1024000 
  376000   0.70474708    -5.108909    -5.108909   -4.0517906 0.0077016314    -5.108909    1.0571185      1024000 
  377000   0.70489451   -5.1087569   -5.1087569   -4.0514172 0.0064994248   -5.1087569    1.0573396      1024000 
  378000   0.70426356   -5.1080365   -5.1080365   -4.0516433 0.0056759442   -5.1080365    1.0563932      1024000 
  379000   0.70456949   -5.1090498   -5.1090498   -4.0521977 0.0050597274   -5.1090498    1.0568521      1024000 
  380000   0.70352931   -5.1072899   -5.1072899   -4.0519981  0.010443004   -5.1072899    1.0552918      1024000 
  381000   0.70454091   -5.1081178   -5.1081178   -4.0513086 0.0097559088   -5.1081178    1.0568092      1024000 
  382000   0.70407741   -5.1065614   -5.1065614   -4.0504474  0.011829663   -5.1065614     1.056114      1024000 
  383000   0.70441185   -5.1075001   -5.1075001   -4.0508845 0.0086917368   -5.1075001    1.0566156      1024000 
  384000   0.70479882   -5.1071623   -5.1071623   -4.0499662  0.011665073   -5.1071623    1.0571961      1024000 
  385000   0.70510772   -5.1076922   -5.1076922   -4.0500328 0.0069176924   -5.1076922    1.0576594      1024000 
  386000   0.70302632   -5.1048995   -5.1048995   -4.0503622  0.013851535   -5.1048995    1.0545373      1024000 
  387000   0.70515586   -5.1073946   -5.1073946   -4.0496629 0.0055150589   -5.1073946    1.0577316      1024000 
  388000   0.70465975   -5.1067878   -5.1067878   -4.0498004  0.010640769   -5.1067878    1.0569875      1024000 
  389000   0.70523625   -5.1069842   -5.1069842   -4.0491319  0.008851271   -5.1069842    1.0578522      1024000 
  390000   0.70500737   -5.1054858   -5.1054858   -4.0479769  0.014304233   -5.1054858    1.0575089      1024000 
  391000   0.70567239   -5.1057969   -5.1057969   -4.0472905  0.010256387   -5.1057969    1.0585064      1024000 
  392000   0.70494398   -5.1038816   -5.1038816   -4.0464678    0.0148902   -5.1038816    1.0574138      1024000 
  393000   0.70557063   -5.1055876   -5.1055876   -4.0472338  0.011549568   -5.1055876    1.0583538      1024000 
  394000   0.70545226   -5.1054571   -5.1054571   -4.0472809 0.0081356465   -5.1054571    1.0581762      1024000 
  395000   0.70548891   -5.1055438   -5.1055438   -4.0473126 0.0086837372   -5.1055438    1.0582312      1024000 
  396000   0.70518324   -5.1048743   -5.1048743   -4.0471016 0.0073480117   -5.1048743    1.0577727      1024000 
  397000    0.7046366   -5.1045499   -5.1045499   -4.0475972 0.0016683118   -5.1045499    1.0569528      1024000 
  398000   0.70416284   -5.1032417   -5.1032417   -4.0469996 0.0060186385   -5.1032417    1.0562421      1024000 
  399000   0.70351026   -5.1014223   -5.1014223   -4.0461591 0.0070897366   -5.1014223    1.0552632      1024000 
  400000   0.70453305   -5.1036584   -5.1036584    -4.046861 0.0014048404   -5.1036584    1.0567974      1024000 
  401000   0.70532382   -5.1046517   -5.1046517   -4.0466681 0.00067564698   -5.1046517    1.0579836      1024000 
  402000   0.70442563   -5.1033625   -5.1033625   -4.0467262 0.0055151821   -5.1033625    1.0566363      1024000 
  403000   0.70484309   -5.1033454   -5.1033454   -4.0460829 0.0016168788   -5.1033454    1.0572625      1024000 
  404000   0.70494333   -5.1033164   -5.1033164   -4.0459035 0.0063884979   -5.1033164    1.0574128      1024000 
  405000   0.70513548   -5.1034192   -5.1034192   -4.0457182 0.0089276571   -5.1034192    1.0577011      1024000 
  406000   0.70629587   -5.1041981   -5.1041981   -4.0447564 0.0049924845   -5.1041981    1.0594417      1024000 
  407000   0.70655312   -5.1052899   -5.1052899   -4.0454624 0.0033520843   -5.1052899    1.0598275      1024000 
  408000   0.70557649   -5.1037248   -5.1037248   -4.0453622  0.008507632   -5.1037248    1.0583626      1024000 
  409000   0.70436055   -5.1018572   -5.1018572   -4.0453186 0.0076645222   -5.1018572    1.0565387      1024000 
  410000   0.70478509    -5.102207    -5.102207   -4.0450315 0.0088184854    -5.102207    1.0571755      1024000 
  411000   0.70587395   -5.1041631   -5.1041631   -4.0453543 0.0072133149   -5.1041631    1.0588088      1024000 
  412000   0.70735518   -5.1057542   -5.1057542   -4.0447236 0.0042917509   -5.1057542    1.0610306      1024000 
  413000   0.70625078   -5.1042685   -5.1042685   -4.0448945  0.010435875   -5.1042685     1.059374      1024000 
  414000   0.70555641   -5.1026716   -5.1026716   -4.0443392  0.014323147   -5.1026716    1.0583325      1024000 
  415000   0.70672038    -5.103023    -5.103023   -4.0429446  0.013144258    -5.103023    1.0600784      1024000 
  416000   0.70734239   -5.1032967   -5.1032967   -4.0422852  0.015528539   -5.1032967    1.0610114      1024000 
  417000   0.70738016   -5.1040588   -5.1040588   -4.0429907  0.013647588   -5.1040588    1.0610681      1024000 
  418000   0.70675159   -5.1024409   -5.1024409   -4.0423157  0.012027436   -5.1024409    1.0601252      1024000 
  419000   0.70667368   -5.1012715   -5.1012715   -4.0412631  0.010399698   -5.1012715    1.0600084      1024000 
  420000   0.70732717   -5.1016943   -5.1016943   -4.0407057  0.011384659   -5.1016943    1.0609886      1024000 
  421000   0.70726573   -5.1018662   -5.1018662   -4.0409697  0.010552332   -5.1018662    1.0608964      1024000 
  422000    0.7076513   -5.1025812   -5.1025812   -4.0411064  0.011229765   -5.1025812    1.0614748      1024000 
  423000   0.70670156   -5.1011659   -5.1011659   -4.0411157  0.010377965   -5.1011659    1.0600502      1024000 
  424000   0.70757295   -5.1025004   -5.1025004   -4.0411431 0.0070680462   -5.1025004    1.0613573      1024000 
  425000   0.70699942   -5.1008589   -5.1008589    -4.040362  0.007604691   -5.1008589     1.060497      1024000 
  426000   0.70726726   -5.0999979   -5.0999979   -4.0390991 0.0061671887   -5.0999979    1.0608987      1024000 
  427000   0.70636591   -5.0989224   -5.0989224   -4.0393757 0.0089461458   -5.0989224    1.0595467      1024000 
  428000   0.70645131   -5.0983917   -5.0983917   -4.0387169 0.0062065291   -5.0983917    1.0596748      1024000 
  429000   0.70587964   -5.0970374   -5.0970374   -4.0382201 0.0047847097   -5.0970374    1.0588173      1024000 
  430000   0.70733621   -5.0983946   -5.0983946   -4.0373925 -0.00031389821   -5.0983946    1.0610022      1024000 
  431000   0.70715147    -5.097849    -5.097849   -4.0371239 0.0037784974    -5.097849    1.0607251      1024000 
  432000   0.70687971   -5.0968332   -5.0968332   -4.0365158 0.0043763629   -5.0968332    1.0603174      1024000 
  433000   0.70623472   -5.0958792   -5.0958792   -4.0365293  0.010865542   -5.0958792    1.0593499      1024000 
  434000   0.70880807   -5.0986222   -5.0986222   -4.0354122 0.0050678819   -5.0986222      1.06321      1024000 
  435000   0.70798426    -5.096066    -5.096066   -4.0340917  0.010591656    -5.096066    1.0619742      1024000 
  436000   0.70875615   -5.0965883   -5.0965883   -4.0334562 0.0078740487   -5.0965883    1.0631321      1024000 
  437000   0.70872937   -5.0961138   -5.0961138   -4.0330219 0.0084017528   -5.0961138    1.0630919      1024000 
  438000   0.70794808   -5.0946838   -5.0946838   -4.0327638 0.0095223988   -5.0946838      1.06192      1024000 
  439000   0.70858249   -5.0948695   -5.0948695   -4.0319979 0.0083142798   -5.0948695    1.0628716      1024000 
  440000   0.70814861   -5.0942309   -5.0942309   -4.0320101  0.010600316   -5.0942309    1.0622208      1024000 
  441000   0.70845388   -5.0950238   -5.0950238   -4.0323451 0.0061506772   -5.0950238    1.0626787      1024000 
  442000   0.70894248   -5.0951569   -5.0951569   -4.0317453 0.0080538358   -5.0951569    1.0634116      1024000 
  443000   0.70887544   -5.0944928   -5.0944928   -4.0311818 0.0096902618   -5.0944928     1.063311      1024000 
  444000   0.70883777   -5.0934508   -5.0934508   -4.0301963 0.0061861962   -5.0934508    1.0632545      1024000 
  445000   0.70855598   -5.0934849   -5.0934849   -4.0306531 0.0067779467   -5.0934849    1.0628318      1024000 
  446000   0.70890794   -5.0931868   -5.0931868   -4.0298271 0.0063913963   -5.0931868    1.0633598      1024000 
  447000   0.70823366   -5.0920327   -5.0920327   -4.0296843 0.0063077905   -5.0920327    1.0623483      1024000 
  448000   0.70896307   -5.0922086   -5.0922086   -4.0287661 0.0052249625   -5.0922086    1.0634425      1024000 
  449000   0.70887473   -5.0918223   -5.0918223   -4.0285124 0.0018702319   -5.0918223    1.0633099      1024000 
  450000   0.70953868   -5.0924912   -5.0924912   -4.0281853 0.0022006682   -5.0924912    1.0643059      1024000 
  451000   0.70792897   -5.0900781   -5.0900781   -4.0281868 0.0050923388   -5.0900781    1.0618913      1024000 
  452000   0.70777857   -5.0901149   -5.0901149   -4.0284492 0.0054835092   -5.0901149    1.0616657      1024000 
  453000   0.70883392   -5.0909479   -5.0909479   -4.0276992 0.0050315875   -5.0909479    1.0632487      1024000 
  454000   0.70927023   -5.0906606   -5.0906606   -4.0267574 0.00058673667   -5.0906606    1.0639032      1024000 
  455000   0.70900575   -5.0896267   -5.0896267   -4.0261203 0.0062909813   -5.0896267    1.0635065      1024000 
  456000   0.70880414   -5.0885192   -5.0885192   -4.0253151  0.012377063   -5.0885192    1.0632041      1024000 
  457000   0.70987708   -5.0905396   -5.0905396   -4.0257262 0.0084024311   -5.0905396    1.0648135      1024000 
  458000   0.70961824   -5.0896756   -5.0896756   -4.0252504  0.003959505   -5.0896756    1.0644252      1024000 
  459000   0.70926131   -5.0887121   -5.0887121   -4.0248223 0.0074687575   -5.0887121    1.0638898      1024000 
  460000   0.70919867   -5.0883557   -5.0883557   -4.0245599  0.011806351   -5.0883557    1.0637958      1024000 
  461000    0.7103589   -5.0896296   -5.0896296   -4.0240934 0.0081083858   -5.0896296    1.0655362      1024000 
  462000   0.71050933   -5.0884028   -5.0884028    -4.022641 0.0090110294   -5.0884028    1.0657618      1024000 
  463000   0.70978519   -5.0875606   -5.0875606    -4.022885  0.012194431   -5.0875606    1.0646756      1024000 
  464000   0.71104727   -5.0880328   -5.0880328   -4.0214641 0.0079939482   -5.0880328    1.0665687      1024000 
  465000   0.71158234   -5.0889377   -5.0889377   -4.0215664  0.012755606   -5.0889377    1.0673713      1024000 
  466000   0.71177435   -5.0882898   -5.0882898   -4.0206304  0.014419263   -5.0882898    1.0676594      1024000 
  467000   0.71125423   -5.0870538   -5.0870538   -4.0201746   0.01320075   -5.0870538    1.0668792      1024000 
  468000   0.71212498   -5.0878227   -5.0878227   -4.0196374  0.012700963   -5.0878227    1.0681853      1024000 
  469000   0.71068417   -5.0865235   -5.0865235   -4.0204994  0.013123609   -5.0865235    1.0660241      1024000 
  470000   0.70952623   -5.0847421   -5.0847421   -4.0204549  0.015909178   -5.0847421    1.0642872      1024000 
  471000   0.71162708   -5.0871314   -5.0871314   -4.0196929 0.0061908891   -5.0871314    1.0674385      1024000 
  472000   0.71053345    -5.085701    -5.085701   -4.0199029  0.011094286    -5.085701     1.065798      1024000 
  473000   0.71106869   -5.0858672   -5.0858672   -4.0192663  0.009205194   -5.0858672    1.0666009      1024000 
  474000   0.71267718   -5.0875052   -5.0875052   -4.0184916 0.0028267314   -5.0875052    1.0690136      1024000 
  475000   0.71185933   -5.0854244   -5.0854244   -4.0176375 0.0035450038   -5.0854244    1.0677868      1024000 
  476000   0.71186892   -5.0841633   -5.0841633   -4.0163621 0.0072766768   -5.0841633    1.0678012      1024000 
  477000   0.71103423   -5.0822158   -5.0822158   -4.0156666 0.0045532162   -5.0822158    1.0665492      1024000 
  478000    0.7103784   -5.0817333   -5.0817333   -4.0161679 0.0068546525   -5.0817333    1.0655654      1024000 
  479000   0.71199754   -5.0835359   -5.0835359   -4.0155417 0.0042541638   -5.0835359    1.0679941      1024000 
  480000   0.71170526   -5.0824327   -5.0824327    -4.014877 0.0077519005   -5.0824327    1.0675557      1024000 
  481000   0.71188023   -5.0820894   -5.0820894   -4.0142712   0.00262109   -5.0820894    1.0678182      1024000 
  482000   0.71092185   -5.0806055   -5.0806055   -4.0142249 0.0043236031   -5.0806055    1.0663806      1024000 
  483000   0.71104152   -5.0802588   -5.0802588   -4.0136987 0.0071550547   -5.0802588    1.0665601      1024000 
  484000    0.7110327    -5.080367    -5.080367   -4.0138201  0.001249542    -5.080367    1.0665469      1024000 
  485000   0.71177236   -5.0804365   -5.0804365   -4.0127802 0.0057675538   -5.0804365    1.0676564      1024000 
  486000   0.71242848   -5.0799171   -5.0799171   -4.0112766 0.0036402745   -5.0799171    1.0686405      1024000 
  487000   0.71152477    -5.078557    -5.078557    -4.011272 0.0090374559    -5.078557     1.067285      1024000 
  488000    0.7124941   -5.0789725   -5.0789725   -4.0102336 0.0068917686   -5.0789725     1.068739      1024000 
  489000   0.71275245   -5.0788856   -5.0788856   -4.0097591 0.0077892866   -5.0788856    1.0691265      1024000 
  490000   0.71396095   -5.0794113   -5.0794113   -4.0084721 0.0047728939   -5.0794113    1.0709392      1024000 
  491000   0.71273989   -5.0773396   -5.0773396   -4.0082319 0.0093006663   -5.0773396    1.0691077      1024000 
  492000   0.71412877   -5.0795442   -5.0795442   -4.0083533 0.0087489665   -5.0795442     1.071191      1024000 
  493000   0.71360924   -5.0789831   -5.0789831   -4.0085714  0.011129511   -5.0789831    1.0704117      1024000 
  494000   0.71466364   -5.0800575   -5.0800575   -4.0080642 0.0057435218   -5.0800575    1.0719933      1024000 
  495000   0.71281647   -5.0768748   -5.0768748   -4.0076523 0.0084935906   -5.0768748    1.0692225      1024000 
  496000   0.71460491   -5.0790296   -5.0790296   -4.0071244 0.0038088786   -5.0790296    1.0719052      1024000 
  497000   0.71326136   -5.0771377   -5.0771377   -4.0072478 0.0054340523   -5.0771377    1.0698899      1024000 
  498000   0.71452678   -5.0781474   -5.0781474   -4.0063594 0.0057575258   -5.0781474     1.071788      1024000 
  499000   0.71325811   -5.0755409   -5.0755409   -4.0056559 0.0092325814   -5.0755409     1.069885      1024000 
  500000   0.71391461   -5.0750617   -5.0750617   -4.0041919 0.0099985658   -5.0750617    1.0708697      1024000 
  501000   0.71369459   -5.0738643   -5.0738643   -4.0033246   0.01400615   -5.0738643    1.0705397      1024000 
  502000     0.714816   -5.0749899   -5.0749899   -4.0027681 0.0097015417   -5.0749899    1.0722218      1024000 
  503000     0.713875   -5.0728746   -5.0728746   -4.0020643  0.012743524   -5.0728746    1.0708103      1024000 
  504000   0.71502884    -5.075291    -5.075291   -4.0027499  0.010986176    -5.075291    1.0725411      1024000 
  505000   0.71419855   -5.0734396   -5.0734396    -4.002144  0.010660862   -5.0734396    1.0712957      1024000 
  506000   0.71578568   -5.0748263   -5.0748263     -4.00115 0.0079271199   -5.0748263    1.0736763      1024000 
  507000   0.71386912   -5.0714288   -5.0714288   -4.0006273  0.011103028   -5.0714288    1.0708015      1024000 
  508000   0.71635775   -5.0741023   -5.0741023   -3.9995679  0.001210943   -5.0741023    1.0745344      1024000 
  509000   0.71477262   -5.0716598   -5.0716598    -3.999503 0.0042676132   -5.0716598    1.0721567      1024000 
  510000   0.71353171   -5.0693518   -5.0693518   -3.9990564 0.0058385486   -5.0693518    1.0702954      1024000 
  511000   0.71493843   -5.0712488   -5.0712488   -3.9988433 0.00061978557   -5.0712488    1.0724055      1024000 
  512000   0.71505236   -5.0709739   -5.0709739   -3.9983975 0.0034879142   -5.0709739    1.0725764      1024000 
  513000   0.71564632   -5.0713897   -5.0713897   -3.9979224 0.0052707315   -5.0713897    1.0734673      1024000 
  514000   0.71521289    -5.070268    -5.070268   -3.9974508 0.0057685751    -5.070268    1.0728172      1024000 
  515000   0.71479997   -5.0688549   -5.0688549   -3.9966571 0.0069015049   -5.0688549    1.0721978      1024000 
  516000   0.71565507    -5.069777    -5.069777   -3.9962965  0.004336865    -5.069777    1.0734804      1024000 
  517000   0.71529931   -5.0687403   -5.0687403   -3.9957935 0.0083222039   -5.0687403    1.0729468      1024000 
  518000   0.71527318   -5.0676893   -5.0676893   -3.9947817  0.011274999   -5.0676893    1.0729076      1024000 
  519000   0.71536508   -5.0673961   -5.0673961   -3.9943506 0.0089814667   -5.0673961    1.0730454      1024000 
  520000   0.71585003   -5.0675045   -5.0675045   -3.9937316 0.0088927759   -5.0675045    1.0737729      1024000 
  521000   0.71660698    -5.068429    -5.068429   -3.9935207 0.0057786932    -5.068429    1.0749083      1024000 
  522000    0.7167884   -5.0683137   -5.0683137   -3.9931333 0.0080127923   -5.0683137    1.0751804      1024000 
  523000   0.71764603   -5.0688813   -5.0688813   -3.9924144 0.0012441115   -5.0688813    1.0764669      1024000 
  524000   0.71651027   -5.0662172   -5.0662172   -3.9914539 0.0070551856   -5.0662172    1.0747632      1024000 
  525000   0.71790321   -5.0667851   -5.0667851   -3.9899324 0.0067588766   -5.0667851    1.0768526      1024000 
  526000   0.71708476   -5.0645247   -5.0645247   -3.9888998  0.012053775   -5.0645247     1.075625      1024000 
  527000   0.71738127   -5.0646909   -5.0646909   -3.9886212  0.014533389   -5.0646909    1.0760697      1024000 
  528000   0.71814738   -5.0647404   -5.0647404   -3.9875215  0.010114032   -5.0647404    1.0772189      1024000 
  529000   0.71790521   -5.0643704   -5.0643704   -3.9875147  0.012395082   -5.0643704    1.0768556      1024000 
  530000   0.71741318   -5.0636155   -5.0636155   -3.9874979   0.01054667   -5.0636155    1.0761176      1024000 
  531000   0.71882541   -5.0648317   -5.0648317   -3.9865958  0.007324941   -5.0648317    1.0782359      1024000 
  532000   0.71749961   -5.0623238   -5.0623238   -3.9860766 0.0086059367   -5.0623238    1.0762472      1024000 
  533000   0.71818515   -5.0624688   -5.0624688   -3.9851933 0.0090843509   -5.0624688    1.0772755      1024000 
  534000   0.71768552   -5.0611264   -5.0611264   -3.9846003 0.0067238791   -5.0611264    1.0765261      1024000 
  535000   0.71840822   -5.0608582   -5.0608582   -3.9832481 0.0076011616   -5.0608582    1.0776101      1024000 
  536000   0.71828896     -5.06037     -5.06037   -3.9829387 0.0027997484     -5.06037    1.0774313      1024000 
  537000   0.71866417   -5.0598892   -5.0598892   -3.9818951 0.0068401715   -5.0598892    1.0779941      1024000 
  538000   0.71881737   -5.0604054   -5.0604054   -3.9821815 0.0011270054   -5.0604054    1.0782239      1024000 
  539000   0.71816728   -5.0590591   -5.0590591   -3.9818104 0.0064311621   -5.0590591    1.0772487      1024000 
  540000   0.71791726    -5.057512    -5.057512   -3.9806383 0.0058420987    -5.057512    1.0768737      1024000 
  541000   0.71860275   -5.0576129   -5.0576129   -3.9797109 0.0084495512   -5.0576129    1.0779019      1024000 
  542000   0.71934753   -5.0576155   -5.0576155   -3.9785964 0.0078327988   -5.0576155    1.0790191      1024000 
  543000    0.7191711   -5.0558721   -5.0558721   -3.9771176  0.010891795   -5.0558721    1.0787545      1024000 
  544000    0.7206284   -5.0574991   -5.0574991   -3.9765587 0.0048146804   -5.0574991    1.0809404      1024000 
  545000   0.71924306   -5.0553593   -5.0553593   -3.9764969 0.0048016793   -5.0553593    1.0788624      1024000 
  546000   0.72020076    -5.056091    -5.056091    -3.975792   0.00204616    -5.056091    1.0802989      1024000 
  547000   0.71966988   -5.0543165   -5.0543165   -3.9748138 0.0017779824   -5.0543165    1.0795026      1024000 
  548000   0.72020319   -5.0549735   -5.0549735   -3.9746709 -0.0034244963   -5.0549735    1.0803026      1024000 
  549000   0.71970463   -5.0531737   -5.0531737   -3.9736189 0.0057548616   -5.0531737    1.0795548      1024000 
  550000   0.71974139   -5.0528472   -5.0528472   -3.9732373 0.0065081311   -5.0528472    1.0796099      1024000 
  551000   0.72014859   -5.0533491   -5.0533491   -3.9731284 0.0049980157   -5.0533491    1.0802207      1024000 
  552000   0.71968055    -5.052146    -5.052146   -3.9726273 0.0055110564    -5.052146    1.0795186      1024000 
  553000   0.72013238   -5.0528533   -5.0528533   -3.9726569 0.0051163033   -5.0528533    1.0801964      1024000 
  554000   0.71965997   -5.0506898   -5.0506898   -3.9712021 0.0061444539   -5.0506898    1.0794878      1024000 
  555000    0.7202555   -5.0505522   -5.0505522   -3.9701712 0.0053255595   -5.0505522    1.0803811      1024000 
  556000   0.72056464   -5.0501215   -5.0501215   -3.9692768 0.0058994166   -5.0501215    1.0808448      1024000 
  557000   0.72126301   -5.0515985   -5.0515985   -3.9697062 0.0016793197   -5.0515985    1.0818923      1024000 
  558000   0.72045128   -5.0496679   -5.0496679   -3.9689932 0.0048039822   -5.0496679    1.0806747      1024000 
  559000   0.72072065   -5.0489716   -5.0489716   -3.9678928 0.0036873702   -5.0489716    1.0810788      1024000 
  560000   0.72107124   -5.0488387   -5.0488387   -3.9672341 0.0053315574   -5.0488387    1.0816047      1024000 
  561000   0.72139701   -5.0487254   -5.0487254    -3.966632 0.0072954468   -5.0487254    1.0820933      1024000 
  562000   0.72302459   -5.0511774   -5.0511774   -3.9666427 0.0032102615   -5.0511774    1.0845347      1024000 
  563000   0.72114817   -5.0477416   -5.0477416   -3.9660215  0.012099649   -5.0477416    1.0817201      1024000 
  564000   0.72319559   -5.0505323   -5.0505323   -3.9657411 0.0045000583   -5.0505323    1.0847912      1024000 
  565000   0.72228382   -5.0496997   -5.0496997   -3.9662762 0.0045567013   -5.0496997    1.0834235      1024000 
  566000   0.72255897    -5.048713    -5.048713   -3.9648768 0.0040163041    -5.048713    1.0838363      1024000 
  567000   0.72138148   -5.0466797   -5.0466797   -3.9646097 0.0087783173   -5.0466797      1.08207      1024000 
  568000   0.72184088   -5.0457236   -5.0457236   -3.9629645  0.011686684   -5.0457236    1.0827591      1024000 
  569000   0.72257523    -5.046679    -5.046679   -3.9628183 0.0058106167    -5.046679    1.0838606      1024000 
  570000   0.72283825   -5.0462625   -5.0462625   -3.9620073 0.0054859379   -5.0462625    1.0842552      1024000 
  571000   0.72273958    -5.045379    -5.045379   -3.9612718 0.0079094524    -5.045379    1.0841072      1024000 
  572000   0.72266583   -5.0449285   -5.0449285   -3.9609319 0.0098337859   -5.0449285    1.0839966      1024000 
  573000   0.72426963   -5.0452862   -5.0452862    -3.958884   0.01146908   -5.0452862    1.0864022      1024000 
  574000   0.72430753   -5.0455516   -5.0455516   -3.9590926 0.0088129093   -5.0455516    1.0864591      1024000 
  575000   0.72366007   -5.0436663   -5.0436663   -3.9581784 0.0092991987   -5.0436663    1.0854879      1024000 
  576000   0.72324839   -5.0424429   -5.0424429   -3.9575725   0.01002091   -5.0424429    1.0848704      1024000 
  577000   0.72223388   -5.0407888   -5.0407888   -3.9574402  0.010386151   -5.0407888    1.0833486      1024000 
  578000   0.72341136   -5.0415668   -5.0415668   -3.9564519  0.008113308   -5.0415668    1.0851148      1024000 
  579000   0.72448059   -5.0432292   -5.0432292   -3.9565105 0.0030007772   -5.0432292    1.0867187      1024000 
  580000   0.72289469   -5.0404385   -5.0404385   -3.9560986 0.0034853807   -5.0404385    1.0843398      1024000 
  581000   0.72250957   -5.0389184   -5.0389184   -3.9551562 0.0098915526   -5.0389184    1.0837621      1024000 
  582000   0.72256244   -5.0384674   -5.0384674   -3.9546259 0.0082414476   -5.0384674    1.0838415      1024000 
  583000   0.72357397   -5.0390336   -5.0390336   -3.9536748 0.0044362457   -5.0390336    1.0853587      1024000 
  584000   0.72370348   -5.0381133   -5.0381133   -3.9525603 0.0081275608   -5.0381133     1.085553      1024000 
  585000   0.72504992    -5.039235    -5.039235   -3.9516623 0.0030560436    -5.039235    1.0875727      1024000 
  586000   0.72453853   -5.0378584   -5.0378584   -3.9510528 0.0022117801   -5.0378584    1.0868056      1024000 
  587000   0.72431091    -5.037344    -5.037344   -3.9508798 0.0048263702    -5.037344    1.0864642      1024000 
  588000   0.72430603   -5.0366665   -5.0366665   -3.9502097 0.0037459684   -5.0366665    1.0864568      1024000 
  589000    0.7245627   -5.0358869   -5.0358869   -3.9490451 0.0068548785   -5.0358869    1.0868418      1024000 
  590000   0.72387455   -5.0343133   -5.0343133   -3.9485036  0.004032874   -5.0343133    1.0858096      1024000 
  591000   0.72414914   -5.0338547   -5.0338547   -3.9476332 0.0055097217   -5.0338547    1.0862215      1024000 
  592000   0.72511309   -5.0354774   -5.0354774     -3.94781 0.0011002719   -5.0354774    1.0876674      1024000 
  593000   0.72479664   -5.0342828   -5.0342828     -3.94709 0.0020788627   -5.0342828    1.0871928      1024000 
  594000   0.72510523   -5.0337435   -5.0337435   -3.9460879  0.005131766   -5.0337435    1.0876556      1024000 
  595000   0.72573258   -5.0339736   -5.0339736   -3.9453769 0.0075495466   -5.0339736    1.0885967      1024000 
  596000   0.72630325   -5.0339043   -5.0339043   -3.9444516 0.0099332947   -5.0339043    1.0894527      1024000 
  597000   0.72689276   -5.0330653   -5.0330653   -3.9427284    0.0107834   -5.0330653    1.0903369      1024000 
  598000   0.72712397   -5.0335721   -5.0335721   -3.9428884  0.010644324   -5.0335721    1.0906837      1024000 
  599000   0.72827951   -5.0340738   -5.0340738   -3.9416567 0.0080000124   -5.0340738     1.092417      1024000 
  600000   0.72755323   -5.0319395   -5.0319395   -3.9406119  0.012423488   -5.0319395    1.0913276      1024000 
  601000   0.72820294   -5.0324037   -5.0324037   -3.9401015 0.0077921798   -5.0324037    1.0923022      1024000 
  602000   0.72733655   -5.0303029   -5.0303029   -3.9393003  0.013251965   -5.0303029    1.0910026      1024000 
  603000   0.72746785   -5.0297472   -5.0297472   -3.9385477 0.0084333239   -5.0297472    1.0911996      1024000 
  604000   0.72700774   -5.0288509   -5.0288509   -3.9383415   0.00549406   -5.0288509    1.0905094      1024000 
  605000    0.7279737   -5.0292814   -5.0292814   -3.9373231  0.010726539   -5.0292814    1.0919583      1024000 
  606000   0.72781666   -5.0290201   -5.0290201   -3.9372973 0.0072392666   -5.0290201    1.0917228      1024000 
  607000   0.72704008   -5.0277913   -5.0277913   -3.9372334 0.0088547764   -5.0277913    1.0905579      1024000 
  608000   0.72669547   -5.0263133   -5.0263133   -3.9362723 0.0065860929   -5.0263133     1.090041      1024000 
  609000   0.72799073   -5.0271115   -5.0271115   -3.9351276 0.0033093547   -5.0271115    1.0919839      1024000 
  610000   0.72789691   -5.0257839   -5.0257839   -3.9339408 0.00095416002   -5.0257839    1.0918431      1024000 
  611000   0.72721366   -5.0237751   -5.0237751   -3.9329568 0.0064503462   -5.0237751    1.0908183      1024000 
  612000   0.72865205    -5.024636    -5.024636   -3.9316602 0.0029329195    -5.024636    1.0929759      1024000 
  613000   0.72779403   -5.0221169   -5.0221169   -3.9304281 0.0029903277   -5.0221169    1.0916888      1024000 
  614000   0.72796553   -5.0216546   -5.0216546   -3.9297085 0.0049670196   -5.0216546    1.0919461      1024000 
  615000   0.72796855   -5.0215028   -5.0215028   -3.9295522 0.0050042787   -5.0215028    1.0919506      1024000 
  616000   0.72893522     -5.02141     -5.02141   -3.9280094  0.011143952     -5.02141    1.0934006      1024000 
  617000   0.72975834   -5.0217338   -5.0217338   -3.9270985 0.0055957202   -5.0217338    1.0946353      1024000 
  618000   0.73052446   -5.0212883   -5.0212883   -3.9255038 0.0077635449   -5.0212883    1.0957845      1024000 
  619000   0.72959945   -5.0194634   -5.0194634   -3.9250664 0.0090877239   -5.0194634     1.094397      1024000 
  620000    0.7297064   -5.0178287   -5.0178287   -3.9232713 0.0079213013   -5.0178287    1.0945574      1024000 
  621000   0.73040808   -5.0187654   -5.0187654   -3.9231556 0.0058682826   -5.0187654    1.0956099      1024000 
  622000   0.72971448    -5.017258    -5.017258   -3.9226885 0.0062488607    -5.017258    1.0945695      1024000 
  623000   0.72999772   -5.0169437   -5.0169437   -3.9219493 0.0030234663   -5.0169437    1.0949944      1024000 
  624000   0.72915393   -5.0152526   -5.0152526   -3.9215239 0.0016234291   -5.0152526    1.0937287      1024000 
  625000   0.72938701   -5.0149843   -5.0149843    -3.920906 0.0013394722   -5.0149843    1.0940783      1024000 
  626000   0.73038325   -5.0161473   -5.0161473   -3.9205746 -0.00096938784   -5.0161473    1.0955726      1024000 
  627000   0.72954796   -5.0136219   -5.0136219   -3.9193022 0.0037042571   -5.0136219    1.0943197      1024000 
  628000   0.73068216   -5.0138522   -5.0138522   -3.9178312 0.0049915752   -5.0138522     1.096021      1024000 
  629000   0.72999131   -5.0120124   -5.0120124   -3.9170276  0.004915894   -5.0120124    1.0949848      1024000 
  630000    0.7310782   -5.0129905   -5.0129905   -3.9163754 0.0058289163   -5.0129905    1.0966151      1024000 
  631000   0.73146251   -5.0118241   -5.0118241   -3.9146325 0.0060088047   -5.0118241    1.0971915      1024000 
  632000   0.73173556   -5.0113611   -5.0113611     -3.91376 0.0081177558   -5.0113611    1.0976011      1024000 
  633000   0.73153267    -5.010596    -5.010596   -3.9132992 0.0065651833    -5.010596    1.0972968      1024000 
  634000   0.73191429   -5.0098951   -5.0098951   -3.9120259 0.0066270977   -5.0098951    1.0978692      1024000 
  635000   0.73300336   -5.0106584   -5.0106584   -3.9111556 -7.3871398e-05   -5.0106584    1.0995028      1024000 
  636000   0.73180022   -5.0078648   -5.0078648   -3.9101667 0.0079242973   -5.0078648    1.0976981      1024000 
  637000   0.73151969   -5.0069975   -5.0069975   -3.9097202 0.0073489406   -5.0069975    1.0972773      1024000 
  638000   0.73283056   -5.0082098   -5.0082098   -3.9089662 0.0064025442   -5.0082098    1.0992436      1024000 
  639000   0.73374939   -5.0088815   -5.0088815   -3.9082596 0.0062863767   -5.0088815    1.1006218      1024000 
  640000   0.73248536   -5.0069419   -5.0069419   -3.9082161   0.01039443   -5.0069419    1.0987258      1024000 
  641000   0.73204465   -5.0057233   -5.0057233   -3.9076586  0.010267077   -5.0057233    1.0980648      1024000 
  642000   0.73241813   -5.0048414   -5.0048414   -3.9062164 0.0097929439   -5.0048414     1.098625      1024000 
  643000   0.73363162   -5.0056041   -5.0056041   -3.9051589 0.0078985299   -5.0056041    1.1004452      1024000 
  644000   0.73292273   -5.0035172   -5.0035172   -3.9041354 0.0073631382   -5.0035172    1.0993819      1024000 
  645000   0.73379511    -5.004642    -5.004642   -3.9039516 0.0030146276    -5.004642    1.1006904      1024000 
  646000   0.73374861   -5.0049001   -5.0049001   -3.9042794 0.0013984255   -5.0049001    1.1006207      1024000 
  647000   0.73153128   -5.0015262   -5.0015262   -3.9042315  0.012022308   -5.0015262    1.0972947      1024000 
  648000   0.73284722   -5.0032126   -5.0032126    -3.903944 0.0020032888   -5.0032126    1.0992686      1024000 
  649000   0.73342642   -5.0032431   -5.0032431   -3.9031057 -0.00054376317   -5.0032431    1.1001374      1024000 
  650000   0.73255592    -5.002068    -5.002068   -3.9032363 0.0020871648    -5.002068    1.0988317      1024000 
  651000   0.73349136   -5.0024962   -5.0024962   -3.9022614 -0.00011540877   -5.0024962    1.1002348      1024000 
  652000   0.73420225   -5.0021294   -5.0021294   -3.9008282 -0.00020322735   -5.0021294    1.1013011      1024000 
  653000   0.73322896   -5.0007308   -5.0007308   -3.9008896 3.5769071e-05   -5.0007308    1.0998412      1024000 
  654000   0.73481212   -5.0013788   -5.0013788   -3.8991628 -0.0020363941   -5.0013788     1.102216      1024000 
  655000   0.73446031   -4.9998835   -4.9998835   -3.8981952 0.0059684445   -4.9998835    1.1016882      1024000 
  656000   0.73535946   -4.9998273   -4.9998273   -3.8967903 0.0056389162   -4.9998273    1.1030369      1024000 
  657000   0.73586696   -4.9995713   -4.9995713   -3.8957731 0.0085907203   -4.9995713    1.1037982      1024000 
  658000   0.73621023   -4.9987025   -4.9987025   -3.8943894  0.011656531   -4.9987025    1.1043131      1024000 
  659000   0.73594158   -4.9976159   -4.9976159   -3.8937058  0.011797861   -4.9976159    1.1039101      1024000 
  660000   0.73669651   -4.9983154   -4.9983154   -3.8932729  0.009805557   -4.9983154    1.1050425      1024000 
  661000   0.73570208   -4.9965982   -4.9965982   -3.8930473 0.0089439781   -4.9965982    1.1035509      1024000 
  662000   0.73499622   -4.9949679   -4.9949679   -3.8924758 0.0068398574   -4.9949679    1.1024921      1024000 
  663000   0.73503319   -4.9944867   -4.9944867   -3.8919392  0.010788168   -4.9944867    1.1025475      1024000 
  664000   0.73569739    -4.995094    -4.995094   -3.8915502  0.010043705    -4.995094    1.1035438      1024000 
  665000   0.73577833   -4.9955463   -4.9955463    -3.891881 0.0019411966   -4.9955463    1.1036653      1024000 
  666000   0.73581706   -4.9950055   -4.9950055   -3.8912822 0.00096832162   -4.9950055    1.1037234      1024000 
  667000   0.73633829   -4.9945577   -4.9945577   -3.8900525 -2.0490062e-05   -4.9945577    1.1045052      1024000 
  668000   0.73687643    -4.993878    -4.993878   -3.8885656 0.0043371942    -4.993878    1.1053124      1024000 
  669000   0.73543103   -4.9914433   -4.9914433    -3.888299  0.012691632   -4.9914433    1.1031443      1024000 
  670000   0.73595255    -4.992036    -4.992036   -3.8881094 0.0094604969    -4.992036    1.1039266      1024000 
  671000   0.73650059   -4.9924166   -4.9924166   -3.8876679 0.0035731256   -4.9924166    1.1047486      1024000 
  672000   0.73779653   -4.9934971   -4.9934971   -3.8868045  0.002956922   -4.9934971    1.1066925      1024000 
  673000    0.7370497     -4.99048     -4.99048   -3.8849077  0.008180344     -4.99048    1.1055723      1024000 
  674000   0.73686067   -4.9886847   -4.9886847   -3.8833959 0.0074862707   -4.9886847    1.1052888      1024000 
  675000   0.73697931   -4.9879651   -4.9879651   -3.8824984 0.0045588213   -4.9879651    1.1054667      1024000 
  676000   0.73678099   -4.9876228   -4.9876228   -3.8824536 0.0087632879   -4.9876228    1.1051692      1024000 
  677000   0.73706857   -4.9870373   -4.9870373   -3.8814367 0.0079080963   -4.9870373    1.1056006      1024000 
  678000   0.73764292   -4.9870054   -4.9870054   -3.8805433 0.0099692397   -4.9870054    1.1064621      1024000 
  679000    0.7388108   -4.9876254   -4.9876254   -3.8794114 0.0048734379   -4.9876254     1.108214      1024000 
  680000    0.7382864   -4.9862868   -4.9862868   -3.8788594 0.0072987644   -4.9862868    1.1074274      1024000 
  681000   0.73779566   -4.9841175   -4.9841175   -3.8774263 0.0078807089   -4.9841175    1.1066912      1024000 
  682000   0.73828476   -4.9843297   -4.9843297   -3.8769048 0.0069444652   -4.9843297    1.1074249      1024000 
  683000   0.73839004   -4.9833666   -4.9833666   -3.8757838 0.0064042847   -4.9833666    1.1075828      1024000 
  684000    0.7392879   -4.9835906   -4.9835906    -3.874661 0.0071127579   -4.9835906    1.1089296      1024000 
  685000   0.73848225   -4.9818762   -4.9818762    -3.874155 0.0067556307   -4.9818762    1.1077211      1024000 
  686000   0.73910481   -4.9821085   -4.9821085   -3.8734535 0.0036908665   -4.9821085     1.108655      1024000 
  687000   0.73881808   -4.9809708   -4.9809708    -3.872746 0.0066745857   -4.9809708    1.1082249      1024000 
  688000    0.7389185   -4.9802945   -4.9802945    -3.871919 0.0014937729   -4.9802945    1.1083755      1024000 
  689000   0.74017921   -4.9807814   -4.9807814   -3.8705148 0.0043988585   -4.9807814    1.1102666      1024000 
  690000   0.73937431   -4.9790421   -4.9790421   -3.8699829  0.005141048   -4.9790421    1.1090592      1024000 
  691000   0.73990402   -4.9790601   -4.9790601   -3.8692063 0.0061003272   -4.9790601    1.1098538      1024000 
  692000   0.73955788   -4.9782249   -4.9782249   -3.8688903 0.0010896426   -4.9782249    1.1093346      1024000 
  693000   0.74017549   -4.9784892   -4.9784892   -3.8682282  0.005626518   -4.9784892     1.110261      1024000 
  694000   0.73956136   -4.9765924   -4.9765924   -3.8672526  0.008641753   -4.9765924    1.1093398      1024000 
  695000   0.74110087   -4.9782178   -4.9782178   -3.8665687  0.002631182   -4.9782178    1.1116491      1024000 
  696000   0.74134608    -4.978442    -4.978442   -3.8664251 -0.0013642456    -4.978442    1.1120169      1024000 
  697000   0.74141201   -4.9773172   -4.9773172   -3.8652014 0.0027651279   -4.9773172    1.1121158      1024000 
  698000   0.74103654   -4.9753922   -4.9753922   -3.8638396 0.0062522556   -4.9753922    1.1115525      1024000 
  699000   0.74082382   -4.9743015   -4.9743015    -3.863068 0.0060430893   -4.9743015    1.1112335      1024000 
  700000    0.7409362   -4.9736013   -4.9736013   -3.8621992 0.0047411056   -4.9736013     1.111402      1024000 
  701000   0.74149925   -4.9736127   -4.9736127   -3.8613661 0.0093603359   -4.9736127    1.1122466      1024000 
  702000   0.74146621   -4.9724757   -4.9724757   -3.8602786   0.01252128   -4.9724757    1.1121971      1024000 
  703000   0.74243763   -4.9731709   -4.9731709   -3.8595167  0.011376299   -4.9731709    1.1136542      1024000 
  704000   0.74316577   -4.9729614   -4.9729614    -3.858215 0.0082989171   -4.9729614    1.1147464      1024000 
  705000   0.74226881   -4.9712076   -4.9712076   -3.8578066 0.0098884113   -4.9712076     1.113401      1024000 
  706000   0.74312241   -4.9712143   -4.9712143   -3.8565329 0.0074185388   -4.9712143    1.1146813      1024000 
  707000   0.74297272   -4.9701587   -4.9701587   -3.8557019 0.0071709903   -4.9701587    1.1144568      1024000 
  708000   0.74291869   -4.9689292   -4.9689292   -3.8545534 0.0083732217   -4.9689292    1.1143758      1024000 
  709000   0.74242317   -4.9673457   -4.9673457   -3.8537132 0.0074668123   -4.9673457    1.1136325      1024000 
  710000   0.74404418   -4.9696132   -4.9696132   -3.8535492 -0.00015730189   -4.9696132     1.116064      1024000 
  711000   0.74368059   -4.9669223   -4.9669223   -3.8514036 0.0019441431   -4.9669223    1.1155186      1024000 
  712000   0.74430742   -4.9663678   -4.9663678   -3.8499089 0.0037604243   -4.9663678    1.1164589      1024000 
  713000   0.74233333   -4.9635911   -4.9635911   -3.8500934 0.0075608169   -4.9635911    1.1134977      1024000 
  714000   0.74360262   -4.9641797   -4.9641797   -3.8487781 0.0045753045   -4.9641797    1.1154017      1024000 
  715000   0.74418681   -4.9646553   -4.9646553   -3.8483773 0.0013761196   -4.9646553    1.1162779      1024000 
  716000   0.74315712   -4.9613963   -4.9613963   -3.8466629 0.0069442789   -4.9613963    1.1147334      1024000 
  717000   0.74460951   -4.9631354   -4.9631354   -3.8462234 0.0025704006   -4.9631354     1.116912      1024000 
  718000   0.74425293   -4.9614459   -4.9614459   -3.8450687  0.003565216   -4.9614459    1.1163771      1024000 
  719000   0.74403362   -4.9604144   -4.9604144   -3.8443663 0.0046539808   -4.9604144    1.1160482      1024000 
  720000   0.74468648   -4.9601325   -4.9601325    -3.843105 0.0069973778   -4.9601325    1.1170275      1024000 
  721000   0.74544975   -4.9595431   -4.9595431   -3.8413708 0.0026816261   -4.9595431    1.1181724      1024000 
  722000   0.74632464   -4.9598741   -4.9598741   -3.8403894 0.0017612569   -4.9598741    1.1194847      1024000 
  723000   0.74494415   -4.9581473   -4.9581473   -3.8407334 0.0081889375   -4.9581473     1.117414      1024000 
  724000    0.7450487   -4.9571102   -4.9571102   -3.8395394 0.0071354447   -4.9571102    1.1175708      1024000 
  725000   0.74579284   -4.9578251   -4.9578251   -3.8391381 0.0081660926   -4.9578251     1.118687      1024000 
  726000   0.74637205   -4.9570105   -4.9570105   -3.8374547 0.0019374464   -4.9570105    1.1195558      1024000 
  727000   0.74663184   -4.9553534   -4.9553534   -3.8354079 0.0093002352   -4.9553534    1.1199455      1024000 
  728000   0.74640479   -4.9554667   -4.9554667   -3.8358618 0.0098045241   -4.9554667    1.1196049      1024000 
  729000   0.74695256   -4.9549596   -4.9549596    -3.834533  0.009300201   -4.9549596    1.1204266      1024000 
  730000   0.74710767   -4.9537094   -4.9537094   -3.8330502 0.0090255493   -4.9537094    1.1206592      1024000 
  731000   0.74787114   -4.9533411   -4.9533411   -3.8315367 0.0063889458   -4.9533411    1.1218044      1024000 
  732000   0.74821494   -4.9529272   -4.9529272    -3.830607 0.0069222206   -4.9529272    1.1223201      1024000 
  733000   0.74812467   -4.9513175   -4.9513175   -3.8291328 0.0061885753   -4.9513175    1.1221847      1024000 
  734000   0.74875508   -4.9514663   -4.9514663   -3.8283359  0.008235296   -4.9514663    1.1231303      1024000 
  735000   0.74782169   -4.9496764   -4.9496764   -3.8279461  0.013406968   -4.9496764    1.1217303      1024000 
  736000   0.74821064   -4.9493009   -4.9493009   -3.8269872  0.011330596   -4.9493009    1.1223137      1024000 
  737000   0.74993959   -4.9509607   -4.9509607   -3.8260536 0.0052540399   -4.9509607    1.1249071      1024000 
  738000   0.74824282   -4.9468593   -4.9468593   -3.8244973 0.0050194601   -4.9468593     1.122362      1024000 
  739000   0.74731724   -4.9446321   -4.9446321   -3.8236585 0.0044558959   -4.9446321    1.1209736      1024000 
  740000   0.74800062   -4.9451668   -4.9451668   -3.8231681 0.0041239812   -4.9451668    1.1219987      1024000 
  741000   0.74811349   -4.9450483   -4.9450483   -3.8228804 0.0015068178   -4.9450483     1.122168      1024000 
  742000   0.74736625   -4.9440102   -4.9440102   -3.8229631 0.0025347453   -4.9440102    1.1210471      1024000 
  743000   0.74717399   -4.9428316   -4.9428316   -3.8220729 0.0016108147   -4.9428316    1.1207587      1024000 
  744000    0.7472146    -4.941672    -4.941672   -3.8208523 -0.0028551673    -4.941672    1.1208196      1024000 
  745000   0.74822214   -4.9427539   -4.9427539    -3.820423 -0.0012729529   -4.9427539    1.1223309      1024000 
  746000   0.74824874   -4.9413387   -4.9413387   -3.8189679 0.0040801314   -4.9413387    1.1223708      1024000 
  747000   0.74904592   -4.9418501   -4.9418501   -3.8182835 0.0038881941   -4.9418501    1.1235666      1024000 
  748000   0.74895408   -4.9404319   -4.9404319   -3.8170031 0.0055795614   -4.9404319    1.1234288      1024000 
  749000   0.74985329   -4.9405666   -4.9405666   -3.8157889 0.0068429576   -4.9405666    1.1247777      1024000 
  750000   0.74927387   -4.9391617   -4.9391617   -3.8152532 0.0059618149   -4.9391617    1.1239085      1024000 
  751000   0.75049582   -4.9395964   -4.9395964    -3.813855  0.006248895   -4.9395964    1.1257414      1024000 
  752000   0.75120907   -4.9410695   -4.9410695   -3.8142582 0.0024614834   -4.9410695    1.1268113      1024000 
  753000   0.75155522   -4.9404843   -4.9404843   -3.8131537 0.0063929441   -4.9404843    1.1273305      1024000 
  754000   0.74973801   -4.9373608   -4.9373608    -3.812756  0.009065447   -4.9373608    1.1246047      1024000 
  755000   0.74916253   -4.9354953   -4.9354953   -3.8117538 0.0078729026   -4.9354953    1.1237415      1024000 
  756000   0.75038487    -4.936727    -4.936727    -3.811152 0.0066197526    -4.936727     1.125575      1024000 
  757000   0.75156827   -4.9372466   -4.9372466   -3.8098965 0.0061745758   -4.9372466    1.1273501      1024000 
  758000   0.75074272    -4.934108    -4.934108   -3.8079962  0.011154306    -4.934108    1.1261118      1024000 
  759000   0.75148081   -4.9354209   -4.9354209    -3.808202 0.0095047717   -4.9354209    1.1272189      1024000 
  760000   0.75157545   -4.9348178   -4.9348178   -3.8074569  0.010522483   -4.9348178    1.1273609      1024000 
  761000   0.75276055   -4.9353658   -4.9353658   -3.8062272 0.0062251557   -4.9353658    1.1291385      1024000 
  762000    0.7519169   -4.9334329   -4.9334329   -3.8055598  0.011488093   -4.9334329    1.1278731      1024000 
  763000    0.7531249   -4.9331287   -4.9331287   -3.8034436  0.012601302   -4.9331287    1.1296851      1024000 
  764000   0.75368034   -4.9335194   -4.9335194   -3.8030012 0.0080221696   -4.9335194    1.1305182      1024000 
  765000   0.75268457   -4.9309398   -4.9309398   -3.8019152 0.0094164479   -4.9309398    1.1290246      1024000 
  766000   0.75290481   -4.9303589   -4.9303589    -3.801004 0.0052573578   -4.9303589    1.1293549      1024000 
  767000   0.75235378   -4.9288498   -4.9288498   -3.8003214 0.0057569842   -4.9288498    1.1285284      1024000 
  768000   0.75283346   -4.9287612   -4.9287612   -3.7995133 0.0076573292   -4.9287612    1.1292479      1024000 
  769000   0.75261611   -4.9275582   -4.9275582   -3.7986363 0.0067570983   -4.9275582    1.1289219      1024000 
  770000   0.75212902    -4.925764    -4.925764   -3.7975728  0.010041654    -4.925764    1.1281912      1024000 
  771000   0.75392114   -4.9276723   -4.9276723   -3.7967929 0.0037324997   -4.9276723    1.1308794      1024000 
  772000   0.75398995   -4.9263884   -4.9263884   -3.7954057 0.0065573434   -4.9263884    1.1309826      1024000 
  773000   0.75385686   -4.9252183   -4.9252183   -3.7944353  0.008048027   -4.9252183     1.130783      1024000 
  774000   0.75349414   -4.9235929   -4.9235929    -3.793354 0.0051631659   -4.9235929    1.1302389      1024000 
  775000   0.75402139   -4.9234028   -4.9234028    -3.792373 0.0031311943   -4.9234028    1.1310298      1024000 
  776000   0.75452374   -4.9225307   -4.9225307   -3.7907474 0.0023805976   -4.9225307    1.1317833      1024000 
  777000   0.75432275   -4.9202788   -4.9202788   -3.7887969 0.0089878754   -4.9202788    1.1314818      1024000 
  778000   0.75433192   -4.9193348   -4.9193348   -3.7878392  0.010959547   -4.9193348    1.1314956      1024000 
  779000   0.75536175    -4.920388    -4.920388   -3.7873477 0.0020740943    -4.920388    1.1330403      1024000 
  780000    0.7560517   -4.9200688   -4.9200688   -3.7859935 -0.0011052125   -4.9200688    1.1340753      1024000 
  781000   0.75369648   -4.9164505   -4.9164505   -3.7859081 0.0082704824   -4.9164505    1.1305424      1024000 
  782000   0.75472165   -4.9164942   -4.9164942    -3.784414 0.0044220253   -4.9164942    1.1320802      1024000 
  783000   0.75586715   -4.9175604   -4.9175604    -3.783762 0.0029102903   -4.9175604    1.1337984      1024000 
  784000   0.75536716   -4.9161493   -4.9161493   -3.7831009 0.0069583971   -4.9161493    1.1330484      1024000 
  785000   0.75574484   -4.9159357   -4.9159357   -3.7823207 0.0038535616   -4.9159357     1.133615      1024000 
  786000   0.75657395    -4.914819    -4.914819   -3.7799603  0.003665087    -4.914819    1.1348586      1024000 
  787000    0.7559031   -4.9133794   -4.9133794    -3.779527 0.0074145694   -4.9133794    1.1338524      1024000 
  788000   0.75628131   -4.9128071   -4.9128071   -3.7783875 0.0055120203   -4.9128071    1.1344197      1024000 
  789000   0.75640025   -4.9116684   -4.9116684   -3.7770703  0.008875799   -4.9116684    1.1345981      1024000 
  790000   0.75842945     -4.91263     -4.91263   -3.7749881 0.0041946885     -4.91263    1.1376419      1024000 
  791000   0.75639302   -4.9079862   -4.9079862   -3.7733989  0.013528844   -4.9079862    1.1345872      1024000 
  792000   0.75848954   -4.9105571   -4.9105571   -3.7728251 0.0073644667   -4.9105571     1.137732      1024000 
  793000   0.75865731   -4.9091383   -4.9091383   -3.7711546  0.010964048   -4.9091383    1.1379837      1024000 
  794000   0.75903506   -4.9089889   -4.9089889   -3.7704386 0.0071023954   -4.9089889    1.1385503      1024000 
  795000   0.75843663   -4.9059463   -4.9059463   -3.7682937  0.013005387   -4.9059463    1.1376526      1024000 
  796000   0.75831605   -4.9055035   -4.9055035   -3.7680317  0.010513292   -4.9055035    1.1374718      1024000 
  797000    0.7577127   -4.9042474   -4.9042474   -3.7676806   0.01115733   -4.9042474    1.1365667      1024000 
  798000   0.75846542   -4.9053439   -4.9053439   -3.7676481 0.0048881106   -4.9053439    1.1376958      1024000 
  799000   0.75881883   -4.9045843   -4.9045843   -3.7663584 0.0075364678   -4.9045843    1.1382259      1024000 
  800000   0.75940187   -4.9052393   -4.9052393   -3.7661388 0.0078976568   -4.9052393    1.1391005      1024000 
  801000    0.7593837   -4.9041973   -4.9041973   -3.7651241 0.0038075652   -4.9041973    1.1390732      1024000 
  802000   0.75959307   -4.9039166   -4.9039166   -3.7645293 0.0035401544   -4.9039166    1.1393873      1024000 
  803000   0.75902804   -4.9022474   -4.9022474   -3.7637076 0.00070072948   -4.9022474    1.1385397      1024000 
  804000   0.75918634   -4.9011594   -4.9011594   -3.7623822 0.00096383752   -4.9011594    1.1387772      1024000 
  805000   0.76022652   -4.9012301   -4.9012301   -3.7608927 0.0056052778   -4.9012301    1.1403375      1024000 
  806000   0.76002981   -4.9002478   -4.9002478   -3.7602054 0.0044145869   -4.9002478    1.1400424      1024000 
  807000   0.76088158    -4.899882    -4.899882    -3.758562 0.0063483631    -4.899882    1.1413201      1024000 
  808000   0.76127242   -4.8986668   -4.8986668   -3.7567605 0.0078400496   -4.8986668    1.1419063      1024000 
  809000   0.76101319   -4.8979128   -4.8979128   -3.7563953 0.0059058366   -4.8979128    1.1415175      1024000 
  810000   0.76072257   -4.8971614   -4.8971614   -3.7560798 0.0069150623   -4.8971614    1.1410815      1024000 
  811000   0.76120377   -4.8964048   -4.8964048   -3.7546015 0.0013081979   -4.8964048    1.1418033      1024000 
  812000   0.76132723   -4.8950814   -4.8950814   -3.7530929 0.0052328697   -4.8950814    1.1419885      1024000 
  813000   0.76132732   -4.8938753   -4.8938753   -3.7518867 0.0057977977   -4.8938753    1.1419887      1024000 
  814000   0.76260772    -4.894917    -4.894917   -3.7510078 0.00075892392    -4.894917    1.1439093      1024000 
  815000   0.76190759   -4.8922815   -4.8922815   -3.7494224 0.0060122488   -4.8922815    1.1428591      1024000 
  816000   0.76099667   -4.8899876   -4.8899876   -3.7484949 0.0092748419   -4.8899876    1.1414927      1024000 
  817000   0.76153196   -4.8894506   -4.8894506   -3.7471549 0.0097775402   -4.8894506    1.1422956      1024000 
  818000   0.76248849   -4.8899244   -4.8899244    -3.746194 0.0059336263   -4.8899244    1.1437304      1024000 
  819000   0.76227563   -4.8894467   -4.8894467   -3.7460355 0.0060636208   -4.8894467    1.1434111      1024000 
  820000   0.76266703   -4.8895151   -4.8895151   -3.7455169 0.0051160975   -4.8895151    1.1439982      1024000 
  821000    0.7627142   -4.8880191   -4.8880191   -3.7439502 0.0098544287   -4.8880191     1.144069      1024000 
  822000   0.76268545   -4.8876149   -4.8876149    -3.743589 0.0076385904   -4.8876149    1.1440259      1024000 
  823000   0.76273467    -4.885636    -4.885636   -3.7415363 0.0084664308    -4.885636    1.1440997      1024000 
  824000   0.76340216   -4.8855252   -4.8855252   -3.7404243 0.0075560797   -4.8855252    1.1451009      1024000 
  825000   0.76394189   -4.8851308   -4.8851308   -3.7392203 0.0051301806   -4.8851308    1.1459105      1024000 
  826000   0.76383821   -4.8846207   -4.8846207   -3.7388657 0.0037629177   -4.8846207     1.145755      1024000 
  827000   0.76355285   -4.8838529   -4.8838529    -3.738526 0.0075615333   -4.8838529     1.145327      1024000 
  828000   0.76358911   -4.8836198   -4.8836198   -3.7382384 0.0038724037   -4.8836198    1.1453813      1024000 
  829000   0.76312188   -4.8821875   -4.8821875    -3.737507 0.0056759512   -4.8821875    1.1446805      1024000 
  830000   0.76480674   -4.8831644   -4.8831644   -3.7359566   0.00100743   -4.8831644    1.1472078      1024000 
  831000   0.76363439   -4.8800705   -4.8800705   -3.7346213 0.0072674776   -4.8800705    1.1454493      1024000 
  832000   0.76378407   -4.8793485   -4.8793485   -3.7336748 0.0071443253   -4.8793485    1.1456738      1024000 
  833000   0.76433686   -4.8786776   -4.8786776   -3.7321746 0.00088835241   -4.8786776     1.146503      1024000 
  834000   0.76459294   -4.8774525   -4.8774525   -3.7305655 0.0066638032   -4.8774525    1.1468871      1024000 
  835000   0.76598062   -4.8773285   -4.8773285   -3.7283599 0.0071157331   -4.8773285    1.1489686      1024000 
  836000   0.76551148   -4.8757472   -4.8757472   -3.7274823  0.013701932   -4.8757472    1.1482649      1024000 
  837000   0.76731535   -4.8773077   -4.8773077    -3.726337 0.0052169943   -4.8773077    1.1509707      1024000 
  838000   0.76655347   -4.8751145   -4.8751145   -3.7252866 0.0061675053   -4.8751145    1.1498279      1024000 
  839000   0.76642428   -4.8749357   -4.8749357   -3.7253016 0.0094910003   -4.8749357    1.1496341      1024000 
  840000    0.7664408   -4.8740653   -4.8740653   -3.7244064  0.010228175   -4.8740653    1.1496589      1024000 
  841000    0.7672697   -4.8741747   -4.8741747   -3.7232725 0.0037614094   -4.8741747    1.1509022      1024000 
  842000   0.76645057   -4.8712488   -4.8712488   -3.7215753 0.0056670478   -4.8712488    1.1496735      1024000 
  843000   0.76695088   -4.8714512   -4.8714512   -3.7210272 0.00043789433   -4.8714512     1.150424      1024000 
  844000   0.76629984   -4.8695686   -4.8695686   -3.7201212 0.0045547223   -4.8695686    1.1494474      1024000 
  845000   0.76773434   -4.8714339   -4.8714339   -3.7198347 0.0019297493   -4.8714339    1.1515992      1024000 
  846000   0.76695605      -4.8684      -4.8684   -3.7179683 0.0054785487      -4.8684    1.1504317      1024000 
  847000   0.76762589   -4.8684386   -4.8684386   -3.7170021 0.0029662902   -4.8684386    1.1514365      1024000 
  848000   0.76675684   -4.8659601   -4.8659601   -3.7158271 0.0084521412   -4.8659601    1.1501329      1024000 
  849000   0.76830189   -4.8672139   -4.8672139   -3.7147634   0.00402647   -4.8672139    1.1524505      1024000 
  850000   0.76822576   -4.8661014   -4.8661014   -3.7137651 0.0067028889   -4.8661014    1.1523363      1024000 
  851000   0.76889095    -4.866112    -4.866112   -3.7127779  0.010824622    -4.866112    1.1533341      1024000 
  852000   0.76961731   -4.8661997   -4.8661997    -3.711776 0.0073562386   -4.8661997    1.1544236      1024000 
  853000   0.76920169   -4.8648183   -4.8648183   -3.7110181 0.0099965913   -4.8648183    1.1538002      1024000 
  854000     0.768724   -4.8633116   -4.8633116   -3.7102279 0.0081598288   -4.8633116    1.1530837      1024000 
  855000   0.76992148   -4.8637091   -4.8637091   -3.7088292 0.0021632762   -4.8637091    1.1548799      1024000 
  856000   0.76887229   -4.8613545   -4.8613545   -3.7080484 0.0074927001   -4.8613545    1.1533061      1024000 
  857000   0.76961519   -4.8615405   -4.8615405   -3.7071201 0.0074666133   -4.8615405    1.1544204      1024000 
  858000   0.76911644   -4.8591612   -4.8591612   -3.7054889 0.0085163801   -4.8591612    1.1536723      1024000 
  859000   0.76874743   -4.8580647   -4.8580647   -3.7049459 0.0054027806   -4.8580647    1.1531188      1024000 
  860000   0.76934068   -4.8583101   -4.8583101   -3.7043014 -0.00070240932   -4.8583101    1.1540087      1024000 
  861000   0.76851754   -4.8563727   -4.8563727   -3.7035987  0.006543412   -4.8563727     1.152774      1024000 
  862000   0.76982726   -4.8577505   -4.8577505    -3.703012 0.0012540153   -4.8577505    1.1547386      1024000 
  863000   0.76987192   -4.8567741   -4.8567741   -3.7019686 0.0055442626   -4.8567741    1.1548055      1024000 
  864000   0.77073153   -4.8568404   -4.8568404   -3.7007454  0.002511875   -4.8568404     1.156095      1024000 
  865000   0.77080471   -4.8560857   -4.8560857    -3.699881 0.0075230994   -4.8560857    1.1562047      1024000 
  866000   0.77189081   -4.8560784   -4.8560784   -3.6982445  0.001880608   -4.8560784    1.1578339      1024000 
  867000   0.77162237   -4.8542926   -4.8542926   -3.6968614 0.0038025308   -4.8542926    1.1574312      1024000 
  868000   0.77199236     -4.85341     -4.85341   -3.6954238 0.0056028955     -4.85341    1.1579862      1024000 
  869000   0.77251807   -4.8528218   -4.8528218    -3.694047   0.01148124   -4.8528218    1.1587748      1024000 
  870000   0.77354235   -4.8529621   -4.8529621    -3.692651 0.0056871747   -4.8529621    1.1603112      1024000 
  871000   0.77252763   -4.8495793   -4.8495793   -3.6907902  0.014474058   -4.8495793    1.1587891      1024000 
  872000   0.77378741   -4.8499608   -4.8499608    -3.689282 0.0083877877   -4.8499608    1.1606788      1024000 
  873000   0.77351138   -4.8499197   -4.8499197    -3.689655 0.0015545023   -4.8499197    1.1602647      1024000 
  874000   0.77284549   -4.8481633   -4.8481633   -3.6888974  0.006160422   -4.8481633    1.1592659      1024000 
  875000    0.7723591   -4.8460554   -4.8460554   -3.6875191 0.0084611077   -4.8460554    1.1585363      1024000 
  876000   0.77224808    -4.845774    -4.845774   -3.6874042 0.0030413069    -4.845774    1.1583698      1024000 
  877000   0.77473834   -4.8484594   -4.8484594   -3.6863542 -0.00019544059   -4.8484594    1.1621052      1024000 
  878000   0.77369405   -4.8453626   -4.8453626   -3.6848239 0.0041535043   -4.8453626    1.1605387      1024000 
  879000   0.77392571   -4.8441602   -4.8441602    -3.683274 0.0050146234   -4.8441602    1.1608862      1024000 
  880000   0.77373938   -4.8433721   -4.8433721   -3.6827654 0.0043707914   -4.8433721    1.1606067      1024000 
  881000   0.77271824    -4.840421    -4.840421    -3.681346 0.0092649081    -4.840421     1.159075      1024000 
  882000   0.77371242   -4.8409373   -4.8409373   -3.6803711 0.0089588925   -4.8409373    1.1605663      1024000 
  883000    0.7743111   -4.8399977   -4.8399977   -3.6785334 0.0049208933   -4.8399977    1.1614643      1024000 
  884000   0.77440309   -4.8390623   -4.8390623   -3.6774601 0.0050880055   -4.8390623    1.1616023      1024000 
  885000   0.77382015   -4.8369858   -4.8369858   -3.6762579 0.0051550756   -4.8369858    1.1607279      1024000 
  886000   0.77475232   -4.8370155   -4.8370155   -3.6748893 0.0053978065   -4.8370155    1.1621261      1024000 
  887000   0.77486891   -4.8362993   -4.8362993   -3.6739983 0.0071202949   -4.8362993     1.162301      1024000 
  888000   0.77456151   -4.8342979   -4.8342979   -3.6724579 0.0081766444   -4.8342979    1.1618399      1024000 
  889000   0.77435967   -4.8329948   -4.8329948   -3.6714577 -0.00031920423   -4.8329948    1.1615371      1024000 
  890000   0.77523889    -4.833476    -4.833476     -3.67062 -0.0027013262    -4.833476     1.162856      1024000 
  891000   0.77559312   -4.8328964   -4.8328964   -3.6695091 0.0021776352   -4.8328964    1.1633873      1024000 
  892000   0.77560233    -4.831985    -4.831985   -3.6685838 -0.0013527472    -4.831985    1.1634011      1024000 
  893000   0.77393246   -4.8290339   -4.8290339   -3.6681376 0.0035950302   -4.8290339    1.1608963      1024000 
  894000   0.77489432   -4.8288212   -4.8288212   -3.6664821 0.0064614676   -4.8288212    1.1623391      1024000 
  895000   0.77591025   -4.8304926   -4.8304926   -3.6666296 5.0567757e-05   -4.8304926     1.163863      1024000 
  896000   0.77611713   -4.8300178   -4.8300178   -3.6658445  0.002960349   -4.8300178    1.1641733      1024000 
  897000   0.77734204   -4.8299329   -4.8299329   -3.6639222 0.00029355274   -4.8299329    1.1660107      1024000 
  898000    0.7771052   -4.8280221   -4.8280221   -3.6623666 0.0045534874   -4.8280221    1.1656554      1024000 
  899000   0.77587398   -4.8260445   -4.8260445   -3.6622359 0.0082789455   -4.8260445    1.1638086      1024000 
  900000   0.77712985   -4.8274439   -4.8274439   -3.6617515 0.00072221799   -4.8274439    1.1656924      1024000 
  901000   0.77672244    -4.825042    -4.825042   -3.6599607 0.0090194508    -4.825042    1.1650813      1024000 
  902000   0.77834488   -4.8265281   -4.8265281   -3.6590131 0.0024702075   -4.8265281     1.167515      1024000 
  903000   0.77695363   -4.8224842   -4.8224842   -3.6570561 0.0075621426   -4.8224842    1.1654281      1024000 
  904000   0.77671357   -4.8214966   -4.8214966   -3.6564286 0.0087213363   -4.8214966     1.165068      1024000 
  905000   0.77736606   -4.8218428   -4.8218428   -3.6557961 0.0052235634   -4.8218428    1.1660467      1024000 
  906000   0.77891193   -4.8238038   -4.8238038   -3.6554383 0.0047728244   -4.8238038    1.1683655      1024000 
  907000   0.77814298   -4.8233769   -4.8233769   -3.6561648  0.007531217   -4.8233769    1.1672121      1024000 
  908000   0.77940338   -4.8227961   -4.8227961   -3.6536934 0.0039446214   -4.8227961    1.1691027      1024000 
  909000     0.779418   -4.8218082   -4.8218082   -3.6526836 0.0097448689   -4.8218082    1.1691246      1024000 
  910000   0.77857047   -4.8203471   -4.8203471   -3.6524937  0.011516281   -4.8203471    1.1678533      1024000 
  911000   0.77930112   -4.8212207   -4.8212207   -3.6522714 0.0061935423   -4.8212207    1.1689493      1024000 
  912000   0.77985213   -4.8202884   -4.8202884   -3.6505126 0.0099707593   -4.8202884    1.1697758      1024000 
  913000    0.7809469   -4.8206555   -4.8206555   -3.6492375 0.0034910107   -4.8206555     1.171418      1024000 
  914000   0.78019748   -4.8185551   -4.8185551   -3.6482612 0.0098300312   -4.8185551    1.1702939      1024000 
  915000   0.77902944   -4.8163629   -4.8163629   -3.6478211 0.0065867849   -4.8163629    1.1685418      1024000 
  916000   0.78033421   -4.8164456   -4.8164456   -3.6459467 0.0035053627   -4.8164456    1.1704989      1024000 
  917000   0.78069686   -4.8166265   -4.8166265   -3.6455836 0.0062061069   -4.8166265    1.1710429      1024000 
  918000   0.78035314   -4.8143901   -4.8143901   -3.6438628  0.015570568   -4.8143901    1.1705273      1024000 
  919000   0.78156352   -4.8153723   -4.8153723   -3.6430294  0.011739807   -4.8153723    1.1723429      1024000 
  920000   0.78185458   -4.8135545   -4.8135545    -3.640775 0.0097010189   -4.8135545    1.1727795      1024000 
  921000   0.78090516   -4.8113609   -4.8113609   -3.6400056  0.011203648   -4.8113609    1.1713554      1024000 
  922000   0.78219197   -4.8116985   -4.8116985   -3.6384129 0.0090876053   -4.8116985    1.1732856      1024000 
  923000   0.78143444   -4.8099194   -4.8099194   -3.6377701 0.0084017888   -4.8099194    1.1721493      1024000 
  924000   0.78219522   -4.8102115   -4.8102115    -3.636921 0.0036366189   -4.8102115    1.1732904      1024000 
  925000   0.78217738   -4.8087391   -4.8087391   -3.6354754  0.013325426   -4.8087391    1.1732637      1024000 
  926000   0.78325516   -4.8091096   -4.8091096   -3.6342293  0.012813076   -4.8091096    1.1748804      1024000 
  927000   0.78252513   -4.8065582   -4.8065582   -3.6327728  0.013596258   -4.8065582    1.1737853      1024000 
  928000   0.78313478    -4.806724    -4.806724   -3.6320242 0.0087239747    -4.806724    1.1746998      1024000 
  929000    0.7816944   -4.8042693   -4.8042693   -3.6317301  0.010391724   -4.8042693    1.1725392      1024000 
  930000   0.78261906   -4.8055516   -4.8055516   -3.6316254 0.0053368732   -4.8055516    1.1739262      1024000 
  931000   0.78235546   -4.8043083   -4.8043083   -3.6307775 0.0051110429   -4.8043083    1.1735308      1024000 
  932000   0.78196319   -4.8016903   -4.8016903   -3.6287479 0.0039780863   -4.8016903    1.1729424      1024000 
  933000   0.78238408   -4.8017778   -4.8017778    -3.628204 0.0001794913   -4.8017778    1.1735737      1024000 
  934000   0.78325436    -4.801432    -4.801432   -3.6265529 -0.0043192248    -4.801432    1.1748792      1024000 
  935000   0.78324801      -4.7998      -4.7998   -3.6249304 -0.0036979231      -4.7998    1.1748696      1024000 
  936000   0.78204797   -4.7979206   -4.7979206    -3.624851 -0.00096265567   -4.7979206    1.1730696      1024000 
  937000   0.78143831   -4.7956107   -4.7956107   -3.6234556 0.0030452874   -4.7956107    1.1721551      1024000 
  938000   0.78397804   -4.7977818   -4.7977818   -3.6218171 0.0047546804   -4.7977818    1.1759647      1024000 
  939000   0.78356711    -4.794998    -4.794998   -3.6196497  0.008985919    -4.794998    1.1753483      1024000 
  940000   0.78439008   -4.7950674   -4.7950674   -3.6184847 0.0040346222   -4.7950674    1.1765827      1024000 
  941000   0.78573242   -4.7950979   -4.7950979   -3.6165017 0.0083812656   -4.7950979    1.1785962      1024000 
  942000   0.78527227    -4.793279    -4.793279    -3.615373  0.013415169    -4.793279     1.177906      1024000 
  943000   0.78658329   -4.7933172   -4.7933172   -3.6134446  0.010389928   -4.7933172    1.1798725      1024000 
  944000   0.78575282    -4.790535    -4.790535   -3.6119081  0.018699593    -4.790535    1.1786268      1024000 
  945000   0.78654813   -4.7909099   -4.7909099   -3.6110901 0.0093501741   -4.7909099    1.1798198      1024000 
  946000   0.78639754   -4.7898777   -4.7898777   -3.6102838   0.01093481   -4.7898777    1.1795939      1024000 
  947000   0.78607393   -4.7894165   -4.7894165   -3.6103079 0.0050818797   -4.7894165    1.1791085      1024000 
  948000   0.78586821   -4.7879326   -4.7879326   -3.6091327 0.0027515225   -4.7879326    1.1787999      1024000 
  949000   0.78571786   -4.7870971   -4.7870971   -3.6085227  0.010211628   -4.7870971    1.1785744      1024000 
  950000   0.78678663   -4.7864821   -4.7864821   -3.6063045 0.0093726841   -4.7864821    1.1801776      1024000 
  951000    0.7860388   -4.7850227   -4.7850227   -3.6059668  0.010300888   -4.7850227    1.1790558      1024000 
  952000   0.78668011   -4.7860745   -4.7860745   -3.6060568 0.0051031174   -4.7860745    1.1800178      1024000 
  953000    0.7866784   -4.7846048   -4.7846048   -3.6045896 0.0066847935   -4.7846048    1.1800152      1024000 
  954000   0.78660682   -4.7828582   -4.7828582   -3.6029504 0.0068395152   -4.7828582    1.1799078      1024000 
  955000   0.78700881   -4.7830635   -4.7830635   -3.6025526  0.003960287   -4.7830635    1.1805108      1024000 
  956000    0.7881956   -4.7833054   -4.7833054   -3.6010144 0.0053049229   -4.7833054     1.182291      1024000 
  957000   0.78812628   -4.7825932   -4.7825932   -3.6004062 0.0027718577   -4.7825932     1.182187      1024000 
  958000     0.787992   -4.7814417   -4.7814417   -3.5994561 0.0069078194   -4.7814417    1.1819856      1024000 
  959000   0.78822069   -4.7807781   -4.7807781   -3.5984494 0.0035936285   -4.7807781    1.1823286      1024000 
  960000   0.78787178   -4.7799228   -4.7799228   -3.5981175 0.0045542929   -4.7799228    1.1818053      1024000 
  961000   0.78762002   -4.7781554   -4.7781554   -3.5967278 0.0039761288   -4.7781554    1.1814276      1024000 
  962000    0.7877612   -4.7773497   -4.7773497   -3.5957103 0.0065835503   -4.7773497    1.1816394      1024000 
  963000   0.78776138   -4.7763562   -4.7763562   -3.5947165 0.0041176224   -4.7763562    1.1816397      1024000 
  964000   0.78882707   -4.7775394   -4.7775394   -3.5943013 0.0017184957   -4.7775394    1.1832382      1024000 
  965000   0.78868835   -4.7759056   -4.7759056   -3.5928755 0.0034915458   -4.7759056    1.1830301      1024000 
  966000   0.78970234   -4.7752277   -4.7752277   -3.5906766 0.0068122576   -4.7752277    1.1845511      1024000 
  967000    0.7893459   -4.7748486   -4.7748486   -3.5908322 0.0057899949   -4.7748486    1.1840164      1024000 
  968000   0.78908522   -4.7733489   -4.7733489   -3.5897235 0.0097608671   -4.7733489    1.1836254      1024000 
  969000   0.78965909   -4.7730253   -4.7730253   -3.5885391 0.0091763415   -4.7730253    1.1844862      1024000 
  970000   0.78969767   -4.7722718   -4.7722718   -3.5877276  0.006664559   -4.7722718    1.1845441      1024000 
  971000   0.79007045   -4.7705772   -4.7705772    -3.585474  0.013303016   -4.7705772    1.1851033      1024000 
  972000   0.79065308   -4.7704997   -4.7704997   -3.5845225  0.008767584   -4.7704997    1.1859772      1024000 
  973000   0.79077271   -4.7696773   -4.7696773   -3.5835206 0.0058274324   -4.7696773    1.1861567      1024000 
  974000   0.78997053    -4.768133    -4.768133   -3.5831796  0.011991604    -4.768133    1.1849534      1024000 
  975000   0.79300079   -4.7707431   -4.7707431   -3.5812443 0.0074092934   -4.7707431    1.1894988      1024000 
  976000   0.79258354   -4.7690327   -4.7690327   -3.5801599  0.010805285   -4.7690327    1.1888729      1024000 
  977000   0.79222743   -4.7669082   -4.7669082   -3.5785694  0.011214291   -4.7669082    1.1883387      1024000 
  978000   0.79276833   -4.7661818   -4.7661818   -3.5770317 0.0072172694   -4.7661818    1.1891501      1024000 
  979000   0.79246577   -4.7651223   -4.7651223    -3.576426  0.010889687   -4.7651223    1.1886962      1024000 
  980000   0.79258546   -4.7646812   -4.7646812   -3.5758054  0.011422999   -4.7646812    1.1888758      1024000 
  981000   0.79241585   -4.7629005   -4.7629005   -3.5742791  0.011444606   -4.7629005    1.1886214      1024000 
  982000   0.79294513   -4.7625059   -4.7625059   -3.5730907 0.0083766988   -4.7625059    1.1894153      1024000 
  983000   0.79394769   -4.7629459   -4.7629459   -3.5720268 0.0099358995   -4.7629459    1.1909191      1024000 
  984000   0.79404387    -4.761973    -4.761973   -3.5709096 0.0071517431    -4.761973    1.1910634      1024000 
  985000   0.79394032   -4.7606656   -4.7606656   -3.5697575  0.010922457   -4.7606656    1.1909081      1024000 
  986000   0.79355869   -4.7588361   -4.7588361   -3.5685004 0.0074211096   -4.7588361    1.1903356      1024000 
  987000   0.79293347   -4.7575759   -4.7575759   -3.5681781  0.010524407   -4.7575759    1.1893978      1024000 
  988000   0.79399466   -4.7582804   -4.7582804   -3.5672908 0.0090511185   -4.7582804    1.1909896      1024000 
  989000    0.7944264   -4.7561595   -4.7561595   -3.5645223 0.0090478844   -4.7561595    1.1916372      1024000 
  990000   0.79428853   -4.7549934   -4.7549934   -3.5635631 0.0086500662   -4.7549934    1.1914304      1024000 
  991000   0.79462006   -4.7542642   -4.7542642   -3.5623366 0.0073904701   -4.7542642    1.1919277      1024000 
  992000   0.79394593   -4.7545567   -4.7545567   -3.5636403 -0.0010027174   -4.7545567    1.1909165      1024000 
  993000   0.79381321   -4.7533329   -4.7533329   -3.5626155 -0.00067033704   -4.7533329    1.1907174      1024000 
  994000   0.79324346   -4.7507867   -4.7507867   -3.5609239 0.0023886084   -4.7507867    1.1898628      1024000 
  995000   0.79330916   -4.7497027   -4.7497027   -3.5597414 -0.0018600782   -4.7497027    1.1899613      1024000 
  996000   0.79345826   -4.7495216   -4.7495216   -3.5593366 0.0039142628   -4.7495216     1.190185      1024000 
  997000   0.79468096   -4.7497795   -4.7497795   -3.5577605 0.0029120317   -4.7497795     1.192019      1024000 
  998000   0.79500279   -4.7488006   -4.7488006   -3.5562989 0.0040822931   -4.7488006    1.1925018      1024000 
  999000   0.79624864   -4.7486612   -4.7486612   -3.5542907 0.0047246884   -4.7486612    1.1943705      1024000 
 1000000    0.7971641   -4.7483643   -4.7483643   -3.5526206 0.0029557697   -4.7483643    1.1957437      1024000 
Loop time of 7461.12 on 96 procs for 1000000 steps with 492800 atoms

Performance: 28950.081 tau/day, 134.028 timesteps/s
99.5% CPU use with 96 MPI tasks x 1 OpenMP threads

MPI task timing breakdown:
Section |  min time  |  avg time  |  max time  |%varavg|  %CPU | %total
-----------------------------------------------------------------------
Pair    | 4479.6     | 5492.7     | 5774.3     | 486.1 |  99.5 | 73.62
Bond    | 0.75855    | 0.79466    | 0.83567    |   2.0 | 100.0 |  0.01
Neigh   | 516.54     | 624.75     | 653.85     | 157.3 |  99.6 |  8.37
Comm    | 649.52     | 1001.3     | 2096.8     |1256.4 |  99.2 | 13.42
Output  | 40.488     | 40.664     | 40.67      |   0.3 |  98.9 |  0.55
Modify  | 68.014     | 113.78     | 296.7      | 728.8 |  99.6 |  1.52
Other   |            | 187.1      |            |       |       |  2.51

Nlocal:        5133.33 ave        5348 max        4819 min
Histogram: 2 0 2 2 8 49 19 1 1 12
Nghost:        7522.08 ave        8399 max        5562 min
Histogram: 17 7 0 0 0 0 0 5 23 44
Neighs:        310946.0 ave      342375 max      259926 min
Histogram: 2 5 6 10 9 4 18 15 15 12

Total # of neighbors = 29850788
Ave neighs/atom = 60.573839
Ave special neighs/atom = 0.0000000
Neighbor list builds = 58292
Dangerous builds = 2
Total wall time: 2:04:22
