LAMMPS (29 Oct 2020)
  using 1 OpenMP thread(s) per MPI task
# Simple rigid body system
# needed variables:

#variable	startTemp equal 0.5
#variable 	temp 	  equal 0.8

units		lj
atom_style	full
dimension 	3
boundary	p p f
pair_style	lj/cut/opt 2.5


variable 	sigma		equal 1.0
variable 	epsilon 	equal 1.0

region		box block 0 100 0 100 0 200
create_box 	3 box
Created orthogonal box = (0.0000000 0.0000000 0.0000000) to (100.00000 100.00000 200.00000)
  4 by 5 by 12 MPI processor grid
lattice 	sc 1.0
Lattice spacing in x,y,z = 1.0000000 1.0000000 1.0000000

region		create block EDGE EDGE EDGE EDGE 2 102
create_atoms 	1 region create
Created 1010000 atoms
  create_atoms CPU = 0.261 seconds

mass		1 1.0
mass		2 1.0
mass		3 1.0

group		solvent type 1
1010000 atoms in group solvent

velocity 	solvent create ${startTemp} 563435 loop geom
velocity 	solvent create 0.8 563435 loop geom


neighbor 	0.4 bin

pair_coeff	1 1 1.0 1.0
pair_coeff	2 2 0.0 0.0
pair_coeff	3 3 0.0 0.0
pair_coeff	2 3 0.0 0.0
pair_coeff	1 2*3 0.0 0.0

pair_modify 	shift yes


balance 	1.05 shift z 10 1.05
Balancing ...
Neighbor list info ...
  update every 1 steps, delay 10 steps, check yes
  max neighbors/atom: 2000, page size: 100000
  master list distance cutoff = 2.9
  ghost atom cutoff = 2.9
  binsize = 1.45, bins = 69 69 138
  1 neighbor lists, perpetual/occasional/extra = 1 0 0
  (1) pair lj/cut/opt, perpetual
      attributes: half, newton on
      pair build: half/bin/newton
      stencil: half/bin/3d/newton
      bin: standard
 rebalancing time: 0.385 seconds
  iteration count = 5
  initial/final maximal load/proc = 8925.0000 5775.0000
  initial/final imbalance factor  = 2.1207921 1.3722772
  x cuts: 0.0000000 0.25 0.5 0.75 1.0000000
  y cuts: 0.0000000 0.2 0.4 0.6 0.8 1.0000000
  z cuts: 0.0000000 0.049479167 0.091145833 0.13020833 0.171875 0.22135417 0.2578125 0.30208333 0.34375 0.37239583 0.4296875 0.46354167 1.0000000


####################### WALLS ###########################


variable       epsilonWall equal 2*${epsilon}
variable       epsilonWall equal 2*1

variable       cutoffTop   equal   0.7147*${sigma}
variable       cutoffTop   equal   0.7147*1

variable       cutoffLow   equal   3*${sigma}
variable       cutoffLow   equal   3*1


fix            topWall all wall/lj93 zhi EDGE                ${epsilonWall} ${sigma} ${cutoffTop} units box
fix            topWall all wall/lj93 zhi EDGE                2 ${sigma} ${cutoffTop} units box
fix            topWall all wall/lj93 zhi EDGE                2 1 ${cutoffTop} units box
fix            topWall all wall/lj93 zhi EDGE                2 1 0.7147 units box

fix            lowWall all wall/lj93 zlo EDGE                ${epsilonWall} ${sigma} ${cutoffLow} units box
fix            lowWall all wall/lj93 zlo EDGE                2 ${sigma} ${cutoffLow} units box
fix            lowWall all wall/lj93 zlo EDGE                2 1 ${cutoffLow} units box
fix            lowWall all wall/lj93 zlo EDGE                2 1 3 units box


###################### COMPUTES ##########################

compute        bin1 solvent chunk/atom bin/1d z upper 1.0


######################	FIXES ############################


fix 		peclet solvent ave/chunk 1000 1 1000 bin1 density/number norm 		 none ave one file density.profile

fix 		 temp solvent ave/chunk 1000 1 1000 bin1 temp norm 		 none ave one file temp.profile

fix 		2 solvent nve


## Thermostat


region		regthermo block EDGE EDGE EDGE EDGE 0 20

group 		thermo dynamic solvent region regthermo every 1000
dynamic group thermo defined

fix 		3 thermo langevin ${startTemp} ${temp} 10 156453
fix 		3 thermo langevin 0.8 ${temp} 10 156453
fix 		3 thermo langevin 0.8 .8 10 156453



#### Load balancing


fix 		bal all balance 1000 1.05 shift z 10 1.05


############### Diagnostics and computes ###################
#compute 	com cube	  rigid/local	1 mol x y z
#compute 	quat cube	  rigid/local	1 mol quatw quati quatj quatk

thermo 		1000
thermo_style 	custom step temp epair evdwl etotal press pe ke atoms

dump		1 all custom 100000 dump.lammpstrj id mol type x y z
dump 		2 all image 10000 image.*.png type type
dump 		3 all movie 1000 movie.avi type type

#dump 		com cube local 1000 dump.*.xyz c_com[*]
#dump		quat cube      local 1000 dump.*.quat c_quat[*]


restart 	1000000 restart.dat
timestep 	0.005
timer 		full
New timer settings: style=full  mode=nosync  timeout=off

run		3000000
Per MPI rank memory allocation (min/avg/max) = 9.581 | 9.852 | 10.35 Mbytes
Step Temp E_pair E_vdwl TotEng Press PotEng KinEng Atoms 
       0          0.8   -3.3050748   -3.3050748    -2.105076    8.8982699   -3.3050748    1.1999988  1010000 
    1000    1.5954972   -4.6770897   -4.6770897   -2.2838462    3.9598067   -4.6770897    2.3932435  1010000 
    2000    1.5389019    -4.742981    -4.742981   -2.4346304    2.0497277    -4.742981    2.3083506  1010000 
    3000    1.4758168   -4.6983812   -4.6983812   -2.4846581    0.5111305   -4.6983812     2.213723  1010000 
    4000    1.3534915   -4.4906037   -4.4906037   -2.4603684 -0.079878973   -4.4906037    2.0302353  1010000 
    5000    1.3079734   -4.3849901   -4.3849901    -2.423032 -0.035139017   -4.3849901    1.9619581  1010000 
    6000    1.3182849   -4.3746383   -4.3746383   -2.3972129   0.10015734   -4.3746383    1.9774254  1010000 
    7000    1.3225875   -4.3678105   -4.3678105   -2.3839313   0.15560247   -4.3678105    1.9838792  1010000 
    8000    1.3252113   -4.3641331   -4.3641331   -2.3763181   0.19043697   -4.3641331     1.987815  1010000 
    9000    1.3316176   -4.3682781   -4.3682781   -2.3708537   0.23973773   -4.3682781    1.9974244  1010000 
   10000    1.3353813   -4.3713068   -4.3713068   -2.3682368   0.27816853   -4.3713068      2.00307  1010000 
   11000    1.3335851   -4.3667992   -4.3667992   -2.3664235   0.29673043   -4.3667992    2.0003757  1010000 
   12000    1.3266246   -4.3571451   -4.3571451   -2.3672101    1.0662767   -4.3571451     1.989935  1010000 
   13000    1.3177148   -4.3434834   -4.3434834   -2.3669132    2.3263207   -4.3434834    1.9765702  1010000 
   14000    1.3310144    -4.362271    -4.362271   -2.3657514    2.3166743    -4.362271    1.9965196  1010000 
   15000    1.3207443   -4.3451592   -4.3451592   -2.3640448    1.4650703   -4.3451592    1.9811145  1010000 
   16000    1.2546593   -4.2459902   -4.2459902   -2.3640031    0.7363017   -4.2459902    1.8819871  1010000 
   17000    1.1547651   -4.0961055   -4.0961055   -2.3639596   0.28155313   -4.0961055    1.7321459  1010000 
   18000    1.0766931   -3.9796348   -3.9796348   -2.3645968  0.087700754   -3.9796348    1.6150381  1010000 
   19000    1.0347375   -3.9184611   -3.9184611   -2.3663564  0.035581032   -3.9184611    1.5521047  1010000 
   20000    1.0193708   -3.8980441   -3.8980441   -2.3689894  0.036726758   -3.8980441    1.5290547  1010000 
   21000    1.0218675   -3.9036953   -3.9036953   -2.3708955  0.078770946   -3.9036953    1.5327998  1010000 
   22000    1.0274516   -3.9149284   -3.9149284   -2.3737525    0.1395143   -3.9149284    1.5411758  1010000 
   23000    1.0292482   -3.9216549   -3.9216549   -2.3777841   0.18566182   -3.9216549    1.5438708  1010000 
   24000    1.0318014   -3.9324615   -3.9324615   -2.3847609   0.23301739   -3.9324615    1.5477006  1010000 
   25000    1.0311156   -3.9403405   -3.9403405   -2.3936687   0.26141159   -3.9403405    1.5466718  1010000 
   26000    1.0166978   -3.9297208   -3.9297208   -2.4046756   0.20215001   -3.9297208    1.5250452  1010000 
   27000   0.99622415   -3.9095945   -3.9095945   -2.4152598   0.11754973   -3.9095945    1.4943347  1010000 
   28000   0.97802084    -3.895369    -3.895369   -2.4283392  0.057127131    -3.895369    1.4670298  1010000 
   29000   0.96662194    -3.894463    -3.894463   -2.4445316  0.039294858    -3.894463    1.4499315  1010000 
   30000   0.96508178   -3.9149243   -3.9149243   -2.4673031  0.067852817   -3.9149243    1.4476212  1010000 
   31000   0.96752202   -3.9458194   -3.9458194   -2.4945378   0.10665003   -3.9458194    1.4512816  1010000 
   32000   0.97399956   -3.9786641   -3.9786641   -2.5176663    0.1377436   -3.9786641    1.4609979  1010000 
   33000   0.98615457   -4.0146034   -4.0146034    -2.535373   0.17830408   -4.0146034    1.4792304  1010000 
   34000   0.99962008   -4.0468778   -4.0468778   -2.5474492   0.23472863   -4.0468778    1.4994286  1010000 
   35000    1.0142416   -4.0773653   -4.0773653   -2.5560044   0.30311307   -4.0773653    1.5213609  1010000 
   36000    1.0293669   -4.1082615   -4.1082615   -2.5642127   0.38558183   -4.1082615    1.5440488  1010000 
   37000    1.0454107   -4.1440576   -4.1440576   -2.5759431   0.48529672   -4.1440576    1.5681145  1010000 
   38000    1.0532982   -4.1722477   -4.1722477    -2.592302   0.56246114   -4.1722477    1.5799457  1010000 
   39000    1.0489666   -4.1892459   -4.1892459   -2.6157976   0.59073592   -4.1892459    1.5734484  1010000 
   40000    1.0356862   -4.1976552   -4.1976552   -2.6441275   0.57741673   -4.1976552    1.5535277  1010000 
   41000    1.0217036   -4.2019077   -4.2019077   -2.6693539   0.54911955   -4.2019077    1.5325539  1010000 
   42000    1.0146804   -4.2092937   -4.2092937   -2.6872746   0.51950968   -4.2092937    1.5220191  1010000 
   43000    1.0064352     -4.20944     -4.20944   -2.6997887    0.4928921     -4.20944    1.5096513  1010000 
   44000   0.99466444   -4.1988735   -4.1988735   -2.7068783   0.43685147   -4.1988735    1.4919952  1010000 
   45000    0.9765009   -4.1725666   -4.1725666   -2.7078167   0.34921991   -4.1725666    1.4647499  1010000 
   46000   0.95317232   -4.1356781   -4.1356781    -2.705921   0.23187987   -4.1356781    1.4297571  1010000 
   47000   0.92930134   -4.0964944   -4.0964944   -2.7025438   0.13736166   -4.0964944    1.3939506  1010000 
   48000   0.90772905   -4.0605776   -4.0605776   -2.6989853  0.059540045   -4.0605776    1.3615922  1010000 
   49000   0.88994695   -4.0296805   -4.0296805   -2.6947614 0.0083263754   -4.0296805    1.3349191  1010000 
   50000   0.87624948   -4.0048929   -4.0048929     -2.69052 -0.024819301   -4.0048929    1.3143729  1010000 
   51000   0.86855575   -3.9884238   -3.9884238   -2.6855915 -0.048497222   -3.9884238    1.3028323  1010000 
   52000   0.86559972   -3.9784026   -3.9784026   -2.6800043 -0.048529064   -3.9784026    1.2983983  1010000 
   53000   0.86747254   -3.9742781   -3.9742781   -2.6730706 -0.043073696   -3.9742781    1.3012075  1010000 
   54000   0.87139481   -3.9742328   -3.9742328   -2.6671418  -0.02712605   -3.9742328    1.3070909  1010000 
   55000   0.87646496   -3.9786585   -3.9786585   -2.6639624 -0.008442813   -3.9786585    1.3146961  1010000 
   56000   0.88032454   -3.9814479   -3.9814479   -2.6609624 0.0084494245   -3.9814479    1.3204855  1010000 
   57000    0.8844651     -3.98738     -3.98738   -2.6606836   0.01517026     -3.98738    1.3266963  1010000 
   58000   0.88453233    -3.990222    -3.990222   -2.6634248  0.022060424    -3.990222    1.3267972  1010000 
   59000   0.88501898   -3.9939018   -3.9939018   -2.6663747  0.020487762   -3.9939018    1.3275272  1010000 
   60000    0.8832474   -3.9942489   -3.9942489   -2.6693791  0.019840666   -3.9942489    1.3248698  1010000 
   61000   0.88255998   -3.9962123   -3.9962123   -2.6723736  0.020102082   -3.9962123    1.3238387  1010000 
   62000   0.88334766   -3.9990844   -3.9990844   -2.6740642   0.01891913   -3.9990844    1.3250202  1010000 
   63000   0.88264908   -3.9999219   -3.9999219   -2.6759496   0.02494282   -3.9999219    1.3239723  1010000 
   64000   0.88369886   -4.0031566   -4.0031566   -2.6776097  0.029510375   -4.0031566     1.325547  1010000 
   65000   0.88214811   -4.0024804   -4.0024804   -2.6792596  0.028363288   -4.0024804    1.3232209  1010000 
   66000   0.88242514   -4.0039022   -4.0039022   -2.6802657   0.03194473   -4.0039022    1.3236364  1010000 
   67000   0.88196375   -4.0045681   -4.0045681   -2.6816237  0.028768496   -4.0045681    1.3229443  1010000 
   68000   0.88196364   -4.0053188   -4.0053188   -2.6823746  0.029078409   -4.0053188    1.3229441  1010000 
   69000   0.88003855   -4.0041811   -4.0041811   -2.6841246  0.028744459   -4.0041811    1.3200565  1010000 
   70000    0.8810797    -4.007062    -4.007062   -2.6854437  0.027195042    -4.007062    1.3216182  1010000 
   71000   0.88076296   -4.0079476   -4.0079476   -2.6868045  0.031897868   -4.0079476    1.3211431  1010000 
   72000   0.88087717   -4.0101114   -4.0101114    -2.688797  0.032420655   -4.0101114    1.3213144  1010000 
   73000   0.88181839   -4.0128068   -4.0128068   -2.6900806  0.029266398   -4.0128068    1.3227263  1010000 
   74000   0.88045013   -4.0120086   -4.0120086   -2.6913347  0.034066392   -4.0120086    1.3206739  1010000 
   75000   0.88114659   -4.0140474   -4.0140474   -2.6923288  0.036269212   -4.0140474    1.3217186  1010000 
   76000   0.88055206   -4.0146864   -4.0146864   -2.6938596  0.032800234   -4.0146864    1.3208268  1010000 
   77000   0.88049213   -4.0162601   -4.0162601   -2.6955232  0.033529337   -4.0162601    1.3207369  1010000 
   78000    0.8807528   -4.0175043   -4.0175043   -2.6963764  0.039883002   -4.0175043    1.3211279  1010000 
   79000   0.88451951   -4.0248989   -4.0248989    -2.698121  0.054929923   -4.0248989    1.3267779  1010000 
   80000   0.89378224    -4.039514    -4.039514   -2.6988419   0.10067294    -4.039514     1.340672  1010000 
   81000   0.90591517   -4.0594178   -4.0594178   -2.7005464   0.16012177   -4.0594178    1.3588714  1010000 
   82000   0.91760593   -4.0781539   -4.0781539   -2.7017464   0.22359887   -4.0781539    1.3764075  1010000 
   83000    0.9247796    -4.089417    -4.089417    -2.702249   0.25170027    -4.089417     1.387168  1010000 
   84000    0.9216861    -4.085531    -4.085531   -2.7030032   0.23367093    -4.085531    1.3825278  1010000 
   85000    0.9102776   -4.0688069   -4.0688069   -2.7033919   0.17880593   -4.0688069    1.3654151  1010000 
   86000   0.89637319   -4.0490168   -4.0490168   -2.7044583   0.11408569   -4.0490168    1.3445585  1010000 
   87000   0.88383444   -4.0314338   -4.0314338   -2.7056834  0.061239896   -4.0314338    1.3257503  1010000 
   88000    0.8747498   -4.0186779   -4.0186779   -2.7065545  0.036506606   -4.0186779    1.3121234  1010000 
   89000   0.87085856   -4.0131989   -4.0131989   -2.7069123  0.014498095   -4.0131989    1.3062866  1010000 
   90000   0.86934319   -4.0113991   -4.0113991   -2.7073856  0.015804202   -4.0113991    1.3040135  1010000 
   91000   0.86977512   -4.0126411   -4.0126411   -2.7079797  0.019320607   -4.0126411    1.3046614  1010000 
   92000   0.87272449   -4.0180471   -4.0180471   -2.7089617  0.034219338   -4.0180471    1.3090854  1010000 
   93000    0.8748995   -4.0227953   -4.0227953   -2.7104474  0.039994927   -4.0227953    1.3123479  1010000 
   94000   0.87731108   -4.0277565   -4.0277565   -2.7117912  0.044509001   -4.0277565    1.3159653  1010000 
   95000   0.87707272   -4.0285204   -4.0285204   -2.7129126  0.048554363   -4.0285204    1.3156078  1010000 
   96000    0.8759621   -4.0280769   -4.0280769    -2.714135  0.046415805   -4.0280769    1.3139419  1010000 
   97000    0.8746494    -4.026532    -4.026532   -2.7145592  0.036637745    -4.026532    1.3119728  1010000 
   98000   0.87039551   -4.0212649   -4.0212649   -2.7156729   0.02957968   -4.0212649     1.305592  1010000 
   99000   0.86811029   -4.0195103   -4.0195103   -2.7173462  0.020112682   -4.0195103    1.3021641  1010000 
  100000     0.866452    -4.019186    -4.019186   -2.7195093  0.023492415    -4.019186    1.2996767  1010000 
  101000   0.86630581   -4.0204917   -4.0204917   -2.7210343  0.022161282   -4.0204917    1.2994574  1010000 
  102000   0.86787017   -4.0237382   -4.0237382   -2.7219343   0.02484693   -4.0237382     1.301804  1010000 
  103000   0.87026808   -4.0283259   -4.0283259   -2.7229251  0.035115922   -4.0283259    1.3054008  1010000 
  104000   0.87219793   -4.0317091   -4.0317091   -2.7234135  0.041129503   -4.0317091    1.3082956  1010000 
  105000   0.87367397   -4.0347708   -4.0347708   -2.7242612  0.040911497   -4.0347708    1.3105097  1010000 
  106000   0.87237304   -4.0334664   -4.0334664   -2.7249082  0.043281757   -4.0334664    1.3085583  1010000 
  107000   0.87213287    -4.033532    -4.033532    -2.725334  0.039484146    -4.033532     1.308198  1010000 
  108000   0.86859041   -4.0294741   -4.0294741   -2.7265897  0.032580535   -4.0294741    1.3028843  1010000 
  109000   0.86756686    -4.028125    -4.028125    -2.726776   0.02815092    -4.028125     1.301349  1010000 
  110000   0.86640103   -4.0267088   -4.0267088   -2.7271086  0.020597022   -4.0267088    1.2996003  1010000 
  111000   0.86580076   -4.0275578   -4.0275578   -2.7288579  0.016262968   -4.0275578    1.2986998  1010000 
  112000   0.86593785   -4.0282997   -4.0282997   -2.7293942  0.019974635   -4.0282997    1.2989055  1010000 
  113000   0.86745635   -4.0304113   -4.0304113   -2.7292281  0.029622888   -4.0304113    1.3011832  1010000 
  114000   0.86858628    -4.032835    -4.032835   -2.7299569  0.034506871    -4.032835    1.3028781  1010000 
  115000    0.8704193    -4.036484    -4.036484   -2.7308563  0.038835846    -4.036484    1.3056277  1010000 
  116000   0.87105216   -4.0378373   -4.0378373   -2.7312604  0.044541578   -4.0378373    1.3065769  1010000 
  117000   0.87132835   -4.0390683   -4.0390683   -2.7320771  0.042005535   -4.0390683    1.3069912  1010000 
  118000   0.86968719   -4.0381225   -4.0381225    -2.733593  0.033687796   -4.0381225    1.3045295  1010000 
  119000   0.86791166   -4.0368154   -4.0368154   -2.7349491  0.024860536   -4.0368154    1.3018662  1010000 
  120000   0.86636251   -4.0348893   -4.0348893   -2.7353469  0.026858867   -4.0348893    1.2995425  1010000 
  121000    0.8657773   -4.0341519   -4.0341519   -2.7354872  0.021563932   -4.0341519    1.2986647  1010000 
  122000   0.86602708   -4.0359136   -4.0359136   -2.7368743  0.020533604   -4.0359136    1.2990393  1010000 
  123000   0.86558631   -4.0365035   -4.0365035   -2.7381254  0.019975187   -4.0365035    1.2983782  1010000 
  124000   0.86660767    -4.039003    -4.039003   -2.7390927  0.022645119    -4.039003    1.2999102  1010000 
  125000   0.86681198   -4.0405308   -4.0405308   -2.7403142  0.029482418   -4.0405308    1.3002167  1010000 
  126000    0.8680033   -4.0431264   -4.0431264   -2.7411227  0.033535938   -4.0431264    1.3020037  1010000 
  127000   0.86885117    -4.045426    -4.045426   -2.7421505  0.038557406    -4.045426    1.3032755  1010000 
  128000   0.86820303   -4.0454613   -4.0454613    -2.743158   0.03820792   -4.0454613    1.3023033  1010000 
  129000   0.86812973   -4.0466076   -4.0466076   -2.7444143  0.035208367   -4.0466076    1.3021933  1010000 
  130000   0.86693519   -4.0451827   -4.0451827   -2.7447812  0.026814534   -4.0451827    1.3004015  1010000 
  131000   0.86582475   -4.0448416   -4.0448416   -2.7461057  0.028842558   -4.0448416    1.2987358  1010000 
  132000   0.86450714   -4.0432064   -4.0432064    -2.746447  0.024169896   -4.0432064    1.2967594  1010000 
  133000   0.86349225   -4.0434582   -4.0434582   -2.7482211  0.022780583   -4.0434582    1.2952371  1010000 
  134000   0.86532199   -4.0460307   -4.0460307    -2.748049  0.023945718   -4.0460307    1.2979817  1010000 
  135000    0.8657593   -4.0472156   -4.0472156   -2.7485779  0.027056443   -4.0472156    1.2986377  1010000 
  136000    0.8665008   -4.0491772   -4.0491772   -2.7494273  0.030532101   -4.0491772    1.2997499  1010000 
  137000   0.86701573   -4.0507338   -4.0507338   -2.7502114  0.034792711   -4.0507338    1.3005223  1010000 
  138000    0.8679197   -4.0528766   -4.0528766   -2.7509984  0.032660346   -4.0528766    1.3018783  1010000 
  139000   0.86708179   -4.0522269   -4.0522269   -2.7516055  0.032820782   -4.0522269    1.3006214  1010000 
  140000    0.8654259   -4.0513125   -4.0513125    -2.753175  0.028845604   -4.0513125    1.2981376  1010000 
  141000   0.86481807   -4.0509135   -4.0509135   -2.7536877  0.027295982   -4.0509135    1.2972258  1010000 
  142000   0.86491683   -4.0514362   -4.0514362   -2.7540623   0.02776761   -4.0514362     1.297374  1010000 
  143000   0.86389216   -4.0504163   -4.0504163   -2.7545793   0.02228452   -4.0504163     1.295837  1010000 
  144000   0.86335775   -4.0508503   -4.0508503   -2.7558149  0.025009777   -4.0508503    1.2950353  1010000 
  145000   0.86418916   -4.0527649   -4.0527649   -2.7564824  0.023621331   -4.0527649    1.2962824  1010000 
  146000   0.86389666   -4.0531753   -4.0531753   -2.7573315   0.03044993   -4.0531753    1.2958437  1010000 
  147000   0.86363867   -4.0547696   -4.0547696   -2.7593129  0.028617222   -4.0547696    1.2954567  1010000 
  148000   0.86440974   -4.0560813   -4.0560813   -2.7594679  0.028834074   -4.0560813    1.2966133  1010000 
  149000    0.8652175   -4.0576831   -4.0576831   -2.7598581  0.030489789   -4.0576831     1.297825  1010000 
  150000   0.86615919   -4.0594707   -4.0594707   -2.7602332  0.032334767   -4.0594707    1.2992375  1010000 
  151000   0.86510445    -4.058474    -4.058474   -2.7608186  0.033303629    -4.058474    1.2976554  1010000 
  152000   0.86379742   -4.0578209   -4.0578209   -2.7621261  0.021702761   -4.0578209    1.2956948  1010000 
  153000    0.8621519   -4.0559009   -4.0559009   -2.7626744  0.021014817   -4.0559009    1.2932266  1010000 
  154000   0.86195696   -4.0564263   -4.0564263   -2.7634921  0.020812471   -4.0564263    1.2929342  1010000 
  155000   0.86218699   -4.0574045   -4.0574045   -2.7641253  0.024289975   -4.0574045    1.2932792  1010000 
  156000   0.86200894   -4.0581337   -4.0581337   -2.7651215  0.021869294   -4.0581337    1.2930121  1010000 
  157000   0.86263012   -4.0598911   -4.0598911   -2.7659472  0.026280343   -4.0598911    1.2939439  1010000 
  158000   0.86433042   -4.0640662   -4.0640662   -2.7675719  0.025309601   -4.0640662    1.2964943  1010000 
  159000   0.86404992   -4.0644646   -4.0644646    -2.768391  0.031060974   -4.0644646    1.2960736  1010000 
  160000   0.86336082   -4.0635211   -4.0635211   -2.7684812  0.032626032   -4.0635211      1.29504  1010000 
  161000   0.86423441   -4.0660743   -4.0660743    -2.769724  0.028886393   -4.0660743    1.2963503  1010000 
  162000   0.86317966   -4.0653369   -4.0653369   -2.7705687  0.025371321   -4.0653369    1.2947682  1010000 
  163000   0.86210335    -4.064276    -4.064276   -2.7711222    0.0231566    -4.064276    1.2931537  1010000 
  164000   0.86164623   -4.0648699   -4.0648699   -2.7724018  0.022013536   -4.0648699    1.2924681  1010000 
  165000   0.86222947   -4.0656969   -4.0656969    -2.772354  0.024911563   -4.0656969    1.2933429  1010000 
  166000   0.86158162    -4.065671    -4.065671   -2.7732999  0.022784607    -4.065671    1.2923712  1010000 
  167000   0.86198737   -4.0665722   -4.0665722   -2.7735924  0.021973399   -4.0665722    1.2929798  1010000 
  168000   0.86125511   -4.0664415   -4.0664415   -2.7745601  0.023109125   -4.0664415    1.2918814  1010000 
  169000   0.86236627   -4.0687796   -4.0687796   -2.7752315  0.026318469   -4.0687796    1.2935481  1010000 
  170000   0.86245254   -4.0700785   -4.0700785    -2.776401  0.025524711   -4.0700785    1.2936775  1010000 
  171000   0.86172644   -4.0698813   -4.0698813    -2.777293  0.027770217   -4.0698813    1.2925884  1010000 
  172000   0.86192203   -4.0710315   -4.0710315   -2.7781498  0.026715064   -4.0710315    1.2928818  1010000 
  173000   0.86129327    -4.070686    -4.070686   -2.7787474  0.022798387    -4.070686    1.2919386  1010000 
  174000   0.86163797   -4.0718605   -4.0718605   -2.7794048  0.020493839   -4.0718605    1.2924557  1010000 
  175000   0.86166457   -4.0730205   -4.0730205    -2.780525  0.018390771   -4.0730205    1.2924956  1010000 
  176000   0.86015545   -4.0720137   -4.0720137   -2.7817818  0.024674845   -4.0720137    1.2902319  1010000 
  177000   0.86013815   -4.0733135   -4.0733135   -2.7831075  0.020458039   -4.0733135    1.2902059  1010000 
  178000   0.85961154   -4.0736384   -4.0736384   -2.7842223  0.022671993   -4.0736384     1.289416  1010000 
  179000   0.86073618   -4.0766224   -4.0766224   -2.7855194  0.022041984   -4.0766224     1.291103  1010000 
  180000   0.86052277   -4.0765798   -4.0765798   -2.7857969  0.024084244   -4.0765798    1.2907829  1010000 
  181000   0.86080663    -4.077541    -4.077541   -2.7863324  0.026196435    -4.077541    1.2912087  1010000 
  182000   0.86091523   -4.0782607   -4.0782607   -2.7868892  0.026210664   -4.0782607    1.2913716  1010000 
  183000   0.86015845   -4.0783433   -4.0783433   -2.7881069  0.025528743   -4.0783433    1.2902364  1010000 
  184000   0.86019696    -4.078715    -4.078715   -2.7884208  0.023226187    -4.078715    1.2902942  1010000 
  185000   0.86002753   -4.0793255   -4.0793255   -2.7892855   0.01782786   -4.0793255      1.29004  1010000 
  186000   0.85990357   -4.0803546   -4.0803546   -2.7905005  0.022244388   -4.0803546    1.2898541  1010000 
  187000   0.85884033    -4.079022    -4.079022   -2.7907628  0.015965387    -4.079022    1.2882592  1010000 
  188000   0.85852238   -4.0792915   -4.0792915   -2.7915092  0.020657094   -4.0792915    1.2877823  1010000 
  189000   0.85859877   -4.0805341   -4.0805341   -2.7926372  0.017371106   -4.0805341    1.2878969  1010000 
  190000   0.85888243   -4.0813555   -4.0813555   -2.7930331  0.016033738   -4.0813555    1.2883224  1010000 
  191000   0.85907041    -4.082087    -4.082087   -2.7934826   0.02095547    -4.082087    1.2886043  1010000 
  192000   0.85965223   -4.0834016   -4.0834016   -2.7939245  0.022571861   -4.0834016    1.2894771  1010000 
  193000   0.85923567   -4.0837914   -4.0837914   -2.7949392  0.025503124   -4.0837914    1.2888522  1010000 
  194000   0.85919946   -4.0845155   -4.0845155   -2.7957176  0.022492075   -4.0845155    1.2887979  1010000 
  195000   0.85944826   -4.0844596   -4.0844596   -2.7952885  0.024512935   -4.0844596    1.2891711  1010000 
  196000   0.85859483   -4.0845285   -4.0845285   -2.7966375  0.024780555   -4.0845285     1.287891  1010000 
  197000   0.85868779   -4.0856323   -4.0856323   -2.7976019  0.015402486   -4.0856323    1.2880304  1010000 
  198000   0.85761636   -4.0848967   -4.0848967   -2.7984734  0.019472278   -4.0848967    1.2864233  1010000 
  199000   0.85726871   -4.0844641   -4.0844641   -2.7985623  0.016608955   -4.0844641    1.2859018  1010000 
  200000   0.85752479   -4.0857771   -4.0857771   -2.7994912  0.018173031   -4.0857771    1.2862859  1010000 
  201000   0.85769562   -4.0870425   -4.0870425   -2.8005004  0.018430541   -4.0870425    1.2865422  1010000 
  202000   0.85734635    -4.087175    -4.087175   -2.8011568  0.022800726    -4.087175    1.2860182  1010000 
  203000   0.85835774   -4.0891983   -4.0891983   -2.8016629  0.021383464   -4.0891983    1.2875353  1010000 
  204000    0.8584285   -4.0897233   -4.0897233   -2.8020818  0.020288823   -4.0897233    1.2876415  1010000 
  205000   0.85852172   -4.0902125   -4.0902125   -2.8024312  0.022980157   -4.0902125    1.2877813  1010000 
  206000   0.85739993   -4.0894921   -4.0894921   -2.8033935  0.022198652   -4.0894921    1.2860986  1010000 
  207000   0.85742626   -4.0895889   -4.0895889   -2.8034507  0.016472301   -4.0895889    1.2861381  1010000 
  208000   0.85574916   -4.0885898   -4.0885898   -2.8049673  0.018005087   -4.0885898    1.2836225  1010000 
  209000   0.85548394   -4.0885326   -4.0885326    -2.805308  0.017644736   -4.0885326    1.2832246  1010000 
  210000   0.85678509   -4.0906853   -4.0906853   -2.8055089  0.013023267   -4.0906853    1.2851764  1010000 
  211000   0.85630129   -4.0902568   -4.0902568   -2.8058062  0.021101614   -4.0902568    1.2844507  1010000 
  212000    0.8569615   -4.0925838   -4.0925838   -2.8071428  0.018259889   -4.0925838     1.285441  1010000 
  213000   0.85764869   -4.0936559   -4.0936559   -2.8071841  0.019617422   -4.0936559    1.2864718  1010000 
  214000   0.85667411   -4.0935689   -4.0935689    -2.808559  0.016207992   -4.0935689    1.2850099  1010000 
  215000   0.85564887   -4.0923516   -4.0923516   -2.8088795  0.018986562   -4.0923516     1.283472  1010000 
  216000   0.85610284   -4.0933277   -4.0933277   -2.8091747  0.017370451   -4.0933277     1.284153  1010000 
  217000   0.85570187   -4.0929624   -4.0929624   -2.8094108  0.017665731   -4.0929624    1.2835515  1010000 
  218000   0.85568397   -4.0930084   -4.0930084   -2.8094837  0.016387015   -4.0930084    1.2835247  1010000 
  219000   0.85640977    -4.094462    -4.094462   -2.8098486  0.014740834    -4.094462    1.2846134  1010000 
  220000   0.85533032   -4.0945948   -4.0945948   -2.8116006   0.01628086   -4.0945948    1.2829942  1010000 
  221000   0.85398213   -4.0936154   -4.0936154   -2.8126435  0.019163401   -4.0936154    1.2809719  1010000 
  222000   0.85553264   -4.0968426   -4.0968426   -2.8135449  0.015118057   -4.0968426    1.2832977  1010000 
  223000   0.85537681   -4.0973789   -4.0973789   -2.8143149   0.01857267   -4.0973789    1.2830639  1010000 
  224000   0.85491603   -4.0978117   -4.0978117    -2.815439    0.0186792   -4.0978117    1.2823728  1010000 
  225000   0.85471734   -4.0978904   -4.0978904   -2.8158156   0.01417564   -4.0978904    1.2820747  1010000 
  226000   0.85447441    -4.098474    -4.098474   -2.8167637  0.017442474    -4.098474    1.2817104  1010000 
  227000   0.85374399   -4.0977363   -4.0977363   -2.8171216   0.01839832   -4.0977363    1.2806147  1010000 
  228000   0.85429225   -4.0992234   -4.0992234   -2.8177863  0.017035464   -4.0992234    1.2814371  1010000 
  229000   0.85507143     -4.10045     -4.10045   -2.8178441  0.020472196     -4.10045    1.2826059  1010000 
  230000   0.85402108   -4.0997661   -4.0997661   -2.8187357  0.021321679   -4.0997661    1.2810304  1010000 
  231000   0.85429045   -4.1010169   -4.1010169   -2.8195825  0.017665417   -4.1010169    1.2814344  1010000 
  232000   0.85366397   -4.1009446   -4.1009446   -2.8204499  0.017647652   -4.1009446    1.2804947  1010000 
  233000   0.85418643   -4.1023422   -4.1023422   -2.8210638  0.014369638   -4.1023422    1.2812784  1010000 
  234000   0.85435832   -4.1030391   -4.1030391   -2.8215029  0.017252853   -4.1030391    1.2815362  1010000 
  235000   0.85401324   -4.1032704   -4.1032704   -2.8222518  0.017211378   -4.1032704    1.2810186  1010000 
  236000   0.85432108   -4.1038695   -4.1038695   -2.8223891  0.017685161   -4.1038695    1.2814804  1010000 
  237000   0.85406459   -4.1040071   -4.1040071   -2.8229115   0.01693486   -4.1040071    1.2810956  1010000 
  238000   0.85420298   -4.1042697   -4.1042697   -2.8229665   0.01672359   -4.1042697    1.2813032  1010000 
  239000   0.85307887   -4.1025651   -4.1025651   -2.8229481  0.018499766   -4.1025651     1.279617  1010000 
  240000   0.85355275   -4.1031605   -4.1031605   -2.8228326  0.016741045   -4.1031605    1.2803279  1010000 
  241000   0.85382508   -4.1037709   -4.1037709   -2.8230345  0.013104876   -4.1037709    1.2807364  1010000 
  242000   0.85300222   -4.1033363   -4.1033363   -2.8238343  0.010792367   -4.1033363    1.2795021  1010000 
  243000   0.85214216   -4.1023692   -4.1023692   -2.8241572  0.013159239   -4.1023692     1.278212  1010000 
  244000   0.85356363   -4.1043743   -4.1043743   -2.8240301  0.016355887   -4.1043743    1.2803442  1010000 
  245000    0.8535909   -4.1048427   -4.1048427   -2.8244576  0.016451749   -4.1048427    1.2803851  1010000 
  246000   0.85297256   -4.1046701   -4.1046701   -2.8252125  0.015650664   -4.1046701    1.2794576  1010000 
  247000   0.85343036   -4.1054409   -4.1054409   -2.8252966  0.020945477   -4.1054409    1.2801443  1010000 
  248000   0.85317077   -4.1056221   -4.1056221   -2.8258672  0.014877954   -4.1056221    1.2797549  1010000 
  249000   0.85339044   -4.1063698   -4.1063698   -2.8262854  0.013343447   -4.1063698    1.2800844  1010000 
  250000   0.85321388   -4.1076925   -4.1076925    -2.827873  0.013968551   -4.1076925    1.2798196  1010000 
  251000   0.85276887   -4.1071564   -4.1071564   -2.8280044  0.013855222   -4.1071564     1.279152  1010000 
  252000   0.85306236   -4.1088882   -4.1088882   -2.8292959 0.0087616362   -4.1088882    1.2795923  1010000 
  253000   0.85180575   -4.1076301   -4.1076301   -2.8299227  0.016581389   -4.1076301    1.2777074  1010000 
  254000   0.85236262   -4.1094939   -4.1094939   -2.8309512  0.017387603   -4.1094939    1.2785427  1010000 
  255000   0.85383303   -4.1120636   -4.1120636   -2.8313153   0.01290486   -4.1120636    1.2807483  1010000 
  256000   0.85235004   -4.1107169   -4.1107169   -2.8321931  0.015567815   -4.1107169    1.2785238  1010000 
  257000   0.85272563   -4.1108962   -4.1108962    -2.831809  0.013990728   -4.1108962    1.2790872  1010000 
  258000   0.85190429    -4.110779    -4.110779   -2.8329239  0.017218629    -4.110779    1.2778552  1010000 
  259000   0.85286274   -4.1126162   -4.1126162   -2.8333234   0.01452975   -4.1126162    1.2792928  1010000 
  260000   0.85192194   -4.1128015   -4.1128015   -2.8349198  0.013421824   -4.1128015    1.2778816  1010000 
  261000   0.85251475   -4.1138711   -4.1138711   -2.8351003  0.013262491   -4.1138711    1.2787709  1010000 
  262000   0.85211296    -4.113019    -4.113019   -2.8348508   0.01808978    -4.113019    1.2781682  1010000 
  263000   0.85206123   -4.1135898   -4.1135898   -2.8354992  0.019151518   -4.1135898    1.2780906  1010000 
  264000   0.85276639   -4.1152298   -4.1152298   -2.8360815  0.015539423   -4.1152298    1.2791483  1010000 
  265000   0.85231732   -4.1155224   -4.1155224   -2.8370477  0.015551141   -4.1155224    1.2784747  1010000 
  266000    0.8519925   -4.1153823   -4.1153823   -2.8373948    0.0153066   -4.1153823    1.2779875  1010000 
  267000   0.85177618     -4.11599     -4.11599    -2.838327  0.013889239     -4.11599     1.277663  1010000 
  268000   0.85165735   -4.1162841   -4.1162841   -2.8387993  0.015759134   -4.1162841    1.2774848  1010000 
  269000    0.8513829   -4.1160719   -4.1160719   -2.8389988  0.015459981   -4.1160719    1.2770731  1010000 
  270000   0.85124709   -4.1165128   -4.1165128   -2.8396435  0.011794891   -4.1165128    1.2768694  1010000 
  271000   0.85066794   -4.1159334   -4.1159334   -2.8399328   0.01239607   -4.1159334    1.2760006  1010000 
  272000   0.85065331   -4.1167466   -4.1167466   -2.8407679  0.014157897   -4.1167466    1.2759787  1010000 
  273000   0.85147722    -4.118123    -4.118123   -2.8409084  0.012818808    -4.118123    1.2772146  1010000 
  274000   0.85100079   -4.1172732   -4.1172732   -2.8407733  0.017145483   -4.1172732    1.2764999  1010000 
  275000   0.85080444   -4.1183065   -4.1183065   -2.8421011  0.018395426   -4.1183065    1.2762054  1010000 
  276000   0.85141067   -4.1188344   -4.1188344   -2.8417197  0.017424943   -4.1188344    1.2771147  1010000 
  277000   0.85055478   -4.1187348   -4.1187348   -2.8429039   0.01480499   -4.1187348    1.2758309  1010000 
  278000    0.8507648   -4.1190879   -4.1190879    -2.842942  0.014224722   -4.1190879    1.2761459  1010000 
  279000   0.85093092   -4.1201827   -4.1201827   -2.8437876  0.010851721   -4.1201827    1.2763951  1010000 
  280000   0.85144249   -4.1216017   -4.1216017   -2.8444392  0.013733372   -4.1216017    1.2771625  1010000 
  281000   0.85127064   -4.1213382   -4.1213382   -2.8444335  0.018972323   -4.1213382    1.2769047  1010000 
  282000   0.85131977   -4.1226923   -4.1226923   -2.8457139  0.017439486   -4.1226923    1.2769784  1010000 
  283000   0.85083535   -4.1228141   -4.1228141   -2.8465624  0.017630458   -4.1228141    1.2762518  1010000 
  284000   0.85177362   -4.1246881   -4.1246881    -2.847029  0.016963353   -4.1246881    1.2776592  1010000 
  285000   0.85094837   -4.1242508   -4.1242508   -2.8478295  0.018028342   -4.1242508    1.2764213  1010000 
  286000   0.85142314   -4.1249792   -4.1249792   -2.8478457  0.021443052   -4.1249792    1.2771335  1010000 
  287000   0.85156043   -4.1264263   -4.1264263   -2.8490869  0.015668029   -4.1264263    1.2773394  1010000 
  288000   0.85200845   -4.1273856   -4.1273856   -2.8493742  0.014647232   -4.1273856    1.2780114  1010000 
  289000   0.85146403   -4.1269423   -4.1269423   -2.8497475  0.012623527   -4.1269423    1.2771948  1010000 
  290000   0.85213579    -4.127398    -4.127398   -2.8491956  0.012662161    -4.127398    1.2782024  1010000 
  291000   0.85188697   -4.1278467   -4.1278467   -2.8500175  0.011695837   -4.1278467    1.2778292  1010000 
  292000   0.85112025   -4.1275572   -4.1275572   -2.8508781  0.018715456   -4.1275572    1.2766791  1010000 
  293000   0.85061013   -4.1268759   -4.1268759   -2.8509619  0.015940809   -4.1268759    1.2759139  1010000 
  294000   0.85068564   -4.1276378   -4.1276378   -2.8516106  0.015936363   -4.1276378    1.2760272  1010000 
  295000   0.85082449    -4.128203    -4.128203   -2.8519675  0.016730399    -4.128203    1.2762355  1010000 
  296000   0.85114279   -4.1296284   -4.1296284   -2.8529155  0.021268342   -4.1296284    1.2767129  1010000 
  297000    0.8517569   -4.1308943   -4.1308943   -2.8532602  0.020579643   -4.1308943    1.2776341  1010000 
  298000   0.85132861   -4.1315271   -4.1315271   -2.8545354  0.021914149   -4.1315271    1.2769917  1010000 
  299000   0.85254415   -4.1326483   -4.1326483   -2.8538334  0.021406471   -4.1326483     1.278815  1010000 
  300000   0.85176292   -4.1331588   -4.1331588   -2.8555157  0.020687934   -4.1331588    1.2776431  1010000 
  301000   0.85211331   -4.1338269   -4.1338269   -2.8556582  0.017584697   -4.1338269    1.2781687  1010000 
  302000   0.85251801   -4.1343158   -4.1343158     -2.85554  0.017273495   -4.1343158    1.2787758  1010000 
  303000   0.85195553    -4.134164    -4.134164    -2.856232  0.017484948    -4.134164     1.277932  1010000 
  304000   0.85018521   -4.1328378   -4.1328378   -2.8575613  0.019363649   -4.1328378    1.2752765  1010000 
  305000   0.85138157   -4.1347643   -4.1347643   -2.8576932  0.015379258   -4.1347643    1.2770711  1010000 
  306000   0.85128058   -4.1350917   -4.1350917   -2.8581721  0.018703649   -4.1350917    1.2769196  1010000 
  307000    0.8515325   -4.1354072   -4.1354072   -2.8581098  0.017300349   -4.1354072    1.2772975  1010000 
  308000   0.85154904   -4.1358596   -4.1358596   -2.8585373  0.018438799   -4.1358596    1.2773223  1010000 
  309000   0.85107539   -4.1350447   -4.1350447   -2.8584329  0.021027233   -4.1350447    1.2766118  1010000 
  310000   0.85164935   -4.1374187   -4.1374187    -2.859946   0.01328201   -4.1374187    1.2774728  1010000 
  311000   0.85144394   -4.1378085   -4.1378085   -2.8606438  0.018245074   -4.1378085    1.2771646  1010000 
  312000   0.85200719   -4.1384596   -4.1384596     -2.86045  0.018018412   -4.1384596    1.2780095  1010000 
  313000   0.85152564   -4.1387006   -4.1387006   -2.8614134  0.020497417   -4.1387006    1.2772872  1010000 
  314000   0.85155675   -4.1397074   -4.1397074   -2.8623736  0.020928083   -4.1397074    1.2773339  1010000 
  315000   0.85180276   -4.1394591   -4.1394591   -2.8617562  0.021766552   -4.1394591    1.2777029  1010000 
  316000   0.85215906   -4.1406724   -4.1406724   -2.8624351  0.021032851   -4.1406724    1.2782373  1010000 
  317000   0.85240983   -4.1407042   -4.1407042   -2.8620907  0.021525692   -4.1407042    1.2786135  1010000 
  318000   0.85212393   -4.1411469   -4.1411469   -2.8629622  0.019698538   -4.1411469    1.2781846  1010000 
  319000   0.85231698   -4.1428929   -4.1428929   -2.8644187  0.021481819   -4.1428929    1.2784742  1010000 
  320000   0.85162778   -4.1426627   -4.1426627   -2.8652223  0.021474397   -4.1426627    1.2774404  1010000 
  321000   0.85264372   -4.1445215   -4.1445215   -2.8655572  0.021768441   -4.1445215    1.2789643  1010000 
  322000   0.85190148   -4.1440469   -4.1440469   -2.8661959  0.021060328   -4.1440469     1.277851  1010000 
  323000   0.85222332   -4.1455168   -4.1455168   -2.8671831   0.02393092   -4.1455168    1.2783337  1010000 
  324000   0.85200455   -4.1457364   -4.1457364   -2.8677308  0.023304954   -4.1457364    1.2780056  1010000 
  325000   0.85217351   -4.1465204   -4.1465204   -2.8682614  0.023022336   -4.1465204     1.278259  1010000 
  326000   0.85194059   -4.1469745   -4.1469745   -2.8690649  0.026308019   -4.1469745    1.2779096  1010000 
  327000   0.85207104   -4.1483088   -4.1483088   -2.8702035   0.02583694   -4.1483088    1.2781053  1010000 
  328000   0.85219568   -4.1491353   -4.1491353   -2.8708431  0.023577886   -4.1491353    1.2782922  1010000 
  329000   0.85226049   -4.1494716   -4.1494716   -2.8710821  0.027289033   -4.1494716    1.2783895  1010000 
  330000   0.85322213   -4.1512057   -4.1512057   -2.8713738  0.023469291   -4.1512057    1.2798319  1010000 
  331000   0.85263722   -4.1511321   -4.1511321   -2.8721775  0.029316554   -4.1511321    1.2789546  1010000 
  332000   0.85248577   -4.1516244   -4.1516244    -2.872897  0.026730768   -4.1516244    1.2787274  1010000 
  333000   0.85256189    -4.152359    -4.152359   -2.8735174  0.025463765    -4.152359    1.2788416  1010000 
  334000   0.85233522   -4.1518118   -4.1518118   -2.8733103  0.024224308   -4.1518118    1.2785016  1010000 
  335000   0.85248944    -4.152954    -4.152954   -2.8742211  0.025791233    -4.152954    1.2787329  1010000 
  336000   0.85281578    -4.154447    -4.154447   -2.8752246  0.021621674    -4.154447    1.2792224  1010000 
  337000   0.85188017   -4.1534889   -4.1534889   -2.8756699  0.027257455   -4.1534889     1.277819  1010000 
  338000   0.85101032   -4.1529436   -4.1529436   -2.8764294  0.029392191   -4.1529436    1.2765142  1010000 
  339000   0.85137169   -4.1542635   -4.1542635   -2.8772072  0.029475684   -4.1542635    1.2770563  1010000 
  340000   0.85157999   -4.1549335   -4.1549335   -2.8775648  0.025990719   -4.1549335    1.2773687  1010000 
  341000   0.85142258   -4.1554277   -4.1554277   -2.8782951  0.028188602   -4.1554277    1.2771326  1010000 
  342000   0.85196752    -4.156171    -4.156171    -2.878221  0.024867916    -4.156171      1.27795  1010000 
  343000   0.85195055   -4.1572888   -4.1572888   -2.8793642  0.027257284   -4.1572888    1.2779246  1010000 
  344000   0.85235055   -4.1591646   -4.1591646     -2.88064  0.029917125   -4.1591646    1.2785246  1010000 
  345000   0.85247306   -4.1595282   -4.1595282   -2.8808198  0.030091906   -4.1595282    1.2787083  1010000 
  346000   0.85264959   -4.1603767   -4.1603767   -2.8814035  0.028136178   -4.1603767    1.2789731  1010000 
  347000   0.85199892   -4.1606042   -4.1606042   -2.8826071  0.023722453   -4.1606042    1.2779971  1010000 
  348000   0.85134445   -4.1597802   -4.1597802   -2.8827648  0.024158507   -4.1597802    1.2770154  1010000 
  349000   0.85066577   -4.1596261   -4.1596261   -2.8836287  0.026292624   -4.1596261    1.2759974  1010000 
  350000   0.85142202   -4.1607584   -4.1607584   -2.8836266  0.026913036   -4.1607584    1.2771318  1010000 
  351000   0.85028984   -4.1596323   -4.1596323   -2.8841988  0.023525723   -4.1596323    1.2754335  1010000 
  352000    0.8491131   -4.1590391   -4.1590391   -2.8853707  0.025721568   -4.1590391    1.2736684  1010000 
  353000   0.84911259   -4.1591231   -4.1591231   -2.8854554  0.021793436   -4.1591231    1.2736676  1010000 
  354000   0.84821948   -4.1576416   -4.1576416   -2.8853136  0.019268533   -4.1576416     1.272328  1010000 
  355000   0.84887784     -4.15886     -4.15886   -2.8855445  0.018357601     -4.15886    1.2733155  1010000 
  356000   0.84895646   -4.1589943   -4.1589943   -2.8855609  0.018182427   -4.1589943    1.2734334  1010000 
  357000   0.84843244   -4.1581101   -4.1581101   -2.8854627  0.018693775   -4.1581101    1.2726474  1010000 
  358000   0.84812669   -4.1580936   -4.1580936   -2.8859049  0.016947476   -4.1580936    1.2721888  1010000 
  359000   0.84842146   -4.1584127   -4.1584127   -2.8857818  0.015717767   -4.1584127    1.2726309  1010000 
  360000   0.84841595   -4.1583922   -4.1583922   -2.8857695  0.017183179   -4.1583922    1.2726227  1010000 
  361000   0.84745361   -4.1584343   -4.1584343   -2.8872551  0.016824279   -4.1584343    1.2711792  1010000 
  362000   0.84767058   -4.1592074   -4.1592074   -2.8877028  0.014836517   -4.1592074    1.2715046  1010000 
  363000   0.84718703   -4.1585365   -4.1585365   -2.8877573  0.017235048   -4.1585365    1.2707793  1010000 
  364000   0.84650077   -4.1579757   -4.1579757   -2.8882258  0.017050597   -4.1579757    1.2697499  1010000 
  365000   0.84763265   -4.1603964   -4.1603964   -2.8889487  0.012350225   -4.1603964    1.2714477  1010000 
  366000   0.84688019   -4.1590776   -4.1590776   -2.8887586  0.015820001   -4.1590776     1.270319  1010000 
  367000   0.84694318   -4.1595239   -4.1595239   -2.8891104  0.017930138   -4.1595239    1.2704135  1010000 
  368000   0.84829236   -4.1611305   -4.1611305   -2.8886932    0.0175461   -4.1611305    1.2724373  1010000 
  369000   0.84844737   -4.1617319   -4.1617319   -2.8890621  0.018280922   -4.1617319    1.2726698  1010000 
  370000   0.84884856   -4.1629398   -4.1629398   -2.8896682  0.019674247   -4.1629398    1.2732716  1010000 
  371000   0.84974824   -4.1648553   -4.1648553   -2.8902342   0.02166319   -4.1648553    1.2746211  1010000 
  372000   0.84847003    -4.163791    -4.163791   -2.8910873  0.023728683    -4.163791    1.2727038  1010000 
  373000   0.84776092   -4.1632859   -4.1632859   -2.8916458  0.025127761   -4.1632859    1.2716401  1010000 
  374000   0.84846272   -4.1644368   -4.1644368   -2.8917439  0.027487449   -4.1644368    1.2726928  1010000 
  375000   0.84896741   -4.1662608   -4.1662608    -2.892811  0.023306424   -4.1662608    1.2734498  1010000 
  376000   0.84904921   -4.1670949   -4.1670949   -2.8935223  0.023717842   -4.1670949    1.2735726  1010000 
  377000   0.84873794   -4.1675652   -4.1675652   -2.8944595  0.018575906   -4.1675652    1.2731057  1010000 
  378000   0.84784386   -4.1666121   -4.1666121   -2.8948476  0.023128563   -4.1666121    1.2717645  1010000 
  379000   0.84866647   -4.1680753   -4.1680753   -2.8950769  0.026790254   -4.1680753    1.2729985  1010000 
  380000   0.84697849   -4.1667355   -4.1667355    -2.896269  0.025578547   -4.1667355    1.2704665  1010000 
  381000   0.84846131   -4.1690417   -4.1690417    -2.896351  0.022848054   -4.1690417    1.2726907  1010000 
  382000    0.8477938   -4.1684085   -4.1684085   -2.8967191  0.023805541   -4.1684085    1.2716894  1010000 
  383000   0.84753744   -4.1684213   -4.1684213   -2.8971164   0.02097264   -4.1684213    1.2713049  1010000 
  384000   0.84789414   -4.1695453   -4.1695453   -2.8977053  0.022074838   -4.1695453    1.2718399  1010000 
  385000   0.84690868   -4.1683722   -4.1683722   -2.8980104   0.01911732   -4.1683722    1.2703618  1010000 
  386000   0.84748503   -4.1696488   -4.1696488   -2.8984226  0.019032291   -4.1696488    1.2712263  1010000 
  387000   0.84662188   -4.1694788   -4.1694788   -2.8995472  0.020929202   -4.1694788    1.2699316  1010000 
  388000   0.84576406   -4.1686478   -4.1686478    -2.900003  0.019188188   -4.1686478    1.2686448  1010000 
  389000   0.84707606   -4.1704986   -4.1704986   -2.8998858   0.01833634   -4.1704986    1.2706128  1010000 
  390000   0.84698455   -4.1701719   -4.1701719   -2.8996963  0.017868089   -4.1701719    1.2704756  1010000 
  391000   0.84607628   -4.1694467   -4.1694467   -2.9003335   0.01887198   -4.1694467    1.2691132  1010000 
  392000   0.84684276   -4.1708989   -4.1708989    -2.900636  0.017715084   -4.1708989    1.2702629  1010000 
  393000   0.84598633   -4.1694971   -4.1694971   -2.9005189  0.018124918   -4.1694971    1.2689782  1010000 
  394000    0.8464264   -4.1713624   -4.1713624   -2.9017241  0.017546851   -4.1713624    1.2696383  1010000 
  395000   0.84674977   -4.1717925   -4.1717925   -2.9016691  0.020661084   -4.1717925    1.2701234  1010000 
  396000   0.84587972   -4.1711571   -4.1711571   -2.9023388  0.020859502   -4.1711571    1.2688183  1010000 
  397000   0.84596509   -4.1706754   -4.1706754   -2.9017291  0.016763898   -4.1706754    1.2689464  1010000 
  398000   0.84519905   -4.1709732   -4.1709732   -2.9031758  0.017386609   -4.1709732    1.2677973  1010000 
  399000   0.84574603   -4.1710922   -4.1710922   -2.9024744  0.020690205   -4.1710922    1.2686178  1010000 
  400000   0.84676733   -4.1730077   -4.1730077   -2.9028579  0.021792347   -4.1730077    1.2701497  1010000 
  401000   0.84601207   -4.1723798   -4.1723798    -2.903363  0.021574381   -4.1723798    1.2690169  1010000 
  402000   0.84707792   -4.1746694   -4.1746694   -2.9040538  0.016707016   -4.1746694    1.2706156  1010000 
  403000    0.8464592   -4.1740493   -4.1740493   -2.9043618  0.022518347   -4.1740493    1.2696875  1010000 
  404000   0.84662298   -4.1745075   -4.1745075   -2.9045743  0.019501331   -4.1745075    1.2699332  1010000 
  405000   0.84663823   -4.1744077   -4.1744077   -2.9044516  0.019900593   -4.1744077    1.2699561  1010000 
  406000   0.84657744   -4.1750269   -4.1750269    -2.905162  0.019723295   -4.1750269    1.2698649  1010000 
  407000   0.84663488   -4.1754116   -4.1754116   -2.9054605  0.022252715   -4.1754116    1.2699511  1010000 
  408000   0.84509261   -4.1734346   -4.1734346   -2.9057969  0.025508331   -4.1734346    1.2676377  1010000 
  409000   0.84576389   -4.1748751   -4.1748751   -2.9062305  0.023189785   -4.1748751    1.2686446  1010000 
  410000   0.84617827    -4.176134    -4.176134   -2.9068678  0.020148239    -4.176134    1.2692661  1010000 
  411000   0.84447424   -4.1744717   -4.1744717   -2.9077616  0.022904126   -4.1744717    1.2667101  1010000 
  412000   0.84404587   -4.1750711   -4.1750711   -2.9090036  0.019069269   -4.1750711    1.2660676  1010000 
  413000    0.8444464   -4.1761098   -4.1761098   -2.9094415  0.018991683   -4.1761098    1.2666683  1010000 
  414000   0.84445864   -4.1768681   -4.1768681   -2.9101814  0.019551017   -4.1768681    1.2666867  1010000 
  415000    0.8433557    -4.175955    -4.175955   -2.9109227  0.020287553    -4.175955    1.2650323  1010000 
  416000   0.84532335   -4.1788898   -4.1788898    -2.910906  0.017027486   -4.1788898    1.2679838  1010000 
  417000   0.84430937    -4.177882    -4.177882   -2.9114192  0.018886141    -4.177882    1.2664628  1010000 
  418000   0.84428486   -4.1776859   -4.1776859   -2.9112599  0.018987018   -4.1776859     1.266426  1010000 
  419000   0.84442835   -4.1783808   -4.1783808   -2.9117395  0.018041837   -4.1783808    1.2666413  1010000 
  420000    0.8447011   -4.1799068   -4.1799068   -2.9128564  0.019050591   -4.1799068    1.2670504  1010000 
  421000   0.84439476   -4.1794935   -4.1794935   -2.9129026   0.02423209   -4.1794935    1.2665909  1010000 
  422000   0.84405042   -4.1799809   -4.1799809   -2.9139066  0.018096862   -4.1799809    1.2660744  1010000 
  423000   0.84367474   -4.1799632   -4.1799632   -2.9144523  0.023774963   -4.1799632    1.2655109  1010000 
  424000   0.84359116   -4.1802042   -4.1802042   -2.9148188  0.024244999   -4.1802042    1.2653855  1010000 
  425000   0.84420005   -4.1806204   -4.1806204   -2.9143216  0.026129619   -4.1806204    1.2662988  1010000 
  426000   0.84466984   -4.1822487   -4.1822487   -2.9152452  0.027499397   -4.1822487    1.2670035  1010000 
  427000   0.84455305    -4.182943    -4.182943   -2.9161147  0.027375763    -4.182943    1.2668283  1010000 
  428000   0.84368214   -4.1823691   -4.1823691   -2.9168471  0.025224972   -4.1823691     1.265522  1010000 
  429000   0.84543544   -4.1846793   -4.1846793   -2.9165274  0.021332348   -4.1846793    1.2681519  1010000 
  430000   0.84455822    -4.183204    -4.183204   -2.9163679   0.02529189    -4.183204    1.2668361  1010000 
  431000   0.84420233   -4.1835756   -4.1835756   -2.9172733  0.023591719   -4.1835756    1.2663022  1010000 
  432000   0.84451078   -4.1847675   -4.1847675   -2.9180026  0.025050461   -4.1847675    1.2667649  1010000 
  433000   0.84427529   -4.1847956   -4.1847956   -2.9183839  0.021171141   -4.1847956    1.2664117  1010000 
  434000   0.84440593   -4.1848014   -4.1848014   -2.9181937  0.022513278   -4.1848014    1.2666076  1010000 
  435000    0.8438606   -4.1838469   -4.1838469   -2.9180573  0.027188536   -4.1838469    1.2657896  1010000 
  436000   0.84405124   -4.1850917   -4.1850917   -2.9190161  0.024137083   -4.1850917    1.2660756  1010000 
  437000   0.84365182   -4.1848581   -4.1848581   -2.9193817  0.023447121   -4.1848581    1.2654765  1010000 
  438000   0.84355609   -4.1850648   -4.1850648   -2.9197319  0.024068224   -4.1850648    1.2653329  1010000 
  439000   0.84258956   -4.1852919   -4.1852919   -2.9214088  0.018250285   -4.1852919    1.2638831  1010000 
  440000   0.84271087   -4.1851018   -4.1851018   -2.9210368  0.022169356   -4.1851018    1.2640651  1010000 
  441000   0.84362058   -4.1861022   -4.1861022   -2.9206726  0.018141438   -4.1861022    1.2654296  1010000 
  442000   0.84334328   -4.1860897   -4.1860897    -2.921076  0.017106764   -4.1860897    1.2650137  1010000 
  443000   0.84276656    -4.184824    -4.184824   -2.9206754  0.018523126    -4.184824    1.2641486  1010000 
  444000   0.84222966   -4.1846089   -4.1846089   -2.9212657  0.020423865   -4.1846089    1.2633432  1010000 
  445000   0.84257937   -4.1859508   -4.1859508    -2.922083   0.01713691   -4.1859508    1.2638678  1010000 
  446000   0.84252873   -4.1863093   -4.1863093   -2.9225174  0.021291613   -4.1863093    1.2637918  1010000 
  447000   0.84354906   -4.1875887   -4.1875887   -2.9222664  0.018893137   -4.1875887    1.2653223  1010000 
  448000   0.84402113   -4.1880439   -4.1880439   -2.9220134  0.019609397   -4.1880439    1.2660304  1010000 
  449000   0.84323862   -4.1876573   -4.1876573   -2.9228006  0.018818567   -4.1876573    1.2648567  1010000 
  450000   0.84267868   -4.1870964   -4.1870964   -2.9230796  0.018106319   -4.1870964    1.2640168  1010000 
  451000   0.84235705   -4.1867265   -4.1867265   -2.9231922   0.02082163   -4.1867265    1.2635343  1010000 
  452000   0.84252534   -4.1870895   -4.1870895   -2.9233028  0.018765914   -4.1870895    1.2637868  1010000 
  453000   0.84217075   -4.1874677   -4.1874677   -2.9242129  0.022312812   -4.1874677    1.2632549  1010000 
  454000   0.84244794   -4.1887368   -4.1887368   -2.9250661  0.021405454   -4.1887368    1.2636707  1010000 
  455000   0.84225821   -4.1891223   -4.1891223   -2.9257363  0.021420823   -4.1891223    1.2633861  1010000 
  456000    0.8424253   -4.1901421   -4.1901421   -2.9265054  0.019606017   -4.1901421    1.2636367  1010000 
  457000   0.84289588   -4.1909375   -4.1909375   -2.9265949  0.019684229   -4.1909375    1.2643426  1010000 
  458000    0.8422239   -4.1904491   -4.1904491   -2.9271145  0.020506268   -4.1904491    1.2633346  1010000 
  459000   0.84218459   -4.1906164   -4.1906164   -2.9273408  0.022672681   -4.1906164    1.2632756  1010000 
  460000   0.84122041   -4.1902688   -4.1902688   -2.9284394  0.020014459   -4.1902688    1.2618294  1010000 
  461000   0.84083407   -4.1898679   -4.1898679    -2.928618  0.025355163   -4.1898679    1.2612499  1010000 
  462000    0.8420102   -4.1920947   -4.1920947   -2.9290806   0.02179407   -4.1920947    1.2630141  1010000 
  463000   0.84143606   -4.1916881   -4.1916881   -2.9295353  0.022615856   -4.1916881    1.2621528  1010000 
  464000   0.84073065   -4.1905328   -4.1905328    -2.929438   0.02804408   -4.1905328    1.2610947  1010000 
  465000   0.84197013    -4.192542    -4.192542   -2.9295881  0.022387324    -4.192542    1.2629539  1010000 
  466000   0.84162215   -4.1923766   -4.1923766   -2.9299446  0.025790101   -4.1923766     1.262432  1010000 
  467000   0.84155257   -4.1934322   -4.1934322   -2.9311046  0.021938139   -4.1934322    1.2623276  1010000 
  468000   0.84164591   -4.1940497   -4.1940497   -2.9315821  0.022280591   -4.1940497    1.2624676  1010000 
  469000   0.84269389    -4.195974    -4.195974   -2.9319345  0.022582727    -4.195974    1.2640396  1010000 
  470000   0.84164954   -4.1948438   -4.1948438   -2.9323707  0.022719503   -4.1948438    1.2624731  1010000 
  471000   0.84160081   -4.1954829   -4.1954829   -2.9330829  0.018795761   -4.1954829       1.2624  1010000 
  472000   0.84072007   -4.1940096   -4.1940096   -2.9329307  0.020679172   -4.1940096    1.2610789  1010000 
  473000   0.84071661   -4.1947087   -4.1947087   -2.9336351  0.021792601   -4.1947087    1.2610737  1010000 
  474000   0.84083731   -4.1947406   -4.1947406   -2.9334859  0.022472224   -4.1947406    1.2612547  1010000 
  475000   0.84146894   -4.1965155   -4.1965155   -2.9343133  0.020985209   -4.1965155    1.2622022  1010000 
  476000   0.84098333   -4.1963541   -4.1963541   -2.9348803  0.022865806   -4.1963541    1.2614738  1010000 
  477000   0.84099036     -4.19647     -4.19647   -2.9349858  0.023380146     -4.19647    1.2614843  1010000 
  478000   0.84061934      -4.1962      -4.1962   -2.9352723  0.021739849      -4.1962    1.2609278  1010000 
  479000   0.84094752    -4.197002    -4.197002    -2.935582  0.021588675    -4.197002      1.26142  1010000 
  480000   0.84106511   -4.1978361   -4.1978361   -2.9362396  0.021398297   -4.1978361    1.2615964  1010000 
  481000   0.84133855   -4.1975096   -4.1975096    -2.935503  0.020679065   -4.1975096    1.2620066  1010000 
  482000   0.84046425   -4.1965264   -4.1965264   -2.9358312  0.024284049   -4.1965264    1.2606951  1010000 
  483000   0.84036936    -4.197077    -4.197077   -2.9365242  0.020832009    -4.197077    1.2605528  1010000 
  484000   0.84066429   -4.1975827   -4.1975827   -2.9365875  0.019712026   -4.1975827    1.2609952  1010000 
  485000   0.84027463   -4.1963996   -4.1963996   -2.9359889  0.023310512   -4.1963996    1.2604107  1010000 
  486000   0.84080523   -4.1967463   -4.1967463   -2.9355397  0.024279415   -4.1967463    1.2612066  1010000 
  487000   0.84082896   -4.1968039   -4.1968039   -2.9355617  0.026748077   -4.1968039    1.2612422  1010000 
  488000   0.84037575   -4.1970877   -4.1970877   -2.9365253  0.023439093   -4.1970877    1.2605624  1010000 
  489000   0.84116869   -4.1985096   -4.1985096   -2.9367578  0.020128215   -4.1985096    1.2617518  1010000 
  490000   0.84040601   -4.1973292   -4.1973292   -2.9367215  0.019835645   -4.1973292    1.2606078  1010000 
  491000   0.84006865   -4.1970399   -4.1970399   -2.9369382  0.021390078   -4.1970399    1.2601017  1010000 
  492000   0.84060713    -4.198354    -4.198354   -2.9374445  0.018161067    -4.198354    1.2609095  1010000 
  493000   0.84030371   -4.1974504   -4.1974504   -2.9369961  0.017778706   -4.1974504    1.2604543  1010000 
  494000   0.83954959   -4.1978229   -4.1978229   -2.9384998  0.017829523   -4.1978229    1.2593231  1010000 
  495000   0.83956363   -4.1976371   -4.1976371   -2.9382929  0.019434634   -4.1976371    1.2593442  1010000 
  496000   0.83974442   -4.1979844   -4.1979844   -2.9383691  0.019672245   -4.1979844    1.2596154  1010000 
  497000   0.83860714     -4.19813     -4.19813   -2.9402206   0.02071167     -4.19813    1.2579095  1010000 
  498000   0.83860529   -4.1980123   -4.1980123   -2.9401056  0.019927929   -4.1980123    1.2579067  1010000 
  499000   0.83985179    -4.199485    -4.199485   -2.9397086  0.018987619    -4.199485    1.2597764  1010000 
  500000   0.83880068   -4.1980446   -4.1980446   -2.9398448  0.023402888   -4.1980446    1.2581998  1010000 
  501000   0.83918377   -4.1991104   -4.1991104    -2.940336  0.024127977   -4.1991104    1.2587744  1010000 
  502000   0.83928555   -4.1993242   -4.1993242   -2.9403971  0.024289445   -4.1993242    1.2589271  1010000 
  503000   0.83949589   -4.2002175   -4.2002175    -2.940975  0.023665048   -4.2002175    1.2592426  1010000 
  504000   0.83987229    -4.201516    -4.201516   -2.9417088  0.020156005    -4.201516    1.2598072  1010000 
  505000   0.83975916   -4.2016295   -4.2016295    -2.941992  0.023243393   -4.2016295    1.2596375  1010000 
  506000   0.83984606    -4.202535    -4.202535   -2.9427672  0.026253285    -4.202535    1.2597678  1010000 
  507000   0.84001081   -4.2035329   -4.2035329    -2.943518  0.019627002   -4.2035329     1.260015  1010000 
  508000   0.83974071   -4.2032869   -4.2032869   -2.9436771  0.021660805   -4.2032869    1.2596098  1010000 
  509000   0.83990213   -4.2032949   -4.2032949    -2.943443  0.023100097   -4.2032949    1.2598519  1010000 
  510000   0.83930005   -4.2030501   -4.2030501   -2.9441013  0.024192582   -4.2030501    1.2589488  1010000 
  511000   0.83981847   -4.2040026   -4.2040026   -2.9442761  0.025267827   -4.2040026    1.2597265  1010000 
  512000   0.83995689    -4.204082    -4.204082   -2.9441479  0.025398518    -4.204082    1.2599341  1010000 
  513000   0.83970873   -4.2045608   -4.2045608   -2.9449989  0.024088396   -4.2045608    1.2595619  1010000 
  514000   0.84012382   -4.2057164   -4.2057164   -2.9455319  0.024379818   -4.2057164    1.2601845  1010000 
  515000   0.84016952   -4.2057061   -4.2057061   -2.9454531  0.024433324   -4.2057061     1.260253  1010000 
  516000   0.83969576   -4.2055944   -4.2055944    -2.946052  0.030717455   -4.2055944    1.2595424  1010000 
  517000   0.83979421   -4.2066708   -4.2066708   -2.9469807    0.0232724   -4.2066708    1.2596901  1010000 
  518000   0.83946196   -4.2062643   -4.2062643   -2.9470726  0.022184297   -4.2062643    1.2591917  1010000 
  519000   0.83934871   -4.2059695   -4.2059695   -2.9469477  0.020030731   -4.2059695    1.2590218  1010000 
  520000   0.83892042   -4.2047991   -4.2047991   -2.9464197  0.025434181   -4.2047991    1.2583794  1010000 
  521000   0.83931579   -4.2056687   -4.2056687   -2.9466963  0.022036328   -4.2056687    1.2589724  1010000 
  522000   0.83786035   -4.2041962   -4.2041962   -2.9474069  0.025154736   -4.2041962    1.2567893  1010000 
  523000   0.83806141   -4.2048978   -4.2048978   -2.9478069  0.025815423   -4.2048978    1.2570909  1010000 
  524000   0.83884566   -4.2055254   -4.2055254   -2.9472582  0.023654226   -4.2055254    1.2582672  1010000 
  525000   0.83926171    -4.206134    -4.206134   -2.9472427  0.021757251    -4.206134    1.2588913  1010000 
  526000   0.83834651   -4.2056294   -4.2056294   -2.9481109   0.02108505   -4.2056294    1.2575185  1010000 
  527000     0.837866   -4.2052143   -4.2052143   -2.9484166  0.019909078   -4.2052143    1.2567978  1010000 
  528000   0.83748743   -4.2052177   -4.2052177   -2.9489878   0.01922691   -4.2052177    1.2562299  1010000 
  529000   0.83745798   -4.2058606   -4.2058606   -2.9496748  0.020884678   -4.2058606    1.2561857  1010000 
  530000   0.83744455   -4.2053722   -4.2053722   -2.9492066  0.017933316   -4.2053722    1.2561656  1010000 
  531000   0.83798175   -4.2063738   -4.2063738   -2.9494024  0.020658025   -4.2063738    1.2569714  1010000 
  532000   0.83760369   -4.2060635   -4.2060635   -2.9496592  0.018153474   -4.2060635    1.2564043  1010000 
  533000   0.83776589   -4.2066545   -4.2066545   -2.9500069  0.019621884   -4.2066545    1.2566476  1010000 
  534000   0.83858597   -4.2075447   -4.2075447    -2.949667  0.022392511   -4.2075447    1.2578777  1010000 
  535000     0.838163   -4.2076797   -4.2076797   -2.9504365  0.019836123   -4.2076797    1.2572433  1010000 
  536000   0.83760821    -4.207118    -4.207118   -2.9507069  0.023960581    -4.207118    1.2564111  1010000 
  537000    0.8384235   -4.2083665   -4.2083665   -2.9507325  0.023624667   -4.2083665     1.257634  1010000 
  538000   0.83803018   -4.2083361   -4.2083361   -2.9512921  0.022516362   -4.2083361     1.257044  1010000 
  539000   0.83831531   -4.2090405   -4.2090405   -2.9515688  0.024657996   -4.2090405    1.2574717  1010000 
  540000    0.8383868   -4.2098351   -4.2098351   -2.9522561   0.02256282   -4.2098351     1.257579  1010000 
  541000   0.83801904   -4.2104341   -4.2104341   -2.9534067  0.019234928   -4.2104341    1.2570273  1010000 
  542000   0.83765454   -4.2101291   -4.2101291   -2.9536485  0.023357413   -4.2101291    1.2564806  1010000 
  543000   0.83719659   -4.2094112   -4.2094112   -2.9536175  0.025917136   -4.2094112    1.2557936  1010000 
  544000   0.83737112   -4.2099109   -4.2099109   -2.9538555   0.02510878   -4.2099109    1.2560554  1010000 
  545000   0.83822332   -4.2117721   -4.2117721   -2.9544384  0.023678967   -4.2117721    1.2573337  1010000 
  546000   0.83849988   -4.2123712   -4.2123712   -2.9546226  0.021843973   -4.2123712    1.2577486  1010000 
  547000   0.83726096   -4.2108108   -4.2108108   -2.9549206  0.026875903   -4.2108108    1.2558902  1010000 
  548000   0.83813688   -4.2125534   -4.2125534   -2.9553493  0.024757819   -4.2125534    1.2572041  1010000 
  549000   0.83908155   -4.2136881   -4.2136881    -2.955067  0.024538778   -4.2136881    1.2586211  1010000 
  550000   0.83716508   -4.2112781   -4.2112781   -2.9555317  0.026874273   -4.2112781    1.2557464  1010000 
  551000   0.83815962   -4.2131149   -4.2131149   -2.9558767  0.023756263   -4.2131149    1.2572382  1010000 
  552000    0.8375007    -4.212565    -4.212565   -2.9563152  0.020767226    -4.212565    1.2562498  1010000 
  553000    0.8371727   -4.2122822   -4.2122822   -2.9565244  0.024959065   -4.2122822    1.2557578  1010000 
  554000   0.83702268   -4.2126672   -4.2126672   -2.9571344   0.02164595   -4.2126672    1.2555328  1010000 
  555000    0.8361551   -4.2117039   -4.2117039   -2.9574725  0.022465749   -4.2117039    1.2542314  1010000 
  556000   0.83680801   -4.2126551   -4.2126551   -2.9574443  0.022665278   -4.2126551    1.2552108  1010000 
  557000   0.83712034   -4.2131465   -4.2131465   -2.9574672  0.022890875   -4.2131465    1.2556793  1010000 
  558000   0.83643646   -4.2129135   -4.2129135   -2.9582601  0.023963542   -4.2129135    1.2546534  1010000 
  559000   0.83646007   -4.2123679   -4.2123679    -2.957679  0.024745689   -4.2123679    1.2546889  1010000 
  560000   0.83620931    -4.211892    -4.211892   -2.9575793  0.021329769    -4.211892    1.2543127  1010000 
  561000   0.83671935   -4.2123442   -4.2123442   -2.9572664  0.023906831   -4.2123442    1.2550778  1010000 
  562000    0.8366069   -4.2124428   -4.2124428   -2.9575337  0.023282127   -4.2124428    1.2549091  1010000 
  563000   0.83594195   -4.2120088   -4.2120088   -2.9580972   0.02372091   -4.2120088    1.2539117  1010000 
  564000   0.83635636   -4.2124516   -4.2124516   -2.9579183  0.022687202   -4.2124516    1.2545333  1010000 
  565000   0.83663515   -4.2136455   -4.2136455    -2.958694  0.021676263   -4.2136455    1.2549515  1010000 
  566000   0.83650489   -4.2136429   -4.2136429   -2.9588868  0.022252152   -4.2136429    1.2547561  1010000 
  567000   0.83601574   -4.2127007   -4.2127007   -2.9586783  0.024123668   -4.2127007    1.2540224  1010000 
  568000   0.83679417     -4.21346     -4.21346     -2.95827  0.023585054     -4.21346      1.25519  1010000 
  569000     0.837351   -4.2150172   -4.2150172   -2.9589919  0.019049813   -4.2150172    1.2560253  1010000 
  570000   0.83641463   -4.2144914   -4.2144914   -2.9598707  0.024273366   -4.2144914    1.2546207  1010000 
  571000   0.83644052   -4.2151609   -4.2151609   -2.9605014  0.020349712   -4.2151609    1.2546595  1010000 
  572000   0.83545069   -4.2144534   -4.2144534   -2.9612786  0.023099593   -4.2144534    1.2531748  1010000 
  573000   0.83583181   -4.2147254   -4.2147254   -2.9609789   0.02033329   -4.2147254    1.2537465  1010000 
  574000   0.83599367   -4.2159259   -4.2159259   -2.9619367  0.017252826   -4.2159259    1.2539893  1010000 
  575000   0.83582074   -4.2155679   -4.2155679    -2.961838  0.023116632   -4.2155679    1.2537299  1010000 
  576000   0.83639322   -4.2160076   -4.2160076    -2.961419  0.021661676   -4.2160076    1.2545886  1010000 
  577000   0.83662977   -4.2163201   -4.2163201   -2.9613767  0.022552341   -4.2163201    1.2549434  1010000 
  578000   0.83620622   -4.2162927   -4.2162927   -2.9619846  0.023495732   -4.2162927    1.2543081  1010000 
  579000   0.83631569    -4.216769    -4.216769   -2.9622967  0.025174413    -4.216769    1.2544723  1010000 
  580000    0.8367298   -4.2175708   -4.2175708   -2.9624774  0.021994604   -4.2175708    1.2550935  1010000 
  581000   0.83623448   -4.2172242   -4.2172242   -2.9628737  0.022888915   -4.2172242    1.2543505  1010000 
  582000   0.83562741    -4.216075    -4.216075   -2.9626352  0.024263984    -4.216075    1.2534399  1010000 
  583000   0.83675413   -4.2177274   -4.2177274   -2.9625975  0.020702277   -4.2177274      1.25513  1010000 
  584000   0.83607978   -4.2172031   -4.2172031   -2.9630847  0.023963745   -4.2172031    1.2541184  1010000 
  585000    0.8349624   -4.2167357   -4.2167357   -2.9642934  0.024652375   -4.2167357    1.2524424  1010000 
  586000   0.83621258   -4.2186642   -4.2186642   -2.9643466  0.023590148   -4.2186642    1.2543176  1010000 
  587000   0.83620148   -4.2184744   -4.2184744   -2.9641734  0.025918678   -4.2184744     1.254301  1010000 
  588000   0.83554772   -4.2177738   -4.2177738   -2.9644534  0.021372473   -4.2177738    1.2533203  1010000 
  589000   0.83588204   -4.2177865   -4.2177865   -2.9639647  0.024290463   -4.2177865    1.2538218  1010000 
  590000   0.83513701   -4.2176369   -4.2176369   -2.9649326  0.019958875   -4.2176369    1.2527043  1010000 
  591000   0.83512054   -4.2175733   -4.2175733   -2.9648937  0.020311771   -4.2175733    1.2526796  1010000 
  592000   0.83530499   -4.2178559   -4.2178559   -2.9648996  0.020848141   -4.2178559    1.2529562  1010000 
  593000   0.83572587   -4.2191769   -4.2191769   -2.9655893   0.01869178   -4.2191769    1.2535876  1010000 
  594000    0.8356478   -4.2190146   -4.2190146   -2.9655441  0.019988748   -4.2190146    1.2534705  1010000 
  595000    0.8354398   -4.2194313   -4.2194313   -2.9662728  0.024162435   -4.2194313    1.2531585  1010000 
  596000   0.83596111   -4.2198573   -4.2198573   -2.9659169  0.019965195   -4.2198573    1.2539404  1010000 
  597000   0.83495034   -4.2187295   -4.2187295   -2.9663053  0.020259752   -4.2187295    1.2524243  1010000 
  598000   0.83538036   -4.2197101   -4.2197101   -2.9666408  0.019580514   -4.2197101    1.2530693  1010000 
  599000   0.83530053   -4.2194596   -4.2194596   -2.9665101  0.021956881   -4.2194596    1.2529495  1010000 
  600000    0.8354175    -4.219706    -4.219706   -2.9665809  0.024115202    -4.219706     1.253125  1010000 
  601000   0.83469928   -4.2194958   -4.2194958   -2.9674481  0.024780791   -4.2194958    1.2520477  1010000 
  602000   0.83454518   -4.2194531   -4.2194531   -2.9676366  0.019377714   -4.2194531    1.2518165  1010000 
  603000   0.83523169   -4.2200019   -4.2200019   -2.9671556  0.023428761   -4.2200019    1.2528463  1010000 
  604000   0.83475609   -4.2200783   -4.2200783   -2.9679454  0.024654739   -4.2200783    1.2521329  1010000 
  605000   0.83459667   -4.2201619   -4.2201619   -2.9682682  0.023177392   -4.2201619    1.2518938  1010000 
  606000   0.83468488   -4.2207228   -4.2207228   -2.9686967   0.02198331   -4.2207228    1.2520261  1010000 
  607000   0.83423752   -4.2201828   -4.2201828   -2.9688277  0.025809626   -4.2201828     1.251355  1010000 
  608000    0.8343008   -4.2207705   -4.2207705   -2.9693205  0.022536159   -4.2207705      1.25145  1010000 
  609000   0.83409571   -4.2208279   -4.2208279   -2.9696855  0.022736784   -4.2208279    1.2511423  1010000 
  610000    0.8348377   -4.2218249   -4.2218249   -2.9695695  0.018290607   -4.2218249    1.2522553  1010000 
  611000   0.83327606   -4.2203578   -4.2203578    -2.970445  0.021966268   -4.2203578    1.2499128  1010000 
  612000    0.8342405   -4.2218022   -4.2218022   -2.9704427  0.017558954   -4.2218022    1.2513595  1010000 
  613000   0.83364882    -4.220594    -4.220594    -2.970122  0.024517001    -4.220594     1.250472  1010000 
  614000    0.8337459   -4.2215662   -4.2215662   -2.9709486  0.020690011   -4.2215662    1.2506176  1010000 
  615000   0.83482543   -4.2233837   -4.2233837   -2.9711468  0.021985235   -4.2233837    1.2522369  1010000 
  616000    0.8341145    -4.223183    -4.223183   -2.9720124  0.020043191    -4.223183    1.2511705  1010000 
  617000   0.83475736   -4.2237602   -4.2237602   -2.9716254  0.021640749   -4.2237602    1.2521348  1010000 
  618000   0.83373898   -4.2227178   -4.2227178   -2.9721106  0.020482568   -4.2227178    1.2506072  1010000 
  619000   0.83439149   -4.2242379   -4.2242379   -2.9726519  0.021243324   -4.2242379     1.251586  1010000 
  620000   0.83345593   -4.2236384   -4.2236384   -2.9734557  0.025085197   -4.2236384    1.2501827  1010000 
  621000   0.83334316   -4.2239213   -4.2239213   -2.9739078  0.022534656   -4.2239213    1.2500135  1010000 
  622000   0.83349938   -4.2244471   -4.2244471   -2.9741992  0.024594763   -4.2244471    1.2502478  1010000 
  623000   0.83373267   -4.2257884   -4.2257884   -2.9751906  0.024939582   -4.2257884    1.2505978  1010000 
  624000   0.83450544   -4.2268473   -4.2268473   -2.9750904  0.020518846   -4.2268473    1.2517569  1010000 
  625000   0.83357727   -4.2256143   -4.2256143   -2.9752496  0.024101329   -4.2256143    1.2503647  1010000 
  626000   0.83390706   -4.2266479   -4.2266479   -2.9757885  0.024820481   -4.2266479    1.2508593  1010000 
  627000    0.8336904   -4.2269546   -4.2269546   -2.9764202  0.022344969   -4.2269546    1.2505344  1010000 
  628000   0.83331831   -4.2264638   -4.2264638   -2.9764876  0.024352832   -4.2264638    1.2499762  1010000 
  629000   0.83391561   -4.2273407   -4.2273407   -2.9764685  0.022545455   -4.2273407    1.2508722  1010000 
  630000   0.83424878    -4.227351    -4.227351   -2.9759791  0.022375265    -4.227351    1.2513719  1010000 
  631000   0.83454042   -4.2278274   -4.2278274    -2.976018  0.024829203   -4.2278274    1.2518094  1010000 
  632000    0.8345839   -4.2286084   -4.2286084   -2.9767338  0.023412909   -4.2286084    1.2518746  1010000 
  633000   0.83377881   -4.2282483   -4.2282483   -2.9775813  0.025851358   -4.2282483     1.250667  1010000 
  634000   0.83285959   -4.2273737   -4.2273737   -2.9780856  0.027091647   -4.2273737    1.2492881  1010000 
  635000   0.83380437   -4.2287979   -4.2287979   -2.9780926  0.021419471   -4.2287979    1.2507053  1010000 
  636000   0.83371263   -4.2282192   -4.2282192   -2.9776514  0.023571204   -4.2282192    1.2505677  1010000 
  637000    0.8339725   -4.2286618   -4.2286618   -2.9777043  0.024601846   -4.2286618    1.2509575  1010000 
  638000   0.83305772   -4.2278367   -4.2278367   -2.9782513   0.01876537   -4.2278367    1.2495853  1010000 
  639000   0.83214904   -4.2272364   -4.2272364   -2.9790141   0.02166129   -4.2272364    1.2482223  1010000 
  640000   0.83216221   -4.2271018   -4.2271018   -2.9788597  0.028168712   -4.2271018    1.2482421  1010000 
  641000   0.83351952   -4.2285401   -4.2285401    -2.978262  0.022301729   -4.2285401     1.250278  1010000 
  642000   0.83273843   -4.2276094   -4.2276094    -2.978503  0.022864129   -4.2276094    1.2491064  1010000 
  643000   0.83327752    -4.229021    -4.229021   -2.9791059  0.021030754    -4.229021     1.249915  1010000 
  644000   0.83347838    -4.229689    -4.229689   -2.9794727  0.016403587    -4.229689    1.2502163  1010000 
  645000   0.83370348   -4.2294172   -4.2294172   -2.9788632  0.023457963   -4.2294172     1.250554  1010000 
  646000    0.8333062   -4.2291507   -4.2291507   -2.9791927  0.022046116   -4.2291507    1.2499581  1010000 
  647000   0.83319721   -4.2292191   -4.2292191   -2.9794245  0.025985241   -4.2292191    1.2497946  1010000 
  648000    0.8335688   -4.2296703   -4.2296703   -2.9793184  0.022433421   -4.2296703     1.250352  1010000 
  649000   0.83294507   -4.2296534   -4.2296534    -2.980237  0.020064283   -4.2296534    1.2494164  1010000 
  650000   0.83284123   -4.2303605   -4.2303605   -2.9810999  0.020340513   -4.2303605    1.2492606  1010000 
  651000   0.83243144   -4.2295495   -4.2295495   -2.9809035  0.024213632   -4.2295495    1.2486459  1010000 
  652000   0.83284324   -4.2299918   -4.2299918   -2.9807281  0.020104186   -4.2299918    1.2492636  1010000 
  653000    0.8330278   -4.2302871   -4.2302871   -2.9807466  0.022653164   -4.2302871    1.2495405  1010000 
  654000   0.83358277   -4.2309411   -4.2309411   -2.9805682  0.023448006   -4.2309411    1.2503729  1010000 
  655000   0.83319293   -4.2308474   -4.2308474   -2.9810592    0.0233282   -4.2308474    1.2497882  1010000 
  656000   0.83282561    -4.231035    -4.231035   -2.9817978  0.021520567    -4.231035    1.2492372  1010000 
  657000   0.83343599   -4.2310255   -4.2310255   -2.9808728  0.023295161   -4.2310255    1.2501527  1010000 
  658000   0.83364778   -4.2314177   -4.2314177   -2.9809473  0.023541288   -4.2314177    1.2504704  1010000 
  659000   0.83322613   -4.2320878   -4.2320878   -2.9822498  0.021845557   -4.2320878     1.249838  1010000 
  660000    0.8327618   -4.2314743   -4.2314743   -2.9823328  0.022572946   -4.2314743    1.2491415  1010000 
  661000    0.8328348   -4.2318389   -4.2318389   -2.9825879  0.021751652   -4.2318389     1.249251  1010000 
  662000   0.83245856   -4.2317066   -4.2317066     -2.98302  0.025673701   -4.2317066    1.2486866  1010000 
  663000    0.8339154   -4.2337002   -4.2337002   -2.9828283   0.02135207   -4.2337002    1.2508719  1010000 
  664000   0.83290602   -4.2322732   -4.2322732   -2.9829154  0.022419013   -4.2322732    1.2493578  1010000 
  665000   0.83207762   -4.2321077   -4.2321077   -2.9839925  0.022242538   -4.2321077    1.2481152  1010000 
  666000   0.83240903   -4.2325397   -4.2325397   -2.9839274  0.021863602   -4.2325397    1.2486123  1010000 
  667000   0.83202216   -4.2322247   -4.2322247   -2.9841927   0.02078941   -4.2322247     1.248032  1010000 
  668000   0.83225203    -4.233475    -4.233475   -2.9850982  0.016542388    -4.233475    1.2483768  1010000 
  669000   0.83243113   -4.2337429   -4.2337429   -2.9850975  0.020026355   -4.2337429    1.2486455  1010000 
  670000    0.8314913   -4.2327775   -4.2327775   -2.9855418  0.019643903   -4.2327775    1.2472357  1010000 
  671000   0.83247723   -4.2337438   -4.2337438   -2.9850292  0.024128245   -4.2337438    1.2487146  1010000 
  672000   0.83192534   -4.2337854   -4.2337854   -2.9858986  0.023694929   -4.2337854    1.2478868  1010000 
  673000   0.83194014   -4.2328423   -4.2328423   -2.9849333  0.023336589   -4.2328423     1.247909  1010000 
  674000   0.83257714   -4.2339255   -4.2339255    -2.985061  0.022686423   -4.2339255    1.2488645  1010000 
  675000   0.83239118   -4.2341494   -4.2341494   -2.9855639  0.022014517   -4.2341494    1.2485855  1010000 
  676000   0.83176903   -4.2336045   -4.2336045   -2.9859521  0.023381103   -4.2336045    1.2476523  1010000 
  677000    0.8314828   -4.2324685   -4.2324685   -2.9852455  0.024523172   -4.2324685     1.247223  1010000 
  678000   0.83246526   -4.2345084   -4.2345084   -2.9858117  0.021420964   -4.2345084    1.2486967  1010000 
  679000   0.83196543   -4.2347457   -4.2347457   -2.9867988  0.020632631   -4.2347457    1.2479469  1010000 
  680000   0.83124923   -4.2341709   -4.2341709   -2.9872983  0.022424103   -4.2341709    1.2468726  1010000 
  681000   0.83084833   -4.2333183   -4.2333183    -2.987047  0.023047926   -4.2333183    1.2462713  1010000 
  682000   0.83229467   -4.2357174   -4.2357174   -2.9872766  0.023054812   -4.2357174    1.2484408  1010000 
  683000   0.83223444    -4.235743    -4.235743   -2.9873926  0.020400601    -4.235743    1.2483504  1010000 
  684000   0.83131028    -4.234481    -4.234481   -2.9875168  0.022314058    -4.234481    1.2469642  1010000 
  685000   0.83151491   -4.2343342   -4.2343342    -2.987063  0.023416308   -4.2343342    1.2472711  1010000 
  686000   0.83253452   -4.2360044   -4.2360044   -2.9872038  0.022672403   -4.2360044    1.2488005  1010000 
  687000   0.83187174   -4.2353085   -4.2353085   -2.9875021  0.024516845   -4.2353085    1.2478064  1010000 
  688000   0.83183333   -4.2353995   -4.2353995   -2.9876508  0.024947932   -4.2353995    1.2477488  1010000 
  689000   0.83078219   -4.2342127   -4.2342127   -2.9880407  0.024141419   -4.2342127    1.2461721  1010000 
  690000   0.83133433    -4.235116    -4.235116   -2.9881157  0.021692596    -4.235116    1.2470003  1010000 
  691000   0.83172068   -4.2350112   -4.2350112   -2.9874314  0.025779064   -4.2350112    1.2475798  1010000 
  692000    0.8319488   -4.2351814   -4.2351814   -2.9872594  0.026497751   -4.2351814     1.247922  1010000 
  693000   0.83151987   -4.2351221   -4.2351221   -2.9878435  0.022394418   -4.2351221    1.2472786  1010000 
  694000   0.83149786    -4.234874    -4.234874   -2.9876284   0.02758989    -4.234874    1.2472456  1010000 
  695000   0.83207167   -4.2352359   -4.2352359   -2.9871296  0.027622999   -4.2352359    1.2481063  1010000 
  696000   0.83146252   -4.2351634   -4.2351634   -2.9879709  0.023813552   -4.2351634    1.2471926  1010000 
  697000   0.83175285   -4.2362277   -4.2362277   -2.9885997  0.020333522   -4.2362277     1.247628  1010000 
  698000   0.83095018   -4.2345918   -4.2345918   -2.9881678  0.021597335   -4.2345918     1.246424  1010000 
  699000   0.83094675   -4.2348967   -4.2348967   -2.9884778  0.020371569   -4.2348967    1.2464189  1010000 
  700000   0.83141547   -4.2353297   -4.2353297   -2.9882077  0.018301078   -4.2353297     1.247122  1010000 
  701000   0.83078691    -4.235093    -4.235093   -2.9889139  0.017544351    -4.235093    1.2461791  1010000 
  702000   0.83048901   -4.2348671   -4.2348671   -2.9891348  0.021656624   -4.2348671    1.2457323  1010000 
  703000   0.83173386   -4.2362703   -4.2362703   -2.9886707  0.021972558   -4.2362703    1.2475996  1010000 
  704000   0.83167399   -4.2363844   -4.2363844   -2.9888747  0.020911418   -4.2363844    1.2475097  1010000 
  705000   0.83182823   -4.2363579   -4.2363579   -2.9886168  0.022451588   -4.2363579    1.2477411  1010000 
  706000   0.83144498   -4.2362764   -4.2362764   -2.9891102  0.023528081   -4.2362764    1.2471662  1010000 
  707000   0.83130048   -4.2362282   -4.2362282   -2.9892787   0.02011858   -4.2362282    1.2469495  1010000 
  708000   0.83154939   -4.2366685   -4.2366685   -2.9893457  0.019463012   -4.2366685    1.2473229  1010000 
  709000   0.83049493   -4.2354386   -4.2354386   -2.9896974  0.025796672   -4.2354386    1.2457412  1010000 
  710000   0.83089958   -4.2367386   -4.2367386   -2.9903904  0.021000713   -4.2367386    1.2463481  1010000 
  711000   0.83149195   -4.2374071   -4.2374071   -2.9901704  0.022346362   -4.2374071    1.2472367  1010000 
  712000   0.83180536   -4.2376015   -4.2376015   -2.9898947  0.021123694   -4.2376015    1.2477068  1010000 
  713000   0.83058186    -4.236343    -4.236343   -2.9904715   0.02505333    -4.236343    1.2458716  1010000 
  714000   0.83115362   -4.2374421   -4.2374421   -2.9907129  0.023890582   -4.2374421    1.2467292  1010000 
  715000   0.83081983   -4.2372538   -4.2372538   -2.9910253  0.022043158   -4.2372538    1.2462285  1010000 
  716000   0.83221418   -4.2406427   -4.2406427   -2.9923226  0.017534466   -4.2406427      1.24832  1010000 
  717000   0.82988583   -4.2376881   -4.2376881   -2.9928605  0.022876191   -4.2376881    1.2448275  1010000 
  718000   0.83085995   -4.2391886   -4.2391886   -2.9928999  0.020353947   -4.2391886    1.2462887  1010000 
  719000   0.83009988   -4.2381824   -4.2381824   -2.9930338  0.022437912   -4.2381824    1.2451486  1010000 
  720000   0.83036375    -4.238221    -4.238221   -2.9926766  0.021441205    -4.238221    1.2455444  1010000 
  721000   0.83100359   -4.2395432   -4.2395432   -2.9930391  0.023157578   -4.2395432    1.2465042  1010000 
  722000   0.82968188   -4.2381127   -4.2381127   -2.9935911  0.025779978   -4.2381127    1.2445216  1010000 
  723000   0.83129954   -4.2407854   -4.2407854   -2.9938374  0.021624024   -4.2407854    1.2469481  1010000 
  724000   0.83150205   -4.2411125   -4.2411125   -2.9938607  0.023561601   -4.2411125    1.2472518  1010000 
  725000   0.83070962   -4.2401336   -4.2401336   -2.9940704  0.030144858   -4.2401336    1.2460632  1010000 
  726000   0.83181401   -4.2412816   -4.2412816   -2.9935618  0.026520193   -4.2412816    1.2477198  1010000 
  727000    0.8313653   -4.2408608   -4.2408608   -2.9938141  0.029564124   -4.2408608    1.2470467  1010000 
  728000   0.83142694   -4.2418486   -4.2418486   -2.9947094   0.02425501   -4.2418486    1.2471392  1010000 
  729000   0.83085555   -4.2413361   -4.2413361    -2.995054  0.023051439   -4.2413361    1.2462821  1010000 
  730000   0.82980838   -4.2405909   -4.2405909   -2.9958796  0.027912638   -4.2405909    1.2447113  1010000 
  731000    0.8310511   -4.2426044   -4.2426044    -2.996029  0.023304181   -4.2426044    1.2465754  1010000 
  732000   0.83076718   -4.2419859   -4.2419859   -2.9958364  0.020591547   -4.2419859    1.2461495  1010000 
  733000   0.82955452   -4.2414636   -4.2414636    -2.997133  0.021638803   -4.2414636    1.2443305  1010000 
  734000   0.83095379   -4.2423456   -4.2423456   -2.9959162  0.019735923   -4.2423456    1.2464294  1010000 
  735000   0.82999193   -4.2420207   -4.2420207   -2.9970341  0.023696393   -4.2420207    1.2449867  1010000 
  736000   0.82989956   -4.2420613   -4.2420613   -2.9972132  0.022765921   -4.2420613    1.2448481  1010000 
  737000   0.82994923   -4.2419774   -4.2419774   -2.9970548  0.018957761   -4.2419774    1.2449226  1010000 
  738000   0.82911359   -4.2403928   -4.2403928   -2.9967237  0.023125764   -4.2403928    1.2436692  1010000 
  739000   0.82964779   -4.2408871   -4.2408871   -2.9964167  0.020829127   -4.2408871    1.2444704  1010000 
  740000   0.83052543   -4.2424043   -4.2424043   -2.9966174  0.021242566   -4.2424043    1.2457869  1010000 
  741000    0.8300509   -4.2413432   -4.2413432   -2.9962681  0.021620707   -4.2413432    1.2450751  1010000 
  742000   0.83019506   -4.2415329   -4.2415329   -2.9962416  0.025522474   -4.2415329    1.2452914  1010000 
  743000   0.83042843   -4.2421936   -4.2421936   -2.9965522  0.024169747   -4.2421936    1.2456414  1010000 
  744000   0.82951682    -4.241215    -4.241215    -2.996941  0.023136171    -4.241215     1.244274  1010000 
  745000    0.8300978   -4.2410923   -4.2410923   -2.9959468  0.023637707   -4.2410923    1.2451455  1010000 
  746000   0.83079593   -4.2419291   -4.2419291   -2.9957364  0.024382947   -4.2419291    1.2461927  1010000 
  747000   0.83041031   -4.2415894   -4.2415894   -2.9959752  0.021655018   -4.2415894    1.2456142  1010000 
  748000   0.82967634   -4.2410623   -4.2410623    -2.996549  0.022992267   -4.2410623    1.2445133  1010000 
  749000   0.83013077    -4.241802    -4.241802   -2.9966071  0.020729504    -4.241802    1.2451949  1010000 
  750000    0.8303691   -4.2425141   -4.2425141   -2.9969617  0.022208694   -4.2425141    1.2455524  1010000 
  751000   0.83052022   -4.2417614   -4.2417614   -2.9959823  0.023331806   -4.2417614    1.2457791  1010000 
  752000    0.8309014    -4.243245    -4.243245   -2.9968941  0.020240204    -4.243245    1.2463509  1010000 
  753000   0.83087599   -4.2426838   -4.2426838    -2.996371  0.021747816   -4.2426838    1.2463128  1010000 
  754000   0.83046368   -4.2430464   -4.2430464   -2.9973521   0.02376422   -4.2430464    1.2456943  1010000 
  755000   0.82995628   -4.2424289   -4.2424289   -2.9974957  0.021733868   -4.2424289    1.2449332  1010000 
  756000   0.83006485   -4.2431407   -4.2431407   -2.9980446  0.018905076   -4.2431407     1.245096  1010000 
  757000   0.82894097   -4.2415643   -4.2415643   -2.9981541  0.023597996   -4.2415643    1.2434102  1010000 
  758000   0.82925697   -4.2426484   -4.2426484   -2.9987642  0.018303374   -4.2426484    1.2438842  1010000 
  759000   0.82972743   -4.2438888   -4.2438888   -2.9992989  0.016382466   -4.2438888    1.2445899  1010000 
  760000    0.8289188   -4.2425096   -4.2425096   -2.9991327  0.020621297   -4.2425096     1.243377  1010000 
  761000   0.82901997   -4.2428611   -4.2428611   -2.9993324   0.02267268   -4.2428611    1.2435287  1010000 
  762000   0.83006414   -4.2441048   -4.2441048   -2.9990098  0.024053189   -4.2441048     1.245095  1010000 
  763000   0.83045001   -4.2444606   -4.2444606   -2.9987868  0.023569974   -4.2444606    1.2456738  1010000 
  764000     0.830932   -4.2448705   -4.2448705   -2.9984738  0.023761381   -4.2448705    1.2463968  1010000 
  765000     0.830101   -4.2438231   -4.2438231   -2.9986729  0.028013012   -4.2438231    1.2451503  1010000 
  766000   0.83080046   -4.2454176   -4.2454176   -2.9992181  0.021896787   -4.2454176    1.2461995  1010000 
  767000   0.82951751   -4.2441158   -4.2441158   -2.9998408  0.024333517   -4.2441158     1.244275  1010000 
  768000   0.82942066   -4.2446479   -4.2446479   -3.0005182  0.024898685   -4.2446479    1.2441298  1010000 
  769000     0.829291   -4.2453111   -4.2453111   -3.0013758   0.01937754   -4.2453111    1.2439353  1010000 
  770000   0.82885366   -4.2449438   -4.2449438   -3.0016646  0.022119174   -4.2449438    1.2432793  1010000 
  771000   0.82876871   -4.2453399   -4.2453399   -3.0021881  0.021313745   -4.2453399    1.2431518  1010000 
  772000   0.82861088   -4.2453597   -4.2453597   -3.0024446  0.022870277   -4.2453597    1.2429151  1010000 
  773000   0.82934525   -4.2469188   -4.2469188   -3.0029022  0.017046905   -4.2469188    1.2440166  1010000 
  774000   0.82968555   -4.2471146   -4.2471146   -3.0025875   0.01848573   -4.2471146    1.2445271  1010000 
  775000   0.82962526   -4.2468406   -4.2468406    -3.002404  0.023074481   -4.2468406    1.2444367  1010000 
  776000   0.82997641   -4.2475562   -4.2475562   -3.0025929  0.020785466   -4.2475562    1.2449634  1010000 
  777000   0.82973013   -4.2475122   -4.2475122   -3.0029183  0.020779546   -4.2475122     1.244594  1010000 
  778000   0.82952744   -4.2465946   -4.2465946   -3.0023047   0.02274342   -4.2465946    1.2442899  1010000 
  779000    0.8292881   -4.2468136   -4.2468136   -3.0028827  0.023641786   -4.2468136    1.2439309  1010000 
  780000   0.82900142   -4.2465205   -4.2465205   -3.0030196   0.02558941   -4.2465205    1.2435009  1010000 
  781000   0.82846359   -4.2464897   -4.2464897   -3.0037955  0.025987063   -4.2464897    1.2426942  1010000 
  782000    0.8289809    -4.247269    -4.247269   -3.0037989  0.024456662    -4.247269    1.2434701  1010000 
  783000   0.82956434   -4.2471932   -4.2471932   -3.0028479   0.02227654   -4.2471932    1.2443453  1010000 
  784000   0.82888233   -4.2471959   -4.2471959   -3.0038737  0.026281853   -4.2471959    1.2433223  1010000 
  785000   0.82872523    -4.246666    -4.246666   -3.0035793  0.022382721    -4.246666    1.2430866  1010000 
  786000   0.82897862   -4.2473135   -4.2473135   -3.0038468  0.022834048   -4.2473135    1.2434667  1010000 
  787000   0.82943539   -4.2475321   -4.2475321   -3.0033802  0.024806425   -4.2475321    1.2441519  1010000 
  788000   0.82927633   -4.2477808   -4.2477808   -3.0038675  0.023657969   -4.2477808    1.2439133  1010000 
  789000   0.82877044   -4.2478724   -4.2478724    -3.004718  0.023848092   -4.2478724    1.2431544  1010000 
  790000   0.82867613   -4.2474221   -4.2474221   -3.0044091  0.022356579   -4.2474221     1.243013  1010000 
  791000   0.82877569   -4.2475156   -4.2475156   -3.0043533  0.018808303   -4.2475156    1.2431623  1010000 
  792000    0.8283638   -4.2481132   -4.2481132   -3.0055688   0.02076662   -4.2481132    1.2425445  1010000 
  793000   0.82892404   -4.2486824   -4.2486824   -3.0052976  0.019629033   -4.2486824    1.2433848  1010000 
  794000   0.82912787   -4.2488478   -4.2488478   -3.0051572  0.022415968   -4.2488478    1.2436906  1010000 
  795000   0.82793309    -4.247814    -4.247814   -3.0059156  0.021914734    -4.247814    1.2418984  1010000 
  796000   0.82829539   -4.2485244   -4.2485244   -3.0060825  0.023626565   -4.2485244    1.2424419  1010000 
  797000   0.82877449   -4.2489253   -4.2489253   -3.0057648  0.024699096   -4.2489253    1.2431605  1010000 
  798000   0.82964114   -4.2502256   -4.2502256   -3.0057651  0.022560786   -4.2502256    1.2444605  1010000 
  799000   0.82961953   -4.2502658   -4.2502658   -3.0058378  0.022199161   -4.2502658    1.2444281  1010000 
  800000   0.82954798    -4.250049    -4.250049   -3.0057283  0.023185034    -4.250049    1.2443207  1010000 
  801000   0.82925689   -4.2499829   -4.2499829   -3.0060988  0.023340413   -4.2499829    1.2438841  1010000 
  802000   0.83005181   -4.2503979   -4.2503979   -3.0053214   0.02028598   -4.2503979    1.2450765  1010000 
  803000    0.8288346   -4.2496643   -4.2496643   -3.0064137  0.026955238   -4.2496643    1.2432507  1010000 
  804000   0.82791848   -4.2484167   -4.2484167   -3.0065402  0.024584769   -4.2484167    1.2418765  1010000 
  805000   0.82908206   -4.2503675   -4.2503675   -3.0067457  0.020394767   -4.2503675    1.2436219  1010000 
  806000   0.82884018   -4.2503372   -4.2503372   -3.0070781  0.022746606   -4.2503372     1.243259  1010000 
  807000   0.82918648   -4.2511433   -4.2511433   -3.0073648  0.020711316   -4.2511433    1.2437785  1010000 
  808000   0.82826358   -4.2504807   -4.2504807   -3.0080866  0.024967055   -4.2504807    1.2423941  1010000 
  809000    0.8281516   -4.2499147   -4.2499147   -3.0076885  0.023619929   -4.2499147    1.2422262  1010000 
  810000   0.82788438   -4.2491525   -4.2491525   -3.0073272  0.026393734   -4.2491525    1.2418253  1010000 
  811000   0.82850746   -4.2506281   -4.2506281   -3.0078681  0.021480598   -4.2506281      1.24276  1010000 
  812000    0.8278519   -4.2497565   -4.2497565   -3.0079799  0.024302453   -4.2497565    1.2417766  1010000 
  813000   0.82826533   -4.2502923   -4.2502923   -3.0078956  0.021819935   -4.2502923    1.2423968  1010000 
  814000   0.82876295   -4.2515053   -4.2515053   -3.0083621  0.022467002   -4.2515053    1.2431432  1010000 
  815000   0.82847994   -4.2513351   -4.2513351   -3.0086164  0.022762214   -4.2513351    1.2427187  1010000 
  816000   0.82863479   -4.2509973   -4.2509973   -3.0080463  0.022562716   -4.2509973    1.2429509  1010000 
  817000   0.82905687   -4.2512218   -4.2512218   -3.0076377  0.021810249   -4.2512218    1.2435841  1010000 
  818000   0.82786511   -4.2495523   -4.2495523   -3.0077559  0.025150084   -4.2495523    1.2417964  1010000 
  819000       0.8287   -4.2513211   -4.2513211   -3.0082723  0.023380428   -4.2513211    1.2430488  1010000 
  820000   0.82716557   -4.2494996   -4.2494996   -3.0087524   0.02409954   -4.2494996    1.2407471  1010000 
  821000   0.82752012   -4.2505883   -4.2505883   -3.0093093  0.024326531   -4.2505883    1.2412789  1010000 
  822000   0.82797759   -4.2512411   -4.2512411   -3.0092759  0.020818213   -4.2512411    1.2419652  1010000 
  823000   0.82781595   -4.2512652   -4.2512652   -3.0095425  0.019654541   -4.2512652    1.2417227  1010000 
  824000   0.82836118   -4.2516448   -4.2516448   -3.0091043  0.026536248   -4.2516448    1.2425405  1010000 
  825000   0.82876494   -4.2525165   -4.2525165   -3.0093703  0.021371955   -4.2525165    1.2431462  1010000 
  826000   0.82845258   -4.2518418   -4.2518418   -3.0091641  0.025282253   -4.2518418    1.2426776  1010000 
  827000     0.828724   -4.2523697   -4.2523697   -3.0092849  0.025560604   -4.2523697    1.2430848  1010000 
  828000   0.82954689   -4.2537727   -4.2537727   -3.0094536  0.023292947   -4.2537727    1.2443191  1010000 
  829000   0.82842746    -4.252832    -4.252832   -3.0101921  0.026853029    -4.252832      1.24264  1010000 
  830000   0.82857278   -4.2536157   -4.2536157   -3.0107578  0.021781603   -4.2536157    1.2428579  1010000 
  831000   0.82830232   -4.2526807   -4.2526807   -3.0102284  0.021724348   -4.2526807    1.2424523  1010000 
  832000   0.82791278   -4.2524621   -4.2524621   -3.0105942  0.024073684   -4.2524621    1.2418679  1010000 
  833000   0.82784419   -4.2531403   -4.2531403   -3.0113752  0.021335781   -4.2531403    1.2417651  1010000 
  834000   0.82791086   -4.2530707   -4.2530707   -3.0112056  0.019970709   -4.2530707    1.2418651  1010000 
  835000   0.82744545   -4.2540826   -4.2540826   -3.0129156  0.021270592   -4.2540826    1.2411669  1010000 
  836000   0.82829552   -4.2545164   -4.2545164   -3.0120743  0.024472396   -4.2545164    1.2424421  1010000 
  837000   0.82798444   -4.2535533   -4.2535533   -3.0115779  0.027554319   -4.2535533    1.2419754  1010000 
  838000    0.8284737   -4.2543035   -4.2543035   -3.0115941   0.02404049   -4.2543035    1.2427093  1010000 
  839000   0.82860151    -4.254984    -4.254984   -3.0120829  0.021902031    -4.254984     1.242901  1010000 
  840000   0.82825707   -4.2556431   -4.2556431   -3.0132587  0.019205214   -4.2556431    1.2423844  1010000 
  841000   0.82708467   -4.2536011   -4.2536011   -3.0129753  0.021738291   -4.2536011    1.2406258  1010000 
  842000   0.82823175   -4.2565831   -4.2565831   -3.0142367  0.016607499   -4.2565831    1.2423464  1010000 
  843000   0.82661441   -4.2545494   -4.2545494    -3.014629  0.024859787   -4.2545494    1.2399204  1010000 
  844000   0.82716717   -4.2551214   -4.2551214   -3.0143719  0.021364558   -4.2551214    1.2407495  1010000 
  845000     0.827442   -4.2551732   -4.2551732   -3.0140114  0.022458722   -4.2551732    1.2411618  1010000 
  846000   0.82768161   -4.2557599   -4.2557599   -3.0142387  0.023718119   -4.2557599    1.2415212  1010000 
  847000   0.82804251   -4.2569076   -4.2569076    -3.014845  0.024461061   -4.2569076    1.2420625  1010000 
  848000   0.82778953    -4.256054    -4.256054   -3.0143709  0.024593881    -4.256054    1.2416831  1010000 
  849000   0.82787834   -4.2562179   -4.2562179   -3.0144017  0.023379299   -4.2562179    1.2418163  1010000 
  850000    0.8276612   -4.2560913   -4.2560913   -3.0146007   0.02003376   -4.2560913    1.2414906  1010000 
  851000   0.82751186   -4.2560209   -4.2560209   -3.0147544  0.022432105   -4.2560209    1.2412666  1010000 
  852000   0.82798254   -4.2572215   -4.2572215   -3.0152489  0.020022598   -4.2572215    1.2419726  1010000 
  853000   0.82724363   -4.2567399   -4.2567399   -3.0158757  0.026532385   -4.2567399    1.2408642  1010000 
  854000   0.82726851    -4.256927    -4.256927   -3.0160254  0.025141172    -4.256927    1.2409015  1010000 
  855000   0.82736752   -4.2568356   -4.2568356   -3.0157856  0.024983934   -4.2568356    1.2410501  1010000 
  856000   0.82740863   -4.2575062   -4.2575062   -3.0163945  0.019636853   -4.2575062    1.2411117  1010000 
  857000   0.82738837    -4.257681    -4.257681   -3.0165997  0.022442433    -4.257681    1.2410813  1010000 
  858000   0.82770728   -4.2572834   -4.2572834   -3.0157237  0.023859871   -4.2572834    1.2415597  1010000 
  859000   0.82817509   -4.2587169   -4.2587169   -3.0164555  0.019852378   -4.2587169    1.2422614  1010000 
  860000   0.82757372   -4.2582328   -4.2582328   -3.0168734  0.022731569   -4.2582328    1.2413593  1010000 
  861000   0.82716476   -4.2572096   -4.2572096   -3.0164637  0.023107286   -4.2572096    1.2407459  1010000 
  862000   0.82745001   -4.2576732   -4.2576732   -3.0164994  0.020633121   -4.2576732    1.2411738  1010000 
  863000   0.82822811   -4.2583912   -4.2583912   -3.0160502  0.021377552   -4.2583912    1.2423409  1010000 
  864000   0.82730802    -4.257672    -4.257672   -3.0167112  0.023170844    -4.257672    1.2409608  1010000 
  865000   0.82806293   -4.2590997   -4.2590997   -3.0170065  0.023364369   -4.2590997    1.2420932  1010000 
  866000   0.82603822   -4.2563353   -4.2563353   -3.0172792  0.026182867   -4.2563353    1.2390561  1010000 
  867000   0.82693997   -4.2577628   -4.2577628    -3.017354  0.020060141   -4.2577628    1.2404087  1010000 
  868000   0.82730737   -4.2579301   -4.2579301   -3.0169703  0.015952826   -4.2579301    1.2409598  1010000 
  869000   0.82709952   -4.2576445   -4.2576445   -3.0169965  0.019413817   -4.2576445     1.240648  1010000 
  870000   0.82688007   -4.2577265   -4.2577265   -3.0174076  0.020649119   -4.2577265    1.2403189  1010000 
  871000   0.82620826   -4.2566676   -4.2566676   -3.0173565  0.024779214   -4.2566676    1.2393112  1010000 
  872000   0.82678346    -4.257355    -4.257355   -3.0171811  0.023652963    -4.257355     1.240174  1010000 
  873000   0.82621868   -4.2565712   -4.2565712   -3.0172444  0.022409898   -4.2565712    1.2393268  1010000 
  874000   0.82573182    -4.255904    -4.255904   -3.0173075  0.024284254    -4.255904    1.2385965  1010000 
  875000    0.8269845   -4.2578295   -4.2578295    -3.017354  0.018883615   -4.2578295    1.2404755  1010000 
  876000   0.82694335   -4.2576924   -4.2576924   -3.0172786  0.022480123   -4.2576924    1.2404138  1010000 
  877000   0.82650144   -4.2578355   -4.2578355   -3.0180846  0.020872947   -4.2578355    1.2397509  1010000 
  878000   0.82665458   -4.2589108   -4.2589108   -3.0189302  0.015169433   -4.2589108    1.2399806  1010000 
  879000   0.82676143   -4.2586851   -4.2586851   -3.0185442  0.019465319   -4.2586851    1.2401409  1010000 
  880000   0.82637967   -4.2582743   -4.2582743    -3.018706  0.021694884   -4.2582743    1.2395683  1010000 
  881000   0.82644193    -4.258527    -4.258527   -3.0188653  0.018453822    -4.258527    1.2396617  1010000 
  882000   0.82684602   -4.2593692   -4.2593692   -3.0191014  0.022117997   -4.2593692    1.2402678  1010000 
  883000   0.82652649   -4.2590416   -4.2590416   -3.0192531  0.023277696   -4.2590416    1.2397885  1010000 
  884000   0.82696206   -4.2596542   -4.2596542   -3.0192123  0.018964711   -4.2596542    1.2404419  1010000 
  885000   0.82677217   -4.2590851   -4.2590851   -3.0189281  0.024258776   -4.2590851     1.240157  1010000 
  886000   0.82677301   -4.2597507   -4.2597507   -3.0195924  0.022048903   -4.2597507    1.2401583  1010000 
  887000   0.82678576   -4.2600457   -4.2600457   -3.0198682  0.023033736   -4.2600457    1.2401774  1010000 
  888000   0.82736141   -4.2616367   -4.2616367   -3.0205958   0.01844326   -4.2616367    1.2410409  1010000 
  889000   0.82581962   -4.2602459   -4.2602459   -3.0215177  0.020286338   -4.2602459    1.2387282  1010000 
  890000   0.82567175   -4.2601423   -4.2601423   -3.0216359  0.022217314   -4.2601423    1.2385064  1010000 
  891000   0.82647882   -4.2604749   -4.2604749   -3.0207578  0.024637381   -4.2604749     1.239717  1010000 
  892000    0.8258781   -4.2600135   -4.2600135   -3.0211976  0.020604184   -4.2600135    1.2388159  1010000 
  893000   0.82660104     -4.26061     -4.26061   -3.0207096   0.01981064     -4.26061    1.2399003  1010000 
  894000   0.82666865   -4.2614664   -4.2614664   -3.0214647   0.02048932   -4.2614664    1.2400018  1010000 
  895000   0.82666533   -4.2614176   -4.2614176   -3.0214208  0.019556745   -4.2614176    1.2399968  1010000 
  896000   0.82622342   -4.2605413   -4.2605413   -3.0212074   0.02682062   -4.2605413    1.2393339  1010000 
  897000   0.82722692   -4.2626614   -4.2626614   -3.0218222  0.020395966   -4.2626614    1.2408392  1010000 
  898000   0.82732529   -4.2628185   -4.2628185   -3.0218318  0.019598676   -4.2628185    1.2409867  1010000 
  899000   0.82610474   -4.2615958   -4.2615958   -3.0224399   0.02265159   -4.2615958    1.2391559  1010000 
  900000   0.82676437   -4.2615727   -4.2615727   -3.0214273  0.026141353   -4.2615727    1.2401453  1010000 
  901000   0.82623539   -4.2615132   -4.2615132   -3.0221613  0.024253042   -4.2615132    1.2393519  1010000 
  902000   0.82601447    -4.261626    -4.261626   -3.0226055  0.021677715    -4.261626    1.2390205  1010000 
  903000    0.8266723   -4.2617961   -4.2617961   -3.0217889  0.020484555   -4.2617961    1.2400072  1010000 
  904000   0.82584354   -4.2605016   -4.2605016   -3.0217375  0.025812493   -4.2605016    1.2387641  1010000 
  905000   0.82656101   -4.2619159   -4.2619159   -3.0220756  0.024352632   -4.2619159    1.2398403  1010000 
  906000   0.82613146   -4.2611123   -4.2611123   -3.0219163  0.021706186   -4.2611123     1.239196  1010000 
  907000   0.82610549   -4.2619997   -4.2619997   -3.0228427  0.016160514   -4.2619997     1.239157  1010000 
  908000   0.82605405   -4.2615386   -4.2615386   -3.0224587  0.019265127   -4.2615386    1.2390798  1010000 
  909000   0.82562649   -4.2607966   -4.2607966   -3.0223581  0.022303802   -4.2607966    1.2384385  1010000 
  910000   0.82550979   -4.2606119   -4.2606119   -3.0223484  0.022184917   -4.2606119    1.2382635  1010000 
  911000   0.82640461   -4.2617239   -4.2617239   -3.0221182  0.016291442   -4.2617239    1.2396057  1010000 
  912000    0.8258724   -4.2612033   -4.2612033   -3.0223959   0.02210372   -4.2612033    1.2388074  1010000 
  913000   0.82650571   -4.2622269   -4.2622269   -3.0224696  0.022189526   -4.2622269    1.2397573  1010000 
  914000   0.82578334   -4.2615574   -4.2615574   -3.0228836  0.025186709   -4.2615574    1.2386738  1010000 
  915000   0.82600779   -4.2613401   -4.2613401   -3.0223296  0.024192561   -4.2613401    1.2390105  1010000 
  916000   0.82606388   -4.2616315   -4.2616315    -3.022537  0.022376507   -4.2616315    1.2390946  1010000 
  917000   0.82658133   -4.2617303   -4.2617303   -3.0218596  0.023061124   -4.2617303    1.2398708  1010000 
  918000   0.82609366   -4.2621107   -4.2621107   -3.0229714  0.023549121   -4.2621107    1.2391393  1010000 
  919000   0.82600998   -4.2626008   -4.2626008   -3.0235871  0.023399665   -4.2626008    1.2390137  1010000 
  920000   0.82592857   -4.2629934   -4.2629934   -3.0241017  0.022606635   -4.2629934    1.2388916  1010000 
  921000     0.825853   -4.2629806   -4.2629806   -3.0242023  0.021970334   -4.2629806    1.2387783  1010000 
  922000   0.82621371   -4.2634641   -4.2634641   -3.0241447  0.021231292   -4.2634641    1.2393193  1010000 
  923000   0.82552526   -4.2625852   -4.2625852   -3.0242986  0.021315446   -4.2625852    1.2382867  1010000 
  924000    0.8263157   -4.2638108   -4.2638108   -3.0243384  0.021525218   -4.2638108    1.2394723  1010000 
  925000   0.82637737   -4.2633031   -4.2633031   -3.0237383  0.025438285   -4.2633031    1.2395648  1010000 
  926000     0.826686   -4.2639442   -4.2639442   -3.0239164   0.02319776   -4.2639442    1.2400278  1010000 
  927000   0.82576322   -4.2629824   -4.2629824   -3.0243387  0.023541559   -4.2629824    1.2386436  1010000 
  928000    0.8253296   -4.2633956   -4.2633956   -3.0254024  0.025585346   -4.2633956    1.2379932  1010000 
  929000    0.8255742   -4.2636637   -4.2636637   -3.0253036  0.020388782   -4.2636637    1.2383601  1010000 
  930000   0.82644321   -4.2646137   -4.2646137   -3.0249501   0.01956837   -4.2646137    1.2396636  1010000 
  931000   0.82540998   -4.2633587   -4.2633587    -3.025245  0.022972554   -4.2633587    1.2381137  1010000 
  932000   0.82528783   -4.2640503   -4.2640503   -3.0261198  0.019564937   -4.2640503    1.2379305  1010000 
  933000   0.82518502    -4.264023    -4.264023   -3.0262467  0.019284606    -4.264023    1.2377763  1010000 
  934000    0.8255371   -4.2644534   -4.2644534    -3.026149  0.020114553   -4.2644534    1.2383044  1010000 
  935000   0.82576443   -4.2650448   -4.2650448   -3.0263994  0.021406557   -4.2650448    1.2386454  1010000 
  936000   0.82649808   -4.2652896   -4.2652896   -3.0255437  0.020741103   -4.2652896    1.2397459  1010000 
  937000   0.82528472   -4.2630749   -4.2630749   -3.0251491  0.024834443   -4.2630749    1.2379259  1010000 
  938000   0.82544874   -4.2637993   -4.2637993   -3.0256274  0.022218266   -4.2637993    1.2381719  1010000 
  939000   0.82506432   -4.2637174   -4.2637174   -3.0261221  0.025438023   -4.2637174    1.2375952  1010000 
  940000    0.8268997   -4.2658662   -4.2658662   -3.0255178  0.019820314   -4.2658662    1.2403483  1010000 
  941000   0.82545755   -4.2650568   -4.2650568   -3.0268717  0.020034149   -4.2650568    1.2381851  1010000 
  942000   0.82605287   -4.2648413   -4.2648413   -3.0257633  0.025124611   -4.2648413    1.2390781  1010000 
  943000   0.82624347   -4.2653225   -4.2653225   -3.0259586  0.022365784   -4.2653225     1.239364  1010000 
  944000   0.82621005   -4.2657489   -4.2657489   -3.0264351   0.01937967   -4.2657489    1.2393138  1010000 
  945000     0.825141   -4.2644433   -4.2644433   -3.0267331  0.019772376   -4.2644433    1.2377103  1010000 
  946000    0.8245036   -4.2635173   -4.2635173   -3.0267631  0.025489544   -4.2635173    1.2367542  1010000 
  947000   0.82489049    -4.264569    -4.264569   -3.0272345  0.023853491    -4.264569    1.2373345  1010000 
  948000   0.82464299   -4.2645565   -4.2645565   -3.0275932   0.02212236   -4.2645565    1.2369633  1010000 
  949000   0.82487454   -4.2653673   -4.2653673   -3.0280567  0.018158266   -4.2653673    1.2373106  1010000 
  950000   0.82555858   -4.2659302   -4.2659302   -3.0275935  0.017490683   -4.2659302    1.2383366  1010000 
  951000   0.82527366   -4.2652638   -4.2652638   -3.0273545  0.020378144   -4.2652638    1.2379093  1010000 
  952000   0.82574183   -4.2660687   -4.2660687   -3.0274572   0.01922571   -4.2660687    1.2386115  1010000 
  953000   0.82487298   -4.2652477   -4.2652477   -3.0279394  0.021717164   -4.2652477    1.2373082  1010000 
  954000   0.82444963   -4.2653407   -4.2653407   -3.0286675  0.021424878   -4.2653407    1.2366732  1010000 
  955000   0.82609304   -4.2665979   -4.2665979   -3.0274596  0.016992783   -4.2665979    1.2391383  1010000 
  956000   0.82615357   -4.2665972   -4.2665972   -3.0273681  0.021771801   -4.2665972    1.2392291  1010000 
  957000   0.82531371   -4.2654279   -4.2654279   -3.0274585  0.025706947   -4.2654279    1.2379693  1010000 
  958000   0.82523759   -4.2651674   -4.2651674   -3.0273122   0.02727122   -4.2651674    1.2378552  1010000 
  959000   0.82599261   -4.2674063   -4.2674063   -3.0284186  0.022951812   -4.2674063    1.2389877  1010000 
  960000   0.82552198   -4.2667523   -4.2667523   -3.0284705  0.024237305   -4.2667523    1.2382817  1010000 
  961000   0.82506033   -4.2664306   -4.2664306   -3.0288413  0.023284299   -4.2664306    1.2375893  1010000 
  962000   0.82586284   -4.2679018   -4.2679018   -3.0291087  0.019341633   -4.2679018     1.238793  1010000 
  963000   0.82392585   -4.2659653   -4.2659653   -3.0300777  0.021249599   -4.2659653    1.2358875  1010000 
  964000   0.82510245   -4.2673151   -4.2673151   -3.0296626  0.019177058   -4.2673151    1.2376525  1010000 
  965000   0.82475171   -4.2684224   -4.2684224   -3.0312961  0.019291317   -4.2684224    1.2371263  1010000 
  966000   0.82484632   -4.2682991   -4.2682991   -3.0310308  0.018536875   -4.2682991    1.2372683  1010000 
  967000   0.82544134   -4.2687154   -4.2687154   -3.0305546  0.019961245   -4.2687154    1.2381608  1010000 
  968000   0.82535421   -4.2679055   -4.2679055   -3.0298754  0.021309217   -4.2679055    1.2380301  1010000 
  969000   0.82574175   -4.2688501   -4.2688501   -3.0302387  0.021993508   -4.2688501    1.2386114  1010000 
  970000   0.82526113   -4.2679927   -4.2679927   -3.0301022  0.026145428   -4.2679927    1.2378905  1010000 
  971000   0.82538615    -4.268369    -4.268369    -3.030291  0.022822807    -4.268369     1.238078  1010000 
  972000     0.825978   -4.2694723   -4.2694723   -3.0305066  0.019668016   -4.2694723    1.2389658  1010000 
  973000   0.82481143   -4.2682094   -4.2682094   -3.0309935  0.024580481   -4.2682094    1.2372159  1010000 
  974000   0.82437651    -4.267391    -4.267391   -3.0308274  0.023370958    -4.267391    1.2365635  1010000 
  975000    0.8251235   -4.2687742   -4.2687742   -3.0310902  0.023220659   -4.2687742     1.237684  1010000 
  976000   0.82500439   -4.2689718   -4.2689718   -3.0314664  0.020953448   -4.2689718    1.2375054  1010000 
  977000   0.82464737   -4.2688229   -4.2688229    -3.031853  0.017687109   -4.2688229    1.2369698  1010000 
  978000   0.82422117   -4.2678373   -4.2678373   -3.0315068  0.022573131   -4.2678373    1.2363305  1010000 
  979000   0.82489343   -4.2696387   -4.2696387   -3.0322998   0.02375208   -4.2696387    1.2373389  1010000 
  980000   0.82418484   -4.2685051   -4.2685051   -3.0322291  0.022033705   -4.2685051     1.236276  1010000 
  981000   0.82470709   -4.2692125   -4.2692125   -3.0321531  0.023060003   -4.2692125    1.2370594  1010000 
  982000   0.82449358   -4.2684321   -4.2684321    -3.031693  0.024539195   -4.2684321    1.2367391  1010000 
  983000   0.82554607    -4.269961    -4.269961   -3.0316431  0.019691147    -4.269961    1.2383179  1010000 
  984000   0.82481555   -4.2691613   -4.2691613   -3.0319392  0.020622149   -4.2691613    1.2372221  1010000 
  985000   0.82549853   -4.2704249   -4.2704249   -3.0321783  0.020275112   -4.2704249    1.2382466  1010000 
  986000   0.82494325   -4.2700305   -4.2700305   -3.0326169  0.021370842   -4.2700305    1.2374137  1010000 
  987000   0.82470103   -4.2695471   -4.2695471   -3.0324968  0.020477923   -4.2695471    1.2370503  1010000 
  988000   0.82476659   -4.2693944   -4.2693944   -3.0322457  0.022557591   -4.2693944    1.2371487  1010000 
  989000   0.82510942   -4.2698581   -4.2698581   -3.0321952    0.0223925   -4.2698581    1.2376629  1010000 
  990000   0.82546733   -4.2703364   -4.2703364   -3.0321366  0.022773133   -4.2703364    1.2381998  1010000 
  991000   0.82425596   -4.2684881   -4.2684881   -3.0321054   0.02787308   -4.2684881    1.2363827  1010000 
  992000   0.82517228   -4.2692701   -4.2692701   -3.0315129  0.025026006   -4.2692701    1.2377572  1010000 
  993000    0.8239867   -4.2676507   -4.2676507   -3.0316718  0.029267307   -4.2676507    1.2359788  1010000 
  994000   0.82457812   -4.2690287   -4.2690287   -3.0321628  0.022552572   -4.2690287     1.236866  1010000 
  995000    0.8241951   -4.2685441   -4.2685441   -3.0322526  0.023226365   -4.2685441    1.2362914  1010000 
  996000   0.82451205   -4.2691067   -4.2691067   -3.0323399   0.02449817   -4.2691067    1.2367669  1010000 
  997000    0.8245709   -4.2698517   -4.2698517   -3.0329966  0.018688562   -4.2698517    1.2368551  1010000 
  998000   0.82387596   -4.2694254   -4.2694254   -3.0336126  0.019953734   -4.2694254    1.2358127  1010000 
  999000   0.82334253   -4.2686307   -4.2686307   -3.0336182  0.023182347   -4.2686307    1.2350126  1010000 
 1000000   0.82518821   -4.2709564   -4.2709564   -3.0331753  0.017741252   -4.2709564    1.2377811  1010000 
 1001000   0.82408217    -4.269978    -4.269978    -3.033856  0.017277357    -4.269978     1.236122  1010000 
 1002000   0.82476934   -4.2710177   -4.2710177    -3.033865  0.019027685   -4.2710177    1.2371528  1010000 
 1003000   0.82334731   -4.2689121   -4.2689121   -3.0338924  0.022420947   -4.2689121    1.2350197  1010000 
 1004000   0.82349433   -4.2687053   -4.2687053    -3.033465  0.021795877   -4.2687053    1.2352403  1010000 
 1005000   0.82412167   -4.2696471   -4.2696471   -3.0334658  0.017843798   -4.2696471    1.2361813  1010000 
 1006000   0.82460607   -4.2703677   -4.2703677   -3.0334598  0.020311623   -4.2703677    1.2369079  1010000 
 1007000   0.82397109   -4.2703076   -4.2703076   -3.0343522  0.019172946   -4.2703076    1.2359554  1010000 
 1008000   0.82366146   -4.2698398   -4.2698398   -3.0343489  0.022602848   -4.2698398     1.235491  1010000 
 1009000    0.8247765   -4.2707211   -4.2707211   -3.0335576  0.022371151   -4.2707211    1.2371635  1010000 
 1010000   0.82450023   -4.2705177   -4.2705177   -3.0337686  0.022176513   -4.2705177    1.2367491  1010000 
 1011000   0.82388412   -4.2699711   -4.2699711   -3.0341461  0.023360546   -4.2699711    1.2358249  1010000 
 1012000   0.82411454    -4.270966    -4.270966   -3.0347954  0.016526605    -4.270966    1.2361706  1010000 
 1013000   0.82362208   -4.2705643   -4.2705643   -3.0351324  0.024190374   -4.2705643    1.2354319  1010000 
 1014000   0.82430563   -4.2721321   -4.2721321   -3.0356749  0.021742949   -4.2721321    1.2364572  1010000 
 1015000   0.82255374   -4.2698836   -4.2698836   -3.0360542   0.02517535   -4.2698836    1.2338294  1010000 
 1016000   0.82338374   -4.2712577   -4.2712577   -3.0361833  0.021484817   -4.2712577    1.2350744  1010000 
 1017000   0.82385857   -4.2716826   -4.2716826   -3.0358959  0.024042366   -4.2716826    1.2357866  1010000 
 1018000   0.82421005   -4.2719329   -4.2719329    -3.035619  0.025024688   -4.2719329    1.2363139  1010000 
 1019000   0.82441761   -4.2723785   -4.2723785   -3.0357533  0.025586039   -4.2723785    1.2366252  1010000 
 1020000   0.82424518     -4.27194     -4.27194   -3.0355734  0.023965006     -4.27194    1.2363665  1010000 
 1021000   0.82460827   -4.2720228   -4.2720228   -3.0351116  0.024898974   -4.2720228    1.2369112  1010000 
 1022000   0.82517704     -4.27373     -4.27373   -3.0359657  0.021714977     -4.27373    1.2377643  1010000 
 1023000   0.82425825   -4.2718687   -4.2718687   -3.0354826  0.027359153   -4.2718687    1.2363862  1010000 
 1024000   0.82457094   -4.2721131   -4.2721131   -3.0352579  0.028319016   -4.2721131    1.2368552  1010000 
 1025000   0.82457793    -4.272047    -4.272047   -3.0351813  0.026721685    -4.272047    1.2368657  1010000 
 1026000   0.82458038   -4.2722581   -4.2722581   -3.0353888  0.024462685   -4.2722581    1.2368694  1010000 
 1027000   0.82412656    -4.272058    -4.272058   -3.0358694  0.024691372    -4.272058    1.2361886  1010000 
 1028000   0.82410619   -4.2723468   -4.2723468   -3.0361887   0.02580675   -4.2723468    1.2361581  1010000 
 1029000   0.82429225   -4.2728311   -4.2728311    -3.036394  0.023282819   -4.2728311    1.2364372  1010000 
 1030000   0.82303616   -4.2712025   -4.2712025   -3.0366495  0.025016777   -4.2712025     1.234553  1010000 
 1031000    0.8243889   -4.2725223   -4.2725223   -3.0359401  0.017197009   -4.2725223    1.2365821  1010000 
 1032000   0.82316952   -4.2707198   -4.2707198   -3.0359668  0.021876159   -4.2707198    1.2347531  1010000 
 1033000   0.82323985   -4.2713744   -4.2713744   -3.0365159  0.020285025   -4.2713744    1.2348586  1010000 
 1034000   0.82346389   -4.2716423   -4.2716423   -3.0364477  0.020740286   -4.2716423    1.2351946  1010000 
 1035000   0.82292401   -4.2719342   -4.2719342   -3.0375494  0.017607614   -4.2719342    1.2343848  1010000 
 1036000   0.82321637   -4.2723602   -4.2723602   -3.0375369  0.019422594   -4.2723602    1.2348233  1010000 
 1037000   0.82304993   -4.2716553   -4.2716553   -3.0370816   0.01844643   -4.2716553    1.2345737  1010000 
 1038000    0.8231513   -4.2720506   -4.2720506   -3.0373249  0.020132385   -4.2720506    1.2347257  1010000 
 1039000   0.82368037   -4.2727254   -4.2727254   -3.0372061  0.017588887   -4.2727254    1.2355193  1010000 
 1040000   0.82306812   -4.2715982   -4.2715982   -3.0369972  0.024229218   -4.2715982     1.234601  1010000 
 1041000   0.82332813   -4.2726835   -4.2726835   -3.0376926   0.01931255   -4.2726835     1.234991  1010000 
 1042000   0.82440395   -4.2738103   -4.2738103   -3.0372056  0.018750732   -4.2738103    1.2366047  1010000 
 1043000   0.82273601   -4.2710525   -4.2710525   -3.0369497  0.025728562   -4.2710525    1.2341028  1010000 
 1044000   0.82430574   -4.2743738   -4.2743738   -3.0379164   0.02134464   -4.2743738    1.2364574  1010000 
 1045000   0.82333878   -4.2733187   -4.2733187   -3.0383118  0.024885307   -4.2733187    1.2350069  1010000 
 1046000   0.82435548   -4.2739764   -4.2739764   -3.0374444  0.022797665   -4.2739764     1.236532  1010000 
 1047000   0.82403353   -4.2742805   -4.2742805   -3.0382314  0.024718247   -4.2742805    1.2360491  1010000 
 1048000   0.82406281   -4.2747028   -4.2747028   -3.0386098  0.023709722   -4.2747028     1.236093  1010000 
 1049000   0.82466262   -4.2747292   -4.2747292   -3.0377365  0.029667307   -4.2747292    1.2369927  1010000 
 1050000   0.82475008   -4.2755735   -4.2755735   -3.0384496  0.023627211   -4.2755735    1.2371239  1010000 
 1051000   0.82452337   -4.2752121   -4.2752121   -3.0384283  0.025239644   -4.2752121    1.2367838  1010000 
 1052000   0.82420685   -4.2747928   -4.2747928   -3.0384838  0.024162058   -4.2747928    1.2363091  1010000 
 1053000   0.82401838   -4.2749902   -4.2749902   -3.0389638  0.023615879   -4.2749902    1.2360264  1010000 
 1054000   0.82329381   -4.2735872   -4.2735872   -3.0386477  0.023555921   -4.2735872    1.2349395  1010000 
 1055000   0.82376609   -4.2746782   -4.2746782   -3.0390302  0.018362308   -4.2746782    1.2356479  1010000 
 1056000    0.8236895   -4.2753096   -4.2753096   -3.0397766    0.0226277   -4.2753096     1.235533  1010000 
 1057000   0.82347059   -4.2751876   -4.2751876    -3.039983  0.015881891   -4.2751876    1.2352047  1010000 
 1058000   0.82255112   -4.2741685   -4.2741685   -3.0403431    0.0215777   -4.2741685    1.2338255  1010000 
 1059000   0.82420507   -4.2756367   -4.2756367   -3.0393303  0.018512481   -4.2756367    1.2363064  1010000 
 1060000   0.82392722     -4.27527     -4.27527   -3.0393803  0.020345335     -4.27527    1.2358896  1010000 
 1061000   0.82397787   -4.2755262   -4.2755262   -3.0395606   0.01807164   -4.2755262    1.2359656  1010000 
 1062000   0.82253026    -4.274025    -4.274025   -3.0402308  0.018088701    -4.274025    1.2337942  1010000 
 1063000   0.82299802    -4.274118    -4.274118   -3.0396222  0.019040132    -4.274118    1.2344958  1010000 
 1064000   0.82324824   -4.2746357   -4.2746357   -3.0397646    0.0165594   -4.2746357    1.2348711  1010000 
 1065000   0.82343418   -4.2753976   -4.2753976   -3.0402476  0.015310124   -4.2753976      1.23515  1010000 
 1066000   0.82232926   -4.2743974   -4.2743974   -3.0409048  0.016659117   -4.2743974    1.2334927  1010000 
 1067000   0.82267216   -4.2749568   -4.2749568   -3.0409498  0.015180647   -4.2749568     1.234007  1010000 
 1068000   0.82192884   -4.2738645   -4.2738645   -3.0409725  0.021870453   -4.2738645     1.232892  1010000 
 1069000   0.82413556   -4.2758735   -4.2758735   -3.0396714  0.019189627   -4.2758735    1.2362021  1010000 
 1070000   0.82343733   -4.2754635   -4.2754635   -3.0403088   0.02230976   -4.2754635    1.2351548  1010000 
 1071000   0.82335169   -4.2754585   -4.2754585   -3.0404322  0.022784573   -4.2754585    1.2350263  1010000 
 1072000   0.82323214   -4.2745752   -4.2745752   -3.0397282   0.02832806   -4.2745752     1.234847  1010000 
 1073000   0.82402159   -4.2756077   -4.2756077   -3.0395765  0.027998759   -4.2756077    1.2360312  1010000 
 1074000   0.82434285   -4.2770015   -4.2770015   -3.0404885  0.023730735   -4.2770015     1.236513  1010000 
 1075000   0.82372585   -4.2763769   -4.2763769   -3.0407894  0.022852207   -4.2763769    1.2355876  1010000 
 1076000    0.8233636    -4.276451    -4.276451   -3.0414068  0.021262146    -4.276451    1.2350442  1010000 
 1077000   0.82327257   -4.2766357   -4.2766357   -3.0417281  0.022083014   -4.2766357    1.2349076  1010000 
 1078000   0.82233158   -4.2757986   -4.2757986   -3.0423025  0.019846124   -4.2757986    1.2334961  1010000 
 1079000   0.82335928   -4.2760155   -4.2760155   -3.0409778  0.021503797   -4.2760155    1.2350377  1010000 
 1080000   0.82350423   -4.2768276   -4.2768276   -3.0415725  0.022074782   -4.2768276    1.2352551  1010000 
 1081000   0.82262601   -4.2754401   -4.2754401   -3.0415023  0.022616399   -4.2754401    1.2339378  1010000 
 1082000   0.82270297   -4.2752319   -4.2752319   -3.0411786  0.028587526   -4.2752319    1.2340532  1010000 
 1083000   0.82286472   -4.2759615   -4.2759615   -3.0416657  0.024472734   -4.2759615    1.2342959  1010000 
 1084000   0.82269469   -4.2763004   -4.2763004   -3.0422596  0.021349655   -4.2763004    1.2340408  1010000 
 1085000   0.82244096    -4.275359    -4.275359   -3.0416988  0.021484662    -4.275359    1.2336602  1010000 
 1086000   0.82269375   -4.2760068   -4.2760068   -3.0419674  0.016257894   -4.2760068    1.2340394  1010000 
 1087000   0.82289498   -4.2761758   -4.2761758   -3.0418346  0.017207066   -4.2761758    1.2343412  1010000 
 1088000   0.82193829   -4.2751513   -4.2751513    -3.042245  0.020815665   -4.2751513    1.2329062  1010000 
 1089000   0.82271312   -4.2764198   -4.2764198   -3.0423513  0.018932228   -4.2764198    1.2340685  1010000 
 1090000   0.82274482   -4.2762994   -4.2762994   -3.0421834  0.020814675   -4.2762994     1.234116  1010000 
 1091000    0.8228327   -4.2768177   -4.2768177   -3.0425699  0.026310775   -4.2768177    1.2342478  1010000 
 1092000   0.82241211   -4.2763518   -4.2763518   -3.0427349  0.022246924   -4.2763518    1.2336169  1010000 
 1093000   0.82311582   -4.2770318   -4.2770318   -3.0423593  0.023077196   -4.2770318    1.2346725  1010000 
 1094000   0.82385614   -4.2781699   -4.2781699   -3.0423869  0.019384906   -4.2781699     1.235783  1010000 
 1095000   0.82345836    -4.277445    -4.277445   -3.0422587  0.024404704    -4.277445    1.2351863  1010000 
 1096000   0.82239587   -4.2768411   -4.2768411   -3.0432485  0.024933469   -4.2768411    1.2335926  1010000 
 1097000   0.82273613   -4.2771583   -4.2771583   -3.0430553  0.024053624   -4.2771583     1.234103  1010000 
 1098000   0.82376639   -4.2788151   -4.2788151   -3.0431667  0.020542193   -4.2788151    1.2356484  1010000 
 1099000   0.82387609   -4.2783217   -4.2783217   -3.0425088  0.021511263   -4.2783217    1.2358129  1010000 
 1100000   0.82247086   -4.2767205   -4.2767205   -3.0430154  0.029260956   -4.2767205    1.2337051  1010000 
 1101000   0.82352944   -4.2787757   -4.2787757   -3.0434827  0.027192418   -4.2787757    1.2352929  1010000 
 1102000   0.82244774   -4.2781448   -4.2781448   -3.0444744  0.023850539   -4.2781448    1.2336704  1010000 
 1103000   0.82255068   -4.2782872   -4.2782872   -3.0444624  0.024389014   -4.2782872    1.2338248  1010000 
 1104000    0.8232066   -4.2786452   -4.2786452   -3.0438365   0.02409588   -4.2786452    1.2348087  1010000 
 1105000   0.82335686   -4.2792723   -4.2792723   -3.0442382  0.018490754   -4.2792723    1.2350341  1010000 
 1106000    0.8229082   -4.2783282   -4.2783282   -3.0439671  0.022189704   -4.2783282    1.2343611  1010000 
 1107000   0.82223314   -4.2780769   -4.2780769   -3.0447284   0.01995709   -4.2780769    1.2333485  1010000 
 1108000   0.82274333   -4.2782451   -4.2782451   -3.0441313  0.019205327   -4.2782451    1.2341138  1010000 
 1109000   0.82276305   -4.2788126   -4.2788126   -3.0446693  0.020225685   -4.2788126    1.2341434  1010000 
 1110000   0.82232621   -4.2776647   -4.2776647   -3.0441766  0.022941995   -4.2776647    1.2334881  1010000 
 1111000   0.82321887   -4.2788507   -4.2788507   -3.0440236  0.018159641   -4.2788507    1.2348271  1010000 
 1112000    0.8228292   -4.2785811   -4.2785811   -3.0443385  0.021872895   -4.2785811    1.2342426  1010000 
 1113000   0.82240796   -4.2777079   -4.2777079   -3.0440972  0.023262828   -4.2777079    1.2336107  1010000 
 1114000   0.82264219    -4.277377    -4.277377    -3.043415  0.021389706    -4.277377    1.2339621  1010000 
 1115000   0.82392476   -4.2786586   -4.2786586   -3.0427727   0.02456193   -4.2786586    1.2358859  1010000 
 1116000    0.8232106   -4.2770962   -4.2770962   -3.0422815  0.022942507   -4.2770962    1.2348147  1010000 
 1117000   0.82253789    -4.276593    -4.276593   -3.0427874  0.023067998    -4.276593    1.2338056  1010000 
 1118000   0.82336687    -4.278303    -4.278303   -3.0432539   0.02004374    -4.278303    1.2350491  1010000 
 1119000   0.82238678   -4.2773298   -4.2773298   -3.0437508  0.022072468   -4.2773298     1.233579  1010000 
 1120000    0.8227784   -4.2785324   -4.2785324    -3.044366  0.020597635   -4.2785324    1.2341664  1010000 
 1121000   0.82274532    -4.278992    -4.278992   -3.0448752  0.019618863    -4.278992    1.2341168  1010000 
 1122000   0.82148667   -4.2772142   -4.2772142   -3.0449854  0.022221942   -4.2772142    1.2322288  1010000 
 1123000   0.82161447   -4.2772001   -4.2772001   -3.0447796   0.02200851   -4.2772001    1.2324205  1010000 
 1124000   0.82233382   -4.2785054   -4.2785054   -3.0450058   0.02059472   -4.2785054    1.2334995  1010000 
 1125000   0.82215504   -4.2784706   -4.2784706   -3.0452393  0.021103958   -4.2784706    1.2332313  1010000 
 1126000   0.82220051   -4.2785209   -4.2785209   -3.0452214  0.022779293   -4.2785209    1.2332995  1010000 
 1127000   0.82215793   -4.2785742   -4.2785742   -3.0453385  0.021217665   -4.2785742    1.2332357  1010000 
 1128000   0.82253219   -4.2796619   -4.2796619   -3.0458648  0.019712333   -4.2796619    1.2337971  1010000 
 1129000   0.82260468   -4.2794404   -4.2794404   -3.0455346  0.018849089   -4.2794404    1.2339058  1010000 
 1130000   0.82312986   -4.2797158   -4.2797158   -3.0450223  0.021034357   -4.2797158    1.2346936  1010000 
 1131000   0.82280169   -4.2795683   -4.2795683   -3.0453669  0.024669605   -4.2795683    1.2342013  1010000 
 1132000   0.82354369   -4.2812844   -4.2812844   -3.0459701  0.023997529   -4.2812844    1.2353143  1010000 
 1133000    0.8221816   -4.2798726   -4.2798726   -3.0466014  0.028156697   -4.2798726    1.2332712  1010000 
 1134000   0.82233388   -4.2803717   -4.2803717   -3.0468722  0.022516737   -4.2803717    1.2334996  1010000 
 1135000   0.82277319   -4.2810231   -4.2810231   -3.0468646  0.020874008   -4.2810231    1.2341586  1010000 
 1136000   0.82281589   -4.2811534   -4.2811534   -3.0469307  0.022646394   -4.2811534    1.2342226  1010000 
 1137000   0.82294778   -4.2812831   -4.2812831   -3.0468626  0.024780453   -4.2812831    1.2344205  1010000 
 1138000   0.82236137   -4.2811368   -4.2811368    -3.047596  0.024371014   -4.2811368    1.2335408  1010000 
 1139000   0.82262372    -4.281849    -4.281849   -3.0479146  0.020853078    -4.281849    1.2339344  1010000 
 1140000    0.8226811   -4.2814032   -4.2814032   -3.0473828  0.024795236   -4.2814032    1.2340204  1010000 
 1141000   0.82349205    -4.282509    -4.282509   -3.0472721  0.023919812    -4.282509    1.2352369  1010000 
 1142000   0.82327008   -4.2819116   -4.2819116   -3.0470077  0.023079308   -4.2819116    1.2349039  1010000 
 1143000   0.82325818   -4.2818928   -4.2818928   -3.0470067  0.023582832   -4.2818928     1.234886  1010000 
 1144000   0.82241368   -4.2801596   -4.2801596   -3.0465403  0.025868153   -4.2801596    1.2336193  1010000 
 1145000   0.82300851   -4.2811276   -4.2811276   -3.0466161  0.025044213   -4.2811276    1.2345115  1010000 
 1146000   0.82142442   -4.2798699   -4.2798699   -3.0477345  0.021401244   -4.2798699    1.2321354  1010000 
 1147000   0.82271431   -4.2823841   -4.2823841   -3.0483139  0.016652955   -4.2823841    1.2340702  1010000 
 1148000   0.82207718   -4.2805093   -4.2805093   -3.0473948  0.023896153   -4.2805093    1.2331145  1010000 
 1149000   0.82229251   -4.2811484   -4.2811484   -3.0477109  0.015670319   -4.2811484    1.2334375  1010000 
 1150000   0.82183082   -4.2808051   -4.2808051   -3.0480601  0.018703752   -4.2808051     1.232745  1010000 
 1151000   0.82209745   -4.2804988   -4.2804988   -3.0473539  0.016664574   -4.2804988    1.2331449  1010000 
 1152000   0.82218977    -4.281815    -4.281815   -3.0485316  0.015730845    -4.281815    1.2332834  1010000 
 1153000   0.82148764    -4.280869    -4.280869   -3.0486387  0.017992551    -4.280869    1.2322302  1010000 
 1154000   0.82137791   -4.2809259   -4.2809259   -3.0488603   0.01970699   -4.2809259    1.2320656  1010000 
 1155000    0.8204609   -4.2791077   -4.2791077   -3.0484176  0.021309512   -4.2791077    1.2306901  1010000 
 1156000   0.82225627   -4.2820143   -4.2820143   -3.0486312  0.018845675   -4.2820143    1.2333832  1010000 
 1157000   0.82275332   -4.2822255   -4.2822255   -3.0480968  0.019803317   -4.2822255    1.2341288  1010000 
 1158000    0.8218737   -4.2815929   -4.2815929   -3.0487836  0.022798801   -4.2815929    1.2328093  1010000 
 1159000   0.82242719   -4.2824828   -4.2824828   -3.0488432  0.022752466   -4.2824828    1.2336396  1010000 
 1160000   0.82169164   -4.2815815   -4.2815815   -3.0490453  0.022416958   -4.2815815    1.2325362  1010000 
 1161000   0.82193075   -4.2823843   -4.2823843   -3.0494894  0.025580061   -4.2823843    1.2328949  1010000 
 1162000   0.82168547   -4.2820924   -4.2820924   -3.0495654  0.027872484   -4.2820924     1.232527  1010000 
 1163000   0.82232367   -4.2829685   -4.2829685   -3.0494842   0.02001909   -4.2829685    1.2334843  1010000 
 1164000   0.82317502   -4.2843996   -4.2843996   -3.0496383  0.019041376   -4.2843996    1.2347613  1010000 
 1165000   0.82191499    -4.282889    -4.282889   -3.0500178  0.023952095    -4.282889    1.2328713  1010000 
 1166000   0.82326145   -4.2848009   -4.2848009   -3.0499099  0.020404227   -4.2848009    1.2348909  1010000 
 1167000   0.82297427   -4.2839779   -4.2839779   -3.0495177  0.022878527   -4.2839779    1.2344602  1010000 
 1168000   0.82276501   -4.2840798   -4.2840798   -3.0499335   0.02249665   -4.2840798    1.2341463  1010000 
 1169000   0.82239811   -4.2836508   -4.2836508   -3.0500549  0.023070011   -4.2836508    1.2335959  1010000 
 1170000   0.82222097   -4.2826977   -4.2826977   -3.0493674  0.023246202   -4.2826977    1.2333302  1010000 
 1171000   0.82218671   -4.2827588   -4.2827588     -3.04948  0.026015429   -4.2827588    1.2332788  1010000 
 1172000   0.82238657   -4.2833798   -4.2833798   -3.0498012  0.021596039   -4.2833798    1.2335786  1010000 
 1173000   0.82230076   -4.2837822   -4.2837822   -3.0503323  0.022633596   -4.2837822    1.2334499  1010000 
 1174000   0.82176766   -4.2832327   -4.2832327   -3.0505824  0.020897699   -4.2832327    1.2326503  1010000 
 1175000   0.82071576   -4.2821494   -4.2821494    -3.051077  0.019210244   -4.2821494    1.2310724  1010000 
 1176000   0.82120239   -4.2822117   -4.2822117   -3.0504094  0.020856119   -4.2822117    1.2318024  1010000 
 1177000   0.82217607    -4.283267    -4.283267   -3.0500041  0.016416613    -4.283267    1.2332629  1010000 
 1178000   0.82140697   -4.2816948   -4.2816948   -3.0495856   0.02162846   -4.2816948    1.2321092  1010000 
 1179000   0.82206977   -4.2826218   -4.2826218   -3.0495184  0.019457101   -4.2826218    1.2331034  1010000 
 1180000   0.82172987   -4.2829722   -4.2829722   -3.0503787  0.018281648   -4.2829722    1.2325936  1010000 
 1181000   0.82200506   -4.2834976   -4.2834976   -3.0504912  0.020823148   -4.2834976    1.2330064  1010000 
 1182000   0.82109412   -4.2821198   -4.2821198   -3.0504798  0.019329577   -4.2821198      1.23164  1010000 
 1183000   0.82166467    -4.283034    -4.283034   -3.0505382   0.01775105    -4.283034    1.2324958  1010000 
 1184000   0.82172902   -4.2831031   -4.2831031   -3.0505108  0.017964066   -4.2831031    1.2325923  1010000 
 1185000     0.820523   -4.2815797   -4.2815797   -3.0507964  0.019951626   -4.2815797    1.2307833  1010000 
 1186000   0.82138719    -4.284057    -4.284057   -3.0519774  0.016930217    -4.284057    1.2320796  1010000 
 1187000   0.82171938   -4.2843845   -4.2843845   -3.0518066  0.016614131   -4.2843845    1.2325778  1010000 
 1188000   0.82080249   -4.2832671   -4.2832671   -3.0520646   0.01849199   -4.2832671    1.2312025  1010000 
 1189000   0.82070009   -4.2833654   -4.2833654   -3.0523165  0.022258587   -4.2833654    1.2310489  1010000 
 1190000   0.82072958   -4.2834923   -4.2834923   -3.0523992  0.024085598   -4.2834923    1.2310932  1010000 
 1191000   0.82152479   -4.2846698   -4.2846698   -3.0523838  0.018972276   -4.2846698     1.232286  1010000 
 1192000   0.82200015   -4.2856158   -4.2856158   -3.0526168  0.025244401   -4.2856158     1.232999  1010000 
 1193000   0.82203118    -4.285849    -4.285849   -3.0528035  0.026260432    -4.285849    1.2330456  1010000 
 1194000   0.82176337    -4.285375    -4.285375   -3.0527312  0.021366394    -4.285375    1.2326438  1010000 
 1195000   0.82205909   -4.2859705   -4.2859705   -3.0528831  0.022048466   -4.2859705    1.2330874  1010000 
 1196000   0.82172604   -4.2865289   -4.2865289   -3.0539411  0.024106808   -4.2865289    1.2325878  1010000 
 1197000   0.82160757     -4.28639     -4.28639   -3.0539799  0.025198615     -4.28639    1.2324101  1010000 
 1198000   0.82211846   -4.2869642   -4.2869642   -3.0537877   0.02119579   -4.2869642    1.2331765  1010000 
 1199000   0.82235063   -4.2881398   -4.2881398   -3.0546151  0.020516948   -4.2881398    1.2335247  1010000 
 1200000   0.82109086   -4.2860493   -4.2860493   -3.0544142  0.025979929   -4.2860493    1.2316351  1010000 
 1201000   0.82114525   -4.2866672   -4.2866672   -3.0549505  0.022764407   -4.2866672    1.2317167  1010000 
 1202000   0.82081441   -4.2868635   -4.2868635   -3.0556431  0.022613016   -4.2868635    1.2312204  1010000 
 1203000   0.82049702   -4.2865475   -4.2865475   -3.0558032  0.022054817   -4.2865475    1.2307443  1010000 
 1204000   0.82158337   -4.2882191   -4.2882191   -3.0558453  0.018682125   -4.2882191    1.2323738  1010000 
 1205000   0.82158527   -4.2883934   -4.2883934   -3.0560168  0.017529397   -4.2883934    1.2323767  1010000 
 1206000   0.82102081   -4.2870559   -4.2870559   -3.0555259  0.016637803   -4.2870559      1.23153  1010000 
 1207000   0.82058897   -4.2866829   -4.2866829   -3.0558006  0.018466239   -4.2866829    1.2308822  1010000 
 1208000   0.82082496   -4.2870756   -4.2870756   -3.0558393  0.024624252   -4.2870756    1.2312362  1010000 
 1209000   0.82058505   -4.2868605   -4.2868605   -3.0559841  0.022804129   -4.2868605    1.2308764  1010000 
 1210000   0.82095387   -4.2868645   -4.2868645   -3.0554349  0.019091458   -4.2868645    1.2314296  1010000 
 1211000   0.82134529   -4.2876521   -4.2876521   -3.0556354  0.018059266   -4.2876521    1.2320167  1010000 
 1212000   0.82126931   -4.2879461   -4.2879461   -3.0560434  0.017503635   -4.2879461    1.2319027  1010000 
 1213000   0.82082946   -4.2873765   -4.2873765   -3.0561336  0.017053771   -4.2873765     1.231243  1010000 
 1214000   0.82064315   -4.2865218   -4.2865218   -3.0555583  0.024408877   -4.2865218    1.2309635  1010000 
 1215000   0.82049894   -4.2867091   -4.2867091   -3.0559619  0.021262677   -4.2867091    1.2307472  1010000 
 1216000    0.8208168   -4.2876693   -4.2876693   -3.0564454  0.020259812   -4.2876693     1.231224  1010000 
 1217000   0.82120905   -4.2873707   -4.2873707   -3.0555583  0.019579032   -4.2873707    1.2318124  1010000 
 1218000   0.81997351   -4.2856497   -4.2856497   -3.0556906  0.021183942   -4.2856497     1.229959  1010000 
 1219000   0.82185224   -4.2885492   -4.2885492   -3.0557721  0.018710805   -4.2885492    1.2327771  1010000 
 1220000   0.82110242   -4.2869228   -4.2869228   -3.0552704   0.02096928   -4.2869228    1.2316524  1010000 
 1221000   0.82101823   -4.2876116   -4.2876116   -3.0560854  0.021134103   -4.2876116    1.2315261  1010000 
 1222000   0.82090201   -4.2869652   -4.2869652   -3.0556134  0.021259941   -4.2869652    1.2313518  1010000 
 1223000    0.8210914   -4.2872862   -4.2872862   -3.0556504  0.016234621   -4.2872862    1.2316359  1010000 
 1224000   0.82126247   -4.2880203   -4.2880203   -3.0561278  0.019701313   -4.2880203    1.2318925  1010000 
 1225000   0.82059163   -4.2863717   -4.2863717   -3.0554855  0.022712475   -4.2863717    1.2308862  1010000 
 1226000   0.82078903   -4.2877705   -4.2877705   -3.0565882  0.022777134   -4.2877705    1.2311823  1010000 
 1227000   0.82004613   -4.2872003   -4.2872003   -3.0571323  0.018762702   -4.2872003     1.230068  1010000 
 1228000   0.82087486   -4.2886159   -4.2886159   -3.0573048  0.019334211   -4.2886159    1.2313111  1010000 
 1229000   0.82008665   -4.2876254   -4.2876254   -3.0574966  0.018362889   -4.2876254    1.2301288  1010000 
 1230000   0.82019036   -4.2877403   -4.2877403   -3.0574559  0.016740899   -4.2877403    1.2302843  1010000 
 1231000   0.82008363   -4.2875231   -4.2875231   -3.0573989  0.019989189   -4.2875231    1.2301242  1010000 
 1232000   0.82101275   -4.2888616   -4.2888616   -3.0573437  0.018835227   -4.2888616    1.2315179  1010000 
 1233000   0.82133176   -4.2895756   -4.2895756   -3.0575792   0.01912742   -4.2895756    1.2319964  1010000 
 1234000   0.82153067   -4.2888009   -4.2888009   -3.0565061  0.020894704   -4.2888009    1.2322948  1010000 
 1235000   0.82112094   -4.2883413   -4.2883413   -3.0566611  0.022864001   -4.2883413    1.2316802  1010000 
 1236000   0.82184973   -4.2889449   -4.2889449   -3.0561715  0.022777913   -4.2889449    1.2327734  1010000 
 1237000   0.82149162   -4.2883593   -4.2883593   -3.0561231  0.024146339   -4.2883593    1.2322362  1010000 
 1238000   0.82174387   -4.2887444   -4.2887444   -3.0561299  0.020762502   -4.2887444    1.2326146  1010000 
 1239000   0.82097447   -4.2884634   -4.2884634   -3.0570029  0.018685992   -4.2884634    1.2314605  1010000 
 1240000   0.82059914   -4.2882573   -4.2882573   -3.0573598  0.021583641   -4.2882573    1.2308975  1010000 
 1241000   0.82000208   -4.2879423   -4.2879423   -3.0579404   0.02146096   -4.2879423    1.2300019  1010000 
 1242000   0.82011378   -4.2886944   -4.2886944    -3.058525  0.022651406   -4.2886944    1.2301695  1010000 
 1243000    0.8194928   -4.2876721   -4.2876721   -3.0584341  0.020621631   -4.2876721     1.229238  1010000 
 1244000   0.82049753   -4.2893582   -4.2893582   -3.0586132  0.016132876   -4.2893582    1.2307451  1010000 
 1245000   0.81999281   -4.2881304   -4.2881304   -3.0581424  0.021073097   -4.2881304     1.229988  1010000 
 1246000   0.82040672   -4.2891997   -4.2891997   -3.0585908  0.017920592   -4.2891997    1.2306089  1010000 
 1247000   0.82060867   -4.2898672   -4.2898672   -3.0589554  0.018559031   -4.2898672    1.2309118  1010000 
 1248000   0.82047176   -4.2898047   -4.2898047   -3.0590983   0.01736294   -4.2898047    1.2307064  1010000 
 1249000   0.82047917   -4.2901588   -4.2901588   -3.0594413  0.019046796   -4.2901588    1.2307175  1010000 
 1250000   0.82069498   -4.2900004   -4.2900004   -3.0589591  0.018879716   -4.2900004    1.2310413  1010000 
 1251000   0.82031191   -4.2893032   -4.2893032   -3.0588365   0.02158873   -4.2893032    1.2304666  1010000 
 1252000   0.82067509   -4.2902554   -4.2902554   -3.0592439  0.020209298   -4.2902554    1.2310114  1010000 
 1253000   0.82054417   -4.2894202   -4.2894202   -3.0586052  0.019991236   -4.2894202     1.230815  1010000 
 1254000   0.82102246   -4.2901541   -4.2901541   -3.0586216  0.022825048   -4.2901541    1.2315325  1010000 
 1255000   0.82079679   -4.2906685   -4.2906685   -3.0594746  0.017553781   -4.2906685     1.231194  1010000 
 1256000   0.82077816   -4.2905542   -4.2905542   -3.0593882  0.019751534   -4.2905542     1.231166  1010000 
 1257000   0.81986156   -4.2891767   -4.2891767   -3.0593855  0.023111055   -4.2891767    1.2297911  1010000 
 1258000   0.81995113   -4.2893282   -4.2893282   -3.0594027  0.022101126   -4.2893282    1.2299255  1010000 
 1259000      0.82008   -4.2893846   -4.2893846   -3.0592658  0.022819529   -4.2893846    1.2301188  1010000 
 1260000   0.81982572   -4.2897716   -4.2897716   -3.0600343  0.023849292   -4.2897716    1.2297374  1010000 
 1261000   0.81996684   -4.2904167   -4.2904167   -3.0604677  0.017627082   -4.2904167     1.229949  1010000 
 1262000   0.82015613    -4.290777    -4.290777    -3.060544  0.019461107    -4.290777     1.230233  1010000 
 1263000   0.81971964   -4.2902189   -4.2902189   -3.0606406  0.019859769   -4.2902189    1.2295782  1010000 
 1264000   0.81930925   -4.2900459   -4.2900459   -3.0610832  0.019137413   -4.2900459    1.2289627  1010000 
 1265000   0.82024258   -4.2907398   -4.2907398   -3.0603771  0.017698008   -4.2907398    1.2303627  1010000 
 1266000   0.81989343   -4.2906629   -4.2906629    -3.060824  0.017512549   -4.2906629    1.2298389  1010000 
 1267000   0.82029599   -4.2915627   -4.2915627   -3.0611199  0.019147562   -4.2915627    1.2304428  1010000 
 1268000   0.82045546   -4.2914533   -4.2914533   -3.0607714  0.020945737   -4.2914533     1.230682  1010000 
 1269000   0.82081192    -4.292471    -4.292471   -3.0612544  0.019645125    -4.292471    1.2312167  1010000 
 1270000   0.82049142   -4.2922527   -4.2922527   -3.0615168   0.01904778   -4.2922527    1.2307359  1010000 
 1271000   0.81978102   -4.2917701   -4.2917701   -3.0620998  0.020624153   -4.2917701    1.2296703  1010000 
 1272000   0.81993652   -4.2917671   -4.2917671   -3.0618635  0.022742492   -4.2917671    1.2299036  1010000 
 1273000   0.82006232   -4.2921679   -4.2921679   -3.0620757  0.020687217   -4.2921679    1.2300923  1010000 
 1274000   0.82034978   -4.2916338   -4.2916338   -3.0611104  0.024347823   -4.2916338    1.2305235  1010000 
 1275000   0.82060022    -4.292054    -4.292054   -3.0611549  0.020224179    -4.292054    1.2308991  1010000 
 1276000   0.82149293   -4.2927803   -4.2927803   -3.0605421  0.022143603   -4.2927803    1.2322382  1010000 
 1277000   0.82139732   -4.2926899   -4.2926899   -3.0605951  0.024942142   -4.2926899    1.2320948  1010000 
 1278000   0.82093726   -4.2924104   -4.2924104   -3.0610058  0.024502936   -4.2924104    1.2314047  1010000 
 1279000   0.82146848   -4.2930983   -4.2930983   -3.0608968  0.023810384   -4.2930983    1.2322015  1010000 
 1280000   0.82079804   -4.2918361   -4.2918361   -3.0606402  0.025085809   -4.2918361    1.2311958  1010000 
 1281000   0.82060893   -4.2914818   -4.2914818   -3.0605697  0.020382822   -4.2914818    1.2309122  1010000 
 1282000   0.82079894   -4.2914495   -4.2914495   -3.0602523  0.018077775   -4.2914495    1.2311972  1010000 
 1283000   0.81978503   -4.2901156   -4.2901156   -3.0604392  0.020100889   -4.2901156    1.2296763  1010000 
 1284000   0.81935028   -4.2897001   -4.2897001   -3.0606759   0.01996532   -4.2897001    1.2290242  1010000 
 1285000   0.82005066   -4.2903967   -4.2903967   -3.0603219  0.020923951   -4.2903967    1.2300748  1010000 
 1286000   0.82019556   -4.2903947   -4.2903947   -3.0601025  0.020109403   -4.2903947    1.2302921  1010000 
 1287000   0.81915905   -4.2894507   -4.2894507   -3.0607134  0.018015229   -4.2894507    1.2287374  1010000 
 1288000   0.81947181   -4.2896279   -4.2896279   -3.0604214  0.016878008   -4.2896279    1.2292065  1010000 
 1289000   0.81916675   -4.2896374   -4.2896374   -3.0608885  0.017423449   -4.2896374    1.2287489  1010000 
 1290000   0.81939934    -4.290063    -4.290063   -3.0609652  0.016165876    -4.290063    1.2290978  1010000 
 1291000   0.81806126   -4.2888745   -4.2888745   -3.0617838  0.015607118   -4.2888745    1.2270907  1010000 
 1292000   0.81938597   -4.2901415   -4.2901415   -3.0610637  0.015779409   -4.2901415    1.2290777  1010000 
 1293000   0.81926447    -4.289859    -4.289859   -3.0609635  0.012845461    -4.289859    1.2288955  1010000 
 1294000   0.82046286   -4.2920157   -4.2920157   -3.0613227  0.011859236   -4.2920157    1.2306931  1010000 
 1295000    0.8202218   -4.2917052   -4.2917052   -3.0613737  0.014939972   -4.2917052    1.2303315  1010000 
 1296000   0.81882051   -4.2904912   -4.2904912   -3.0622616  0.021580959   -4.2904912    1.2282295  1010000 
 1297000   0.81942859   -4.2914638   -4.2914638   -3.0623222  0.019817149   -4.2914638    1.2291417  1010000 
 1298000   0.82008397    -4.292082    -4.292082   -3.0619573  0.019384266    -4.292082    1.2301247  1010000 
 1299000   0.81990875   -4.2918491   -4.2918491   -3.0619872  0.016827849   -4.2918491    1.2298619  1010000 
 1300000   0.82039088   -4.2927268   -4.2927268   -3.0621417   0.02083573   -4.2927268    1.2305851  1010000 
 1301000   0.82106375   -4.2936751   -4.2936751   -3.0620807  0.023530136   -4.2936751    1.2315944  1010000 
 1302000   0.82115373   -4.2936959   -4.2936959   -3.0619665  0.022210884   -4.2936959    1.2317294  1010000 
 1303000     0.820744   -4.2929462   -4.2929462   -3.0618315  0.025847335   -4.2929462    1.2311148  1010000 
 1304000   0.82112774    -4.293323    -4.293323   -3.0616326  0.025829185    -4.293323    1.2316904  1010000 
 1305000   0.82187685   -4.2942294   -4.2942294   -3.0614153  0.026795323   -4.2942294    1.2328141  1010000 
 1306000   0.82164085   -4.2940228   -4.2940228   -3.0615628   0.02866538   -4.2940228    1.2324601  1010000 
 1307000   0.82111663   -4.2933042   -4.2933042   -3.0616305  0.026972707   -4.2933042    1.2316737  1010000 
 1308000    0.8207247   -4.2936216   -4.2936216   -3.0625357  0.022275503   -4.2936216    1.2310858  1010000 
 1309000    0.8212033   -4.2938668   -4.2938668   -3.0620631     0.021876   -4.2938668    1.2318037  1010000 
 1310000   0.81963905   -4.2924241   -4.2924241   -3.0629667  0.024099146   -4.2924241    1.2294574  1010000 
 1311000   0.81967512   -4.2927518   -4.2927518   -3.0632404  0.020944758   -4.2927518    1.2295115  1010000 
 1312000   0.81923207   -4.2922302   -4.2922302   -3.0633833  0.021003146   -4.2922302    1.2288469  1010000 
 1313000   0.81976919   -4.2934862   -4.2934862   -3.0638337  0.020123002   -4.2934862    1.2296526  1010000 
 1314000   0.81973332   -4.2927258   -4.2927258    -3.063127  0.018052238   -4.2927258    1.2295988  1010000 
 1315000   0.81971214   -4.2924301   -4.2924301   -3.0628631  0.016572771   -4.2924301     1.229567  1010000 
 1316000    0.8191825   -4.2914215   -4.2914215   -3.0626489  0.018014234   -4.2914215    1.2287725  1010000 
 1317000   0.81876503   -4.2908319   -4.2908319   -3.0626855  0.021045082   -4.2908319    1.2281463  1010000 
 1318000   0.81945903   -4.2915901   -4.2915901   -3.0624028  0.018400463   -4.2915901    1.2291873  1010000 
 1319000   0.81984201   -4.2920217   -4.2920217   -3.0622599  0.017302858   -4.2920217    1.2297618  1010000 
 1320000   0.81977518   -4.2920171   -4.2920171   -3.0623555  0.016778369   -4.2920171    1.2296616  1010000 
 1321000    0.8192465   -4.2911065   -4.2911065   -3.0622379  0.018455504   -4.2911065    1.2288685  1010000 
 1322000   0.81990892   -4.2920843   -4.2920843   -3.0622221  0.018327388   -4.2920843    1.2298622  1010000 
 1323000   0.81974141   -4.2918945   -4.2918945   -3.0622836  0.017357918   -4.2918945    1.2296109  1010000 
 1324000   0.82022036   -4.2933454   -4.2933454    -3.063016  0.015912735   -4.2933454    1.2303293  1010000 
 1325000   0.81860183   -4.2908981   -4.2908981   -3.0629965  0.022091156   -4.2908981    1.2279015  1010000 
 1326000    0.8199411   -4.2930545   -4.2930545    -3.063144  0.018734216   -4.2930545    1.2299104  1010000 
 1327000   0.81977739   -4.2929873   -4.2929873   -3.0633224  0.021062624   -4.2929873    1.2296649  1010000 
 1328000   0.81977901   -4.2935131   -4.2935131   -3.0638458  0.017442978   -4.2935131    1.2296673  1010000 
 1329000   0.81984691   -4.2931203   -4.2931203   -3.0633512  0.018709393   -4.2931203    1.2297692  1010000 
 1330000    0.8199127   -4.2940707   -4.2940707   -3.0642028  0.020738324   -4.2940707    1.2298678  1010000 
 1331000   0.82078399   -4.2946583   -4.2946583   -3.0634836  0.019525725   -4.2946583    1.2311748  1010000 
 1332000   0.82076053   -4.2946937   -4.2946937   -3.0635541  0.020528236   -4.2946937    1.2311396  1010000 
 1333000   0.82037283   -4.2943056   -4.2943056   -3.0637476  0.024789053   -4.2943056     1.230558  1010000 
 1334000    0.8208534   -4.2955326   -4.2955326   -3.0642537  0.019383738   -4.2955326    1.2312789  1010000 
 1335000   0.82068681   -4.2951663   -4.2951663   -3.0641373   0.02429193   -4.2951663     1.231029  1010000 
 1336000       0.8205    -4.295056    -4.295056   -3.0643072  0.024086318    -4.295056    1.2307488  1010000 
 1337000   0.82018906   -4.2944396   -4.2944396   -3.0641572  0.024777683   -4.2944396    1.2302824  1010000 
 1338000   0.82064709   -4.2949464   -4.2949464    -3.063977  0.025035008   -4.2949464    1.2309694  1010000 
 1339000   0.82030201   -4.2951201   -4.2951201   -3.0646683  0.017386796   -4.2951201    1.2304518  1010000 
 1340000   0.81961599   -4.2946571   -4.2946571   -3.0652344   0.02269677   -4.2946571    1.2294228  1010000 
 1341000   0.82001695   -4.2947055   -4.2947055   -3.0646813  0.020921115   -4.2947055    1.2300242  1010000 
 1342000   0.81978346   -4.2952689   -4.2952689   -3.0655949  0.019756591   -4.2952689     1.229674  1010000 
 1343000   0.82023808    -4.296446    -4.296446   -3.0660901  0.013423763    -4.296446    1.2303559  1010000 
 1344000   0.81928128   -4.2948261   -4.2948261   -3.0659054  0.018352366   -4.2948261    1.2289207  1010000 
 1345000   0.81857821   -4.2944861   -4.2944861     -3.06662  0.018661878   -4.2944861    1.2278661  1010000 
 1346000   0.81893457   -4.2949136   -4.2949136    -3.066513  0.016077734   -4.2949136    1.2284006  1010000 
 1347000   0.81884128   -4.2948141   -4.2948141   -3.0665534  0.016178157   -4.2948141    1.2282607  1010000 
 1348000   0.81921396   -4.2959226   -4.2959226   -3.0671029  0.016277677   -4.2959226    1.2288197  1010000 
 1349000    0.8203051   -4.2967197   -4.2967197   -3.0662632  0.013489651   -4.2967197    1.2304564  1010000 
 1350000   0.81923251   -4.2952549   -4.2952549   -3.0664073  0.021743562   -4.2952549    1.2288475  1010000 
 1351000   0.81922673   -4.2959469   -4.2959469    -3.067108  0.019567784   -4.2959469    1.2288389  1010000 
 1352000   0.81969053   -4.2961512   -4.2961512   -3.0666166  0.019119349   -4.2961512    1.2295346  1010000 
 1353000   0.81901363   -4.2951117   -4.2951117   -3.0665925  0.025306221   -4.2951117    1.2285192  1010000 
 1354000   0.81926329   -4.2956824   -4.2956824   -3.0667887  0.021375513   -4.2956824    1.2288937  1010000 
 1355000   0.81926096   -4.2959947   -4.2959947   -3.0671045  0.023429918   -4.2959947    1.2288902  1010000 
 1356000   0.81947542   -4.2968727   -4.2968727   -3.0676607  0.021553319   -4.2968727    1.2292119  1010000 
 1357000   0.81985462   -4.2972883   -4.2972883   -3.0675076  0.022826262   -4.2972883    1.2297807  1010000 
 1358000   0.81962171   -4.2972081   -4.2972081   -3.0677768   0.02016703   -4.2972081    1.2294313  1010000 
 1359000   0.81964827   -4.2973501   -4.2973501   -3.0678789  0.022467985   -4.2973501    1.2294712  1010000 
 1360000   0.81953012   -4.2971282   -4.2971282   -3.0678343  0.022619444   -4.2971282     1.229294  1010000 
 1361000   0.81984174   -4.2973933   -4.2973933   -3.0676319  0.021312464   -4.2973933    1.2297614  1010000 
 1362000    0.8189132    -4.295993    -4.295993   -3.0676245  0.024474648    -4.295993    1.2283686  1010000 
 1363000   0.81992201    -4.297433    -4.297433   -3.0675512  0.022809502    -4.297433    1.2298818  1010000 
 1364000   0.81980497   -4.2973931   -4.2973931   -3.0676869  0.021305293   -4.2973931    1.2297062  1010000 
 1365000    0.8190943   -4.2968432   -4.2968432   -3.0682029  0.022917691   -4.2968432    1.2286402  1010000 
 1366000    0.8191569   -4.2970008   -4.2970008   -3.0682666  0.018803804   -4.2970008    1.2287341  1010000 
 1367000   0.81914019   -4.2969384   -4.2969384   -3.0682294  0.017119524   -4.2969384    1.2287091  1010000 
 1368000   0.81869581   -4.2959313   -4.2959313   -3.0678888  0.020952407   -4.2959313    1.2280425  1010000 
 1369000   0.81979359    -4.297037    -4.297037   -3.0673478   0.01690262    -4.297037    1.2296892  1010000 
 1370000   0.81928089   -4.2965132   -4.2965132   -3.0675931  0.015855697   -4.2965132    1.2289201  1010000 
 1371000    0.8187904   -4.2963134   -4.2963134    -3.068129  0.016687508   -4.2963134    1.2281844  1010000 
 1372000   0.81917344   -4.2962146   -4.2962146   -3.0674557  0.019027127   -4.2962146    1.2287589  1010000 
 1373000   0.81814328   -4.2950825   -4.2950825   -3.0678688  0.020236469   -4.2950825    1.2272137  1010000 
 1374000   0.81855865   -4.2951141   -4.2951141   -3.0672774  0.021828917   -4.2951141    1.2278368  1010000 
 1375000   0.81812765   -4.2944719   -4.2944719   -3.0672816  0.023460909   -4.2944719    1.2271903  1010000 
 1376000   0.81867193   -4.2955169   -4.2955169   -3.0675102  0.019399111   -4.2955169    1.2280067  1010000 
 1377000   0.81886023   -4.2960502   -4.2960502   -3.0677611  0.015864147   -4.2960502    1.2282891  1010000 
 1378000   0.81903753   -4.2960506   -4.2960506   -3.0674956  0.016642582   -4.2960506    1.2285551  1010000 
 1379000   0.81859352   -4.2952742   -4.2952742   -3.0673851  0.018931507   -4.2952742    1.2278891  1010000 
 1380000   0.81908864   -4.2954888   -4.2954888    -3.066857  0.021959688   -4.2954888    1.2286317  1010000 
 1381000   0.81980082   -4.2963776   -4.2963776   -3.0666776  0.021834454   -4.2963776       1.2297  1010000 
 1382000   0.81986865   -4.2971361   -4.2971361   -3.0673344   0.02069942   -4.2971361    1.2298018  1010000 
 1383000   0.81969858   -4.2968891   -4.2968891   -3.0673424   0.02002229   -4.2968891    1.2295467  1010000 
 1384000   0.81923483   -4.2966306   -4.2966306   -3.0677796  0.022635513   -4.2966306     1.228851  1010000 
 1385000   0.81943126   -4.2965728   -4.2965728   -3.0674271  0.025194726   -4.2965728    1.2291457  1010000 
 1386000   0.81867923   -4.2963904   -4.2963904   -3.0683728  0.021043871   -4.2963904    1.2280176  1010000 
 1387000   0.81944625   -4.2978575   -4.2978575   -3.0686893  0.016505383   -4.2978575    1.2291682  1010000 
 1388000   0.81887785   -4.2972655   -4.2972655   -3.0689499    0.0195765   -4.2972655    1.2283156  1010000 
 1389000   0.81841426   -4.2970103   -4.2970103   -3.0693901  0.019192606   -4.2970103    1.2276202  1010000 
 1390000   0.81851636   -4.2974415   -4.2974415   -3.0696681  0.023889032   -4.2974415    1.2277733  1010000 
 1391000   0.81924962   -4.2984966   -4.2984966   -3.0696234  0.018589434   -4.2984966    1.2288732  1010000 
 1392000   0.81899476   -4.2980101   -4.2980101   -3.0695191  0.022147792   -4.2980101    1.2284909  1010000 
 1393000   0.81894097   -4.2981396   -4.2981396   -3.0697294  0.021015606   -4.2981396    1.2284102  1010000 
 1394000   0.81925929   -4.2988644   -4.2988644   -3.0699767  0.020926003   -4.2988644    1.2288877  1010000 
 1395000   0.81860233    -4.297997    -4.297997   -3.0700947  0.021712409    -4.297997    1.2279023  1010000 
 1396000   0.81966842   -4.2992082   -4.2992082   -3.0697068  0.019675263   -4.2992082    1.2295014  1010000 
 1397000   0.81940877   -4.2991934   -4.2991934   -3.0700815  0.017186539   -4.2991934    1.2291119  1010000 
 1398000    0.8195128   -4.2997969   -4.2997969   -3.0705289  0.018785219   -4.2997969     1.229268  1010000 
 1399000   0.81854634   -4.2978154   -4.2978154   -3.0699971  0.023390505   -4.2978154    1.2278183  1010000 
 1400000   0.81904821   -4.2992758   -4.2992758   -3.0707047  0.018962137   -4.2992758    1.2285711  1010000 
 1401000   0.81806801    -4.297787    -4.297787   -3.0706862  0.024694614    -4.297787    1.2271008  1010000 
 1402000   0.81872306   -4.2989442   -4.2989442   -3.0708609  0.020315137   -4.2989442    1.2280834  1010000 
 1403000   0.81898607   -4.2992021   -4.2992021   -3.0707242  0.023773842   -4.2992021    1.2284779  1010000 
 1404000   0.81865472   -4.2995348   -4.2995348    -3.071554  0.020308515   -4.2995348    1.2279809  1010000 
 1405000   0.81802704    -4.298641    -4.298641   -3.0716017  0.022950611    -4.298641    1.2270393  1010000 
 1406000   0.81857751    -4.299144    -4.299144   -3.0712789   0.01641503    -4.299144    1.2278651  1010000 
 1407000   0.81866379    -4.299672    -4.299672   -3.0716776  0.019614378    -4.299672    1.2279945  1010000 
 1408000   0.81899029    -4.300301    -4.300301   -3.0718168  0.018416585    -4.300301    1.2284842  1010000 
 1409000   0.81904203   -4.3003593   -4.3003593   -3.0717974  0.022461224   -4.3003593    1.2285618  1010000 
 1410000   0.81916143   -4.3008425   -4.3008425   -3.0721015  0.020554383   -4.3008425    1.2287409  1010000 
 1411000   0.81848869   -4.2999901   -4.2999901   -3.0722583   0.02332549   -4.2999901    1.2277318  1010000 
 1412000   0.81931135   -4.3011267   -4.3011267   -3.0721609  0.020886052   -4.3011267    1.2289658  1010000 
 1413000   0.81890245   -4.3003498   -4.3003498   -3.0719974  0.020893529   -4.3003498    1.2283525  1010000 
 1414000    0.8182893   -4.3001877   -4.3001877   -3.0727549  0.019781188   -4.3001877    1.2274327  1010000 
 1415000   0.81718387   -4.2994349   -4.2994349   -3.0736603  0.020196123   -4.2994349    1.2257746  1010000 
 1416000   0.81749193   -4.2997768   -4.2997768   -3.0735401  0.018392322   -4.2997768    1.2262367  1010000 
 1417000   0.81809343   -4.3009637   -4.3009637   -3.0738248  0.015450702   -4.3009637    1.2271389  1010000 
 1418000   0.81758766   -4.2998151   -4.2998151   -3.0734349  0.021229211   -4.2998151    1.2263803  1010000 
 1419000   0.81853775   -4.3006942   -4.3006942   -3.0728888  0.018457316   -4.3006942    1.2278054  1010000 
 1420000   0.81823654   -4.3004877   -4.3004877   -3.0731341  0.022305226   -4.3004877    1.2273536  1010000 
 1421000   0.81867478   -4.3007535   -4.3007535   -3.0727425   0.02376477   -4.3007535     1.228011  1010000 
 1422000   0.81850761   -4.3009913   -4.3009913   -3.0732311  0.020076265   -4.3009913    1.2277602  1010000 
 1423000    0.8190556      -4.3012      -4.3012   -3.0726178   0.01999233      -4.3012    1.2285822  1010000 
 1424000   0.81840568   -4.3001621   -4.3001621   -3.0725548  0.021047794   -4.3001621    1.2276073  1010000 
 1425000     0.819033   -4.3016557   -4.3016557   -3.0731074  0.017018753   -4.3016557    1.2285483  1010000 
 1426000   0.81854727   -4.3005049   -4.3005049   -3.0726852  0.020848702   -4.3005049    1.2278197  1010000 
 1427000   0.81842687   -4.3005237   -4.3005237   -3.0728846  0.019573665   -4.3005237    1.2276391  1010000 
 1428000   0.81860468    -4.301285    -4.301285   -3.0733792  0.021715319    -4.301285    1.2279058  1010000 
 1429000   0.81799938   -4.3014964   -4.3014964   -3.0744985  0.018962699   -4.3014964    1.2269979  1010000 
 1430000   0.81854825   -4.3018682   -4.3018682    -3.074047  0.017796025   -4.3018682    1.2278212  1010000 
 1431000   0.81830863   -4.3015559   -4.3015559   -3.0740941  0.018843384   -4.3015559    1.2274617  1010000 
 1432000   0.81830151   -4.3008601   -4.3008601   -3.0734091  0.020681804   -4.3008601     1.227451  1010000 
 1433000   0.81775947   -4.3010154   -4.3010154   -3.0743774  0.019787742   -4.3010154     1.226638  1010000 
 1434000   0.81819886   -4.3011511   -4.3011511   -3.0738541  0.019925645   -4.3011511    1.2272971  1010000 
 1435000   0.81740406   -4.3000192   -4.3000192   -3.0739143  0.020098126   -4.3000192    1.2261049  1010000 
 1436000   0.81790527   -4.3011726   -4.3011726   -3.0743159  0.019162856   -4.3011726    1.2268567  1010000 
 1437000    0.8172459   -4.2997278   -4.2997278   -3.0738602  0.021218481   -4.2997278    1.2258676  1010000 
 1438000   0.81860847     -4.30234     -4.30234   -3.0744285  0.016610561     -4.30234    1.2279115  1010000 
 1439000   0.81818947   -4.3016167   -4.3016167   -3.0743337  0.016447946   -4.3016167     1.227283  1010000 
 1440000   0.81837351   -4.3017921   -4.3017921   -3.0742331  0.018430613   -4.3017921    1.2275591  1010000 
 1441000   0.81762796   -4.3005733   -4.3005733   -3.0741326  0.024786042   -4.3005733    1.2264407  1010000 
 1442000   0.81818822    -4.301292    -4.301292   -3.0740109  0.019408473    -4.301292    1.2272811  1010000 
 1443000   0.81869358   -4.3024866   -4.3024866   -3.0744475  0.018995738   -4.3024866    1.2280392  1010000 
 1444000   0.81809426   -4.3013176   -4.3013176   -3.0741775  0.018046875   -4.3013176    1.2271402  1010000 
 1445000   0.81873554   -4.3022875   -4.3022875   -3.0741854  0.018875049   -4.3022875    1.2281021  1010000 
 1446000   0.81846113   -4.3020401   -4.3020401   -3.0743496  0.019025801   -4.3020401    1.2276905  1010000 
 1447000   0.81829768   -4.3021956   -4.3021956   -3.0747503    0.0213989   -4.3021956    1.2274453  1010000 
 1448000   0.81893156   -4.3028967   -4.3028967   -3.0745006   0.01802534   -4.3028967    1.2283961  1010000 
 1449000   0.81811434   -4.3015185   -4.3015185   -3.0743482  0.019051681   -4.3015185    1.2271703  1010000 
 1450000   0.81905724   -4.3031537   -4.3031537    -3.074569  0.020951632   -4.3031537    1.2285846  1010000 
 1451000     0.817753   -4.3010958   -4.3010958   -3.0744675  0.021869537   -4.3010958    1.2266283  1010000 
 1452000    0.8185483   -4.3015674   -4.3015674   -3.0737462  0.024117944   -4.3015674    1.2278212  1010000 
 1453000   0.81854889    -4.302913    -4.302913   -3.0750909  0.022542187    -4.302913    1.2278221  1010000 
 1454000   0.81826246   -4.3024761   -4.3024761   -3.0750837  0.021645392   -4.3024761    1.2273925  1010000 
 1455000   0.81825925   -4.3025561   -4.3025561   -3.0751684  0.019623179   -4.3025561    1.2273877  1010000 
 1456000   0.81821071   -4.3028323   -4.3028323   -3.0755174  0.014281799   -4.3028323    1.2273149  1010000 
 1457000   0.81715475   -4.3017074   -4.3017074   -3.0759765  0.018406349   -4.3017074    1.2257309  1010000 
 1458000   0.81712162    -4.301678    -4.301678   -3.0759968  0.017328793    -4.301678    1.2256812  1010000 
 1459000   0.81683221   -4.3016694   -4.3016694   -3.0764223  0.016154163   -4.3016694    1.2252471  1010000 
 1460000   0.81703835   -4.3011297   -4.3011297   -3.0755733  0.018156494   -4.3011297    1.2255563  1010000 
 1461000   0.81778072   -4.3020306   -4.3020306   -3.0753607  0.021139315   -4.3020306    1.2266699  1010000 
 1462000   0.81797878   -4.3027622   -4.3027622   -3.0757952  0.021478565   -4.3027622     1.226967  1010000 
 1463000   0.81828208    -4.302961    -4.302961   -3.0755391  0.021230597    -4.302961    1.2274219  1010000 
 1464000   0.81842001   -4.3032574   -4.3032574   -3.0756286  0.019559862   -4.3032574    1.2276288  1010000 
 1465000   0.81824621   -4.3024807   -4.3024807   -3.0751126  0.020662189   -4.3024807    1.2273681  1010000 
 1466000   0.81826483   -4.3024898   -4.3024898   -3.0750937   0.02346918   -4.3024898     1.227396  1010000 
 1467000   0.81822931   -4.3025498   -4.3025498    -3.075207  0.021785212   -4.3025498    1.2273427  1010000 
 1468000   0.81827964   -4.3029005   -4.3029005   -3.0754822  0.020328935   -4.3029005    1.2274182  1010000 
 1469000   0.81803857    -4.302369    -4.302369   -3.0753124  0.022837954    -4.302369    1.2270566  1010000 
 1470000   0.81840147   -4.3025619   -4.3025619   -3.0749609  0.020440273   -4.3025619     1.227601  1010000 
 1471000   0.81776083   -4.3017654   -4.3017654   -3.0751254  0.021907544   -4.3017654      1.22664  1010000 
 1472000    0.8184262   -4.3028778   -4.3028778   -3.0752397   0.01843961   -4.3028778    1.2276381  1010000 
 1473000    0.8180893   -4.3022114   -4.3022114   -3.0750787  0.021518268   -4.3022114    1.2271327  1010000 
 1474000   0.81731231   -4.3013955   -4.3013955   -3.0754283  0.019725991   -4.3013955    1.2259672  1010000 
 1475000   0.81934509   -4.3044946   -4.3044946   -3.0754782  0.018382073   -4.3044946    1.2290164  1010000 
 1476000    0.8184857   -4.3028886   -4.3028886   -3.0751612   0.01750812   -4.3028886    1.2277273  1010000 
 1477000   0.81813031    -4.302868    -4.302868   -3.0756738  0.019639387    -4.302868    1.2271942  1010000 
 1478000   0.81776597   -4.3028094   -4.3028094   -3.0761616  0.017392749   -4.3028094    1.2266477  1010000 
 1479000   0.81720928   -4.3020155   -4.3020155   -3.0762028  0.017741192   -4.3020155    1.2258127  1010000 
 1480000   0.81661545   -4.3010925   -4.3010925   -3.0761705   0.01859314   -4.3010925     1.224922  1010000 
 1481000   0.81693996    -4.302066    -4.302066   -3.0766573  0.019490457    -4.302066    1.2254087  1010000 
 1482000   0.81736586   -4.3029093   -4.3029093   -3.0768617  0.013552323   -4.3029093    1.2260476  1010000 
 1483000   0.81658151   -4.3021653   -4.3021653   -3.0772942  0.016420961   -4.3021653    1.2248711  1010000 
 1484000   0.81764315   -4.3032809   -4.3032809   -3.0768174  0.017821916   -4.3032809    1.2264635  1010000 
 1485000   0.81770763   -4.3033541   -4.3033541   -3.0767938   0.02087024   -4.3033541    1.2265602  1010000 
 1486000   0.81800156   -4.3039546   -4.3039546   -3.0769535  0.020232319   -4.3039546    1.2270011  1010000 
 1487000   0.81790138   -4.3040173   -4.3040173   -3.0771664  0.021230426   -4.3040173    1.2268509  1010000 
 1488000    0.8171057   -4.3026289   -4.3026289   -3.0769716   0.02240345   -4.3026289    1.2256573  1010000 
 1489000   0.81799254   -4.3040209   -4.3040209   -3.0770333  0.021849382   -4.3040209    1.2269876  1010000 
 1490000   0.81776564    -4.304043    -4.304043   -3.0773958  0.022287857    -4.304043    1.2266472  1010000 
 1491000   0.81760054   -4.3049492   -4.3049492   -3.0785496  0.021899616   -4.3049492    1.2263996  1010000 
 1492000    0.8183209   -4.3054927   -4.3054927   -3.0780126  0.023202894   -4.3054927    1.2274801  1010000 
 1493000   0.81765837   -4.3048496   -4.3048496   -3.0783633  0.021639685   -4.3048496    1.2264863  1010000 
 1494000   0.81769111   -4.3050231   -4.3050231   -3.0784876  0.020563029   -4.3050231    1.2265355  1010000 
 1495000   0.81857023   -4.3055385   -4.3055385   -3.0776844  0.022522594   -4.3055385    1.2278541  1010000 
 1496000   0.81779604   -4.3048832   -4.3048832   -3.0781903  0.019611777   -4.3048832    1.2266928  1010000 
 1497000   0.81789892   -4.3045929   -4.3045929   -3.0777457  0.022662278   -4.3045929    1.2268472  1010000 
 1498000   0.81802048   -4.3054048   -4.3054048   -3.0783753  0.023017646   -4.3054048    1.2270295  1010000 
 1499000   0.81756021   -4.3052793   -4.3052793   -3.0789402  0.019018118   -4.3052793    1.2263391  1010000 
 1500000   0.81847401   -4.3065709   -4.3065709   -3.0788611  0.017387264   -4.3065709    1.2277098  1010000 
 1501000   0.81751599   -4.3054327   -4.3054327     -3.07916  0.020397922   -4.3054327    1.2262728  1010000 
 1502000   0.81623639   -4.3038844   -4.3038844   -3.0795311  0.021549088   -4.3038844    1.2243534  1010000 
 1503000   0.81641585   -4.3044317   -4.3044317   -3.0798091  0.017426177   -4.3044317    1.2246226  1010000 
 1504000   0.81703437   -4.3044047   -4.3044047   -3.0788543  0.017260724   -4.3044047    1.2255503  1010000 
 1505000   0.81716086    -4.303955    -4.303955   -3.0782149  0.021478588    -4.303955    1.2257401  1010000 
 1506000   0.81677431   -4.3037936   -4.3037936   -3.0786333  0.021964858   -4.3037936    1.2251603  1010000 
 1507000   0.81691608   -4.3042036   -4.3042036   -3.0788307  0.019766748   -4.3042036    1.2253729  1010000 
 1508000   0.81899356   -4.3070243   -4.3070243   -3.0785352  0.018272646   -4.3070243    1.2284891  1010000 
 1509000   0.81808631   -4.3055258   -4.3055258   -3.0783976  0.022788497   -4.3055258    1.2271283  1010000 
 1510000   0.81820791   -4.3050236   -4.3050236   -3.0777129  0.019410704   -4.3050236    1.2273107  1010000 
 1511000   0.81721461   -4.3038084   -4.3038084   -3.0779877  0.022687298   -4.3038084    1.2258207  1010000 
 1512000   0.81759403   -4.3043304   -4.3043304   -3.0779406  0.017941042   -4.3043304    1.2263898  1010000 
 1513000   0.81735788   -4.3042499   -4.3042499   -3.0782143  0.018874324   -4.3042499    1.2260356  1010000 
 1514000   0.81806655   -4.3054893   -4.3054893   -3.0783907  0.016856955   -4.3054893    1.2270986  1010000 
 1515000   0.81706358   -4.3042656   -4.3042656   -3.0786714  0.019095529   -4.3042656    1.2255942  1010000 
 1516000   0.81763924   -4.3050993   -4.3050993   -3.0786416  0.018953029   -4.3050993    1.2264577  1010000 
 1517000   0.81863477    -4.305886    -4.305886    -3.077935  0.016263413    -4.305886    1.2279509  1010000 
 1518000   0.81731858   -4.3048066   -4.3048066   -3.0788299  0.016934119   -4.3048066    1.2259767  1010000 
 1519000   0.81722076   -4.3042068   -4.3042068   -3.0783769  0.020749362   -4.3042068    1.2258299  1010000 
 1520000   0.81761567   -4.3047037   -4.3047037   -3.0782814  0.020154527   -4.3047037    1.2264223  1010000 
 1521000   0.81725959    -4.304764    -4.304764   -3.0788758  0.019952503    -4.304764    1.2258882  1010000 
 1522000   0.81753139   -4.3048211   -4.3048211   -3.0785252  0.019938905   -4.3048211    1.2262959  1010000 
 1523000   0.81815417   -4.3062037   -4.3062037   -3.0789737  0.018016482   -4.3062037      1.22723  1010000 
 1524000   0.81711566   -4.3044446   -4.3044446   -3.0787723  0.021144114   -4.3044446    1.2256723  1010000 
 1525000   0.81759228   -4.3058138   -4.3058138   -3.0794266  0.020265285   -4.3058138    1.2263872  1010000 
 1526000   0.81659791   -4.3038445   -4.3038445   -3.0789489  0.021636932   -4.3038445    1.2248956  1010000 
 1527000   0.81770198   -4.3058952   -4.3058952   -3.0793435  0.018088248   -4.3058952    1.2265518  1010000 
 1528000   0.81741478   -4.3057604   -4.3057604   -3.0796395  0.019824923   -4.3057604     1.226121  1010000 
 1529000   0.81715592   -4.3057666   -4.3057666   -3.0800339  0.017616931   -4.3057666    1.2257327  1010000 
 1530000   0.81696627    -4.305077    -4.305077   -3.0796288  0.021443838    -4.305077    1.2254482  1010000 
 1531000   0.81729028   -4.3052349   -4.3052349   -3.0793007  0.020807547   -4.3052349    1.2259342  1010000 
 1532000   0.81883589   -4.3078636   -4.3078636   -3.0796109  0.020681025   -4.3078636    1.2282526  1010000 
 1533000   0.81794256   -4.3065344   -4.3065344   -3.0796217  0.018655315   -4.3065344    1.2269126  1010000 
 1534000   0.81786413   -4.3063558   -4.3063558   -3.0795609  0.020928854   -4.3063558     1.226795  1010000 
 1535000    0.8174909   -4.3064503   -4.3064503   -3.0802151  0.022760243   -4.3064503    1.2262351  1010000 
 1536000   0.81772937   -4.3059471   -4.3059471   -3.0793543  0.022823913   -4.3059471    1.2265928  1010000 
 1537000   0.81802559   -4.3071754   -4.3071754   -3.0801383  0.021813333   -4.3071754    1.2270372  1010000 
 1538000   0.81864445   -4.3073136   -4.3073136   -3.0793481  0.020584403   -4.3073136    1.2279655  1010000 
 1539000   0.81768527   -4.3071309   -4.3071309   -3.0806042  0.017003438   -4.3071309    1.2265267  1010000 
 1540000   0.81699408   -4.3062939   -4.3062939    -3.080804  0.014920503   -4.3062939    1.2254899  1010000 
 1541000   0.81686037   -4.3066946   -4.3066946   -3.0814053  0.019968919   -4.3066946    1.2252893  1010000 
 1542000   0.81709816   -4.3071681   -4.3071681   -3.0815221  0.017691643   -4.3071681     1.225646  1010000 
 1543000   0.81709527   -4.3072623   -4.3072623   -3.0816206  0.017212895   -4.3072623    1.2256417  1010000 
 1544000   0.81626587   -4.3059066   -4.3059066    -3.081509  0.020453582   -4.3059066    1.2243976  1010000 
 1545000   0.81647537   -4.3061473   -4.3061473   -3.0814355  0.018865314   -4.3061473    1.2247118  1010000 
 1546000   0.81671558   -4.3063126   -4.3063126   -3.0812404  0.015121361   -4.3063126    1.2250722  1010000 
 1547000   0.81716908   -4.3073451   -4.3073451   -3.0815927   0.01687383   -4.3073451    1.2257524  1010000 
 1548000   0.81770855   -4.3080924   -4.3080924   -3.0815308  0.018528993   -4.3080924    1.2265616  1010000 
 1549000   0.81700913     -4.30728     -4.30728   -3.0817675  0.020051558     -4.30728    1.2255125  1010000 
 1550000    0.8159389   -4.3061535   -4.3061535   -3.0822463  0.022728466   -4.3061535    1.2239071  1010000 
 1551000   0.81718464    -4.308356    -4.308356   -3.0825803  0.015915427    -4.308356    1.2257757  1010000 
 1552000   0.81757591     -4.30821     -4.30821   -3.0818473  0.018347234     -4.30821    1.2263626  1010000 
 1553000   0.81663178   -4.3072148   -4.3072148   -3.0822684  0.018539789   -4.3072148    1.2249465  1010000 
 1554000    0.8161064   -4.3071055   -4.3071055   -3.0829471  0.017698689   -4.3071055    1.2241584  1010000 
 1555000    0.8162786   -4.3072683   -4.3072683   -3.0828516  0.022202474   -4.3072683    1.2244167  1010000 
 1556000    0.8163947   -4.3074785   -4.3074785   -3.0828876  0.021122666   -4.3074785    1.2245908  1010000 
 1557000   0.81694706    -4.308767    -4.308767   -3.0833477   0.01858961    -4.308767    1.2254194  1010000 
 1558000   0.81758507   -4.3095844   -4.3095844    -3.083208  0.017785643   -4.3095844    1.2263764  1010000 
 1559000   0.81742478   -4.3091646   -4.3091646   -3.0830286  0.020454455   -4.3091646     1.226136  1010000 
 1560000   0.81708574   -4.3089829   -4.3089829   -3.0833555  0.020183081   -4.3089829    1.2256274  1010000 
 1561000    0.8175313    -4.309838    -4.309838   -3.0835422  0.021412602    -4.309838    1.2262957  1010000 
 1562000   0.81774697   -4.3100573   -4.3100573   -3.0834381  0.023262283   -4.3100573    1.2266192  1010000 
 1563000   0.81693331   -4.3092866   -4.3092866   -3.0838878  0.019282255   -4.3092866    1.2253987  1010000 
 1564000   0.81640491   -4.3087591   -4.3087591   -3.0841529  0.024034762   -4.3087591    1.2246062  1010000 
 1565000   0.81710092   -4.3094686   -4.3094686   -3.0838185  0.024360165   -4.3094686    1.2256502  1010000 
 1566000   0.81599994   -4.3081352   -4.3081352   -3.0841365  0.023078176   -4.3081352    1.2239987  1010000 
 1567000   0.81632931   -4.3090733   -4.3090733   -3.0845805  0.021009868   -4.3090733    1.2244928  1010000 
 1568000   0.81641044   -4.3099424   -4.3099424    -3.085328  0.020169077   -4.3099424    1.2246145  1010000 
 1569000   0.81573536   -4.3096449   -4.3096449   -3.0860431  0.019936434   -4.3096449    1.2236018  1010000 
 1570000   0.81664064   -4.3105113   -4.3105113   -3.0855515   0.01936723   -4.3105113    1.2249598  1010000 
 1571000   0.81592146   -4.3088348   -4.3088348   -3.0849539  0.022742254   -4.3088348     1.223881  1010000 
 1572000     0.816215   -4.3097339   -4.3097339   -3.0854126  0.017353354   -4.3097339    1.2243213  1010000 
 1573000    0.8158299   -4.3089309   -4.3089309   -3.0851873  0.018491822   -4.3089309    1.2237436  1010000 
 1574000   0.81705785   -4.3105519   -4.3105519   -3.0849664  0.016464724   -4.3105519    1.2255856  1010000 
 1575000   0.81718365    -4.311055    -4.311055   -3.0852808  0.018961253    -4.311055    1.2257743  1010000 
 1576000   0.81731031   -4.3105938   -4.3105938   -3.0846295  0.021952392   -4.3105938    1.2259643  1010000 
 1577000   0.81761805   -4.3108468   -4.3108468   -3.0844209  0.016808606   -4.3108468    1.2264259  1010000 
 1578000    0.8167546   -4.3099876   -4.3099876    -3.084857  0.023109478   -4.3099876    1.2251307  1010000 
 1579000   0.81795482   -4.3119695   -4.3119695   -3.0850384  0.018012693   -4.3119695     1.226931  1010000 
 1580000   0.81750012   -4.3108445   -4.3108445   -3.0845955  0.021834118   -4.3108445     1.226249  1010000 
 1581000   0.81709513   -4.3100809   -4.3100809   -3.0844394  0.021510843   -4.3100809    1.2256415  1010000 
 1582000   0.81657936   -4.3100331   -4.3100331   -3.0851653  0.018932479   -4.3100331    1.2248678  1010000 
 1583000   0.81777756   -4.3105042   -4.3105042    -3.083839  0.019357139   -4.3105042    1.2266651  1010000 
 1584000   0.81626842   -4.3095192   -4.3095192   -3.0851177  0.019068246   -4.3095192    1.2244014  1010000 
 1585000   0.81637471   -4.3098479   -4.3098479    -3.085287  0.020413858   -4.3098479    1.2245609  1010000 
 1586000   0.81609217   -4.3089606   -4.3089606   -3.0848236    0.0174603   -4.3089606     1.224137  1010000 
 1587000   0.81667549   -4.3098894   -4.3098894   -3.0848774  0.016790807   -4.3098894     1.225012  1010000 
 1588000   0.81617093   -4.3092704   -4.3092704   -3.0850152   0.01884048   -4.3092704    1.2242552  1010000 
 1589000   0.81677064   -4.3098028   -4.3098028    -3.084648   0.02132905   -4.3098028    1.2251548  1010000 
 1590000   0.81578052   -4.3083787   -4.3083787   -3.0847091  0.020754267   -4.3083787    1.2236696  1010000 
 1591000   0.81657574    -4.308612    -4.308612   -3.0837496   0.01708139    -4.308612    1.2248624  1010000 
 1592000   0.81623214   -4.3084026   -4.3084026   -3.0840556  0.021363457   -4.3084026     1.224347  1010000 
 1593000   0.81723347   -4.3101331   -4.3101331   -3.0842841  0.018958021   -4.3101331     1.225849  1010000 
 1594000   0.81579361   -4.3083867   -4.3083867   -3.0846975  0.019538231   -4.3083867    1.2236892  1010000 
 1595000   0.81663615   -4.3102073   -4.3102073   -3.0852543  0.015903624   -4.3102073     1.224953  1010000 
 1596000   0.81649507   -4.3088946   -4.3088946   -3.0841532  0.016592524   -4.3088946    1.2247414  1010000 
 1597000   0.81595319   -4.3080888   -4.3080888   -3.0841602  0.018510053   -4.3080888    1.2239286  1010000 
 1598000   0.81664851   -4.3091514   -4.3091514   -3.0841799  0.015757046   -4.3091514    1.2249716  1010000 
 1599000   0.81592564   -4.3083902   -4.3083902    -3.084503  0.019126751   -4.3083902    1.2238872  1010000 
 1600000   0.81619845   -4.3084564   -4.3084564   -3.0841599  0.020290124   -4.3084564    1.2242965  1010000 
 1601000   0.81678402   -4.3097688   -4.3097688    -3.084594   0.01731607   -4.3097688    1.2251748  1010000 
 1602000   0.81626502   -4.3086213   -4.3086213    -3.084225  0.019857061   -4.3086213    1.2243963  1010000 
 1603000   0.81673033   -4.3092608   -4.3092608   -3.0841665  0.020442994   -4.3092608    1.2250943  1010000 
 1604000   0.81761989    -4.311335    -4.311335   -3.0849064  0.018052902    -4.311335    1.2264286  1010000 
 1605000   0.81701157   -4.3096769   -4.3096769   -3.0841607  0.019894198   -4.3096769    1.2255161  1010000 
 1606000   0.81700956   -4.3102996   -4.3102996   -3.0847864  0.016616832   -4.3102996    1.2255131  1010000 
 1607000   0.81678677   -4.3093621   -4.3093621   -3.0841832  0.022959288   -4.3093621    1.2251789  1010000 
 1608000   0.81746468   -4.3102198   -4.3102198    -3.084024  0.020116931   -4.3102198    1.2261958  1010000 
 1609000   0.81630103   -4.3091368   -4.3091368   -3.0846864  0.017619924   -4.3091368    1.2244503  1010000 
 1610000   0.81712329    -4.310144    -4.310144   -3.0844603  0.022018975    -4.310144    1.2256837  1010000 
 1611000   0.81660895   -4.3095663   -4.3095663    -3.084654   0.02274449   -4.3095663    1.2249122  1010000 
 1612000   0.81669766   -4.3098552   -4.3098552   -3.0848099  0.022641889   -4.3098552    1.2250453  1010000 
 1613000   0.81653273   -4.3091796   -4.3091796   -3.0843817  0.021494361   -4.3091796    1.2247979  1010000 
 1614000   0.81664613   -4.3102452   -4.3102452   -3.0852773  0.020205227   -4.3102452     1.224968  1010000 
 1615000   0.81646078   -4.3097873   -4.3097873   -3.0850974  0.016796667   -4.3097873      1.22469  1010000 
 1616000    0.8162855   -4.3097212   -4.3097212   -3.0852942  0.019300461   -4.3097212     1.224427  1010000 
 1617000   0.81592959   -4.3095419   -4.3095419   -3.0856488    0.0178908   -4.3095419    1.2238932  1010000 
 1618000   0.81658429   -4.3104629   -4.3104629   -3.0855877  0.018950336   -4.3104629    1.2248752  1010000 
 1619000   0.81632085   -4.3108473   -4.3108473   -3.0863673  0.012046385   -4.3108473    1.2244801  1010000 
 1620000   0.81628906   -4.3103222   -4.3103222   -3.0858898  0.016470881   -4.3103222    1.2244324  1010000 
 1621000   0.81649829   -4.3103346   -4.3103346   -3.0855884  0.015868994   -4.3103346    1.2247462  1010000 
 1622000   0.81706126   -4.3105607   -4.3105607     -3.08497  0.020660514   -4.3105607    1.2255907  1010000 
 1623000   0.81703926   -4.3111474   -4.3111474   -3.0855897   0.01857155   -4.3111474    1.2255577  1010000 
 1624000   0.81669499   -4.3109163   -4.3109163    -3.085875  0.016720205   -4.3109163    1.2250413  1010000 
 1625000   0.81577035   -4.3092601   -4.3092601   -3.0856058  0.021910226   -4.3092601    1.2236543  1010000 
 1626000   0.81663328   -4.3105668   -4.3105668   -3.0856181  0.022223972   -4.3105668    1.2249487  1010000 
 1627000    0.8170779   -4.3106917   -4.3106917    -3.085076  0.020796576   -4.3106917    1.2256156  1010000 
 1628000   0.81684217   -4.3106705   -4.3106705   -3.0854085  0.021478527   -4.3106705     1.225262  1010000 
 1629000   0.81683822   -4.3110298   -4.3110298   -3.0857737  0.022118494   -4.3110298    1.2252561  1010000 
 1630000   0.81668568   -4.3104036   -4.3104036   -3.0853763  0.022007768   -4.3104036    1.2250273  1010000 
 1631000    0.8169243    -4.311035    -4.311035   -3.0856498  0.017497002    -4.311035    1.2253852  1010000 
 1632000   0.81637139   -4.3109751   -4.3109751   -3.0864193  0.020670442   -4.3109751    1.2245559  1010000 
 1633000   0.81668979   -4.3118445   -4.3118445    -3.086811  0.019442422   -4.3118445    1.2250335  1010000 
 1634000   0.81621192   -4.3116306   -4.3116306   -3.0873139  0.020168938   -4.3116306    1.2243167  1010000 
 1635000   0.81548097   -4.3098364   -4.3098364   -3.0866161  0.020733461   -4.3098364    1.2232202  1010000 
 1636000   0.81527221   -4.3099221   -4.3099221    -3.087015  0.019035381   -4.3099221    1.2229071  1010000 
 1637000    0.8159506   -4.3112244   -4.3112244   -3.0872997  0.017766014   -4.3112244    1.2239247  1010000 
 1638000   0.81582123   -4.3115324   -4.3115324   -3.0878018  0.018972416   -4.3115324    1.2237306  1010000 
 1639000   0.81502313   -4.3102673   -4.3102673   -3.0877339  0.019502964   -4.3102673    1.2225335  1010000 
 1640000   0.81603193   -4.3123453   -4.3123453   -3.0882986   0.01905137   -4.3123453    1.2240467  1010000 
 1641000   0.81540912   -4.3108713   -4.3108713   -3.0877588  0.020956671   -4.3108713    1.2231125  1010000 
 1642000   0.81544668   -4.3109304   -4.3109304   -3.0877616  0.022768413   -4.3109304    1.2231688  1010000 
 1643000   0.81600364   -4.3123842   -4.3123842   -3.0883799  0.019797419   -4.3123842    1.2240042  1010000 
 1644000   0.81622215   -4.3131844   -4.3131844   -3.0888524  0.021595206   -4.3131844     1.224332  1010000 
 1645000   0.81587089   -4.3127815   -4.3127815   -3.0889764  0.020305227   -4.3127815    1.2238051  1010000 
 1646000   0.81581191   -4.3126406   -4.3126406    -3.088924  0.020591516   -4.3126406    1.2237167  1010000 
 1647000   0.81619203    -4.313379    -4.313379   -3.0890922  0.019188025    -4.313379    1.2242868  1010000 
 1648000    0.8169276   -4.3141717   -4.3141717   -3.0887815  0.021309257   -4.3141717    1.2253902  1010000 
 1649000   0.81611345   -4.3132985   -4.3132985   -3.0891296  0.022130193   -4.3132985     1.224169  1010000 
 1650000   0.81578534   -4.3133589   -4.3133589   -3.0896821  0.020902696   -4.3133589    1.2236768  1010000 
 1651000   0.81718336   -4.3150129   -4.3150129   -3.0892391  0.018853659   -4.3150129    1.2257738  1010000 
 1652000   0.81618818   -4.3143391   -4.3143391    -3.090058  0.023076987   -4.3143391    1.2242811  1010000 
 1653000   0.81605476   -4.3144484   -4.3144484   -3.0903674  0.019490601   -4.3144484    1.2240809  1010000 
 1654000   0.81603974   -4.3143946   -4.3143946   -3.0903362  0.018277397   -4.3143946    1.2240584  1010000 
 1655000   0.81501146   -4.3129909   -4.3129909   -3.0904749  0.018756028   -4.3129909     1.222516  1010000 
 1656000   0.81530588   -4.3136118   -4.3136118   -3.0906542  0.019853858   -4.3136118    1.2229576  1010000 
 1657000   0.81575393   -4.3142015   -4.3142015   -3.0905718  0.016443368   -4.3142015    1.2236297  1010000 
 1658000   0.81556106   -4.3142036   -4.3142036   -3.0908632  0.018020041   -4.3142036    1.2233404  1010000 
 1659000    0.8151198   -4.3134908   -4.3134908   -3.0908123  0.023166737   -4.3134908    1.2226785  1010000 
 1660000   0.81485769   -4.3128073   -4.3128073    -3.090522  0.020937916   -4.3128073    1.2222853  1010000 
 1661000   0.81573742   -4.3144036   -4.3144036   -3.0907986  0.017107478   -4.3144036    1.2236049  1010000 
 1662000   0.81546269   -4.3143678   -4.3143678   -3.0911749  0.019057132   -4.3143678    1.2231928  1010000 
 1663000   0.81515544   -4.3130941   -4.3130941   -3.0903621  0.019641358   -4.3130941    1.2227319  1010000 
 1664000   0.81494665   -4.3125725   -4.3125725   -3.0901537   0.01833799   -4.3125725    1.2224188  1010000 
 1665000   0.81518772   -4.3138559   -4.3138559   -3.0910755  0.020330344   -4.3138559    1.2227804  1010000 
 1666000   0.81546881   -4.3146563   -4.3146563   -3.0914543  0.017837662   -4.3146563     1.223202  1010000 
 1667000    0.8150242   -4.3138679   -4.3138679   -3.0913328  0.024375408   -4.3138679    1.2225351  1010000 
 1668000   0.81574573   -4.3147425   -4.3147425   -3.0911251  0.017873682   -4.3147425    1.2236174  1010000 
 1669000    0.8160361   -4.3151764   -4.3151764   -3.0911234  0.019002381   -4.3151764    1.2240529  1010000 
 1670000   0.81550881   -4.3137753   -4.3137753   -3.0905133  0.019639234   -4.3137753     1.223262  1010000 
 1671000    0.8159793   -4.3147108   -4.3147108   -3.0907431  0.019336901   -4.3147108    1.2239677  1010000 
 1672000   0.81539026   -4.3139786   -4.3139786   -3.0908945  0.021602378   -4.3139786    1.2230842  1010000 
 1673000   0.81619966   -4.3146907   -4.3146907   -3.0903924  0.022843978   -4.3146907    1.2242983  1010000 
 1674000   0.81655052   -4.3150279   -4.3150279   -3.0902033  0.020029231   -4.3150279    1.2248246  1010000 
 1675000    0.8164872   -4.3147803   -4.3147803   -3.0900507  0.021327814   -4.3147803    1.2247296  1010000 
 1676000   0.81562806   -4.3141023   -4.3141023   -3.0906614  0.026250892   -4.3141023    1.2234409  1010000 
 1677000   0.81624611   -4.3148564   -4.3148564   -3.0904884  0.021042718   -4.3148564     1.224368  1010000 
 1678000    0.8164521     -4.31505     -4.31505   -3.0903731  0.018198938     -4.31505    1.2246769  1010000 
 1679000   0.81553212      -4.3144      -4.3144    -3.091103   0.02156781      -4.3144     1.223297  1010000 
 1680000   0.81511989   -4.3138309   -4.3138309   -3.0911523  0.021626707   -4.3138309    1.2226786  1010000 
 1681000   0.81499661   -4.3144024   -4.3144024   -3.0919087  0.017155261   -4.3144024    1.2224937  1010000 
 1682000   0.81411294   -4.3132212   -4.3132212    -3.092053  0.015734179   -4.3132212    1.2211682  1010000 
 1683000    0.8142435   -4.3139576   -4.3139576   -3.0925936  0.018098918   -4.3139576     1.221364  1010000 
 1684000   0.81420069   -4.3141491   -4.3141491   -3.0928493  0.016510839   -4.3141491    1.2212998  1010000 
 1685000   0.81422394   -4.3139404   -4.3139404   -3.0926057  0.015170423   -4.3139404    1.2213347  1010000 
 1686000   0.81453221   -4.3142432   -4.3142432   -3.0924461  0.018212128   -4.3142432    1.2217971  1010000 
 1687000   0.81489023   -4.3143484   -4.3143484   -3.0920142  0.018783112   -4.3143484    1.2223341  1010000 
 1688000    0.8161819   -4.3156119   -4.3156119   -3.0913403  0.018817807   -4.3156119    1.2242716  1010000 
 1689000   0.81588346   -4.3158608   -4.3158608   -3.0920368   0.02018813   -4.3158608     1.223824  1010000 
 1690000   0.81597476   -4.3157088   -4.3157088   -3.0917479   0.02314107   -4.3157088    1.2239609  1010000 
 1691000   0.81567348   -4.3152283   -4.3152283   -3.0917193  0.021337925   -4.3152283     1.223509  1010000 
 1692000   0.81659114   -4.3165785   -4.3165785    -3.091693  0.018619641   -4.3165785    1.2248855  1010000 
 1693000   0.81688093   -4.3170888   -4.3170888   -3.0917686   0.01801558   -4.3170888    1.2253202  1010000 
 1694000   0.81521872   -4.3147623   -4.3147623   -3.0919355   0.02313161   -4.3147623    1.2228269  1010000 
 1695000   0.81602898   -4.3165527   -4.3165527   -3.0925105  0.022219693   -4.3165527    1.2240423  1010000 
 1696000   0.81571128    -4.315979    -4.315979   -3.0924133  0.023741636    -4.315979    1.2235657  1010000 
 1697000    0.8161153   -4.3158993   -4.3158993   -3.0917276  0.022854904   -4.3158993    1.2241717  1010000 
 1698000   0.81540322   -4.3157165   -4.3157165   -3.0926128   0.02267877   -4.3157165    1.2231036  1010000 
 1699000   0.81621295   -4.3160324   -4.3160324   -3.0917142  0.023626367   -4.3160324    1.2243182  1010000 
 1700000    0.8145852    -4.314628    -4.314628   -3.0927514  0.022217506    -4.314628    1.2218766  1010000 
 1701000    0.8154213   -4.3159645   -4.3159645   -3.0928338  0.019846175   -4.3159645    1.2231307  1010000 
 1702000   0.81531134   -4.3158337   -4.3158337   -3.0928679  0.017395826   -4.3158337    1.2229658  1010000 
 1703000   0.81496916   -4.3149755   -4.3149755    -3.092523   0.01685687   -4.3149755    1.2224525  1010000 
 1704000   0.81577119    -4.316212    -4.316212   -3.0925565  0.012969994    -4.316212    1.2236556  1010000 
 1705000   0.81504343   -4.3150757   -4.3150757   -3.0925118  0.016123798   -4.3150757    1.2225639  1010000 
 1706000   0.81528088   -4.3158258   -4.3158258   -3.0929057   0.02034088   -4.3158258    1.2229201  1010000 
 1707000    0.8157249   -4.3163148   -4.3163148   -3.0927286  0.018588386   -4.3163148    1.2235861  1010000 
 1708000    0.8145081   -4.3147792   -4.3147792   -3.0930183  0.019256785   -4.3147792    1.2217609  1010000 
 1709000   0.81538149   -4.3153213   -4.3153213   -3.0922502  0.020012639   -4.3153213     1.223071  1010000 
 1710000   0.81496984   -4.3154081   -4.3154081   -3.0929545  0.019142805   -4.3154081    1.2224535  1010000 
 1711000   0.81478714   -4.3143768   -4.3143768   -3.0921973  0.017953922   -4.3143768    1.2221795  1010000 
 1712000   0.81520336   -4.3152162   -4.3152162   -3.0924124  0.017775569   -4.3152162    1.2228038  1010000 
 1713000   0.81614931   -4.3162063   -4.3162063   -3.0919836  0.018190373   -4.3162063    1.2242228  1010000 
 1714000   0.81640028   -4.3164756   -4.3164756   -3.0918764  0.018368521   -4.3164756    1.2245992  1010000 
 1715000    0.8160797   -4.3167105   -4.3167105   -3.0925922  0.019584859   -4.3167105    1.2241183  1010000 
 1716000   0.81580893   -4.3162275   -4.3162275   -3.0925154  0.020260672   -4.3162275    1.2237122  1010000 
 1717000   0.81667878   -4.3167381   -4.3167381   -3.0917212  0.020451727   -4.3167381     1.225017  1010000 
 1718000   0.81615762    -4.315889    -4.315889   -3.0916538  0.022918173    -4.315889    1.2242352  1010000 
 1719000   0.81594698   -4.3165125   -4.3165125   -3.0925933  0.019458033   -4.3165125    1.2239193  1010000 
 1720000   0.81511996   -4.3152313   -4.3152313   -3.0925525  0.022804081   -4.3152313    1.2226787  1010000 
 1721000   0.81546875   -4.3159395   -4.3159395   -3.0927376  0.019158182   -4.3159395    1.2232019  1010000 
 1722000   0.81543077   -4.3150782   -4.3150782   -3.0919333  0.021921939   -4.3150782    1.2231449  1010000 
 1723000   0.81516158   -4.3153775   -4.3153775   -3.0926364  0.015985448   -4.3153775    1.2227412  1010000 
 1724000   0.81543913   -4.3160548   -4.3160548   -3.0928973  0.020741347   -4.3160548    1.2231575  1010000 
 1725000   0.81655931   -4.3180312   -4.3180312   -3.0931934  0.013705843   -4.3180312    1.2248378  1010000 
 1726000   0.81523149   -4.3160221   -4.3160221    -3.093176  0.016280582   -4.3160221     1.222846  1010000 
 1727000   0.81533545   -4.3163129   -4.3163129   -3.0933109  0.017401655   -4.3163129     1.223002  1010000 
 1728000     0.814967   -4.3159319   -4.3159319   -3.0934827  0.017515971   -4.3159319    1.2224493  1010000 
 1729000   0.81393488   -4.3143898   -4.3143898   -3.0934887  0.019304382   -4.3143898    1.2209011  1010000 
 1730000   0.81423976   -4.3145721   -4.3145721   -3.0932137  0.015706342   -4.3145721    1.2213584  1010000 
 1731000    0.8148632   -4.3157221   -4.3157221   -3.0934285  0.013349591   -4.3157221    1.2222936  1010000 
 1732000   0.81452069   -4.3151071   -4.3151071   -3.0933273  0.019950313   -4.3151071    1.2217798  1010000 
 1733000   0.81500054   -4.3163252   -4.3163252   -3.0938255   0.02044662   -4.3163252    1.2224996  1010000 
 1734000   0.81456173   -4.3152812   -4.3152812   -3.0934398  0.020644728   -4.3152812    1.2218414  1010000 
 1735000   0.81576787   -4.3170471   -4.3170471   -3.0933965  0.019498327   -4.3170471    1.2236506  1010000 
 1736000   0.81566974   -4.3163103   -4.3163103   -3.0928069  0.019215616   -4.3163103    1.2235034  1010000 
 1737000   0.81590064   -4.3169615   -4.3169615   -3.0931118  0.019058358   -4.3169615    1.2238497  1010000 
 1738000   0.81578347   -4.3168231   -4.3168231   -3.0931491  0.019714636   -4.3168231     1.223674  1010000 
 1739000   0.81613517   -4.3178013   -4.3178013   -3.0935997  0.019734775   -4.3178013    1.2242015  1010000 
 1740000   0.81568441   -4.3175228   -4.3175228   -3.0939974  0.022104313   -4.3175228    1.2235254  1010000 
 1741000   0.81487725   -4.3165847   -4.3165847     -3.09427  0.021698447   -4.3165847    1.2223147  1010000 
 1742000   0.81542343    -4.317128    -4.317128   -3.0939941  0.018439216    -4.317128    1.2231339  1010000 
 1743000   0.81488864   -4.3163675   -4.3163675   -3.0940357  0.020728978   -4.3163675    1.2223317  1010000 
 1744000   0.81525924   -4.3176327   -4.3176327    -3.094745  0.019932642   -4.3176327    1.2228876  1010000 
 1745000   0.81560241   -4.3183229   -4.3183229   -3.0949205  0.021336523   -4.3183229    1.2234024  1010000 
 1746000   0.81615545   -4.3192538   -4.3192538   -3.0950219  0.019386436   -4.3192538     1.224232  1010000 
 1747000   0.81425024   -4.3175581   -4.3175581    -3.096184  0.016304049   -4.3175581    1.2213741  1010000 
 1748000   0.81389301   -4.3165186   -4.3165186   -3.0956803  0.021617975   -4.3165186    1.2208383  1010000 
 1749000   0.81468966   -4.3179487   -4.3179487   -3.0959154  0.017679043   -4.3179487    1.2220333  1010000 
 1750000   0.81525683   -4.3191143   -4.3191143   -3.0962302  0.017008963   -4.3191143     1.222884  1010000 
 1751000   0.81444338   -4.3180384   -4.3180384   -3.0963746  0.013788892   -4.3180384    1.2216639  1010000 
 1752000   0.81461412     -4.31776     -4.31776     -3.09584  0.018882068     -4.31776      1.22192  1010000 
 1753000   0.81502625   -4.3191101   -4.3191101   -3.0965719  0.018477312   -4.3191101    1.2225382  1010000 
 1754000   0.81478477   -4.3180741   -4.3180741   -3.0958981  0.024136437   -4.3180741     1.222176  1010000 
 1755000   0.81587957   -4.3198249   -4.3198249   -3.0960068  0.019868906   -4.3198249    1.2238181  1010000 
 1756000   0.81490079   -4.3177823   -4.3177823   -3.0954324  0.021970201   -4.3177823      1.22235  1010000 
 1757000   0.81561807   -4.3188968   -4.3188968   -3.0954709  0.019179123   -4.3188968    1.2234259  1010000 
 1758000   0.81491453   -4.3181571   -4.3181571   -3.0957865  0.021882732   -4.3181571    1.2223706  1010000 
 1759000   0.81472513   -4.3182391   -4.3182391   -3.0961526  0.021472702   -4.3182391    1.2220865  1010000 
 1760000   0.81528788   -4.3192537   -4.3192537   -3.0963231  0.017982209   -4.3192537    1.2229306  1010000 
 1761000   0.81499129   -4.3203416   -4.3203416   -3.0978559  0.014255695   -4.3203416    1.2224857  1010000 
 1762000   0.81413737   -4.3192924   -4.3192924   -3.0980876  0.014851066   -4.3192924    1.2212048  1010000 
 1763000   0.81421606   -4.3186121   -4.3186121   -3.0972892  0.017008747   -4.3186121    1.2213229  1010000 
 1764000   0.81447435   -4.3189432   -4.3189432   -3.0972329  0.018916161   -4.3189432    1.2217103  1010000 
 1765000   0.81447247   -4.3186785   -4.3186785    -3.096971  0.019071693   -4.3186785    1.2217075  1010000 
 1766000   0.81489915    -4.319504    -4.319504   -3.0971565  0.017558279    -4.319504    1.2223475  1010000 
 1767000   0.81426532   -4.3184939   -4.3184939   -3.0970972  0.020094234   -4.3184939    1.2213968  1010000 
 1768000   0.81538634   -4.3198681   -4.3198681   -3.0967898  0.019378627   -4.3198681    1.2230783  1010000 
 1769000   0.81558334   -4.3198653   -4.3198653   -3.0964915  0.019640754   -4.3198653    1.2233738  1010000 
 1770000   0.81550818   -4.3193339   -4.3193339   -3.0960728  0.019101628   -4.3193339    1.2232611  1010000 
 1771000   0.81556779   -4.3189642   -4.3189642   -3.0956138  0.020543507   -4.3189642    1.2233505  1010000 
 1772000   0.81504764   -4.3191293   -4.3191293   -3.0965591  0.021325381   -4.3191293    1.2225702  1010000 
 1773000   0.81434295   -4.3178029   -4.3178029   -3.0962897  0.021634763   -4.3178029    1.2215132  1010000 
 1774000   0.81482353   -4.3185173   -4.3185173   -3.0962832  0.018991383   -4.3185173    1.2222341  1010000 
 1775000   0.81505286    -4.319037    -4.319037    -3.096459  0.018058279    -4.319037    1.2225781  1010000 
 1776000   0.81514947   -4.3190835   -4.3190835   -3.0963605   0.01632725   -4.3190835     1.222723  1010000 
 1777000   0.81513172   -4.3189679   -4.3189679   -3.0962715  0.017468084   -4.3189679    1.2226964  1010000 
 1778000   0.81574589   -4.3192519   -4.3192519   -3.0956343  0.018088544   -4.3192519    1.2236176  1010000 
 1779000   0.81517256   -4.3191719   -4.3191719   -3.0964143  0.018566307   -4.3191719    1.2227576  1010000 
 1780000   0.81561169   -4.3194597   -4.3194597   -3.0960434  0.017384939   -4.3194597    1.2234163  1010000 
 1781000     0.815184   -4.3187878   -4.3187878    -3.096013  0.017362589   -4.3187878    1.2227748  1010000 
 1782000   0.81457504   -4.3181928   -4.3181928   -3.0963314  0.017523557   -4.3181928    1.2218614  1010000 
 1783000   0.81374464    -4.317515    -4.317515   -3.0968993  0.019277942    -4.317515    1.2206157  1010000 
 1784000   0.81432801   -4.3182396   -4.3182396   -3.0967488  0.015148819   -4.3182396    1.2214908  1010000 
 1785000   0.81391287   -4.3180822   -4.3180822   -3.0972141  0.015989878   -4.3180822    1.2208681  1010000 
 1786000   0.81437657   -4.3183614   -4.3183614   -3.0967977  0.015273031   -4.3183614    1.2215636  1010000 
 1787000   0.81533954   -4.3198741   -4.3198741    -3.096866  0.014138719   -4.3198741    1.2230081  1010000 
 1788000   0.81453946   -4.3186591   -4.3186591   -3.0968511   0.01886648   -4.3186591     1.221808  1010000 
 1789000   0.81489079   -4.3192204   -4.3192204   -3.0968854  0.016794791   -4.3192204     1.222335  1010000 
 1790000   0.81544262   -4.3195484   -4.3195484   -3.0963857   0.01827478   -4.3195484    1.2231627  1010000 
 1791000    0.8154264   -4.3197854   -4.3197854    -3.096647  0.019161246   -4.3197854    1.2231384  1010000 
 1792000   0.81560789   -4.3199573   -4.3199573   -3.0965467   0.02171546   -4.3199573    1.2234106  1010000 
 1793000   0.81450874     -4.31858     -4.31858   -3.0968181   0.01878228     -4.31858    1.2217619  1010000 
 1794000   0.81415587   -4.3190038   -4.3190038   -3.0977712  0.017977699   -4.3190038    1.2212326  1010000 
 1795000   0.81412869   -4.3189599   -4.3189599   -3.0977681  0.020153738   -4.3189599    1.2211918  1010000 
 1796000   0.81438123   -4.3194482   -4.3194482   -3.0978775  0.020461669   -4.3194482    1.2215706  1010000 
 1797000   0.81547317   -4.3210543   -4.3210543   -3.0978458   0.02192725   -4.3210543    1.2232085  1010000 
 1798000   0.81564768   -4.3216944   -4.3216944   -3.0982241  0.015707757   -4.3216944    1.2234703  1010000 
 1799000   0.81494728   -4.3209657   -4.3209657    -3.098546  0.019329441   -4.3209657    1.2224197  1010000 
 1800000    0.8160856   -4.3217887   -4.3217887   -3.0976615  0.020729447   -4.3217887    1.2241272  1010000 
 1801000   0.81495469   -4.3195651   -4.3195651   -3.0971343  0.024055311   -4.3195651    1.2224308  1010000 
 1802000   0.81616429   -4.3223568   -4.3223568   -3.0981116  0.021510941   -4.3223568    1.2242452  1010000 
 1803000   0.81498808   -4.3210472   -4.3210472   -3.0985663  0.020389836   -4.3210472    1.2224809  1010000 
 1804000   0.81412497   -4.3199922   -4.3199922    -3.098806  0.018039408   -4.3199922    1.2211863  1010000 
 1805000   0.81443249   -4.3203277   -4.3203277   -3.0986802  0.020344831   -4.3203277    1.2216475  1010000 
 1806000   0.81443002    -4.320131    -4.320131   -3.0984872  0.018820639    -4.320131    1.2216438  1010000 
 1807000   0.81515967   -4.3216164   -4.3216164   -3.0988781  0.020179103   -4.3216164    1.2227383  1010000 
 1808000   0.81426854   -4.3205958   -4.3205958   -3.0991942  0.021844187   -4.3205958    1.2214016  1010000 
 1809000   0.81492196   -4.3223775   -4.3223775   -3.0999957  0.017040747   -4.3223775    1.2223817  1010000 
 1810000   0.81369593   -4.3204235   -4.3204235   -3.0998808  0.020298156   -4.3204235    1.2205427  1010000 
 1811000    0.8143051   -4.3205432   -4.3205432   -3.0990867  0.014161759   -4.3205432    1.2214564  1010000 
 1812000   0.81337795   -4.3193493   -4.3193493   -3.0992836  0.017617862   -4.3193493    1.2200657  1010000 
 1813000   0.81453553   -4.3199282   -4.3199282   -3.0981261  0.017988733   -4.3199282    1.2218021  1010000 
 1814000   0.81396231   -4.3192834   -4.3192834   -3.0983411  0.019368228   -4.3192834    1.2209422  1010000 
 1815000   0.81453798   -4.3211698   -4.3211698   -3.0993641  0.012509303   -4.3211698    1.2218058  1010000 
 1816000   0.81401957    -4.320482    -4.320482   -3.0994538   0.01857169    -4.320482    1.2210281  1010000 
 1817000   0.81415422   -4.3204922   -4.3204922   -3.0992621  0.015654157   -4.3204922    1.2212301  1010000 
 1818000   0.81467432    -4.320534    -4.320534   -3.0985237  0.019972793    -4.320534    1.2220103  1010000 
 1819000   0.81497894   -4.3210728   -4.3210728   -3.0986056  0.021256968   -4.3210728    1.2224672  1010000 
 1820000   0.81485137   -4.3209986   -4.3209986   -3.0987227  0.018279192   -4.3209986    1.2222758  1010000 
 1821000   0.81453942    -4.321387    -4.321387   -3.0995791  0.018723741    -4.321387    1.2218079  1010000 
 1822000   0.81430923   -4.3213569   -4.3213569   -3.0998942  0.015885986   -4.3213569    1.2214626  1010000 
 1823000   0.81434327   -4.3204126   -4.3204126   -3.0988989  0.018146303   -4.3204126    1.2215137  1010000 
 1824000   0.81507676   -4.3221226   -4.3221226   -3.0995087  0.014975893   -4.3221226    1.2226139  1010000 
 1825000   0.81441952    -4.321704    -4.321704   -3.1000759  0.017473149    -4.321704    1.2216281  1010000 
 1826000   0.81462389   -4.3219388   -4.3219388   -3.1000042  0.020420773   -4.3219388    1.2219346  1010000 
 1827000   0.81463187   -4.3222999   -4.3222999   -3.1003533  0.016099422   -4.3222999    1.2219466  1010000 
 1828000   0.81418406   -4.3218198   -4.3218198    -3.100545  0.021035848   -4.3218198    1.2212749  1010000 
 1829000   0.81475012   -4.3230712   -4.3230712   -3.1009472  0.018669195   -4.3230712     1.222124  1010000 
 1830000   0.81462672   -4.3226903   -4.3226903   -3.1007514  0.018227121   -4.3226903    1.2219389  1010000 
 1831000   0.81433085   -4.3222658   -4.3222658   -3.1007708  0.017360714   -4.3222658    1.2214951  1010000 
 1832000   0.81402095    -4.322118    -4.322118   -3.1010878  0.016824774    -4.322118    1.2210302  1010000 
 1833000    0.8139419     -4.32173     -4.32173   -3.1008184  0.015590233     -4.32173    1.2209116  1010000 
 1834000   0.81447411     -4.32243     -4.32243   -3.1007201  0.020182776     -4.32243    1.2217099  1010000 
 1835000   0.81322098   -4.3215502   -4.3215502     -3.10172  0.021457443   -4.3215502    1.2198303  1010000 
 1836000   0.81470965   -4.3233399   -4.3233399   -3.1012767  0.019642901   -4.3233399    1.2220633  1010000 
 1837000   0.81464235   -4.3224868   -4.3224868   -3.1005245  0.021070296   -4.3224868    1.2219623  1010000 
 1838000   0.81442848   -4.3227999   -4.3227999   -3.1011584  0.018872979   -4.3227999    1.2216415  1010000 
 1839000   0.81451209   -4.3224364   -4.3224364   -3.1006695  0.019192535   -4.3224364    1.2217669  1010000 
 1840000   0.81373994   -4.3220847   -4.3220847    -3.101476  0.017438609   -4.3220847    1.2206087  1010000 
 1841000   0.81386443   -4.3216812   -4.3216812   -3.1008858  0.021246658   -4.3216812    1.2207954  1010000 
 1842000   0.81421663   -4.3219024   -4.3219024   -3.1005787  0.019615375   -4.3219024    1.2213237  1010000 
 1843000   0.81454862   -4.3220937   -4.3220937    -3.100272  0.019899318   -4.3220937    1.2218217  1010000 
 1844000   0.81354955   -4.3214423   -4.3214423   -3.1011192  0.021630065   -4.3214423    1.2203231  1010000 
 1845000   0.81449232   -4.3224081   -4.3224081   -3.1006709  0.019266492   -4.3224081    1.2217373  1010000 
 1846000    0.8140483   -4.3216675   -4.3216675   -3.1005962  0.018777311   -4.3216675    1.2210712  1010000 
 1847000   0.81477064   -4.3230417   -4.3230417   -3.1008869  0.015366163   -4.3230417    1.2221548  1010000 
 1848000   0.81335393   -4.3208134   -4.3208134   -3.1007837   0.01725047   -4.3208134    1.2200297  1010000 
 1849000    0.8142496   -4.3220999   -4.3220999   -3.1007267  0.013751426   -4.3220999    1.2213732  1010000 
 1850000   0.81372256   -4.3219439   -4.3219439   -3.1013613  0.017527244   -4.3219439    1.2205826  1010000 
 1851000   0.81395001   -4.3221813   -4.3221813   -3.1012575  0.015064979   -4.3221813    1.2209238  1010000 
 1852000   0.81332866    -4.321379    -4.321379   -3.1013872  0.019319007    -4.321379    1.2199918  1010000 
 1853000    0.8133734   -4.3215647   -4.3215647   -3.1015058  0.021408945   -4.3215647    1.2200589  1010000 
 1854000   0.81301702   -4.3206053   -4.3206053    -3.101081  0.021165179   -4.3206053    1.2195243  1010000 
 1855000   0.81413378    -4.322063    -4.322063   -3.1008635  0.017334166    -4.322063    1.2211995  1010000 
 1856000   0.81324304   -4.3209218   -4.3209218   -3.1010585   0.01501651   -4.3209218    1.2198634  1010000 
 1857000   0.81345508   -4.3211716   -4.3211716   -3.1009901  0.016974535   -4.3211716    1.2201814  1010000 
 1858000   0.81435348   -4.3229017   -4.3229017   -3.1013727  0.014393937   -4.3229017     1.221529  1010000 
 1859000   0.81437943   -4.3227605   -4.3227605   -3.1011926  0.015186056   -4.3227605    1.2215679  1010000 
 1860000    0.8139947   -4.3224903   -4.3224903   -3.1014995   0.01865617   -4.3224903    1.2209908  1010000 
 1861000   0.81372666   -4.3228185   -4.3228185   -3.1022297  0.020137105   -4.3228185    1.2205888  1010000 
 1862000   0.81410878   -4.3230809   -4.3230809   -3.1019189  0.017331265   -4.3230809     1.221162  1010000 
 1863000   0.81330029   -4.3222924   -4.3222924   -3.1023432  0.019115397   -4.3222924    1.2199492  1010000 
 1864000   0.81353277   -4.3225315   -4.3225315   -3.1022335  0.022036696   -4.3225315     1.220298  1010000 
 1865000   0.81356026   -4.3229787   -4.3229787   -3.1026396  0.020663264   -4.3229787    1.2203392  1010000 
 1866000   0.81315682    -4.322741    -4.322741   -3.1030069  0.018145551    -4.322741     1.219734  1010000 
 1867000   0.81387072   -4.3230971   -4.3230971   -3.1022923  0.016247959   -4.3230971    1.2208049  1010000 
 1868000   0.81358162   -4.3232471   -4.3232471   -3.1028759  0.019695741   -4.3232471    1.2203712  1010000 
 1869000   0.81407052   -4.3237609   -4.3237609   -3.1026563  0.021116148   -4.3237609    1.2211046  1010000 
 1870000   0.81441537   -4.3250027   -4.3250027   -3.1033809  0.020242521   -4.3250027    1.2216218  1010000 
 1871000   0.81371486   -4.3245506   -4.3245506   -3.1039795  0.020802598   -4.3245506    1.2205711  1010000 
 1872000   0.81423427   -4.3244717   -4.3244717   -3.1031215  0.016722683   -4.3244717    1.2213502  1010000 
 1873000   0.81454644   -4.3249065   -4.3249065   -3.1030881  0.015808978   -4.3249065    1.2218185  1010000 
 1874000   0.81306712   -4.3228592   -4.3228592   -3.1032597   0.01925387   -4.3228592    1.2195995  1010000 
 1875000   0.81357706   -4.3237859   -4.3237859   -3.1034216  0.017550208   -4.3237859    1.2203644  1010000 
 1876000   0.81348981   -4.3241695   -4.3241695    -3.103936  0.017127213   -4.3241695    1.2202335  1010000 
 1877000    0.8138657    -4.324975    -4.324975   -3.1041776  0.016803821    -4.324975    1.2207973  1010000 
 1878000   0.81351935   -4.3245123   -4.3245123   -3.1042345  0.018745003   -4.3245123    1.2202778  1010000 
 1879000   0.81366858   -4.3244467   -4.3244467   -3.1039451  0.019702969   -4.3244467    1.2205017  1010000 
 1880000   0.81372061   -4.3242826   -4.3242826   -3.1037029  0.018745476   -4.3242826    1.2205797  1010000 
 1881000   0.81342887   -4.3237498   -4.3237498   -3.1036077  0.019343729   -4.3237498    1.2201421  1010000 
 1882000   0.81449019   -4.3255262   -4.3255262   -3.1037921   0.01650508   -4.3255262    1.2217341  1010000 
 1883000   0.81438019   -4.3249977   -4.3249977   -3.1034287  0.015838375   -4.3249977    1.2215691  1010000 
 1884000   0.81367189   -4.3242574   -4.3242574   -3.1037508  0.018124261   -4.3242574    1.2205066  1010000 
 1885000   0.81441121   -4.3250031   -4.3250031   -3.1033875  0.016867361   -4.3250031    1.2216156  1010000 
 1886000   0.81355619   -4.3244811   -4.3244811    -3.104148  0.021106243   -4.3244811    1.2203331  1010000 
 1887000   0.81349145   -4.3240714   -4.3240714   -3.1038355   0.02178999   -4.3240714     1.220236  1010000 
 1888000   0.81321534   -4.3243602   -4.3243602   -3.1045384   0.01546619   -4.3243602    1.2198218  1010000 
 1889000   0.81278479   -4.3242907   -4.3242907   -3.1051147  0.017713064   -4.3242907     1.219176  1010000 
 1890000   0.81280894   -4.3240445   -4.3240445   -3.1048323  0.016341386   -4.3240445    1.2192122  1010000 
 1891000   0.81342672   -4.3248827   -4.3248827   -3.1047438  0.017330556   -4.3248827    1.2201389  1010000 
 1892000   0.81286986   -4.3249357   -4.3249357   -3.1056321  0.013752752   -4.3249357    1.2193036  1010000 
 1893000   0.81316248   -4.3243113   -4.3243113   -3.1045688   0.01650295   -4.3243113    1.2197425  1010000 
 1894000   0.81380137   -4.3257912   -4.3257912   -3.1050904  0.016527079   -4.3257912    1.2207008  1010000 
 1895000   0.81333242   -4.3253023   -4.3253023   -3.1053049  0.015834141   -4.3253023    1.2199974  1010000 
 1896000   0.81324284   -4.3253644   -4.3253644   -3.1055014  0.019112619   -4.3253644     1.219863  1010000 
 1897000   0.81361966   -4.3258607   -4.3258607   -3.1054324  0.021475695   -4.3258607    1.2204283  1010000 
 1898000   0.81336613   -4.3250217   -4.3250217   -3.1049737  0.019613927   -4.3250217     1.220048  1010000 
 1899000   0.81294528   -4.3248844   -4.3248844   -3.1054677  0.016742115   -4.3248844    1.2194167  1010000 
 1900000   0.81363319   -4.3257472   -4.3257472   -3.1052987  0.018711703   -4.3257472    1.2204486  1010000 
 1901000   0.81422536   -4.3269174   -4.3269174   -3.1055806  0.017329058   -4.3269174    1.2213368  1010000 
 1902000   0.81368891   -4.3259833   -4.3259833   -3.1054511  0.018755995   -4.3259833    1.2205322  1010000 
 1903000   0.81378517   -4.3267303   -4.3267303   -3.1060537  0.019780672   -4.3267303    1.2206765  1010000 
 1904000   0.81386122   -4.3267959   -4.3267959   -3.1060053  0.020260211   -4.3267959    1.2207906  1010000 
 1905000   0.81419295    -4.327098    -4.327098   -3.1058098   0.01832024    -4.327098    1.2212882  1010000 
 1906000    0.8139154   -4.3267192   -4.3267192   -3.1058473  0.016329247   -4.3267192    1.2208719  1010000 
 1907000   0.81317453   -4.3255363   -4.3255363   -3.1057757  0.019874867   -4.3255363    1.2197606  1010000 
 1908000   0.81308205   -4.3257804   -4.3257804   -3.1061586  0.020198171   -4.3257804    1.2196219  1010000 
 1909000   0.81155756   -4.3242896   -4.3242896   -3.1069545  0.021237966   -4.3242896    1.2173351  1010000 
 1910000   0.81239119   -4.3253009   -4.3253009   -3.1067153  0.018673217   -4.3253009    1.2185856  1010000 
 1911000   0.81300582   -4.3262116   -4.3262116   -3.1067041  0.016073381   -4.3262116    1.2195075  1010000 
 1912000    0.8135809   -4.3270243   -4.3270243   -3.1066541  0.015494032   -4.3270243    1.2203701  1010000 
 1913000   0.81327894     -4.32663     -4.32663   -3.1067128  0.017635181     -4.32663    1.2199172  1010000 
 1914000    0.8130203   -4.3259747   -4.3259747   -3.1064455  0.019864243   -4.3259747    1.2195292  1010000 
 1915000   0.81317829   -4.3264072   -4.3264072    -3.106641  0.019237014   -4.3264072    1.2197662  1010000 
 1916000    0.8133558   -4.3262279   -4.3262279   -3.1061954  0.017505169   -4.3262279    1.2200325  1010000 
 1917000   0.81372792   -4.3269468   -4.3269468   -3.1063561  0.014951294   -4.3269468    1.2205907  1010000 
 1918000   0.81258214    -4.326044    -4.326044    -3.107172  0.017148063    -4.326044     1.218872  1010000 
 1919000   0.81260718   -4.3261249   -4.3261249   -3.1072153  0.014429008   -4.3261249    1.2189096  1010000 
 1920000   0.81226884     -4.32573     -4.32573    -3.107328  0.020030429     -4.32573    1.2184021  1010000 
 1921000   0.81279617   -4.3268853   -4.3268853   -3.1076923   0.02007457   -4.3268853     1.219193  1010000 
 1922000   0.81339665   -4.3275452   -4.3275452   -3.1074514  0.016966274   -4.3275452    1.2200938  1010000 
 1923000   0.81340524   -4.3278969   -4.3278969   -3.1077903  0.017272745   -4.3278969    1.2201067  1010000 
 1924000    0.8136927   -4.3277466   -4.3277466   -3.1072088  0.018372241   -4.3277466    1.2205378  1010000 
 1925000   0.81401837   -4.3276518   -4.3276518   -3.1066255  0.020619618   -4.3276518    1.2210264  1010000 
 1926000   0.81352478   -4.3276625   -4.3276625   -3.1073765  0.023651684   -4.3276625     1.220286  1010000 
 1927000   0.81372451   -4.3276938   -4.3276938   -3.1071083  0.020767589   -4.3276938    1.2205856  1010000 
 1928000   0.81387596   -4.3279449   -4.3279449   -3.1071322  0.022734672   -4.3279449    1.2208127  1010000 
 1929000   0.81355825   -4.3275079   -4.3275079   -3.1071717  0.023701336   -4.3275079    1.2203362  1010000 
 1930000    0.8138092   -4.3282448   -4.3282448   -3.1075322  0.019820273   -4.3282448    1.2207126  1010000 
 1931000   0.81297178   -4.3271381   -4.3271381   -3.1076817  0.018746833   -4.3271381    1.2194565  1010000 
 1932000   0.81355489   -4.3277525   -4.3277525   -3.1074213  0.017053596   -4.3277525    1.2203311  1010000 
 1933000   0.81227782   -4.3262824   -4.3262824   -3.1078669  0.014182051   -4.3262824    1.2184155  1010000 
 1934000   0.81237333   -4.3259924   -4.3259924   -3.1074336   0.01662091   -4.3259924    1.2185588  1010000 
 1935000   0.81225278   -4.3251179   -4.3251179     -3.10674  0.018427598   -4.3251179     1.218378  1010000 
 1936000   0.81267425    -4.326862    -4.326862   -3.1078519  0.018460919    -4.326862    1.2190102  1010000 
 1937000   0.81280419   -4.3268098   -4.3268098   -3.1076047  0.016662985   -4.3268098    1.2192051  1010000 
 1938000   0.81261032   -4.3266815   -4.3266815   -3.1077672  0.016723477   -4.3266815    1.2189143  1010000 
 1939000   0.81245442   -4.3263921   -4.3263921   -3.1077117  0.017538704   -4.3263921    1.2186804  1010000 
 1940000   0.81297264   -4.3270931   -4.3270931   -3.1076354   0.01845506   -4.3270931    1.2194578  1010000 
 1941000   0.81249911    -4.326409    -4.326409   -3.1076615  0.013607636    -4.326409    1.2187475  1010000 
 1942000   0.81252311   -4.3263314   -4.3263314   -3.1075479  0.017164474   -4.3263314    1.2187835  1010000 
 1943000   0.81240769    -4.326422    -4.326422   -3.1078116  0.014155119    -4.326422    1.2186103  1010000 
 1944000   0.81291355   -4.3270961   -4.3270961    -3.107727  0.018184471   -4.3270961    1.2193691  1010000 
 1945000   0.81266844   -4.3269182   -4.3269182   -3.1079167  0.017438962   -4.3269182    1.2190015  1010000 
 1946000   0.81251591    -4.326657    -4.326657   -3.1078843  0.018191813    -4.326657    1.2187727  1010000 
 1947000   0.81233924   -4.3256011   -4.3256011   -3.1070934  0.022385184   -4.3256011    1.2185077  1010000 
 1948000   0.81398024   -4.3277677   -4.3277677   -3.1067986  0.019332887   -4.3277677    1.2209691  1010000 
 1949000   0.81296356   -4.3264981   -4.3264981   -3.1070539  0.020259148   -4.3264981    1.2194441  1010000 
 1950000   0.81329719   -4.3276567   -4.3276567   -3.1077121  0.015940767   -4.3276567    1.2199446  1010000 
 1951000   0.81280113   -4.3276513   -4.3276513   -3.1084508  0.015275791   -4.3276513    1.2192005  1010000 
 1952000   0.81354499    -4.328021    -4.328021   -3.1077047  0.019615607    -4.328021    1.2203163  1010000 
 1953000   0.81367665    -4.329215    -4.329215   -3.1087012  0.014326888    -4.329215    1.2205138  1010000 
 1954000   0.81279377   -4.3281416   -4.3281416   -3.1089521  0.017219551   -4.3281416    1.2191894  1010000 
 1955000   0.81255561   -4.3277089   -4.3277089   -3.1088767  0.013093383   -4.3277089    1.2188322  1010000 
 1956000   0.81233845   -4.3280014   -4.3280014   -3.1094949  0.016313194   -4.3280014    1.2185065  1010000 
 1957000   0.81263712   -4.3286261   -4.3286261   -3.1096716  0.017795482   -4.3286261    1.2189545  1010000 
 1958000   0.81207998   -4.3277813   -4.3277813   -3.1096626  0.020000051   -4.3277813    1.2181188  1010000 
 1959000   0.81275253   -4.3284136   -4.3284136    -3.109286  0.020551765   -4.3284136    1.2191276  1010000 
 1960000   0.81272152   -4.3278008   -4.3278008   -3.1087197  0.019456111   -4.3278008    1.2190811  1010000 
 1961000   0.81252969   -4.3282601   -4.3282601   -3.1094668  0.019568384   -4.3282601    1.2187933  1010000 
 1962000   0.81271837   -4.3286106   -4.3286106   -3.1095342  0.018170196   -4.3286106    1.2190763  1010000 
 1963000   0.81292157   -4.3293109   -4.3293109   -3.1099298  0.018485417   -4.3293109    1.2193811  1010000 
 1964000   0.81271543   -4.3294173   -4.3294173   -3.1103453  0.018253077   -4.3294173    1.2190719  1010000 
 1965000   0.81225769   -4.3288674   -4.3288674    -3.110482  0.021115108   -4.3288674    1.2183853  1010000 
 1966000   0.81170992   -4.3281271   -4.3281271   -3.1105634  0.018035558   -4.3281271    1.2175637  1010000 
 1967000   0.81297367   -4.3295615   -4.3295615   -3.1101022  0.016905158   -4.3295615    1.2194593  1010000 
 1968000   0.81223162   -4.3289244   -4.3289244   -3.1105781  0.016720347   -4.3289244    1.2183462  1010000 
 1969000   0.81275851   -4.3298056   -4.3298056    -3.110669  0.020114149   -4.3298056    1.2191366  1010000 
 1970000   0.81297064   -4.3295338   -4.3295338   -3.1100791  0.021183723   -4.3295338    1.2194548  1010000 
 1971000   0.81282723   -4.3305546   -4.3305546    -3.111315  0.019911568   -4.3305546    1.2192396  1010000 
 1972000   0.81297143   -4.3302763   -4.3302763   -3.1108204  0.019626279   -4.3302763    1.2194559  1010000 
 1973000   0.81261787   -4.3300795   -4.3300795   -3.1111539  0.015402056   -4.3300795    1.2189256  1010000 
 1974000    0.8123772   -4.3294404   -4.3294404   -3.1108758  0.023129638   -4.3294404    1.2185646  1010000 
 1975000   0.81292514   -4.3302415   -4.3302415    -3.110855  0.018435942   -4.3302415    1.2193865  1010000 
 1976000   0.81263404   -4.3298799   -4.3298799   -3.1109301  0.014693203   -4.3298799    1.2189499  1010000 
 1977000   0.81292151   -4.3307618   -4.3307618   -3.1113807   0.01535024   -4.3307618    1.2193811  1010000 
 1978000   0.81214973   -4.3297238   -4.3297238   -3.1115004  0.017338387   -4.3297238    1.2182234  1010000 
 1979000    0.8125159    -4.329866    -4.329866   -3.1110933  0.021453722    -4.329866    1.2187726  1010000 
 1980000   0.81349533   -4.3308469   -4.3308469   -3.1106052  0.016548902   -4.3308469    1.2202418  1010000 
 1981000   0.81269037   -4.3296929   -4.3296929   -3.1106586  0.020058511   -4.3296929    1.2190343  1010000 
 1982000   0.81256807   -4.3297078   -4.3297078   -3.1108569  0.017741571   -4.3297078    1.2188509  1010000 
 1983000   0.81311195   -4.3300035   -4.3300035   -3.1103368  0.020132733   -4.3300035    1.2196667  1010000 
 1984000   0.81255806   -4.3289085   -4.3289085   -3.1100726  0.022463289   -4.3289085    1.2188359  1010000 
 1985000   0.81268719   -4.3301019   -4.3301019   -3.1110723  0.016973969   -4.3301019    1.2190296  1010000 
 1986000   0.81209852    -4.328494    -4.328494   -3.1103474  0.016405246    -4.328494    1.2181466  1010000 
 1987000   0.81252408   -4.3293218   -4.3293218   -3.1105369  0.016063242   -4.3293218    1.2187849  1010000 
 1988000   0.81302945   -4.3297412   -4.3297412   -3.1101982  0.016045315   -4.3297412     1.219543  1010000 
 1989000   0.81249372   -4.3288847   -4.3288847   -3.1101453  0.018654488   -4.3288847    1.2187394  1010000 
 1990000   0.81274585   -4.3291676   -4.3291676   -3.1100501  0.016522235   -4.3291676    1.2191176  1010000 
 1991000   0.81159219   -4.3285975   -4.3285975   -3.1112104  0.015818396   -4.3285975    1.2173871  1010000 
 1992000   0.81228806   -4.3289505   -4.3289505   -3.1105196  0.017288024   -4.3289505    1.2184309  1010000 
 1993000   0.81284357   -4.3289972   -4.3289972    -3.109733  0.016408141   -4.3289972    1.2192641  1010000 
 1994000   0.81221515   -4.3280072   -4.3280072   -3.1096856  0.015883838   -4.3280072    1.2183215  1010000 
 1995000   0.81289786   -4.3293751   -4.3293751   -3.1100296  0.015576226   -4.3293751    1.2193456  1010000 
 1996000   0.81351498   -4.3308453   -4.3308453    -3.110574  0.015026352   -4.3308453    1.2202713  1010000 
 1997000   0.81283608   -4.3295595   -4.3295595   -3.1103066  0.019138502   -4.3295595    1.2192529  1010000 
 1998000   0.81277973   -4.3297453   -4.3297453   -3.1105769  0.018068388   -4.3297453    1.2191684  1010000 
 1999000   0.81345599   -4.3304572   -4.3304572   -3.1102744  0.017661115   -4.3304572    1.2201828  1010000 
 2000000   0.81203015    -4.328794    -4.328794     -3.11075  0.019149747    -4.328794     1.218044  1010000 
 2001000   0.81216264   -4.3291025   -4.3291025   -3.1108597  0.017791649   -4.3291025    1.2182427  1010000 
 2002000   0.81249466   -4.3298739   -4.3298739   -3.1111331  0.016303879   -4.3298739    1.2187408  1010000 
 2003000   0.81257122   -4.3300165   -4.3300165   -3.1111609  0.018026205   -4.3300165    1.2188556  1010000 
 2004000    0.8128901   -4.3310936   -4.3310936   -3.1117596  0.015953409   -4.3310936    1.2193339  1010000 
 2005000   0.81262462   -4.3303979   -4.3303979   -3.1114621  0.014565893   -4.3303979    1.2189357  1010000 
 2006000   0.81247669   -4.3292127   -4.3292127   -3.1104988  0.018014598   -4.3292127    1.2187138  1010000 
 2007000   0.81338078   -4.3301009   -4.3301009    -3.110031  0.021657213   -4.3301009      1.22007  1010000 
 2008000    0.8132256   -4.3293951   -4.3293951   -3.1095579  0.018533638   -4.3293951    1.2198372  1010000 
 2009000   0.81296449   -4.3298865   -4.3298865   -3.1104409  0.018233418   -4.3298865    1.2194455  1010000 
 2010000   0.81382848    -4.332166    -4.332166   -3.1114245  0.015052338    -4.332166    1.2207415  1010000 
 2011000   0.81337233   -4.3312977   -4.3312977   -3.1112404  0.017394307   -4.3312977    1.2200573  1010000 
 2012000   0.81178963   -4.3299038   -4.3299038   -3.1122206  0.017335407   -4.3299038    1.2176832  1010000 
 2013000   0.81077695   -4.3292047   -4.3292047   -3.1130405   0.01761312   -4.3292047    1.2161642  1010000 
 2014000    0.8115266   -4.3303608   -4.3303608   -3.1130721  0.010903427   -4.3303608    1.2172887  1010000 
 2015000   0.81103311   -4.3295011   -4.3295011   -3.1129527  0.016507991   -4.3295011    1.2165485  1010000 
 2016000   0.81164513   -4.3303159   -4.3303159   -3.1128494  0.014944038   -4.3303159    1.2174665  1010000 
 2017000   0.81229409   -4.3317913   -4.3317913   -3.1133514  0.015959207   -4.3317913    1.2184399  1010000 
 2018000   0.81198376   -4.3311853   -4.3311853   -3.1132109  0.019853496   -4.3311853    1.2179744  1010000 
 2019000   0.81215961   -4.3316143   -4.3316143   -3.1133761  0.022101747   -4.3316143    1.2182382  1010000 
 2020000   0.81238221   -4.3309183   -4.3309183   -3.1123462  0.023262102   -4.3309183    1.2185721  1010000 
 2021000   0.81317222   -4.3317964   -4.3317964   -3.1120393  0.018825789   -4.3317964    1.2197571  1010000 
 2022000   0.81314773    -4.332525    -4.332525   -3.1128046  0.019099978    -4.332525    1.2197204  1010000 
 2023000   0.81278704   -4.3322837   -4.3322837   -3.1131043  0.020325164   -4.3322837    1.2191794  1010000 
 2024000   0.81269391   -4.3327038   -4.3327038   -3.1136641  0.020573613   -4.3327038    1.2190397  1010000 
 2025000   0.81329443   -4.3333649   -4.3333649   -3.1134244  0.019070046   -4.3333649    1.2199404  1010000 
 2026000   0.81363568   -4.3343156   -4.3343156   -3.1138633  0.015129951   -4.3343156    1.2204523  1010000 
 2027000   0.81247597   -4.3322327   -4.3322327   -3.1135199  0.019355429   -4.3322327    1.2187128  1010000 
 2028000   0.81286298   -4.3333941   -4.3333941   -3.1141008  0.017637574   -4.3333941    1.2192933  1010000 
 2029000   0.81264595   -4.3330915   -4.3330915   -3.1141238  0.018502574   -4.3330915    1.2189677  1010000 
 2030000   0.81283275    -4.333579    -4.333579   -3.1143311  0.018359067    -4.333579    1.2192479  1010000 
 2031000   0.81246608   -4.3327472   -4.3327472   -3.1140493  0.015601961   -4.3327472    1.2186979  1010000 
 2032000   0.81301983   -4.3337391   -4.3337391   -3.1142105  0.014667051   -4.3337391    1.2195285  1010000 
 2033000    0.8121126   -4.3322081   -4.3322081   -3.1140404  0.012532883   -4.3322081    1.2181677  1010000 
 2034000   0.81165072   -4.3316273   -4.3316273   -3.1141525     0.017462   -4.3316273    1.2174749  1010000 
 2035000   0.81202981   -4.3322194   -4.3322194   -3.1141759  0.016331806   -4.3322194    1.2180435  1010000 
 2036000   0.81269001   -4.3333627   -4.3333627   -3.1143289  0.012953292   -4.3333627    1.2190338  1010000 
 2037000   0.81174077   -4.3319123   -4.3319123   -3.1143023  0.018958863   -4.3319123    1.2176099  1010000 
 2038000   0.81191362   -4.3317285   -4.3317285   -3.1138593  0.018029829   -4.3317285    1.2178692  1010000 
 2039000   0.81203043    -4.332012    -4.332012   -3.1139675  0.014110007    -4.332012    1.2180444  1010000 
 2040000   0.81234006   -4.3326186   -4.3326186   -3.1141098  0.015270771   -4.3326186    1.2185089  1010000 
 2041000   0.81147427   -4.3318174   -4.3318174   -3.1146073  0.018981356   -4.3318174    1.2172102  1010000 
 2042000   0.81135561   -4.3315784   -4.3315784   -3.1145462  0.017994579   -4.3315784    1.2170322  1010000 
 2043000   0.81208355   -4.3324211   -4.3324211    -3.114297    0.0159036   -4.3324211    1.2181241  1010000 
 2044000   0.81248046   -4.3331783   -4.3331783   -3.1144588  0.014156627   -4.3331783    1.2187195  1010000 
 2045000   0.81243701    -4.332661    -4.332661   -3.1140067  0.017916968    -4.332661    1.2186543  1010000 
 2046000   0.81206433   -4.3327789   -4.3327789   -3.1146836  0.017833088   -4.3327789    1.2180953  1010000 
 2047000    0.8123096   -4.3334592   -4.3334592    -3.114996  0.012295981   -4.3334592    1.2184632  1010000 
 2048000   0.81225902   -4.3332626   -4.3332626   -3.1148753  0.017708453   -4.3332626    1.2183873  1010000 
 2049000   0.81223852   -4.3331189   -4.3331189   -3.1147623  0.023754308   -4.3331189    1.2183566  1010000 
 2050000   0.81247822   -4.3326858   -4.3326858   -3.1139697  0.021121923   -4.3326858    1.2187161  1010000 
 2051000   0.81327381   -4.3341294   -4.3341294   -3.1142199  0.018042002   -4.3341294    1.2199095  1010000 
 2052000   0.81146351     -4.33276     -4.33276    -3.115566   0.01962681     -4.33276    1.2171941  1010000 
 2053000   0.81260887   -4.3344272   -4.3344272   -3.1155151  0.019808433   -4.3344272    1.2189121  1010000 
 2054000   0.81261796   -4.3334236   -4.3334236   -3.1144979  0.019137291   -4.3334236    1.2189257  1010000 
 2055000   0.81239439   -4.3342622   -4.3342622   -3.1156718  0.022191471   -4.3342622    1.2185904  1010000 
 2056000   0.81247965   -4.3344475   -4.3344475   -3.1157292  0.016016281   -4.3344475    1.2187183  1010000 
 2057000   0.81197575    -4.333251    -4.333251   -3.1152886  0.021587689    -4.333251    1.2179624  1010000 
 2058000   0.81222235   -4.3340635   -4.3340635   -3.1157312  0.019260461   -4.3340635    1.2183323  1010000 
 2059000   0.81220292   -4.3337189   -4.3337189   -3.1154157  0.021418794   -4.3337189    1.2183032  1010000 
 2060000   0.81230719    -4.334063    -4.334063   -3.1156034  0.019550704    -4.334063    1.2184596  1010000 
 2061000   0.81223565   -4.3339821   -4.3339821   -3.1156298    0.0184323   -4.3339821    1.2183523  1010000 
 2062000   0.81129755   -4.3334874   -4.3334874   -3.1165423  0.015224752   -4.3334874    1.2169451  1010000 
 2063000   0.81161177   -4.3340814   -4.3340814    -3.116665  0.019971043   -4.3340814    1.2174164  1010000 
 2064000   0.81242162   -4.3351649   -4.3351649   -3.1165337  0.018146603   -4.3351649    1.2186312  1010000 
 2065000   0.81146271   -4.3330635   -4.3330635   -3.1158706  0.018932424   -4.3330635    1.2171929  1010000 
 2066000   0.81161295   -4.3332103   -4.3332103    -3.115792  0.016453086   -4.3332103    1.2174182  1010000 
 2067000   0.81210743   -4.3339573   -4.3339573   -3.1157974   0.01699767   -4.3339573    1.2181599  1010000 
 2068000   0.81283048   -4.3344486   -4.3344486    -3.115204  0.018958717   -4.3344486    1.2192445  1010000 
 2069000   0.81239374   -4.3339065   -4.3339065   -3.1153171  0.016935123   -4.3339065    1.2185894  1010000 
 2070000   0.81205106    -4.334299    -4.334299   -3.1162236  0.021915669    -4.334299    1.2180754  1010000 
 2071000   0.81180869   -4.3335636   -4.3335636   -3.1158517  0.016141201   -4.3335636    1.2177118  1010000 
 2072000   0.81167112     -4.33355     -4.33355   -3.1160445  0.019255354     -4.33355    1.2175055  1010000 
 2073000   0.81190509   -4.3334203   -4.3334203   -3.1155639  0.019658625   -4.3334203    1.2178564  1010000 
 2074000   0.81163051   -4.3334741   -4.3334741   -3.1160296  0.016376732   -4.3334741    1.2174446  1010000 
 2075000   0.81178171   -4.3338296   -4.3338296   -3.1161582  0.015631252   -4.3338296    1.2176714  1010000 
 2076000   0.81199355   -4.3353813   -4.3353813   -3.1173922  0.014464086   -4.3353813    1.2179891  1010000 
 2077000   0.81179523   -4.3348554   -4.3348554   -3.1171638  0.016309792   -4.3348554    1.2176916  1010000 
 2078000   0.81112629   -4.3337024   -4.3337024   -3.1170142  0.016274472   -4.3337024    1.2166882  1010000 
 2079000   0.81060967   -4.3324302   -4.3324302   -3.1165169  0.017711143   -4.3324302    1.2159133  1010000 
 2080000   0.81180629   -4.3338455   -4.3338455   -3.1161373  0.019793976   -4.3338455    1.2177082  1010000 
 2081000   0.81202604   -4.3337845   -4.3337845   -3.1157466  0.020196403   -4.3337845    1.2180379  1010000 
 2082000   0.81114796   -4.3333204   -4.3333204   -3.1165997  0.019105939   -4.3333204    1.2167207  1010000 
 2083000   0.81140849   -4.3346412   -4.3346412   -3.1175297  0.016939093   -4.3346412    1.2171115  1010000 
 2084000   0.81136518   -4.3347877   -4.3347877   -3.1177411  0.016988094   -4.3347877    1.2170466  1010000 
 2085000    0.8108335   -4.3340335   -4.3340335   -3.1177844  0.018192745   -4.3340335     1.216249  1010000 
 2086000   0.81155608   -4.3344844   -4.3344844   -3.1171515    0.0177298   -4.3344844    1.2173329  1010000 
 2087000   0.81223041   -4.3350842   -4.3350842   -3.1167398  0.019655948   -4.3350842    1.2183444  1010000 
 2088000   0.81223539   -4.3354415   -4.3354415   -3.1170897  0.016204633   -4.3354415    1.2183519  1010000 
 2089000   0.81166981   -4.3347578   -4.3347578   -3.1172543  0.019219305   -4.3347578    1.2175035  1010000 
 2090000   0.81200426   -4.3352294   -4.3352294   -3.1172242  0.018946773   -4.3352294    1.2180052  1010000 
 2091000   0.81189518   -4.3349327   -4.3349327   -3.1170911  0.020038142   -4.3349327    1.2178416  1010000 
 2092000   0.81194183   -4.3352595   -4.3352595    -3.117348  0.015262084   -4.3352595    1.2179115  1010000 
 2093000   0.81136505   -4.3345438   -4.3345438   -3.1174974  0.014973559   -4.3345438    1.2170464  1010000 
 2094000   0.81175208   -4.3353267   -4.3353267   -3.1176997  0.016361327   -4.3353267    1.2176269  1010000 
 2095000   0.81188254   -4.3346825   -4.3346825   -3.1168599  0.021112369   -4.3346825    1.2178226  1010000 
 2096000   0.81208776   -4.3352344   -4.3352344    -3.117104  0.016280548   -4.3352344    1.2181304  1010000 
 2097000   0.81140393   -4.3342416   -4.3342416   -3.1171369  0.018526645   -4.3342416    1.2171047  1010000 
 2098000   0.81177651   -4.3352162   -4.3352162   -3.1175527  0.015559943   -4.3352162    1.2176636  1010000 
 2099000   0.81191784   -4.3346294   -4.3346294   -3.1167539  0.022318232   -4.3346294    1.2178756  1010000 
 2100000   0.81147915    -4.334077    -4.334077   -3.1168595  0.020655593    -4.334077    1.2172175  1010000 
 2101000   0.81204211   -4.3352084   -4.3352084   -3.1171464  0.016217506   -4.3352084     1.218062  1010000 
 2102000   0.81166253   -4.3347854   -4.3347854   -3.1172928  0.017251867   -4.3347854    1.2174926  1010000 
 2103000   0.81171081   -4.3346101   -4.3346101   -3.1170451  0.021472848   -4.3346101     1.217565  1010000 
 2104000   0.81244829   -4.3359213   -4.3359213   -3.1172501  0.015883043   -4.3359213    1.2186712  1010000 
 2105000   0.81150164   -4.3342953   -4.3342953   -3.1170441  0.021193901   -4.3342953    1.2172513  1010000 
 2106000   0.81126358   -4.3347938   -4.3347938   -3.1178997  0.015843286   -4.3347938    1.2168942  1010000 
 2107000   0.81136342   -4.3350068   -4.3350068   -3.1179629  0.013488994   -4.3350068    1.2170439  1010000 
 2108000   0.81164648   -4.3350096   -4.3350096   -3.1175411  0.018820977   -4.3350096    1.2174685  1010000 
 2109000   0.81184948   -4.3353395   -4.3353395   -3.1175665  0.017709158   -4.3353395     1.217773  1010000 
 2110000   0.81180328   -4.3350524   -4.3350524   -3.1173486  0.019621458   -4.3350524    1.2177037  1010000 
 2111000   0.81193367   -4.3347826   -4.3347826   -3.1168833  0.016343391   -4.3347826    1.2178993  1010000 
 2112000   0.81232411   -4.3351335   -4.3351335   -3.1166485  0.019772277   -4.3351335     1.218485  1010000 
 2113000   0.81148192   -4.3348101   -4.3348101   -3.1175885   0.01791616   -4.3348101    1.2172217  1010000 
 2114000   0.81235027     -4.33661     -4.33661   -3.1180858  0.016429075     -4.33661    1.2185242  1010000 
 2115000   0.81116431   -4.3343752   -4.3343752   -3.1176299  0.018753216   -4.3343752    1.2167453  1010000 
 2116000    0.8114019   -4.3342366   -4.3342366    -3.117135  0.014571158   -4.3342366    1.2171016  1010000 
 2117000   0.81169587    -4.335054    -4.335054   -3.1175114  0.016823009    -4.335054    1.2175426  1010000 
 2118000   0.81154926   -4.3353692   -4.3353692   -3.1180465  0.017618142   -4.3353692    1.2173227  1010000 
 2119000   0.81191786    -4.335487    -4.335487   -3.1176114  0.019402755    -4.335487    1.2178756  1010000 
 2120000   0.81121306   -4.3348596   -4.3348596   -3.1180413  0.022169656   -4.3348596    1.2168184  1010000 
 2121000   0.81196482   -4.3357893   -4.3357893   -3.1178433  0.014760601   -4.3357893     1.217946  1010000 
 2122000   0.81187596   -4.3355922   -4.3355922   -3.1177794   0.02096626   -4.3355922    1.2178127  1010000 
 2123000   0.81128854   -4.3346781   -4.3346781   -3.1177465  0.021930157   -4.3346781    1.2169316  1010000 
 2124000    0.8118314   -4.3359635   -4.3359635   -3.1182176  0.018985158   -4.3359635    1.2177459  1010000 
 2125000   0.81130199    -4.335872    -4.335872   -3.1189202  0.016448462    -4.335872    1.2169518  1010000 
 2126000    0.8111466   -4.3358678   -4.3358678   -3.1191491  0.014472247   -4.3358678    1.2167187  1010000 
 2127000   0.81171276   -4.3367757   -4.3367757   -3.1192077   0.01548872   -4.3367757    1.2175679  1010000 
 2128000   0.81060508   -4.3347958   -4.3347958   -3.1188894  0.017365734   -4.3347958    1.2159064  1010000 
 2129000   0.81024146   -4.3346025   -4.3346025   -3.1192415  0.019976505   -4.3346025     1.215361  1010000 
 2130000   0.81095128   -4.3350537   -4.3350537    -3.118628  0.019261295   -4.3350537    1.2164257  1010000 
 2131000   0.81179403   -4.3366435   -4.3366435   -3.1189537  0.018943905   -4.3366435    1.2176898  1010000 
 2132000   0.81085908   -4.3354121   -4.3354121   -3.1191246  0.021103033   -4.3354121    1.2162874  1010000 
 2133000   0.81155055   -4.3366272   -4.3366272   -3.1193026  0.020812081   -4.3366272    1.2173246  1010000 
 2134000   0.81123327   -4.3363376   -4.3363376   -3.1194889  0.018877934   -4.3363376    1.2168487  1010000 
 2135000   0.81161844     -4.33774     -4.33774   -3.1203135  0.018009616     -4.33774    1.2174265  1010000 
 2136000   0.81113519   -4.3369415   -4.3369415   -3.1202399  0.017261698   -4.3369415    1.2167016  1010000 
 2137000   0.81183334   -4.3378056   -4.3378056   -3.1200568  0.018152711   -4.3378056    1.2177488  1010000 
 2138000   0.81147962   -4.3373852   -4.3373852    -3.120167  0.019211115   -4.3373852    1.2172182  1010000 
 2139000    0.8115053   -4.3372946   -4.3372946   -3.1200379  0.020104601   -4.3372946    1.2172567  1010000 
 2140000   0.81148546   -4.3370135   -4.3370135   -3.1197865  0.020656015   -4.3370135     1.217227  1010000 
 2141000   0.81200978   -4.3379535   -4.3379535     -3.11994  0.018608502   -4.3379535    1.2180135  1010000 
 2142000    0.8119657    -4.337935    -4.337935   -3.1199877  0.018917762    -4.337935    1.2179473  1010000 
 2143000   0.81187489   -4.3375384   -4.3375384   -3.1197273  0.018985402   -4.3375384    1.2178111  1010000 
 2144000   0.81146976   -4.3370763   -4.3370763   -3.1198729  0.020370258   -4.3370763    1.2172034  1010000 
 2145000   0.81088259   -4.3372253   -4.3372253   -3.1209026  0.019399288   -4.3372253    1.2163227  1010000 
 2146000   0.81091237    -4.337183    -4.337183   -3.1208157  0.018220564    -4.337183    1.2163673  1010000 
 2147000     0.811102   -4.3376913   -4.3376913   -3.1210395  0.014446343   -4.3376913    1.2166518  1010000 
 2148000   0.81043612   -4.3363021   -4.3363021   -3.1206491  0.016733998   -4.3363021     1.215653  1010000 
 2149000   0.81049048   -4.3358297   -4.3358297   -3.1200952  0.018787475   -4.3358297    1.2157345  1010000 
 2150000   0.81005608   -4.3354845   -4.3354845   -3.1204016  0.018864936   -4.3354845    1.2150829  1010000 
 2151000   0.81109592   -4.3365621   -4.3365621   -3.1199194   0.01883156   -4.3365621    1.2166427  1010000 
 2152000   0.81114822   -4.3366672   -4.3366672   -3.1199461   0.01724302   -4.3366672    1.2167211  1010000 
 2153000   0.81172456   -4.3369024   -4.3369024   -3.1193167  0.016453936   -4.3369024    1.2175856  1010000 
 2154000   0.81027078   -4.3354206   -4.3354206   -3.1200156  0.020387293   -4.3354206     1.215405  1010000 
 2155000   0.81178423   -4.3382013   -4.3382013   -3.1205262  0.011378854   -4.3382013    1.2176751  1010000 
 2156000   0.81067605   -4.3355675   -4.3355675   -3.1195546  0.016881439   -4.3355675    1.2160129  1010000 
 2157000    0.8107066   -4.3356267   -4.3356267    -3.119568  0.016697312   -4.3356267    1.2160587  1010000 
 2158000   0.81031223   -4.3358396   -4.3358396   -3.1203725  0.014810667   -4.3358396    1.2154671  1010000 
 2159000    0.8096302    -4.335234    -4.335234   -3.1207899  0.018838431    -4.335234    1.2144441  1010000 
 2160000   0.81090481   -4.3371671   -4.3371671   -3.1208111  0.014310117   -4.3371671     1.216356  1010000 
 2161000    0.8106385   -4.3363453   -4.3363453   -3.1203887  0.018424695   -4.3363453    1.2159565  1010000 
 2162000   0.81129912   -4.3374988   -4.3374988   -3.1205514  0.016877435   -4.3374988    1.2169475  1010000 
 2163000   0.81041778   -4.3361979   -4.3361979   -3.1205724  0.018611399   -4.3361979    1.2156255  1010000 
 2164000   0.81062158   -4.3366311   -4.3366311   -3.1206999    0.0141074   -4.3366311    1.2159312  1010000 
 2165000   0.81122848   -4.3375996   -4.3375996   -3.1207581  0.014954244   -4.3375996    1.2168415  1010000 
 2166000   0.81105917   -4.3376377   -4.3376377   -3.1210501  0.014066288   -4.3376377    1.2165876  1010000 
 2167000   0.81117177   -4.3381421   -4.3381421   -3.1213857  0.015526509   -4.3381421    1.2167564  1010000 
 2168000    0.8110924   -4.3372747   -4.3372747   -3.1206373  0.017412348   -4.3372747    1.2166374  1010000 
 2169000   0.81075013   -4.3371941   -4.3371941   -3.1210701  0.020413083   -4.3371941     1.216124  1010000 
 2170000    0.8116725   -4.3384255   -4.3384255    -3.120918  0.022118383   -4.3384255    1.2175075  1010000 
 2171000   0.81094232   -4.3373457   -4.3373457   -3.1209334  0.024654096   -4.3373457    1.2164123  1010000 
 2172000   0.81193746   -4.3393509   -4.3393509   -3.1214459  0.018169213   -4.3393509     1.217905  1010000 
 2173000   0.81091762   -4.3376881   -4.3376881   -3.1213129  0.021460687   -4.3376881    1.2163752  1010000 
 2174000   0.81089641   -4.3376187   -4.3376187   -3.1212753  0.018882757   -4.3376187    1.2163434  1010000 
 2175000   0.81154975   -4.3386826   -4.3386826   -3.1213592  0.015119453   -4.3386826    1.2173234  1010000 
 2176000   0.81116189   -4.3385468   -4.3385468   -3.1218052  0.016916046   -4.3385468    1.2167416  1010000 
 2177000   0.81097089     -4.33809     -4.33809   -3.1216349  0.019854806     -4.33809    1.2164551  1010000 
 2178000   0.81108223   -4.3382572   -4.3382572    -3.121635  0.017735292   -4.3382572    1.2166221  1010000 
 2179000   0.81046044   -4.3376229   -4.3376229   -3.1219334  0.018647975   -4.3376229    1.2156895  1010000 
 2180000   0.81087232   -4.3377498   -4.3377498   -3.1214425  0.013011806   -4.3377498    1.2163073  1010000 
 2181000   0.81097829   -4.3375106   -4.3375106   -3.1210443   0.02025663   -4.3375106    1.2164662  1010000 
 2182000   0.81114774   -4.3379456   -4.3379456   -3.1212252  0.016416181   -4.3379456    1.2167204  1010000 
 2183000    0.8091212   -4.3351868   -4.3351868   -3.1215062  0.021306972   -4.3351868    1.2136806  1010000 
 2184000   0.81062592   -4.3374717   -4.3374717    -3.121534  0.015203144   -4.3374717    1.2159377  1010000 
 2185000   0.81066524    -4.337507    -4.337507   -3.1215104  0.014376708    -4.337507    1.2159967  1010000 
 2186000   0.81025827   -4.3367565   -4.3367565   -3.1213703  0.018660534   -4.3367565    1.2153862  1010000 
 2187000   0.81038514    -4.337508    -4.337508   -3.1219315    0.0187304    -4.337508    1.2155765  1010000 
 2188000   0.81005693   -4.3372135   -4.3372135   -3.1221293  0.021912558   -4.3372135    1.2150842  1010000 
 2189000   0.81087558   -4.3378589   -4.3378589   -3.1215467  0.020928219   -4.3378589    1.2163122  1010000 
 2190000   0.81040115    -4.337701    -4.337701   -3.1221005  0.015099335    -4.337701    1.2156005  1010000 
 2191000   0.81121317   -4.3380149   -4.3380149   -3.1211963  0.016850114   -4.3380149    1.2168185  1010000 
 2192000   0.81108091   -4.3384548   -4.3384548   -3.1218347  0.017084194   -4.3384548    1.2166202  1010000 
 2193000   0.81185521   -4.3396172   -4.3396172   -3.1218356  0.016542954   -4.3396172    1.2177816  1010000 
 2194000   0.81030582   -4.3374596   -4.3374596    -3.122002  0.021632265   -4.3374596    1.2154575  1010000 
 2195000   0.81068732   -4.3388586   -4.3388586   -3.1228288  0.016407055   -4.3388586    1.2160298  1010000 
 2196000   0.80999734   -4.3371568   -4.3371568    -3.122162  0.023457541   -4.3371568    1.2149948  1010000 
 2197000   0.81145328   -4.3391123   -4.3391123   -3.1219336  0.019088145   -4.3391123    1.2171787  1010000 
 2198000    0.8104498    -4.337864    -4.337864   -3.1221905  0.021523354    -4.337864    1.2156735  1010000 
 2199000   0.81057228   -4.3384243   -4.3384243    -3.122567  0.017755061   -4.3384243    1.2158572  1010000 
 2200000    0.8110801   -4.3403163   -4.3403163   -3.1236974  0.014884226   -4.3403163    1.2166189  1010000 
 2201000   0.81110215   -4.3392484   -4.3392484   -3.1225963  0.016274724   -4.3392484     1.216652  1010000 
 2202000   0.81155583    -4.339908    -4.339908   -3.1225754  0.013528641    -4.339908    1.2173325  1010000 
 2203000    0.8116471   -4.3399598   -4.3399598   -3.1224903  0.017846719   -4.3399598    1.2174694  1010000 
 2204000   0.81218111   -4.3397073   -4.3397073   -3.1214369  0.019163022   -4.3397073    1.2182705  1010000 
 2205000   0.81121465   -4.3388341   -4.3388341   -3.1220133  0.019360051   -4.3388341    1.2168208  1010000 
 2206000   0.81144818   -4.3386549   -4.3386549   -3.1214838  0.021353357   -4.3386549    1.2171711  1010000 
 2207000   0.81202626   -4.3393596   -4.3393596   -3.1213214  0.020512386   -4.3393596    1.2180382  1010000 
 2208000   0.81126472   -4.3380435   -4.3380435   -3.1211476   0.01966936   -4.3380435    1.2168959  1010000 
 2209000   0.81063903    -4.337909    -4.337909   -3.1219517  0.017973096    -4.337909    1.2159573  1010000 
 2210000   0.81002719   -4.3376747   -4.3376747   -3.1226352  0.017712032   -4.3376747    1.2150396  1010000 
 2211000    0.8106038   -4.3380073   -4.3380073   -3.1221029  0.017179516   -4.3380073    1.2159045  1010000 
 2212000    0.8104274   -4.3377919   -4.3377919    -3.122152  0.017867773   -4.3377919    1.2156399  1010000 
 2213000   0.81011075   -4.3380879   -4.3380879   -3.1229229   0.01687327   -4.3380879    1.2151649  1010000 
 2214000   0.80991352   -4.3375381   -4.3375381    -3.122669  0.012700351   -4.3375381    1.2148691  1010000 
 2215000   0.81053657     -4.33778     -4.33778   -3.1219764  0.014856712     -4.33778    1.2158037  1010000 
 2216000   0.81040651   -4.3382354   -4.3382354   -3.1226268  0.014005561   -4.3382354    1.2156086  1010000 
 2217000   0.80997711   -4.3372075   -4.3372075    -3.122243  0.015691273   -4.3372075    1.2149645  1010000 
 2218000   0.80981246   -4.3365438   -4.3365438   -3.1218263  0.015919499   -4.3365438    1.2147175  1010000 
 2219000    0.8100531    -4.337696    -4.337696   -3.1226175  0.016210534    -4.337696    1.2150784  1010000 
 2220000    0.8102091   -4.3374702   -4.3374702   -3.1221578  0.014477232   -4.3374702    1.2153124  1010000 
 2221000   0.81080102   -4.3386743   -4.3386743   -3.1224739  0.012629823   -4.3386743    1.2162003  1010000 
 2222000   0.81060452   -4.3391434   -4.3391434   -3.1232378  0.014884979   -4.3391434    1.2159056  1010000 
 2223000   0.81050427   -4.3387345   -4.3387345   -3.1229793  0.015179695   -4.3387345    1.2157552  1010000 
 2224000   0.81024254   -4.3387204   -4.3387204   -3.1233578  0.015098507   -4.3387204    1.2153626  1010000 
 2225000   0.81015178   -4.3392011   -4.3392011   -3.1239747   0.01765297   -4.3392011    1.2152265  1010000 
 2226000   0.81084901   -4.3402985   -4.3402985   -3.1240262  0.016955031   -4.3402985    1.2162723  1010000 
 2227000   0.81044852   -4.3400244   -4.3400244   -3.1243529  0.019903598   -4.3400244    1.2156716  1010000 
 2228000   0.81085379   -4.3402701   -4.3402701   -3.1239907  0.018088923   -4.3402701    1.2162795  1010000 
 2229000   0.81106713   -4.3408893   -4.3408893   -3.1242898  0.023012258   -4.3408893    1.2165995  1010000 
 2230000   0.81143368   -4.3413797   -4.3413797   -3.1242304  0.020363438   -4.3413797    1.2171493  1010000 
 2231000   0.81049296   -4.3405023   -4.3405023   -3.1247641  0.022379699   -4.3405023    1.2157382  1010000 
 2232000   0.81119624   -4.3419851   -4.3419851    -3.125192  0.015365696   -4.3419851    1.2167932  1010000 
 2233000   0.81098408   -4.3415232   -4.3415232   -3.1250483  0.022088438   -4.3415232    1.2164749  1010000 
 2234000   0.81101405   -4.3420139   -4.3420139   -3.1254941  0.016611975   -4.3420139    1.2165199  1010000 
 2235000   0.81089993   -4.3417352   -4.3417352   -3.1253865  0.020389572   -4.3417352    1.2163487  1010000 
 2236000   0.81095599   -4.3420607   -4.3420607   -3.1256279  0.018644124   -4.3420607    1.2164328  1010000 
 2237000   0.81111662   -4.3413594   -4.3413594   -3.1246857  0.017673472   -4.3413594    1.2166737  1010000 
 2238000   0.81040508   -4.3408759   -4.3408759   -3.1252694  0.022063468   -4.3408759    1.2156064  1010000 
 2239000   0.81183667   -4.3424234   -4.3424234   -3.1246696  0.016918656   -4.3424234    1.2177538  1010000 
 2240000   0.81075806   -4.3402736   -4.3402736   -3.1241378   0.02105704   -4.3402736    1.2161359  1010000 
 2241000    0.8103486   -4.3398592   -4.3398592   -3.1243375  0.020724248   -4.3398592    1.2155217  1010000 
 2242000   0.81082802   -4.3410334   -4.3410334   -3.1247926  0.017459861   -4.3410334    1.2162408  1010000 
 2243000   0.81106036   -4.3409911   -4.3409911   -3.1244018  0.014394947   -4.3409911    1.2165893  1010000 
 2244000   0.81033619   -4.3394764   -4.3394764   -3.1239734  0.013412911   -4.3394764    1.2155031  1010000 
 2245000   0.81033836   -4.3396767   -4.3396767   -3.1241704  0.017107167   -4.3396767    1.2155063  1010000 
 2246000   0.81022849   -4.3397569   -4.3397569   -3.1244154  0.016776463   -4.3397569    1.2153415  1010000 
 2247000   0.80953416   -4.3390001   -4.3390001      -3.1247   0.01692518   -4.3390001       1.2143  1010000 
 2248000   0.80989056   -4.3393237   -4.3393237    -3.124489  0.015674969   -4.3393237    1.2148346  1010000 
 2249000   0.80962168   -4.3394964   -4.3394964   -3.1250651  0.015711118   -4.3394964    1.2144313  1010000 
 2250000   0.81005401   -4.3402968   -4.3402968    -3.125217  0.011418971   -4.3402968    1.2150798  1010000 
 2251000   0.80871553   -4.3382011   -4.3382011    -3.125129  0.017509561   -4.3382011    1.2130721  1010000 
 2252000   0.80982449   -4.3400582   -4.3400582   -3.1253226  0.015623845   -4.3400582    1.2147355  1010000 
 2253000    0.8093321   -4.3387377   -4.3387377   -3.1247407  0.017253386   -4.3387377    1.2139969  1010000 
 2254000   0.80970395   -4.3395252   -4.3395252   -3.1249705   0.01737245   -4.3395252    1.2145547  1010000 
 2255000   0.80949523   -4.3395566   -4.3395566    -3.125315  0.018133073   -4.3395566    1.2142416  1010000 
 2256000   0.81009655   -4.3404052   -4.3404052   -3.1252615  0.016529192   -4.3404052    1.2151436  1010000 
 2257000   0.81015091   -4.3409678   -4.3409678   -3.1257427  0.017853538   -4.3409678    1.2152252  1010000 
 2258000    0.8101917   -4.3411463   -4.3411463     -3.12586  0.019727822   -4.3411463    1.2152863  1010000 
 2259000   0.81053876   -4.3414093   -4.3414093   -3.1256023  0.019680305   -4.3414093    1.2158069  1010000 
 2260000   0.81031791    -4.341463    -4.341463   -3.1259873  0.017214957    -4.341463    1.2154757  1010000 
 2261000   0.81028276   -4.3414163   -4.3414163   -3.1259933   0.01940756   -4.3414163    1.2154229  1010000 
 2262000   0.81126562   -4.3424573   -4.3424573     -3.12556  0.019865042   -4.3424573    1.2168972  1010000 
 2263000   0.81150267   -4.3430198   -4.3430198    -3.125767   0.02047742   -4.3430198    1.2172528  1010000 
 2264000   0.81077829   -4.3428685   -4.3428685   -3.1267023  0.016758259   -4.3428685    1.2161662  1010000 
 2265000   0.81060429   -4.3426843   -4.3426843   -3.1267791  0.022014246   -4.3426843    1.2159052  1010000 
 2266000    0.8106671   -4.3427512   -4.3427512   -3.1267517  0.022273096   -4.3427512    1.2159994  1010000 
 2267000   0.81064598   -4.3432342   -4.3432342   -3.1272664  0.017957375   -4.3432342    1.2159678  1010000 
 2268000   0.81052016   -4.3427542   -4.3427542   -3.1269752  0.016511726   -4.3427542     1.215779  1010000 
 2269000   0.81051348   -4.3420628   -4.3420628   -3.1262938  0.019229326   -4.3420628     1.215769  1010000 
 2270000   0.81088716   -4.3423144   -4.3423144   -3.1259849  0.017240717   -4.3423144    1.2163295  1010000 
 2271000   0.81021625   -4.3419535   -4.3419535   -3.1266304  0.020472309   -4.3419535    1.2153232  1010000 
 2272000   0.81003548   -4.3414726   -4.3414726   -3.1264205  0.019355654   -4.3414726     1.215052  1010000 
 2273000   0.81062577   -4.3427017   -4.3427017   -3.1267642  0.015073815   -4.3427017    1.2159374  1010000 
 2274000   0.80960903   -4.3417104   -4.3417104   -3.1272981  0.017017381   -4.3417104    1.2144123  1010000 
 2275000    0.8103534   -4.3419226   -4.3419226   -3.1263937  0.014049945   -4.3419226    1.2155289  1010000 
 2276000   0.81007684   -4.3414429   -4.3414429   -3.1263289  0.015414599   -4.3414429    1.2151141  1010000 
 2277000   0.80941965   -4.3404091   -4.3404091   -3.1262809  0.018788573   -4.3404091    1.2141283  1010000 
 2278000   0.80955958   -4.3407742   -4.3407742    -3.126436  0.017072508   -4.3407742    1.2143382  1010000 
 2279000   0.80984207   -4.3419998   -4.3419998   -3.1272379  0.013454163   -4.3419998    1.2147619  1010000 
 2280000    0.8098742    -4.342004    -4.342004   -3.1271939  0.017963282    -4.342004    1.2148101  1010000 
 2281000   0.81007809   -4.3415507   -4.3415507   -3.1264348  0.015567043   -4.3415507    1.2151159  1010000 
 2282000   0.80966283   -4.3407889   -4.3407889   -3.1262959  0.019209549   -4.3407889     1.214493  1010000 
 2283000   0.81051919   -4.3421339   -4.3421339   -3.1263563   0.01691407   -4.3421339    1.2157776  1010000 
 2284000   0.80997675   -4.3413798   -4.3413798   -3.1264159  0.015629583   -4.3413798    1.2149639  1010000 
 2285000   0.81024253   -4.3421087   -4.3421087   -3.1267461  0.012954164   -4.3421087    1.2153626  1010000 
 2286000    0.8120021   -4.3446577   -4.3446577   -3.1266558  0.011090047   -4.3446577    1.2180019  1010000 
 2287000   0.81019953    -4.342185    -4.342185   -3.1268869  0.017775108    -4.342185    1.2152981  1010000 
 2288000   0.80959386   -4.3417983   -4.3417983   -3.1274087  0.019350717   -4.3417983    1.2143896  1010000 
 2289000   0.80994841   -4.3422415   -4.3422415   -3.1273201  0.016292485   -4.3422415    1.2149214  1010000 
 2290000   0.81027792   -4.3423502   -4.3423502   -3.1269345    0.0202016   -4.3423502    1.2154157  1010000 
 2291000    0.8106649   -4.3426419   -4.3426419   -3.1266457  0.022286758   -4.3426419    1.2159961  1010000 
 2292000   0.81047856   -4.3429766   -4.3429766   -3.1272599  0.019524185   -4.3429766    1.2157166  1010000 
 2293000    0.8102069   -4.3431433   -4.3431433   -3.1278341  0.017306419   -4.3431433    1.2153091  1010000 
 2294000    0.8092595   -4.3419078   -4.3419078   -3.1280198  0.019555857   -4.3419078     1.213888  1010000 
 2295000   0.80990139   -4.3421442   -4.3421442   -3.1272933   0.01879936   -4.3421442    1.2148509  1010000 
 2296000   0.80926917   -4.3415699   -4.3415699   -3.1276674  0.017329748   -4.3415699    1.2139026  1010000 
 2297000    0.8095697   -4.3420125   -4.3420125   -3.1276591   0.02238862   -4.3420125    1.2143534  1010000 
 2298000   0.80974868   -4.3427632   -4.3427632   -3.1281413  0.017337405   -4.3427632    1.2146218  1010000 
 2299000   0.81022004   -4.3428131   -4.3428131   -3.1274842  0.018595932   -4.3428131    1.2153289  1010000 
 2300000   0.80966862   -4.3424073   -4.3424073   -3.1279056  0.020149993   -4.3424073    1.2145017  1010000 
 2301000   0.80920407   -4.3419333   -4.3419333   -3.1281283  0.019371003   -4.3419333    1.2138049  1010000 
 2302000   0.80989812   -4.3430691   -4.3430691   -3.1282231  0.017612236   -4.3430691     1.214846  1010000 
 2303000    0.8098417     -4.34312     -4.34312   -3.1283587  0.017500855     -4.34312    1.2147613  1010000 
 2304000   0.80909844   -4.3422471   -4.3422471   -3.1286007  0.016765801   -4.3422471    1.2136465  1010000 
 2305000   0.80934587    -4.342779    -4.342779   -3.1287614  0.013627639    -4.342779    1.2140176  1010000 
 2306000   0.80990146   -4.3432715   -4.3432715   -3.1284205  0.014885905   -4.3432715     1.214851  1010000 
 2307000   0.81004451    -4.343512    -4.343512   -3.1284464  0.014370233    -4.343512    1.2150656  1010000 
 2308000   0.81025362   -4.3438299   -4.3438299   -3.1284507  0.015852726   -4.3438299    1.2153792  1010000 
 2309000    0.8100956   -4.3436556   -4.3436556   -3.1285134  0.017045301   -4.3436556    1.2151422  1010000 
 2310000   0.80897214   -4.3420955   -4.3420955   -3.1286385  0.020293077   -4.3420955     1.213457  1010000 
 2311000   0.81006534   -4.3434019   -4.3434019   -3.1283051  0.015710168   -4.3434019    1.2150968  1010000 
 2312000   0.80981788   -4.3431846   -4.3431846    -3.128459  0.014309138   -4.3431846    1.2147256  1010000 
 2313000   0.81015388   -4.3435143   -4.3435143   -3.1282847  0.018450744   -4.3435143    1.2152296  1010000 
 2314000   0.80928048    -4.342262    -4.342262   -3.1283425  0.018406978    -4.342262    1.2139195  1010000 
 2315000   0.81010193   -4.3435759   -4.3435759   -3.1284242  0.019035084   -4.3435759    1.2151517  1010000 
 2316000   0.80979493   -4.3430818   -4.3430818   -3.1283906  0.020449071   -4.3430818    1.2146912  1010000 
 2317000   0.80972395   -4.3427524   -4.3427524   -3.1281677  0.019848394   -4.3427524    1.2145847  1010000 
 2318000   0.81060868   -4.3447148   -4.3447148    -3.128803   0.01894153   -4.3447148    1.2159118  1010000 
 2319000   0.80968653    -4.343589    -4.343589   -3.1290604  0.020066158    -4.343589    1.2145286  1010000 
 2320000   0.80856525   -4.3422759   -4.3422759   -3.1294292  0.019296892   -4.3422759    1.2128467  1010000 
 2321000    0.8093555   -4.3434543   -4.3434543   -3.1294223  0.020042436   -4.3434543     1.214032  1010000 
 2322000   0.80979062   -4.3443968   -4.3443968    -3.129712  0.016886488   -4.3443968    1.2146847  1010000 
 2323000   0.80978906   -4.3442419   -4.3442419   -3.1295595  0.017884987   -4.3442419    1.2146824  1010000 
 2324000   0.80991559   -4.3440214   -4.3440214   -3.1291493  0.017266067   -4.3440214    1.2148722  1010000 
 2325000   0.80992402    -4.344383    -4.344383   -3.1294982   0.01740755    -4.344383    1.2148848  1010000 
 2326000   0.80996915   -4.3445268   -4.3445268   -3.1295742  0.019037831   -4.3445268    1.2149525  1010000 
 2327000   0.81055816   -4.3452747   -4.3452747   -3.1294387   0.02280522   -4.3452747     1.215836  1010000 
 2328000   0.81024756   -4.3447813   -4.3447813   -3.1294112  0.018826403   -4.3447813    1.2153701  1010000 
 2329000    0.8098529   -4.3443426   -4.3443426   -3.1295645  0.019211537   -4.3443426    1.2147782  1010000 
 2330000   0.80942849   -4.3432568   -4.3432568   -3.1291153  0.018197223   -4.3432568    1.2141415  1010000 
 2331000   0.81021599   -4.3443905   -4.3443905   -3.1290678  0.017487384   -4.3443905    1.2153228  1010000 
 2332000   0.80973828   -4.3436366   -4.3436366   -3.1290303  0.018596338   -4.3436366    1.2146062  1010000 
 2333000   0.81000899   -4.3444733   -4.3444733    -3.129461  0.018015139   -4.3444733    1.2150123  1010000 
 2334000   0.80956898   -4.3434645   -4.3434645   -3.1291123  0.017233618   -4.3434645    1.2143523  1010000 
 2335000   0.80977235   -4.3445362   -4.3445362   -3.1298788  0.012046484   -4.3445362    1.2146573  1010000 
 2336000   0.81025752   -4.3451065   -4.3451065   -3.1297214  0.013961628   -4.3451065    1.2153851  1010000 
 2337000   0.80921131   -4.3439351   -4.3439351   -3.1301193  0.013673569   -4.3439351    1.2138158  1010000 
 2338000    0.8089447   -4.3434492   -4.3434492   -3.1300333  0.014570265   -4.3434492    1.2134159  1010000 
 2339000   0.80893985   -4.3428217   -4.3428217   -3.1294131   0.01688228   -4.3428217    1.2134086  1010000 
 2340000   0.80831181   -4.3429764   -4.3429764   -3.1305099  0.013302556   -4.3429764    1.2124665  1010000 
 2341000   0.80813222   -4.3423301   -4.3423301    -3.130133  0.017280159   -4.3423301    1.2121971  1010000 
 2342000   0.80918949   -4.3445084   -4.3445084   -3.1307253  0.013653394   -4.3445084     1.213783  1010000 
 2343000   0.80819003   -4.3441137   -4.3441137   -3.1318299  0.018872345   -4.3441137    1.2122838  1010000 
 2344000   0.80882849   -4.3451735   -4.3451735   -3.1319319  0.015528324   -4.3451735    1.2132415  1010000 
 2345000   0.80883862   -4.3447074   -4.3447074   -3.1314507  0.018221517   -4.3447074    1.2132567  1010000 
 2346000   0.81013303    -4.345235    -4.345235   -3.1300367  0.018925492    -4.345235    1.2151983  1010000 
 2347000   0.81049653   -4.3459578   -4.3459578   -3.1302142  0.018449982   -4.3459578    1.2157436  1010000 
 2348000   0.81054303   -4.3463925   -4.3463925   -3.1305792  0.018247224   -4.3463925    1.2158133  1010000 
 2349000   0.81007461   -4.3459952   -4.3459952   -3.1308844  0.021109217   -4.3459952    1.2151107  1010000 
 2350000   0.80992228   -4.3461189   -4.3461189   -3.1312367  0.019981049   -4.3461189    1.2148822  1010000 
 2351000   0.81102833   -4.3480186   -4.3480186   -3.1314773  0.021295284   -4.3480186    1.2165413  1010000 
 2352000   0.81042441   -4.3468402   -4.3468402   -3.1312048  0.024760856   -4.3468402    1.2156354  1010000 
 2353000   0.81013311   -4.3453932   -4.3453932   -3.1301947  0.022988367   -4.3453932    1.2151985  1010000 
 2354000    0.8101311   -4.3462643   -4.3462643   -3.1310689   0.02014769   -4.3462643    1.2151954  1010000 
 2355000   0.81071797   -4.3472275   -4.3472275   -3.1311518  0.017096307   -4.3472275    1.2160758  1010000 
 2356000    0.8097248   -4.3457825   -4.3457825   -3.1311965  0.023533549   -4.3457825     1.214586  1010000 
 2357000   0.80962845   -4.3454611   -4.3454611   -3.1310196  0.019505792   -4.3454611    1.2144415  1010000 
 2358000   0.81038106   -4.3462277   -4.3462277   -3.1306573  0.016616235   -4.3462277    1.2155704  1010000 
 2359000   0.80958518   -4.3449853   -4.3449853   -3.1306088   0.02175337   -4.3449853    1.2143766  1010000 
 2360000   0.81014335   -4.3450292   -4.3450292   -3.1298154  0.016636108   -4.3450292    1.2152138  1010000 
 2361000   0.81006931   -4.3445201   -4.3445201   -3.1294174    0.0179672   -4.3445201    1.2151028  1010000 
 2362000   0.81035691   -4.3454675   -4.3454675   -3.1299333   0.01521671   -4.3454675    1.2155342  1010000 
 2363000   0.80910484   -4.3434234   -4.3434234   -3.1297673   0.01560699   -4.3434234    1.2136561  1010000 
 2364000   0.80938126   -4.3436109   -4.3436109   -3.1295402  0.013677563   -4.3436109    1.2140707  1010000 
 2365000   0.80962882   -4.3439514   -4.3439514   -3.1295094  0.013059816   -4.3439514     1.214442  1010000 
 2366000   0.80956825   -4.3436592   -4.3436592   -3.1293081  0.010977034   -4.3436592    1.2143512  1010000 
 2367000    0.8076811   -4.3409153   -4.3409153   -3.1293948  0.014142668   -4.3409153    1.2115204  1010000 
 2368000   0.80894159   -4.3427183   -4.3427183   -3.1293071  0.013571171   -4.3427183    1.2134112  1010000 
 2369000   0.80807516   -4.3411974   -4.3411974   -3.1290858  0.017828723   -4.3411974    1.2121115  1010000 
 2370000   0.80948521   -4.3442839   -4.3442839   -3.1300573  0.013037796   -4.3442839    1.2142266  1010000 
 2371000   0.80895045   -4.3430469   -4.3430469   -3.1296224  0.012216408   -4.3430469    1.2134245  1010000 
 2372000    0.8084824    -4.342676    -4.342676   -3.1299536  0.012292928    -4.342676    1.2127224  1010000 
 2373000   0.80905906   -4.3425128   -4.3425128   -3.1289254   0.01637045   -4.3425128    1.2135874  1010000 
 2374000   0.80955546    -4.343597    -4.343597    -3.129265  0.014465323    -4.343597     1.214332  1010000 
 2375000   0.81061482   -4.3448951   -4.3448951   -3.1289741  0.015920414   -4.3448951     1.215921  1010000 
 2376000   0.80963888   -4.3432318   -4.3432318   -3.1287747  0.021157717   -4.3432318    1.2144571  1010000 
 2377000   0.81109481   -4.3457156   -4.3457156   -3.1290746  0.015942711   -4.3457156     1.216641  1010000 
 2378000   0.81030713   -4.3452866   -4.3452866   -3.1298272  0.018659017   -4.3452866    1.2154595  1010000 
 2379000   0.81037131    -4.345746    -4.345746   -3.1301903  0.019478179    -4.345746    1.2155558  1010000 
 2380000   0.81068633   -4.3469468   -4.3469468   -3.1309185  0.020611265   -4.3469468    1.2160283  1010000 
 2381000    0.8096486   -4.3454416   -4.3454416   -3.1309699   0.01763662   -4.3454416    1.2144717  1010000 
 2382000   0.80969813    -4.345686    -4.345686     -3.13114  0.016246602    -4.345686     1.214546  1010000 
 2383000   0.80950893   -4.3451243   -4.3451243   -3.1308621   0.02060329   -4.3451243    1.2142622  1010000 
 2384000   0.80982852   -4.3460478   -4.3460478   -3.1313062  0.018232694   -4.3460478    1.2147416  1010000 
 2385000   0.81038839   -4.3471964   -4.3471964    -3.131615    0.0170325   -4.3471964    1.2155814  1010000 
 2386000    0.8096391   -4.3452385   -4.3452385    -3.130781  0.028894562   -4.3452385    1.2144575  1010000 
 2387000   0.81067351   -4.3463161   -4.3463161   -3.1303071  0.022932543   -4.3463161    1.2160091  1010000 
 2388000   0.81015054   -4.3456472   -4.3456472   -3.1304226  0.022919244   -4.3456472    1.2152246  1010000 
 2389000   0.81021504   -4.3459753   -4.3459753   -3.1306539   0.02074576   -4.3459753    1.2153213  1010000 
 2390000   0.81035747   -4.3460409   -4.3460409   -3.1305059  0.018341116   -4.3460409     1.215535  1010000 
 2391000   0.80918073   -4.3446727   -4.3446727   -3.1309028  0.020102818   -4.3446727    1.2137699  1010000 
 2392000   0.80935576    -4.345685    -4.345685   -3.1316525  0.012423321    -4.345685    1.2140324  1010000 
 2393000   0.80911503   -4.3449835   -4.3449835   -3.1313122  0.013589377   -4.3449835    1.2136713  1010000 
 2394000   0.80843974   -4.3442821   -4.3442821   -3.1316237  0.013273722   -4.3442821    1.2126584  1010000 
 2395000   0.80869666   -4.3447998   -4.3447998    -3.131756  0.013059492   -4.3447998    1.2130438  1010000 
 2396000   0.80861006   -4.3440535   -4.3440535   -3.1311396  0.016211723   -4.3440535    1.2129139  1010000 
 2397000   0.80981883   -4.3457653   -4.3457653   -3.1310382  0.010747222   -4.3457653     1.214727  1010000 
 2398000   0.80937671   -4.3449491   -4.3449491   -3.1308852  0.018311809   -4.3449491    1.2140639  1010000 
 2399000   0.80907811   -4.3441763   -4.3441763   -3.1305603  0.015798441   -4.3441763     1.213616  1010000 
 2400000   0.80965233    -4.344758    -4.344758   -3.1302807  0.018369173    -4.344758    1.2144773  1010000 
 2401000   0.80906541    -4.343783    -4.343783   -3.1301861  0.018396268    -4.343783    1.2135969  1010000 
 2402000   0.81060027   -4.3462386   -4.3462386   -3.1303394   0.01439491   -4.3462386    1.2158992  1010000 
 2403000   0.80960497    -4.344769    -4.344769   -3.1303628  0.015817077    -4.344769    1.2144062  1010000 
 2404000   0.80834334   -4.3435464   -4.3435464   -3.1310325  0.019044988   -4.3435464    1.2125138  1010000 
 2405000   0.80884052   -4.3445477   -4.3445477   -3.1312881  0.022041918   -4.3445477    1.2132596  1010000 
 2406000   0.80979633   -4.3458867   -4.3458867   -3.1311934  0.017262032   -4.3458867    1.2146933  1010000 
 2407000   0.80887301   -4.3449205   -4.3449205   -3.1316122  0.018063854   -4.3449205    1.2133083  1010000 
 2408000   0.80917201   -4.3456696   -4.3456696   -3.1319128  0.018092738   -4.3456696    1.2137568  1010000 
 2409000   0.80930967   -4.3458585   -4.3458585   -3.1318952   0.01761467   -4.3458585    1.2139633  1010000 
 2410000   0.80959657   -4.3461539   -4.3461539   -3.1317603  0.020215819   -4.3461539    1.2143937  1010000 
 2411000   0.80997225   -4.3465901   -4.3465901    -3.131633  0.019192787   -4.3465901    1.2149572  1010000 
 2412000   0.80973385   -4.3464021   -4.3464021   -3.1318025  0.019790654   -4.3464021    1.2145996  1010000 
 2413000   0.80968567   -4.3461436   -4.3461436   -3.1316163  0.019166301   -4.3461436    1.2145273  1010000 
 2414000   0.80931427   -4.3460992   -4.3460992    -3.132129  0.019936572   -4.3460992    1.2139702  1010000 
 2415000   0.80999065   -4.3467549   -4.3467549   -3.1317702  0.020809954   -4.3467549    1.2149848  1010000 
 2416000   0.81041088   -4.3475844   -4.3475844   -3.1319693  0.019437182   -4.3475844    1.2156151  1010000 
 2417000   0.81007523   -4.3467982   -4.3467982   -3.1316865  0.018468911   -4.3467982    1.2151116  1010000 
 2418000   0.80981051   -4.3464928   -4.3464928   -3.1317783   0.01415176   -4.3464928    1.2147146  1010000 
 2419000   0.80906559   -4.3458683   -4.3458683   -3.1322712  0.015302194   -4.3458683    1.2135972  1010000 
 2420000   0.80940354   -4.3463613   -4.3463613   -3.1322572  0.012673769   -4.3463613    1.2141041  1010000 
 2421000   0.80906361    -4.345785    -4.345785   -3.1321908  0.013191029    -4.345785    1.2135942  1010000 
 2422000    0.8083152   -4.3447476   -4.3447476   -3.1322761  0.016981741   -4.3447476    1.2124716  1010000 
 2423000   0.80867221   -4.3454067   -4.3454067   -3.1323996  0.019426634   -4.3454067    1.2130071  1010000 
 2424000    0.8085852   -4.3451515   -4.3451515   -3.1322749  0.018227628   -4.3451515    1.2128766  1010000 
 2425000   0.80932628   -4.3461725   -4.3461725   -3.1321843  0.016830509   -4.3461725    1.2139882  1010000 
 2426000   0.80957287   -4.3465245   -4.3465245   -3.1321664  0.019819813   -4.3465245    1.2143581  1010000 
 2427000   0.80919657   -4.3459745   -4.3459745   -3.1321808  0.016226164   -4.3459745    1.2137937  1010000 
 2428000   0.81006698   -4.3468162   -4.3468162   -3.1317169  0.014009903   -4.3468162    1.2150993  1010000 
 2429000   0.80895157   -4.3446408   -4.3446408   -3.1312146  0.016662261   -4.3446408    1.2134261  1010000 
 2430000   0.80835283   -4.3436442   -4.3436442   -3.1311161  0.020369197   -4.3436442     1.212528  1010000 
 2431000    0.8090031    -4.345195    -4.345195   -3.1316916  0.019103972    -4.345195    1.2135035  1010000 
 2432000   0.80867642   -4.3455489   -4.3455489   -3.1325355  0.016188882   -4.3455489    1.2130134  1010000 
 2433000   0.80992785   -4.3466573   -4.3466573   -3.1317667  0.020955494   -4.3466573    1.2148906  1010000 
 2434000    0.8088838   -4.3457741   -4.3457741   -3.1324496  0.018239124   -4.3457741    1.2133245  1010000 
 2435000   0.80903705   -4.3456768   -4.3456768   -3.1321224  0.021480388   -4.3456768    1.2135544  1010000 
 2436000   0.80903819   -4.3457584   -4.3457584   -3.1322023  0.020486719   -4.3457584    1.2135561  1010000 
 2437000   0.80963636   -4.3463856   -4.3463856   -3.1319322  0.015410591   -4.3463856    1.2144533  1010000 
 2438000   0.80922658   -4.3458408   -4.3458408   -3.1320021  0.016054747   -4.3458408    1.2138387  1010000 
 2439000   0.80926869   -4.3466804   -4.3466804   -3.1327786  0.017034389   -4.3466804    1.2139018  1010000 
 2440000   0.81000548   -4.3472261   -4.3472261   -3.1322191  0.017696815   -4.3472261     1.215007  1010000 
 2441000   0.80907704   -4.3456906   -4.3456906   -3.1320762  0.020611206   -4.3456906    1.2136144  1010000 
 2442000   0.80982316   -4.3467743   -4.3467743   -3.1320408  0.016636952   -4.3467743    1.2147335  1010000 
 2443000   0.81004554   -4.3469766   -4.3469766   -3.1319095  0.017447486   -4.3469766    1.2150671  1010000 
 2444000   0.81038028   -4.3474826   -4.3474826   -3.1319134  0.016952676   -4.3474826    1.2155692  1010000 
 2445000   0.80886955   -4.3458936   -4.3458936   -3.1325904  0.018572791   -4.3458936    1.2133031  1010000 
 2446000   0.80860391   -4.3456075   -4.3456075   -3.1327028  0.018182263   -4.3456075    1.2129047  1010000 
 2447000   0.80840947   -4.3454092   -4.3454092   -3.1327962  0.017628296   -4.3454092     1.212613  1010000 
 2448000   0.80903024   -4.3467373   -4.3467373   -3.1331932  0.012859692   -4.3467373    1.2135442  1010000 
 2449000   0.80913355   -4.3459048   -4.3459048   -3.1322057  0.015767184   -4.3459048    1.2136991  1010000 
 2450000    0.8094932   -4.3461151   -4.3461151   -3.1318765  0.018850234   -4.3461151    1.2142386  1010000 
 2451000   0.80909576   -4.3455909   -4.3455909   -3.1319485  0.018936884   -4.3455909    1.2136424  1010000 
 2452000   0.80912148    -4.345825    -4.345825    -3.132144  0.019656493    -4.345825     1.213681  1010000 
 2453000   0.81015272   -4.3472682   -4.3472682   -3.1320403  0.014505342   -4.3472682    1.2152279  1010000 
 2454000   0.80946333   -4.3466827   -4.3466827   -3.1324889  0.020691483   -4.3466827    1.2141938  1010000 
 2455000     0.809025   -4.3467418   -4.3467418   -3.1332055  0.018616774   -4.3467418    1.2135363  1010000 
 2456000   0.80899699   -4.3475301   -4.3475301   -3.1340358   0.01713322   -4.3475301    1.2134943  1010000 
 2457000   0.80923439   -4.3479402   -4.3479402   -3.1340898  0.014686987   -4.3479402    1.2138504  1010000 
 2458000   0.80929104    -4.347674    -4.347674   -3.1337387  0.017664076    -4.347674    1.2139354  1010000 
 2459000   0.80879816   -4.3471958   -4.3471958   -3.1339998  0.016464778   -4.3471958     1.213196  1010000 
 2460000   0.80874089   -4.3476692   -4.3476692   -3.1345591  0.015649878   -4.3476692    1.2131101  1010000 
 2461000   0.80918694   -4.3477969   -4.3477969   -3.1340177  0.016233424   -4.3477969    1.2137792  1010000 
 2462000   0.80925676   -4.3479051   -4.3479051   -3.1340212  0.016999159   -4.3479051    1.2138839  1010000 
 2463000   0.80963424   -4.3482827   -4.3482827   -3.1338325  0.018614108   -4.3482827    1.2144502  1010000 
 2464000   0.80931188   -4.3485055   -4.3485055   -3.1345389  0.018323187   -4.3485055    1.2139666  1010000 
 2465000   0.80860742   -4.3471206   -4.3471206   -3.1342106  0.020016843   -4.3471206    1.2129099  1010000 
 2466000   0.80868668   -4.3473007   -4.3473007   -3.1342718  0.021857064   -4.3473007    1.2130288  1010000 
 2467000   0.80991569   -4.3489813   -4.3489813    -3.134109  0.018060895   -4.3489813    1.2148723  1010000 
 2468000   0.80941383   -4.3486754   -4.3486754   -3.1345558  0.019506786   -4.3486754    1.2141195  1010000 
 2469000   0.80990634    -4.349199    -4.349199   -3.1343407   0.01675374    -4.349199    1.2148583  1010000 
 2470000    0.8092552   -4.3481582   -4.3481582   -3.1342766  0.017355059   -4.3481582    1.2138816  1010000 
 2471000   0.80930181   -4.3475694   -4.3475694   -3.1336179  0.018897833   -4.3475694    1.2139515  1010000 
 2472000   0.80894168   -4.3473536   -4.3473536   -3.1339423   0.01945448   -4.3473536    1.2134113  1010000 
 2473000   0.80783599   -4.3466237   -4.3466237   -3.1348709   0.02230366   -4.3466237    1.2117528  1010000 
 2474000    0.8093045   -4.3489031   -4.3489031   -3.1349476  0.016172644   -4.3489031    1.2139555  1010000 
 2475000    0.8076325    -4.346586    -4.346586   -3.1351384  0.018432281    -4.346586    1.2114476  1010000 
 2476000   0.80847083   -4.3476615   -4.3476615   -3.1349565  0.018418186   -4.3476615     1.212705  1010000 
 2477000     0.808824   -4.3471646   -4.3471646   -3.1339298  0.016891896   -4.3471646    1.2132348  1010000 
 2478000    0.8089935   -4.3473949   -4.3473949   -3.1339058   0.01662135   -4.3473949     1.213489  1010000 
 2479000   0.80922157   -4.3480463   -4.3480463   -3.1342151  0.018836024   -4.3480463    1.2138311  1010000 
 2480000   0.80939844   -4.3482609   -4.3482609   -3.1341644  0.021686593   -4.3482609    1.2140965  1010000 
 2481000   0.80945296   -4.3481384   -4.3481384   -3.1339602  0.019055493   -4.3481384    1.2141782  1010000 
 2482000   0.80835533    -4.346846    -4.346846   -3.1343142  0.020710063    -4.346846    1.2125318  1010000 
 2483000   0.80835914   -4.3468964   -4.3468964   -3.1343589  0.018393134   -4.3468964    1.2125375  1010000 
 2484000   0.80891539   -4.3470494   -4.3470494   -3.1336775  0.016503933   -4.3470494    1.2133719  1010000 
 2485000   0.80933796   -4.3475491   -4.3475491   -3.1335434  0.015654867   -4.3475491    1.2140057  1010000 
 2486000   0.80969725    -4.348181    -4.348181   -3.1336363  0.017169377    -4.348181    1.2145447  1010000 
 2487000   0.80928236   -4.3477404   -4.3477404    -3.133818  0.018936874   -4.3477404    1.2139223  1010000 
 2488000   0.80898892   -4.3473644   -4.3473644   -3.1338823  0.019418581   -4.3473644    1.2134822  1010000 
 2489000   0.80803847   -4.3458845   -4.3458845    -3.133828  0.023053871   -4.3458845    1.2120565  1010000 
 2490000   0.80884871   -4.3461508   -4.3461508    -3.132879  0.019260031   -4.3461508    1.2132719  1010000 
 2491000   0.80950253   -4.3477136   -4.3477136    -3.133461  0.013669695   -4.3477136    1.2142526  1010000 
 2492000   0.80865181   -4.3470128   -4.3470128   -3.1340363  0.021231431   -4.3470128    1.2129765  1010000 
 2493000   0.80870034   -4.3467488   -4.3467488   -3.1336995  0.018903896   -4.3467488    1.2130493  1010000 
 2494000   0.80833376   -4.3462359   -4.3462359   -3.1337365  0.019479717   -4.3462359    1.2124994  1010000 
 2495000   0.80904908   -4.3476454   -4.3476454   -3.1340729  0.016555815   -4.3476454    1.2135724  1010000 
 2496000   0.80967776   -4.3483069   -4.3483069   -3.1337915  0.015117975   -4.3483069    1.2145154  1010000 
 2497000   0.80938862   -4.3471729   -4.3471729   -3.1330912  0.018773689   -4.3471729    1.2140817  1010000 
 2498000   0.80942283   -4.3472451   -4.3472451    -3.133112  0.017909295   -4.3472451     1.214133  1010000 
 2499000    0.8090977   -4.3474004   -4.3474004    -3.133755  0.016176824   -4.3474004    1.2136453  1010000 
 2500000   0.80938501   -4.3480185   -4.3480185   -3.1339422  0.013576057   -4.3480185    1.2140763  1010000 
 2501000   0.80842581   -4.3468289   -4.3468289   -3.1341913   0.01541566   -4.3468289    1.2126375  1010000 
 2502000   0.80850853   -4.3471599   -4.3471599   -3.1343983  0.015009076   -4.3471599    1.2127616  1010000 
 2503000   0.80854813   -4.3467615   -4.3467615   -3.1339405  0.014703829   -4.3467615     1.212821  1010000 
 2504000   0.80930751   -4.3484568   -4.3484568   -3.1344968  0.009569167   -4.3484568    1.2139601  1010000 
 2505000   0.80935506   -4.3487743   -4.3487743   -3.1347429  0.012087966   -4.3487743    1.2140314  1010000 
 2506000   0.80894736   -4.3483056   -4.3483056   -3.1348857  0.012372744   -4.3483056    1.2134198  1010000 
 2507000   0.80886197   -4.3485786   -4.3485786   -3.1352869   0.01629181   -4.3485786    1.2132918  1010000 
 2508000    0.8089484   -4.3485397   -4.3485397   -3.1351183  0.014395538   -4.3485397    1.2134214  1010000 
 2509000   0.80852205   -4.3482856   -4.3482856   -3.1355037  0.012554427   -4.3482856    1.2127819  1010000 
 2510000   0.80889689   -4.3479504   -4.3479504   -3.1346062  0.014942425   -4.3479504    1.2133441  1010000 
 2511000   0.80923247   -4.3481522   -4.3481522   -3.1343047  0.016681601   -4.3481522    1.2138475  1010000 
 2512000   0.80853687   -4.3473202   -4.3473202   -3.1345161  0.018073607   -4.3473202    1.2128041  1010000 
 2513000   0.80882182   -4.3483039   -4.3483039   -3.1350724  0.017818401   -4.3483039    1.2132315  1010000 
 2514000   0.80902967   -4.3490316   -4.3490316   -3.1354883  0.020920467   -4.3490316    1.2135433  1010000 
 2515000   0.80960393   -4.3500456   -4.3500456    -3.135641  0.018611462   -4.3500456    1.2144047  1010000 
 2516000   0.80924657   -4.3493628   -4.3493628   -3.1354942  0.018130015   -4.3493628    1.2138687  1010000 
 2517000   0.80973261   -4.3499802   -4.3499802   -3.1353825  0.018744877   -4.3499802    1.2145977  1010000 
 2518000   0.80952541   -4.3493244   -4.3493244   -3.1350375  0.020175747   -4.3493244    1.2142869  1010000 
 2519000   0.80954115   -4.3492037   -4.3492037   -3.1348931  0.024684211   -4.3492037    1.2143105  1010000 
 2520000   0.80895638   -4.3489815   -4.3489815   -3.1355481  0.020169004   -4.3489815    1.2134334  1010000 
 2521000   0.80875922    -4.349004    -4.349004   -3.1358664  0.017286848    -4.349004    1.2131376  1010000 
 2522000   0.80922119   -4.3491645   -4.3491645    -3.135334  0.020873014   -4.3491645    1.2138306  1010000 
 2523000   0.80839398   -4.3483921   -4.3483921   -3.1358024  0.019276229   -4.3483921    1.2125898  1010000 
 2524000   0.80892006   -4.3485247   -4.3485247   -3.1351458  0.020916318   -4.3485247    1.2133789  1010000 
 2525000   0.80901873   -4.3485542   -4.3485542   -3.1350274  0.017041115   -4.3485542    1.2135269  1010000 
 2526000   0.80864226   -4.3476268   -4.3476268   -3.1346646  0.020071729   -4.3476268    1.2129622  1010000 
 2527000   0.80936854   -4.3483577   -4.3483577   -3.1343061  0.019281862   -4.3483577    1.2140516  1010000 
 2528000   0.80993531   -4.3496934   -4.3496934   -3.1347916   0.01387132   -4.3496934    1.2149018  1010000 
 2529000   0.80865588   -4.3475995   -4.3475995   -3.1346169  0.016285296   -4.3475995    1.2129826  1010000 
 2530000   0.80846967   -4.3473718   -4.3473718   -3.1346685  0.017480832   -4.3473718    1.2127033  1010000 
 2531000   0.80863925    -4.347387    -4.347387   -3.1344294   0.01354618    -4.347387    1.2129577  1010000 
 2532000   0.80833816   -4.3465136   -4.3465136   -3.1340076  0.016987208   -4.3465136     1.212506  1010000 
 2533000   0.80819066   -4.3472705   -4.3472705   -3.1349858  0.015479081   -4.3472705    1.2122848  1010000 
 2534000    0.8080852   -4.3476558   -4.3476558   -3.1355292  0.016416348   -4.3476558    1.2121266  1010000 
 2535000   0.80780901   -4.3480212   -4.3480212   -3.1363089  0.013463509   -4.3480212    1.2117123  1010000 
 2536000    0.8085562   -4.3482394   -4.3482394   -3.1354063  0.011153505   -4.3482394    1.2128331  1010000 
 2537000   0.80884271   -4.3482665   -4.3482665   -3.1350036  0.012908593   -4.3482665    1.2132629  1010000 
 2538000   0.80769933   -4.3470778   -4.3470778     -3.13553  0.018720581   -4.3470778    1.2115478  1010000 
 2539000    0.8087292   -4.3489339   -4.3489339   -3.1358413  0.016293324   -4.3489339    1.2130926  1010000 
 2540000    0.8089563   -4.3491718   -4.3491718   -3.1357385  0.014045556   -4.3491718    1.2134333  1010000 
 2541000   0.80923589   -4.3493612   -4.3493612   -3.1355086  0.013365404   -4.3493612    1.2138526  1010000 
 2542000   0.80945026   -4.3504579   -4.3504579   -3.1362837  0.017928023   -4.3504579    1.2141742  1010000 
 2543000    0.8089763    -4.349038    -4.349038   -3.1355748  0.021977468    -4.349038    1.2134633  1010000 
 2544000   0.80941982   -4.3499899   -4.3499899   -3.1358614   0.01998626   -4.3499899    1.2141285  1010000 
 2545000   0.80960866   -4.3507649   -4.3507649   -3.1363532  0.021121182   -4.3507649    1.2144118  1010000 
 2546000   0.80970374      -4.3517      -4.3517   -3.1371456  0.016451781      -4.3517    1.2145544  1010000 
 2547000   0.80927576   -4.3511469   -4.3511469   -3.1372344   0.01688774   -4.3511469    1.2139124  1010000 
 2548000   0.80895237   -4.3511943   -4.3511943    -3.137767  0.018144895   -4.3511943    1.2134273  1010000 
 2549000   0.80866837   -4.3513657   -4.3513657   -3.1383643  0.017156027   -4.3513657    1.2130014  1010000 
 2550000    0.8087661   -4.3514582   -4.3514582   -3.1383102  0.017019642   -4.3514582     1.213148  1010000 
 2551000   0.80835069   -4.3510045   -4.3510045   -3.1384796  0.015893615   -4.3510045    1.2125248  1010000 
 2552000   0.80833761   -4.3513396   -4.3513396   -3.1388343   0.01818205   -4.3513396    1.2125052  1010000 
 2553000   0.80881357   -4.3514714   -4.3514714   -3.1382523  0.017161654   -4.3514714    1.2132192  1010000 
 2554000   0.80841154   -4.3503729   -4.3503729   -3.1377568  0.017943623   -4.3503729    1.2126161  1010000 
 2555000   0.80837186   -4.3505181   -4.3505181   -3.1379616  0.016759414   -4.3505181    1.2125566  1010000 
 2556000    0.8087375   -4.3509982   -4.3509982   -3.1378931  0.018863144   -4.3509982    1.2131051  1010000 
 2557000    0.8087248   -4.3511478   -4.3511478   -3.1380618  0.016812581   -4.3511478     1.213086  1010000 
 2558000   0.80891826    -4.350973    -4.350973   -3.1375968  0.019001509    -4.350973    1.2133762  1010000 
 2559000   0.80879714   -4.3509604   -4.3509604   -3.1377659  0.017692165   -4.3509604    1.2131945  1010000 
 2560000   0.80878025   -4.3509405   -4.3509405   -3.1377713  0.017726906   -4.3509405    1.2131692  1010000 
 2561000   0.80839448   -4.3506882   -4.3506882   -3.1380977  0.019802772   -4.3506882    1.2125905  1010000 
 2562000   0.80896146   -4.3513666   -4.3513666   -3.1379256  0.015244576   -4.3513666     1.213441  1010000 
 2563000   0.80884972   -4.3506584   -4.3506584   -3.1373851  0.015614723   -4.3506584    1.2132734  1010000 
 2564000   0.80886899   -4.3507101   -4.3507101   -3.1374078  0.015987455   -4.3507101    1.2133023  1010000 
 2565000   0.80856544   -4.3499479   -4.3499479   -3.1371009  0.019357157   -4.3499479     1.212847  1010000 
 2566000   0.80871942   -4.3498173   -4.3498173   -3.1367394  0.018144009   -4.3498173    1.2130779  1010000 
 2567000   0.80945578   -4.3505961   -4.3505961   -3.1364137  0.017896864   -4.3505961    1.2141825  1010000 
 2568000    0.8085559   -4.3493269   -4.3493269   -3.1364942  0.017691654   -4.3493269    1.2128326  1010000 
 2569000   0.80809846   -4.3490898   -4.3490898   -3.1369433  0.019878663   -4.3490898    1.2121465  1010000 
 2570000   0.80861423   -4.3499074   -4.3499074   -3.1369873  0.016370368   -4.3499074    1.2129201  1010000 
 2571000   0.80861449    -4.349249    -4.349249   -3.1363285  0.015907229    -4.349249    1.2129205  1010000 
 2572000   0.80901038   -4.3502501   -4.3502501   -3.1367357  0.016209954   -4.3502501    1.2135144  1010000 
 2573000   0.80849449   -4.3494591   -4.3494591   -3.1367186  0.016203317   -4.3494591    1.2127405  1010000 
 2574000   0.80900296   -4.3499649   -4.3499649   -3.1364617  0.015375766   -4.3499649    1.2135032  1010000 
 2575000   0.80848453   -4.3495265   -4.3495265   -3.1368009  0.017356767   -4.3495265    1.2127256  1010000 
 2576000   0.80814396   -4.3491134   -4.3491134   -3.1368987  0.019293089   -4.3491134    1.2122147  1010000 
 2577000   0.80917914   -4.3508324   -4.3508324   -3.1370649  0.011869817   -4.3508324    1.2137675  1010000 
 2578000   0.80796676   -4.3493261   -4.3493261   -3.1373772  0.017279218   -4.3493261    1.2119489  1010000 
 2579000   0.80817119     -4.34951     -4.34951   -3.1372544  0.017122378     -4.34951    1.2122556  1010000 
 2580000   0.80844611   -4.3497206   -4.3497206   -3.1370526  0.014925542   -4.3497206     1.212668  1010000 
 2581000   0.80820596   -4.3491237   -4.3491237   -3.1368159  0.018983722   -4.3491237    1.2123077  1010000 
 2582000   0.80803243   -4.3498107   -4.3498107   -3.1377633  0.017817494   -4.3498107    1.2120474  1010000 
 2583000   0.80881439   -4.3503162   -4.3503162   -3.1370958  0.017896326   -4.3503162    1.2132204  1010000 
 2584000   0.80831452   -4.3497731   -4.3497731   -3.1373025  0.014068112   -4.3497731    1.2124706  1010000 
 2585000   0.80808691   -4.3499154   -4.3499154   -3.1377862  0.020609673   -4.3499154    1.2121292  1010000 
 2586000   0.80811102   -4.3496964   -4.3496964   -3.1375311  0.020268416   -4.3496964    1.2121653  1010000 
 2587000   0.80828321   -4.3504502   -4.3504502   -3.1380266  0.016839764   -4.3504502    1.2124236  1010000 
 2588000   0.80862003   -4.3504458   -4.3504458    -3.137517  0.015348156   -4.3504458    1.2129288  1010000 
 2589000   0.80874401   -4.3515145   -4.3515145   -3.1383997  0.013380242   -4.3515145    1.2131148  1010000 
 2590000   0.80880985   -4.3516309   -4.3516309   -3.1384173  0.013703964   -4.3516309    1.2132136  1010000 
 2591000   0.80862034    -4.351279    -4.351279   -3.1383497  0.018157879    -4.351279    1.2129293  1010000 
 2592000   0.80904513    -4.352698    -4.352698   -3.1391315  0.014393881    -4.352698    1.2135665  1010000 
 2593000   0.80900791   -4.3515979   -4.3515979   -3.1380873   0.01853683   -4.3515979    1.2135107  1010000 
 2594000   0.80836262   -4.3513033   -4.3513033   -3.1387605  0.017993871   -4.3513033    1.2125427  1010000 
 2595000   0.80784602   -4.3510046   -4.3510046   -3.1392368  0.017873315   -4.3510046    1.2117678  1010000 
 2596000   0.80846375   -4.3516959   -4.3516959   -3.1390015  0.016408555   -4.3516959    1.2126944  1010000 
 2597000   0.80851028   -4.3520955   -4.3520955   -3.1393313  0.014418547   -4.3520955    1.2127642  1010000 
 2598000   0.80908354   -4.3530755   -4.3530755   -3.1394514   0.01642024   -4.3530755    1.2136241  1010000 
 2599000   0.80862996   -4.3526594   -4.3526594   -3.1397157  0.018088092   -4.3526594    1.2129437  1010000 
 2600000   0.80914102   -4.3532977   -4.3532977   -3.1395874  0.012324077   -4.3532977    1.2137103  1010000 
 2601000   0.80823822   -4.3521718   -4.3521718   -3.1398156  0.019864055   -4.3521718    1.2123561  1010000 
 2602000   0.80856878   -4.3524889   -4.3524889   -3.1396369  0.019211994   -4.3524889     1.212852  1010000 
 2603000   0.80864474   -4.3524222   -4.3524222   -3.1394563  0.018370509   -4.3524222    1.2129659  1010000 
 2604000   0.80860623   -4.3529086   -4.3529086   -3.1400004   0.01776479   -4.3529086    1.2129081  1010000 
 2605000   0.80812263   -4.3518772   -4.3518772   -3.1396944  0.017892795   -4.3518772    1.2121827  1010000 
 2606000   0.80866448   -4.3526188   -4.3526188   -3.1396233  0.019206504   -4.3526188    1.2129955  1010000 
 2607000   0.80805877   -4.3526734   -4.3526734   -3.1405865  0.016711591   -4.3526734     1.212087  1010000 
 2608000   0.80806409   -4.3527367   -4.3527367   -3.1406418  0.016680698   -4.3527367    1.2120949  1010000 
 2609000   0.80851902   -4.3528829   -4.3528829   -3.1401056  0.017842336   -4.3528829    1.2127773  1010000 
 2610000   0.80782286   -4.3522154   -4.3522154   -3.1404823  0.016636144   -4.3522154    1.2117331  1010000 
 2611000   0.80754099   -4.3517705   -4.3517705   -3.1404602  0.014951828   -4.3517705    1.2113103  1010000 
 2612000   0.80802994   -4.3523521   -4.3523521   -3.1403084  0.015273957   -4.3523521    1.2120437  1010000 
 2613000   0.80852256   -4.3533737   -4.3533737    -3.140591  0.010518512   -4.3533737    1.2127826  1010000 
 2614000   0.80732691   -4.3516753   -4.3516753   -3.1406861  0.017577527   -4.3516753    1.2109892  1010000 
 2615000   0.80836382   -4.3528609   -4.3528609   -3.1403163  0.016608564   -4.3528609    1.2125445  1010000 
 2616000   0.80861582   -4.3526394   -4.3526394   -3.1397169  0.016251894   -4.3526394    1.2129225  1010000 
 2617000   0.80842363   -4.3523573   -4.3523573   -3.1397231   0.01902111   -4.3523573    1.2126342  1010000 
 2618000   0.80834349   -4.3523171   -4.3523171    -3.139803  0.018035543   -4.3523171     1.212514  1010000 
 2619000   0.80794838   -4.3521196   -4.3521196   -3.1401982  0.020678387   -4.3521196    1.2119214  1010000 
 2620000   0.80788004   -4.3514004   -4.3514004   -3.1395815  0.021363503   -4.3514004    1.2118189  1010000 
 2621000   0.80829206   -4.3522259   -4.3522259    -3.139789  0.016813543   -4.3522259    1.2124369  1010000 
 2622000   0.80783994   -4.3521761   -4.3521761   -3.1404174  0.015117589   -4.3521761    1.2117587  1010000 
 2623000   0.80833529   -4.3527108   -4.3527108    -3.140209  0.014692603   -4.3527108    1.2125017  1010000 
 2624000   0.80785282   -4.3518925   -4.3518925   -3.1401145  0.016645677   -4.3518925     1.211778  1010000 
 2625000   0.80762411   -4.3514028   -4.3514028   -3.1399679  0.014164596   -4.3514028     1.211435  1010000 
 2626000   0.80747894   -4.3516676   -4.3516676   -3.1404504  0.014565527   -4.3516676    1.2112172  1010000 
 2627000    0.8074626   -4.3510603   -4.3510603   -3.1398676  0.014271683   -4.3510603    1.2111927  1010000 
 2628000   0.80834519   -4.3520029   -4.3520029   -3.1394863  0.015921444   -4.3520029    1.2125166  1010000 
 2629000   0.80842773   -4.3523838   -4.3523838   -3.1397434  0.017810007   -4.3523838    1.2126404  1010000 
 2630000   0.80842477   -4.3526031   -4.3526031   -3.1399672  0.017653412   -4.3526031     1.212636  1010000 
 2631000   0.80828762   -4.3519332   -4.3519332    -3.139503  0.016803087   -4.3519332    1.2124302  1010000 
 2632000     0.807728   -4.3511119   -4.3511119   -3.1395211  0.017341959   -4.3511119    1.2115908  1010000 
 2633000   0.80768554   -4.3514426   -4.3514426   -3.1399155  0.017274404   -4.3514426    1.2115271  1010000 
 2634000    0.8078978   -4.3514727   -4.3514727   -3.1396272  0.017411611   -4.3514727    1.2118455  1010000 
 2635000   0.80823933   -4.3524977   -4.3524977   -3.1401399   0.01638652   -4.3524977    1.2123578  1010000 
 2636000   0.80756933    -4.351791    -4.351791   -3.1404382  0.017295346    -4.351791    1.2113528  1010000 
 2637000   0.80696521   -4.3512407   -4.3512407   -3.1407941  0.018382902   -4.3512407    1.2104466  1010000 
 2638000   0.80756416   -4.3523761   -4.3523761   -3.1410311  0.017027648   -4.3523761     1.211345  1010000 
 2639000   0.80789016    -4.351777    -4.351777    -3.139943  0.018361648    -4.351777     1.211834  1010000 
 2640000    0.8083796   -4.3524871   -4.3524871   -3.1399189  0.017504758   -4.3524871    1.2125682  1010000 
 2641000   0.80797989   -4.3525362   -4.3525362   -3.1405675  0.017255377   -4.3525362    1.2119686  1010000 
 2642000   0.80801721   -4.3527865   -4.3527865   -3.1407619  0.017031451   -4.3527865    1.2120246  1010000 
 2643000    0.8076494   -4.3531907   -4.3531907   -3.1417178   0.01750043   -4.3531907    1.2114729  1010000 
 2644000    0.8078025   -4.3540222   -4.3540222   -3.1423197  0.016837732   -4.3540222    1.2117025  1010000 
 2645000    0.8078088   -4.3531864   -4.3531864   -3.1414744  0.017126527   -4.3531864     1.211712  1010000 
 2646000   0.80698907   -4.3524966   -4.3524966   -3.1420141   0.01697202   -4.3524966    1.2104824  1010000 
 2647000   0.80736165   -4.3525074   -4.3525074   -3.1414661  0.021455405   -4.3525074    1.2110413  1010000 
 2648000   0.80809913   -4.3537374   -4.3537374   -3.1415899  0.017049781   -4.3537374    1.2121475  1010000 
 2649000   0.80788744   -4.3533926   -4.3533926   -3.1415626  0.016927218   -4.3533926      1.21183  1010000 
 2650000   0.80814368   -4.3532454   -4.3532454    -3.141031  0.016744179   -4.3532454    1.2122143  1010000 
 2651000   0.80763801   -4.3525177   -4.3525177   -3.1410619  0.019771939   -4.3525177    1.2114558  1010000 
 2652000   0.80818533   -4.3535662   -4.3535662   -3.1412894  0.018319855   -4.3535662    1.2122768  1010000 
 2653000   0.80845145   -4.3540204   -4.3540204   -3.1413444  0.018318706   -4.3540204     1.212676  1010000 
 2654000   0.80776396   -4.3526831   -4.3526831   -3.1410384  0.021499685   -4.3526831    1.2116447  1010000 
 2655000   0.80826484   -4.3530414   -4.3530414   -3.1406453  0.017388751   -4.3530414    1.2123961  1010000 
 2656000   0.80829227   -4.3528075   -4.3528075   -3.1403702  0.021638717   -4.3528075    1.2124372  1010000 
 2657000   0.80770529   -4.3519072   -4.3519072   -3.1403505  0.020704578   -4.3519072    1.2115567  1010000 
 2658000   0.80877958   -4.3537717   -4.3537717   -3.1406035  0.016583133   -4.3537717    1.2131682  1010000 
 2659000   0.80832457   -4.3532819   -4.3532819   -3.1407963  0.018694402   -4.3532819    1.2124857  1010000 
 2660000   0.80878645   -4.3540489   -4.3540489   -3.1408704  0.017679084   -4.3540489    1.2131785  1010000 
 2661000   0.80804651   -4.3539641   -4.3539641   -3.1418955  0.015547269   -4.3539641    1.2120686  1010000 
 2662000   0.80782703   -4.3534622   -4.3534622   -3.1417229  0.016394359   -4.3534622    1.2117393  1010000 
 2663000   0.80748041   -4.3527595   -4.3527595   -3.1415401  0.017304912   -4.3527595    1.2112194  1010000 
 2664000   0.80771604   -4.3527934   -4.3527934   -3.1412205  0.015528001   -4.3527934    1.2115729  1010000 
 2665000   0.80741065   -4.3531032   -4.3531032   -3.1419884  0.016444278   -4.3531032    1.2111148  1010000 
 2666000   0.80759015   -4.3529755   -4.3529755   -3.1415914  0.015168474   -4.3529755     1.211384  1010000 
 2667000   0.80790393   -4.3538407   -4.3538407    -3.141986  0.015406531   -4.3538407    1.2118547  1010000 
 2668000    0.8067958   -4.3520292   -4.3520292   -3.1418367  0.018341442   -4.3520292    1.2101925  1010000 
 2669000   0.80709565   -4.3521732   -4.3521732    -3.141531   0.01603538   -4.3521732    1.2106423  1010000 
 2670000   0.80811942    -4.352409    -4.352409    -3.140231  0.015504737    -4.352409    1.2121779  1010000 
 2671000    0.8080209    -4.352732    -4.352732   -3.1407019  0.017158947    -4.352732    1.2120301  1010000 
 2672000   0.80868944   -4.3541332   -4.3541332   -3.1411002  0.015038912   -4.3541332     1.213033  1010000 
 2673000   0.80842003   -4.3526858   -4.3526858   -3.1400569  0.014167184   -4.3526858    1.2126288  1010000 
 2674000   0.80800195   -4.3530198   -4.3530198   -3.1410181  0.016449127   -4.3530198    1.2120017  1010000 
 2675000   0.80797389   -4.3530349   -4.3530349   -3.1410752  0.018833597   -4.3530349    1.2119596  1010000 
 2676000   0.80762807   -4.3523367   -4.3523367   -3.1408958  0.020943155   -4.3523367    1.2114409  1010000 
 2677000   0.80779229   -4.3527866   -4.3527866   -3.1410994   0.01851733   -4.3527866    1.2116872  1010000 
 2678000   0.80785976   -4.3533827   -4.3533827   -3.1415943  0.013162562   -4.3533827    1.2117884  1010000 
 2679000   0.80772524   -4.3521385   -4.3521385   -3.1405519  0.018248974   -4.3521385    1.2115867  1010000 
 2680000   0.80704864   -4.3509224   -4.3509224   -3.1403506  0.019226059   -4.3509224    1.2105718  1010000 
 2681000   0.80808336   -4.3525037   -4.3525037   -3.1403798  0.017328634   -4.3525037    1.2121238  1010000 
 2682000   0.80759993   -4.3515575   -4.3515575   -3.1401588  0.020239579   -4.3515575    1.2113987  1010000 
 2683000   0.80748187   -4.3517016   -4.3517016     -3.14048  0.020424116   -4.3517016    1.2112216  1010000 
 2684000   0.80802124   -4.3526711   -4.3526711   -3.1406404  0.019796592   -4.3526711    1.2120307  1010000 
 2685000     0.807851   -4.3522287   -4.3522287   -3.1404534  0.017143309   -4.3522287    1.2117753  1010000 
 2686000   0.80818551   -4.3520907   -4.3520907   -3.1398137  0.017654192   -4.3520907    1.2122771  1010000 
 2687000   0.80800412   -4.3516891   -4.3516891   -3.1396841  0.018255746   -4.3516891     1.212005  1010000 
 2688000   0.80875592   -4.3524175   -4.3524175   -3.1392848  0.017961409   -4.3524175    1.2131327  1010000 
 2689000   0.80892139   -4.3522169   -4.3522169    -3.138836  0.015267753   -4.3522169    1.2133809  1010000 
 2690000   0.80802851   -4.3511705   -4.3511705   -3.1391289  0.021600903   -4.3511705    1.2120416  1010000 
 2691000   0.80899237   -4.3529165   -4.3529165   -3.1394292  0.018683977   -4.3529165    1.2134873  1010000 
 2692000   0.80796319   -4.3515215   -4.3515215   -3.1395779  0.019260944   -4.3515215    1.2119436  1010000 
 2693000   0.80822625   -4.3527923   -4.3527923   -3.1404541  0.015475506   -4.3527923    1.2123382  1010000 
 2694000   0.80703495   -4.3510465   -4.3510465   -3.1404952  0.018077917   -4.3510465    1.2105512  1010000 
 2695000   0.80737731   -4.3515735   -4.3515735   -3.1405087  0.012546947   -4.3515735    1.2110648  1010000 
 2696000   0.80718936   -4.3517347   -4.3517347   -3.1409518  0.012988302   -4.3517347    1.2107828  1010000 
 2697000   0.80679223   -4.3520073   -4.3520073   -3.1418201  0.011991014   -4.3520073    1.2101872  1010000 
 2698000   0.80663592   -4.3517764   -4.3517764   -3.1418237  0.017465686   -4.3517764    1.2099527  1010000 
 2699000   0.80693169   -4.3518823   -4.3518823    -3.141486  0.011429696   -4.3518823    1.2103963  1010000 
 2700000   0.80764348    -4.353065    -4.353065    -3.141601  0.013457656    -4.353065     1.211464  1010000 
 2701000   0.80808489   -4.3538111   -4.3538111    -3.141685  0.011634569   -4.3538111    1.2121261  1010000 
 2702000   0.80834373   -4.3534206   -4.3534206   -3.1409062  0.017228305   -4.3534206    1.2125144  1010000 
 2703000   0.80824118   -4.3533631   -4.3533631   -3.1410025  0.016245232   -4.3533631    1.2123606  1010000 
 2704000   0.80848513   -4.3542695   -4.3542695    -3.141543  0.018778996   -4.3542695    1.2127265  1010000 
 2705000   0.80785824   -4.3531044   -4.3531044   -3.1413183   0.01786096   -4.3531044    1.2117862  1010000 
 2706000   0.80807404   -4.3536389   -4.3536389   -3.1415291  0.018342546   -4.3536389    1.2121099  1010000 
 2707000   0.80737296   -4.3538617   -4.3538617   -3.1428034  0.017913919   -4.3538617    1.2110582  1010000 
 2708000   0.80716879   -4.3540402   -4.3540402   -3.1432882  0.015740494   -4.3540402     1.210752  1010000 
 2709000    0.8076001   -4.3545829   -4.3545829   -3.1431839  0.020354738   -4.3545829    1.2113989  1010000 
 2710000    0.8077127    -4.354819    -4.354819   -3.1432512  0.020723152    -4.354819    1.2115678  1010000 
 2711000   0.80711092   -4.3539681   -4.3539681   -3.1433029  0.018430864   -4.3539681    1.2106652  1010000 
 2712000   0.80754711   -4.3549507   -4.3549507   -3.1436313  0.016913793   -4.3549507    1.2113195  1010000 
 2713000   0.80764383   -4.3547607   -4.3547607   -3.1432962  0.018254179   -4.3547607    1.2114645  1010000 
 2714000   0.80805111   -4.3555421   -4.3555421   -3.1434667   0.02415035   -4.3555421    1.2120755  1010000 
 2715000   0.80843751    -4.356171    -4.356171   -3.1435159  0.019215192    -4.356171    1.2126551  1010000 
 2716000   0.80792053   -4.3556085   -4.3556085   -3.1437289  0.016585368   -4.3556085    1.2118796  1010000 
 2717000   0.80819059   -4.3561022   -4.3561022   -3.1438175  0.016475385   -4.3561022    1.2122847  1010000 
 2718000   0.80764199   -4.3554383   -4.3554383   -3.1439765  0.019591267   -4.3554383    1.2114618  1010000 
 2719000   0.80788895   -4.3557469   -4.3557469   -3.1439147   0.01766526   -4.3557469    1.2118322  1010000 
 2720000   0.80794376   -4.3559343   -4.3559343   -3.1440199  0.014499789   -4.3559343    1.2119144  1010000 
 2721000   0.80665028   -4.3537303   -4.3537303    -3.143756  0.016759473   -4.3537303    1.2099742  1010000 
 2722000   0.80682194   -4.3533101   -4.3533101   -3.1430784  0.020171374   -4.3533101    1.2102317  1010000 
 2723000   0.80796112   -4.3550948   -4.3550948   -3.1431543  0.015801413   -4.3550948    1.2119405  1010000 
 2724000   0.80762901   -4.3537935   -4.3537935   -3.1423512  0.017233519   -4.3537935    1.2114423  1010000 
 2725000   0.80751399   -4.3539522   -4.3539522   -3.1426824  0.016387895   -4.3539522    1.2112698  1010000 
 2726000   0.80755502   -4.3545891   -4.3545891   -3.1432577  0.017629934   -4.3545891    1.2113313  1010000 
 2727000   0.80712587   -4.3544174   -4.3544174   -3.1437298  0.017065718   -4.3544174    1.2106876  1010000 
 2728000   0.80726306   -4.3546018   -4.3546018   -3.1437084   0.01497701   -4.3546018    1.2108934  1010000 
 2729000   0.80653775   -4.3536027   -4.3536027   -3.1437973  0.013545911   -4.3536027    1.2098054  1010000 
 2730000   0.80621796   -4.3532249   -4.3532249   -3.1438991   0.01553463   -4.3532249    1.2093257  1010000 
 2731000   0.80722997   -4.3550718   -4.3550718   -3.1442281  0.012057849   -4.3550718    1.2108438  1010000 
 2732000   0.80691001   -4.3551652   -4.3551652   -3.1448014  0.011735967   -4.3551652    1.2103638  1010000 
 2733000   0.80779194   -4.3562129   -4.3562129   -3.1445262  0.012878386   -4.3562129    1.2116867  1010000 
 2734000   0.80687075   -4.3550201   -4.3550201   -3.1447151  0.015789021   -4.3550201    1.2103049  1010000 
 2735000    0.8077258   -4.3558499   -4.3558499   -3.1442624  0.018363194   -4.3558499    1.2115875  1010000 
 2736000   0.80726437   -4.3556389   -4.3556389   -3.1447435  0.016093347   -4.3556389    1.2108954  1010000 
 2737000   0.80797596    -4.355841    -4.355841   -3.1438783  0.018068335    -4.355841    1.2119627  1010000 
 2738000    0.8070378   -4.3550679   -4.3550679   -3.1445124  0.019238769   -4.3550679    1.2105555  1010000 
 2739000   0.80673599   -4.3546404   -4.3546404   -3.1445376  0.020845261   -4.3546404    1.2101028  1010000 
 2740000   0.80744178   -4.3555418   -4.3555418   -3.1443804  0.016890831   -4.3555418    1.2111615  1010000 
 2741000   0.80764378   -4.3552785   -4.3552785    -3.143814  0.019645882   -4.3552785    1.2114645  1010000 
 2742000   0.80900956   -4.3578068   -4.3578068   -3.1442937  0.016109308   -4.3578068    1.2135131  1010000 
 2743000   0.80767028   -4.3559602   -4.3559602    -3.144456  0.023251044   -4.3559602    1.2115042  1010000 
 2744000   0.80779825   -4.3559533   -4.3559533   -3.1442571    0.0198774   -4.3559533    1.2116962  1010000 
 2745000   0.80792446   -4.3561914   -4.3561914   -3.1443059  0.019393583   -4.3561914    1.2118855  1010000 
 2746000   0.80775362    -4.355862    -4.355862   -3.1442328  0.018395006    -4.355862    1.2116292  1010000 
 2747000   0.80750819   -4.3559877   -4.3559877   -3.1447266  0.015883082   -4.3559877    1.2112611  1010000 
 2748000   0.80637742   -4.3556242   -4.3556242   -3.1460593  0.016330282   -4.3556242    1.2095649  1010000 
 2749000   0.80692328   -4.3562837   -4.3562837      -3.1459  0.012144867   -4.3562837    1.2103837  1010000 
 2750000   0.80735037   -4.3562767   -4.3562767   -3.1452523  0.014513133   -4.3562767    1.2110244  1010000 
 2751000   0.80713425   -4.3554354   -4.3554354   -3.1447352  0.013495601   -4.3554354    1.2107002  1010000 
 2752000   0.80668486   -4.3547186   -4.3547186   -3.1446925  0.015483852   -4.3547186    1.2100261  1010000 
 2753000   0.80717907   -4.3553808   -4.3553808   -3.1446134  0.014866213   -4.3553808    1.2107674  1010000 
 2754000   0.80762864   -4.3555752   -4.3555752   -3.1441335  0.016918477   -4.3555752    1.2114418  1010000 
 2755000   0.80743931    -4.355132    -4.355132   -3.1439742  0.020190143    -4.355132    1.2111578  1010000 
 2756000   0.80751734   -4.3553593   -4.3553593   -3.1440845  0.017670841   -4.3553593    1.2112748  1010000 
 2757000   0.80765123   -4.3560078   -4.3560078   -3.1445321  0.014615841   -4.3560078    1.2114756  1010000 
 2758000    0.8070461   -4.3546842   -4.3546842   -3.1441163  0.013557509   -4.3546842     1.210568  1010000 
 2759000   0.80738575   -4.3562929   -4.3562929   -3.1452155   0.01271248   -4.3562929    1.2110774  1010000 
 2760000   0.80639395   -4.3551301   -4.3551301   -3.1455404  0.014049223   -4.3551301    1.2095897  1010000 
 2761000   0.80760842   -4.3563015   -4.3563015   -3.1448901  0.013172027   -4.3563015    1.2114114  1010000 
 2762000   0.80773027   -4.3557767   -4.3557767   -3.1441825  0.016022054   -4.3557767    1.2115942  1010000 
 2763000   0.80831897   -4.3567347   -4.3567347   -3.1442575  0.019303134   -4.3567347    1.2124773  1010000 
 2764000     0.807396   -4.3554066   -4.3554066   -3.1443138  0.018174808   -4.3554066    1.2110928  1010000 
 2765000   0.80801691   -4.3565009   -4.3565009   -3.1444767  0.019652396   -4.3565009    1.2120242  1010000 
 2766000   0.80755426   -4.3556532   -4.3556532    -3.144323  0.022859089   -4.3556532    1.2113302  1010000 
 2767000   0.80709765   -4.3555748   -4.3555748   -3.1449296  0.019582627   -4.3555748    1.2106453  1010000 
 2768000   0.80688362   -4.3555369   -4.3555369   -3.1452126  0.017433964   -4.3555369    1.2103242  1010000 
 2769000    0.8067497   -4.3548735   -4.3548735   -3.1447502  0.014828869   -4.3548735    1.2101234  1010000 
 2770000   0.80730456   -4.3560462   -4.3560462   -3.1450906  0.010892632   -4.3560462    1.2109556  1010000 
 2771000   0.80648842    -4.355361    -4.355361   -3.1456296  0.016037306    -4.355361    1.2097314  1010000 
 2772000   0.80617709   -4.3557887   -4.3557887   -3.1465242  0.015566597   -4.3557887    1.2092644  1010000 
 2773000   0.80657849   -4.3559307   -4.3559307   -3.1460642  0.017450629   -4.3559307    1.2098665  1010000 
 2774000   0.80677729   -4.3560006   -4.3560006   -3.1458358  0.015298031   -4.3560006    1.2101647  1010000 
 2775000   0.80744563   -4.3565057   -4.3565057   -3.1453385  0.014786274   -4.3565057    1.2111672  1010000 
 2776000   0.80747871   -4.3561728   -4.3561728   -3.1449559  0.013539458   -4.3561728    1.2112169  1010000 
 2777000    0.8071752   -4.3556897   -4.3556897   -3.1449281  0.016369669   -4.3556897    1.2107616  1010000 
 2778000   0.80772107   -4.3565216   -4.3565216   -3.1449412  0.015400663   -4.3565216    1.2115804  1010000 
 2779000   0.80676662   -4.3553726   -4.3553726   -3.1452238  0.018380354   -4.3553726    1.2101487  1010000 
 2780000   0.80725142    -4.356831    -4.356831   -3.1459551  0.017556361    -4.356831    1.2108759  1010000 
 2781000   0.80703924   -4.3562175   -4.3562175   -3.1456598  0.021562513   -4.3562175    1.2105577  1010000 
 2782000   0.80635172   -4.3558054   -4.3558054   -3.1462791   0.01676136   -4.3558054    1.2095264  1010000 
 2783000   0.80708824   -4.3565897   -4.3565897   -3.1459585   0.01471691   -4.3565897    1.2106312  1010000 
 2784000   0.80622901   -4.3559051   -4.3559051   -3.1465628  0.015442867   -4.3559051    1.2093423  1010000 
 2785000   0.80652826   -4.3565495   -4.3565495   -3.1467583  0.013393786   -4.3565495    1.2097912  1010000 
 2786000   0.80643981   -4.3566344   -4.3566344   -3.1469759  0.013126383   -4.3566344    1.2096585  1010000 
 2787000   0.80688795   -4.3567844   -4.3567844   -3.1464537  0.018763925   -4.3567844    1.2103307  1010000 
 2788000   0.80716821   -4.3574926   -4.3574926   -3.1467415  0.016400571   -4.3574926    1.2107511  1010000 
 2789000   0.80753211   -4.3587151   -4.3587151   -3.1474182  0.013947768   -4.3587151     1.211297  1010000 
 2790000   0.80645545   -4.3571363   -4.3571363   -3.1474543  0.021470883   -4.3571363     1.209682  1010000 
 2791000   0.80735989   -4.3584331   -4.3584331   -3.1473945  0.016522868   -4.3584331    1.2110386  1010000 
 2792000    0.8073632   -4.3581804   -4.3581804   -3.1471368  0.020148995   -4.3581804    1.2110436  1010000 
 2793000   0.80750945   -4.3578689   -4.3578689   -3.1466059  0.021012021   -4.3578689     1.211263  1010000 
 2794000   0.80697545   -4.3572835   -4.3572835   -3.1468216  0.021082157   -4.3572835     1.210462  1010000 
 2795000   0.80784183   -4.3586379   -4.3586379   -3.1468764  0.023300149   -4.3586379    1.2117616  1010000 
 2796000   0.80822486   -4.3590761   -4.3590761     -3.14674  0.019153638   -4.3590761    1.2123361  1010000 
 2797000   0.80745822   -4.3588727   -4.3588727   -3.1476865  0.019873304   -4.3588727    1.2111861  1010000 
 2798000   0.80799318    -4.359821    -4.359821   -3.1478325  0.019097427    -4.359821    1.2119886  1010000 
 2799000    0.8071958    -4.358754    -4.358754   -3.1479615  0.017640609    -4.358754    1.2107925  1010000 
 2800000   0.80729241   -4.3587008   -4.3587008   -3.1477634  0.018586817   -4.3587008    1.2109374  1010000 
 2801000   0.80571187   -4.3566395   -4.3566395   -3.1480729  0.017319439   -4.3566395    1.2085666  1010000 
 2802000   0.80625531    -4.357295    -4.357295   -3.1479132   0.01443747    -4.357295    1.2093818  1010000 
 2803000   0.80744864   -4.3588218   -4.3588218   -3.1476501  0.012929179   -4.3588218    1.2111718  1010000 
 2804000    0.8072006    -4.358488    -4.358488   -3.1476883  0.013583403    -4.358488    1.2107997  1010000 
 2805000   0.80632202   -4.3564638   -4.3564638    -3.146982  0.017301428   -4.3564638    1.2094818  1010000 
 2806000   0.80693945   -4.3576706   -4.3576706   -3.1472627  0.011794194   -4.3576706     1.210408  1010000 
 2807000   0.80730121   -4.3573572   -4.3573572   -3.1464066  0.017291444   -4.3573572    1.2109506  1010000 
 2808000   0.80795492   -4.3577764   -4.3577764   -3.1458452  0.013736245   -4.3577764    1.2119312  1010000 
 2809000   0.80747079   -4.3573081   -4.3573081   -3.1461031   0.01654128   -4.3573081     1.211205  1010000 
 2810000   0.80734399   -4.3573602   -4.3573602   -3.1463454  0.013717503   -4.3573602    1.2110148  1010000 
 2811000     0.806373   -4.3559921   -4.3559921   -3.1464338  0.015858117   -4.3559921    1.2095583  1010000 
 2812000   0.80649156   -4.3570655   -4.3570655   -3.1473294  0.016407391   -4.3570655    1.2097361  1010000 
 2813000   0.80611255   -4.3563306   -4.3563306   -3.1471629   0.01392446   -4.3563306    1.2091676  1010000 
 2814000   0.80652421   -4.3565462   -4.3565462   -3.1467611  0.010441785   -4.3565462    1.2097851  1010000 
 2815000   0.80613634   -4.3560119   -4.3560119   -3.1468086  0.013014807   -4.3560119    1.2092033  1010000 
 2816000    0.8065352   -4.3559475   -4.3559475   -3.1461459  0.016185588   -4.3559475    1.2098016  1010000 
 2817000   0.80689951   -4.3559044   -4.3559044   -3.1455564  0.020099325   -4.3559044    1.2103481  1010000 
 2818000   0.80786537   -4.3575915   -4.3575915   -3.1457946  0.015623711   -4.3575915    1.2117969  1010000 
 2819000   0.80698616   -4.3560186   -4.3560186   -3.1455406  0.020757022   -4.3560186     1.210478  1010000 
 2820000   0.80817547   -4.3582886   -4.3582886   -3.1460265  0.014067137   -4.3582886     1.212262  1010000 
 2821000   0.80737537    -4.357758    -4.357758   -3.1466961  0.017754889    -4.357758    1.2110619  1010000 
 2822000   0.80670694   -4.3566586   -4.3566586   -3.1465994  0.016332182   -4.3566586    1.2100592  1010000 
 2823000   0.80666075   -4.3572233   -4.3572233   -3.1472334   0.01513703   -4.3572233    1.2099899  1010000 
 2824000   0.80684803   -4.3577827   -4.3577827   -3.1475118  0.013332569   -4.3577827    1.2102708  1010000 
 2825000   0.80684687   -4.3578942   -4.3578942   -3.1476251  0.013968761   -4.3578942    1.2102691  1010000 
 2826000   0.80672977   -4.3580112   -4.3580112   -3.1479178  0.013024515   -4.3580112    1.2100935  1010000 
 2827000   0.80627679   -4.3575831   -4.3575831   -3.1481691  0.018627313   -4.3575831     1.209414  1010000 
 2828000   0.80678009   -4.3587816   -4.3587816   -3.1486126  0.018826218   -4.3587816    1.2101689  1010000 
 2829000   0.80737233   -4.3595588   -4.3595588   -3.1485015  0.017626551   -4.3595588    1.2110573  1010000 
 2830000   0.80715777   -4.3589483   -4.3589483   -3.1482128  0.019162783   -4.3589483    1.2107355  1010000 
 2831000   0.80751868   -4.3591654   -4.3591654   -3.1478885  0.021366033   -4.3591654    1.2112768  1010000 
 2832000   0.80753074   -4.3597654   -4.3597654   -3.1484705  0.016701731   -4.3597654    1.2112949  1010000 
 2833000   0.80728582    -4.358976    -4.358976   -3.1480485  0.016505624    -4.358976    1.2109275  1010000 
 2834000   0.80722755   -4.3593634   -4.3593634   -3.1485233  0.015662841   -4.3593634    1.2108401  1010000 
 2835000   0.80694238   -4.3586937   -4.3586937   -3.1482813  0.019923979   -4.3586937    1.2104124  1010000 
 2836000   0.80734124   -4.3595638   -4.3595638   -3.1485532  0.018207345   -4.3595638    1.2110107  1010000 
 2837000   0.80740834   -4.3596776   -4.3596776   -3.1485663  0.020476769   -4.3596776    1.2111113  1010000 
 2838000   0.80670129   -4.3586119   -4.3586119   -3.1485611  0.019943024   -4.3586119    1.2100507  1010000 
 2839000    0.8070918   -4.3588636   -4.3588636   -3.1482271  0.020062613   -4.3588636    1.2106365  1010000 
 2840000   0.80623917    -4.357242    -4.357242   -3.1478844  0.018332835    -4.357242    1.2093576  1010000 
 2841000   0.80751936   -4.3589124   -4.3589124   -3.1476345  0.013076462   -4.3589124    1.2112778  1010000 
 2842000   0.80694847   -4.3580971   -4.3580971   -3.1476756  0.014484968   -4.3580971    1.2104215  1010000 
 2843000   0.80733533   -4.3582027   -4.3582027   -3.1472009  0.014395711   -4.3582027    1.2110018  1010000 
 2844000   0.80697916   -4.3580864   -4.3580864   -3.1476188  0.014892418   -4.3580864    1.2104675  1010000 
 2845000    0.8069571   -4.3577103   -4.3577103   -3.1472758  0.013855897   -4.3577103    1.2104345  1010000 
 2846000   0.80767132   -4.3580597   -4.3580597   -3.1465539  0.018575484   -4.3580597    1.2115058  1010000 
 2847000   0.80741962   -4.3575165   -4.3575165   -3.1463883  0.014975481   -4.3575165    1.2111282  1010000 
 2848000   0.80640607   -4.3555501   -4.3555501   -3.1459422  0.018092807   -4.3555501    1.2096079  1010000 
 2849000   0.80669908   -4.3565122   -4.3565122   -3.1464647  0.013377492   -4.3565122    1.2100474  1010000 
 2850000   0.80585127   -4.3547551   -4.3547551   -3.1459794  0.014531504   -4.3547551    1.2087757  1010000 
 2851000   0.80676259   -4.3563084   -4.3563084   -3.1461657  0.010564847   -4.3563084    1.2101427  1010000 
 2852000   0.80596293   -4.3558482   -4.3558482    -3.146905  0.013931611   -4.3558482    1.2089432  1010000 
 2853000   0.80618647   -4.3558055   -4.3558055    -3.146527  0.014253518   -4.3558055    1.2092785  1010000 
 2854000   0.80668105   -4.3566008   -4.3566008   -3.1465804  0.013145508   -4.3566008    1.2100204  1010000 
 2855000   0.80671007   -4.3561747   -4.3561747   -3.1461108  0.012641057   -4.3561747    1.2100639  1010000 
 2856000   0.80584349   -4.3549734   -4.3549734   -3.1462093  0.015125849   -4.3549734     1.208764  1010000 
 2857000   0.80700246   -4.3570885   -4.3570885    -3.146586  0.014156134   -4.3570885    1.2105025  1010000 
 2858000   0.80642522   -4.3565216   -4.3565216    -3.146885  0.015132364   -4.3565216    1.2096366  1010000 
 2859000   0.80728657   -4.3581173   -4.3581173   -3.1471887  0.015247951   -4.3581173    1.2109287  1010000 
 2860000    0.8068884   -4.3575761   -4.3575761   -3.1472447  0.013973042   -4.3575761    1.2103314  1010000 
 2861000   0.80679338   -4.3577152   -4.3577152   -3.1475264  0.017512331   -4.3577152    1.2101889  1010000 
 2862000   0.80685469   -4.3577004   -4.3577004   -3.1474196  0.017863825   -4.3577004    1.2102808  1010000 
 2863000   0.80719337    -4.358467    -4.358467   -3.1476781  0.015647676    -4.358467    1.2107889  1010000 
 2864000   0.80753304   -4.3587024   -4.3587024   -3.1474041   0.01859172   -4.3587024    1.2112984  1010000 
 2865000   0.80714022   -4.3579787   -4.3579787   -3.1472696  0.019271365   -4.3579787    1.2107091  1010000 
 2866000   0.80704317   -4.3587154   -4.3587154   -3.1481519  0.018367924   -4.3587154    1.2105636  1010000 
 2867000   0.80716746    -4.359117    -4.359117   -3.1483671  0.020045222    -4.359117      1.21075  1010000 
 2868000   0.80751161   -4.3594005   -4.3594005   -3.1481343    0.0214265   -4.3594005    1.2112662  1010000 
 2869000   0.80735072   -4.3588999   -4.3588999    -3.147875   0.01966835   -4.3588999    1.2110249  1010000 
 2870000   0.80814213   -4.3601511   -4.3601511   -3.1479391  0.019235827   -4.3601511     1.212212  1010000 
 2871000   0.80793237   -4.3595413   -4.3595413   -3.1476439  0.020531275   -4.3595413    1.2118974  1010000 
 2872000   0.80779908   -4.3593462   -4.3593462   -3.1476487  0.018875213   -4.3593462    1.2116974  1010000 
 2873000   0.80728703   -4.3589264   -4.3589264    -3.147997  0.020163111   -4.3589264    1.2109293  1010000 
 2874000   0.80707396   -4.3594882   -4.3594882   -3.1488785  0.016817343   -4.3594882    1.2106097  1010000 
 2875000   0.80661445   -4.3585067   -4.3585067   -3.1485862  0.019452986   -4.3585067    1.2099205  1010000 
 2876000   0.80708152   -4.3598085   -4.3598085   -3.1491874  0.012331935   -4.3598085    1.2106211  1010000 
 2877000   0.80667349   -4.3586451   -4.3586451    -3.148636  0.015289376   -4.3586451     1.210009  1010000 
 2878000   0.80569432   -4.3572317   -4.3572317   -3.1486914  0.015940916   -4.3572317    1.2085403  1010000 
 2879000   0.80604956   -4.3576263   -4.3576263   -3.1485532  0.015221152   -4.3576263    1.2090731  1010000 
 2880000   0.80590574    -4.357556    -4.357556   -3.1486986  0.014806255    -4.357556    1.2088574  1010000 
 2881000   0.80637556   -4.3571819   -4.3571819   -3.1476197  0.015971266   -4.3571819    1.2095621  1010000 
 2882000   0.80597867   -4.3570515   -4.3570515   -3.1480847  0.018320966   -4.3570515    1.2089668  1010000 
 2883000   0.80645327   -4.3573477   -4.3573477    -3.147669  0.013999382   -4.3573477    1.2096787  1010000 
 2884000   0.80637063   -4.3574118   -4.3574118   -3.1478571  0.014956092   -4.3574118    1.2095547  1010000 
 2885000   0.80595163   -4.3575205   -4.3575205   -3.1485943  0.012606032   -4.3575205    1.2089262  1010000 
 2886000   0.80598575   -4.3582311   -4.3582311   -3.1492536  0.012871145   -4.3582311    1.2089774  1010000 
 2887000   0.80590499   -4.3580561   -4.3580561   -3.1491998  0.013149375   -4.3580561    1.2088563  1010000 
 2888000   0.80619241   -4.3580509   -4.3580509   -3.1487635   0.01454609   -4.3580509    1.2092874  1010000 
 2889000    0.8058173   -4.3576126   -4.3576126   -3.1488878  0.016408157   -4.3576126    1.2087248  1010000 
 2890000    0.8070391   -4.3594447   -4.3594447   -3.1488873  0.015640547   -4.3594447    1.2105575  1010000 
 2891000   0.80623748   -4.3581555   -4.3581555   -3.1488004  0.020190917   -4.3581555     1.209355  1010000 
 2892000   0.80694556   -4.3597926   -4.3597926   -3.1493754  0.019919258   -4.3597926    1.2104171  1010000 
 2893000   0.80725866   -4.3601388   -4.3601388    -3.149252   0.01672829   -4.3601388    1.2108868  1010000 
 2894000   0.80748524   -4.3605661   -4.3605661   -3.1493394  0.020412689   -4.3605661    1.2112267  1010000 
 2895000    0.8068581    -4.359791    -4.359791   -3.1495051  0.022144952    -4.359791    1.2102859  1010000 
 2896000   0.80652661   -4.3594744   -4.3594744   -3.1496857  0.018825751   -4.3594744    1.2097887  1010000 
 2897000   0.80672603   -4.3606718   -4.3606718   -3.1505839  0.017600703   -4.3606718    1.2100878  1010000 
 2898000   0.80743868   -4.3617119   -4.3617119   -3.1505551  0.019232911   -4.3617119    1.2111568  1010000 
 2899000    0.8078052   -4.3620431   -4.3620431   -3.1503365  0.018366265   -4.3620431    1.2117066  1010000 
 2900000   0.80709152   -4.3612196   -4.3612196   -3.1505835  0.020140105   -4.3612196    1.2106361  1010000 
 2901000    0.8066281   -4.3612404   -4.3612404   -3.1512995  0.016567602   -4.3612404     1.209941  1010000 
 2902000   0.80703423   -4.3614111   -4.3614111   -3.1508609  0.011531504   -4.3614111    1.2105501  1010000 
 2903000   0.80645345    -4.360472    -4.360472    -3.150793  0.021125299    -4.360472     1.209679  1010000 
 2904000    0.8061643   -4.3602309   -4.3602309   -3.1509856  0.017137004   -4.3602309    1.2092452  1010000 
 2905000   0.80600524   -4.3595093   -4.3595093   -3.1505026  0.017104267   -4.3595093    1.2090067  1010000 
 2906000   0.80583617   -4.3595772   -4.3595772   -3.1508242  0.019736941   -4.3595772    1.2087531  1010000 
 2907000   0.80639633   -4.3602798   -4.3602798   -3.1506865  0.017759018   -4.3602798    1.2095933  1010000 
 2908000    0.8066013   -4.3598723   -4.3598723   -3.1499715   0.01605592   -4.3598723    1.2099008  1010000 
 2909000   0.80671691   -4.3602018   -4.3602018   -3.1501276  0.017538227   -4.3602018    1.2100742  1010000 
 2910000   0.80646064    -4.360093    -4.360093   -3.1504033  0.018683627    -4.360093    1.2096898  1010000 
 2911000   0.80640715   -4.3602879   -4.3602879   -3.1506783  0.014802102   -4.3602879    1.2096095  1010000 
 2912000   0.80541939   -4.3583487   -4.3583487   -3.1502208  0.018264058   -4.3583487    1.2081279  1010000 
 2913000   0.80640354   -4.3596648   -4.3596648   -3.1500607  0.017009939   -4.3596648    1.2096041  1010000 
 2914000   0.80541632   -4.3583034   -4.3583034   -3.1501801  0.016651046   -4.3583034    1.2081233  1010000 
 2915000   0.80627339   -4.3589948   -4.3589948   -3.1495859  0.014384908   -4.3589948    1.2094089  1010000 
 2916000   0.80699492   -4.3599962   -4.3599962    -3.149505  0.017084444   -4.3599962    1.2104912  1010000 
 2917000    0.8062862   -4.3593563   -4.3593563   -3.1499282  0.018344521   -4.3593563    1.2094281  1010000 
 2918000   0.80676418   -4.3594375   -4.3594375   -3.1492924  0.014675197   -4.3594375    1.2101451  1010000 
 2919000   0.80692057   -4.3604392   -4.3604392   -3.1500595  0.015819051   -4.3604392    1.2103797  1010000 
 2920000   0.80680543   -4.3602935   -4.3602935   -3.1500865  0.019187484   -4.3602935    1.2102069  1010000 
 2921000   0.80630372   -4.3598095   -4.3598095   -3.1503551  0.018765717   -4.3598095    1.2094544  1010000 
 2922000   0.80649933   -4.3602586   -4.3602586   -3.1505108  0.014097916   -4.3602586    1.2097478  1010000 
 2923000   0.80576503   -4.3590012   -4.3590012   -3.1503548  0.017363688   -4.3590012    1.2086463  1010000 
 2924000   0.80689596   -4.3600899   -4.3600899   -3.1497471  0.017118995   -4.3600899    1.2103427  1010000 
 2925000   0.80776534   -4.3609483   -4.3609483   -3.1493015  0.017743352   -4.3609483    1.2116468  1010000 
 2926000   0.80730905   -4.3596265   -4.3596265   -3.1486641  0.021407488   -4.3596265    1.2109624  1010000 
 2927000   0.80747346   -4.3604635   -4.3604635   -3.1492545  0.020272035   -4.3604635     1.211209  1010000 
 2928000   0.80719685    -4.360661    -4.360661   -3.1498669  0.023511358    -4.360661    1.2107941  1010000 
 2929000   0.80782263   -4.3605753   -4.3605753   -3.1488426   0.02093882   -4.3605753    1.2117327  1010000 
 2930000   0.80729091   -4.3599098   -4.3599098   -3.1489746  0.023174702   -4.3599098    1.2109352  1010000 
 2931000   0.80600437   -4.3580591   -4.3580591   -3.1490537  0.016633344   -4.3580591    1.2090054  1010000 
 2932000   0.80704066   -4.3595429   -4.3595429   -3.1489831  0.013558915   -4.3595429    1.2105598  1010000 
 2933000   0.80630205   -4.3588066   -4.3588066   -3.1493547  0.014646988   -4.3588066    1.2094519  1010000 
 2934000   0.80682048    -4.358537    -4.358537   -3.1483075  0.015949289    -4.358537    1.2102295  1010000 
 2935000   0.80662756   -4.3585367   -4.3585367   -3.1485965  0.017600068   -4.3585367    1.2099401  1010000 
 2936000   0.80641405   -4.3587012   -4.3587012   -3.1490813  0.016037712   -4.3587012    1.2096199  1010000 
 2937000   0.80674971   -4.3588795   -4.3588795   -3.1487561  0.011590435   -4.3588795    1.2101234  1010000 
 2938000   0.80705306   -4.3588898   -4.3588898   -3.1483114   0.01371225   -4.3588898    1.2105784  1010000 
 2939000   0.80645655    -4.358234    -4.358234   -3.1485504  0.016104983    -4.358234    1.2096836  1010000 
 2940000    0.8059185   -4.3569982   -4.3569982   -3.1481217   0.01557876   -4.3569982    1.2088766  1010000 
 2941000   0.80601907   -4.3570356   -4.3570356   -3.1480082  0.014606796   -4.3570356    1.2090274  1010000 
 2942000   0.80577453   -4.3576079   -4.3576079   -3.1489473  0.016134499   -4.3576079    1.2086606  1010000 
 2943000    0.8069639   -4.3589844   -4.3589844   -3.1485397  0.014062825   -4.3589844    1.2104447  1010000 
 2944000   0.80701674   -4.3587646   -4.3587646   -3.1482407  0.012181258   -4.3587646    1.2105239  1010000 
 2945000   0.80761083   -4.3595646   -4.3595646   -3.1481496  0.014552467   -4.3595646     1.211415  1010000 
 2946000   0.80739929   -4.3590516   -4.3590516   -3.1479539  0.017801966   -4.3590516    1.2110977  1010000 
 2947000   0.80688047   -4.3588531   -4.3588531   -3.1485335  0.017198663   -4.3588531    1.2103195  1010000 
 2948000   0.80669757   -4.3593501   -4.3593501    -3.149305  0.016025165   -4.3593501    1.2100452  1010000 
 2949000   0.80652505   -4.3587241   -4.3587241   -3.1489377  0.015465607   -4.3587241    1.2097864  1010000 
 2950000    0.8066828   -4.3589383   -4.3589383   -3.1489153  0.018849641   -4.3589383     1.210023  1010000 
 2951000    0.8065043   -4.3585916   -4.3585916   -3.1488363  0.019575844   -4.3585916    1.2097553  1010000 
 2952000   0.80729458   -4.3600662   -4.3600662   -3.1491255  0.017596842   -4.3600662    1.2109407  1010000 
 2953000    0.8071282   -4.3598566   -4.3598566   -3.1491655  0.020403734   -4.3598566    1.2106911  1010000 
 2954000   0.80715861   -4.3603448   -4.3603448    -3.149608  0.016564448   -4.3603448    1.2107367  1010000 
 2955000   0.80643411   -4.3596097   -4.3596097   -3.1499598  0.018986524   -4.3596097      1.20965  1010000 
 2956000   0.80662571   -4.3598817   -4.3598817   -3.1499444  0.016857539   -4.3598817    1.2099374  1010000 
 2957000    0.8070095   -4.3600056   -4.3600056   -3.1494926  0.015249698   -4.3600056    1.2105131  1010000 
 2958000   0.80645682   -4.3591031   -4.3591031    -3.149419   0.01870737   -4.3591031     1.209684  1010000 
 2959000   0.80600178   -4.3591232   -4.3591232   -3.1501217  0.015636366   -4.3591232    1.2090015  1010000 
 2960000   0.80688518   -4.3606353   -4.3606353   -3.1503088  0.016645463   -4.3606353    1.2103266  1010000 
 2961000    0.8071228   -4.3603065   -4.3603065   -3.1496235  0.017956377   -4.3603065     1.210683  1010000 
 2962000   0.80685263   -4.3601833   -4.3601833   -3.1499056  0.016628989   -4.3601833    1.2102777  1010000 
 2963000   0.80622957   -4.3596804   -4.3596804   -3.1503373   0.01694419   -4.3596804    1.2093432  1010000 
 2964000   0.80704374   -4.3604651   -4.3604651   -3.1499007  0.016414351   -4.3604651    1.2105644  1010000 
 2965000   0.80629221   -4.3589329   -4.3589329   -3.1494957  0.019453007   -4.3589329    1.2094371  1010000 
 2966000   0.80707011   -4.3603749   -4.3603749   -3.1497709  0.013097219   -4.3603749     1.210604  1010000 
 2967000   0.80613434   -4.3590664   -4.3590664   -3.1498661  0.017377566   -4.3590664    1.2092003  1010000 
 2968000   0.80670302   -4.3598636   -4.3598636   -3.1498103  0.014577477   -4.3598636    1.2100533  1010000 
 2969000   0.80701806   -4.3602347   -4.3602347   -3.1497088  0.013812247   -4.3602347    1.2105259  1010000 
 2970000   0.80656187   -4.3593722   -4.3593722   -3.1495306  0.019444124   -4.3593722    1.2098416  1010000 
 2971000   0.80651402   -4.3596658   -4.3596658    -3.149896   0.01741052   -4.3596658    1.2097698  1010000 
 2972000   0.80674644   -4.3598171   -4.3598171   -3.1496986  0.017097005   -4.3598171    1.2101185  1010000 
 2973000   0.80668316   -4.3597436   -4.3597436     -3.14972  0.016867297   -4.3597436    1.2100235  1010000 
 2974000   0.80678971   -4.3599879   -4.3599879   -3.1498045  0.017403164   -4.3599879    1.2101834  1010000 
 2975000   0.80631552   -4.3596339   -4.3596339   -3.1501618  0.016496836   -4.3596339    1.2094721  1010000 
 2976000    0.8054637   -4.3590807   -4.3590807   -3.1508863  0.012797474   -4.3590807    1.2081944  1010000 
 2977000    0.8057282   -4.3596635   -4.3596635   -3.1510724  0.014068854   -4.3596635    1.2085911  1010000 
 2978000   0.80616109   -4.3597733   -4.3597733   -3.1505328  0.012278327   -4.3597733    1.2092404  1010000 
 2979000   0.80654362   -4.3602889   -4.3602889   -3.1504747  0.016911449   -4.3602889    1.2098142  1010000 
 2980000   0.80585188   -4.3594059   -4.3594059   -3.1506293  0.018983249   -4.3594059    1.2087766  1010000 
 2981000   0.80704151   -4.3600805   -4.3600805   -3.1495194  0.014787113   -4.3600805    1.2105611  1010000 
 2982000   0.80720208   -4.3605569   -4.3605569   -3.1497549  0.019408421   -4.3605569    1.2108019  1010000 
 2983000   0.80722398   -4.3603589   -4.3603589   -3.1495242  0.019140353   -4.3603589    1.2108348  1010000 
 2984000   0.80749366   -4.3601631   -4.3601631   -3.1489238  0.019039066   -4.3601631    1.2112393  1010000 
 2985000   0.80698413   -4.3597898   -4.3597898   -3.1493149    0.0182544   -4.3597898     1.210475  1010000 
 2986000   0.80632222   -4.3584339   -4.3584339   -3.1489518  0.022140927   -4.3584339    1.2094821  1010000 
 2987000   0.80682925   -4.3595992   -4.3595992   -3.1493565   0.01754746   -4.3595992    1.2102427  1010000 
 2988000   0.80720813   -4.3605458   -4.3605458   -3.1497348  0.016727701   -4.3605458     1.210811  1010000 
 2989000   0.80690578   -4.3602685   -4.3602685    -3.149911  0.012939209   -4.3602685    1.2103575  1010000 
 2990000   0.80689244   -4.3605806   -4.3605806   -3.1502431  0.012536897   -4.3605806    1.2103375  1010000 
 2991000   0.80592309   -4.3597943   -4.3597943   -3.1509108  0.014213951   -4.3597943    1.2088834  1010000 
 2992000    0.8065419   -4.3606019   -4.3606019   -3.1507902  0.014630161   -4.3606019    1.2098117  1010000 
 2993000    0.8055108   -4.3589927   -4.3589927   -3.1507277  0.014315561   -4.3589927     1.208265  1010000 
 2994000   0.80494333   -4.3580648   -4.3580648    -3.150651  0.017066762   -4.3580648    1.2074138  1010000 
 2995000   0.80674211   -4.3607739   -4.3607739    -3.150662  0.013204791   -4.3607739     1.210112  1010000 
 2996000   0.80609597   -4.3595385   -4.3595385   -3.1503958  0.016521334   -4.3595385    1.2091428  1010000 
 2997000   0.80630743   -4.3596987   -4.3596987   -3.1502388  0.017229251   -4.3596987    1.2094599  1010000 
 2998000   0.80660354   -4.3605525   -4.3605525   -3.1506484  0.014128346   -4.3605525    1.2099041  1010000 
 2999000   0.80663925   -4.3606485   -4.3606485   -3.1506908  0.014566743   -4.3606485    1.2099577  1010000 
 3000000   0.80640719   -4.3603574   -4.3603574   -3.1507478  0.012437763   -4.3603574    1.2096096  1010000 
Loop time of 15553.7 on 240 procs for 3000000 steps with 1010000 atoms

Performance: 83323.965 tau/day, 192.880 timesteps/s
99.1% CPU use with 240 MPI tasks x 1 OpenMP threads

MPI task timing breakdown:
Section |  min time  |  avg time  |  max time  |%varavg|  %CPU | %total
-----------------------------------------------------------------------
Pair    | 3667.7     | 5681       | 9001       |1209.0 |  99.1 | 36.53
Bond    | 0.99247    | 1.4639     | 7.5564     |  56.3 | 100.0 |  0.01
Neigh   | 1395.9     | 2083.8     | 3312.8     | 695.8 |  99.5 | 13.40
Comm    | 2610.3     | 7049       | 9779.1     |1511.0 |  98.9 | 45.32
Output  | 198.85     | 199.38     | 199.41     |   0.3 |  99.7 |  1.28
Modify  | 142.69     | 294.05     | 1091.7     |1227.2 |  99.4 |  1.89
Other   |            | 245.1      |            |       |       |  1.58

Nlocal:        4208.33 ave        4537 max        3793 min
Histogram: 2 0 1 0 12 196 24 1 3 1
Nghost:        5554.63 ave        5929 max        3954 min
Histogram: 14 26 0 0 0 0 0 0 0 200
Neighs:       149332.0 ave      158356 max       96523 min
Histogram: 3 1 8 6 2 0 0 0 90 130

Total # of neighbors = 35839674
Ave neighs/atom = 35.484826
Ave special neighs/atom = 0.0000000
Neighbor list builds = 300000
Dangerous builds = 296999

write_data	data.lj
System init for write_data ...
WARNING: Not all mixed pair coeffs generated from mixing. Use write_data with 'pair ij' option to store all pair coeffs. (src/write_data.cpp:312)
Total wall time: 4:19:23
