LAMMPS (29 Oct 2020)
  using 1 OpenMP thread(s) per MPI task
units           lj
atom_style      full
atom_modify     map array first cubes
dimension       3
boundary        p p f

variable        sigma           equal 1.0
variable        epsilon         equal 1.0

read_data       data.rigid
Reading data file ...
  orthogonal box = (0.0000000 0.0000000 0.0000000) to (20.000000 20.000000 20.000000)
  4 by 4 by 4 MPI processor grid
  reading atoms ...
  1143 atoms
Finding 1-2 1-3 1-4 neighbors ...
  special bond factors lj:    0.0      0.0      0.0     
  special bond factors coul:  0.0      0.0      0.0     
     0 = max # of 1-2 neighbors
     0 = max # of 1-3 neighbors
     0 = max # of 1-4 neighbors
     1 = max # of special neighbors
  special bonds CPU = 0.728 seconds
  read_data CPU = 0.795 seconds
replicate       8 8 8
Replicating atoms ...
WARNING: Replicating in a non-periodic dimension (src/replicate.cpp:75)
  orthogonal box = (0.0000000 0.0000000 0.0000000) to (160.00000 160.00000 160.00000)
  4 by 4 by 4 MPI processor grid
  585216 atoms
Finding 1-2 1-3 1-4 neighbors ...
  special bond factors lj:    0.0      0.0      0.0     
  special bond factors coul:  0.0      0.0      0.0     
     0 = max # of 1-2 neighbors
     0 = max # of 1-3 neighbors
     0 = max # of 1-4 neighbors
     1 = max # of special neighbors
  special bonds CPU = 0.018 seconds
  replicate CPU = 0.039 seconds
group           cubes type 2 3
585216 atoms in group cubes

velocity        cubes create 10.0 45345 loop geom

pair_style      soft 1.12
pair_coeff      1 1 0.0 0.0
pair_coeff      2 2 0.0
pair_coeff      3 3 0.0
pair_coeff      1 3 0.0 0.0
pair_coeff      2 3 0.0
pair_coeff      1 2 0.0 0.0

variable        prefactor equal ramp(0,60)
fix             soft all adapt 1 pair soft a * * v_prefactor

neighbor        0.3 bin
neigh_modify    delay 0 every 1 check yes


#fix             1     cubes rigid molecule

dump 		1 all movie 100 movie.avi type type

compute         tbig all temp
thermo_modify   temp tbig

thermo          100
run             1000
Neighbor list info ...
  update every 1 steps, delay 0 steps, check yes
  max neighbors/atom: 2000, page size: 100000
  master list distance cutoff = 1.42
  ghost atom cutoff = 1.42
  binsize = 0.71, bins = 226 226 226
  1 neighbor lists, perpetual/occasional/extra = 1 0 0
  (1) pair soft, perpetual
      attributes: half, newton on
      pair build: half/bin/newton
      stencil: half/bin/3d/newton
      bin: standard
Setting up Verlet run ...
  Unit style    : lj
  Current step  : 0
  Time step     : 0.005
Per MPI rank memory allocation (min/avg/max) = 9.893 | 9.893 | 9.893 Mbytes
Step Temp E_pair E_mol TotEng Press 
       0           10            0            0    14.999974    1.4287476 
     100           10   0.90670399            0    15.906678    2.1416359 
     200           10     1.813408            0    16.813382    2.8545243 
     300           10     2.720112            0    17.720086    3.5674126 
     400           10    3.6268159            0     18.62679     4.280301 
     500           10    4.5335199            0    19.533494    4.9931893 
     600           10    5.4402239            0    20.440198    5.7060776 
     700           10    6.3469279            0    21.346902     6.418966 
     800           10    7.2536319            0    22.253606    7.1318543 
     900           10    8.1603359            0     23.16031    7.8447427 
    1000           10    9.0670399            0    24.067014     8.557631 
Loop time of 2.33773 on 64 procs for 1000 steps with 585216 atoms

Performance: 184794.412 tau/day, 427.765 timesteps/s
99.9% CPU use with 64 MPI tasks x 1 OpenMP threads

MPI task timing breakdown:
Section |  min time  |  avg time  |  max time  |%varavg| %total
---------------------------------------------------------------
Pair    | 1.059      | 1.1878     | 1.8516     |  24.5 | 50.81
Bond    | 7.9627e-05 | 0.00011485 | 0.00018656 |   0.0 |  0.00
Neigh   | 0          | 0          | 0          |   0.0 |  0.00
Comm    | 0.00035534 | 0.00053996 | 0.0010064  |   0.0 |  0.02
Output  | 0.3253     | 0.33525    | 0.33731    |   0.7 | 14.34
Modify  | 0.0016933  | 0.002325   | 0.0052354  |   1.8 |  0.10
Other   |            | 0.8117     |            |       | 34.72

Nlocal:        9144.00 ave        9144 max        9144 min
Histogram: 64 0 0 0 0 0 0 0 0 0
Nghost:        0.00000 ave           0 max           0 min
Histogram: 64 0 0 0 0 0 0 0 0 0
Neighs:        70416.0 ave       70416 max       70416 min
Histogram: 64 0 0 0 0 0 0 0 0 0

Total # of neighbors = 4506624
Ave neighs/atom = 7.7007874
Ave special neighs/atom = 0.0000000
Neighbor list builds = 0
Dangerous builds = 0


unfix 		soft

reset_timestep 	0

pair_style	lj/cut/opt 2.5
pair_modify	shift yes

pair_coeff	1 1 0.0 0.0

pair_coeff	2 2 1.0 1.0

pair_coeff	1 2 0.0 0.0

pair_coeff	1 3 0.0 0.0

pair_coeff	2 3 0.0 0.0

pair_coeff	3 3 0.0 0.0

comm_modify	cutoff 6.93

fix 		1 cubes rigid/small molecule
  create bodies CPU = 0.019 seconds
  512 rigid bodies with 585216 atoms
  6.9282032 = max distance from body owner to body atom


####################### WALLS ###########################

variable       epsilonWall equal 2*${epsilon}
variable       epsilonWall equal 2*1

variable       cutoffTop   equal   0.7147*${sigma}
variable       cutoffTop   equal   0.7147*1

variable       cutoffLow   equal   3*${sigma}
variable       cutoffLow   equal   3*1

region         lowWall block EDGE EDGE EDGE EDGE EDGE 2

delete_atoms   region lowWall
WARNING: Ignoring 'compress yes' for molecular system (src/delete_atoms.cpp:125)
Deleted 0 atoms, new total = 585216



fix            topWall all wall/lj93 zhi EDGE                ${epsilonWall} ${sigma} ${cutoffTop} units box
fix            topWall all wall/lj93 zhi EDGE                2 ${sigma} ${cutoffTop} units box
fix            topWall all wall/lj93 zhi EDGE                2 1 ${cutoffTop} units box
fix            topWall all wall/lj93 zhi EDGE                2 1 0.7147 units box

fix            lowWall all wall/lj93 zlo EDGE                ${epsilonWall} ${sigma} ${cutoffLow} units box
fix            lowWall all wall/lj93 zlo EDGE                2 ${sigma} ${cutoffLow} units box
fix            lowWall all wall/lj93 zlo EDGE                2 1 ${cutoffLow} units box
fix            lowWall all wall/lj93 zlo EDGE                2 1 3 units box





velocity	all create ${temp} ${seed} loop geom
velocity	all create 10.0 ${seed} loop geom
velocity	all create 10.0 16391 loop geom
WARNING: Changing velocities of atoms in rigid bodies. This has no effect unless rigid bodies are rebuild (src/velocity.cpp:71)
WARNING: Cannot count rigid body degrees-of-freedom before bodies are fully initialized (src/RIGID/fix_rigid_small.cpp:1166)

dump 		2 all movie 100 movie_cubes.avi type type



run 		500000
Neighbor list info ...
  update every 1 steps, delay 0 steps, check yes
  max neighbors/atom: 2000, page size: 100000
  master list distance cutoff = 2.8
  ghost atom cutoff = 6.93
  binsize = 1.4, bins = 115 115 115
  1 neighbor lists, perpetual/occasional/extra = 1 0 0
  (1) pair lj/cut/opt, perpetual
      attributes: half, newton on
      pair build: half/bin/newton
      stencil: half/bin/3d/newton
      bin: standard
Setting up Verlet run ...
  Unit style    : lj
  Current step  : 0
  Time step     : 0.005
Per MPI rank memory allocation (min/avg/max) = 15.72 | 15.73 | 15.73 Mbytes
Step Temp E_pair E_mol TotEng Press 
       0    9.7566952  -0.36619638            0  -0.34061327   0.12024512 
     100    9.7566952  -0.36619638            0  -0.34061327 0.0012621505 
     200    9.7566952  -0.36619638            0  -0.34061327 0.0012621505 
     300    9.7566952  -0.36619638            0  -0.34061327 0.0012621505 
     400    9.7566952  -0.36619638            0  -0.34061327 0.0012621505 
     500    9.7566952  -0.36619638            0  -0.34061327 0.0012621505 
     600    9.7566952  -0.36619638            0  -0.34061327 0.0012621505 
     700    9.7566952  -0.36619638            0  -0.34061327 0.0012621505 
     800    9.7566952  -0.36619638            0  -0.34061327 0.0012621505 
     900    9.7566952  -0.36619638            0  -0.34061327 0.0012621505 
    1000    9.7566952  -0.36619638            0  -0.34061327 0.0012621505 
    1100    9.7566985  -0.36619638            0  -0.34061326 0.0012620479 
    1200    9.7567551  -0.36619638            0  -0.34061311 0.0012617083 
    1300    9.7569415  -0.36619638            0  -0.34061262 0.0012611108 
    1400    9.7573051  -0.36619638            0  -0.34061167  0.001260317 
    1500    9.7578837  -0.36619638            0  -0.34061015 0.0012592453 
    1600    9.7587547  -0.36619638            0  -0.34060787 0.0012579842 
    1700    9.7600514  -0.36619638            0  -0.34060447 0.0012558411 
    1800    9.7619915  -0.36619638            0  -0.34059938 0.0012529515 
    1900    9.7648352  -0.36619638            0  -0.34059192 0.0012490521 
    2000    9.7690257  -0.36619638            0  -0.34058094 0.0012430316 
    2100    9.7753493  -0.36619638            0  -0.34056435 0.0012342921 
    2200    9.7851212  -0.36619638            0  -0.34053873 0.0012218172 
    2300    9.7969202  -0.36619638            0  -0.34050779  0.001248921 
    2400    9.7552526  -0.36619643            0   -0.3406171 0.0020477697 
    2500    9.8020147  -0.36619672            0  -0.34049478 0.0014666509 
    2600    9.7890798  -0.36619763            0  -0.34052959 0.0015856248 
    2700    9.8071966  -0.36619992            0  -0.34048439 0.0011816332 
    2800     9.800542  -0.36620526            0  -0.34050717 0.0011712576 
    2900    9.7994594   -0.3662136            0  -0.34051835 0.0011913032 
    3000    9.7687101  -0.36613417            0  -0.34051955 0.0021169595 
    3100    9.8034688  -0.36621801            0  -0.34051225 0.0011987972 
    3200    9.8082047  -0.36621373            0  -0.34049555 0.0011409283 
    3300    9.8157417  -0.36620922            0  -0.34047128 0.0011788857 
    3400    9.7925525  -0.36621123            0   -0.3405341 0.0017613721 
    3500    9.8094223  -0.36622123            0  -0.34049985 0.0016469617 
    3600     9.821598   -0.3662428            0   -0.3404895 0.0015169427 
    3700    9.8312341  -0.36626024            0  -0.34048168 0.0016428252 
    3800    9.8348829  -0.36621637            0  -0.34042824  0.001977098 
    3900    9.8712286  -0.36633323            0   -0.3404498 0.0014230081 
    4000    9.8667372  -0.36629887            0  -0.34042721 0.0020925984 
    4100    9.8577849  -0.36630875            0  -0.34046057 0.0024468141 
    4200    9.8740034  -0.36627203            0  -0.34038131 0.0029313695 
    4300    9.9332634  -0.36640536            0  -0.34035926 0.0015533554 
    4400     9.921345  -0.36645707            0  -0.34044223 0.0017724291 
    4500    9.9376324   -0.3664168            0  -0.34035924   0.00205171 
    4600    9.9509021  -0.36640837            0  -0.34031602 0.0023154186 
    4700    10.014384   -0.3665637            0  -0.34030489 0.0013724669 
    4800    10.043424  -0.36665106            0  -0.34031611 0.0014231468 
    4900    10.020641  -0.36663743            0  -0.34036222 0.0024667521 
    5000    9.9793089  -0.36654652            0  -0.34037968 0.0043642544 
    5100     10.08249  -0.36675695            0  -0.34031956 0.0020437486 
    5200    10.068666  -0.36670631            0  -0.34030518 0.0019760568 
    5300    10.040605  -0.36668652            0  -0.34035896 0.0028599141 
    5400    10.048717  -0.36669004            0  -0.34034121 0.0027900768 
    5500    10.089339  -0.36679995            0   -0.3403446 0.0016340428 
    5600    10.102816  -0.36682616            0  -0.34033548 0.0018529921 
    5700     10.01876  -0.36666029            0  -0.34039001 0.0042622567 
    5800    10.063793  -0.36672613            0  -0.34033777 0.0036160195 
    5900    10.176173  -0.36695067            0  -0.34026764  0.001046672 
    6000     10.13221  -0.36682997            0  -0.34026221  0.002203678 
    6100    10.154527   -0.3669315            0  -0.34030522 0.0018942064 
    6200     10.18899  -0.36698125            0  -0.34026461  0.002004176 
    6300     10.13704  -0.36678783            0   -0.3402074 0.0044411325 
    6400    10.220289  -0.36702119            0  -0.34022248 0.0025756011 
    6500    10.288893  -0.36716805            0  -0.34018945 0.00092979094 
    6600    10.228796  -0.36706734            0  -0.34024633 0.0026531649 
    6700    10.242922  -0.36709493            0  -0.34023687 0.0027668958 
    6800    10.314786  -0.36730377            0  -0.34025728 0.0018675784 
    6900    10.329499  -0.36726668            0  -0.34018161 0.0025801866 
    7000    10.304827  -0.36720577            0  -0.34018539 0.0024851727 
    7100    10.279068  -0.36720428            0  -0.34025144  0.002834846 
    7200    10.367795  -0.36742047            0  -0.34023498 0.00072950457 
    7300     10.29475  -0.36721852            0  -0.34022456 0.0028372555 
    7400    10.312007  -0.36732362            0  -0.34028442 0.0028264905 
    7500    10.319664  -0.36737691            0  -0.34031763 0.0032877079 
    7600    10.380725  -0.36749589            0   -0.3402765 0.0016004699 
    7700    10.310118  -0.36731137            0  -0.34027712 0.0026545908 
    7800    10.382746   -0.3674913            0  -0.34026661 0.00084321687 
    7900    10.364737  -0.36749894            0  -0.34032147 0.0020507567 
    8000    10.458541  -0.36771783            0   -0.3402944 0.00090502549 
    8100    10.461103  -0.36769733            0  -0.34026718  0.002031514 
    8200    10.389925  -0.36748723            0  -0.34024371 0.0042331896 
    8300    10.451375  -0.36761472            0  -0.34021008 0.0031054429 
    8400    10.423109  -0.36759507            0  -0.34026455 0.0030429233 
    8500    10.509639  -0.36769395            0  -0.34013654 0.00091075231 
    8600    10.464054  -0.36759334            0  -0.34015546 0.0018195094 
    8700    10.445518  -0.36757119            0   -0.3401819 0.0019391355 
    8800    10.406748  -0.36756691            0  -0.34027928 0.0021675805 
    8900    10.493946  -0.36763617            0   -0.3401199 0.0012546503 
    9000    10.441517  -0.36754459            0   -0.3401658 0.0028631181 
    9100    10.393035  -0.36745565            0  -0.34020398   0.00402614 
    9200    10.458832  -0.36764367            0  -0.34021947 0.0020667645 
    9300    10.445301  -0.36764091            0  -0.34025219 0.0016262897 
    9400    10.432161  -0.36765631            0  -0.34030205 0.0015644134 
    9500    10.413864  -0.36759144            0  -0.34028516 0.0024748896 
    9600    10.461259   -0.3676825            0  -0.34025194  0.001699555 
    9700    10.434929  -0.36761725            0  -0.34025573 0.0027380895 
    9800    10.450334  -0.36767937            0  -0.34027746 0.0027174122 
    9900    10.497218    -0.367867            0  -0.34034215 0.0020041725 
   10000    10.489617  -0.36781355            0  -0.34030863 0.0029602619 
   10100    10.494116  -0.36782419            0  -0.34030748 0.0024402261 
   10200    10.414446    -0.367621            0  -0.34031319 0.0040590268 
   10300    10.520141    -0.367897            0  -0.34031205 0.0010622933 
   10400    10.467903  -0.36775202            0  -0.34030404 0.0021389453 
   10500    10.460368   -0.3677227            0  -0.34029447 0.0020028913 
   10600    10.455491  -0.36772307            0  -0.34030763 0.0016923721 
   10700    10.387544  -0.36756377            0  -0.34032651 0.0024633209 
   10800     10.44007  -0.36767512            0  -0.34030012 0.00057493623 
   10900      10.3782  -0.36755877            0    -0.340346 0.0017010382 
   11000    10.454912  -0.36766941            0  -0.34025549 0.00029494244 
   11100    10.397001  -0.36753144            0  -0.34026938 0.0022227439 
   11200     10.43819  -0.36768388            0  -0.34031382 0.0023647254 
   11300    10.474625  -0.36776258            0  -0.34029698 0.0023155139 
   11400    10.420763  -0.36762098            0  -0.34029661 0.0031449678 
   11500    10.477278  -0.36776947            0  -0.34029691 0.0010210193 
   11600    10.504656  -0.36784435            0      -0.3403 0.0003384841 
   11700    10.469608  -0.36776976            0  -0.34031731 0.0021461907 
   11800    10.489582  -0.36779907            0  -0.34029424 0.0027345061 
   11900    10.545605  -0.36794834            0  -0.34029661 0.0022654983 
   12000    10.530686  -0.36791251            0   -0.3402999 0.0043450693 
   12100    10.604708  -0.36809209            0  -0.34028539 0.0034764962 
   12200    10.623465  -0.36817001            0  -0.34031413 0.0032877028 
   12300    10.688659  -0.36834939            0  -0.34032257 0.0031131605 
   12400    10.694934  -0.36836455            0  -0.34032127 0.0030497003 
   12500    10.683836  -0.36832842            0  -0.34031424 0.0015293531 
   12600    10.617078  -0.36813829            0  -0.34029916 0.0024794251 
   12700    10.661368  -0.36823187            0   -0.3402766 0.0012528572 
   12800    10.658068   -0.3682041            0  -0.34025749 0.0019466024 
   12900    10.692608  -0.36828062            0  -0.34024344 0.0028627758 
   13000    10.745052  -0.36833465            0  -0.34015995 0.0040740611 
   13100    10.892439  -0.36862567            0  -0.34006451 0.0017480456 
   13200    10.873546  -0.36872698            0  -0.34021536 0.0027902235 
   13300      10.9408  -0.36880733            0  -0.34011936 -0.00049004899 
   13400    10.792173  -0.36849592            0  -0.34019767 0.0017642019 
   13500    10.819607  -0.36862059            0  -0.34025041 0.0015110003 
   13600    10.870144   -0.3687388            0   -0.3402361 0.0021365343 
   13700     10.94726  -0.36895615            0  -0.34025124 0.0010195716 
   13800    10.917605  -0.36891985            0   -0.3402927 0.0020573693 
   13900    10.909387  -0.36888157            0  -0.34027597 0.0029882834 
   14000    10.899001  -0.36885962            0  -0.34028126 0.0039087945 
   14100    10.920043  -0.36894312            0  -0.34030958 0.0033710492 
   14200    10.873403  -0.36878437            0  -0.34027312 0.0043844354 
   14300    10.889726  -0.36884852            0  -0.34029448  0.002320739 
   14400    10.801853  -0.36862574            0   -0.3403021 0.0025925158 
   14500    10.826464  -0.36867015            0  -0.34028198 0.0001265255 
   14600    10.789908  -0.36856649            0  -0.34027418 0.00049519597 
   14700    10.698676  -0.36832579            0  -0.34027269 0.0038794755 
   14800    10.728484  -0.36839627            0  -0.34026502  0.003340884 
   14900    10.726777  -0.36838045            0  -0.34025368 0.0026399025 
   15000    10.763966  -0.36847035            0  -0.34024606 0.0014419119 
   15100    10.711389   -0.3683538            0  -0.34026737 0.0029399847 
   15200    10.803261  -0.36852501            0  -0.34019768 0.0026450801 
   15300    10.792943  -0.36851607            0   -0.3402158 0.0028989866 
   15400    10.788567   -0.3685322            0  -0.34024341 0.0013573957 
   15500    10.773504  -0.36846805            0  -0.34021875 0.0011557573 
   15600    10.761616  -0.36844376            0  -0.34022563  0.001342123 
   15700    10.779286  -0.36849332            0  -0.34022886 0.0013107515 
   15800    10.779225  -0.36848483            0  -0.34022053 0.0023645542 
   15900    10.790422  -0.36851212            0  -0.34021846 0.0034141453 
   16000    10.740734    -0.368389            0  -0.34022563  0.005372115 
   16100    10.820186  -0.36857817            0  -0.34020646 0.0036032657 
   16200    10.914266  -0.36876606            0  -0.34014766 0.0011341299 
   16300    10.867133  -0.36859603            0  -0.34010123 0.0018033887 
   16400    10.842985  -0.36858009            0  -0.34014861 0.0025072222 
   16500    10.912991   -0.3686207            0  -0.34000565 0.0016602209 
   16600    10.924699  -0.36863656            0  -0.33999081 0.00070173878 
   16700    10.833674   -0.3685327            0  -0.34012563 0.0022756264 
   16800    10.846093  -0.36858812            0  -0.34014849 0.0021871274 
   16900    10.864782  -0.36868268            0  -0.34019404 0.0021354701 
   17000     10.93538  -0.36883404            0  -0.34016028 0.0019229135 
   17100     10.90025  -0.36881512            0  -0.34023348 0.0038421058 
   17200    10.916647  -0.36884459            0  -0.34021996 0.0029893115 
   17300     10.89871  -0.36878831            0  -0.34021071 0.0030924705 
   17400    10.927371  -0.36888529            0  -0.34023253 0.0028827184 
   17500    11.021566  -0.36915475            0  -0.34025501 0.0019931293 
   17600    11.041797  -0.36920255            0  -0.34024976  0.001986814 
   17700    11.093392   -0.3692978            0  -0.34020972 0.0017913147 
   17800    11.096305  -0.36934315            0  -0.34024743 0.0026132096 
   17900    11.091363  -0.36933736            0  -0.34025461 0.0029106081 
   18000    11.034123  -0.36916262            0  -0.34022995  0.004426761 
   18100    10.999892  -0.36908807            0  -0.34024515 0.0039269699 
   18200    11.077017  -0.36930153            0  -0.34025638 0.00088791477 
   18300    11.047802  -0.36923613            0  -0.34026759 0.00075811915 
   18400    10.965883  -0.36900745            0  -0.34025372 0.0023635676 
   18500    11.040394  -0.36918049            0  -0.34023137 -0.00032438429 
   18600    11.024912  -0.36914066            0  -0.34023214 0.00042898074 
   18700    11.003631  -0.36913221            0   -0.3402795  0.002302014 
   18800    11.036313  -0.36918329            0  -0.34024488 0.0033688662 
   18900    11.118861  -0.36935543            0  -0.34020057 0.0015097648 
   19000    11.072931  -0.36922083            0   -0.3401864 0.0026175827 
   19100    11.055871  -0.36914699            0  -0.34015729 0.0040260466 
   19200    11.157695   -0.3693681            0  -0.34011141 0.0018355567 
   19300    11.163926  -0.36935899            0  -0.34008596 0.0016184966 
   19400    11.155451  -0.36927414            0  -0.34002333 0.0023822053 
   19500    11.081258  -0.36910832            0  -0.34005206 0.0036754746 
   19600    11.091361  -0.36906146            0   -0.3399787 0.0018029347 
   19700    11.054813  -0.36893967            0  -0.33995274 0.0016521251 
   19800    10.969187  -0.36887295            0  -0.34011055 0.0029641413 
   19900    11.090268  -0.36911604            0  -0.34003615 0.00050455793 
   20000    11.070809  -0.36907601            0  -0.34004715 0.0014714413 
   20100    11.102228  -0.36917313            0  -0.34006188 0.0025811445 
   20200    11.141344  -0.36932625            0  -0.34011243 0.0017406818 
   20300    11.209865  -0.36938973            0  -0.33999624 0.00065543151 
   20400    11.163219  -0.36923431            0  -0.33996313 0.0039984015 
   20500    11.335937  -0.36971382            0  -0.33998976 0.00086350778 
   20600    11.368896  -0.36974818            0   -0.3399377 0.0020733714 
   20700     11.31581  -0.36960299            0   -0.3399317 0.0052440719 
   20800    11.315493  -0.36970971            0  -0.34003925 0.0029972575 
   20900    11.405614   -0.3698768            0  -0.33997004 -0.00024699445 
   21000    11.432507  -0.36991516            0  -0.33993788 0.00085136835 
   21100    11.326694  -0.36963114            0  -0.33993131 0.0059780556 
   21200     11.49409  -0.37004692            0  -0.33990816 0.0011663489 
   21300    11.462418  -0.37005554            0  -0.33999983 0.00089420921 
   21400    11.499424  -0.37006428            0  -0.33991154 0.0019249231 
   21500    11.537369  -0.37017668            0  -0.33992445 0.0043703084 
   21600    11.615002  -0.37027761            0  -0.33982181 0.0042367156 
   21700    11.611162  -0.37022335            0  -0.33977762 0.0042232166 
   21800    11.623097  -0.37020719            0  -0.33973017 0.0023482436 
   21900    11.633088  -0.37025973            0  -0.33975651 0.00063604808 
   22000    11.593481  -0.37010911            0  -0.33970974 0.0019963829 
   22100    11.550284  -0.37003033            0  -0.33974423 0.0047593839 
   22200    11.638306  -0.37032368            0  -0.33980678 0.0033280515 
   22300    11.535622  -0.37001277            0  -0.33976512 0.0040511267 
   22400    11.650305  -0.37034012            0  -0.33979175 2.1614335e-05 
   22500    11.554922  -0.37011809            0  -0.33981983 0.0032211876 
   22600    11.598914  -0.37026371            0   -0.3398501 0.0020224698 
   22700    11.559534  -0.37015341            0  -0.33984306 0.0026206676 
   22800    11.568612  -0.37015962            0  -0.33982546 0.0020929119 
   22900    11.545807  -0.37012984            0  -0.33985548  0.003049692 
   23000     11.56392  -0.37025339            0  -0.33993153 0.0035761273 
   23100     11.57704  -0.37030305            0  -0.33994679 0.0036779235 
   23200    11.618714  -0.37045273            0   -0.3399872 0.00049325934 
   23300    11.445292  -0.36995878            0  -0.33994798 0.0032414975 
   23400    11.502872   -0.3701645            0  -0.34000271 0.00051455479 
   23500    11.445773  -0.36998864            0  -0.33997658 0.0028508724 
   23600    11.511738  -0.37015692            0  -0.33997189 0.0011843992 
   23700    11.485108  -0.37008739            0  -0.33997218 0.0032040309 
   23800    11.485612  -0.37010331            0  -0.33998679 0.0028451327 
   23900    11.401917  -0.36998855            0  -0.34009149 0.0023719142 
   24000     11.50885  -0.37006696            0   -0.3398895 -0.00044101912 
   24100    11.480623  -0.36999096            0  -0.33988752 0.00053623958 
   24200    11.457225  -0.37001317            0  -0.33997108  0.002435416 
   24300    11.574398  -0.37025484            0  -0.33990551  0.001996473 
   24400    11.495292   -0.3700693            0   -0.3399274 0.0068482727 
   24500    11.667462   -0.3704942            0  -0.33990085  0.003029696 
   24600    11.600768  -0.37037213            0  -0.33995365 0.0034293782 
   24700    11.621708  -0.37036823            0  -0.33989485 0.0017436816 
   24800    11.564959  -0.37022178            0   -0.3398972  0.003048449 
   24900     11.64322  -0.37031857            0  -0.33978878 0.0016193251 
   25000    11.592221  -0.37017558            0  -0.33977951 0.0049218809 
   25100    11.691137   -0.3704947            0  -0.33983927 0.0020639166 
   25200    11.674121  -0.37037779            0  -0.33976697 0.00055760669 
   25300    11.684468  -0.37036951            0  -0.33973157 6.7826125e-05 
   25400      11.6916  -0.37033243            0  -0.33967578 0.0022089749 
   25500    11.658077  -0.37035199            0  -0.33978324 0.0048014631 
   25600    11.743966  -0.37059411            0  -0.33980016 0.0038987829 
   25700    11.797733  -0.37080291            0  -0.33986797 0.0024072876 
   25800    11.813911  -0.37085585            0  -0.33987849 0.0020704082 
   25900    11.917678  -0.37117923            0  -0.33992979  5.49354e-06 
   26000    11.838944  -0.37094354            0  -0.33990054 0.0025426231 
   26100    11.841384  -0.37092106            0  -0.33987166 0.0028089442 
   26200    11.918694  -0.37125173            0  -0.33999962 0.0022365725 
   26300    11.861264  -0.37096276            0  -0.33986123 0.0044939733 
   26400    11.825833  -0.37093697            0  -0.33992835 0.0024388778 
   26500    11.799872  -0.37075144            0  -0.33981089 0.0023611598 
   26600    11.731811  -0.37058241            0  -0.33982032 0.0025944166 
   26700    11.802302  -0.37077199            0  -0.33982507 0.0024751447 
   26800    11.824039  -0.37096446            0  -0.33996054 0.0024466804 
   26900    11.774954   -0.3708159            0  -0.33994069 0.0039488499 
   27000    11.868236  -0.37104344            0  -0.33992363 0.00090518237 
   27100    11.763377  -0.37073858            0  -0.33989373 0.0036168977 
   27200    11.836606  -0.37093306            0  -0.33989619 0.0024113105 
   27300    11.839911  -0.37094569            0  -0.33990016 0.0031228412 
   27400    11.891552  -0.37116156            0  -0.33998061 0.0023260855 
   27500    11.923055  -0.37115187            0  -0.33988832 0.0011960746 
   27600     11.80635  -0.37085696            0  -0.33989943 0.0024543581 
   27700    11.706698  -0.37063096            0  -0.33993472 0.0028836929 
   27800    11.738297  -0.37067058            0  -0.33989149 0.0019096521 
   27900    11.803886  -0.37076543            0  -0.33981436 0.0002625585 
   28000    11.781749  -0.37077276            0  -0.33987973 0.0019544704 
   28100    11.799809  -0.37077996            0  -0.33983957 0.0035865422 
   28200    11.807992  -0.37077619            0  -0.33981435 0.0027649883 
   28300    11.889412  -0.37093682            0  -0.33976149 0.0012262612 
   28400    11.991132  -0.37117528            0  -0.33973323 -0.0002590315 
   28500     11.90026  -0.37086126            0  -0.33965748 0.0048420229 
   28600    11.963559  -0.37123654            0  -0.33986679  0.002213002 
   28700    12.030242  -0.37126942            0  -0.33972481 0.0020898399 
   28800    11.986966  -0.37117407            0  -0.33974294 0.0042003767 
   28900    11.930288  -0.37109042            0  -0.33980791 0.0020028859 
   29000    11.887973   -0.3709872            0  -0.33981564 0.00099061991 
   29100    11.898355   -0.3709755            0  -0.33977672 0.0021975077 
   29200    11.821303  -0.37083522            0  -0.33983848 0.0057429525 
   29300    11.985349  -0.37124201            0  -0.33981512 0.0017407958 
   29400    11.951432  -0.37112159            0  -0.33978364 0.0036295066 
   29500     11.99074  -0.37124843            0   -0.3398074 0.0026759473 
   29600    12.014701  -0.37130654            0  -0.33980269 0.0010725035 
   29700     12.01326  -0.37131929            0  -0.33981922 0.0025090032 
   29800    11.991699  -0.37137673            0  -0.33993319 0.0052588848 
   29900    11.965216  -0.37127486            0  -0.33990076 0.0045850702 
   30000    11.946751  -0.37123333            0  -0.33990765 0.00086724283 
   30100    11.834085  -0.37097258            0  -0.33994232 0.0022342391 
   30200     11.77574  -0.37085672            0  -0.33997945 0.0021325038 
   30300    11.862151  -0.37108923            0  -0.33998538 -0.00036764014 
   30400    11.820805  -0.37094677            0  -0.33995133  0.001862731 
   30500    11.808039  -0.37103123            0  -0.34006927 0.0031944699 
   30600    11.914972  -0.37120611            0  -0.33996376 0.0025403163 
   30700    12.000844  -0.37140597            0  -0.33993845 0.0017823486 
   30800    11.975894   -0.3713084            0   -0.3399063 0.0032869532 
   30900    12.035093  -0.37140622            0  -0.33984889 0.0018362868 
   31000    11.979354   -0.3714132            0  -0.34000203 0.0019116354 
   31100    12.003876  -0.37126655            0  -0.33979108 0.0022660585 
   31200    12.084595  -0.37155277            0  -0.33986564 -0.00094685913 
   31300    12.006005  -0.37127281            0  -0.33979176 0.0044223353 
   31400    12.087688  -0.37148154            0  -0.33978631 0.0041334984 
   31500    12.180164  -0.37186598            0  -0.33992827 0.00024771925 
   31600    12.161836  -0.37170598            0  -0.33981633 0.0021734905 
   31700    12.075263   -0.3714403            0  -0.33977764 0.0024067917 
   31800    12.097844  -0.37161051            0  -0.33988865 0.0008496281 
   31900    12.080254  -0.37142291            0  -0.33974718 0.0051343522 
   32000    12.124835  -0.37146491            0  -0.33967227 0.0040792153 
   32100    12.102915  -0.37158914            0  -0.33985398 0.0032470272 
   32200    12.188008   -0.3716785            0  -0.33972022 0.0049379139 
   32300    12.211088  -0.37173834            0  -0.33971954 0.0059277989 
   32400    12.223585  -0.37186345            0  -0.33981188  0.002077241 
   32500    12.166756  -0.37182014            0  -0.33991758 0.0013309978 
   32600    12.177881  -0.37178993            0   -0.3398582 0.0029980474 
   32700    12.202686  -0.37194381            0  -0.33994704 0.0011581378 
   32800    12.169346  -0.37175149            0  -0.33984214 0.00049619226 
   32900    12.153121  -0.37176768            0  -0.33990087 0.0024768055 
   33000    12.249535  -0.37189882            0  -0.33977921 0.0031779813 
   33100    12.299056  -0.37201178            0  -0.33976232 0.0011778084 
   33200    12.348485  -0.37216544            0  -0.33978637 0.0010154033 
   33300    12.516315  -0.37251725            0  -0.33969811   0.00175835 
   33400    12.414073  -0.37235543            0  -0.33980438 0.0052474438 
   33500    12.358551  -0.37212534            0  -0.33971987 0.0035477268 
   33600    12.302518  -0.37199583            0  -0.33973729 0.0027239043 
   33700    12.271242  -0.37198969            0  -0.33981316 0.0033894901 
   33800    12.314452   -0.3721099            0  -0.33982007 0.0024843219 
   33900    12.388678  -0.37216118            0  -0.33967672 0.0011025359 
   34000    12.435573  -0.37223852            0   -0.3396311 4.095781e-05 
   34100    12.375968  -0.37204475            0  -0.33959362 0.0032330656 
   34200    12.494933   -0.3721752            0  -0.33941212 0.0016151152 
   34300     12.41785  -0.37226092            0  -0.33969997 0.0036012228 
   34400    12.512342   -0.3722438            0  -0.33943508 0.0028538816 
   34500    12.442709  -0.37212681            0  -0.33950068 0.0052859225 
   34600    12.610343  -0.37263003            0  -0.33956434 0.00026981363 
   34700    12.388942  -0.37218615            0    -0.339701 0.0061968945 
   34800    12.396373  -0.37212497            0  -0.33962033 0.0051998786 
   34900    12.434122   -0.3722422            0  -0.33963858 0.0034838434 
   35000    12.437054   -0.3722999            0  -0.33968859 0.0033574759 
   35100    12.366832  -0.37222866            0  -0.33980148 0.0071296746 
   35200    12.465215  -0.37236896            0  -0.33968381 0.0069968203 
   35300    12.472119  -0.37250799            0  -0.33980474 0.0024815794 
   35400    12.389624  -0.37223423            0  -0.33974729 -0.0010699473 
   35500    12.272072  -0.37201035            0  -0.33983164 0.0010522546 
   35600    12.301648  -0.37215723            0  -0.33990097 0.0015133968 
   35700    12.428428  -0.37254671            0  -0.33995802 0.00013502438 
   35800    12.334297  -0.37228448            0  -0.33994262 0.0037332228 
   35900    12.398863  -0.37245078            0  -0.33993961 0.0033859867 
   36000    12.338066  -0.37228319            0  -0.33993144 0.0035368937 
   36100     12.32187  -0.37224821            0  -0.33993893 0.0019843131 
   36200    12.314152  -0.37218821            0  -0.33989916 0.0027814358 
   36300    12.259149  -0.37202777            0  -0.33988295 0.0039536646 
   36400    12.308733  -0.37217122            0  -0.33989638 0.0024940177 
   36500    12.189274  -0.37179893            0  -0.33983733 0.0066119798 
   36600    12.370091  -0.37224508            0  -0.33980936 -0.00071038245 
   36700    12.233983  -0.37207547            0  -0.33999664  0.001239072 
   36800    12.306198  -0.37207446            0  -0.33980627 0.0030250806 
   36900    12.495379  -0.37267195            0  -0.33990771 0.0020213374 
   37000    12.473359  -0.37254669            0  -0.33984018  0.005899401 
   37100    12.628709  -0.37290028            0  -0.33978643 0.0023766662 
   37200    12.688672   -0.3730651            0  -0.33979402 0.0017079429 
   37300     12.65553   -0.3729474            0  -0.33976323 0.0046097706 
   37400    12.718933   -0.3731377            0  -0.33978728 0.0039481871 
   37500    12.775052  -0.37325797            0  -0.33976039 0.0048615714 
   37600     12.76914  -0.37317012            0  -0.33968805 0.0074962658 
   37700    12.721581  -0.37314147            0   -0.3397841 0.0047681049 
   37800    12.684055  -0.37308853            0  -0.33982956 0.0013797147 
   37900    12.686145  -0.37299196            0  -0.33972751 0.0011448443 
   38000     12.78169  -0.37327893            0  -0.33976395 0.00054645198 
   38100    12.722622  -0.37310336            0  -0.33974326 0.0051976911 
   38200    12.823253  -0.37334638            0  -0.33972242 0.0034255712 
   38300    12.979721  -0.37379953            0  -0.33976528 0.0010422059 
   38400    12.861329   -0.3734942            0   -0.3397704 0.0068131871 
   38500    12.914671  -0.37363523            0  -0.33977156 0.0046271919 
   38600    12.930665  -0.37364535            0  -0.33973974 0.0013660218 
   38700     12.77867  -0.37326686            0  -0.33975979 0.0032084653 
   38800    12.766733  -0.37332511            0  -0.33984935 0.0023401113 
   38900    12.834493  -0.37341761            0  -0.33976418 0.0034358709 
   39000    12.889559  -0.37367528            0  -0.33987746 0.0047280268 
   39100    12.900859  -0.37366449            0  -0.33983703 0.0041647926 
   39200    12.873891  -0.37361357            0  -0.33985682 0.0010484767 
   39300    12.804887  -0.37343562            0  -0.33985982 -0.00021545417 
   39400    12.846431  -0.37355109            0  -0.33986636 -0.00073869204 
   39500     12.73231  -0.37324288            0  -0.33985738 0.0028288749 
   39600    12.791854  -0.37337733            0   -0.3398357 6.5901695e-05 
   39700    12.765118  -0.37328067            0  -0.33980914 0.0021443486 
   39800    12.809962   -0.3733673            0  -0.33977818 0.0046347878 
   39900    13.003574  -0.37386455            0  -0.33976776 0.0028223245 
   40000    13.054202  -0.37392298            0  -0.33969344 0.00062796984 
   40100    12.891584  -0.37357516            0  -0.33977203 0.0067151168 
   40200     13.05609  -0.37401897            0  -0.33978449 -0.00013788998 
   40300    12.928958   -0.3736743            0  -0.33977316 0.0011019297 
   40400    12.813197  -0.37337627            0  -0.33977867 0.0039872523 
   40500    12.809028  -0.37356472            0  -0.33997806 0.0029316069 
   40600    12.868601  -0.37358398            0  -0.33984111 0.0020728353 
   40700    12.965807  -0.37389803            0  -0.33990027 0.00077651897 
   40800    12.872427  -0.37369804            0  -0.33994514 0.0020315204 
   40900    12.847212  -0.37366691            0  -0.33998012 0.0047798357 
   41000    12.895462  -0.37380144            0  -0.33998813  0.003397074 
   41100    12.836767  -0.37368932            0  -0.34002992 0.0013300353 
   41200     12.74805  -0.37346266            0  -0.34003589  0.002153213 
   41300    12.686399  -0.37331749            0  -0.34005237 0.0037860054 
   41400    12.738804  -0.37349378            0  -0.34009125 -0.00030715546 
   41500    12.665565   -0.3732608            0  -0.34005031 0.0025464188 
   41600    12.702961  -0.37333545            0  -0.34002691 0.0070074886 
   41700    12.773543  -0.37350805            0  -0.34001444 0.0058043062 
   41800    12.730893  -0.37346143            0  -0.34007965 0.0019194496 
   41900    12.710247  -0.37341483            0  -0.34008718 -0.00024882336 
   42000    12.747301  -0.37340413            0  -0.33997932 0.00076383279 
   42100    12.718921    -0.373325            0  -0.33997461 0.0051745568 
   42200    12.681037  -0.37327861            0  -0.34002755 0.0054074792 
   42300    12.754934  -0.37347507            0  -0.34003024 0.0010407354 
   42400    12.824237   -0.3736431            0  -0.34001655 -0.0018422509 
   42500     12.72199  -0.37339778            0  -0.34003934 0.0026866446 
   42600    12.790474  -0.37354541            0  -0.34000739 0.0038575796 
   42700    12.894167  -0.37382932            0  -0.34001941 0.0036664108 
   42800    12.847175  -0.37374005            0  -0.34005336 0.0074625679 
   42900    12.901578  -0.37381732            0  -0.33998798 0.0052116921 
   43000    12.865202  -0.37371427            0  -0.33998032 0.0019801378 
   43100    12.772808  -0.37345444            0  -0.33996275 0.0010450911 
   43200    12.722982  -0.37315949            0  -0.33979845 0.0021257214 
   43300    12.697354  -0.37309041            0  -0.33979657 0.00056240282 
   43400    12.649289  -0.37307594            0  -0.33990812 -0.00031847136 
   43500    12.731347   -0.3731382            0  -0.33975523 0.0013153988 
   43600    12.813006  -0.37335425            0  -0.33975716 0.0019353436 
   43700    12.620039  -0.37299335            0  -0.33990224 0.0072435517 
   43800    12.650936  -0.37295178            0  -0.33977965 0.0042590248 
   43900     12.79494  -0.37339698            0  -0.33984726 0.00098258618 
   44000    12.828888  -0.37357532            0  -0.33993658 0.0021822625 
   44100    12.888054  -0.37373618            0   -0.3399423 0.0037474001 
   44200    12.928849  -0.37382514            0   -0.3399243 0.0015943596 
   44300    12.853842  -0.37369828            0  -0.33999411 0.0018429138 
   44400    12.910417  -0.37381535            0  -0.33996283 0.0011767624 
   44500    12.814707  -0.37356339            0  -0.33996183 0.0017265894 
   44600    12.880243  -0.37375267            0  -0.33997927 -0.00075750649 
   44700      12.8217   -0.3735656            0   -0.3399457 0.0058601612 
   44800    12.883031  -0.37370156            0  -0.33992085 0.0039496475 
   44900    12.883942  -0.37369153            0  -0.33990843 0.0012146327 
   45000    12.828935  -0.37355089            0  -0.33991203 0.0036317882 
   45100    12.864281  -0.37366302            0  -0.33993147 0.0046388062 
   45200    13.040203  -0.37406098            0  -0.33986815 0.00013456568 
   45300    13.072591  -0.37416049            0  -0.33988274 0.0023800465 
   45400    12.979575  -0.37385472            0  -0.33982087 0.0063791619 
   45500    13.107157  -0.37412124            0  -0.33975285 5.0868247e-05 
   45600    12.948106  -0.37384674            0  -0.33989539 0.0027260823 
   45700     12.99035  -0.37389194            0  -0.33982982 0.0030972453 
   45800      12.9859  -0.37390775            0  -0.33985731 0.0023562599 
   45900     12.96344  -0.37389247            0  -0.33990092 0.00036626366 
   46000    12.933017  -0.37384943            0  -0.33993765 0.0018342037 
   46100    13.061303  -0.37420468            0  -0.33995652  0.002959662 
   46200    13.048779  -0.37413762            0   -0.3399223 0.0040223037 
   46300    13.078044  -0.37419537            0  -0.33990332 0.0026583364 
   46400    13.042816  -0.37407677            0  -0.33987709 0.0030498392 
   46500    12.961507  -0.37392191            0  -0.33993543 0.0022555034 
   46600    12.865909  -0.37356348            0  -0.33982767 0.0020274904 
   46700    12.905111  -0.37368819            0  -0.33984958  0.001068949 
   46800    12.895615  -0.37374278            0  -0.33992908  0.001293554 
   46900     12.99533   -0.3739617            0  -0.33988653 0.0011538751 
   47000    13.040404  -0.37410732            0  -0.33991396 0.0036066676 
   47100    13.115943  -0.37433641            0  -0.33994498 0.0016624533 
   47200     13.10005   -0.3742724            0  -0.33992264 0.0021883162 
   47300     13.14576   -0.3743407            0  -0.33987109 0.0048214655 
   47400    13.262906  -0.37462986            0  -0.33985308 0.0046856152 
   47500    13.263455  -0.37462265            0  -0.33984443 0.0040869037 
   47600    13.240402  -0.37447882            0  -0.33976105 0.0049411486 
   47700     13.26353  -0.37456738            0  -0.33978896 0.0029793761 
   47800    13.233476  -0.37442665            0  -0.33972703 0.0020462251 
   47900    13.228604  -0.37439044            0   -0.3397036 0.00046941181 
   48000     13.29091  -0.37459667            0  -0.33974646 0.0003029032 
   48100    13.375878  -0.37483295            0  -0.33975994 0.0034197153 
   48200    13.437695  -0.37502533            0  -0.33979023 0.0013181208 
   48300     13.37516  -0.37491577            0  -0.33984464  0.002174074 
   48400    13.362858  -0.37478226            0   -0.3397434 0.0039568325 
   48500    13.444356  -0.37501181            0  -0.33975924 0.0042673552 
   48600    13.555454  -0.37517388            0  -0.33963001 0.0039592892 
   48700    13.538028  -0.37507976            0  -0.33958158 0.0084406953 
   48800    13.780925  -0.37582638            0   -0.3396913 0.0024489033 
   48900    13.890525  -0.37614946            0  -0.33972699 0.00073699866 
   49000    13.791427  -0.37574575            0  -0.33958313 0.0010553812 
   49100    13.647135  -0.37548132            0  -0.33969704 0.00064457827 
   49200    13.503474  -0.37510054            0  -0.33969297 0.0075516552 
   49300    13.526901  -0.37521718            0  -0.33974817 0.0040317673 
   49400    13.464931  -0.37506641            0   -0.3397599 0.00020899534 
   49500    13.492373   -0.3751708            0  -0.33979233 0.0024611156 
   49600    13.396598  -0.37507252            0  -0.33994518 0.0076431834 
   49700    13.518118  -0.37527593            0  -0.33982995 0.0022721736 
   49800    13.392487  -0.37494942            0  -0.33983286  0.003145664 
   49900    13.389724  -0.37494122            0  -0.33983191 0.00066896113 
   50000    13.352965  -0.37485369            0  -0.33984076 0.0028898659 
   50100    13.357885  -0.37488942            0  -0.33986359 0.00079930184 
   50200    13.255384  -0.37459581            0  -0.33983875 0.0052229794 
   50300    13.401687   -0.3749704            0  -0.33982972 0.0014538991 
   50400    13.455014  -0.37513974            0  -0.33985923 -0.00031632973 
   50500    13.428333  -0.37509343            0  -0.33988288 0.0022042289 
   50600    13.525737   -0.3753665            0  -0.33990055 0.0027967189 
   50700    13.522205  -0.37535906            0  -0.33990237 0.0074222192 
   50800    13.712142  -0.37585638            0  -0.33990165 0.0020425834 
   50900    13.698608  -0.37586032            0  -0.33994108   0.00304522 
   51000    13.672117  -0.37580685            0  -0.33995707 0.0037435769 
   51100    13.803113  -0.37606716            0   -0.3398739 -1.8336353e-05 
   51200    13.667387  -0.37570902            0  -0.33987165 0.0040020169 
   51300     13.61795  -0.37563888            0  -0.33993114 0.0044962594 
   51400    13.653886  -0.37562677            0   -0.3398248 0.0031166408 
   51500    13.654435  -0.37571952            0   -0.3399161 0.0038401699 
   51600    13.679705  -0.37578688            0   -0.3399172 0.0056780268 
   51700    13.797913  -0.37604557            0  -0.33986594 0.0020659006 
   51800    13.733106  -0.37583509            0   -0.3398254 0.0015114638 
   51900    13.585363  -0.37557687            0  -0.33995457 0.0019603389 
   52000     13.73133  -0.37587709            0  -0.33987205 -3.1032181e-05 
   52100    13.779093  -0.37605163            0  -0.33992135 0.0034650112 
   52200    13.931562  -0.37649664            0  -0.33996657 0.0015948206 
   52300    13.934666  -0.37653071            0   -0.3399925 0.0029433844 
   52400    13.888996  -0.37638524            0  -0.33996678 0.0053454298 
   52500    13.915753  -0.37640362            0    -0.339915 0.0032356468 
   52600    13.859574  -0.37634543            0  -0.34000412 0.0012804697 
   52700    13.913109  -0.37638753            0  -0.33990585 5.0655442e-05 
   52800    13.924471  -0.37643032            0  -0.33991884 0.0042862812 
   52900    13.918782  -0.37648621            0  -0.33998965 0.0036674137 
   53000    13.844586  -0.37628937            0  -0.33998736 0.0023731686 
   53100    13.933151  -0.37633745            0  -0.33980321 0.0017019802 
   53200    13.872711  -0.37629369            0  -0.33991793 0.0078444416 
   53300    13.885497  -0.37621954            0  -0.33981025 0.0056622048 
   53400     13.96101  -0.37639893            0  -0.33979165 0.00080149848 
   53500    13.882203   -0.3761361            0  -0.33973545 0.0047880193 
   53600    14.221105  -0.37698708            0  -0.33969779 -0.0014990617 
   53700    14.067712  -0.37664315            0  -0.33975608 0.0056091048 
   53800    14.167808   -0.3770217            0  -0.33987217 0.00075181442 
   53900    13.912024  -0.37625884            0     -0.33978 0.0060411958 
   54000    13.960828  -0.37644494            0  -0.33983813 0.00085445055 
   54100    13.836951  -0.37615442            0  -0.33987244  0.002241906 
   54200    13.857711  -0.37627516            0  -0.33993873 0.0018200426 
   54300    13.926842  -0.37644075            0  -0.33992306 0.0032534968 
   54400    14.022635  -0.37668672            0  -0.33991784 0.0025136091 
   54500    14.008281  -0.37668556            0  -0.33995433 0.0028987851 
   54600    14.014194   -0.3767732            0  -0.34002646 0.0027163413 
   54700    13.975328  -0.37654868            0  -0.33990385 0.0022355264 
   54800     13.99104  -0.37661341            0  -0.33992738 -0.00065598483 
   54900    13.951308  -0.37652572            0  -0.33994387 0.0049538664 
   55000    14.139261   -0.3769599            0  -0.33988522 0.0027693452 
   55100    14.215658  -0.37728076            0  -0.34000576 0.0016796773 
   55200    14.281164  -0.37727823            0  -0.33983147 0.0050504748 
   55300    14.270471   -0.3772536            0  -0.33983487 0.0069168604 
   55400    14.178084  -0.37709243            0  -0.33991596 0.0051658786 
   55500    14.190373  -0.37716407            0  -0.33995536 0.0026498077 
   55600    14.231857  -0.37719911            0  -0.33988163 0.0006632708 
   55700    14.322656  -0.37749805            0  -0.33994249 0.0012863971 
   55800    14.406697  -0.37764283            0   -0.3398669 0.0062728546 
   55900    14.185081  -0.37703764            0  -0.33984281  0.011631083 
   56000    14.129671  -0.37683762            0  -0.33978809  0.002997899 
   56100    14.045396  -0.37674937            0  -0.33992082 0.0017315396 
   56200    13.926764   -0.3763546            0  -0.33983711 0.0053055444 
   56300    13.923831  -0.37628064            0  -0.33977084 0.0032181852 
   56400    13.939425  -0.37636049            0   -0.3398098 -4.4646634e-05 
   56500    13.838459  -0.37613322            0  -0.33984728 0.0038452365 
   56600    13.985867  -0.37661635            0  -0.33994389 0.0016159745 
   56700    13.959806  -0.37648296            0  -0.33987884 0.0034769321 
   56800    13.883465  -0.37633359            0  -0.33992964 0.0018052885 
   56900    13.765185  -0.37604973            0  -0.33995592 0.0027416069 
   57000    13.822294   -0.3762119            0  -0.33996834 0.00062024823 
   57100    13.958549   -0.3765681            0  -0.33996727 5.5556506e-05 
   57200    13.866558  -0.37631266            0  -0.33995303 0.0078434556 
   57300    13.948986  -0.37649258            0  -0.33991682 0.0059071923 
   57400    14.035716  -0.37664135            0  -0.33983817 0.0018537973 
   57500    14.010907  -0.37651041            0  -0.33977229  0.003375237 
   57600    14.056617  -0.37653009            0  -0.33967211 0.0049360572 
   57700    14.052671  -0.37646151            0  -0.33961388 0.0034786431 
   57800    14.062402  -0.37652583            0  -0.33965268 -0.00085852597 
   57900    13.972966  -0.37637916            0  -0.33974052 0.0015895081 
   58000    13.964171  -0.37627719            0  -0.33966161 0.0033450532 
   58100    13.962545   -0.3763181            0  -0.33970679  0.001791489 
   58200     13.97612  -0.37637029            0  -0.33972338 0.00024100047 
   58300    14.197279  -0.37695648            0  -0.33972968 0.00017523365 
   58400    14.080537  -0.37662815            0  -0.33970745  0.012568716 
   58500    14.215565   -0.3769002            0  -0.33962544 0.0029494881 
   58600    14.079812  -0.37650549            0  -0.33958669 -0.00024553309 
   58700    13.946392  -0.37624664            0  -0.33967769 0.0019853594 
   58800    14.019891  -0.37639758            0   -0.3396359 0.00041088137 
   58900    14.032474  -0.37637405            0  -0.33957938  0.001136952 
   59000    14.044824  -0.37642308            0  -0.33959602 0.0060907351 
   59100    14.183603  -0.37676198            0  -0.33957103  0.003850361 
   59200    14.038919  -0.37651416            0  -0.33970258 0.0026481623 
   59300     14.18912  -0.37681329            0  -0.33960787 0.00011309664 
   59400    14.126962  -0.37672408            0  -0.33968164 0.0060463856 
   59500    14.221464  -0.37698652            0   -0.3396963 0.0032977273 
   59600    14.115566  -0.37680314            0  -0.33979059  0.004866849 
   59700    14.250378   -0.3771201            0  -0.33975406 0.0017394491 
   59800    14.063762  -0.37657752            0   -0.3397008 0.0036492071 
   59900     14.18398  -0.37687844            0  -0.33968651 -0.0013392901 
   60000    14.024825  -0.37646974            0  -0.33969512 0.0073576901 
   60100    14.149478  -0.37669691            0  -0.33959544 0.0029242417 
   60200     14.25734  -0.37691742            0  -0.33953312 0.00087019926 
   60300    14.403369   -0.3773405            0   -0.3395733 0.0032897274 
   60400    14.323857  -0.37708676            0  -0.33952805 0.0063091032 
   60500    14.289699  -0.37708055            0   -0.3396114 0.0024958962 
   60600     14.12989  -0.37669339            0  -0.33964328 0.0024318552 
   60700    14.060355  -0.37643682            0  -0.33956904 0.00083782003 
   60800    13.985242  -0.37638491            0  -0.33971408 -0.00052099726 
   60900    14.105484  -0.37647469            0  -0.33948858 0.00070072309 
   61000    14.221077  -0.37681012            0  -0.33952091 0.0056839071 
   61100    14.320897  -0.37736141            0  -0.33981046 0.0072120346 
   61200    14.446538  -0.37762156            0  -0.33974116 0.0035431964 
   61300    14.313958  -0.37730953            0  -0.33977678 0.0033111656 
   61400    14.245113  -0.37720032            0  -0.33984809   0.00341936 
   61500    14.198544   -0.3770691            0  -0.33983898 0.0032225562 
   61600    14.133738  -0.37691468            0  -0.33985448 0.0021637622 
   61700    14.057424  -0.37665182            0  -0.33979173 0.0048153637 
   61800    14.005399  -0.37645509            0  -0.33973141 0.0036663405 
   61900    13.963614  -0.37625802            0  -0.33964391 0.0019307982 
   62000    13.940339  -0.37622645            0  -0.33967337 -0.00058239444 
   62100    13.802753  -0.37577501            0  -0.33958269 0.0058902785 
   62200    13.935082  -0.37619496            0  -0.33965566 0.0026651227 
   62300    13.984914  -0.37630651            0  -0.33963655 0.0007771235 
   62400    14.026061  -0.37641046            0   -0.3396326 0.0019355618 
   62500    14.017142  -0.37641096            0  -0.33965649 0.0047285499 
   62600    14.035213  -0.37648496            0   -0.3396831  0.002004276 
   62700    13.918662  -0.37617755            0  -0.33968131 0.0026593223 
   62800    13.998508  -0.37640808            0  -0.33970247 0.0022132426 
   62900    14.007797  -0.37651148            0  -0.33978151 0.0020247448 
   63000    13.988331  -0.37643009            0  -0.33975116  0.003161216 
   63100    13.995698  -0.37644003            0  -0.33974179 0.0018273689 
   63200    13.979111  -0.37638908            0  -0.33973434 0.00021651075 
   63300    13.945713  -0.37629759            0  -0.33973042 0.0032871196 
   63400    14.080322  -0.37672851            0  -0.33980837 0.0020791884 
   63500    14.094516  -0.37667985            0   -0.3397225 0.0061330075 
   63600    14.256482  -0.37700369            0  -0.33962165 0.0047343279 
   63700     14.13345  -0.37668011            0  -0.33962066 0.0062007687 
   63800    14.006736   -0.3764841            0  -0.33975691 0.0037457864 
   63900    14.031998  -0.37645202            0   -0.3396586 0.00069367852 
   64000      14.1471  -0.37681814            0   -0.3397229 0.0028814881 
   64100    14.118848  -0.37688359            0  -0.33986244 0.0063805198 
   64200    14.211854  -0.37702121            0  -0.33975619 0.0010823369 
   64300    14.212014  -0.37703695            0   -0.3397715 0.0034557943 
   64400    14.257438  -0.37715639            0  -0.33977184 0.0010936652 
   64500    14.156509  -0.37690444            0  -0.33978454 0.00048655357 
   64600    14.087558   -0.3767246            0  -0.33978549 0.0013335328 
   64700    14.076642  -0.37667556            0  -0.33976507 0.0014819287 
   64800    13.929009  -0.37623332            0  -0.33970994 0.0042499245 
   64900    13.890661  -0.37616502            0  -0.33974219 0.0042022504 
   65000    13.926491  -0.37623638            0   -0.3397196 -0.00012934209 
   65100    13.991409  -0.37640937            0  -0.33972238 -0.001091058 
   65200    14.074102  -0.37658797            0  -0.33968415 0.0034605988 
   65300    14.175802  -0.37689602            0  -0.33972553 0.0037055891 
   65400     14.16595  -0.37688927            0  -0.33974461 0.0051137973 
   65500    14.270478   -0.3772241            0  -0.33980536 0.0024595506 
   65600    14.232704  -0.37709221            0  -0.33977251 0.0038236867 
   65700    14.226257  -0.37704884            0  -0.33974605 0.0020737863 
   65800    14.167321  -0.37683063            0  -0.33968238 0.0011180253 
   65900    14.213561  -0.37692386            0  -0.33965436 0.0014640901 
   66000    14.322779  -0.37721513            0  -0.33965924 0.0026075028 
   66100    14.413491  -0.37739875            0  -0.33960501 0.0035236094 
   66200    14.358976  -0.37731123            0  -0.33966044 0.0037875567 
   66300    14.281214  -0.37704121            0  -0.33959431 0.0017951393 
   66400    14.216069  -0.37695486            0  -0.33967878 0.0016091377 
   66500    14.000146  -0.37643474            0  -0.33972484 0.0049649996 
   66600    14.033248  -0.37653415            0  -0.33973745 0.0024005236 
   66700    14.196603  -0.37699237            0  -0.33976733 -0.0016244262 
   66800    13.981893  -0.37642259            0  -0.33976055 0.0072254709 
   66900    14.092615  -0.37673165            0  -0.33977928 0.0019222237 
   67000    14.100204  -0.37660625            0  -0.33963398 0.0022763407 
   67100    14.182591   -0.3768123            0    -0.339624 -0.00077049857 
   67200    14.122613  -0.37666174            0  -0.33963071 0.00085586176 
   67300    14.086646  -0.37652179            0  -0.33958507 0.0072690737 
   67400      14.2708  -0.37710525            0  -0.33968566 0.0039426583 
   67500    14.182862   -0.3768286            0   -0.3396396 0.0045186704 
   67600    14.197818  -0.37695807            0  -0.33972984 0.0035132196 
   67700    14.244327  -0.37708363            0  -0.33973346  0.003257663 
   67800    14.116279  -0.37680508            0  -0.33979067 0.0024756447 
   67900    14.160674  -0.37695331            0  -0.33982248 -0.0014146948 
   68000    14.057876  -0.37668309            0  -0.33982181 0.0052848418 
   68100    14.184965  -0.37700766            0  -0.33981314 0.0034195912 
   68200    14.245687   -0.3771047            0  -0.33975096  0.004186554 
   68300    14.204441  -0.37705568            0  -0.33981009  0.003298392 
   68400    14.271364   -0.3771795            0  -0.33975843 -0.0010117615 
   68500    14.215735  -0.37706134            0  -0.33978613 0.0029360415 
   68600      14.1708  -0.37702061            0  -0.33986324 0.0051031321 
   68700    14.142146  -0.37699032            0  -0.33990807  0.003134083 
   68800    14.045244  -0.37665774            0  -0.33982958 0.0037899133 
   68900    14.154778  -0.37686636            0    -0.339751 0.0012616902 
   69000    14.125778  -0.37687487            0  -0.33983555 0.0057428963 
   69100    14.260032  -0.37706233            0  -0.33967098 0.0024247442 
   69200    14.285466  -0.37718684            0  -0.33972879 -0.00036918559 
   69300    14.251187  -0.37702654            0  -0.33965838 0.0041604419 
   69400    14.305128  -0.37728226            0  -0.33977266 0.0018250694 
   69500    14.219343  -0.37698393            0  -0.33969927 0.0009547671 
   69600    14.166315  -0.37687959            0  -0.33973397 0.00012737582 
   69700    14.099596  -0.37675446            0  -0.33978379 0.0060309255 
   69800    14.233088     -0.37703            0   -0.3397093 0.0050573854 
   69900    14.281904  -0.37708355            0  -0.33963485 0.0030092633 
   70000    14.167988  -0.37688272            0  -0.33973272 0.0026645698 
   70100    14.212842   -0.3769126            0  -0.33964498 0.0011484919 
   70200    14.306184  -0.37725213            0  -0.33973976 0.0017105024 
   70300    14.445571  -0.37765028            0  -0.33977242  0.001997001 
   70400    14.251791  -0.37724405            0   -0.3398743 0.0069075935 
   70500    14.371144  -0.37751241            0  -0.33982971 0.0010603465 
   70600    14.333074   -0.3774326            0  -0.33984972  0.003131454 
   70700    14.305283  -0.37742948            0  -0.33991947 0.0034646855 
   70800    14.220941  -0.37729768            0  -0.34000882 0.0029763602 
   70900    14.291446  -0.37743435            0  -0.33996062 0.00093345502 
   71000    14.282358  -0.37748596            0  -0.34003607 0.0036949978 
   71100    14.167315   -0.3772378            0  -0.34008956 0.0035077953 
   71200    14.337242  -0.37770212            0  -0.34010832 -0.0020002324 
   71300    14.278298  -0.37750181            0  -0.34006256 0.0058752446 
   71400    14.297839  -0.37757279            0   -0.3400823 0.0043897207 
   71500    14.229395  -0.37739957            0  -0.34008855 0.0032844349 
   71600     14.22189  -0.37737109            0  -0.34007974 0.0022674001 
   71700    14.210717  -0.37740282            0  -0.34014077 0.0011093506 
   71800    14.286171  -0.37763555            0  -0.34017566 0.00030055293 
   71900    14.282232  -0.37761215            0  -0.34016258 0.0039450033 
   72000    14.363289  -0.37778706            0  -0.34012496 0.0023756909 
   72100    14.354341     -0.37773            0  -0.34009136 0.0020900683 
   72200    14.262624  -0.37744478            0  -0.34004663 0.0067214785 
   72300    14.404214  -0.37779549            0  -0.34002607 0.0015683999 
   72400     14.43886  -0.37783581            0  -0.33997555 0.0022160888 
   72500    14.592972  -0.37822084            0  -0.33995648 0.0038501665 
   72600    14.513676  -0.37804553            0  -0.33998909 0.0046067788 
   72700    14.407652   -0.3777234            0  -0.33994497  0.002040314 
   72800    14.223352  -0.37712559            0  -0.33983042 0.0029341288 
   72900      14.2384  -0.37726183            0  -0.33992719 -0.0011958491 
   73000    14.243998  -0.37715865            0  -0.33980934 0.0036659318 
   73100     14.22926  -0.37711981            0  -0.33980914 0.0057091957 
   73200    14.132236  -0.37691353            0  -0.33985727 0.0014702618 
   73300    14.062628  -0.37678572            0  -0.33991198 -0.0016558594 
   73400    14.052863  -0.37677786            0  -0.33992972 0.00094256442 
   73500    14.210995  -0.37717167            0  -0.33990889 -0.00020668605 
   73600    14.277148    -0.377319            0  -0.33988276 0.0017040538 
   73700    14.349719  -0.37745916            0  -0.33983264  0.005812523 
   73800     14.33966  -0.37753703            0  -0.33993688 0.0068933995 
   73900    14.301242   -0.3774013            0  -0.33990189 0.0039085588 
   74000    14.394259  -0.37768325            0  -0.33993994 -0.0004091802 
   74100    14.159674  -0.37715514            0  -0.34002693 0.0062724767 
   74200    14.197039  -0.37730265            0  -0.34007647 0.0038698743 
   74300    14.273168  -0.37757448            0  -0.34014868 -0.00079987767 
   74400    14.277172  -0.37760559            0   -0.3401693 0.0023966052 
   74500    14.320544  -0.37767845            0  -0.34012843 0.0079540413 
   74600    14.581926  -0.37831608            0  -0.34008068  0.004071585 
   74700     14.55163  -0.37824035            0  -0.34008439 0.0046541644 
   74800    14.514643  -0.37814027            0   -0.3400813 0.00093710424 
   74900    14.364389  -0.37769061            0  -0.34002562 0.0030548036 
   75000    14.393676  -0.37774364            0  -0.34000185 0.00041741061 
   75100    14.234105  -0.37729813            0  -0.33997476  0.003831127 
   75200    14.045346  -0.37688027            0  -0.34005184 0.0066668798 
   75300    14.165029  -0.37712156            0  -0.33997932 0.00022111489 
   75400     14.17378   -0.3771238            0   -0.3399586 0.0034479226 
   75500    14.356933  -0.37767485            0  -0.34002941 0.00086245006 
   75600    14.290463  -0.37743464            0   -0.3399635 0.0047560492 
   75700    14.350174   -0.3776308            0  -0.34000309 0.0047391337 
   75800    14.336661  -0.37763279            0   -0.3400405 0.0048343391 
   75900    14.389515  -0.37768385            0  -0.33995298 0.0004766838 
   76000    14.421175  -0.37770082            0  -0.33988693 0.0006763197 
   76100    14.550496  -0.37799874            0  -0.33984576 0.0020073106 
   76200    14.554435  -0.37800353            0  -0.33984022 0.0057343913 
   76300     14.71242  -0.37837562            0  -0.33979806 0.0016501861 
   76400    14.611621  -0.37815476            0   -0.3398415 0.0030717419 
   76500    14.477747  -0.37791609            0  -0.33995386 0.0054729469 
   76600    14.701905  -0.37847185            0  -0.33992186 0.0011402355 
   76700    14.651865  -0.37828669            0   -0.3398679 0.0074242572 
   76800    14.979254  -0.37917212            0  -0.33989489 0.00093655736 
   76900    14.745406  -0.37858212            0  -0.33991807 0.0056228816 
   77000    14.712821  -0.37849635            0  -0.33991773 0.0012530942 
   77100     14.69048  -0.37843504            0  -0.33991501 0.0012652056 
   77200    14.503414  -0.37798106            0  -0.33995153 0.0064467829 
   77300    14.623743  -0.37820797            0  -0.33986292 0.00085332522 
   77400    14.596218  -0.37807486            0  -0.33980199 0.0022864749 
   77500    14.650263  -0.37823216            0  -0.33981758 0.0023488976 
   77600    14.695203  -0.37826861            0  -0.33973619 0.0058905321 
   77700    14.611475  -0.37803574            0  -0.33972286 0.0070356904 
   77800     14.66738  -0.37816123            0  -0.33970177 0.00030422352 
   77900    14.417161  -0.37758051            0  -0.33977715 0.0029605267 
   78000    14.488809  -0.37776183            0   -0.3397706 -0.00048236475 
   78100    14.474314  -0.37771606            0  -0.33976284 0.0032420651 
   78200    14.524401  -0.37789393            0  -0.33980938 0.0037868918 
   78300    14.589877  -0.37811467            0  -0.33985842 -0.00016030903 
   78400    14.464425  -0.37783171            0  -0.33990442 0.0040515863 
   78500    14.515159  -0.37799177            0  -0.33993145 0.0029089239 
   78600     14.54519  -0.37808585            0  -0.33994678 0.00057700123 
   78700    14.437298   -0.3778245            0  -0.33996833 0.0030795952 
   78800    14.419198  -0.37780375            0  -0.33999505  0.002779755 
   78900    14.418466  -0.37785969            0   -0.3400529 0.0035476657 
   79000    14.462956  -0.37793202            0  -0.34000857 0.0029004404 
   79100    14.306103  -0.37749945            0  -0.33998729 0.0040255487 
   79200    14.297298  -0.37751702            0  -0.34002795 0.0034749549 
   79300    14.356051  -0.37786723            0   -0.3402241 0.0010488626 
   79400    14.225749  -0.37746534            0  -0.34016388 0.0043909035 
   79500    14.367285  -0.37771939            0   -0.3400468 0.0012652821 
   79600    14.373792  -0.37773492            0  -0.34004528 0.0041394834 
   79700    14.388132  -0.37782624            0    -0.340099 0.0021639336 
   79800    14.321775  -0.37757162            0  -0.34001837 0.0017880615 
   79900    14.249678  -0.37739272            0  -0.34002851 0.0033215328 
   80000    14.382602  -0.37774454            0   -0.3400318 0.0026189683 
   80100    14.453227  -0.37789856            0  -0.34000063 0.0050943541 
   80200    14.455261  -0.37788089            0  -0.33997762 0.0033734779 
   80300    14.425301  -0.37780868            0  -0.33998397 0.00030304085 
   80400    14.400557  -0.37771342            0   -0.3399536 0.00094581985 
   80500    14.453849  -0.37791028            0  -0.34001072 0.0012965083 
   80600    14.615966  -0.37836465            0  -0.34003999 0.0024696294 
   80700    14.560318  -0.37815616            0  -0.33997743  0.005921381 
   80800    14.686476  -0.37845795            0  -0.33994841 0.0024775938 
   80900    14.617735  -0.37831226            0  -0.33998297 0.0046388726 
   81000    14.687819  -0.37844054            0  -0.33992748 0.0045884189 
   81100    14.699127  -0.37845307            0  -0.33991036 0.0017919956 
   81200    14.729284  -0.37852626            0  -0.33990448 0.00011477024 
   81300    14.790423  -0.37875716            0  -0.33997506 0.0046776509 
   81400    14.903239  -0.37897518            0  -0.33989727 0.0052918214 
   81500    14.906056  -0.37892592            0  -0.33984062 0.0031797843 
   81600    14.847484  -0.37889532            0   -0.3399636  0.001966974 
   81700    14.664004  -0.37836183            0  -0.33991122 0.0059789759 
   81800    14.682628   -0.3784926            0  -0.33999315 -0.0018382245 
   81900    14.617792  -0.37832827            0  -0.33999883 -0.00081485286 
   82000    14.721003  -0.37858622            0  -0.33998615 0.0023080337 
   82100     14.66414  -0.37841729            0  -0.33996633 0.0069106911 
   82200    14.794237  -0.37881072            0  -0.34001862 0.0022751934 
   82300    14.660655  -0.37844209            0  -0.34000026 0.0030294033 
   82400    14.529191  -0.37801989            0  -0.33992277 -0.0011514629 
   82500    14.527013  -0.37802701            0  -0.33993561 -0.0017872019 
   82600    14.646129  -0.37823272            0  -0.33982898 0.0032676312 
   82700     14.87992  -0.37886316            0  -0.33984639 0.0059027639 
   82800    14.800692  -0.37865609            0  -0.33984707 0.0062462126 
   82900    14.871223  -0.37883715            0  -0.33984319 -0.00024172633 
   83000    14.826407   -0.3787892            0  -0.33991275 0.0034289338 
   83100    15.005767  -0.37930952            0  -0.33996276 0.00053598904 
   83200    14.952561  -0.37932233            0  -0.34011509 0.0046248346 
   83300    15.026943  -0.37943879            0  -0.34003651  0.003798923 
   83400    15.045316  -0.37949469            0  -0.34004423 0.0021385403 
   83500    14.969516  -0.37928985            0  -0.34003815 0.0030491719 
   83600    14.924428  -0.37917713            0  -0.34004366 0.0038943573 
   83700    14.938744  -0.37920539            0  -0.34003438 0.0029436978 
   83800    14.982397  -0.37930163            0  -0.34001615 0.0013594864 
   83900    14.896413  -0.37907025            0  -0.34001024 0.0036468937 
   84000    15.002141  -0.37932224            0    -0.339985 -0.00050032014 
   84100    14.915982  -0.37907015            0  -0.33995882 0.0012515553 
   84200    15.003014  -0.37926301            0  -0.33992348 0.0016044131 
   84300    14.894023  -0.37896927            0  -0.33991553  0.010861039 
   84400      15.0894  -0.37947115            0   -0.3399051 0.0017784837 
   84500    14.825831  -0.37878505            0  -0.33991011 0.0042750578 
   84600    14.902307  -0.37899324            0  -0.33991777 0.00090685758 
   84700    14.795564  -0.37880446            0  -0.34000888 0.0025309342 
   84800    14.884819  -0.37903038            0  -0.34000076   0.00260128 
   84900     14.87304  -0.37896663            0   -0.3399679  0.006097724 
   85000    14.975718  -0.37923438            0  -0.33996642 0.0035002223 
   85100    15.043055  -0.37938729            0  -0.33994277  0.002812618 
   85200    15.071834  -0.37943213            0  -0.33991215 0.0023522668 
   85300    14.915506  -0.37906921            0  -0.33995913 0.0066695583 
   85400    15.192353  -0.37969913            0  -0.33986313 -0.001183934 
   85500    15.057159  -0.37932671            0   -0.3398452 0.0038708456 
   85600    15.221013  -0.37977607            0  -0.33986492 0.00023479013 
   85700    15.066363  -0.37942568            0  -0.33992004 0.0073314343 
   85800    15.167946  -0.37964997            0  -0.33987796 0.0046303726 
   85900    15.395136  -0.38021115            0  -0.33984343  0.004152025 
   86000    15.630727  -0.38086032            0  -0.33987486 0.00068326086 
   86100    15.444114  -0.38038531            0  -0.33988917 0.0081087758 
   86200    15.549903   -0.3806687            0  -0.33989516 0.0032428754 
   86300    15.401496  -0.38027911            0  -0.33989471 0.0023692259 
   86400    15.321751  -0.38005848            0  -0.33988318 0.0035144145 
   86500    15.412675  -0.38026807            0  -0.33985436 0.0022442216 
   86600    15.116686  -0.37948413            0  -0.33984654 0.0071558038 
   86700    15.197243  -0.37966526            0  -0.33981644 0.00069475344 
   86800    15.223919  -0.37974216            0  -0.33982338 0.00012278062 
   86900    15.394503  -0.38011005            0  -0.33974399  0.003204245 
   87000    15.334621  -0.37988263            0  -0.33967358 0.0060984123 
   87100    15.262075  -0.37968489            0  -0.33966606 0.0017741346 
   87200    15.181803  -0.37958441            0  -0.33977607 0.0027109485 
   87300    15.248713  -0.37978343            0  -0.33979965 0.0042942273 
   87400    15.308373  -0.37996651            0  -0.33982629 0.0044443425 
   87500    15.388773  -0.38024205            0  -0.33989101 0.0025400602 
   87600     15.21042  -0.37979591            0  -0.33991254 0.0069062066 
   87700    15.191654  -0.37976994            0  -0.33993577 0.0027732916 
   87800    15.091806  -0.37951281            0  -0.33994046 0.0016670728 
   87900    15.022831  -0.37929929            0   -0.3399078 0.0028749838 
   88000    15.309418  -0.38004613            0  -0.33990317 -0.0031308941 
   88100    15.293174  -0.38002226            0  -0.33992189 0.0031415843 
   88200    15.404829  -0.38037381            0  -0.33998067 0.0014347494 
   88300    15.445339  -0.38048939            0  -0.33999003  0.003321663 
   88400    15.372562  -0.38030633            0   -0.3399978 0.0046948565 
   88500    15.291064    -0.380119            0  -0.34002417 0.0021597611 
   88600    15.170754  -0.37980911            0  -0.34002974 0.0014472856 
   88700    15.310949  -0.38015843            0  -0.34001145 0.00044815994 
   88800    15.284809  -0.38008418            0  -0.34000574 0.0050789982 
   88900    15.270921  -0.38007849            0  -0.34003647 0.0032064959 
   89000    15.023204   -0.3794095            0  -0.34001702 0.0075131458 
   89100    15.162423  -0.37973451            0  -0.33997698 -0.0010990376 
   89200    15.059429   -0.3794732            0  -0.33998574 0.0055237426 
   89300    15.140351   -0.3797708            0  -0.34007116  0.002093591 
   89400    15.057659  -0.37944425            0  -0.33996143 0.00062727685 
   89500    15.074611  -0.37943285            0  -0.33990558 0.00083828899 
   89600    15.277159  -0.37990015            0  -0.33984178  0.002408243 
   89700    15.344842  -0.38003963            0  -0.33980378 0.0065126614 
   89800    15.280209  -0.38001144            0  -0.33994507 0.0024884424 
   89900    15.223336   -0.3797164            0  -0.33979916 0.0010011832 
   90000    15.108708  -0.37941606            0  -0.33979939 0.0066135193 
   90100    15.192364  -0.37964491            0  -0.33980888 0.0038528272 
   90200    15.246954  -0.37977241            0  -0.33979324 0.00087682826 
   90300    15.165333  -0.37949918            0  -0.33973402 0.0031682011 
   90400    15.158148  -0.37956375            0  -0.33981744 0.0025797669 
   90500    15.200163  -0.37965947            0  -0.33980299 0.0028232179 
   90600    15.227993  -0.37964988            0  -0.33972042 0.0033191662 
   90700    15.093997  -0.37931559            0  -0.33973749 0.0064011456 
   90800    15.165004  -0.37957178            0  -0.33980749 0.0012605054 
   90900    14.982713  -0.37913321            0   -0.3398469 0.0067598321 
   91000    15.025218  -0.37931502            0  -0.33991727 0.0027830518 
   91100    14.960466  -0.37927911            0  -0.34005114 -0.00095689844 
   91200    14.843585  -0.37888617            0  -0.33996468 0.0029255006 
   91300    14.699159  -0.37850186            0  -0.33995907 0.0074960051 
   91400    14.878101  -0.37897321            0  -0.33996121 0.00033902963 
   91500     14.82893  -0.37887651            0  -0.33999344 0.0025033546 
   91600    15.024248  -0.37945532            0  -0.34006011 -0.00012355379 
   91700    14.973209  -0.37925685            0  -0.33999547 0.0071581776 
   91800    14.937656  -0.37913389            0  -0.33996573 0.0070147468 
   91900    15.104849  -0.37957213            0  -0.33996558 -0.0024684522 
   92000    15.067385  -0.37945694            0  -0.33994862  0.001277453 
   92100    15.022696  -0.37930294            0   -0.3399118 0.0072377912 
   92200    15.181274  -0.37971476            0  -0.33990781 0.0017173925 
   92300    15.064626  -0.37926501            0  -0.33976392 0.0040208466 
   92400    15.054817  -0.37926694            0  -0.33979157 0.0025900277 
   92500    15.012237  -0.37924356            0  -0.33987984  0.001812179 
   92600    15.044766  -0.37921759            0  -0.33976858 0.0040650905 
   92700    15.206592  -0.37961065            0  -0.33973731 0.0017811296 
   92800    15.092673  -0.37927655            0  -0.33970192  0.004792127 
   92900    15.039226  -0.37928252            0  -0.33984803 0.0031437416 
   93000    15.023815  -0.37929143            0  -0.33989735 0.0034876218 
   93100    15.026448  -0.37926387            0  -0.33986289 0.0045584677 
   93200    15.241127  -0.37989053            0  -0.33992664 -0.00013919864 
   93300    15.051699  -0.37951349            0   -0.3400463 0.0086705356 
   93400    15.187912  -0.37987303            0  -0.34004868 0.0051517997 
   93500    15.156384  -0.37979003            0  -0.34004834 0.0063793162 
   93600    15.418635  -0.38046344            0   -0.3400341 -0.00011102674 
   93700    15.143556   -0.3797537            0  -0.34004565 0.0067866526 
   93800     15.12683  -0.37973896            0  -0.34007476 0.0020484996 
   93900     15.07903  -0.37953735            0  -0.33999849 0.0052339815 
   94000     15.33194  -0.38014711            0   -0.3399451 0.0012377715 
   94100    15.355509  -0.38017813            0  -0.33991431 0.0022253425 
   94200    15.167481  -0.37988488            0   -0.3401141 0.0044487617 
   94300    15.228266  -0.37987092            0  -0.33994075 0.0011730996 
   94400    15.214368  -0.37988629            0  -0.33999256 0.0011473379 
   94500    15.102711  -0.37958907            0  -0.33998812 0.0027713137 
   94600     15.19062  -0.37983283            0  -0.34000137 0.0015157402 
   94700    15.228807  -0.37996504            0  -0.34003346 0.0033257566 
   94800    15.305686  -0.38010156            0  -0.33996839 0.0052093929 
   94900    15.412714  -0.38032709            0  -0.33991328 0.0024104443 
   95000     15.29322  -0.38001707            0  -0.33991659 0.0038684341 
   95100    15.149126  -0.37974763            0  -0.34002497  0.003272504 
   95200    15.119295   -0.3795471            0  -0.33990267 0.0060530637 
   95300    15.388018  -0.38020311            0  -0.33985405 0.0031749817 
   95400    15.341921  -0.38006136            0  -0.33983317 0.0060558263 
   95500    15.247012  -0.37989379            0  -0.33991447 0.0065725946 
   95600    15.253216  -0.37990633            0  -0.33991073 -0.00036922672 
   95700    14.987697   -0.3792292            0  -0.33992983 0.0035674037 
   95800     14.95064  -0.37921194            0  -0.34000973 0.0035161538 
   95900    15.020901  -0.37947001            0  -0.34008358 0.0020228804 
   96000    15.098969  -0.37960703            0  -0.34001589 0.0038881033 
   96100    15.257242  -0.38001593            0  -0.34000978  0.002506711 
   96200    15.160962   -0.3797658            0  -0.34001211 0.0055029086 
   96300      15.1356  -0.37964898            0  -0.33996179 0.0023407472 
   96400    14.999294  -0.37931531            0  -0.33998553 0.0031064318 
   96500    15.050549  -0.37933959            0  -0.33987542 0.0033463966 
   96600     15.02822  -0.37924409            0  -0.33983846 0.0041906075 
   96700    15.170149  -0.37965924            0  -0.33988145 0.0013459597 
   96800    15.179219   -0.3797236            0  -0.33992204  0.002876508 
   96900    15.305917  -0.37992762            0  -0.33979384 0.0045175418 
   97000    15.310233   -0.3799594            0   -0.3398143 0.0053724282 
   97100    15.241786  -0.37976779            0  -0.33980217 0.0023830221 
   97200    15.103573  -0.37941617            0  -0.33981296 0.0017502338 
   97300    15.075404   -0.3792893            0  -0.33975995 -0.00034403436 
   97400    15.108238  -0.37931895            0  -0.33970351 0.0038403269 
   97500    15.282955  -0.37971898            0  -0.33964541 0.0032420557 
   97600    15.242835  -0.37973082            0  -0.33976244 0.0024921832 
   97700      15.2266  -0.37951164            0  -0.33958584 0.0047807814 
   97800    15.189841  -0.37952768            0  -0.33969827 0.0069692055 
   97900    15.307902  -0.37991263            0  -0.33977364 0.0042758849 
   98000    15.334432  -0.37995034            0   -0.3397418 -0.0012301006 
   98100    15.174589   -0.3795704            0  -0.33978098 0.0018704097 
   98200    14.988282  -0.37919021            0   -0.3398893 0.0054686791 
   98300    15.095897  -0.37947205            0  -0.33988897 0.0022903266 
   98400    15.126196   -0.3794872            0  -0.33982467 0.0046499967 
   98500    15.312277  -0.37996209            0  -0.33981163 0.0030876813 
   98600    15.324352  -0.37994986            0  -0.33976774 0.0034822271 
   98700       15.353  -0.38002222            0  -0.33976499 0.0024057255 
   98800    15.415956  -0.38005474            0  -0.33963243 0.0031898465 
   98900    15.330926  -0.37984191            0  -0.33964256 0.0042279536 
   99000    15.127426  -0.37922134            0  -0.33955559 0.0070597864 
   99100    15.320216  -0.37972469            0  -0.33955342 0.00071948544 
   99200    15.303575  -0.37964835            0  -0.33952071  0.003533964 
   99300    15.357803   -0.3799215            0  -0.33965167 0.0017908471 
   99400    15.221818  -0.37964698            0  -0.33973372 0.0033402672 
   99500    15.344274  -0.37992651            0  -0.33969216 0.00060990296 
   99600    15.175082  -0.37948502            0   -0.3396943  0.010067671 
   99700    15.294055  -0.37980728            0  -0.33970461 0.0071336529 
   99800    15.286073   -0.3798606            0  -0.33977886 0.00012641887 
   99900    15.127835  -0.37944978            0  -0.33978295 0.00079023372 
  100000    15.122025  -0.37941493            0  -0.33976333 0.00029051527 
  100100     15.07621  -0.37930982            0  -0.33977835 0.0027782613 
  100200    14.965407   -0.3790613            0  -0.33982037 0.0033082023 
  100300    15.055656  -0.37931567            0  -0.33983811 0.0012390064 
  100400    15.091852  -0.37937095            0  -0.33979847 0.0013689639 
  100500     15.04045  -0.37923848            0  -0.33980078 0.0035529132 
  100600    15.123392  -0.37948937            0  -0.33983419 3.5233758e-05 
  100700    15.000039  -0.37913984            0   -0.3398081 0.0066844754 
  100800     15.01743  -0.37919851            0  -0.33982118 0.0056810334 
  100900    15.078029  -0.37937827            0  -0.33984204 0.0011378016 
  101000    15.048205  -0.37932535            0  -0.33986732   0.00591077 
  101100    15.029438  -0.37928455            0  -0.33987572 0.0073938415 
  101200    15.235939   -0.3797468            0  -0.33979651 -0.00034575411 
  101300    15.006758  -0.37908332            0  -0.33973397 0.0064129599 
  101400    15.101021  -0.37949294            0  -0.33989642 0.0011843854 
  101500     15.13312  -0.37941341            0  -0.33973273 0.0021756099 
  101600    15.188518  -0.37954312            0  -0.33971718 0.0048104616 
  101700     15.21859  -0.37963905            0  -0.33973425 0.0055020842 
  101800    15.161896   -0.3794974            0  -0.33974126 0.0065811416 
  101900    15.248581  -0.37968317            0  -0.33969973 0.0011732992 
  102000    15.202855  -0.37962057            0  -0.33975703 0.0012504961 
  102100    15.283106  -0.37978172            0  -0.33970775 0.0035574178 
  102200    15.344406  -0.37994125            0  -0.33970655 0.0032138833 
  102300    15.427202  -0.38009678            0  -0.33964498 0.0004395708 
  102400    15.448093  -0.38009024            0  -0.33958366 0.0010654867 
  102500    15.404319  -0.38008304            0  -0.33969124 0.0069862507 
  102600    15.516743  -0.38016349            0   -0.3394769 0.0046138916 
  102700    15.492436  -0.38023472            0  -0.33961187 0.0024280201 
  102800    15.464211  -0.37989635            0  -0.33934751 0.0063612686 
  102900    15.296319  -0.37954207            0  -0.33943346 0.0055166802 
  103000    15.278393  -0.37948828            0  -0.33942667 0.0025382807 
  103100    15.103294  -0.37919164            0  -0.33958916 0.0049839853 
  103200    15.250902  -0.37954097            0  -0.33955145 0.0017795035 
  103300    15.338249  -0.37979925            0   -0.3395807 0.0023110362 
  103400    15.286462  -0.37966666            0   -0.3395839  0.003965852 
  103500    15.363792  -0.37987652            0  -0.33959098 0.0018959265 
  103600    15.280219  -0.37972285            0  -0.33965645 0.0038097556 
  103700    15.220491  -0.37952332            0  -0.33961354 0.0015435739 
  103800    15.237992  -0.37965648            0  -0.33970081 -0.00045771607 
  103900    15.177801  -0.37952429            0  -0.33972645  0.003030853 
  104000    15.332397   -0.3800068            0  -0.33980359 0.00017865124 
  104100    15.235454  -0.37969318            0  -0.33974416 0.0060068215 
  104200    15.168578  -0.37952418            0  -0.33975052 0.0038191371 
  104300    15.078937  -0.37923166            0  -0.33969304 0.0016373642 
  104400    15.091281  -0.37934546            0  -0.33977448  0.002669111 
  104500    15.036113  -0.37912543            0  -0.33969911  0.006306198 
  104600    15.169261  -0.37950042            0  -0.33972497 -0.00050805135 
  104700    15.171979  -0.37950851            0  -0.33972593 -0.0011479157 
  104800    15.103807  -0.37936256            0  -0.33975873 0.0057218634 
  104900     15.16783  -0.37953139            0  -0.33975969 0.0063199743 
  105000    15.111011   -0.3793685            0  -0.33974579  0.004335097 
  105100    14.931511  -0.37899522            0  -0.33984317 0.0057618325 
  105200    14.978052  -0.37895746            0  -0.33968338 0.00062545982 
  105300    14.994117   -0.3790414            0  -0.33972519 0.0016509173 
  105400    15.150543   -0.3794837            0  -0.33975733 -0.0003848682 
  105500    14.987375  -0.37900274            0  -0.33970421 0.0057894953 
  105600    15.180999  -0.37953966            0  -0.33973343 0.0018554835 
  105700    15.142393  -0.37938591            0  -0.33968091 0.0033427519 
  105800    14.913212  -0.37889373            0  -0.33978967 0.0075364993 
  105900    14.939811  -0.37888184            0  -0.33970803  0.004350555 
  106000    14.932316  -0.37896517            0  -0.33981101 3.912158e-05 
  106100    15.008796  -0.37920582            0  -0.33985112 -0.00012424167 
  106200    14.908906  -0.37888688            0  -0.33979411  0.010009341 
  106300    15.296215  -0.37982084            0   -0.3397125 -0.0016249121 
  106400    15.135608  -0.37936699            0  -0.33967978 0.00041063575 
  106500    14.986987  -0.37893542            0  -0.33963791 0.0045532579 
  106600    15.101343  -0.37905395            0  -0.33945658 0.0035794148 
  106700     15.13405  -0.37923582            0  -0.33955269 0.0046401781 
  106800     15.17051  -0.37932639            0  -0.33954767 0.0049952321 
  106900     15.44002  -0.37996857            0  -0.33948316 -0.00039104621 
  107000    15.355822   -0.3798612            0  -0.33959656 0.0055915532 
  107100    15.302662  -0.37981603            0  -0.33969079 0.0080897901 
  107200    15.294857  -0.37978235            0  -0.33967757 0.0056716932 
  107300    15.370905  -0.37998335            0  -0.33967917 0.0014450501 
  107400    15.330432  -0.37985947            0  -0.33966141  0.002726136 
  107500     15.28055  -0.37976083            0  -0.33969356 0.0063766083 
  107600    15.406769  -0.38010665            0  -0.33970843 0.0027919388 
  107700    15.202534  -0.37954401            0  -0.33968132 0.0045121918 
  107800    15.137499  -0.37943994            0  -0.33974777 0.0026548353 
  107900    15.230494  -0.37957471            0   -0.3396387  0.003731706 
  108000    15.307469  -0.37964868            0  -0.33951083 0.0051922554 
  108100    15.349442  -0.37988365            0  -0.33963575 0.0035100281 
  108200    15.602149  -0.38041762            0  -0.33950709 0.00031596898 
  108300    15.586031  -0.38037503            0  -0.33950676 0.0077058077 
  108400    15.679062  -0.38066978            0  -0.33955757 0.0041991725 
  108500    15.625896  -0.38060322            0  -0.33963043 0.0015500393 
  108600    15.580413  -0.38053828            0  -0.33968474 0.0044680798 
  108700    15.614045  -0.38065866            0  -0.33971694 0.0024507143 
  108800    15.674609  -0.38078446            0  -0.33968393 0.0016485391 
  108900    15.522607  -0.38038779            0  -0.33968582 0.0044120752 
  109000    15.551563   -0.3804495            0  -0.33967161 -0.0025935773 
  109100    15.575242  -0.38046055            0  -0.33962057 0.0036577629 
  109200    15.643732  -0.38064641            0  -0.33962684 0.0063282873 
  109300    15.762138  -0.38077242            0  -0.33944238 0.0024360511 
  109400    15.795488  -0.38081994            0  -0.33940246 0.0050565298 
  109500    15.913765  -0.38119329            0  -0.33946567 0.0038177035 
  109600    15.839431  -0.38106751            0   -0.3395348 0.0035362104 
  109700    15.762904  -0.38091308            0  -0.33958103 0.0014447088 
  109800    15.719706  -0.38087133            0  -0.33965255 0.0022886154 
  109900    15.819318  -0.38116448            0  -0.33968451 0.0032604235 
  110000     15.75329  -0.38097105            0  -0.33966421 0.0070255826 
  110100     15.83354  -0.38114317            0  -0.33962591 0.0015777229 
  110200    15.802689  -0.38104939            0  -0.33961302 0.0028633257 
  110300    15.812456  -0.38099915            0  -0.33953718 0.0030840537 
  110400    15.777748  -0.38090682            0  -0.33953585 0.0063040455 
  110500    15.743643  -0.38084156            0  -0.33956002 0.0039838354 
  110600    15.808205  -0.38097383            0    -0.339523 0.00067521023 
  110700    15.761072  -0.38087584            0   -0.3395486 0.0059840768 
  110800    15.768622  -0.38087906            0  -0.33953201 0.0034707653 
  110900    15.628357  -0.38053207            0  -0.33955282 0.0023090667 
  111000    15.691775  -0.38056818            0  -0.33942264 0.0017385998 
  111100    15.578532  -0.38030019            0  -0.33945159  0.007005252 
  111200    15.716941  -0.38064192            0   -0.3394304 0.0003284166 
  111300    15.567516  -0.38042699            0  -0.33960727 0.0037730027 
  111400    15.728869  -0.38078871            0   -0.3395459 0.0068026548 
  111500    15.662837  -0.38064468            0  -0.33957501 0.0089990845 
  111600    15.856038  -0.38116926            0    -0.339593 2.2134633e-05 
  111700    15.731411   -0.3808315            0  -0.33958203 0.0014729026 
  111800    15.688384  -0.38071656            0  -0.33957992 -0.00085471133 
  111900    15.687618  -0.38067219            0  -0.33953755  0.002006247 
  112000     15.75874  -0.38080735            0  -0.33948622 0.0067875976 
  112100    15.907565  -0.38115787            0  -0.33944651 0.0040463774 
  112200    15.944239  -0.38131065            0  -0.33950312 0.0049481637 
  112300    15.941417  -0.38122911            0  -0.33942899 0.0060852718 
  112400    15.905124  -0.38115578            0  -0.33945082 0.0022851414 
  112500    15.730436  -0.38074508            0  -0.33949816 0.0033025691 
  112600    15.683985  -0.38059817            0  -0.33947305 0.0011244148 
  112700    15.584312  -0.38034562            0  -0.33948186 -0.00024835667 
  112800    15.637609  -0.38047384            0  -0.33947033 0.00010346943 
  112900    15.808179  -0.38098793            0  -0.33953716 0.0027804117 
  113000    15.837754  -0.38095728            0  -0.33942896  0.006817989 
  113100    15.844305  -0.38102994            0  -0.33948445 0.0038020869 
  113200    15.707879    -0.380648            0  -0.33946023 0.0047291554 
  113300    15.861953  -0.38094083            0  -0.33934906 0.0020447307 
  113400    15.813122  -0.38095071            0  -0.33948698 0.0017609361 
  113500     15.75228  -0.38062711            0  -0.33932292 0.0064437757 
  113600    15.809745  -0.38090025            0  -0.33944538 0.0046592543 
  113700    15.898469  -0.38121231            0   -0.3395248 0.0016472994 
  113800    15.779004  -0.38095289            0  -0.33957863 0.0055651014 
  113900      15.7866  -0.38099541            0  -0.33960123 0.0046007776 
  114000    15.526919  -0.38031482            0  -0.33960155 0.0064178137 
  114100    15.492824  -0.38023069            0  -0.33960682 0.0025921204 
  114200    15.357601  -0.37984089            0  -0.33957159 0.0024799772 
  114300    15.402402  -0.37994906            0  -0.33956229 -0.00047490083 
  114400    15.378442  -0.37986989            0  -0.33954594 0.0043236949 
  114500    15.461738   -0.3801436            0  -0.33960124 0.0032110274 
  114600    15.438763  -0.38008478            0  -0.33960266 0.00056286793 
  114700    15.499886  -0.38025054            0  -0.33960815 0.0014176181 
  114800    15.574334  -0.38040062            0  -0.33956302 0.0036434458 
  114900    15.725351  -0.38077167            0  -0.33953809 0.0026479832 
  115000    15.566417  -0.38031354            0   -0.3394967 0.0097371637 
  115100    15.646186  -0.38043562            0  -0.33940961 -0.00073414878 
  115200    15.463675  -0.38002758            0  -0.33948015 0.0029466527 
  115300    15.873097  -0.38096018            0   -0.3393392 0.0017902247 
  115400     15.77257  -0.38071471            0  -0.33935731  0.010526389 
  115500    15.893453  -0.38116283            0  -0.33948847 -0.00046758091 
  115600    15.753891  -0.38078114            0  -0.33947272 0.0028502709 
  115700    15.849949  -0.38095554            0  -0.33939525 0.0050425656 
  115800     15.98236  -0.38125123            0  -0.33934374 0.0049667804 
  115900    16.039409  -0.38133675            0  -0.33927967 0.0029476894 
  116000    15.891276  -0.38117585            0   -0.3395072 0.0058279226 
  116100    16.027777  -0.38131215            0  -0.33928557 0.0013428372 
  116200    16.105082  -0.38154761            0  -0.33931834  0.001907366 
  116300    15.953987  -0.38114611            0  -0.33931302 0.0091420833 
  116400     16.08376   -0.3814321            0  -0.33925874 0.0039760477 
  116500    16.057374   -0.3813878            0  -0.33928362 0.0019270854 
  116600    16.016328  -0.38117925            0   -0.3391827 0.0038509794 
  116700    16.045483  -0.38132998            0  -0.33925698  0.001251806 
  116800    16.056601  -0.38132711            0  -0.33922495 0.0021193632 
  116900    16.082805    -0.381471            0  -0.33930014 0.0042280949 
  117000    16.128059  -0.38157081            0  -0.33928128 0.0019428324 
  117100     16.12809  -0.38160727            0  -0.33931766 0.0022764122 
  117200    16.146958  -0.38166727            0  -0.33932819 0.0056790546 
  117300    16.327657  -0.38211361            0  -0.33930071 -0.00066385122 
  117400    16.276713  -0.38214566            0  -0.33946635 0.0015211216 
  117500    16.377166  -0.38231749            0  -0.33937478 0.0070033369 
  117600    16.361887  -0.38233051            0  -0.33942786 0.0082447641 
  117700    16.338101  -0.38228062            0  -0.33944034 -0.001670767 
  117800    16.128901  -0.38171338            0  -0.33942165 0.00067536785 
  117900    16.211162  -0.38184686            0  -0.33933943 -0.00022834631 
  118000    16.033087  -0.38142961            0  -0.33938911 0.0064970318 
  118100    16.051465  -0.38130918            0  -0.33922049 0.0015075432 
  118200    16.022806  -0.38136618            0  -0.33935264 0.00026007891 
  118300    16.000225  -0.38132135            0  -0.33936702 0.0040432078 
  118400    15.929418  -0.38123587            0  -0.33946721 0.0063148023 
  118500    16.009078  -0.38140589            0  -0.33942835 0.0021706735 
  118600    15.995715  -0.38141478            0  -0.33947228 0.0035316322 
  118700    15.981215  -0.38151142            0  -0.33960693 0.0038249557 
  118800    15.942087  -0.38124795            0  -0.33944606 0.0050623194 
  118900    16.013025  -0.38144496            0  -0.33945707 0.0028205269 
  119000    15.987423  -0.38124585            0  -0.33932509 0.0021648715 
  119100    16.113061  -0.38144664            0  -0.33919644 0.0024355966 
  119200    16.067367  -0.38140903            0  -0.33927865 0.0053159061 
  119300     15.88257  -0.38110988            0  -0.33946405 0.0062650399 
  119400    16.033991  -0.38132143            0  -0.33927856 0.0011409496 
  119500    15.924919  -0.38123177            0  -0.33947491 0.0048890114 
  119600    15.982249  -0.38147964            0  -0.33957244 -0.00029150637 
  119700    15.862783  -0.38119411            0  -0.33960017 0.0021431258 
  119800    16.043055  -0.38164249            0  -0.33957586 0.0042880664 
  119900    16.142438  -0.38188438            0  -0.33955715 0.0056906418 
  120000    16.163991  -0.38189236            0  -0.33950862 0.0053440959 
  120100    16.078837  -0.38169862            0  -0.33953816 0.0065525261 
  120200    16.236673  -0.38184599            0  -0.33927167 0.0051315138 
  120300    16.347783  -0.38217095            0  -0.33930528 0.00020467217 
  120400    16.183558  -0.38168762            0  -0.33925257 0.0063897412 
  120500    16.195994  -0.38164483            0  -0.33917717  0.005673829 
  120600    16.265064  -0.38178922            0  -0.33914045 0.0038140299 
  120700     15.96543  -0.38123751            0  -0.33937442 0.0049367826 
  120800    15.952572  -0.38101054            0  -0.33918116 0.00095262038 
  120900    15.925625  -0.38102079            0  -0.33926207 0.00027950164 
  121000    15.950755  -0.38112653            0  -0.33930191 0.0024582713 
  121100    16.140689  -0.38162029            0  -0.33929765 0.0019602952 
  121200     16.26446  -0.38178143            0  -0.33913425 0.0060624106 
  121300    16.311548  -0.38190951            0  -0.33913886 0.0063537272 
  121400    16.261702  -0.38181019            0  -0.33917023 0.0054082812 
  121500    16.179403  -0.38162092            0  -0.33919676 0.0034960887 
  121600    16.051301  -0.38117351            0  -0.33908526 0.0027700875 
  121700    15.974727   -0.3810955            0  -0.33920802 0.0012048008 
  121800    16.210759  -0.38171698            0  -0.33921061 -0.00011854876 
  121900    16.267697  -0.38186043            0  -0.33920476  0.007439124 
  122000    16.272176  -0.38193366            0  -0.33926624 0.0094394771 
  122100    16.395803  -0.38215487            0  -0.33916329 0.0034622942 
  122200    16.292958  -0.38167648            0  -0.33895457 0.0036026008 
  122300    16.326803  -0.38185662            0  -0.33904596 -0.00078010464 
  122400    16.041888  -0.38134724            0  -0.33928367 0.0031080204 
  122500     16.07962  -0.38137412            0  -0.33921161 0.0003582252 
  122600    16.047404  -0.38138952            0  -0.33931148 0.0014465798 
  122700    16.016495   -0.3813403            0  -0.33934331 0.0023385664 
  122800    15.932029  -0.38116095            0  -0.33938544 0.0056321154 
  122900    15.998683  -0.38134774            0  -0.33939746 0.0002495463 
  123000    16.056789  -0.38147239            0  -0.33936974 -0.00012901889 
  123100    16.116381  -0.38157646            0  -0.33931756 0.0047640224 
  123200    16.092454  -0.38140289            0  -0.33920673 0.0047261225 
  123300    16.082493  -0.38135884            0  -0.33918879 0.0023860833 
  123400    16.079857  -0.38121551            0  -0.33905237  0.005683887 
  123500    16.157144  -0.38149433            0  -0.33912854 0.0046210409 
  123600     16.26566  -0.38172549            0  -0.33907516 0.00090840836 
  123700    16.511007  -0.38237672            0  -0.33908306 -0.0026204218 
  123800    16.218105  -0.38162954            0   -0.3391039 0.0085595777 
  123900    16.277177  -0.38178229            0  -0.33910177 0.0017864483 
  124000     16.14685  -0.38131898            0  -0.33898018 0.0047005912 
  124100    16.284197  -0.38163983            0  -0.33894089 0.0017386541 
  124200    16.287265  -0.38170294            0  -0.33899596 0.0033386942 
  124300    16.360563    -0.381901            0  -0.33900183 0.00079440206 
  124400    16.276138  -0.38171046            0  -0.33903266 0.00018712586 
  124500    16.442038  -0.38209532            0  -0.33898251 -0.0016158005 
  124600    16.287399  -0.38170158            0  -0.33899425 0.0077004599 
  124700    16.413481  -0.38190418            0  -0.33886624 2.8396215e-05 
  124800    16.306718  -0.38169069            0   -0.3389327 0.0023964546 
  124900    16.425687  -0.38178576            0  -0.33871583 0.0060334929 
  125000     16.53426  -0.38205643            0  -0.33870181 0.0065958674 
  125100    16.528002  -0.38225138            0  -0.33891316 0.0033218598 
  125200    16.309699  -0.38157959            0  -0.33881378 0.0068009259 
  125300     16.50526  -0.38206003            0  -0.33878144 4.2304009e-05 
  125400    16.465439   -0.3820626            0  -0.33888843 0.0014878109 
  125500     16.44579  -0.38210536            0  -0.33898271 0.0043121548 
  125600    16.543025  -0.38229696            0  -0.33891935 0.0015731698 
  125700    16.598683   -0.3823393            0  -0.33881575 0.00077689249 
  125800    16.585787  -0.38226041            0  -0.33877067  0.005008883 
  125900    16.579858   -0.3821504            0  -0.33867621 0.0064305496 
  126000    16.441212  -0.38191871            0  -0.33880807 0.0059704387 
  126100    16.489495  -0.38193121            0  -0.33869396 0.0046536301 
  126200    16.500763  -0.38188754            0  -0.33862074 0.0012090135 
  126300    16.256798  -0.38141076            0  -0.33878367 0.0043191409 
  126400    16.193824  -0.38122254            0  -0.33876057  0.005697585 
  126500    16.123449  -0.38114298            0  -0.33886554 0.0021379898 
  126600    16.230154  -0.38135288            0  -0.33879565 -0.0010720695 
  126700    16.354479  -0.38166234            0  -0.33877912 0.0046634236 
  126800    16.229779  -0.38143709            0  -0.33888085 0.0098597823 
  126900    16.245813    -0.381652            0  -0.33905371 -0.00045218687 
  127000    16.060263  -0.38112489            0  -0.33901313 0.00094242154 
  127100    16.139739  -0.38133991            0  -0.33901975 0.0012290864 
  127200    16.063642  -0.38115354            0  -0.33903292 0.0045887123 
  127300    16.039006  -0.38105289            0  -0.33899687 0.0027412222 
  127400    16.018755  -0.38100215            0  -0.33899923 0.0040648438 
  127500    16.098657  -0.38116679            0  -0.33895436 0.0023930805 
  127600    16.172566  -0.38129828            0  -0.33889205 0.0015536623 
  127700    16.190448  -0.38146791            0   -0.3390148 0.0044257928 
  127800    16.186207   -0.3813678            0  -0.33892581 0.0052861979 
  127900    16.175566  -0.38132831            0  -0.33891421 0.0039906316 
  128000    16.131409  -0.38133383            0  -0.33903552 0.0021629876 
  128100    16.074783  -0.38094259            0  -0.33879276  0.003657617 
  128200    16.210051  -0.38122095            0  -0.33871643 0.00083096044 
  128300    16.228407   -0.3814941            0  -0.33894145 0.0015796882 
  128400    16.333334  -0.38167668            0  -0.33884891 0.0028710939 
  128500    16.179064  -0.38129148            0  -0.33886821 0.0075709446 
  128600    16.303942  -0.38175458            0  -0.33900387 0.0014897703 
  128700    16.300785  -0.38179915            0  -0.33905672 0.0038047353 
  128800     16.33706  -0.38191589            0  -0.33907834 0.0040737106 
  128900    16.276796  -0.38170623            0   -0.3390267 0.0039038129 
  129000    16.114725  -0.38128548            0  -0.33903092 0.0019829853 
  129100    16.023164   -0.3810785            0  -0.33906402 -0.00028741139 
  129200    16.130643  -0.38136096            0  -0.33906466 -0.0011677894 
  129300    16.156819  -0.38145061            0  -0.33908567 0.0068402114 
  129400     16.26528  -0.38184137            0  -0.33919204 0.0037186962 
  129500    16.300769  -0.38179689            0   -0.3390545 0.0016880033 
  129600    16.081249   -0.3812148            0  -0.33904801 0.0058184827 
  129700    16.009973  -0.38103844            0  -0.33905855 0.0022387656 
  129800    16.025746  -0.38097385            0   -0.3389526 0.00065506132 
  129900     15.95577  -0.38071344            0  -0.33887568  0.003936684 
  130000    15.972581   -0.3808531            0  -0.33897125 0.0044162884 
  130100     15.97839  -0.38078918            0   -0.3388921 0.0044798326 
  130200    15.879241  -0.38052497            0  -0.33888787 0.0027273303 
  130300    15.854546  -0.38047278            0  -0.33890043 -0.00017652967 
  130400    15.982951  -0.38083286            0  -0.33892382 0.0017680641 
  130500    15.873078  -0.38068224            0   -0.3390613 0.0065490986 
  130600    15.922504  -0.38071015            0  -0.33895961 0.0018905096 
  130700    15.844724  -0.38060783            0  -0.33906124 0.0017569153 
  130800    15.723329  -0.38037445            0  -0.33914617 0.0047021611 
  130900     15.85286  -0.38068339            0  -0.33911547 -0.00096214611 
  131000    15.795336  -0.38050836            0  -0.33909128 0.0058788771 
  131100    15.972248  -0.38097853            0  -0.33909756 0.0014258325 
  131200    15.817043    -0.380519            0    -0.339045  0.003706664 
  131300    15.927373  -0.38084686            0  -0.33908356 -6.0766555e-05 
  131400    16.030512  -0.38110303            0  -0.33906928 0.0025771904 
  131500    16.154887  -0.38150997            0   -0.3391501 0.0057811352 
  131600    16.167955  -0.38156209            0  -0.33916796 0.0044632197 
  131700    16.089654  -0.38129824            0  -0.33910942 0.0015299532 
  131800    16.096061  -0.38132792            0   -0.3391223 0.0011561746 
  131900    16.250713  -0.38165349            0  -0.33904235 -7.5125842e-05 
  132000     16.15223  -0.38132778            0  -0.33897488 0.0073715342 
  132100    16.174182  -0.38154136            0   -0.3391309 0.00046675897 
  132200    16.188734  -0.38144212            0   -0.3389935 0.00054850741 
  132300    16.360143  -0.38190286            0  -0.33900479 0.0020227143 
  132400    16.300494  -0.38178054            0  -0.33903887 0.0072484421 
  132500    16.332435    -0.381869            0  -0.33904358 0.0045491219 
  132600    16.306557  -0.38168415            0  -0.33892659 -0.0010727416 
  132700    16.131748  -0.38120712            0  -0.33890792 -0.00013221497 
  132800      16.2266  -0.38136525            0  -0.33881734 0.0026459086 
  132900    16.344133  -0.38180859            0  -0.33895249 0.0068592533 
  133000    16.404183  -0.38190604            0  -0.33889249  0.004211794 
  133100    16.224033  -0.38152033            0  -0.33897915 0.0013206307 
  133200    16.204441  -0.38153847            0  -0.33904867 0.0027151121 
  133300    16.253903  -0.38168816            0  -0.33906866 0.0035301647 
  133400    16.459683  -0.38222914            0  -0.33907006 -0.00040657783 
  133500    16.361343  -0.38196872            0   -0.3390675 0.0087610367 
  133600    16.459709  -0.38216194            0  -0.33900279 0.0050510793 
  133700    16.491302  -0.38212195            0  -0.33887996 -0.00036508304 
  133800    16.296426  -0.38169664            0  -0.33896564 0.0057101784 
  133900    16.313961  -0.38174054            0  -0.33896356 0.0017549445 
  134000    16.514919  -0.38214093            0  -0.33883701 0.00010148252 
  134100    16.639211  -0.38235743            0  -0.33872761 0.0059085732 
  134200    16.429289  -0.38193316            0  -0.33885377 0.0065872443 
  134300    16.527211  -0.38207704            0  -0.33874089 -0.0011020947 
  134400    16.287571  -0.38152295            0  -0.33881517 0.0051549025 
  134500    16.447643   -0.3819762            0  -0.33884869 -0.0018022443 
  134600    16.625233  -0.38254637            0   -0.3389532 0.0010820239 
  134700    16.592048  -0.38242266            0  -0.33891651  0.010928232 
  134800    16.620031  -0.38249142            0  -0.33891189 0.0029023371 
  134900    16.528194  -0.38212929            0  -0.33879057 -0.0021417006 
  135000    16.478736  -0.38203062            0  -0.33882158 0.0030642923 
  135100    16.558451  -0.38221403            0  -0.33879597 0.0041398965 
  135200    16.617439  -0.38222539            0  -0.33865266 0.0030654779 
  135300    16.680195  -0.38253669            0   -0.3387994 0.0013806181 
  135400    16.606383  -0.38235287            0  -0.33880913 0.0046255432 
  135500    16.574042  -0.38216902            0  -0.33871008 0.00076202929 
  135600    16.457165   -0.3819067            0  -0.33875422 0.00092192192 
  135700    16.576165  -0.38205695            0  -0.33859244 0.0014928107 
  135800     16.60412  -0.38204651            0  -0.33850871 0.0046316756 
  135900     16.61144  -0.38201166            0  -0.33845466 0.0047083265 
  136000    16.699624   -0.3822998            0  -0.33851157 0.0028194887 
  136100    16.663569  -0.38219031            0  -0.33849662 0.0023681282 
  136200    16.767654  -0.38254313            0  -0.33857652 -0.00067470393 
  136300    16.584908  -0.38214277            0  -0.33865534 0.0089652612 
  136400    16.739754  -0.38264567            0  -0.33875222  0.004685483 
  136500    16.637513  -0.38243931            0  -0.33881394 0.0004551674 
  136600    16.574432  -0.38232475            0  -0.33886478 0.00056660739 
  136700     16.63272  -0.38233595            0  -0.33872315 0.0026933334 
  136800    16.615391   -0.3823275            0  -0.33876014 0.0057307961 
  136900    16.567994  -0.38230123            0  -0.33885815 0.0070028948 
  137000    16.566609  -0.38218877            0  -0.33874932 0.0046622101 
  137100    16.622969  -0.38242253            0   -0.3388353 -0.0019487677 
  137200    16.588525   -0.3824203            0  -0.33892338 0.0056214436 
  137300    16.814245  -0.38301072            0  -0.33892194 0.0050871225 
  137400    16.774148  -0.38284843            0  -0.33886479 -0.00074602648 
  137500    16.763723  -0.38280998            0  -0.33885367 -0.0006317937 
  137600    16.671033  -0.38246854            0  -0.33875528 0.0080232359 
  137700    16.761796   -0.3826783            0  -0.33872705 0.0037823954 
  137800    16.665149  -0.38254337            0  -0.33884554 0.0032538777 
  137900    16.757653  -0.38272946            0  -0.33878907 0.0027211578 
  138000    16.829774  -0.38288192            0  -0.33875242 0.0018274309 
  138100     16.82648  -0.38293829            0  -0.33881743 0.0039267803 
  138200     16.65345  -0.38253951            0  -0.33887236 0.0072668126 
  138300    16.647004  -0.38251697            0  -0.33886671  0.002247487 
  138400    16.733623  -0.38277148            0   -0.3388941  0.001926544 
  138500    16.476177   -0.3820499            0  -0.33884757  0.012780969 
  138600    16.723896  -0.38286472            0  -0.33901284 -0.00032510193 
  138700    16.671393  -0.38274083            0  -0.33902662 0.0011150194 
  138800    16.695247  -0.38294285            0   -0.3391661 0.0049017586 
  138900    16.697979  -0.38303337            0  -0.33924945 0.0039995893 
  139000    16.522749  -0.38258993            0  -0.33926548 0.0019944574 
  139100     16.50439  -0.38251189            0  -0.33923559 -0.0011156064 
  139200    16.634258  -0.38278755            0  -0.33917072 0.0014363054 
  139300    16.882158  -0.38343642            0  -0.33916956 0.0048641156 
  139400    16.787157  -0.38311149            0  -0.33909374 0.0088917043 
  139500    16.787874  -0.38307809            0  -0.33905846 0.0022397761 
  139600    16.673822  -0.38276633            0  -0.33904576 0.0018418439 
  139700    16.737302  -0.38291075            0  -0.33902372 0.0017195384 
  139800    16.722539  -0.38295262            0   -0.3391043 0.0043805044 
  139900    16.745094  -0.38308865            0  -0.33918119 0.0053009748 
  140000    16.790913  -0.38325462            0  -0.33922702 0.0040500202 
  140100    16.672722  -0.38292994            0  -0.33921225 0.0042699102 
  140200    16.641266  -0.38288647            0  -0.33925126 0.0030063726 
  140300    16.817823  -0.38333733            0  -0.33923917 0.0013728477 
  140400    16.694445  -0.38292764            0  -0.33915299 0.0044050742 
  140500    16.568535  -0.38269865            0  -0.33925415  0.001230549 
  140600     16.50511   -0.3823618            0  -0.33908361 0.0045954756 
  140700    16.661697  -0.38274147            0  -0.33905269 -0.001175278 
  140800    16.589374  -0.38259744            0   -0.3390983 0.0025933653 
  140900    16.444502  -0.38225492            0  -0.33913565 0.0083464238 
  141000    16.540136  -0.38241933            0  -0.33904929 -0.0016297671 
  141100    16.379915   -0.3821429            0  -0.33919298 -0.00051219297 
  141200    16.449783  -0.38236258            0  -0.33922946 0.00027698779 
  141300    16.428387  -0.38232032            0   -0.3392433 0.0020782639 
  141400    16.576974  -0.38265267            0  -0.33918604 0.00035405664 
  141500    16.585008    -0.382618            0   -0.3391303 0.0095829646 
  141600     16.59322  -0.38265494            0  -0.33914571 0.0061200529 
  141700    16.486363  -0.38224472            0  -0.33901568 0.0002310889 
  141800     16.47218  -0.38213174            0  -0.33893989 0.00024585582 
  141900    16.481398  -0.38216369            0  -0.33894767 0.0018428237 
  142000    16.595384  -0.38249929            0  -0.33898439 0.0017523169 
  142100    16.613103  -0.38262751            0  -0.33906614 0.0033033311 
  142200    16.519574  -0.38240123            0  -0.33908511 0.0075133097 
  142300    16.750119  -0.38309154            0   -0.3391709 0.0039915371 
  142400    16.702936  -0.38293024            0  -0.33913333 0.0040567527 
  142500    16.797092  -0.38311749            0  -0.33907369 0.0013823655 
  142600    16.742464  -0.38285281            0  -0.33895225 0.0068437473 
  142700    16.940521  -0.38323098            0  -0.33881109 0.0016927134 
  142800    16.831895  -0.38306062            0  -0.33892556 0.0069518658 
  142900    16.947508  -0.38327717            0  -0.33883896 0.0039985154 
  143000    16.837783  -0.38307277            0  -0.33892228 1.5712225e-05 
  143100    16.733943  -0.38278266            0  -0.33890444 0.0016299726 
  143200    16.810415  -0.38304824            0  -0.33896951  0.003906475 
  143300    16.939783  -0.38343246            0  -0.33901451   0.00181412 
  143400    16.746798  -0.38301274            0  -0.33910081 0.0045382881 
  143500    16.578528  -0.38244433            0  -0.33897363  0.006859446 
  143600    16.726076   -0.3827606            0  -0.33890301 0.00088749695 
  143700    16.731506  -0.38283994            0  -0.33896811 0.00075430318 
  143800    16.670085   -0.3827159            0  -0.33900512 0.0054447829 
  143900    16.764348  -0.38289924            0  -0.33894129 0.0030338144 
  144000    16.769948  -0.38289939            0  -0.33892676 0.0018597389 
  144100    16.862086  -0.38320153            0  -0.33898731 0.0029558228 
  144200     16.67128   -0.3826067            0  -0.33889279 0.0069096596 
  144300    16.589931  -0.38241993            0  -0.33891932  0.003194793 
  144400    16.684515  -0.38274359            0  -0.33899498 0.0032353342 
  144500    16.657084  -0.38246183            0  -0.33878515 0.0064516326 
  144600    16.489512  -0.38205347            0  -0.33881618 0.0049888412 
  144700     16.62683  -0.38249759            0  -0.33890023 -0.00055952716 
  144800    16.607377  -0.38253682            0  -0.33899047 0.0072256124 
  144900    16.761678  -0.38291981            0  -0.33896887  0.004949284 
  145000    16.636973  -0.38265448            0  -0.33903053 0.00067166545 
  145100    16.592847  -0.38259681            0  -0.33908856 -0.0023366988 
  145200    16.600206  -0.38270997            0  -0.33918243 0.0055892372 
  145300    16.760934   -0.3830821            0  -0.33913311 0.0070261705 
  145400    16.953611  -0.38359144            0  -0.33913723 -0.0016241692 
  145500    16.797695  -0.38309176            0  -0.33904638   0.00319719 
  145600    16.678815  -0.38273713            0  -0.33900346 0.0047104452 
  145700    16.682746  -0.38276011            0  -0.33901613 -0.0006278958 
  145800    16.722693  -0.38277687            0  -0.33892815 0.0027176693 
  145900    16.961244  -0.38351752            0  -0.33904329 0.0049680005 
  146000    16.977451  -0.38359536            0  -0.33907863 0.0089009935 
  146100    16.892446  -0.38334355            0  -0.33904972 0.0027649698 
  146200    16.621693  -0.38272265            0  -0.33913876 0.00017883125 
  146300    16.692916  -0.38291491            0  -0.33914427 -0.0021163616 
  146400    16.819271  -0.38333975            0  -0.33923779 0.0036622258 
  146500    16.947732  -0.38366428            0  -0.33922548 0.0090469311 
  146600    17.001667  -0.38387755            0  -0.33929733  0.003061596 
  146700    16.901198    -0.383625            0  -0.33930822 0.0005188704 
  146800    16.928928  -0.38375374            0  -0.33936425 0.0026614329 
  146900    16.767385  -0.38330603            0  -0.33934013 0.0054981098 
  147000    16.777243  -0.38332883            0  -0.33933707 -0.00056362654 
  147100    16.659102  -0.38302744            0  -0.33934546 0.0041966764 
  147200    16.771546  -0.38331073            0  -0.33933392 0.0045701752 
  147300    16.893816   -0.3835921            0  -0.33929468 0.0037843229 
  147400    16.904514  -0.38351268            0  -0.33918721 0.0034994566 
  147500    16.751099  -0.38310807            0  -0.33918487 0.0062406039 
  147600    16.781981  -0.38308656            0  -0.33908238 0.0027298204 
  147700    16.914239    -0.383335            0  -0.33898402 -0.00092324087 
  147800    16.893477  -0.38322611            0  -0.33892957 0.0026135632 
  147900    16.788869  -0.38292736            0  -0.33890512 0.0071377825 
  148000      16.8909  -0.38316267            0  -0.33887289 -0.0004777549 
  148100    16.774957  -0.38289571            0  -0.33890995 0.0028827015 
  148200    16.991883  -0.38341132            0  -0.33885676 0.0032604308 
  148300    17.170301  -0.38402271            0  -0.33900032 0.00095375359 
  148400    17.319109  -0.38449579            0   -0.3390832 0.0021300811 
  148500    17.100115  -0.38386778            0  -0.33902942 0.0099301665 
  148600    17.101006  -0.38387494            0  -0.33903424 0.0028516447 
  148700    17.275956   -0.3843547            0  -0.33905527 -0.0028191631 
  148800    17.188031  -0.38422955            0  -0.33916066 0.0067130857 
  148900     17.15684  -0.38420712            0  -0.33922002 0.0053613197 
  149000    17.057341   -0.3839171            0   -0.3391909 0.0023328019 
  149100    17.060174    -0.383921            0  -0.33918736 0.0007634931 
  149200    16.998712  -0.38380376            0  -0.33923129 0.0044549996 
  149300    17.062877   -0.3838618            0  -0.33912108 0.0046929468 
  149400    17.092187  -0.38393355            0  -0.33911597 0.0036160221 
  149500    16.803459  -0.38328669            0   -0.3392262 0.0066408595 
  149600    16.955561  -0.38369194            0  -0.33923261  0.003374025 
  149700    17.284638  -0.38449406            0  -0.33917186 0.0013509966 
  149800    17.231171  -0.38437483            0  -0.33919282 0.0099737812 
  149900    17.329823  -0.38469588            0   -0.3392552 0.0027930107 
  150000    17.024044  -0.38395456            0  -0.33931567 0.0026482646 
  150100    17.029029  -0.38388372            0  -0.33923175 0.0029721578 
  150200    17.151331  -0.38422513            0  -0.33925248 0.0020001099 
  150300    17.113277   -0.3841357            0  -0.33926283 0.0013752679 
  150400    16.978773  -0.38395427            0  -0.33943408 0.0022089469 
  150500    16.991961  -0.38387851            0  -0.33932375 0.0046575944 
  150600    17.322923  -0.38464731            0  -0.33922472 -0.00015028647 
  150700    17.438774  -0.38500701            0  -0.33928064 -0.00089335161 
  150800    16.892446  -0.38358007            0  -0.33928624  0.013783643 
  150900    17.180958  -0.38428784            0   -0.3392375 -0.0010576646 
  151000    16.958269   -0.3836219            0  -0.33915548 0.0050996711 
  151100    17.123557  -0.38395166            0  -0.33905183 0.0021663905 
  151200    16.997665  -0.38370197            0  -0.33913224 0.0040586602 
  151300    16.878324  -0.38341122            0  -0.33915441 0.0048705853 
  151400     16.82208  -0.38317324            0  -0.33906391 0.0013944413 
  151500    16.818783  -0.38317513            0  -0.33907446 0.0022801892 
  151600    16.978508  -0.38358706            0  -0.33906757 0.0043714604 
  151700    16.837436  -0.38317945            0  -0.33902987 0.0076251954 
  151800    16.669946  -0.38276288            0  -0.33905247 0.0025716082 
  151900    16.810022  -0.38324899            0  -0.33917129 -0.0010115771 
  152000    16.772687  -0.38302458            0  -0.33904477 0.0076076944 
  152100     16.99099  -0.38359029            0  -0.33903806 0.0021960881 
  152200    17.097407  -0.38390662            0  -0.33907536 -0.0015394171 
  152300    16.898896  -0.38332064            0  -0.33900989 0.0065470932 
  152400     16.86121  -0.38318053            0   -0.3389686 0.0030111978 
  152500    16.837406  -0.38338799            0  -0.33923848 0.00033689112 
  152600    16.870882  -0.38324197            0  -0.33900468  0.004017023 
  152700    16.949466   -0.3835095            0  -0.33906615 0.0031312198 
  152800    16.953618  -0.38358343            0   -0.3391292 0.0065117731 
  152900    16.976238  -0.38359036            0  -0.33907681 0.0046128163 
  153000    16.923775  -0.38343631            0  -0.33906034 -0.0007222533 
  153100    16.633965  -0.38276535            0  -0.33914929 0.0077884394 
  153200    16.888613  -0.38326557            0  -0.33898179 0.0045219093 
  153300    16.777668  -0.38303629            0  -0.33904342 0.0064249661 
  153400    16.915941  -0.38329458            0  -0.33893914 -0.0013047172 
  153500     16.77697  -0.38279668            0  -0.33880564 0.0040551085 
  153600    17.131721  -0.38361413            0   -0.3386929 0.00026357904 
  153700    17.039222  -0.38344507            0  -0.33876638 0.0053932933 
  153800    17.023302  -0.38354908            0  -0.33891213   0.00134508 
  153900    16.800293  -0.38296243            0  -0.33891023 0.0041359634 
  154000    16.705925   -0.3828504            0  -0.33904565 0.00062633778 
  154100    16.681758  -0.38275952            0  -0.33901814 0.0018958202 
  154200    16.803591  -0.38311231            0  -0.33905147 0.0049105283 
  154300    17.006687  -0.38361162            0  -0.33901824 0.0028107982 
  154400    16.997845  -0.38353059            0  -0.33896039 0.0034141745 
  154500    16.765662  -0.38302098            0  -0.33905959 0.0071447487 
  154600    16.848728   -0.3830706            0  -0.33889141 0.0030558077 
  154700    16.843801  -0.38304813            0  -0.33888185 0.0012493212 
  154800    16.842357  -0.38320283            0  -0.33904034 0.0040860847 
  154900    16.780116  -0.38316001            0  -0.33916072 0.0046804693 
  155000    16.777753  -0.38312224            0  -0.33912915 -0.00062511732 
  155100    16.590156  -0.38255241            0  -0.33905122 0.0044229275 
  155200    16.903634  -0.38339443            0  -0.33907126 -0.0011406551 
  155300    16.822363  -0.38322878            0  -0.33911872 0.0051239808 
  155400    16.924959  -0.38345537            0  -0.33907629 0.0049289869 
  155500     17.06536  -0.38372361            0  -0.33897638   0.00392647 
  155600    16.979528  -0.38341031            0  -0.33888815 0.0049356106 
  155700    16.865404  -0.38313448            0  -0.33891156 0.0042061191 
  155800    16.841686  -0.38305781            0  -0.33889708 0.00061978836 
  155900    16.817316  -0.38290158            0  -0.33880474 0.0036958082 
  156000    16.996653  -0.38344987            0   -0.3388828 0.0023810241 
  156100    16.950094  -0.38325997            0  -0.33881498  0.006558475 
  156200    17.082153   -0.3836066            0  -0.33881534 0.00020720055 
  156300     16.87026  -0.38301392            0  -0.33877826 0.0085798714 
  156400    17.092027  -0.38345958            0  -0.33864243 0.0031876966 
  156500    17.096964  -0.38338333            0  -0.33855323 0.00082599711 
  156600    16.888927  -0.38298104            0  -0.33869643 0.0055844867 
  156700    17.096712  -0.38345801            0  -0.33862857 0.0022338768 
  156800    16.979604  -0.38319851            0  -0.33867614 0.0038247818 
  156900    16.900079  -0.38305877            0  -0.33874493 0.0071218905 
  157000    16.816472  -0.38295054            0  -0.33885592 0.0032629571 
  157100    16.606829  -0.38237637            0  -0.33883146 0.0050133769 
  157200    16.779043  -0.38298417            0  -0.33898769 0.0026229681 
  157300    16.660072  -0.38264839            0  -0.33896387 0.0047034744 
  157400    16.692097  -0.38275568            0  -0.33898719 -0.00092018437 
  157500     16.68666  -0.38265697            0  -0.33890273 0.0040832443 
  157600    16.673509  -0.38268283            0  -0.33896308 0.0065205455 
  157700    16.747684  -0.38274182            0  -0.33882757 0.0012413217 
  157800    16.720382  -0.38264468            0  -0.33880202 0.00018787068 
  157900    16.850755  -0.38297364            0  -0.33878912 0.0013407567 
  158000    17.112271  -0.38355627            0  -0.33868604 0.0033527858 
  158100    16.935909  -0.38309688            0  -0.33868909 0.0085784098 
  158200    16.977645   -0.3833314            0  -0.33881416 -0.0017015464 
  158300    16.886308  -0.38305954            0  -0.33878181 0.0028564793 
  158400    16.781626    -0.382816            0  -0.33881275 0.0062933798 
  158500    16.841727  -0.38292737            0  -0.33876652 -0.00013345098 
  158600    16.822558  -0.38283745            0  -0.33872688 0.00077748665 
  158700    16.888298   -0.3830434            0  -0.33876044 0.0029228996 
  158800    16.967582  -0.38321168            0  -0.33872084 0.0033125525 
  158900    17.102733  -0.38361586            0  -0.33877063 0.0045512501 
  159000    17.273861  -0.38418617            0  -0.33889223 0.0041780013 
  159100    17.268949  -0.38409917            0  -0.33881811 0.0052369397 
  159200    17.162947  -0.38381723            0  -0.33881412 0.0049183453 
  159300     17.16862  -0.38381243            0  -0.33879444 0.0046233217 
  159400    17.267411  -0.38408382            0  -0.33880679  0.001568229 
  159500    17.165491  -0.38379732            0  -0.33878753 0.0016149237 
  159600    17.034929  -0.38357244            0    -0.338905 0.0021262448 
  159700    17.131042  -0.38372438            0  -0.33880492 0.0023018994 
  159800    17.168163  -0.38391971            0  -0.33890292 0.0012540031 
  159900    17.086567  -0.38366265            0  -0.33885981 0.0014867571 
  160000    16.792134  -0.38286802            0  -0.33883722  0.013761313 
  160100    17.066443  -0.38362022            0  -0.33887015 0.0012347696 
  160200    16.870745  -0.38297229            0  -0.33873536 0.0040316784 
  160300     16.95025   -0.3831321            0   -0.3386867 0.0010985973 
  160400    17.062905  -0.38333787            0  -0.33859708 0.0036273107 
  160500    17.146098  -0.38347363            0   -0.3385147  0.005035949 
  160600    17.000268  -0.38313747            0  -0.33856092 0.0025575707 
  160700    16.836798   -0.3828048            0  -0.33865689 -0.00086005137 
  160800    16.886181  -0.38295041            0  -0.33867301 0.0020550843 
  160900    17.022273   -0.3834491            0  -0.33881485 0.0081927003 
  161000    17.122376  -0.38378529            0  -0.33888856 0.0047254931 
  161100    17.091906  -0.38371475            0  -0.33889792 0.0017374823 
  161200    17.018757  -0.38343045            0  -0.33880542 0.0038025662 
  161300    16.877434  -0.38303413            0  -0.33877966 0.0045967132 
  161400    16.844514  -0.38297083            0  -0.33880269 0.0032770212 
  161500    16.903111  -0.38298101            0  -0.33865922 0.0061428709 
  161600    16.885787   -0.3829584            0  -0.33868203 0.0030193361 
  161700    16.767809  -0.38263153            0  -0.33866451 0.0030577858 
  161800      16.7461  -0.38267527            0  -0.33876517  0.004274987 
  161900    16.918332  -0.38303162            0  -0.33866992 0.0066431391 
  162000    17.090025  -0.38354636            0  -0.33873446 0.00094442613 
  162100    17.093047  -0.38337722            0  -0.33855739 -8.3618238e-05 
  162200    17.078573  -0.38330495            0  -0.33852307 0.0054871742 
  162300    17.215204   -0.3836439            0  -0.33850376 0.0062672695 
  162400    17.361951  -0.38398052            0  -0.33845559  0.001394098 
  162500    17.294055  -0.38374604            0  -0.33839915 0.0050879892 
  162600    17.340658  -0.38384284            0  -0.33837375 0.0038601824 
  162700    17.222962  -0.38368536            0  -0.33852488  0.001508089 
  162800    17.184513  -0.38350022            0  -0.33844056 0.0041248767 
  162900    17.291627  -0.38382022            0  -0.33847969 0.0031872672 
  163000    17.393499  -0.38411364            0  -0.33850599 0.00034550146 
  163100    17.260981  -0.38383271            0  -0.33857255 0.0081743255 
  163200    17.492083  -0.38441545            0   -0.3385493 0.0029679474 
  163300    17.588894  -0.38477982            0  -0.33865983 -0.00030143063 
  163400    17.262982  -0.38403065            0  -0.33876524 0.0079385371 
  163500    17.322341  -0.38424817            0  -0.33882711 0.0026535706 
  163600    17.039853  -0.38346562            0  -0.33878527 0.0060050368 
  163700     17.09762  -0.38359855            0  -0.33876673 -0.00086596442 
  163800    16.974014  -0.38332252            0  -0.33881481 0.0013832296 
  163900    17.019668   -0.3833171            0  -0.33868968 0.0026452805 
  164000    17.213144  -0.38371237            0  -0.33857763 0.0013228862 
  164100     17.38787  -0.38401599            0  -0.33842311 0.0040996863 
  164200    17.327011  -0.38403569            0  -0.33860239 0.0091214227 
  164300    17.314413  -0.38384843            0  -0.33844816  0.002516756 
  164400    17.323353  -0.38396905            0  -0.33854533 -0.0023147475 
  164500    17.093891  -0.38354566            0  -0.33872362 0.0053450058 
  164600    17.176588  -0.38381398            0   -0.3387751 0.0025277385 
  164700    17.058826  -0.38352972            0  -0.33879962 0.0029029755 
  164800    16.909839  -0.38318753            0  -0.33884809 0.0064933083 
  164900    17.102906  -0.38364243            0  -0.33879675 0.0025706318 
  165000    17.037569  -0.38346253            0  -0.33878817 0.0039557216 
  165100    17.137828  -0.38366698            0  -0.33872973 0.0056456813 
  165200    17.099286  -0.38335835            0  -0.33852216 0.0078038358 
  165300    17.067437  -0.38342383            0  -0.33867115 0.0026743347 
  165400    17.103726  -0.38327353            0   -0.3384257 0.0011755412 
  165500     17.18295   -0.3835208            0  -0.33846523 -7.7778111e-05 
  165600    17.089432  -0.38337758            0  -0.33856723 0.0045769014 
  165700    17.002479  -0.38320659            0  -0.33862424 0.0071471002 
  165800    17.065071  -0.38348028            0  -0.33873381 -0.001290048 
  165900    16.968125  -0.38326763            0  -0.33877536 -0.0005947505 
  166000    16.879221  -0.38317408            0  -0.33891493 0.0036925974 
  166100    17.152863  -0.38369114            0  -0.33871447 0.0021096358 
  166200    17.309424   -0.3840627            0   -0.3386755 0.0028786694 
  166300    17.327249  -0.38410214            0  -0.33866821 0.0044389688 
  166400     17.50507  -0.38445827            0  -0.33855807 0.0021041551 
  166500    17.340978  -0.38397475            0  -0.33850482 0.0039060368 
  166600    17.306835  -0.38387657            0  -0.33849616 -0.0010995337 
  166700    16.900258     -0.38316            0  -0.33884569 0.0085319471 
  166800    17.149131  -0.38363573            0  -0.33866884 0.0026393854 
  166900    16.986824  -0.38341567            0  -0.33887437 -0.0004567949 
  167000    16.925973  -0.38328866            0  -0.33890691 0.0037828762 
  167100    17.073424  -0.38371085            0  -0.33894248 0.0055594429 
  167200    17.063271  -0.38372362            0  -0.33898187 0.0018506694 
  167300    17.027702  -0.38353422            0  -0.33888574 0.00059466859 
  167400      17.0503  -0.38354422            0  -0.33883648 0.0033732252 
  167500       17.175  -0.38372063            0  -0.33868591 0.0055037796 
  167600    17.147266  -0.38366499            0    -0.338703 0.0067579809 
  167700    17.199667  -0.38380805            0  -0.33870866 0.00055696026 
  167800    16.977277  -0.38328706            0   -0.3387708 0.0070587057 
  167900    17.042535  -0.38353661            0  -0.33884923 -0.00010852622 
  168000    16.944079  -0.38327494            0  -0.33884572 0.0019084977 
  168100     17.05606  -0.38353335            0   -0.3388105 0.0054123782 
  168200    17.139295  -0.38379226            0  -0.33885117 0.0060992156 
  168300    17.109357  -0.38360947            0  -0.33874687 0.0040943194 
  168400    17.001999  -0.38332549            0   -0.3387444 0.0031851107 
  168500    16.980327  -0.38318013            0  -0.33865587 0.0028554713 
  168600    17.124829  -0.38357449            0  -0.33867132  0.001203014 
  168700    17.203508  -0.38385345            0  -0.33874398 0.0050408461 
  168800    17.219103  -0.38387645            0  -0.33872609 0.0035611469 
  168900    17.309049  -0.38404873            0  -0.33866252 0.0022300683 
  169000    17.287568   -0.3839844            0  -0.33865451 0.0038823247 
  169100    17.136943  -0.38355383            0   -0.3386189 0.0046846485 
  169200      17.1762  -0.38364571            0  -0.33860785 -0.00089673029 
  169300    17.184952  -0.38360416            0  -0.33854335 0.0055056557 
  169400    17.273319  -0.38384601            0  -0.33855349 0.0093938169 
  169500    17.446267  -0.38415175            0  -0.33840574 0.0035940609 
  169600    17.595272  -0.38471634            0  -0.33857962 -0.00083187106 
  169700    17.460722  -0.38438207            0  -0.33859816 0.0033574102 
  169800    17.347035  -0.38409349            0  -0.33860768 0.0061574171 
  169900     17.46432  -0.38441161            0  -0.33861827 -0.0013765581 
  170000    17.311561  -0.38396824            0  -0.33857544 0.00080854218 
  170100     17.43827  -0.38421654            0   -0.3384915 0.0029407233 
  170200    17.495597  -0.38441963            0  -0.33854428 0.0062809658 
  170300    17.584852  -0.38462356            0  -0.33851417 0.0071747534 
  170400     17.47364  -0.38428307            0  -0.33846529 0.0056233558 
  170500    17.164267  -0.38364209            0  -0.33863552 0.0069712898 
  170600    17.175661  -0.38357645            0     -0.33854 0.0053929627 
  170700    17.234289  -0.38374104            0  -0.33855086 0.0045314808 
  170800    17.216017  -0.38372948            0  -0.33858721 0.0027326458 
  170900    17.187356   -0.3837182            0  -0.33865108 0.0017313555 
  171000    17.307521  -0.38392719            0  -0.33854498 0.0015795661 
  171100    17.382078  -0.38414391            0  -0.33856621 0.0014690855 
  171200    17.341777   -0.3839336            0  -0.33846157 0.0041035127 
  171300    17.180545  -0.38365761            0  -0.33860836 0.0041679036 
  171400    17.073061  -0.38329907            0  -0.33853165 0.0051060699 
  171500    17.112811  -0.38348212            0  -0.33861046 0.0028940889 
  171600    17.072798  -0.38325964            0  -0.33849291   0.00568805 
  171700    17.054613  -0.38335043            0  -0.33863138 0.0027123194 
  171800    17.076743   -0.3832587            0  -0.33848162 0.00088358966 
  171900    17.025596  -0.38311615            0  -0.33847319 0.0051772002 
  172000    17.122719  -0.38360726            0  -0.33870963 0.0011983547 
  172100    17.208595  -0.38370048            0  -0.33857767 0.0036874673 
  172200    17.433826  -0.38425072            0  -0.33853734 0.00022487598 
  172300    17.170402  -0.38352392            0  -0.33850126  0.008414982 
  172400    17.258063  -0.38381719            0  -0.33856467 0.0033042011 
  172500    17.107883  -0.38331055            0  -0.33845182 0.0018139566 
  172600     16.94929  -0.38304023            0  -0.33859734 0.00062708098 
  172700    17.052718  -0.38326031            0  -0.33854622 -0.00010636966 
  172800    16.882879  -0.38280321            0  -0.33853447 0.0050929797 
  172900    16.938272  -0.38303492            0  -0.33862093 0.0033288204 
  173000    16.816288  -0.38271395            0  -0.33861982 0.0042192021 
  173100    16.962644  -0.38303174            0  -0.33855384 -0.00072092662 
  173200    16.864896  -0.38282641            0  -0.33860482 0.0058629173 
  173300    16.997421  -0.38325184            0  -0.33868275  0.004390325 
  173400    17.033971  -0.38339541            0  -0.33873049 0.0022042745 
  173500    16.965083  -0.38325572            0  -0.33877142 0.0017359327 
  173600    16.975589  -0.38320487            0  -0.33869303 0.0042223814 
  173700    17.034861  -0.38337518            0  -0.33870793 0.0025816203 
  173800    17.014622  -0.38343893            0  -0.33882474 0.0052633087 
  173900    17.288694  -0.38400057            0  -0.33866773 0.0030356672 
  174000    17.329448  -0.38409714            0  -0.33865744 0.0031697188 
  174100    17.191204  -0.38382232            0  -0.33874511 0.0061655029 
  174200    17.198634  -0.38371542            0  -0.33861873 0.0025210111 
  174300     17.08499  -0.38345182            0  -0.33865312 0.00097270687 
  174400    16.978077  -0.38315792            0  -0.33863956 0.0024211916 
  174500    17.110911  -0.38353484            0  -0.33866817 0.0030720352 
  174600    17.331899  -0.38400107            0  -0.33855495 0.0028576488 
  174700    17.229962  -0.38391225            0  -0.33873342 0.0046273371 
  174800    17.347756   -0.3842777            0     -0.33879 0.0019953654 
  174900    17.153264  -0.38367342            0  -0.33869569 0.0069719129 
  175000    17.304827  -0.38408792            0  -0.33871278 -0.00037503784 
  175100    17.255723  -0.38404384            0  -0.33879746 0.0042430666 
  175200    17.243862  -0.38382516            0  -0.33860988 0.0077498221 
  175300    17.061659  -0.38344584            0  -0.33870832 0.0044563256 
  175400    17.007008   -0.3832222            0  -0.33862797 -0.00068908079 
  175500    17.058282  -0.38312058            0  -0.33839191 0.0051186356 
  175600    17.301478   -0.3837735            0  -0.33840715  0.005069777 
  175700    17.123797  -0.38360753            0  -0.33870707 0.0065056179 
  175800    17.044239  -0.38329096            0  -0.33859911 0.0015647572 
  175900    17.082998  -0.38340396            0  -0.33861048 -0.0028381492 
  176000     17.03513  -0.38333909            0  -0.33867113 0.0011981113 
  176100    17.044892  -0.38319719            0  -0.33850363 0.0052348722 
  176200    17.142362  -0.38349454            0   -0.3385454 0.0066111896 
  176300    17.304273  -0.38386341            0  -0.33848973  0.003742816 
  176400    17.468607  -0.38406784            0  -0.33826325 0.0037476897 
  176500    17.464217  -0.38424448            0   -0.3384514 0.0030695567 
  176600    17.545235  -0.38437974            0  -0.33837423 0.0046286752 
  176700     17.44932  -0.38422212            0  -0.33846811 0.0069880661 
  176800    17.235043  -0.38380554            0  -0.33861338 0.0049588403 
  176900    17.152075   -0.3835611            0   -0.3385865 -0.0033541813 
  177000    16.909586  -0.38296306            0  -0.33862429 0.0036517473 
  177100    17.013815  -0.38341594            0  -0.33880387 0.0035120042 
  177200    17.068255  -0.38351291            0  -0.33875809 0.0038162478 
  177300    17.226175    -0.383753            0  -0.33858409 0.0029387847 
  177400    17.450403  -0.38427795            0   -0.3385211 0.0033221963 
  177500    17.567063  -0.38462696            0  -0.33856421 0.0042751665 
  177600    17.521605  -0.38447431            0  -0.33853075 0.0060031834 
  177700    17.477196  -0.38425885            0  -0.33843174 0.0044045316 
  177800    17.326712  -0.38383121            0  -0.33839868 0.0029943372 
  177900    17.234111   -0.3836453            0  -0.33845558 0.0022432236 
  178000    17.382713  -0.38405323            0  -0.33847386 0.00091869363 
  178100    17.350818  -0.38390918            0  -0.33841345  0.010102472 
  178200    17.459402  -0.38423315            0   -0.3384527 0.0038251408 
  178300    17.354594   -0.3840361            0  -0.33853047 0.0014959498 
  178400    17.219642  -0.38356138            0   -0.3384096 0.0033118811 
  178500    17.117637  -0.38338423            0  -0.33849992 0.0029467972 
  178600    16.994787  -0.38325036            0  -0.33868818  0.003115035 
  178700    16.952793  -0.38303719            0  -0.33858513  0.003665679 
  178800    17.096472  -0.38348193            0  -0.33865312 0.0033357734 
  178900    17.203732  -0.38383784            0  -0.33872778 0.0081357698 
  179000    17.221237  -0.38389931            0  -0.33874336 0.0059023808 
  179100     17.11897  -0.38348038            0  -0.33859258   0.00238201 
  179200    16.948186  -0.38301544            0  -0.33857546 0.0016651061 
  179300    17.079018  -0.38323068            0  -0.33844764 -3.8538182e-05 
  179400    17.047883  -0.38315302            0  -0.33845162 0.0054091376 
  179500    17.070867  -0.38311148            0  -0.33834981 0.0037361225 
  179600    16.928641  -0.38275985            0  -0.33837111 0.0023287976 
  179700    17.071452  -0.38316692            0  -0.33840372 -9.3201185e-05 
  179800    17.057894  -0.38319729            0  -0.33846963 0.0066984348 
  179900    17.095569  -0.38333366            0  -0.33850721 0.0091128369 
  180000    17.362816  -0.38397593            0  -0.33844874 0.0018979686 
  180100    17.170427  -0.38351945            0  -0.33849672 0.0057201914 
  180200    17.161359  -0.38327519            0  -0.33827624 0.0039345425 
  180300    16.953668  -0.38295928            0  -0.33850492 0.0032556629 
  180400    16.846514  -0.38248066            0  -0.33830727 0.0027086503 
  180500    16.939228  -0.38273478            0  -0.33831828 -2.1200671e-05 
  180600    16.866872  -0.38272038            0  -0.33849361 0.0027885809 
  180700     16.88132   -0.3828537            0  -0.33858905  0.006562889 
  180800    17.030716  -0.38319902            0  -0.33854263 0.0011574539 
  180900    16.819188  -0.38259867            0  -0.33849693 0.0036583886 
  181000    16.986632  -0.38307878            0  -0.33853798 -0.0006846335 
  181100    16.954623   -0.3829898            0  -0.33853293 0.0045328241 
  181200    16.958715  -0.38298696            0  -0.33851936 0.0089120549 
  181300    17.003722  -0.38313858            0  -0.33855297 0.0062779174 
  181400    16.972528  -0.38297784            0  -0.33847403 0.0017548347 
  181500    16.924617  -0.38290912            0  -0.33853093 -0.00024095711 
  181600    16.871636  -0.38291273            0  -0.33867347 0.0022349817 
  181700    16.868338  -0.38299718            0  -0.33876656 0.0068461589 
  181800    16.788147   -0.3827058            0  -0.33868546 0.0086509323 
  181900     16.79196   -0.3826807            0  -0.33865035 -0.0017740044 
  182000    16.550825  -0.38201848            0  -0.33862041 -0.00070748029 
  182100    16.453668  -0.38186424            0  -0.33872094 0.0036345455 
  182200     16.54546  -0.38201889            0  -0.33863489 0.0052406866 
  182300    16.736948  -0.38247387            0  -0.33858777 0.0044493396 
  182400    16.809018  -0.38262478            0  -0.33854971 0.0026741211 
  182500    16.744124  -0.38230332            0  -0.33839841 0.0033791953 
  182600    16.809771  -0.38248331            0  -0.33840626 0.0017580253 
  182700    16.695903  -0.38225482            0  -0.33847635 0.0037616867 
  182800    16.678247  -0.38235534            0  -0.33862317 0.0022829305 
  182900     16.69963  -0.38247892            0  -0.33869067 0.0056565119 
  183000    16.608053  -0.38223536            0  -0.33868724 0.0078150456 
  183100     16.69876  -0.38241372            0  -0.33862775 -0.00015043611 
  183200    16.582911  -0.38222314            0  -0.33874095 0.0021181627 
  183300    16.660964  -0.38226542            0  -0.33857856 0.0032056414 
  183400    16.683883  -0.38223758            0  -0.33849062 0.0045217447 
  183500    16.862314  -0.38277508            0  -0.33856026 -1.2529022e-05 
  183600    16.729983  -0.38250437            0  -0.33863653 0.0066005154 
  183700    16.832823  -0.38277282            0  -0.33863533 0.00035551483 
  183800    16.730568  -0.38254348            0  -0.33867411 0.0018091234 
  183900    16.833651   -0.3827346            0  -0.33859494 0.0024091857 
  184000    16.814775  -0.38259531            0  -0.33850514  0.002894161 
  184100    16.767111  -0.38260054            0  -0.33863536   0.00281203 
  184200     17.00732  -0.38297609            0  -0.33838105 0.0054353676 
  184300     17.02083  -0.38308052            0  -0.33845005  0.008778687 
  184400    16.970692  -0.38309334            0  -0.33859434 0.0042412055 
  184500    17.100067  -0.38334473            0  -0.33850649 -0.00062919891 
  184600    17.128723  -0.38341477            0  -0.33850139 0.0042520495 
  184700    17.147778  -0.38351635            0  -0.33855301  0.007330008 
  184800    17.225609  -0.38383276            0  -0.33866534 0.00013030321 
  184900    17.042418  -0.38322052            0  -0.33853344 0.0064421513 
  185000    17.142263   -0.3835815            0  -0.33863263 -0.0017242258 
  185100     16.99974  -0.38316493            0  -0.33858977 0.0044331967 
  185200    17.064151  -0.38326687            0  -0.33852281 0.0077890564 
  185300    17.128604   -0.3833969            0  -0.33848383 0.0038731032 
  185400    17.170701  -0.38364565            0   -0.3386222 0.00067579401 
  185500    17.288133  -0.38375181            0  -0.33842044 0.0053740762 
  185600    17.363676  -0.38393889            0  -0.33840945 0.0048154296 
  185700    17.366949   -0.3840167            0  -0.33847867 0.0040533247 
  185800    17.275186  -0.38373231            0  -0.33843489 0.0023988931 
  185900    17.139972  -0.38330093            0  -0.33835805 0.0013418548 
  186000     17.12226  -0.38331441            0  -0.33841799 0.00072866067 
  186100    17.304569  -0.38372397            0  -0.33834951 0.0026975494 
  186200    17.263284  -0.38386308            0  -0.33859687 0.0053914441 
  186300    17.256952  -0.38375582            0  -0.33850622  0.004528918 
  186400    17.235176  -0.38370035            0  -0.33850785 0.0006044391 
  186500     17.10293  -0.38341034            0   -0.3385646 0.00062089475 
  186600    17.065057  -0.38326308            0  -0.33851665 0.0073673413 
  186700     17.01867  -0.38320478            0  -0.33857997 0.0085494662 
  186800    17.089586  -0.38349784            0  -0.33868708 -4.4528047e-05 
  186900    16.920769  -0.38301195            0  -0.33864386 0.0057476513 
  187000    16.981143  -0.38322021            0   -0.3386938 0.0036448864 
  187100    17.115617  -0.38362192            0  -0.33874291 -0.0025157025 
  187200    17.047496  -0.38338901            0  -0.33868862 0.0059721848 
  187300    16.996223  -0.38337536            0  -0.33880941 0.0071663904 
  187400    16.963492  -0.38310848            0  -0.33862836 -0.00020347472 
  187500    16.879151   -0.3828627            0  -0.33860373 0.0027646705 
  187600    16.765113  -0.38247894            0  -0.33851899 0.0061373523 
  187700    16.662424  -0.38224187            0  -0.33855119 0.0016279458 
  187800    16.648753  -0.38237919            0  -0.33872435 2.4555896e-05 
  187900    16.690849  -0.38250681            0  -0.33874159 0.0046373186 
  188000    16.833206  -0.38290835            0  -0.33876985 0.0035758053 
  188100    16.831595  -0.38288449            0  -0.33875021 0.00058050173 
  188200    16.708756  -0.38253337            0  -0.33872119 0.0056758463 
  188300    16.754195  -0.38255026            0  -0.33861894 0.0046472835 
  188400    16.804137  -0.38263178            0   -0.3385695 0.00043652442 
  188500    16.762389  -0.38241213            0  -0.33845933 0.0040569982 
  188600    16.687177  -0.38228983            0  -0.33853424 0.0074326789 
  188700    16.669514  -0.38220635            0  -0.33849708 0.0022421974 
  188800    16.626272  -0.38214296            0  -0.33854707 0.0035712663 
  188900    16.662441  -0.38250563            0   -0.3388149 0.0043659881 
  189000    16.862783   -0.3827186            0  -0.33850255 0.0023551512 
  189100    16.739403  -0.38245721            0  -0.33856467 0.0068938347 
  189200    16.729282  -0.38247635            0  -0.33861036 0.0038462892 
  189300    16.499108  -0.38189055            0  -0.33862809 0.0053305103 
  189400    16.667835   -0.3823102            0  -0.33860533 0.00029711868 
  189500    16.540587  -0.38205378            0  -0.33868256 0.0030366791 
  189600    16.689074  -0.38249149            0  -0.33873092 0.00078700606 
  189700    16.705477  -0.38251327            0  -0.33870969 0.0044277233 
  189800    16.541269  -0.38205893            0  -0.33868593 0.0053246053 
  189900    16.557338  -0.38202808            0  -0.33861294 0.00049109114 
  190000     16.44819  -0.38168211            0  -0.33855317 0.0034482319 
  190100    16.546709   -0.3819383            0  -0.33855103 0.0049023972 
  190200    16.641423  -0.38231162            0    -0.338676 0.0029151097 
  190300    16.646375  -0.38236623            0  -0.33871762 0.0051242705 
  190400    16.559542  -0.38216017            0  -0.33873925 0.0028275705 
  190500    16.522409  -0.38209231            0  -0.33876876 -0.00034342824 
  190600    16.664897  -0.38249315            0  -0.33879598 0.00015000289 
  190700    16.708311  -0.38247357            0  -0.33866256  0.004707818 
  190800    16.758643  -0.38264145            0  -0.33869846 0.0011735519 
  190900    16.687816   -0.3822951            0  -0.33853783 0.0035037348 
  191000    16.799614  -0.38264623            0  -0.33859581 0.0041734368 
  191100    16.824121  -0.38269523            0  -0.33858055 0.0076949034 
  191200    16.991434  -0.38310806            0  -0.33855467 0.0020309473 
  191300    16.938478  -0.38303824            0  -0.33862371 0.0052657382 
  191400    16.856976  -0.38275194            0  -0.33855112 0.0076319559 
  191500    16.656445  -0.38225939            0  -0.33858438 0.0040287962 
  191600    16.710052  -0.38244649            0  -0.33863092 -0.003547406 
  191700    16.663181  -0.38229409            0  -0.33860142 0.0034530463 
  191800    16.859355  -0.38294601            0  -0.33873895 0.0039169419 
  191900    16.722465  -0.38249586            0  -0.33864774 0.0070022225 
  192000     16.63728  -0.38235085            0   -0.3387261 0.0013595431 
  192100    16.591973  -0.38217979            0  -0.33867383 0.0017974279 
  192200    16.826007  -0.38280807            0  -0.33868845 0.00032478095 
  192300    16.744523  -0.38260842            0  -0.33870246 0.0061608019 
  192400    16.915592    -0.383013            0  -0.33865848 0.0028106113 
  192500    16.811862  -0.38285727            0  -0.33877474 0.0079869447 
  192600    16.851079  -0.38286143            0  -0.33867607 0.0052191431 
  192700    16.771884  -0.38262374            0  -0.33864604  0.001662122 
  192800    16.649508   -0.3823986            0  -0.33874178 0.0014670593 
  192900    16.535163  -0.38205138            0  -0.33869439 0.0034704343 
  193000    16.542702  -0.38201481            0  -0.33863805 0.0035441123 
  193100    16.705342  -0.38246528            0  -0.33866205 0.0041150789 
  193200    16.634494  -0.38228587            0  -0.33866841 0.0082288513 
  193300    16.810299   -0.3827401            0  -0.33866167 0.0021480334 
  193400    16.726528  -0.38240934            0  -0.33855057 -0.00046209639 
  193500    16.586677  -0.38218853            0  -0.33869646 0.0028735903 
  193600    16.684527  -0.38229411            0  -0.33854546 0.0034422112 
  193700    16.594112  -0.38206901            0  -0.33855744 0.0054065638 
  193800     16.64798   -0.3823442            0  -0.33869138 0.0035964087 
  193900    16.582831  -0.38223467            0  -0.33875269  0.007294391 
  194000     16.50015  -0.38206062            0  -0.33879543 0.0029006503 
  194100    16.448952  -0.38192602            0  -0.33879508 0.00012971138 
  194200    16.529509  -0.38211887            0   -0.3387767 0.0028519942 
  194300    16.613301  -0.38227145            0  -0.33870957 0.0058240062 
  194400    16.785516  -0.38266571            0  -0.33865226 0.0023466766 
  194500    16.555604  -0.38208135            0  -0.33867075 0.0059268282 
  194600    16.716307  -0.38246752            0  -0.33863554 -0.0015354989 
  194700    16.758701  -0.38271751            0  -0.33877438 0.0040771035 
  194800    16.817784  -0.38294196            0  -0.33884391 0.0077960119 
  194900    16.678084  -0.38260563            0  -0.33887388 0.0013979719 
  195000    16.524263  -0.38212595            0  -0.33879754 1.6362979e-07 
  195100    16.558885  -0.38214457            0  -0.33872537 0.0047386842 
  195200    16.783157  -0.38255037            0   -0.3385431  0.005864622 
  195300    16.975678  -0.38309122            0  -0.33857914  0.004689441 
  195400    16.972296  -0.38314813            0  -0.33864493 0.0062069171 
  195500     17.10709  -0.38341251            0  -0.33855586  0.001039433 
  195600    16.979649  -0.38312835            0  -0.33860586 0.0035440659 
  195700    17.098609  -0.38350125            0  -0.33866684 0.00083922604 
  195800    17.097114  -0.38355409            0   -0.3387236 0.0029336494 
  195900    16.967108  -0.38329839            0  -0.33880879 0.0053042112 
  196000    17.021992  -0.38340015            0  -0.33876664  0.004626202 
  196100    17.061419  -0.38341499            0   -0.3386781 0.0037220935 
  196200     17.30232  -0.38403617            0  -0.33866761 0.0028055629 
  196300    17.452322  -0.38449648            0   -0.3387346  0.004793673 
  196400    17.256152  -0.38388549            0  -0.33863798 0.0090154703 
  196500    17.243167  -0.38380416            0   -0.3385907  0.003120565 
  196600    17.408526  -0.38419631            0  -0.33854926 -0.00053082065 
  196700    17.485318  -0.38451021            0   -0.3386618 0.0026003674 
  196800    17.458755  -0.38441729            0  -0.33863853 0.0083681361 
  196900    17.380325  -0.38434896            0  -0.33877585 0.0072804623 
  197000    17.463823  -0.38451307            0  -0.33872103 0.0016891305 
  197100    17.485387  -0.38456125            0  -0.33871266 -0.0017391557 
  197200    17.220016  -0.38387605            0  -0.33872329 0.0059818902 
  197300    17.264818  -0.38405209            0  -0.33878186 0.0044055358 
  197400    17.351577  -0.38417632            0   -0.3386786 0.0038419997 
  197500    17.306251  -0.38411996            0  -0.33874109 0.0090180269 
  197600    17.571361  -0.38473466            0  -0.33866064 0.0047160848 
  197700    17.309669  -0.38398807            0  -0.33860023 0.0053100905 
  197800     17.02917  -0.38338017            0  -0.33872784 -0.0019326405 
  197900    17.023366  -0.38329726            0  -0.33866015 5.8808546e-05 
  198000    17.203272  -0.38369241            0  -0.33858356 0.0066357095 
  198100      17.5946  -0.38469494            0  -0.33855999 0.0012584553 
  198200     17.27984  -0.38400644            0  -0.33869682  0.005502996 
  198300    17.118445  -0.38351959            0  -0.33863316 0.0063545433 
  198400    17.103985  -0.38354395            0  -0.33869544  0.001469719 
  198500    17.145941  -0.38357353            0  -0.33861501 0.0040572274 
  198600    17.258908  -0.38380063            0   -0.3385459 0.0010491643 
  198700    17.173452  -0.38357424            0  -0.33854358 0.0052921259 
  198800     17.21718  -0.38369786            0  -0.33855255 0.0070886947 
  198900    17.281389  -0.38384793            0  -0.33853425 0.0017913922 
  199000    17.449616  -0.38423642            0  -0.33848163 -0.00093154176 
  199100    17.282789  -0.38390403            0  -0.33858667  0.010072782 
  199200    17.409297  -0.38416266            0  -0.33851359 0.0047745272 
  199300    17.331249  -0.38403416            0  -0.33858974 0.0046802472 
  199400    17.336965  -0.38391943            0  -0.33846003 0.0080057011 
  199500    17.389862  -0.38423968            0  -0.33864157  0.005803173 
  199600     17.42548  -0.38409255            0  -0.33840105 0.0012456891 
  199700    17.304867  -0.38370202            0  -0.33832678 0.0020210202 
  199800    17.401678  -0.38400243            0  -0.33837334 0.0012837679 
  199900    17.311736   -0.3837735            0  -0.33838024    0.0042956 
  200000    17.168933  -0.38331399            0  -0.33829518 0.0041836652 
  200100    17.049292  -0.38312032            0  -0.33841522  0.001970434 
  200200     17.02151  -0.38299686            0  -0.33836462  0.003968388 
  200300    17.128561  -0.38344789            0  -0.33853494 0.0016783737 
  200400    17.350516  -0.38393392            0  -0.33843898 0.0033193642 
  200500    17.325146   -0.3840183            0  -0.33858988 0.0075924079 
  200600    17.327928  -0.38395951            0   -0.3385238 0.0028359612 
  200700    17.178586   -0.3835416            0  -0.33849748 -0.00026634588 
  200800     16.94118  -0.38284207            0  -0.33842045 0.0018876539 
  200900    16.976323  -0.38291589            0  -0.33840212 0.0018940021 
  201000    16.939944  -0.38269704            0  -0.33827867  0.010453736 
  201100    17.278751  -0.38349999            0  -0.33819323 0.0016108587 
  201200    17.164144  -0.38343186            0  -0.33842561 0.0043843418 
  201300    17.130845  -0.38329916            0  -0.33838022 0.0058648549 
  201400    17.051494  -0.38324723            0  -0.33853636 0.0038127353 
  201500    17.119693   -0.3834704            0  -0.33858071 -0.00062643897 
  201600     17.25857  -0.38372434            0  -0.33847049 0.0035952615 
  201700    17.193498  -0.38354022            0    -0.338457 0.0077265082 
  201800    17.076105  -0.38328952            0  -0.33851412 0.0045731466 
  201900    17.031677  -0.38302055            0  -0.33836164 0.0028153476 
  202000    17.114966  -0.38334392            0  -0.33846662 -0.00026792689 
  202100    17.079614   -0.3832088            0  -0.33842419 0.0048360319 
  202200    17.045239  -0.38323479            0  -0.33854032 0.0085353714 
  202300     17.18778  -0.38360221            0  -0.33853398 0.00043794916 
  202400    16.989628  -0.38331288            0  -0.33876423 0.0048623924 
  202500    17.145907  -0.38368177            0  -0.33872334 0.0017747981 
  202600      17.1255   -0.3836458            0  -0.33874088 0.00067516234 
  202700    17.156332  -0.38373654            0  -0.33875077 0.0029296291 
  202800    17.200893   -0.3838006            0  -0.33869799 0.0064961901 
  202900    17.334834  -0.38403969            0  -0.33858587 0.0015280551 
  203000    17.117399  -0.38345451            0  -0.33857083 0.0048044178 
  203100    17.221299  -0.38378101            0  -0.33862489 0.00060086862 
  203200    16.994985  -0.38318664            0  -0.33862394 0.0088610484 
  203300    17.078047  -0.38344325            0  -0.33866275 -0.00017379774 
  203400    17.051993  -0.38334263            0  -0.33863045 0.00059663802 
  203500    17.048936  -0.38334713            0  -0.33864296 0.0095627281 
  203600     17.26391  -0.38390346            0  -0.33863561  0.003872033 
  203700    17.216563  -0.38360358            0  -0.33845988 0.00014444019 
  203800    17.087246   -0.3832554            0  -0.33845078 0.0041686751 
  203900    17.052902  -0.38326507            0  -0.33855051 0.0029396404 
  204000    16.860426  -0.38275742            0  -0.33854755 0.0048213631 
  204100     16.89114  -0.38280148            0  -0.33851108 0.00034553987 
  204200    16.857873  -0.38261408            0   -0.3384109 0.0048984095 
  204300    17.064637  -0.38313518            0  -0.33838985 0.0029612177 
  204400    17.098384  -0.38317848            0  -0.33834465 0.0035301626 
  204500    16.956274  -0.38298671            0  -0.33852552 0.0015472697 
  204600    16.990682  -0.38286572            0   -0.3383143 0.0015873495 
  204700    17.081646  -0.38308533            0  -0.33829539  0.005393203 
  204800    17.177917   -0.3834333            0  -0.33839093 0.0062736351 
  204900    17.293424  -0.38368204            0   -0.3383368 0.0028502332 
  205000    17.155939  -0.38340816            0  -0.33842342  0.006588333 
  205100     17.07552   -0.3834003            0  -0.33862643 0.0015396548 
  205200    17.239114   -0.3836417            0  -0.33843886 0.0005829293 
  205300      17.2585   -0.3836721            0  -0.33841843 0.0031106195 
  205400    17.276193  -0.38374594            0  -0.33844588  0.006337117 
  205500    17.365639  -0.38408472            0  -0.33855012 0.0034434612 
  205600    17.147632  -0.38334926            0   -0.3383863  0.006485653 
  205700    17.122265  -0.38339425            0  -0.33849781 0.0019851695 
  205800    17.041775    -0.383215            0  -0.33852961 0.0024591988 
  205900    17.036148  -0.38329497            0  -0.33862434 0.0024439295 
  206000    17.245412  -0.38393829            0  -0.33871895 -0.0027177417 
  206100    17.256783  -0.38394039            0  -0.33869123  0.007704495 
  206200    17.361404  -0.38421884            0  -0.33869535 0.0084373897 
  206300    17.331152  -0.38409325            0  -0.33864908 0.00069194465 
  206400    17.186224  -0.38355291            0  -0.33848876 0.0021553567 
  206500    17.206034  -0.38351211            0  -0.33839602 0.0070866811 
  206600    17.450782  -0.38411106            0  -0.33835321 0.0029519145 
  206700    17.185189  -0.38360117            0  -0.33853973 0.0063663751 
  206800    17.281908  -0.38371705            0  -0.33840201 0.00087162288 
  206900    17.270364  -0.38371161            0  -0.33842684  0.003980024 
  207000    17.240489  -0.38363947            0  -0.33843304 0.0054139879 
  207100    17.296269  -0.38368554            0  -0.33833284 -0.00085681293 
  207200    17.293823  -0.38366127            0  -0.33831498 0.0021555064 
  207300    17.155153  -0.38336665            0  -0.33838397 0.0094524028 
  207400    17.308913  -0.38365644            0  -0.33827059 0.0043391125 
  207500    17.240133    -0.383435            0  -0.33822949 0.0029491859 
  207600    17.170515  -0.38336087            0  -0.33833791 -0.00040555369 
  207700    17.181579  -0.38343911            0  -0.33838714 0.0028283114 
  207800    17.271969  -0.38362565            0  -0.33833666 0.0073009085 
  207900    17.169506  -0.38346747            0  -0.33844716 0.0045828283 
  208000     17.06734  -0.38311142            0    -0.338359 0.0055379315 
  208100    17.082425  -0.38327905            0  -0.33848707 0.0045216843 
  208200    17.143776  -0.38350289            0  -0.33855004 0.0014531168 
  208300    17.183253  -0.38353925            0  -0.33848289 0.0025804938 
  208400    17.267491  -0.38373848            0  -0.33846124 0.0041853434 
  208500      17.1412  -0.38336605            0  -0.33841995 0.0079641592 
  208600    17.324444  -0.38386721            0  -0.33844064 -2.9149749e-05 
  208700    17.237739  -0.38370934            0  -0.33851012 0.0036709593 
  208800    17.372025   -0.3840236            0  -0.33847226 0.0021133766 
  208900    17.355072  -0.38389121            0  -0.33838432  0.006841468 
  209000    17.409798  -0.38400379            0  -0.33835341   0.00602884 
  209100    17.376852  -0.38382415            0  -0.33826016 0.0031366512 
  209200    17.167732  -0.38339397            0  -0.33837831 0.0067800274 
  209300    17.276855  -0.38351399            0   -0.3382122 0.0034562614 
  209400    17.277491  -0.38357616            0  -0.33827269 8.8647308e-05 
  209500    17.174419  -0.38347935            0  -0.33844615 0.0019294076 
  209600    17.288149  -0.38378212            0  -0.33845071 0.0023996579 
  209700    17.267606  -0.38387226            0  -0.33859472 0.0054215902 
  209800    17.323898  -0.38393091            0  -0.33850576 -0.00032463593 
  209900    17.232417  -0.38374414            0  -0.33855887 -0.00033213327 
  210000    17.307727  -0.38393472            0  -0.33855198  0.004372697 
  210100    17.239894   -0.3837512            0  -0.33854632 0.0090946002 
  210200    17.463076  -0.38428117            0  -0.33849109 0.0019102324 
  210300    17.542681  -0.38441606            0  -0.33841724 0.0015586419 
  210400    17.315253  -0.38394979            0  -0.33854731 0.0060800076 
  210500    17.439407  -0.38421418            0  -0.33848616 0.0048423698 
  210600    17.337965  -0.38403988            0  -0.33857785 0.0063833187 
  210700     17.18382  -0.38357367            0  -0.33851582 0.0051544051 
  210800    17.269079  -0.38387551            0  -0.33859411  0.001518819 
  210900    17.137122  -0.38346175            0  -0.33852635 0.0047307326 
  211000    17.149148  -0.38346511            0  -0.33849818 -0.00047148099 
  211100    17.027392  -0.38320307            0   -0.3385554 0.0015799479 
  211200    17.160413   -0.3834064            0  -0.33840993 0.0026054276 
  211300    17.211322  -0.38347445            0  -0.33834449   0.00666911 
  211400    17.490061  -0.38415802            0  -0.33829718 0.00024545728 
  211500    17.293708  -0.38356191            0  -0.33821593 0.0017792804 
  211600    17.052454  -0.38287823            0  -0.33816484 0.0063568426 
  211700    17.112534  -0.38316439            0  -0.33829346 0.0047423191 
  211800    17.179257  -0.38311411            0  -0.33806824 0.0059084151 
  211900    17.218742  -0.38328804            0  -0.33813863 -0.0012282654 
  212000    17.010733  -0.38272052            0  -0.33811653 0.0067713766 
  212100    17.078916  -0.38289556            0  -0.33811278 0.0066548324 
  212200    16.967426  -0.38271786            0  -0.33822742 0.0042504701 
  212300      17.1146  -0.38299024            0   -0.3381139 0.00093175391 
  212400    17.116596  -0.38312617            0  -0.33824459 0.0050676722 
  212500    17.059243  -0.38303227            0  -0.33830108  0.003363786 
  212600    17.124839  -0.38320599            0   -0.3383028 0.0033753112 
  212700    17.000599  -0.38295623            0  -0.33837881 0.0054071934 
  212800    17.059057  -0.38303957            0  -0.33830887 0.0016940503 
  212900    17.085188  -0.38306705            0  -0.33826783  0.004162742 
  213000    17.256592  -0.38351037            0   -0.3382617 0.0041737924 
  213100    17.312954  -0.38367508            0  -0.33827863 0.0039539759 
  213200    17.290667  -0.38363676            0  -0.33829875 0.0055203285 
  213300    17.170442  -0.38325163            0  -0.33822887 0.0067125296 
  213400    17.169412  -0.38339536            0  -0.33837529 -0.0012396931 
  213500    17.107602  -0.38321174            0  -0.33835375 0.0011865754 
  213600    17.016062  -0.38307518            0  -0.33845722 0.0044349793 
  213700    17.167796  -0.38341972            0  -0.33840389 0.0025074133 
  213800    17.086081  -0.38328621            0  -0.33848465 0.0044656483 
  213900    17.184916  -0.38354841            0  -0.33848769 -0.00083155178 
  214000    17.040066  -0.38323748            0  -0.33855657 0.0049948009 
  214100     17.15552  -0.38365809            0  -0.33867445  0.001472372 
  214200    17.347455  -0.38405304            0  -0.33856613 0.0017090992 
  214300    17.278863  -0.38389864            0  -0.33859158 0.0066830527 
  214400    17.248284  -0.38377653            0  -0.33854966 0.0060971771 
  214500    17.384909  -0.38426056            0  -0.33867544 0.0042803895 
  214600     17.55115  -0.38451359            0  -0.33849257 0.0040192817 
  214700    17.577565  -0.38448552            0  -0.33839523 0.0048526203 
  214800    17.503942  -0.38439688            0  -0.33849964 0.0028111635 
  214900    17.585969  -0.38457702            0   -0.3384647 0.0033574908 
  215000    17.683241  -0.38479026            0  -0.33842288 0.0075885277 
  215100    17.650451  -0.38473405            0  -0.33845265 0.0032935947 
  215200    17.551187  -0.38461739            0  -0.33859627 0.0022292494 
  215300     17.63869   -0.3846437            0  -0.33839314 0.0038238619 
  215400    17.622141  -0.38456192            0  -0.33835475 0.0059838263 
  215500    17.722699  -0.38488621            0  -0.33841536 -0.00071186902 
  215600    17.396576  -0.38399058            0  -0.33837487 0.0079840128 
  215700    17.368645  -0.38389779            0  -0.33835532 0.0018692071 
  215800    17.345627  -0.38386393            0  -0.33838181 -0.0039433283 
  215900    17.317352  -0.38377436            0  -0.33836638 0.0058556197 
  216000    17.579199  -0.38457124            0  -0.33847667 0.0082447369 
  216100    17.735744  -0.38485055            0   -0.3383455  0.005113956 
  216200     17.68109  -0.38477485            0  -0.33841311 0.0042787083 
  216300    17.508215   -0.3842669            0  -0.33835845 0.0079063573 
  216400     17.43118  -0.38403002            0  -0.33832357 0.0019417006 
  216500    17.320742  -0.38375508            0  -0.33833821  0.002102882 
  216600    17.361744  -0.38388605            0  -0.33836167 0.0043002089 
  216700    17.483266   -0.3843256            0  -0.33848258   0.00291118 
  216800    17.533132  -0.38445035            0  -0.33847657 0.0057946089 
  216900    17.351101  -0.38400573            0  -0.33850926 0.0061505826 
  217000    17.360217  -0.38401303            0  -0.33849265 -0.0004971506 
  217100    17.462389  -0.38414542            0  -0.33835713 0.0020532853 
  217200    17.438592  -0.38407278            0   -0.3383469 0.0080275411 
  217300    17.465167  -0.38403842            0  -0.33824285 -0.0006496464 
  217400    17.360372   -0.3838835            0  -0.33836271 0.00082543863 
  217500    17.430495   -0.3839473            0  -0.33824265  0.004087627 
  217600    17.374541  -0.38384056            0  -0.33828263 0.0034815584 
  217700    17.454998  -0.38421372            0  -0.33844482 0.0051049745 
  217800    17.385482   -0.3840271            0  -0.33844048 0.0093389772 
  217900    17.392188  -0.38397083            0  -0.33836662 0.0028416237 
  218000    17.165696  -0.38347747            0  -0.33846714 -0.00039808778 
  218100     17.13203  -0.38338584            0  -0.33846379 0.00045128646 
  218200    17.318335  -0.38378246            0   -0.3383719  0.002151054 
  218300    17.577082   -0.3843971            0  -0.33830808 0.0036854137 
  218400     17.44033   -0.3842013            0  -0.33847086 0.0072978351 
  218500    17.526807  -0.38427408            0  -0.33831689 0.0022340502 
  218600    17.261816  -0.38361846            0   -0.3383561 0.0042716216 
  218700    17.266548  -0.38370754            0  -0.33843277 -0.00081373786 
  218800    17.283021  -0.38368146            0   -0.3383635 0.0039438431 
  218900    17.374317  -0.38409937            0  -0.33854202  0.006289396 
  219000    17.677038  -0.38473123            0  -0.33838012 0.00089544633 
  219100    17.463189  -0.38410985            0  -0.33831947 0.0049264852 
  219200    17.352308  -0.38380147            0  -0.33830183 0.0048718119 
  219300    17.496001  -0.38425725            0  -0.33838083 0.0027563598 
  219400    17.480576  -0.38423775            0  -0.33840178  0.006077325 
  219500    17.457126  -0.38426401            0  -0.33848953 0.0053664485 
  219600     17.38116  -0.38401572            0  -0.33844042 0.0056449048 
  219700    17.351348  -0.38400196            0  -0.33850484 0.0017363535 
  219800    17.437784  -0.38424004            0  -0.33851627 0.00064646238 
  219900    17.593907  -0.38465198            0  -0.33851884 0.0048853166 
  220000    17.592895  -0.38461575            0  -0.33848527 0.0068163842 
  220100    17.613967  -0.38472523            0   -0.3385395 3.9486135e-05 
  220200    17.361356   -0.3840605            0  -0.33853714 0.0054183789 
  220300    17.454164  -0.38442829            0  -0.33866158 0.0032330073 
  220400    17.471193  -0.38444883            0  -0.33863746 0.0033312919 
  220500    17.733915  -0.38514114            0  -0.33864089 -0.0010771687 
  220600    17.555425  -0.38463219            0  -0.33859996  0.010274668 
  220700    17.640301   -0.3847944            0  -0.33853961 0.0025007089 
  220800    17.513271   -0.3845281            0  -0.33860639 -0.0010698221 
  220900     17.53943   -0.3844911            0  -0.33850081 0.0042808162 
  221000    17.499632  -0.38445961            0  -0.33857367 0.0082135329 
  221100    17.533741  -0.38443788            0  -0.33846251 0.0054049851 
  221200    17.703373  -0.38500004            0  -0.33857987 -0.0018698317 
  221300    17.478873  -0.38438459            0  -0.33855308  0.010307104 
  221400    17.585974  -0.38461277            0  -0.33850044 0.0028448126 
  221500    17.683113  -0.38491749            0  -0.33855045 0.00020893632 
  221600    17.767987  -0.38508735            0  -0.33849775 0.0092910524 
  221700    17.775501   -0.3851088            0   -0.3384995 0.0062441933 
  221800     17.80617  -0.38513007            0  -0.33844035 -0.0029189875 
  221900    17.452778  -0.38435716            0  -0.33859407 0.0041040458 
  222000    17.483012  -0.38435184            0  -0.33850948 0.00010090019 
  222100    17.430808  -0.38426194            0  -0.33855646 0.0024770728 
  222200    17.379921  -0.38404753            0  -0.33847549 0.0053373212 
  222300    17.376744  -0.38407162            0   -0.3385079 0.0010251866 
  222400    17.484329  -0.38438045            0  -0.33853464 -0.0010944249 
  222500    17.551923  -0.38458338            0  -0.33856033 0.0066981706 
  222600    17.697509  -0.38511783            0  -0.33871304 0.0057467645 
  222700    17.443754  -0.38437647            0  -0.33863705 0.0078037265 
  222800    17.511942  -0.38450325            0  -0.33858503 0.0018580143 
  222900    17.488229  -0.38441987            0  -0.33856384  0.002964535 
  223000    17.698601  -0.38500024            0  -0.33859258 0.00053674179 
  223100     17.32504  -0.38407744            0   -0.3386493  0.012673967 
  223200    17.504278   -0.3845017            0  -0.33860358 -0.00057434876 
  223300    17.395993  -0.38427757            0  -0.33866339 -0.0015260652 
  223400    17.427184  -0.38433104            0  -0.33863507 0.0034591056 
  223500    17.354409  -0.38434642            0  -0.33884127 0.0074847268 
  223600    17.627274  -0.38488765            0  -0.33866702 -0.0013470589 
  223700    17.437079  -0.38439226            0  -0.33867035 0.00043748991 
  223800    17.348602  -0.38428012            0  -0.33879019 0.00054875259 
  223900    17.279705  -0.38407287            0  -0.33876361 0.0035360166 
  224000    17.481673  -0.38462022            0  -0.33878137 0.0024900462 
  224100    17.453283  -0.38447806            0  -0.33871365  0.010948614 
  224200    17.617278  -0.38493326            0  -0.33873885 0.00049561717 
  224300    17.291211  -0.38403632            0  -0.33869688 0.0016199787 
  224400     17.22677  -0.38382047            0  -0.33865001 -0.00026116525 
  224500    17.442865  -0.38427871            0  -0.33854162 -0.0016497877 
  224600    17.627643  -0.38482916            0  -0.33860756 0.0060821963 
  224700    17.783949  -0.38510997            0  -0.33847852  0.010601318 
  224800    17.874902  -0.38535176            0  -0.33848182 0.0043701409 
  224900    17.827463  -0.38534232            0  -0.33859677 0.0011740774 
  225000      17.7187  -0.38503176            0   -0.3385714 0.0018725264 
  225100    17.636132  -0.38479435            0   -0.3385505 0.0019841316 
  225200    17.663169  -0.38488853            0  -0.33857378 0.0022389398 
  225300    17.586569  -0.38469474            0  -0.33858084 0.0050721632 
  225400    17.616672  -0.38481278            0  -0.33861995 0.0026596547 
  225500    17.718863  -0.38505772            0  -0.33859694 -0.0010550835 
  225600    17.556134  -0.38462981            0  -0.33859572 0.0074173562 
  225700    17.592113  -0.38472278            0  -0.33859435 0.0035158252 
  225800    17.595588  -0.38472519            0  -0.33858764 0.00073229803 
  225900    17.722962  -0.38488621            0  -0.33841468 0.0018314405 
  226000     17.82338  -0.38512453            0  -0.33838969 0.0039989864 
  226100    17.753948  -0.38508279            0  -0.33853001 0.0046349135 
  226200     17.67985  -0.38483172            0  -0.33847322 0.0060660313 
  226300    17.661754  -0.38479561            0  -0.33848457 0.0043984111 
  226400    17.882809  -0.38530746            0  -0.33841679 -0.0018926311 
  226500    17.703489  -0.38498029            0  -0.33855982 0.0034845864 
  226600    17.855082  -0.38528978            0  -0.33847181 0.0014729175 
  226700    17.713474  -0.38504586            0   -0.3385992 0.0045812859 
  226800    17.673637  -0.38496542            0  -0.33862322  0.002822048 
  226900    17.541042   -0.3846027            0  -0.33860818  0.001734599 
  227000     17.61249   -0.3847841            0  -0.33860224 -0.0007352787 
  227100    17.529461  -0.38456401            0  -0.33859986 0.0083432846 
  227200    17.627612  -0.38492542            0   -0.3387039 0.0044346735 
  227300    17.622928  -0.38487283            0  -0.33866359 0.0050617066 
  227400     17.65612  -0.38487422            0  -0.33857795 0.0078505672 
  227500    17.642449  -0.38485227            0  -0.33859185 0.0035868442 
  227600    17.464795  -0.38449555            0  -0.33870095 0.0025627608 
  227700    17.300523  -0.38409792            0  -0.33873407 0.0031130486 
  227800    17.362306   -0.3842045            0  -0.33867865   0.00047873 
  227900    17.364827  -0.38415411            0  -0.33862164 0.0013008644 
  228000    17.557275  -0.38453565            0  -0.33849856 0.0019361143 
  228100    17.480453   -0.3845077            0  -0.33867205 0.0063832126 
  228200    17.565541  -0.38461658            0  -0.33855782 0.0044086233 
  228300    17.691164   -0.3849429            0  -0.33855474 0.0030814371 
  228400    17.775739  -0.38516444            0  -0.33855452 0.0058507783 
  228500    17.665721  -0.38491137            0  -0.33858993 0.0074469467 
  228600     17.70801  -0.38489458            0  -0.33846225 0.0010203583 
  228700     17.60477  -0.38455285            0  -0.33839122 0.0020362736 
  228800    17.489693  -0.38430064            0  -0.33844076 0.0044827489 
  228900    17.686731  -0.38477247            0  -0.33839594 -0.001198702 
  229000    17.642958  -0.38466493            0  -0.33840317 0.0027922816 
  229100    17.716124  -0.38499971            0  -0.33854611 0.0051107166 
  229200    17.924301  -0.38550211            0  -0.33850264 0.0014201471 
  229300    17.840872  -0.38540516            0  -0.33862445 0.0062032113 
  229400    17.783523  -0.38516741            0  -0.33853708 0.0044019298 
  229500     17.59423  -0.38469616            0  -0.33856217 0.0022554548 
  229600    17.508775  -0.38445718            0  -0.33854726 0.0032978568 
  229700    17.597694  -0.38473943            0  -0.33859636 0.0019472319 
  229800     17.56242   -0.3847096            0  -0.33865902 0.00033034096 
  229900    17.400881  -0.38424925            0  -0.33862225 0.0042558851 
  230000    17.381658   -0.3842511            0   -0.3386745 0.0046359393 
  230100    17.588925  -0.38479596            0  -0.33867588 -0.0014022875 
  230200     17.52245   -0.3845012            0  -0.33855543  0.005415925 
  230300    17.583583  -0.38458028            0  -0.33847422 0.0070562311 
  230400    17.780897  -0.38520503            0  -0.33858159  0.001113547 
  230500    17.591896   -0.3846301            0  -0.33850224 0.0046572708 
  230600     17.52304  -0.38457233            0  -0.33862501 0.0019925672 
  230700    17.533749  -0.38458548            0  -0.33861009 0.0025957687 
  230800    17.452689  -0.38453369            0  -0.33877084 0.0062175149 
  230900    17.718435  -0.38512605            0  -0.33866639  0.002299271 
  231000    17.610313  -0.38478096            0  -0.33860481 0.0065756856 
  231100    17.595524  -0.38477212            0  -0.33863474 0.0034688211 
  231200    17.271215  -0.38400622            0  -0.33871921  0.004831119 
  231300    17.164243  -0.38349531            0  -0.33848879 0.0049151973 
  231400    17.205919  -0.38353325            0  -0.33841746 0.0023205103 
  231500    17.320335  -0.38386602            0  -0.33845022 -0.00089848973 
  231600     17.35554  -0.38391594            0  -0.33840783 0.0033759635 
  231700    17.353982  -0.38387871            0  -0.33837468 0.0099456732 
  231800    17.552474  -0.38444343            0  -0.33841893 0.0023858258 
  231900    17.464927  -0.38404389            0  -0.33824895 0.0038842038 
  232000    17.471432  -0.38415456            0  -0.33834257 0.0035620345 
  232100     17.38927   -0.3839027            0  -0.33830614 0.0083614755 
  232200    17.435698   -0.3841334            0   -0.3384151 7.1051248e-05 
  232300    17.289577  -0.38380152            0  -0.33846637 0.0037544031 
  232400    17.365143  -0.38393021            0  -0.33839692 0.0052340255 
  232500    17.534498  -0.38450428            0  -0.33852693 0.0018715207 
  232600    17.459645  -0.38429321            0  -0.33851212 0.0064157712 
  232700    17.521588  -0.38444342            0  -0.33849991 0.00043471845 
  232800    17.464433  -0.38428368            0  -0.33849004 0.0020418814 
  232900    17.314783  -0.38392752            0  -0.33852627 0.0060825159 
  233000    17.417331  -0.38402301            0  -0.33835288 0.0030280658 
  233100    17.520936  -0.38412134            0  -0.33817954 -0.001461018 
  233200    17.359564  -0.38373145            0  -0.33821278 0.0050831552 
  233300    17.465001  -0.38387569            0  -0.33808056 0.0063615429 
  233400    17.627601  -0.38447037            0  -0.33824888 0.0040207649 
  233500    17.437535  -0.38410602            0  -0.33838291 0.0075687876 
  233600     17.38078  -0.38408635            0  -0.33851205 0.0018430628 
  233700    17.601522  -0.38477531            0  -0.33862221 -0.0029056028 
  233800    17.456064  -0.38437692            0  -0.33860522  0.011332097 
  233900    17.594555  -0.38470738            0  -0.33857255 0.0028373471 
  234000    17.402092  -0.38423872            0  -0.33860855 0.0010360662 
  234100    17.363061  -0.38392899            0  -0.33840115 0.0054574553 
  234200    17.375121    -0.384012            0  -0.33845254 0.0053344455 
  234300    17.510866  -0.38452587            0  -0.33861048 0.00012319443 
  234400    17.419996  -0.38437056            0  -0.33869344 0.0016734652 
  234500    17.445213  -0.38444015            0   -0.3386969 0.0044986087 
  234600    17.549764  -0.38466002            0  -0.33864263 0.0039544033 
  234700    17.472234  -0.38437606            0  -0.33856196 0.0045600046 
  234800    17.571437  -0.38459036            0  -0.33851614 0.0049258748 
  234900    17.538708  -0.38448519            0  -0.33849679 0.0064978876 
  235000    17.534681   -0.3844367            0  -0.33845886 0.0041014605 
  235100    17.449747  -0.38420225            0  -0.33844712 0.0029063654 
  235200    17.499573  -0.38438887            0  -0.33850308 0.0020291091 
  235300    17.421972  -0.38412549            0  -0.33844318 0.0064387882 
  235400    17.398575  -0.38412665            0   -0.3385057 -0.00057136901 
  235500    17.092883  -0.38349985            0  -0.33868045 0.0028704459 
  235600    17.154551  -0.38341503            0  -0.33843393 0.0050214457 
  235700    17.149621  -0.38347364            0  -0.33850547 0.0027004023 
  235800     17.25716   -0.3837078            0  -0.33845765 0.00047439655 
  235900    17.082997  -0.38321002            0  -0.33841654 0.0066399185 
  236000    17.248019  -0.38360598            0   -0.3383798 0.00041875144 
  236100    17.276894  -0.38365634            0  -0.33835445 0.0018865453 
  236200    17.418089   -0.3840447            0  -0.33837257 0.0040643374 
  236300    17.584636  -0.38436494            0  -0.33825612 0.0062266833 
  236400    17.617852  -0.38456296            0  -0.33836703 0.0025889237 
  236500    17.480026  -0.38418739            0  -0.33835286 0.0046838147 
  236600    17.346035  -0.38388949            0   -0.3384063 0.0044726248 
  236700    17.420132  -0.38428511            0  -0.33860762 0.00057790551 
  236800    17.595414  -0.38458507            0  -0.33844798 0.0027144388 
  236900    17.640097  -0.38458293            0  -0.33832868 0.0080585669 
  237000    17.802427  -0.38498771            0  -0.33830781 0.0049197928 
  237100    17.749965  -0.38480086            0  -0.33825852 0.00098765634 
  237200    17.649091  -0.38460116            0  -0.33832332 0.0025789159 
  237300    17.616278  -0.38451888            0  -0.33832708 0.0054203371 
  237400    17.781087  -0.38504334            0  -0.33841939 -0.00090768667 
  237500    17.817796  -0.38503226            0  -0.33831206 0.0019255169 
  237600    17.747343  -0.38495477            0  -0.33841931 0.0061401158 
  237700    17.889588  -0.38536132            0  -0.33845287 0.0025020845 
  237800    17.895365  -0.38543033            0  -0.33850674 0.0047262747 
  237900    17.851552  -0.38535031            0   -0.3385416 0.0042199585 
  238000    17.809213  -0.38522045            0  -0.33852275 0.0011159141 
  238100    17.408742  -0.38420756            0  -0.33855994 0.0069213313 
  238200    17.556134  -0.38467863            0  -0.33864454 6.123623e-05 
  238300    17.682663  -0.38505394            0  -0.33868808 0.0014738184 
  238400    17.773962  -0.38523154            0  -0.33862628 0.0088530046 
  238500    17.860661  -0.38543192            0  -0.33859933 0.0058837416 
  238600     17.73909  -0.38504086            0  -0.33852704 -0.00058467182 
  238700    17.590036  -0.38461585            0  -0.33849286 0.0015618936 
  238800    17.557595  -0.38447964            0  -0.33844172 0.0017212241 
  238900    17.536468  -0.38441515            0  -0.33843262 0.0020938752 
  239000    17.576433  -0.38451688            0  -0.33842956 0.0032614198 
  239100    17.668292  -0.38486097            0  -0.33853279 0.0028257866 
  239200    17.769732  -0.38523402            0  -0.33863985 0.0059655515 
  239300    17.872161  -0.38540773            0  -0.33854498  0.010050339 
  239400    17.818588  -0.38531985            0  -0.33859757 0.0077688638 
  239500    17.755777  -0.38517599            0  -0.33861841 -0.0004297248 
  239600    17.408001  -0.38429532            0  -0.33864965 0.0062103048 
  239700    17.702034  -0.38501876            0   -0.3386021 0.0024463722 
  239800    17.746105   -0.3851231            0  -0.33859088 0.0048297758 
  239900    17.655638  -0.38487176            0  -0.33857676 0.0093878057 
  240000    17.770807  -0.38513574            0  -0.33853875 0.0046494464 
  240100    17.626057  -0.38474135            0  -0.33852391 0.0029705153 
  240200    17.443796  -0.38440731            0  -0.33866778 0.0017940908 
  240300    17.476031  -0.38436923            0  -0.33854518  0.001605331 
  240400    17.496601    -0.384533            0  -0.33865501 0.0039755517 
  240500    17.602624  -0.38487158            0  -0.33871559 0.0063478625 
  240600     17.80983  -0.38532673            0  -0.33862742 0.00050541482 
  240700    17.832448  -0.38530055            0  -0.33854194 0.0015185949 
  240800    17.799346  -0.38519932            0   -0.3385275 0.0050111216 
  240900    17.794852  -0.38518495            0  -0.33852491 0.0011373876 
  241000    17.735989   -0.3849493            0  -0.33844361 0.0022684222 
  241100    17.876032  -0.38529044            0  -0.33841754 0.0025786778 
  241200    17.801947  -0.38507353            0  -0.33839489 0.0065094236 
  241300     17.86958  -0.38513852            0  -0.33828254 0.0020692889 
  241400    17.706373  -0.38474268            0  -0.33831464 0.0050994498 
  241500    17.752754  -0.38495089            0  -0.33840124  0.002246179 
  241600     18.00543  -0.38531074            0  -0.33809854 -0.0016644646 
  241700    17.878563  -0.38501511            0  -0.33813557 0.0039321912 
  241800    17.682208  -0.38469607            0  -0.33833139 0.0052425727 
  241900    17.666495  -0.38451175            0  -0.33818828 0.0054466599 
  242000    17.704257  -0.38466199            0  -0.33823951 0.0016416413 
  242100    17.621415  -0.38469358            0  -0.33848831 0.0058904594 
  242200     17.82663   -0.3850358            0  -0.33829244 0.0059582135 
  242300    17.748456   -0.3848637            0  -0.33832532 0.0025320045 
  242400    17.638862  -0.38457656            0  -0.33832555 0.00080814728 
  242500    17.691875  -0.38471216            0  -0.33832214 0.0016172275 
  242600    17.546131  -0.38444286            0    -0.338435 0.0084897189 
  242700     17.68918  -0.38473026            0   -0.3383473  0.003803284 
  242800    17.591179  -0.38446071            0  -0.33833473 0.0066174513 
  242900    17.676794  -0.38474928            0   -0.3383988 0.0038459237 
  243000    17.630645  -0.38474335            0  -0.33851388 0.00064477929 
  243100    17.403254  -0.38410322            0  -0.33846999 0.0047610357 
  243200    17.385933  -0.38410778            0  -0.33851997 0.0017465335 
  243300    17.544233  -0.38459722            0  -0.33859434 -0.001460325 
  243400    17.489752  -0.38444962            0  -0.33858959 0.0069641097 
  243500    17.570393  -0.38462954            0  -0.33855806 0.0027559665 
  243600    17.430845  -0.38425713            0  -0.33855156 0.00033486482 
  243700    17.283072   -0.3838464            0   -0.3385283 0.0038801689 
  243800    17.413406  -0.38424329            0  -0.33858345 0.0032012178 
  243900    17.544678  -0.38438591            0  -0.33838186 0.0075592755 
  244000     17.75525  -0.38483125            0  -0.33827506  0.002524325 
  244100    17.702727  -0.38470093            0  -0.33828246 0.0016979164 
  244200    17.677088   -0.3846456            0  -0.33829435 0.0037155446 
  244300    17.604192  -0.38443392            0  -0.33827381 0.0015113168 
  244400    17.647342  -0.38453497            0  -0.33826172 0.00037497506 
  244500     17.63597  -0.38450082            0  -0.33825739  0.001689942 
  244600     17.46058  -0.38420291            0  -0.33841937 0.0035310157 
  244700    17.505028  -0.38420092            0  -0.33830084 0.0041906307 
  244800    17.643214  -0.38458842            0  -0.33832599 0.0072641268 
  244900     17.71942  -0.38486548            0  -0.33840323 0.0080703879 
  245000    17.733392  -0.38484287            0  -0.33834399 0.0038637712 
  245100    17.789818  -0.38497173            0  -0.33832489 9.2208967e-06 
  245200     17.81664  -0.38515171            0  -0.33843454 0.00073187191 
  245300    17.559635  -0.38444746            0  -0.33840419 0.0050843925 
  245400    17.535397  -0.38436417            0  -0.33838446 0.0015058838 
  245500    17.389753  -0.38406136            0  -0.33846354 0.0076043845 
  245600    17.577284  -0.38464367            0  -0.33855412 0.0015634103 
  245700    17.668638  -0.38487169            0   -0.3385426 0.0012687311 
  245800    17.701632  -0.38500191            0  -0.33858631 0.0082561505 
  245900    17.619443  -0.38479289            0  -0.33859279 0.0046806072 
  246000    17.533792  -0.38457592            0  -0.33860041 -0.00063386988 
  246100    17.407969  -0.38416892            0  -0.33852333  0.002853608 
  246200    17.500102  -0.38440893            0  -0.33852176 0.0041849534 
  246300    17.446007  -0.38422828            0  -0.33848295 0.0051440764 
  246400    17.345853   -0.3838705            0  -0.33838779 0.0034511777 
  246500    17.336337  -0.38390872            0  -0.33845096 0.0016888886 
  246600    17.307068  -0.38381167            0  -0.33843066 0.00019189268 
  246700    17.422863  -0.38413664            0    -0.338452 0.0018429535 
  246800    17.496536  -0.38434696            0  -0.33846914  0.004791144 
  246900    17.561447  -0.38442734            0  -0.33837932  0.002600326 
  247000    17.786951  -0.38494497            0  -0.33830565 0.0012797166 
  247100    17.838206  -0.38496883            0  -0.33819511 0.0071748932 
  247200    17.947316  -0.38510735            0  -0.33804753 0.0042810429 
  247300     17.83642  -0.38480559            0  -0.33803655 0.0070361863 
  247400    17.731567  -0.38480384            0  -0.33830975 0.0082680795 
  247500    17.977336  -0.38520403            0   -0.3380655 0.0012945975 
  247600    18.015927  -0.38537591            0  -0.33813619 0.0057267092 
  247700    17.950429  -0.38549868            0  -0.33843071 0.0067383282 
  247800    17.931446  -0.38537922            0  -0.33836102 0.00026987967 
  247900    17.750625  -0.38489531            0  -0.33835124 0.0046938032 
  248000    17.689186  -0.38486777            0  -0.33848481 0.0042818612 
  248100     17.74758   -0.3849685            0  -0.33843242 0.00071930358 
  248200    17.684032  -0.38477331            0  -0.33840386 0.0062759643 
  248300    17.524515  -0.38447968            0   -0.3385285 0.0075732594 
  248400     17.57954  -0.38449183            0  -0.33839636 -0.0020138428 
  248500    17.529514  -0.38428356            0  -0.33831926 0.00040883997 
  248600    17.634554  -0.38451955            0  -0.33827983 0.0041394169 
  248700    17.792041  -0.38490287            0   -0.3382502 0.0027209725 
  248800      17.8325  -0.38491386            0  -0.33815511 0.0031927257 
  248900    17.808484  -0.38488414            0  -0.33818836 0.0054170881 
  249000    17.787187  -0.38477754            0   -0.3381376 0.0052716922 
  249100    17.600413  -0.38448649            0  -0.33833629 0.0045026723 
  249200    17.433792   -0.3841074            0   -0.3383941 0.0029391123 
  249300    17.451305   -0.3842048            0  -0.33844558 0.0031125818 
  249400    17.504557  -0.38427693            0  -0.33837808 0.0054843141 
  249500    17.615469  -0.38450922            0  -0.33831955 0.00093224697 
  249600    17.570555  -0.38437799            0  -0.33830608 0.0047809962 
  249700    17.509245  -0.38426727            0  -0.33835613 0.0064957849 
  249800    17.671509  -0.38457938            0  -0.33824276 0.0003482336 
  249900      17.5885  -0.38450233            0  -0.33838337 0.0019446901 
  250000    17.562743  -0.38432437            0  -0.33827295  0.005034189 
  250100     17.68265  -0.38458284            0  -0.33821701 0.0016038863 
  250200    17.749781  -0.38470779            0  -0.33816593 0.0036429276 
  250300    17.801536  -0.38493205            0  -0.33825448 0.0065198086 
  250400    17.859943  -0.38495229            0  -0.33812158 0.0065063507 
  250500    17.831618  -0.38494567            0  -0.33818923 -0.00034792024 
  250600    17.657184   -0.3845099            0  -0.33821084 0.0044807785 
  250700    17.774807  -0.38477536            0  -0.33816788 0.00056014603 
  250800    17.546015  -0.38412753            0  -0.33811997 0.0075665971 
  250900    17.607237  -0.38443669            0   -0.3382686 0.0060236806 
  251000    17.832468  -0.38474256            0  -0.33798389  0.001595566 
  251100    17.824431  -0.38474789            0  -0.33801029 0.0032093249 
  251200    17.844712  -0.38479542            0  -0.33800464 0.0030925501 
  251300    17.747259  -0.38455136            0  -0.33801612 0.0054605322 
  251400    17.849713  -0.38470366            0  -0.33789977 0.0015716331 
  251500    17.838604  -0.38473493            0  -0.33796018 0.0020014431 
  251600    17.725085  -0.38445245            0  -0.33797535  0.003352123 
  251700    17.660765  -0.38451363            0  -0.33820519 0.0033406533 
  251800    17.678096  -0.38445557            0  -0.33810168 0.0083949557 
  251900    17.750323  -0.38465717            0  -0.33811389 0.0041011546 
  252000    17.613435  -0.38426858            0  -0.33808423 0.00098031404 
  252100    17.606326  -0.38421386            0  -0.33804816 0.0016538818 
  252200    17.629373  -0.38424829            0  -0.33802216 0.0070407219 
  252300     17.82742  -0.38470635            0  -0.33796091 0.0052184474 
  252400    17.944157    -0.385048            0  -0.33799646 0.0056933483 
  252500    17.988736  -0.38513264            0  -0.33796421 0.0057262419 
  252600    17.989982  -0.38507747            0  -0.33790578 0.0029925388 
  252700    17.947759  -0.38489163            0  -0.33783066  0.003436467 
  252800    17.871581  -0.38487729            0  -0.33801607 0.0068391429 
  252900    17.990799  -0.38514418            0  -0.33797035 0.0047684118 
  253000    18.003165  -0.38512747            0  -0.33792122 0.0039036207 
  253100    17.760944  -0.38461696            0  -0.33804584 0.0038700627 
  253200    17.708859  -0.38458074            0  -0.33814619 0.0015127391 
  253300    17.671793  -0.38439768            0  -0.33806032 0.0033029238 
  253400    17.792835  -0.38463117            0  -0.33797642 0.0040240064 
  253500    17.903179  -0.38486931            0  -0.33792522 0.0089090679 
  253600    17.949698  -0.38484474            0  -0.33777868 0.0082964579 
  253700    18.004586  -0.38500873            0  -0.33779875 0.0003099608 
  253800    17.802672  -0.38451684            0   -0.3378363 0.0037014517 
  253900    17.869848  -0.38473896            0  -0.33788228  0.001540551 
  254000    17.906629  -0.38481865            0  -0.33786553 0.00042674815 
  254100    17.886049  -0.38476814            0  -0.33786897 0.0028248694 
  254200    17.793802  -0.38453521            0  -0.33787793 0.0044026157 
  254300    17.802849  -0.38454482            0  -0.33786381 0.0065220395 
  254400    18.038685  -0.38505035            0  -0.33775096 0.0059496468 
  254500     18.02628  -0.38495965            0  -0.33769278  0.010238657 
  254600    18.051737  -0.38512027            0  -0.33778665 0.0045725325 
  254700    17.751069  -0.38452513            0   -0.3379799 0.0043504693 
  254800    17.800547  -0.38466954            0  -0.33799457 0.0025605911 
  254900    17.698364  -0.38454721            0  -0.33814017 0.0088622591 
  255000    17.845373  -0.38496799            0  -0.33817548 0.0014830867 
  255100    17.589122  -0.38425729            0   -0.3381367 0.0017958391 
  255200    17.452055  -0.38394747            0  -0.33818629 0.00015309424 
  255300    17.438393  -0.38379398            0  -0.33806862 0.0021029536 
  255400    17.541055   -0.3839872            0  -0.33799265 0.0035655527 
  255500    17.735726  -0.38459924            0  -0.33809424 0.0024069231 
  255600    17.687229  -0.38431853            0  -0.33794069 0.0090183421 
  255700    17.908652  -0.38480784            0  -0.33784941  0.003874097 
  255800    17.941548  -0.38472951            0  -0.33768482 0.0046601625 
  255900    17.755119  -0.38444493            0  -0.33788908 0.0077214879 
  256000    17.625048  -0.38405969            0  -0.33784489 0.0033531475 
  256100     17.55731  -0.38400286            0  -0.33796568 0.0014224715 
  256200    17.630182  -0.38411939            0  -0.33789113 0.0038349571 
  256300    17.714479  -0.38436347            0  -0.33791418 0.0054393051 
  256400    17.911885  -0.38471851            0   -0.3377516 0.0007138603 
  256500    17.848759  -0.38453694            0  -0.33773555 0.0045001541 
  256600    17.876011  -0.38481956            0  -0.33794672 0.0044965778 
  256700    17.732321  -0.38435276            0  -0.33785669 0.0064407466 
  256800    17.746914  -0.38425691            0  -0.33772257 0.0035174094 
  256900    17.561015   -0.3840041            0  -0.33795721 0.0041939641 
  257000    17.506045  -0.38380781            0  -0.33790506 0.0068447719 
  257100     17.93041  -0.38481925            0  -0.33780376 0.00027267463 
  257200    17.780523  -0.38436605            0  -0.33774358 0.0097974872 
  257300    17.724999  -0.38430432            0  -0.33782745  0.005198813 
  257400     17.71532  -0.38424553            0  -0.33779403 -0.0011416822 
  257500    17.629223  -0.38398832            0  -0.33776258 0.0038315618 
  257600    17.824858     -0.38453            0  -0.33779128 0.0012765867 
  257700    17.915191  -0.38451616            0  -0.33754058 0.0048535435 
  257800    17.943048  -0.38477642            0  -0.33772779 0.0033176539 
  257900    17.799666  -0.38422187            0  -0.33754921 0.0025745553 
  258000      17.6876  -0.38404355            0  -0.33766474 0.0034490325 
  258100    17.837941   -0.3844994            0  -0.33772637 0.0033033196 
  258200    17.722164  -0.38429738            0  -0.33782794 0.0089545938 
  258300    17.898425  -0.38468751            0  -0.33775589 0.00079435885 
  258400    17.759138  -0.38428608            0  -0.33771969  0.003499793 
  258500    17.893415  -0.38466069            0  -0.33774221   0.00188902 
  258600     17.79532  -0.38447141            0  -0.33781014 0.0054878656 
  258700    17.689013  -0.38416697            0  -0.33778445 0.0080404728 
  258800    17.570768   -0.3837336            0  -0.33766114 0.0056608587 
  258900    17.684381  -0.38410614            0  -0.33773577 -0.0010198487 
  259000    17.649033  -0.38403292            0  -0.33775524 0.0048120882 
  259100    17.695731  -0.38401095            0  -0.33761082 0.0076322173 
  259200    17.717423  -0.38425013            0  -0.33779312 0.0029691973 
  259300    17.614892  -0.38396298            0  -0.33777482 0.0039297067 
  259400    17.776264  -0.38425003            0  -0.33763873 0.0020995226 
  259500    17.719234  -0.38427822            0  -0.33781646 0.0036398417 
  259600    17.593236  -0.38384631            0  -0.33771493 0.0021709267 
  259700    17.398268  -0.38331378            0  -0.33769362 0.0036803861 
  259800    17.377222   -0.3834135            0  -0.33784854  0.007180309 
  259900    17.616139  -0.38396819            0  -0.33777675 0.0010333551 
  260000    17.690727    -0.384112            0  -0.33772499 0.00035938206 
  260100    17.586396  -0.38405832            0  -0.33794488 0.0076785696 
  260200    17.562869  -0.38387212            0  -0.33782037 0.0067842386 
  260300    17.594066  -0.38406107            0  -0.33792752 -0.00052424308 
  260400    17.392797  -0.38331922            0  -0.33771341  0.004751961 
  260500    17.609987  -0.38395779            0  -0.33778249 -0.00084519979 
  260600     17.60486  -0.38384698            0  -0.33768513 0.0090914476 
  260700    17.894618   -0.3845394            0  -0.33761776 -0.0010474048 
  260800    17.579215  -0.38389149            0  -0.33779688 0.0053117031 
  260900    17.821242  -0.38436133            0   -0.3376321 0.0054341688 
  261000    17.905037  -0.38466565            0   -0.3377167 0.0073783922 
  261100    17.761428  -0.38449073            0  -0.33791833 0.0073781023 
  261200    17.825236  -0.38443447            0  -0.33769476 -0.00047953412 
  261300    17.537411  -0.38402756            0  -0.33804256 0.0027338814 
  261400    17.752395  -0.38430002            0  -0.33775131 0.0065459517 
  261500     18.00142  -0.38486743            0  -0.33766575  0.006288143 
  261600    17.960121  -0.38466318            0  -0.33756979 0.0063822259 
  261700    17.815397  -0.38439478            0  -0.33768088 0.00083259116 
  261800    17.712757   -0.3840406            0  -0.33759583  0.002817529 
  261900    17.667173    -0.384009            0  -0.33768375 0.0048789982 
  262000    17.825063  -0.38447074            0  -0.33773148 -0.0014861424 
  262100    17.495505  -0.38363609            0  -0.33776097 0.0084047907 
  262200    17.605709  -0.38407791            0  -0.33791382 0.0034485272 
  262300    17.633132  -0.38411914            0  -0.33788315 0.0006554827 
  262400     17.67529  -0.38424836            0  -0.33790183 0.0029731293 
  262500    17.649227  -0.38425746            0  -0.33797926 0.0062274051 
  262600    17.682558  -0.38438818            0  -0.33802259 0.0018900701 
  262700    17.465861  -0.38382276            0  -0.33802537 0.0040020138 
  262800    17.443579  -0.38381462            0  -0.33807566 0.0016982051 
  262900    17.743493  -0.38446912            0  -0.33794375 0.0010022292 
  263000    17.854931  -0.38462863            0  -0.33781106 0.0092486413 
  263100    17.964375  -0.38510105            0  -0.33799651 0.0074252628 
  263200    18.012288   -0.3853149            0  -0.33808472 0.0038036396 
  263300    17.946853   -0.3851549            0   -0.3380963 0.0044882042 
  263400    17.909695   -0.3851941            0  -0.33823294 0.0018309928 
  263500    17.655366  -0.38451902            0  -0.33822473 0.0070867763 
  263600    17.738545  -0.38461973            0  -0.33810734 0.0031964368 
  263700    17.559763  -0.38424612            0  -0.33820251 0.0067609027 
  263800    17.743816  -0.38446684            0  -0.33794063 0.0033023831 
  263900     17.79368  -0.38457948            0  -0.33792252 0.0040916806 
  264000    17.866841  -0.38485737            0  -0.33800857  0.004431923 
  264100    17.854628  -0.38488431            0  -0.33806753 0.0080223571 
  264200    17.813177   -0.3847609            0  -0.33805281  0.001320538 
  264300     17.55805  -0.38426011            0  -0.33822099 0.0020201808 
  264400    17.586045   -0.3842623            0  -0.33814977 0.0022891734 
  264500    17.650489   -0.3843694            0  -0.33808789 0.0035030633 
  264600    17.609946   -0.3842637            0  -0.33808851 0.0060943549 
  264700    17.742409  -0.38457642            0  -0.33805389 0.0039552792 
  264800    17.839261  -0.38482731            0  -0.33805083 0.0015675243 
  264900    17.751293  -0.38456432            0   -0.3380185  0.005257017 
  265000    17.597584  -0.38424285            0  -0.33810007 0.0079535279 
  265100     17.59402  -0.38412647            0  -0.33799303 0.0069516625 
  265200    17.542427   -0.3841523            0  -0.33815415 0.0023990509 
  265300    17.468142  -0.38407489            0  -0.33827152  0.002157196 
  265400     17.62139  -0.38442116            0  -0.33821596 0.0026454941 
  265500    17.670688  -0.38452626            0  -0.33819179 0.0034448003 
  265600    17.701374  -0.38450569            0  -0.33809077  0.002380355 
  265700    17.623112   -0.3841886            0  -0.33797888 0.0035458811 
  265800    17.464261  -0.38386848            0  -0.33807529 0.0051881918 
  265900    17.604364  -0.38400333            0  -0.33784277 0.0011008256 
  266000    17.630735  -0.38413285            0  -0.33790314 0.0037802772 
  266100     17.67665   -0.3845325            0   -0.3381824 0.0048112577 
  266200    17.773498  -0.38453608            0  -0.33793204 0.0021865624 
  266300    17.545371  -0.38408872            0  -0.33808285 0.0033611043 
  266400    17.637235   -0.3843977            0  -0.33815096 -0.00025176436 
  266500    17.631979   -0.3843491            0  -0.33811614 0.0065196219 
  266600     17.61802  -0.38432784            0  -0.33813148 0.0063674296 
  266700    17.468836  -0.38388972            0  -0.33808453 0.0031135951 
  266800    17.336918  -0.38353327            0  -0.33807398 0.0028361722 
  266900    17.378106  -0.38360473            0  -0.33803745 0.00015021212 
  267000    17.472437  -0.38372251            0  -0.33790788 0.0025385102 
  267100    17.540157  -0.38416926            0  -0.33817706 0.0064648148 
  267200    17.691932  -0.38435146            0  -0.33796129 0.0067423445 
  267300    17.671664  -0.38434175            0  -0.33800472 0.0036024989 
  267400    17.394891  -0.38375956            0  -0.33814826 0.0080736798 
  267500    17.508716  -0.38405522            0  -0.33814546 -0.00093506012 
  267600    17.540114  -0.38411597            0  -0.33812389 -0.00029520387 
  267700    17.567733  -0.38418678            0  -0.33812228 0.0071383233 
  267800    17.747711  -0.38466556            0  -0.33812913 0.0033023333 
  267900     17.68466  -0.38469161            0  -0.33832051 0.0030344669 
  268000    17.807922  -0.38489881            0   -0.3382045 0.0054308704 
  268100    17.859241  -0.38511928            0   -0.3382904 0.0048212852 
  268200    17.755573  -0.38484855            0  -0.33829151  0.001324576 
  268300    17.634115  -0.38459148            0  -0.33835291 0.0030470904 
  268400    17.769228  -0.38473561            0  -0.33814276 0.0021237469 
  268500    17.641059  -0.38438661            0  -0.33812983 0.0086401438 
  268600    17.800241   -0.3847468            0  -0.33807263 0.00085616096 
  268700    17.663512  -0.38443705            0   -0.3381214 0.0042096724 
  268800    17.366802  -0.38385923            0  -0.33832159  0.010599254 
  268900    17.465977  -0.38387251            0  -0.33807482 0.0016921447 
  269000    17.281348  -0.38365334            0  -0.33833977 0.0021568286 
  269100    17.389666  -0.38385441            0  -0.33825681 0.0038426935 
  269200    17.342626  -0.38374879            0  -0.33827454 0.0061630876 
  269300    17.461933  -0.38400828            0   -0.3382212 0.0061099038 
  269400    17.539132  -0.38416652            0  -0.33817701 0.0047885558 
  269500     17.44372  -0.38392764            0  -0.33818831  0.003946419 
  269600    17.352953  -0.38365301            0  -0.33815168 0.00094576914 
  269700    17.480607  -0.38392795            0  -0.33809189 -0.0020346439 
  269800    17.332935  -0.38357503            0  -0.33812619 0.0066119543 
  269900     17.40825  -0.38390825            0  -0.33826192 0.0031690233 
  270000    17.383032  -0.38389133            0  -0.33831113 0.0018784934 
  270100    17.156511   -0.3833449            0  -0.33835866 0.0095891174 
  270200    17.198005  -0.38346094            0  -0.33836591 0.0023321493 
  270300     17.22439  -0.38340354            0  -0.33823932 -0.0026517695 
  270400    17.148714  -0.38309393            0  -0.33812814 0.0048789909 
  270500    17.314464  -0.38366983            0  -0.33826943  0.004436937 
  270600    17.416403  -0.38373846            0  -0.33807076 0.0049808473 
  270700    17.486885  -0.38393909            0  -0.33808657  0.002017804 
  270800     17.35246  -0.38370108            0  -0.33820104 0.0028522263 
  270900    17.394989  -0.38375419            0  -0.33814264 0.0031419621 
  271000    17.472308  -0.38394357            0  -0.33812928 0.0060973725 
  271100    17.623203  -0.38424182            0  -0.33803187 0.0055640642 
  271200    17.505124  -0.38392549            0  -0.33802516 0.0065706617 
  271300    17.645634  -0.38422152            0  -0.33795275 -0.0018218231 
  271400    17.578328  -0.38404201            0  -0.33794972 0.0038743657 
  271500     17.80129   -0.3845415            0  -0.33786459 0.0035980831 
  271600    17.644526  -0.38446138            0  -0.33819551 0.0043477582 
  271700    17.599573  -0.38407239            0   -0.3379244 0.0024011159 
  271800    17.586011  -0.38411143            0    -0.337999 0.0010742762 
  271900     17.70601   -0.3845518            0  -0.33812472 0.0013378777 
  272000    17.787222  -0.38468526            0  -0.33804523 0.0070264803 
  272100    17.730778  -0.38465818            0  -0.33816615 0.0099258314 
  272200    17.942262  -0.38502045            0  -0.33797389 0.00068783658 
  272300    17.486985  -0.38386575            0  -0.33801297 0.0085566088 
  272400    17.587249  -0.38417718            0   -0.3380615 -2.5226713e-05 
  272500    17.479985  -0.38388576            0  -0.33805134 -0.0007917874 
  272600    17.521102  -0.38393455            0  -0.33799231 0.0042308826 
  272700     17.42888  -0.38383516            0  -0.33813474 0.0043014958 
  272800    17.344586  -0.38364645            0  -0.33816706 -0.00035399707 
  272900    17.429567  -0.38376424            0  -0.33806202 0.00025082947 
  273000    17.515341  -0.38401067            0  -0.33808354 0.0044982603 
  273100     17.57906  -0.38407082            0  -0.33797661 0.0037473753 
  273200    17.499016  -0.38371741            0  -0.33783309 0.0036963397 
  273300    17.561726  -0.38399555            0   -0.3379468 0.0056051913 
  273400    17.542327  -0.38391448            0  -0.33791659 0.0055831574 
  273500    17.627406  -0.38420038            0  -0.33797941 0.00022476208 
  273600    17.792061   -0.3845903            0  -0.33793758 0.0031436972 
  273700    17.697604  -0.38438472            0  -0.33797968 0.0087605656 
  273800    17.933933  -0.38479814            0  -0.33777341 -0.0023438756 
  273900    17.797784   -0.3843646            0  -0.33769687 0.0065070767 
  274000    17.906735  -0.38474467            0  -0.33779126 0.0037770734 
  274100    17.700243  -0.38402986            0  -0.33761789 0.0017319749 
  274200    17.695294  -0.38411907            0  -0.33772009 0.0012034737 
  274300    17.746976  -0.38414248            0  -0.33760798 0.0081529305 
  274400    17.689648  -0.38418073            0  -0.33779655 0.0057820701 
  274500    17.805764  -0.38446208            0  -0.33777343 -0.0018349428 
  274600    17.514232  -0.38377585            0  -0.33785163 0.0090280889 
  274700    17.682655  -0.38447721            0  -0.33811136 0.0051102244 
  274800    17.818844  -0.38468977            0  -0.33796682 0.0022288985 
  274900    17.813812  -0.38466169            0  -0.33795194 0.0053048279 
  275000    17.823704  -0.38475799            0  -0.33802229 0.0024881346 
  275100    17.793856   -0.3844798            0  -0.33782237 0.00098503348 
  275200    17.901644  -0.38472504            0  -0.33778498 0.0021774493 
  275300    17.978518  -0.38492569            0  -0.33778406 0.0040035414 
  275400      17.8922  -0.38466685            0  -0.33775156 0.0068088701 
  275500    17.906077   -0.3847564            0  -0.33780472 0.0021197742 
  275600    17.905795  -0.38482757            0  -0.33787663  0.000378192 
  275700    17.912039  -0.38478105            0  -0.33781374 0.0033278796 
  275800    17.919809  -0.38480811            0  -0.33782043 0.0064875261 
  275900     18.05753   -0.3851265            0   -0.3377777 0.0031412624 
  276000     17.89843  -0.38464837            0  -0.33771674 0.0076041523 
  276100    17.959923   -0.3848295            0  -0.33773663 0.00062898306 
  276200    17.975539  -0.38479526            0  -0.33766144 0.0022212479 
  276300    17.881161  -0.38452646            0  -0.33764011  0.007066209 
  276400    17.838321  -0.38443193            0  -0.33765791 0.0036610825 
  276500    17.864494  -0.38437458            0  -0.33753194 -0.00050801652 
  276600    17.581396   -0.3836546            0  -0.33755426 0.0046562293 
  276700    17.532391  -0.38367712            0  -0.33770529 0.0030001618 
  276800    17.722811  -0.38415309            0  -0.33768196 3.1526332e-08 
  276900    17.712274  -0.38432358            0  -0.33788007 0.0055690319 
  277000     17.73529  -0.38441715            0  -0.33791329 0.0053794333 
  277100    17.744966  -0.38447685            0  -0.33794762 0.0033315349 
  277200    17.552559  -0.38404398            0  -0.33801926 0.0048324957 
  277300     17.53504  -0.38396853            0  -0.33798975  0.005107272 
  277400    17.579963  -0.38395867            0   -0.3378621 0.0058031163 
  277500    17.644279  -0.38414083            0  -0.33787561 0.0015017562 
  277600    17.592148  -0.38399112            0  -0.33786259 0.0026456298 
  277700    17.759347  -0.38428064            0   -0.3377137 0.0013487605 
  277800    17.646017  -0.38409836            0  -0.33782859 0.0031171932 
  277900    17.723776  -0.38420626            0  -0.33773259 0.00091730623 
  278000    17.642856  -0.38409977            0  -0.33783829 0.0062766757 
  278100    17.751405  -0.38451026            0  -0.33796414   0.00429566 
  278200     17.66729  -0.38426105            0  -0.33793549 0.0047871229 
  278300    17.369653  -0.38359849            0  -0.33805337 0.0050915279 
  278400    17.448555  -0.38387273            0  -0.33812072 -0.0016667107 
  278500    17.363492  -0.38370447            0  -0.33817551 0.0061541529 
  278600     17.50046  -0.38387782            0  -0.33798971 0.0060730423 
  278700    17.650106  -0.38414649            0  -0.33786599 -0.00034451644 
  278800    17.446093  -0.38355675            0   -0.3378112 0.0064416626 
  278900    17.385297  -0.38369321            0  -0.33810707 0.0021107783 
  279000    17.421939  -0.38354598            0  -0.33786376 0.0016714057 
  279100    17.687801  -0.38423277            0  -0.33785343 0.00022483656 
  279200    17.534423  -0.38386312            0  -0.33788595 0.0095742834 
  279300    17.683081  -0.38432223            0  -0.33795527 0.0010739658 
  279400    17.602026  -0.38404475            0  -0.33789032 0.0035712755 
  279500    17.507925  -0.38393627            0  -0.33802859  0.006957119 
  279600    17.469307  -0.38386794            0  -0.33806152 -0.001687328 
  279700    17.258207  -0.38347147            0  -0.33821857 -0.00056533671 
  279800    17.445204  -0.38383979            0  -0.33809657 0.0021874341 
  279900    17.397119  -0.38382395            0  -0.33820681 0.0058653864 
  280000    17.492493  -0.38402707            0  -0.33815985 3.6722986e-05 
  280100    17.463502  -0.38390906            0  -0.33811786 0.0040675883 
  280200     17.57424  -0.38411792            0  -0.33803635 0.0047927055 
  280300    17.605647  -0.38430036            0  -0.33813644 0.0030680226 
  280400    17.592199   -0.3843294            0  -0.33820074 0.0030790241 
  280500    17.777312  -0.38471542            0  -0.33810138 0.0016684559 
  280600    17.657359  -0.38445198            0  -0.33815246 0.0057683575 
  280700    17.685854  -0.38451485            0  -0.33814061 0.00047074978 
  280800    17.396127  -0.38378998            0  -0.33817544  0.005726203 
  280900      17.5264  -0.38409659            0  -0.33814046 -0.00018787278 
  281000    17.392872  -0.38358002            0  -0.33797402 0.0065873968 
  281100    17.859161  -0.38477382            0  -0.33794515 -0.00079356413 
  281200    17.835466  -0.38480913            0   -0.3380426 0.0079636408 
  281300    17.582891   -0.3840692            0  -0.33796495  0.010501342 
  281400    17.622289  -0.38403006            0   -0.3378225 -0.0026447667 
  281500    17.420199  -0.38357839            0  -0.33790073 0.0019728622 
  281600    17.398265  -0.38355954            0   -0.3379394 0.0065230347 
  281700    17.584033  -0.38400781            0  -0.33790057 0.0042112173 
  281800    17.727172  -0.38427222            0  -0.33778965 0.0040799243 
  281900    17.795244  -0.38437024            0  -0.33770917 0.0065874682 
  282000    17.779547  -0.38452308            0  -0.33790317 0.0040652513 
  282100    17.720199  -0.38424758            0  -0.33778329 0.00013412235 
  282200    17.515525  -0.38378256            0  -0.33785495 0.0031628589 
  282300    17.631994  -0.38406438            0  -0.33783137 0.0039053157 
  282400    17.773255  -0.38452907            0  -0.33792566 0.0030943888 
  282500    17.985884  -0.38496394            0  -0.33780299 0.0013970443 
  282600    17.786803  -0.38449756            0  -0.33785863 0.0073566866 
  282700    17.781247   -0.3845602            0  -0.33793584 0.0053136255 
  282800    17.965739   -0.3849299            0  -0.33782178  0.001913141 
  282900    17.848781  -0.38471779            0  -0.33791634 0.0016669701 
  283000    17.741589  -0.38447097            0  -0.33795059 0.0045589843 
  283100    17.794889  -0.38471855            0  -0.33805842 0.0027564901 
  283200    17.825031  -0.38466979            0  -0.33793062  0.003179169 
  283300    17.575126  -0.38402141            0  -0.33793752 0.0086542183 
  283400    17.617977  -0.38420311            0  -0.33800686 0.00013955037 
  283500    17.612467  -0.38422729            0  -0.33804549 0.0046520754 
  283600    17.652937  -0.38424422            0   -0.3379563 0.0092404213 
  283700    17.815306  -0.38460802            0  -0.33789435 0.0025130899 
  283800    17.780386  -0.38453964            0  -0.33791754 0.0026907245 
  283900    17.552687  -0.38391908            0  -0.33789402 0.0083695328 
  284000    17.613217  -0.38391747            0   -0.3377337 -0.0014721645 
  284100    17.486047  -0.38371899            0  -0.33786868 -0.00077079237 
  284200    17.548251  -0.38385845            0  -0.33784503 0.0039341704 
  284300    17.629699  -0.38395803            0  -0.33773104 0.0067418609 
  284400    17.744196  -0.38425536            0  -0.33772815 0.0024159676 
  284500    17.609407  -0.38416766            0  -0.33799388 0.0027894097 
  284600    17.609976  -0.38401528            0  -0.33784001 0.0024263324 
  284700    17.759528  -0.38448126            0  -0.33791384 0.0015208792 
  284800    17.764574  -0.38442259            0  -0.33784194 0.0030140402 
  284900    17.707851  -0.38453434            0  -0.33810243 0.0034029515 
  285000    17.545423  -0.38392117            0  -0.33791516 0.0070459237 
  285100    17.624132  -0.38416605            0  -0.33795366 0.00093218803 
  285200    17.541418   -0.3840082            0  -0.33801269 0.0033833502 
  285300    17.719457  -0.38446229            0  -0.33799995 0.00034219202 
  285400     17.82304  -0.38486149            0  -0.33812754 0.0045178748 
  285500    17.804056  -0.38470232            0  -0.33801815 0.0056976221 
  285600    17.560723  -0.38422565            0  -0.33817953 0.0015953968 
  285700    17.425949  -0.38378954            0  -0.33809681 0.00066842252 
  285800     17.43519  -0.38389112            0  -0.33817415  0.005823523 
  285900    17.572974  -0.38414312            0  -0.33806487 0.0033567025 
  286000    17.670873  -0.38432014            0  -0.33798519 0.0022555713 
  286100    17.727195  -0.38440226            0  -0.33791962 0.0063400181 
  286200    17.728379  -0.38461792            0  -0.33813218 0.0071580064 
  286300    17.674698  -0.38427268            0   -0.3379277 0.0029309201 
  286400    17.724034  -0.38444191            0  -0.33796757 0.00036371511 
  286500    17.880597  -0.38484083            0  -0.33795596 0.00016562605 
  286600    17.976139  -0.38501811            0  -0.33788272 0.0027308784 
  286700    18.033375  -0.38512307            0   -0.3378376 0.00066881661 
  286800    17.967361  -0.38488094            0  -0.33776857 0.0040107109 
  286900    17.844208  -0.38461432            0  -0.33782486 0.0077362518 
  287000    17.987578  -0.38490054            0  -0.33773515 -1.1946743e-05 
  287100    17.729989     -0.38437            0  -0.33788004 0.0080120299 
  287200    17.913213  -0.38476494            0  -0.33779455  0.002524757 
  287300    17.852877  -0.38460925            0  -0.33779707 0.0053003175 
  287400    17.734604  -0.38446499            0  -0.33796293 0.0086793681 
  287500    17.875178   -0.3846508            0  -0.33778014 0.00032159164 
  287600    17.778098  -0.38452888            0  -0.33791277 -0.00037753114 
  287700    17.867552  -0.38471562            0  -0.33786496 0.0049229711 
  287800    17.848075  -0.38462849            0   -0.3378289 0.0055977424 
  287900     17.77655  -0.38446695            0   -0.3378549 0.0031456864 
  288000    17.907155  -0.38463026            0  -0.33767575 0.0010469842 
  288100    17.595931  -0.38397707            0  -0.33783862  0.010988601 
  288200    17.883203  -0.38457949            0  -0.33768779 0.0061424803 
  288300       17.898  -0.38471714            0  -0.33778664 0.0024428358 
  288400    17.739402   -0.3843592            0  -0.33784456 0.0031956049 
  288500    17.675151  -0.38432385            0  -0.33797769 0.0018580998 
  288600    17.492102  -0.38390494            0  -0.33803875 0.0032544372 
  288700    17.473365  -0.38371321            0  -0.33789615 0.0037677794 
  288800    17.556163  -0.38400377            0   -0.3379696 0.0043774608 
  288900    17.864698  -0.38484231            0  -0.33799913 0.0048296201 
  289000    17.873899  -0.38481981            0   -0.3379525 0.0064240267 
  289100     17.65205  -0.38422452            0  -0.33793892 0.0089784331 
  289200    17.637953  -0.38424165            0  -0.33799302 -0.0013307993 
  289300    17.654183  -0.38417334            0  -0.33788215 -0.0027336939 
  289400    17.766021  -0.38458263            0  -0.33799819 0.0056819778 
  289500    17.743077  -0.38453549            0  -0.33801121 0.0053987521 
  289600    17.639814   -0.3844372            0  -0.33818369 -0.0018666541 
  289700    17.511799  -0.38398342            0  -0.33806558 0.0043839117 
  289800    17.632521  -0.38431749            0   -0.3380831 0.0049322353 
  289900       17.802  -0.38473092            0  -0.33805215 0.00086440072 
  290000    17.704627   -0.3844331            0  -0.33800965 0.0081904256 
  290100      17.7512  -0.38450749            0  -0.33796192 0.0065580736 
  290200    17.752997  -0.38455376            0  -0.33800347 0.0014860449 
  290300    17.761114  -0.38463236            0  -0.33806079 0.00041259915 
  290400    17.645624   -0.3843755            0  -0.33810675 0.0032301293 
  290500    17.719404  -0.38458132            0  -0.33811912 0.0024250975 
  290600    17.907326  -0.38506262            0  -0.33810766 0.0047967946 
  290700    17.938281  -0.38507828            0  -0.33804216 0.0048108355 
  290800    17.808989  -0.38462151            0   -0.3379244 0.0032474872 
  290900      17.5919  -0.38422924            0  -0.33810136 0.0033339281 
  291000    17.809007  -0.38468407            0  -0.33798691 -9.0221194e-05 
  291100    17.809846   -0.3847333            0  -0.33803395 0.0073346895 
  291200    17.806675  -0.38469759            0  -0.33800655    0.0053795 
  291300    17.817508  -0.38468916            0  -0.33796972  -0.00449285 
  291400    17.537972  -0.38394417            0   -0.3379577 0.0046653285 
  291500    17.660154  -0.38423083            0  -0.33792398 0.0030612985 
  291600    17.583004  -0.38415471            0  -0.33805016 0.0068546553 
  291700    18.047244  -0.38516108            0  -0.33783924 -0.00069539468 
  291800    17.805664  -0.38461081            0  -0.33792242 0.0090207141 
  291900    17.869813  -0.38467302            0  -0.33781643 0.0062672327 
  292000    17.831036  -0.38458032            0   -0.3378254 -0.00014397558 
  292100    17.523081  -0.38388642            0  -0.33793899 0.0055412822 
  292200    17.639474  -0.38419433            0  -0.33794171 0.0042792932 
  292300    17.744127  -0.38441144            0  -0.33788441 -0.00046825545 
  292400    17.471626  -0.38392394            0  -0.33811144 0.0073961682 
  292500    17.656944  -0.38413366            0  -0.33783524 0.0078001946 
  292600    17.803412  -0.38456198            0   -0.3378795 0.0035060748 
  292700     17.75848  -0.38443365            0  -0.33786899 -0.00058842242 
  292800    17.468518  -0.38373543            0  -0.33793107 0.0025218927 
  292900    17.613597  -0.38401176            0  -0.33782699 2.5218609e-05 
  293000    17.559667  -0.38392948            0  -0.33788612 0.0080139694 
  293100    17.921466  -0.38476278            0  -0.33777075 0.0054455065 
  293200    17.744637   -0.3845759            0  -0.33804753 0.0078660496 
  293300    17.800403  -0.38452668            0  -0.33785208 0.00085518822 
  293400    17.736588  -0.38439221            0  -0.33788494 0.0026649303 
  293500    17.792332  -0.38449385            0  -0.33784042 0.0012847414 
  293600    17.872665  -0.38475899            0  -0.33789491 0.0051741867 
  293700    18.059142  -0.38528173            0   -0.3379287 0.0072743485 
  293800    18.151265  -0.38542941            0  -0.33783482 0.00082760657 
  293900     17.80766  -0.38464284            0  -0.33794922 0.0043559479 
  294000     17.93522  -0.38472901            0  -0.33770092 0.0045484556 
  294100     18.01016  -0.38489102            0  -0.33766642 0.0010287972 
  294200    17.808188  -0.38449009            0  -0.33779508  0.006415678 
  294300    17.782752  -0.38440907            0  -0.33778077 0.0019342807 
  294400    17.454802  -0.38363016            0  -0.33786177 0.0043334297 
  294500    17.524586  -0.38389659            0  -0.33794522 -5.4597432e-05 
  294600    17.669383  -0.38428281            0  -0.33795176 0.0013510051 
  294700    17.857396   -0.3847781            0  -0.33795407 0.0035780054 
  294800    17.772435   -0.3846924            0  -0.33809114 0.0074218639 
  294900    17.662849  -0.38440875            0  -0.33809484  0.005741556 
  295000    17.642122  -0.38423361            0  -0.33797405 0.00087335709 
  295100     17.56249  -0.38403064            0  -0.33797988 -0.00027154817 
  295200    17.468652  -0.38381313            0  -0.33800842 0.0045991384 
  295300    17.355078  -0.38343007            0  -0.33792316 0.0069175644 
  295400    17.555424  -0.38395292            0  -0.33792069 -0.00067074554 
  295500    17.692228  -0.38419566            0  -0.33780471 -0.0002083738 
  295600    17.506825  -0.38367704            0  -0.33777224 0.0054698442 
  295700    17.494256  -0.38385729            0  -0.33798545 0.00066382132 
  295800    17.571915   -0.3838882            0  -0.33781273 0.0026337355 
  295900    17.678592  -0.38414663            0  -0.33779144 0.0030318711 
  296000    17.634626   -0.3841548            0  -0.33791489 0.0012686989 
  296100    17.733283  -0.38437188            0  -0.33787328 0.00081126808 
  296200    17.666317   -0.3843255            0  -0.33800249 0.0059780077 
  296300     17.69321  -0.38440141            0  -0.33800789 0.0022616655 
  296400    17.660016  -0.38437808            0   -0.3380716 0.0034583156 
  296500    17.913949  -0.38491401            0  -0.33794169 0.0046936286 
  296600    17.905133  -0.38487716            0  -0.33792796 0.0099041248 
  296700    17.953028  -0.38480924            0  -0.33773445 0.0057586063 
  296800    17.881115  -0.38465284            0  -0.33776661 0.0037358767 
  296900    18.005689  -0.38492813            0  -0.33771526 0.0021837942 
  297000    17.927386  -0.38473717            0  -0.33772961 0.0074007035 
  297100    18.089377  -0.38531969            0  -0.33788737 -0.00010696693 
  297200    18.079348  -0.38528307            0  -0.33787705 0.0032563839 
  297300     18.04736  -0.38522158            0  -0.33789944 0.0058592477 
  297400    17.972678  -0.38512361            0  -0.33799729 0.0021217276 
  297500    17.848338  -0.38488816            0  -0.33808788 0.0039349908 
  297600     17.99639  -0.38525002            0  -0.33806153 0.0036603792 
  297700    18.085329  -0.38546369            0  -0.33804199 0.0030972578 
  297800    17.934618  -0.38510729            0  -0.33808077 0.0051881515 
  297900    17.900782  -0.38504123            0  -0.33810343 0.0030525754 
  298000    17.901956   -0.3850683            0  -0.33812743 0.0034732192 
  298100    18.040189  -0.38552204            0   -0.3382187 0.0049682862 
  298200    18.115224  -0.38575404            0  -0.33825396 0.0038719507 
  298300    18.007028  -0.38546956            0  -0.33825317 0.0028878928 
  298400    17.835579  -0.38501027            0  -0.33824344 0.0054226332 
  298500    17.838222  -0.38504351            0  -0.33826975 0.0017413888 
  298600    17.828411  -0.38487329            0  -0.33812526 0.0013992141 
  298700    17.780046  -0.38471493            0  -0.33809372 0.0019388271 
  298800    17.778396  -0.38475053            0  -0.33813364 0.0047233668 
  298900    18.079972  -0.38554807            0  -0.33814042  0.002505887 
  299000      18.0413  -0.38550615            0   -0.3381999  0.004534175 
  299100    18.277405   -0.3860964            0  -0.33817106 0.0029416092 
  299200     18.16163  -0.38579615            0  -0.33817438   0.01059231 
  299300     18.35401  -0.38624699            0  -0.33812078 0.00066398776 
  299400    18.005768  -0.38540816            0  -0.33819508 0.0041977838 
  299500     17.95687  -0.38524305            0  -0.33815818 0.00018352649 
  299600    17.767173  -0.38494598            0  -0.33835852 0.0065917867 
  299700     18.03744  -0.38571748            0  -0.33842135 0.0048310437 
  299800    18.137215  -0.38590208            0  -0.33834433 0.0018453467 
  299900      17.7537  -0.38489384            0  -0.33834171 0.0043521585 
  300000    17.801673  -0.38502653            0   -0.3383486 -0.0004928726 
  300100    17.815168  -0.38496539            0  -0.33825208 0.0061148591 
  300200    17.809019  -0.38502838            0   -0.3383312 0.0058448147 
  300300    17.741926  -0.38481054            0  -0.33828928 0.0015042911 
  300400    17.679668  -0.38445908            0  -0.33810107 0.0022821488 
  300500    17.984316  -0.38518863            0   -0.3380318 0.0027326805 
  300600    17.871418  -0.38486363            0  -0.33800283 0.0081375971 
  300700    17.760328  -0.38466105            0  -0.33809154 0.0032625675 
  300800    17.673874  -0.38442533            0   -0.3380825 0.0011878702 
  300900    17.743031  -0.38463001            0  -0.33810585 0.0045297971 
  301000    17.633393  -0.38450302            0  -0.33826634 0.0085713356 
  301100    17.859549  -0.38512509            0  -0.33829541 -0.0027452697 
  301200    17.674352  -0.38470234            0  -0.33835827 0.0042943908 
  301300    17.756562  -0.38488075            0  -0.33832112 0.0017076019 
  301400    17.795316  -0.38498477            0  -0.33832352 0.0030974488 
  301500    17.858223   -0.3850251            0  -0.33819889 0.0034187955 
  301600    17.719968  -0.38486622            0  -0.33840254  0.001847348 
  301700    17.580173  -0.38440869            0  -0.33831157 0.0043570155 
  301800    17.448767  -0.38394549            0  -0.33819293 0.0075980932 
  301900     17.57187  -0.38430177            0  -0.33822641 -0.00034673505 
  302000    17.689394  -0.38458082            0  -0.33819731 -0.0021226264 
  302100    17.612184  -0.38437671            0  -0.33819565 0.0037329488 
  302200    17.629669   -0.3843458            0  -0.33811889 0.0021542668 
  302300    17.645997  -0.38424164            0  -0.33797191 0.0057097473 
  302400    17.665618  -0.38426855            0  -0.33794737 0.0048962169 
  302500    17.782164  -0.38460696            0   -0.3379802 -0.00014012861 
  302600    17.851805  -0.38474996            0  -0.33794059 0.0065394492 
  302700    17.921395  -0.38485949            0  -0.33786765 0.0051974643 
  302800    17.839737  -0.38469129            0  -0.33791357 -0.00023380989 
  302900    17.726153  -0.38425727            0  -0.33777737 0.0028411475 
  303000    17.821876  -0.38473396            0  -0.33800306 0.0050920979 
  303100    17.855002  -0.38484368            0  -0.33802593  0.004181333 
  303200    17.780118  -0.38470487            0  -0.33808347  0.005581395 
  303300    17.853832  -0.38481552            0  -0.33800083 0.0050415012 
  303400    17.852919  -0.38480082            0  -0.33798853 7.9622469e-05 
  303500    17.575363   -0.3841766            0  -0.33809208 0.0028054022 
  303600    17.760808  -0.38466449            0  -0.33809372 0.0028379192 
  303700    17.692881   -0.3844042            0  -0.33801154  0.008185556 
  303800    17.767308  -0.38461903            0  -0.33803122 0.0021328665 
  303900    17.665338  -0.38440034            0   -0.3380799 -0.0010633954 
  304000    17.415994   -0.3838264            0  -0.33815977 0.0041502915 
  304100    17.501039  -0.38409948            0  -0.33820986 0.00015639272 
  304200    17.515133  -0.38420497            0  -0.33827838 0.0042859143 
  304300    17.793487  -0.38500887            0  -0.33835241 0.0031001289 
  304400    17.827941  -0.38506646            0  -0.33831966 0.0066868995 
  304500    17.662904  -0.38467013            0  -0.33835607 0.0045642446 
  304600    17.443903  -0.38418065            0  -0.33844084 0.0029545547 
  304700    17.381279  -0.38380613            0  -0.33823053 0.0028733658 
  304800    17.651482  -0.38442689            0  -0.33814278 0.0027871435 
  304900    17.711796  -0.38452023            0  -0.33807797 0.0083881295 
  305000    17.796528  -0.38481868            0  -0.33815425 0.0028220149 
  305100    17.854318  -0.38474537            0  -0.33792941 0.0011132809 
  305200    17.808655  -0.38444927            0  -0.33775304 0.0054420776 
  305300    17.704979  -0.38435005            0  -0.33792567  0.011569782 
  305400    18.092214  -0.38522243            0  -0.33778268  0.001114787 
  305500    17.772512  -0.38455474            0  -0.33795328 0.0068920573 
  305600    17.871643  -0.38476881            0  -0.33790742 0.0029568347 
  305700    17.548333  -0.38397536            0  -0.33796172 0.0051511803 
  305800    17.563607  -0.38402001            0  -0.33796632 -1.8457947e-05 
  305900    17.604259  -0.38418442            0  -0.33802414 -0.0010568779 
  306000    17.515705  -0.38392582            0  -0.33799774 0.0040887525 
  306100    17.637177  -0.38396588            0  -0.33771928 0.0051969778 
  306200    17.889008  -0.38452045            0  -0.33761353 0.00087660892 
  306300    17.752825  -0.38423475            0  -0.33768492 0.0060040316 
  306400    17.803239  -0.38426556            0  -0.33758353 0.0010100956 
  306500    17.670547  -0.38399673            0  -0.33766263 0.0027949969 
  306600    17.702872  -0.38432096            0  -0.33790211 0.0038708076 
  306700    17.705777  -0.38418115            0  -0.33775468 0.0054199828 
  306800    17.830032  -0.38454312            0  -0.33779084 -0.0028792002 
  306900    17.431335  -0.38371266            0  -0.33800581 0.0069240213 
  307000    17.707073  -0.38411797            0   -0.3376881 -0.001045748 
  307100    17.797196   -0.3843397            0  -0.33767351 0.0037347014 
  307200    17.897037  -0.38463235            0  -0.33770437 0.0054793388 
  307300    17.878525  -0.38469111            0  -0.33781167 0.0043251423 
  307400    17.888166  -0.38456451            0  -0.33765979 0.0073663731 
  307500    17.980539  -0.38490315            0  -0.33775622 0.0023727623 
  307600    17.770201  -0.38430838            0  -0.33771298 0.0070879496 
  307700     18.04138  -0.38508483            0  -0.33777837 0.0012247747 
  307800    17.956321  -0.38489336            0  -0.33780993 0.0057020991 
  307900    17.896473  -0.38473532            0  -0.33780882 0.0018546376 
  308000    17.670367  -0.38418793            0   -0.3378543 0.0025478807 
  308100    17.579709  -0.38397865            0  -0.33788274 0.0023537667 
  308200    17.930584  -0.38481204            0   -0.3377961 -0.0012852557 
  308300    18.061329  -0.38517743            0  -0.33781866  0.005837363 
  308400    18.324636  -0.38585476            0  -0.33780557 0.0066129842 
  308500    18.159792  -0.38550922            0  -0.33789227 0.0095738645 
  308600    18.089408  -0.38521632            0  -0.33778392 0.0021588154 
  308700    17.654806   -0.3842028            0  -0.33790998 0.0031897023 
  308800    17.669548    -0.384274            0  -0.33794252 -0.00043727201 
  308900    17.802518  -0.38460904            0   -0.3379289  0.000847025 
  309000    17.814213  -0.38464535            0  -0.33793454 0.0023052971 
  309100    17.877111  -0.38468471            0  -0.33780897 0.0049235744 
  309200    18.024383  -0.38511299            0  -0.33785109 0.0085241869 
  309300    18.139444  -0.38522407            0  -0.33766048 0.0045170489 
  309400    18.279203  -0.38560802            0  -0.33767796 0.0013368601 
  309500    18.180401  -0.38543647            0  -0.33776548 0.0048705744 
  309600    18.121734  -0.38535213            0  -0.33783497 0.0057469012 
  309700    18.156045  -0.38546251            0  -0.33785538 0.0013296936 
  309800    17.992164  -0.38522493            0  -0.33804752 0.0036744324 
  309900    18.014474  -0.38513332            0  -0.33789741 0.0056428168 
  310000    18.200504  -0.38555347            0  -0.33782977 0.0033228452 
  310100    18.212882  -0.38568223            0  -0.33792607 0.0085243468 
  310200    18.288539  -0.38572655            0  -0.33777201 0.0028886871 
  310300     18.18449  -0.38541083            0  -0.33772911 0.0038101723 
  310400    18.200687  -0.38543949            0  -0.33771531 0.0034695798 
  310500    18.239791  -0.38559817            0  -0.33777145 0.0034191091 
  310600    18.102654  -0.38547403            0  -0.33800691 0.0047562649 
  310700    18.280748  -0.38579269            0  -0.33785858 -0.00079990371 
  310800    18.100679  -0.38530242            0  -0.33784047 0.0063476786 
  310900    18.171793  -0.38549552            0   -0.3378471 0.0027015003 
  311000    18.237917  -0.38553873            0  -0.33771693 0.00079140047 
  311100    18.149415  -0.38550816            0  -0.33791842 0.0046465596 
  311200    18.001579  -0.38490154            0  -0.33769944 0.0027579139 
  311300    18.169665  -0.38528308            0  -0.33764024 -0.0060172362 
  311400    18.105548  -0.38510924            0  -0.33763452 0.0055432679 
  311500    18.470473  -0.38605683            0  -0.33762524 0.0018773544 
  311600    18.264316  -0.38536183            0  -0.33747081  0.010888171 
  311700    18.378221   -0.3858011            0   -0.3376114 0.0074599639 
  311800    18.172401  -0.38510488            0  -0.33745487 0.0050050333 
  311900    18.117681  -0.38494519            0  -0.33743866 -0.00034785449 
  312000    18.084552  -0.38500893            0  -0.33758927 0.00011476858 
  312100    18.048304  -0.38507937            0  -0.33775476 0.0055988731 
  312200    18.067206  -0.38496739            0  -0.33759321 0.0015919052 
  312300    17.767705  -0.38440842            0  -0.33781956 0.0023090853 
  312400    17.834318  -0.38467335            0  -0.33790983 0.0026818012 
  312500    17.837349  -0.38466442            0  -0.33789295 0.0063322887 
  312600     17.87104  -0.38493263            0  -0.33807282 0.00020530271 
  312700    17.932575  -0.38502347            0  -0.33800231 -0.0016775889 
  312800    17.961058  -0.38501328            0  -0.33791743 0.0037322919 
  312900     18.23814  -0.38553851            0  -0.33771612 0.0063744582 
  313000    18.291929  -0.38555715            0  -0.33759372 0.0050313547 
  313100    18.302427  -0.38566508            0  -0.33767413 0.0030480745 
  313200    18.067088  -0.38490892            0  -0.33753505 0.0081068424 
  313300    17.929444  -0.38478689            0  -0.33777394 0.0053065071 
  313400    17.836602  -0.38469533            0  -0.33792582 0.0047836973 
  313500    18.157963  -0.38562627            0  -0.33801412 0.00013942531 
  313600    17.924833    -0.384945            0  -0.33794414  0.010429004 
  313700    17.835274   -0.3847835            0  -0.33801747 0.0071958428 
  313800    17.927148   -0.3848754            0  -0.33786846 -0.00011389875 
  313900    17.899391   -0.3847335            0  -0.33779935 -8.1325914e-05 
  314000    17.954965   -0.3850309            0  -0.33795103 0.0072736249 
  314100    18.198709  -0.38547673            0  -0.33775774 0.0055396329 
  314200    18.216487  -0.38542307            0  -0.33765746 0.0024046131 
  314300    17.959892  -0.38485421            0  -0.33776142 0.0042877483 
  314400    18.023197  -0.38495049            0  -0.33769171 0.00068103383 
  314500    18.014659  -0.38501334            0  -0.33777695 0.0061410001 
  314600    18.053118  -0.38507037            0  -0.33773313  0.010146094 
  314700    18.184291   -0.3854538            0  -0.33777261 0.0017184769 
  314800    18.098015  -0.38533267            0  -0.33787771 0.0016455441 
  314900    18.042392  -0.38534412            0  -0.33803501 0.0024134805 
  315000    17.909889  -0.38499793            0  -0.33803625 0.0062505679 
  315100    17.964425  -0.38515972            0  -0.33805504 0.0066235295 
  315200    18.029491   -0.3853673            0  -0.33809201 0.0071203024 
  315300    17.959678  -0.38521128            0  -0.33811905  0.007656626 
  315400    18.039791  -0.38517807            0  -0.33787578 0.0014966365 
  315500    17.769458  -0.38443218            0  -0.33783873 0.0027954287 
  315600    17.835361  -0.38460084            0  -0.33783458 -0.0010618018 
  315700    17.812814  -0.38441051            0  -0.33770337 0.0058929929 
  315800    17.884101  -0.38477562            0  -0.33788156 0.0043968063 
  315900    17.874452  -0.38479728            0  -0.33792852 0.0038981728 
  316000    17.741644  -0.38442709            0  -0.33790657 0.0053980359 
  316100    17.742344   -0.3844288            0  -0.33790645 0.0046409766 
  316200    17.697279  -0.38424874            0  -0.33784455 0.0045109927 
  316300    17.650202  -0.38415005            0  -0.33786931 0.0045857934 
  316400     17.73931  -0.38425777            0  -0.33774337 0.0023103317 
  316500    17.653694  -0.38398154            0  -0.33769163 0.0025534073 
  316600     17.79608  -0.38453114            0  -0.33786788 0.00086964483 
  316700    17.845245  -0.38462197            0   -0.3378298 0.0042587591 
  316800    17.712197  -0.38439939            0  -0.33795608  0.005061346 
  316900    17.814098  -0.38475523            0  -0.33804472 0.0037333827 
  317000    17.800679  -0.38465928            0  -0.33798396 0.0010532701 
  317100    17.625678  -0.38420417            0  -0.33798773 0.0046357682 
  317200    17.610813  -0.38423691            0  -0.33805944 0.0033981127 
  317300    17.634982  -0.38428105            0  -0.33804021 0.0042404648 
  317400    17.850716  -0.38470672            0   -0.3379002 0.0029510854 
  317500    17.949425  -0.38495142            0  -0.33788607 0.0058034774 
  317600    17.958809   -0.3850353            0  -0.33794535 0.0038291366 
  317700    17.796221  -0.38474598            0  -0.33808235 0.00095644849 
  317800    17.708261  -0.38444442            0  -0.33801144 0.0034979611 
  317900    18.018512  -0.38525709            0  -0.33801059 0.00048412795 
  318000    18.065945  -0.38547077            0   -0.3380999 0.0079422914 
  318100    18.063961  -0.38555864            0  -0.33819297 0.0078394817 
  318200    18.007565  -0.38540174            0  -0.33818394  0.002526531 
  318300    17.769358  -0.38476826            0  -0.33817507 0.0058035351 
  318400    17.835448  -0.38494411            0  -0.33817762 0.00019400609 
  318500    17.714831  -0.38471602            0  -0.33826581 0.0001768915 
  318600    17.751105  -0.38472313            0  -0.33817781 -8.8415347e-05 
  318700    17.673151  -0.38447188            0  -0.33813096 0.0090572633 
  318800    17.836041   -0.3849499            0  -0.33818186 0.0054313568 
  318900     17.74762  -0.38463477            0  -0.33809858 0.0030381641 
  319000    17.867581  -0.38479911            0  -0.33794837 -0.0026682672 
  319100    17.820378  -0.38459427            0   -0.3378673 0.0036518882 
  319200    18.086779  -0.38512132            0  -0.33769582 0.0053001135 
  319300    17.974345  -0.38494572            0  -0.33781504 0.0074639735 
  319400    17.730327  -0.38425731            0  -0.33776646  0.004992205 
  319500    17.845535  -0.38451016            0  -0.33771723 -0.0022310974 
  319600     17.94447   -0.3848111            0  -0.33775875 0.00043561323 
  319700    18.081404    -0.385225            0  -0.33781359   0.00542366 
  319800     18.00681  -0.38513618            0  -0.33792037 0.0089234669 
  319900    17.784757  -0.38452545            0  -0.33789189  0.003569767 
  320000    17.644551  -0.38410374            0  -0.33783781 -0.0021839719 
  320100    17.596765  -0.38394261            0  -0.33780197 0.0010069931 
  320200    17.580897  -0.38387807            0  -0.33777904 0.0045755872 
  320300     17.53105  -0.38376261            0  -0.33779429 0.0046981076 
  320400    17.550924  -0.38380175            0  -0.33778132 0.0035481945 
  320500    17.517726   -0.3837181            0  -0.33778471 0.0032442316 
  320600    17.610172  -0.38395747            0  -0.33778168  0.002706173 
  320700    17.683459  -0.38425753            0  -0.33788958  0.002919412 
  320800    17.836187  -0.38477276            0  -0.33800433 0.0055206272 
  320900    17.914453  -0.38498143            0  -0.33800778 0.0067267249 
  321000    17.879297  -0.38484053            0  -0.33795907 0.0057883902 
  321100    18.033154  -0.38513697            0  -0.33785208 -0.00056875681 
  321200    17.927333  -0.38472904            0  -0.33772162 0.0044317272 
  321300    18.113052  -0.38513075            0  -0.33763636 0.0046491787 
  321400    18.046873  -0.38490802            0  -0.33758716 0.0068833783 
  321500    18.097316  -0.38510967            0  -0.33765654 0.00059765286 
  321600    17.996562  -0.38481762            0  -0.33762867 0.0022584279 
  321700    17.844706  -0.38449657            0  -0.33770582 0.0058489867 
  321800    17.791828  -0.38449643            0  -0.33784433 0.00054030003 
  321900    17.746367  -0.38427993            0  -0.33774702 0.0032948285 
  322000    17.850534  -0.38464952            0  -0.33784348 0.0048775903 
  322100    18.123794   -0.3853118            0  -0.33778924 0.0020479355 
  322200    18.146119  -0.38541274            0  -0.33783164  0.003691137 
  322300    17.899111  -0.38491608            0  -0.33798267 0.0045941352 
  322400    17.737701  -0.38447585            0  -0.33796567 -0.00044210924 
  322500    17.751285  -0.38450011            0  -0.33795431 -0.0010956795 
  322600    17.819205  -0.38461035            0  -0.33788645 0.0061518132 
  322700    18.127819  -0.38526058            0  -0.33772747  0.003105362 
  322800    18.103256  -0.38497671            0  -0.33750801 0.0039491842 
  322900    17.910748  -0.38439019            0  -0.33742626  0.002546714 
  323000    17.844848  -0.38424274            0  -0.33745161 0.00013941869 
  323100    17.871883  -0.38423317            0  -0.33737115 0.0034307032 
  323200    17.788231  -0.38416303            0  -0.33752035 0.0033136356 
  323300    17.815893  -0.38423792            0  -0.33752271 -0.00039498497 
  323400    17.946667   -0.3847586            0  -0.33770048 0.0029703838 
  323500    18.063784   -0.3848371            0  -0.33747189 0.0079496112 
  323600    18.077994  -0.38496446            0  -0.33756199 0.0040999641 
  323700    17.951364  -0.38465396            0  -0.33758353 0.0043559088 
  323800    18.140625  -0.38512219            0   -0.3375555 0.0006764007 
  323900    17.865892  -0.38455213            0  -0.33770582 0.0078530324 
  324000    17.854535  -0.38438009            0  -0.33756356 0.0029283676 
  324100    17.978785  -0.38470472            0  -0.33756239 0.00070863252 
  324200    17.848861  -0.38457024            0  -0.33776859 0.0088970094 
  324300    18.139219  -0.38512976            0  -0.33756675 0.0010550426 
  324400    18.041983  -0.38494725            0  -0.33763921 0.0030854563 
  324500    18.031233  -0.38502572            0  -0.33774587 0.0026463553 
  324600     17.99863  -0.38487554            0  -0.33768118 0.0038821258 
  324700    18.100836  -0.38509897            0  -0.33763661 -0.0023760873 
  324800    17.911811  -0.38468957            0  -0.33772285 0.0030485938 
  324900    18.018815  -0.38492185            0  -0.33767456 0.0027760152 
  325000    18.073084  -0.38511936            0  -0.33772977 0.0043207713 
  325100    18.062429  -0.38507738            0  -0.33771573 0.0050720986 
  325200    18.129868  -0.38524043            0  -0.33770195 0.0027566435 
  325300    18.223891  -0.38546093            0   -0.3376759 0.0029152537 
  325400    18.221296  -0.38556971            0  -0.33779149 0.0062786227 
  325500    18.342421  -0.38563289            0  -0.33753707 0.0054630712 
  325600    18.337647   -0.3855634            0   -0.3374801 -0.00014668959 
  325700    18.160965  -0.38517182            0  -0.33755179 0.0069994035 
  325800    18.118644  -0.38514413            0  -0.33763507 0.0047486001 
  325900    18.029464  -0.38491206            0  -0.33763684 -0.0056506178 
  326000    18.062338  -0.38508048            0  -0.33771907 -0.00098699201 
  326100    18.259181  -0.38542909            0  -0.33755153 0.0081329263 
  326200    18.397969  -0.38589583            0  -0.33765436 0.0071217686 
  326300    18.509767  -0.38594327            0  -0.33740865 0.0059353826 
  326400    18.618822  -0.38613343            0  -0.33731285 0.0052909584 
  326500    18.452076  -0.38582784            0  -0.33744449  0.010817784 
  326600    18.400273  -0.38579394            0  -0.33754642 0.0054783767 
  326700    18.314745  -0.38552804            0  -0.33750479 -0.00041564732 
  326800    18.221033  -0.38542256            0  -0.33764503 0.0051525124 
  326900    18.335005   -0.3857579            0  -0.33768153 0.0043281452 
  327000    18.385557   -0.3859634            0  -0.33775447 0.0042425036 
  327100    18.388872  -0.38596745            0  -0.33774982 0.0012116231 
  327200    18.139187  -0.38539831            0  -0.33783539  0.003245343 
  327300    18.164098  -0.38536377            0  -0.33773552 0.0031878083 
  327400    18.172685  -0.38531645            0  -0.33766569 0.0019262277 
  327500     18.15878  -0.38532628            0  -0.33771199 0.0040647222 
  327600    18.227756  -0.38541592            0  -0.33762076 0.0054443911 
  327700    18.196277  -0.38544493            0  -0.33773231 0.0052854293 
  327800    18.252339  -0.38561947            0  -0.33775985  0.002910402 
  327900    18.361937  -0.38598495            0  -0.33783795 0.00024263072 
  328000    18.112769  -0.38527745            0  -0.33778379 0.0094606966 
  328100    18.293866  -0.38577618            0  -0.33780767 0.0037732879 
  328200    18.350778  -0.38602468            0  -0.33790695 0.0043585087 
  328300    18.304271  -0.38574448            0  -0.33774869 0.0056829164 
  328400    18.517308  -0.38622281            0  -0.33766842 -0.0014463973 
  328500    18.452987  -0.38607968            0  -0.33769394 0.0046222399 
  328600    18.516528   -0.3862293            0  -0.33767694  0.006186896 
  328700     18.41374  -0.38588969            0  -0.33760686 0.0093560704 
  328800    18.494343  -0.38617061            0  -0.33767644 -0.0002965672 
  328900    18.075044  -0.38527735            0  -0.33788262 0.0044925947 
  329000    18.306825  -0.38581948            0  -0.33781699 0.00081438406 
  329100    18.477722  -0.38625608            0  -0.33780549 0.0047335764 
  329200    18.559313  -0.38654433            0   -0.3378798 0.0062459487 
  329300    18.569232  -0.38661786            0  -0.33792731 0.0020707512 
  329400    18.437734  -0.38636017            0  -0.33801443 0.0055348317 
  329500    18.567563  -0.38640447            0   -0.3377183  0.004131743 
  329600    18.496395  -0.38631794            0  -0.33781838  0.003613269 
  329700    18.528247  -0.38651271            0  -0.33792963 0.0020619311 
  329800      18.6014  -0.38664723            0  -0.33787234 0.0046531611 
  329900    18.612967   -0.3868012            0  -0.33799597 0.00028641535 
  330000     18.80162  -0.38720051            0  -0.33790062 -0.0020733828 
  330100     18.60023  -0.38684246            0  -0.33807063  0.010434308 
  330200    18.692924  -0.38700403            0  -0.33798915 0.0079149047 
  330300    18.732222  -0.38703859            0  -0.33792067 -9.9975149e-05 
  330400    18.540894  -0.38649239            0  -0.33787615 0.0021204763 
  330500    18.547079  -0.38643221            0  -0.33779975 0.0039138043 
  330600    18.400675  -0.38629352            0  -0.33804495  0.004121216 
  330700    18.394531  -0.38620789            0  -0.33797543 -0.0004352425 
  330800    18.313592  -0.38611699            0  -0.33809676 0.0040664429 
  330900    18.217371  -0.38598546            0  -0.33821753 0.0076135198 
  331000     18.35008  -0.38629017            0  -0.33817426 0.00029144065 
  331100     18.19889  -0.38592524            0  -0.33820578 0.0055094354 
  331200    18.277054  -0.38596159            0  -0.33803717 0.0029817886 
  331300    18.165728  -0.38570339            0  -0.33807087 0.0026214281 
  331400    18.232829  -0.38565917            0  -0.33785071 0.0032581552 
  331500    18.321112  -0.38577869            0  -0.33773874 0.00079110649 
  331600     18.35188   -0.3859094            0  -0.33778878 0.0010093106 
  331700    18.221084  -0.38549057            0   -0.3377129  0.011491752 
  331800    18.264271  -0.38568509            0  -0.33779418 0.0031911863 
  331900     18.25555   -0.3855745            0  -0.33770646 -0.00079152929 
  332000    18.045345    -0.385119            0  -0.33780214 0.0039800435 
  332100    18.206251  -0.38533951            0  -0.33760074  0.000205309 
  332200    18.164796  -0.38519014            0  -0.33756007 0.0060657997 
  332300    18.421492  -0.38582225            0   -0.3375191 0.0045490892 
  332400     18.48007  -0.38602686            0  -0.33757011 0.0075241806 
  332500    18.451722  -0.38610942            0    -0.337727  0.010044199 
  332600    18.444833  -0.38600976            0   -0.3376454 0.0036216409 
  332700     18.56267  -0.38627678            0  -0.33760344 -0.0017687032 
  332800    18.468046  -0.38605583            0  -0.33763061 0.0048205826 
  332900    18.330247  -0.38568185            0  -0.33761795 0.0037819688 
  333000     18.29892  -0.38572896            0   -0.3377472 -0.00012630837 
  333100    18.111938  -0.38510365            0  -0.33761217  0.006243398 
  333200    18.073524  -0.38511509            0  -0.33772434 0.00083946897 
  333300    18.055155  -0.38516491            0  -0.33782233 0.0018406023 
  333400    18.240045  -0.38567635            0  -0.33784897  0.007522562 
  333500     18.37065  -0.38594509            0  -0.33777524 0.0063255331 
  333600    18.560621  -0.38639786            0  -0.33772989 0.00037620753 
  333700    18.301374  -0.38576424            0  -0.33777605 0.0062661368 
  333800    18.382071  -0.38589911            0  -0.33769932 0.00077644659 
  333900    18.452545  -0.38613375            0  -0.33774917 0.0062555127 
  334000    18.552929  -0.38631283            0  -0.33766503 0.0081163465 
  334100    18.577245  -0.38630824            0  -0.33759668 0.0013163785 
  334200     18.32443  -0.38581167            0  -0.33776302 0.0019647507 
  334300     18.33387  -0.38588135            0  -0.33780795 0.0016978468 
  334400    18.148985  -0.38554861            0     -0.33796 0.0051373646 
  334500    18.287171  -0.38586829            0  -0.33791734 0.0032533804 
  334600    18.314898  -0.38593689            0  -0.33791324 0.0025342003 
  334700    18.213569  -0.38567488            0  -0.33791693 0.0057504233 
  334800     18.22729  -0.38564509            0  -0.33785115 0.0067146556 
  334900    18.379187  -0.38603672            0  -0.33784449 0.0028449418 
  335000    18.413127  -0.38584202            0   -0.3375608 0.0061418391 
  335100    18.312336  -0.38571905            0  -0.33770211  0.011477003 
  335200    18.440916  -0.38600566            0  -0.33765158 0.0025367342 
  335300    18.114215  -0.38514472            0  -0.33764728 0.0080080581 
  335400    18.344399  -0.38580947            0  -0.33770846 9.3096869e-06 
  335500    18.380335  -0.38589031            0  -0.33769507  0.003401162 
  335600    18.336898  -0.38575673            0  -0.33767538  0.008037183 
  335700    18.335807   -0.3859125            0  -0.33783402 0.0046458343 
  335800    18.263245  -0.38554074            0  -0.33765253   0.00494494 
  335900    18.252735  -0.38566963            0  -0.33780897 0.0032952068 
  336000    18.304021  -0.38580607            0  -0.33781094 0.0047394487 
  336100    18.297138  -0.38583586            0  -0.33785878 0.0071861623 
  336200    18.520641  -0.38626605            0  -0.33770292 0.0047678738 
  336300    18.753766  -0.38699841            0    -0.337824 0.0021828752 
  336400    18.811514   -0.3871182            0  -0.33779236 0.0055212752 
  336500    18.649031  -0.38678943            0  -0.33788964 0.0068290763 
  336600    18.486534  -0.38643828            0  -0.33796457 0.0027828267 
  336700    18.430718  -0.38628547            0  -0.33795812 0.0020645898 
  336800    18.256616  -0.38583681            0  -0.33796598 0.0035463073 
  336900    18.201605  -0.38582244            0  -0.33809585 -0.0016705712 
  337000    18.218611  -0.38565767            0  -0.33788649 0.0025735174 
  337100    18.274249  -0.38602431            0  -0.33810724 0.0052678517 
  337200    18.266729  -0.38574473            0  -0.33784738 0.0052931845 
  337300    18.173307  -0.38536238            0  -0.33770999 0.0054419283 
  337400    18.241092  -0.38540919            0  -0.33757906 -0.0008330106 
  337500    18.155846  -0.38520127            0  -0.33759467 0.00087168543 
  337600    18.241994  -0.38523969            0   -0.3374072 0.0099127517 
  337700    18.468025  -0.38590022            0  -0.33747504 0.0052665624 
  337800    18.505617  -0.38600953            0  -0.33748579 0.0011675103 
  337900    18.511381  -0.38616516            0   -0.3376263 0.0059284855 
  338000     18.45225  -0.38597085            0  -0.33758704 0.0061580687 
  338100    18.357916  -0.38579605            0  -0.33765959 0.00030011507 
  338200    18.331059  -0.38571825            0  -0.33765222 0.0015617855 
  338300    18.400014   -0.3857747            0  -0.33752786 0.0072112992 
  338400    18.538346  -0.38629215            0  -0.33768259 0.0039192693 
  338500    18.413702  -0.38608136            0  -0.33779863 0.0048642569 
  338600    18.308893  -0.38575067            0  -0.33774276 0.0021448254 
  338700    18.202287  -0.38548003            0  -0.33775166 -0.0013166632 
  338800    18.099901  -0.38518357            0  -0.33772366  0.001974619 
  338900    18.024676  -0.38495856            0   -0.3376959 0.0078685707 
  339000    17.959705  -0.38492144            0  -0.33782914 0.0025495907 
  339100    17.885164  -0.38451685            0     -0.33762 -0.0009261403 
  339200    17.983402  -0.38493149            0  -0.33777706 -0.00055572951 
  339300    18.112699  -0.38510843            0  -0.33761496 0.0016693514 
  339400    18.040531  -0.38488872            0  -0.33758449 0.0090394638 
  339500    18.040313  -0.38504182            0  -0.33773816 0.00057074765 
  339600    18.115438  -0.38505529            0  -0.33755464 -0.00088117337 
  339700    18.077149  -0.38505391            0  -0.33765366 0.0059053197 
  339800    17.938783  -0.38458758            0  -0.33755015 0.0083529856 
  339900    17.973761  -0.38478075            0  -0.33765159 0.0010949017 
  340000    17.961455  -0.38471933            0  -0.33762244 0.0024693668 
  340100    18.231041    -0.385375            0  -0.33757123 0.00095200075 
  340200    18.277497  -0.38552298            0   -0.3375974 0.0050287618 
  340300    18.248327  -0.38534152            0  -0.33749242  0.009014057 
  340400    18.360696  -0.38560879            0  -0.33746505  0.001705062 
  340500    18.344859  -0.38544812            0   -0.3373459  0.002099658 
  340600    18.496959   -0.3856985            0  -0.33719746 0.0051385747 
  340700    18.429464  -0.38571378            0  -0.33738972 0.0079238273 
  340800    18.501916  -0.38595275            0  -0.33743871 0.0035952993 
  340900     18.40746  -0.38575796            0   -0.3374916 0.00036485131 
  341000    18.418003  -0.38582342            0  -0.33752941 -0.0012629959 
  341100    18.330786  -0.38551964            0  -0.33745433 0.0045977886 
  341200    18.442746  -0.38571206            0  -0.33735317 0.0061927794 
  341300    18.272665  -0.38561007            0  -0.33769715 0.0056927766 
  341400    18.356823  -0.38563322            0  -0.33749963 0.0021946762 
  341500    18.436621  -0.38588247            0  -0.33753965 0.0060815183 
  341600    18.568937  -0.38621992            0  -0.33753015 0.0029107845 
  341700    18.609607  -0.38637109            0  -0.33757467 0.0007725892 
  341800    18.484349  -0.38626055            0  -0.33779258 0.0075059998 
  341900    18.518231   -0.3863546            0  -0.33779779 0.0067822611 
  342000    18.402262  -0.38603408            0  -0.33778134 0.0044546404 
  342100    18.312056  -0.38590768            0  -0.33789148 0.0021974836 
  342200    18.423588  -0.38615603            0  -0.33784738 0.0013892036 
  342300     18.22731  -0.38566748            0  -0.33787349  0.012984498 
  342400    18.426747  -0.38606625            0  -0.33774932 0.0030988832 
  342500    18.108059  -0.38507714            0  -0.33759584 0.0057081581 
  342600    18.089779  -0.38492886            0  -0.33749549 0.0019212266 
  342700    17.737674  -0.38417111            0    -0.337661 0.0071915791 
  342800     17.79535  -0.38410034            0    -0.337439 0.0054964587 
  342900    18.076056  -0.38491405            0  -0.33751666 -0.0025318173 
  343000    18.035468  -0.38501687            0  -0.33772592 0.0036147056 
  343100    18.143957  -0.38515373            0   -0.3375783 0.0021494743 
  343200    18.076919   -0.3847987            0  -0.33739906 0.0030214506 
  343300     18.05971  -0.38502529            0  -0.33767076 0.0039637512 
  343400    18.080489  -0.38504967            0  -0.33764066 0.0035265191 
  343500    18.295886  -0.38565823            0  -0.33768443 0.00085120572 
  343600    18.519686  -0.38640908            0  -0.33784845 0.0043263322 
  343700    18.377848  -0.38611638            0  -0.33792766  0.010581525 
  343800    18.451781  -0.38624494            0  -0.33786237 0.0024796217 
  343900    18.339956  -0.38608333            0  -0.33799397 0.0010624364 
  344000     18.30601  -0.38584079            0  -0.33784044 0.0062503131 
  344100    18.283729  -0.38571272            0  -0.33777079 0.0020196671 
  344200    18.187381  -0.38540859            0   -0.3377193 -0.0014083485 
  344300    18.055824  -0.38519324            0  -0.33784891 0.0028304739 
  344400    18.482189   -0.3859493            0  -0.33748699 0.0040347053 
  344500    18.691442  -0.38627731            0  -0.33726632  0.008559618 
  344600    18.631746  -0.38628357            0   -0.3374291 0.0040972309 
  344700    18.554821  -0.38577995            0  -0.33712719  0.002085043 
  344800    18.425618  -0.38547018            0  -0.33715621 0.0049430689 
  344900    18.263458  -0.38521308            0  -0.33732431 0.0046470829 
  345000    18.160493  -0.38488339            0  -0.33726461 0.0022304392 
  345100    18.189561  -0.38520668            0  -0.33751167 0.00084044624 
  345200     18.04526  -0.38478094            0  -0.33746431  0.010859922 
  345300    18.355461  -0.38574425            0  -0.33761424 0.0032028902 
  345400    18.270914  -0.38554875            0  -0.33764043 0.0037909594 
  345500    18.091989  -0.38516477            0  -0.33772561 0.0017552929 
  345600    17.884405  -0.38470037            0  -0.33780551 0.0022448674 
  345700    17.899615  -0.38475338            0  -0.33781865 5.0084991e-05 
  345800    17.929191  -0.38483927            0  -0.33782698 0.0059835228 
  345900    18.178052  -0.38544358            0  -0.33777875 0.0041639461 
  346000    18.118455  -0.38529322            0  -0.33778466 0.0038516097 
  346100    17.987001  -0.38488846            0  -0.33772458 0.0047063186 
  346200    17.952307  -0.38497176            0  -0.33789885 0.0024303231 
  346300    18.083924  -0.38521098            0  -0.33779296 0.0017602272 
  346400    18.239579  -0.38550222            0  -0.33767606 0.0011635023 
  346500    18.048397   -0.3851708            0  -0.33784594 0.0065058585 
  346600    18.059481  -0.38501652            0   -0.3376626 0.0034441434 
  346700    18.065242  -0.38487195            0  -0.33750293 0.0011142645 
  346800    18.158396  -0.38517155            0  -0.33755826 -0.002544576 
  346900    18.101301  -0.38495486            0  -0.33749128 0.0059771243 
  347000    18.298953  -0.38554011            0  -0.33755827 0.0033393764 
  347100    18.287536  -0.38547323            0  -0.33752133 0.0038674532 
  347200       18.241  -0.38549985            0  -0.33766996 0.0052831842 
  347300    18.226467  -0.38523914            0  -0.33744736 0.0041065341 
  347400    18.028361  -0.38483247            0  -0.33756015 0.0014150429 
  347500    18.073051  -0.38491358            0  -0.33752408 0.00075046055 
  347600    18.108703  -0.38489193            0  -0.33740894 0.0061530301 
  347700    18.348455  -0.38566717            0  -0.33755552 0.00089677965 
  347800    18.343908  -0.38572103            0  -0.33762131 0.0072908822 
  347900    18.491498  -0.38609915            0  -0.33761243 0.0042611958 
  348000    18.429942  -0.38604649            0  -0.33772118 0.0024974434 
  348100    18.441136  -0.38616461            0  -0.33780994 0.0021910038 
  348200    18.521233  -0.38612342            0  -0.33755873  0.005072447 
  348300    18.138048  -0.38531229            0  -0.33775236 0.0098190946 
  348400    18.097998  -0.38516798            0  -0.33771307 -0.00013467579 
  348500    18.320046  -0.38552257            0  -0.33748542 -0.0031622827 
  348600    18.465435  -0.38602947            0  -0.33761109 0.0052107582 
  348700    18.528529   -0.3861974            0  -0.33761358 0.0089323421 
  348800    18.616472   -0.3863545            0  -0.33754009 0.0038492517 
  348900    18.655754  -0.38636001            0  -0.33744259 0.0054302038 
  349000    18.737778  -0.38656074            0  -0.33742825 0.0019467986 
  349100    18.847363   -0.3868971            0  -0.33747726 0.0013846089 
  349200     18.82971  -0.38670569            0  -0.33733214  0.009354187 
  349300    18.805014   -0.3868565            0   -0.3375477 0.0030546294 
  349400    18.476641  -0.38586948            0  -0.33742172 0.0035615544 
  349500    18.513576  -0.38604615            0  -0.33750154 -0.00053783715 
  349600    18.558212  -0.38623885            0   -0.3375772 0.0033031538 
  349700    18.630582  -0.38656674            0  -0.33771533 0.0072987365 
  349800    18.651145  -0.38640879            0  -0.33750346 0.0064634331 
  349900    18.426786  -0.38590048            0  -0.33758344   0.00534458 
  350000    18.360175  -0.38564645            0  -0.33750408 0.0032699094 
  350100    18.505813  -0.38588832            0  -0.33736406 -0.0015900963 
  350200    18.550423  -0.38615978            0  -0.33751855 0.0029839704 
  350300    18.692988    -0.386408            0  -0.33739295 0.0031480483 
  350400     18.54475  -0.38619663            0  -0.33757028 0.0054544172 
  350500    18.542808  -0.38624251            0  -0.33762125 0.0051930315 
  350600    18.512536  -0.38610165            0  -0.33755976  0.003718978 
  350700     18.52888  -0.38604983            0  -0.33746509 0.0039834217 
  350800    18.610403  -0.38635516            0  -0.33755666 0.0042538214 
  350900    18.544974  -0.38608994            0    -0.337463 0.0085136077 
  351000    18.472022   -0.3857245            0  -0.33728885 0.0069667909 
  351100    18.333839  -0.38542852            0   -0.3373552 0.0053245935 
  351200    18.361529  -0.38549358            0  -0.33734766 0.00052320375 
  351300      18.4352  -0.38545634            0  -0.33711724 3.9225636e-05 
  351400    18.320598  -0.38514543            0  -0.33710683  0.004618179 
  351500    18.526814  -0.38596479            0  -0.33738547 -0.00069692996 
  351600    18.391265  -0.38525726            0  -0.33703336 0.0086041558 
  351700    18.447342  -0.38547198            0  -0.33710105 0.0026071841 
  351800    18.449062  -0.38546472            0  -0.33708927 0.0026434609 
  351900    18.624726  -0.38582355            0   -0.3369875 0.0024229737 
  352000    18.447133  -0.38552402            0  -0.33715363 0.0051477143 
  352100    18.425272  -0.38548652            0  -0.33717345 0.0037531528 
  352200    18.493944  -0.38562131            0  -0.33712818  0.002778866 
  352300     18.28548  -0.38534213            0  -0.33739562 0.0044380988 
  352400    18.281397  -0.38531251            0   -0.3373767 0.0028799813 
  352500    18.138294  -0.38506139            0  -0.33750081 0.0057343021 
  352600    18.026848    -0.384818            0  -0.33754964 0.0070457757 
  352700     18.15494  -0.38509319            0  -0.33748896 0.0018310366 
  352800     18.20168  -0.38517217            0  -0.33744538 2.2409721e-05 
  352900    18.237295  -0.38524771            0  -0.33742754 0.0061183932 
  353000    18.286433  -0.38527692            0   -0.3373279 0.0051890023 
  353100    18.263499  -0.38519637            0  -0.33730749 0.0009806862 
  353200     18.22958  -0.38503711            0  -0.33723717 0.0026608614 
  353300    18.161815  -0.38480293            0  -0.33718068 0.0047997738 
  353400    18.335088  -0.38515987            0  -0.33708328 0.0012421458 
  353500    18.311271  -0.38510259            0  -0.33708844 0.0076439497 
  353600    18.394909  -0.38533202            0  -0.33709857 0.0057699188 
  353700    18.253469   -0.3849359            0  -0.33707332 0.0019776355 
  353800    18.164857  -0.38482469            0  -0.33719446 0.00055719805 
  353900    18.264063  -0.38523663            0  -0.33734627 0.0013746966 
  354000    18.394066   -0.3853729            0  -0.33714166 0.0062699182 
  354100    18.345574  -0.38544206            0  -0.33733797 0.0067331548 
  354200    18.274819  -0.38515375            0  -0.33723519 0.0013079115 
  354300    18.009386  -0.38427347            0  -0.33705091 0.0045860696 
  354400    18.311981  -0.38501539            0  -0.33699938 -0.0019084016 
  354500    18.343175  -0.38504544            0  -0.33694764 0.0048083852 
  354600    18.262439  -0.38499802            0  -0.33711192 0.0074389118 
  354700    18.276057  -0.38502677            0  -0.33710496 0.0034031622 
  354800    18.227631  -0.38500748            0  -0.33721265 0.0030839727 
  354900     18.22074  -0.38505939            0  -0.33728263 0.0021322763 
  355000    18.140011  -0.38486123            0  -0.33729615 0.0046772643 
  355100    18.238472  -0.38514346            0   -0.3373202 0.00018522598 
  355200     18.29256  -0.38521982            0  -0.33725474    0.0039221 
  355300    18.406213  -0.38541475            0  -0.33715165 0.0031402029 
  355400     18.48136  -0.38558911            0  -0.33712898 0.00066270319 
  355500    18.276033  -0.38507549            0  -0.33715375 0.0089720299 
  355600    18.468715  -0.38563558            0   -0.3372086 0.0025387724 
  355700    18.289542   -0.3850945            0  -0.33713734 0.0049001039 
  355800    18.309493  -0.38516071            0  -0.33715122 0.00033315482 
  355900     18.27781   -0.3849966            0   -0.3370702 0.0054528807 
  356000    18.366408  -0.38552083            0  -0.33736211 0.0073847061 
  356100    18.431847    -0.385664            0   -0.3373337 0.0039142375 
  356200    18.413406  -0.38545816            0  -0.33717621 0.0012874595 
  356300    18.210961  -0.38500418            0  -0.33725306 0.0048455826 
  356400    18.324505   -0.3853267            0  -0.33727785 0.0034902215 
  356500    18.361468   -0.3855844            0  -0.33743863 0.0032494366 
  356600    18.371678  -0.38538453            0  -0.33721199 0.0012259566 
  356700     18.32562  -0.38524923            0  -0.33719747 1.9978743e-05 
  356800    18.329744  -0.38524594            0  -0.33718336 0.0063659792 
  356900    18.587272  -0.38601283            0  -0.33727498 0.0029502792 
  357000    18.489462   -0.3857663            0  -0.33728492 0.0063723135 
  357100    18.613337  -0.38599447            0  -0.33718828 0.0059657408 
  357200    18.440014     -0.38563            0  -0.33727828 0.0051312067 
  357300    18.650415  -0.38606223            0  -0.33715881 -0.00057333367 
  357400    18.524629  -0.38587757            0  -0.33730397 0.0092444145 
  357500    18.538391  -0.38575078            0   -0.3371411 0.0082428098 
  357600    18.659302  -0.38617598            0  -0.33724926 -0.0018652776 
  357700    18.666264  -0.38602403            0  -0.33707906 0.0021802224 
  357800    18.355652  -0.38525855            0  -0.33712804 0.0094103922 
  357900    18.312059   -0.3851824            0  -0.33716619 0.0012630262 
  358000    18.406031  -0.38534443            0  -0.33708182 -0.0011541239 
  358100    18.320283  -0.38523437            0  -0.33719659 0.0047717236 
  358200    18.494408  -0.38572622            0  -0.33723187 0.0025751752 
  358300    18.440676  -0.38561137            0  -0.33725792 0.0058719611 
  358400    18.356134  -0.38552244            0  -0.33739066 0.0026215632 
  358500    18.211363  -0.38508198            0  -0.33732981 0.0013579738 
  358600    18.322616  -0.38531608            0  -0.33727219 -0.0018453005 
  358700    18.442175  -0.38561838            0  -0.33726099 0.0021906969 
  358800    18.537985  -0.38594282            0  -0.33733421 0.0026668422 
  358900    18.480963  -0.38577463            0  -0.33731553 0.0058121555 
  359000    18.312196   -0.3853048            0  -0.33728823  0.010535105 
  359100    18.526134  -0.38569892            0  -0.33712138  0.002265546 
  359200    18.524014  -0.38565721            0  -0.33708523 0.0030367091 
  359300     18.67595  -0.38607389            0  -0.33710351  0.001353977 
  359400    18.504281   -0.3855234            0  -0.33700316 0.0052546815 
  359500    18.686199  -0.38603612            0  -0.33703887 0.0045103807 
  359600    18.447442  -0.38559307            0  -0.33722187  0.010505645 
  359700     18.56571  -0.38588926            0  -0.33720795 0.0025401506 
  359800    18.603576  -0.38603497            0  -0.33725437  0.001553458 
  359900    18.472981   -0.3857091            0  -0.33727093 0.0067761255 
  360000    18.350418  -0.38524399            0   -0.3371272 0.0026847697 
  360100    18.229068  -0.38499264            0  -0.33719404 -0.0010191764 
  360200    18.174859  -0.38490143            0  -0.33724497 0.0068292128 
  360300    18.182498  -0.38471719            0  -0.33704071 0.0098190222 
  360400    18.351857  -0.38518358            0  -0.33706301 0.00026528907 
  360500    18.332286  -0.38522611            0  -0.33715686 0.0030958798 
  360600     18.18678  -0.38486295            0  -0.33717523 0.0056696869 
  360700    18.230748  -0.38489923            0  -0.33709623 -0.00060162793 
  360800    18.247275  -0.38482112            0  -0.33697478 0.0046342619 
  360900    18.443365  -0.38516644            0  -0.33680593 0.0028949434 
  361000    18.338373  -0.38504606            0  -0.33696085 0.0047886222 
  361100     18.34084  -0.38477881            0  -0.33668713 0.0046029864 
  361200    18.421176  -0.38513053            0   -0.3368282 0.0028155052 
  361300    18.604674  -0.38556651            0  -0.33678303 0.0024618102 
  361400    18.529938   -0.3854639            0  -0.33687638 0.0070248083 
  361500    18.533917  -0.38544456            0  -0.33684661 0.0016893023 
  361600    18.310472  -0.38492645            0   -0.3369144 0.0035721885 
  361700    18.453279  -0.38525186            0  -0.33686535  0.003507362 
  361800    18.443415  -0.38536904            0   -0.3370084  0.005353478 
  361900    18.347075  -0.38511569            0  -0.33700767 0.0056862129 
  362000    18.424817  -0.38512122            0  -0.33680935 0.0074436296 
  362100    18.677106  -0.38578538            0  -0.33681197 0.0025150217 
  362200    18.516803  -0.38535663            0  -0.33680356 0.0067416302 
  362300    18.490252   -0.3854401            0  -0.33695664 0.0040051246 
  362400    18.398812  -0.38505033            0  -0.33680665 0.00069860413 
  362500    18.290864  -0.38484372            0  -0.33688309 0.0039326005 
  362600    18.394506   -0.3852211            0   -0.3369887 0.0046213562 
  362700     18.54356  -0.38546634            0  -0.33684311 0.0033983389 
  362800    18.490026  -0.38536858            0  -0.33688572 0.0061344441 
  362900    18.466008  -0.38522047            0  -0.33680059 0.0026961949 
  363000     18.43052   -0.3848117            0  -0.33648487 0.0032589841 
  363100     18.43003   -0.3851366            0  -0.33681106 0.0047182027 
  363200    18.566547  -0.38526066            0  -0.33657716 0.0051558768 
  363300    18.491134  -0.38514922            0  -0.33666345 0.0054712597 
  363400    18.497137  -0.38519647            0  -0.33669497 0.0030091579 
  363500    18.518985   -0.3852252            0   -0.3366664 0.0034452397 
  363600    18.299386  -0.38471289            0  -0.33672991 0.0088119487 
  363700    18.695792  -0.38570933            0  -0.33668693 0.00081415869 
  363800    18.771485  -0.38587092            0  -0.33665004  0.006895642 
  363900    18.919527  -0.38622169            0  -0.33661263 0.0043869752 
  364000    18.848858   -0.3860948            0  -0.33667104 0.00040777345 
  364100    18.598009  -0.38569183            0  -0.33692583 0.0053607195 
  364200    18.624905  -0.38561358            0  -0.33677706 0.0049864092 
  364300    18.825376  -0.38603665            0  -0.33667446 0.00090706382 
  364400    18.682717  -0.38590611            0    -0.336918 0.0065627664 
  364500    18.981984  -0.38650831            0  -0.33673548 -0.00023451031 
  364600    18.855077  -0.38617406            0  -0.33673399   0.00656158 
  364700    18.892427  -0.38630264            0  -0.33676464 0.0029425809 
  364800    18.816152  -0.38617254            0  -0.33683454 0.0021613087 
  364900    18.785303  -0.38598716            0  -0.33673005 0.0033123495 
  365000    18.749958   -0.3858584            0  -0.33669397 0.0058720116 
  365100    18.814995  -0.38586461            0  -0.33652964 0.0061895383 
  365200    19.048764  -0.38621749            0  -0.33626956 0.0041035486 
  365300     19.20318  -0.38659147            0  -0.33623865 0.0040523428 
  365400    19.362504  -0.38691572            0  -0.33614513 0.0051502273 
  365500    19.196404  -0.38668905            0  -0.33635399 0.0087830782 
  365600    19.062293   -0.3864285            0   -0.3364451 0.0032644806 
  365700     18.89971  -0.38605198            0  -0.33649489 -0.0019350656 
  365800     18.86553  -0.38623317            0   -0.3367657 0.00050333526 
  365900    18.926942  -0.38641778            0  -0.33678928 0.0064946766 
  366000    18.969689  -0.38646742            0  -0.33672683 0.0010165809 
  366100    18.757773  -0.38597301            0  -0.33678809 0.00039194642 
  366200    18.815211  -0.38606819            0  -0.33673266 0.0045025094 
  366300     19.11297  -0.38678883            0  -0.33667254 0.0062724648 
  366400    19.359636  -0.38736636            0  -0.33660329 0.0011572204 
  366500    19.257301  -0.38726146            0  -0.33676673 0.0043273762 
  366600    19.262669  -0.38720882            0  -0.33670001 0.0054437116 
  366700    19.127083  -0.38679838            0  -0.33664509 0.0044805322 
  366800     18.97321  -0.38658783            0  -0.33683801 0.0011272509 
  366900    18.771525  -0.38609215            0  -0.33687117 0.0033001535 
  367000    18.845777  -0.38622324            0  -0.33680757 0.0014127263 
  367100    18.824072  -0.38617562            0  -0.33681685 0.0047153208 
  367200    19.147329  -0.38694797            0  -0.33674159 0.0015835235 
  367300    19.342997  -0.38746808            0  -0.33674864 0.0026048734 
  367400    19.156845  -0.38686435            0  -0.33663302 0.0069510652 
  367500    19.227655  -0.38717136            0  -0.33675435 0.0004683948 
  367600    19.056572  -0.38668428            0  -0.33671588 0.0087944329 
  367700     19.09801  -0.38685014            0  -0.33677308 0.0055707437 
  367800    19.089816   -0.3868707            0  -0.33681512 7.7352779e-05 
  367900    18.948954  -0.38625559            0  -0.33656937 0.0082283431 
  368000    18.943461  -0.38643583            0  -0.33676401 0.0051846391 
  368100    18.995334  -0.38629668            0  -0.33648885 9.8016835e-05 
  368200    18.739894  -0.38580556            0  -0.33666752 0.0029760806 
  368300    18.764766  -0.38594471            0  -0.33674145 0.00095290906 
  368400    18.396838  -0.38506788            0  -0.33682937  0.013784905 
  368500    18.593334  -0.38559544            0  -0.33684169 0.00054268526 
  368600    18.478924  -0.38535525            0   -0.3369015 -0.0022467749 
  368700    18.431565  -0.38517384            0  -0.33684427 0.0022484013 
  368800    18.427802  -0.38516002            0  -0.33684032 0.0011297424 
  368900    18.443139     -0.38515            0  -0.33679008 0.0029584843 
  369000    18.561297  -0.38549051            0  -0.33682076 0.0047451392 
  369100    18.594092  -0.38561047            0  -0.33685474 0.0038509993 
  369200    18.728775  -0.38612568            0   -0.3370168 0.0022795493 
  369300    18.780168  -0.38618735            0   -0.3369437 0.0064217439 
  369400    18.770315  -0.38615442            0  -0.33693661 0.0031947618 
  369500    18.515052  -0.38552845            0  -0.33697997 0.0037345039 
  369600     18.24016   -0.3848706            0  -0.33704291 0.0049002422 
  369700     18.24856  -0.38479943            0  -0.33694972 0.0012951199 
  369800    18.398099  -0.38524008            0  -0.33699826 0.0015700613 
  369900    18.418176  -0.38510077            0  -0.33680631 0.0090167554 
  370000    18.372911  -0.38519534            0  -0.33701957 0.0069417851 
  370100    18.473091  -0.38526012            0  -0.33682166 0.0052663265 
  370200    18.596971  -0.38551103            0  -0.33674774  0.004175644 
  370300    18.632903  -0.38543323            0  -0.33657573 0.0047464392 
  370400    18.812093  -0.38606934            0  -0.33674198 0.0054357068 
  370500    18.676454  -0.38555855            0  -0.33658686  0.011883915 
  370600    18.760916  -0.38581353            0  -0.33662037 0.0020641238 
  370700     18.63344  -0.38558258            0  -0.33672367 -0.00020564789 
  370800    18.329544  -0.38499008            0  -0.33692802 0.0066946734 
  370900    18.457844  -0.38526797            0   -0.3368695 0.0018167793 
  371000    18.431922  -0.38532382            0  -0.33699331 0.0035119034 
  371100    18.568274  -0.38569631            0  -0.33700827 0.0043529427 
  371200    18.628444  -0.38561096            0  -0.33676515 0.0024012359 
  371300    18.514861  -0.38543992            0  -0.33689194 0.0017262613 
  371400    18.495015  -0.38531936            0  -0.33682342 0.0077052177 
  371500    18.788658     -0.38601            0  -0.33674409 0.0045214645 
  371600    18.732179  -0.38598677            0  -0.33686896 0.0027989729 
  371700    18.486676  -0.38544926            0  -0.33697518 0.0048148034 
  371800    18.685484  -0.38592124            0  -0.33692587 -0.00080039716 
  371900    18.639068  -0.38591931            0  -0.33704564 0.0018989637 
  372000     18.71668  -0.38599718            0  -0.33692001 0.0036176036 
  372100     18.69983  -0.38587817            0  -0.33684518 0.0048201922 
  372200    18.534699  -0.38567242            0  -0.33707243 0.0046469563 
  372300    18.811566  -0.38616481            0  -0.33683884 0.0038996628 
  372400    18.826308  -0.38625419            0  -0.33688957 0.0064644252 
  372500    18.831147  -0.38633128            0  -0.33695396 0.0023141243 
  372600     18.75135  -0.38618802            0  -0.33701994 0.0027034058 
  372700    18.558524  -0.38587798            0  -0.33721551 0.0047549059 
  372800    18.836669  -0.38622726            0  -0.33683546 -0.0015706005 
  372900    18.741152  -0.38605792            0  -0.33691658  0.010266401 
  373000    18.800643  -0.38611195            0  -0.33681462 0.0075858102 
  373100    18.721853  -0.38589087            0  -0.33680014 -0.0024934743 
  373200    18.698082  -0.38591268            0  -0.33688428 0.00037625254 
  373300    18.471472   -0.3853696            0   -0.3369354    0.0080957 
  373400    18.677235  -0.38583373            0  -0.33685999 -0.0010955419 
  373500    18.711465  -0.38596506            0  -0.33690156   0.00238654 
  373600    18.583641  -0.38579946            0  -0.33707113 0.0091451188 
  373700     18.74144  -0.38612403            0  -0.33698193 0.0012048568 
  373800    18.474544  -0.38550868            0  -0.33706642 0.0046607028 
  373900    18.735535  -0.38598465            0  -0.33685804 -0.0020067326 
  374000    18.660148  -0.38586525            0  -0.33693631 0.0031252691 
  374100     18.66949  -0.38599019            0  -0.33703676 0.0099910646 
  374200    18.686988  -0.38577905            0  -0.33677973  0.008840576 
  374300    18.627635  -0.38587582            0  -0.33703214 0.0012182727 
  374400    18.652345  -0.38584307            0  -0.33693459 0.0026871998 
  374500    18.559481  -0.38577568            0   -0.3371107 0.0084384767 
  374600    18.740182  -0.38640574            0  -0.33726695 -0.00055504454 
  374700    18.552229  -0.38591519            0  -0.33726923 0.00083433833 
  374800    18.380956  -0.38546355            0  -0.33726669 0.0064334735 
  374900    18.504053  -0.38572376            0  -0.33720412 0.0021102214 
  375000    18.594521  -0.38593076            0  -0.33717391 0.0037987074 
  375100    18.737374  -0.38625931            0  -0.33712788 0.0066047383 
  375200    18.487001  -0.38571816            0  -0.33724323 0.0075175954 
  375300    18.711222  -0.38621253            0  -0.33714967 -0.0021540287 
  375400    18.661315  -0.38602973            0  -0.33709773 0.0063323341 
  375500    18.914817  -0.38671469            0  -0.33711798 0.0026575103 
  375600    18.982997  -0.38672096            0  -0.33694548 0.0032271492 
  375700    18.973528  -0.38675971            0  -0.33700905 0.0024119128 
  375800    18.718411  -0.38596119            0  -0.33687948 0.0073782577 
  375900    18.829319  -0.38624607            0  -0.33687355 0.0022045859 
  376000    18.675238  -0.38579007            0  -0.33682156 0.0050737819 
  376100    18.775503  -0.38605376            0  -0.33682235 0.0026884019 
  376200    18.504851  -0.38552468            0  -0.33700295   0.01320968 
  376300    18.784953  -0.38629792            0  -0.33704173 0.0035567277 
  376400     18.72152  -0.38595321            0  -0.33686335 0.0033193568 
  376500    18.716786   -0.3859722            0  -0.33689475 0.00014866523 
  376600    18.670034  -0.38583346            0   -0.3368786 0.0033554161 
  376700     18.74362   -0.3860355            0  -0.33688769 0.0054199537 
  376800    18.806367  -0.38585807            0  -0.33654574 0.0079073933 
  376900    19.076897  -0.38639681            0  -0.33637511 0.0015636276 
  377000    18.831967  -0.38601913            0  -0.33663966  0.006875049 
  377100    18.887321  -0.38605334            0  -0.33652873 -0.0015618202 
  377200    18.691524  -0.38590735            0  -0.33689614 0.0026650288 
  377300    18.676879  -0.38590807            0  -0.33693527 0.0072240268 
  377400    18.559144  -0.38586223            0  -0.33719814 0.0057082435 
  377500    18.511501   -0.3858438            0  -0.33730463 0.0038802236 
  377600    18.433981  -0.38570688            0  -0.33737098 0.0062683022 
  377700    18.678658   -0.3862513            0  -0.33727383 0.00043884665 
  377800     18.84754  -0.38671883            0  -0.33729853 0.0043422774 
  377900     18.90747  -0.38684961            0  -0.33727217 0.0075325185 
  378000    18.779989  -0.38656356            0  -0.33732038 0.0065198451 
  378100     18.73058  -0.38646913            0  -0.33735551 0.0039837564 
  378200    18.664636  -0.38630231            0   -0.3373616 0.0049784581 
  378300    18.675706  -0.38649924            0  -0.33752951  0.004433983 
  378400    18.889115  -0.38695552            0   -0.3374262 0.00089375246 
  378500    18.698252  -0.38638596            0  -0.33735711 0.0071770954 
  378600    18.745971  -0.38640389            0  -0.33724992 -0.0015795323 
  378700    18.465811  -0.38566135            0  -0.33724199  0.002781668 
  378800    18.634208  -0.38600598            0  -0.33714506 0.0025463748 
  378900    18.831681  -0.38645763            0  -0.33707892 0.0026913404 
  379000    18.841822  -0.38652584            0  -0.33712053 0.0067589605 
  379100    18.763561  -0.38631099            0  -0.33711089 0.0074820345 
  379200    18.676766  -0.38622894            0  -0.33725643 0.0066922436 
  379300    18.666733  -0.38624039            0  -0.33729418 0.0020176808 
  379400    18.729347  -0.38646147            0  -0.33735109 0.0017702689 
  379500    18.586771  -0.38608053            0  -0.33734399 0.0079431988 
  379600    18.470001   -0.3858954            0  -0.33746504 0.0022427561 
  379700    18.196767  -0.38530339            0  -0.33758949 0.00088947173 
  379800    18.179106  -0.38517227            0  -0.33750467 0.00052722017 
  379900    18.227971  -0.38531966            0  -0.33752394 0.0048680413 
  380000    18.513688  -0.38601299            0  -0.33746809 0.0016045011 
  380100    18.525668  -0.38598543            0  -0.33740912 0.0025483965 
  380200    18.335753  -0.38583763            0  -0.33775929 0.0069639312 
  380300    18.467213  -0.38576868            0  -0.33734564 0.0052028189 
  380400    18.467623  -0.38587261            0   -0.3374485 0.0059682271 
  380500    18.635238  -0.38636843            0  -0.33750481 0.0035688799 
  380600     18.70445  -0.38646505            0  -0.33741995 0.0011084309 
  380700     18.59328  -0.38614119            0  -0.33738759 0.0033028682 
  380800    18.598646  -0.38624745            0  -0.33747978 0.0032794557 
  380900    18.684307  -0.38635602            0  -0.33736373  0.007721671 
  381000    18.892051  -0.38690383            0  -0.33736682 0.0048716715 
  381100    18.865376  -0.38672199            0  -0.33725492 0.0026662304 
  381200    18.747781  -0.38649789            0  -0.33733917 0.0030931962 
  381300    18.765019  -0.38663813            0  -0.33743421 0.0029604327 
  381400    18.752139   -0.3866575            0  -0.33748735 0.0071662102 
  381500    18.789365  -0.38680124            0  -0.33753349  0.010404326 
  381600    18.903879  -0.38702361            0  -0.33745558 -0.00098008047 
  381700    18.616038  -0.38642755            0  -0.33761427 0.0030058653 
  381800    18.599247  -0.38642729            0  -0.33765804  0.006671697 
  381900    18.687579   -0.3865317            0  -0.33753083  0.003484172 
  382000    18.677747  -0.38664873            0  -0.33767364 0.0018831488 
  382100    18.593702  -0.38657384            0  -0.33781913  0.010313674 
  382200    18.782067   -0.3871336            0  -0.33788498 0.0023207518 
  382300    18.708859  -0.38696363            0  -0.33790696 -0.0012118309 
  382400     18.45426  -0.38630582            0  -0.33791674 0.0094310807 
  382500    18.893978  -0.38754451            0  -0.33800245 -0.0012769074 
  382600    18.818633  -0.38728935            0  -0.33794484 0.0048480195 
  382700    18.908955  -0.38743021            0  -0.33784888 0.0038417167 
  382800    18.728248  -0.38700674            0  -0.33789924 0.0049189296 
  382900    18.794367  -0.38706661            0  -0.33778573 0.0022701612 
  383000    18.902214  -0.38731849            0  -0.33775483 0.0026390391 
  383100    18.810658  -0.38711341            0  -0.33778982 0.0038323962 
  383200    18.875918  -0.38721582            0  -0.33772111 0.0019790612 
  383300    18.759687  -0.38704643            0  -0.33785649 0.0055088634 
  383400    18.790329  -0.38708377            0  -0.33781348 0.0024444269 
  383500    18.881866  -0.38734086            0  -0.33783056 -4.3854028e-05 
  383600    18.959462  -0.38739132            0  -0.33767755 0.0085451619 
  383700    19.154144  -0.38787667            0  -0.33765242 0.0041399099 
  383800    18.904476  -0.38710657            0  -0.33753698 0.0047980399 
  383900    18.983285   -0.3873694            0  -0.33759316 0.00092377621 
  384000    19.007505    -0.387443            0  -0.33760326 0.0055045931 
  384100    18.934263  -0.38709512            0  -0.33744742 0.0065670444 
  384200    18.761214  -0.38681467            0  -0.33762072 0.0025982287 
  384300    18.693619  -0.38660541            0  -0.33758871 0.0032569693 
  384400    18.802994  -0.38691513            0  -0.33761163 -6.5363184e-05 
  384500    18.817568  -0.38708617            0  -0.33774446 0.0025269161 
  384600     18.79375  -0.38705434            0  -0.33777509  0.007856905 
  384700    18.955109  -0.38754334            0  -0.33784098 0.0067653138 
  384800    18.992249   -0.3876303            0  -0.33783056 0.0024025901 
  384900    18.862334  -0.38708118            0  -0.33762209 0.0049266331 
  385000    18.915715  -0.38739954            0  -0.33780047  0.011396572 
  385100    19.062028  -0.38759057            0  -0.33760786 0.0078489187 
  385200    19.003125  -0.38736575            0  -0.33753749 -0.0019175734 
  385300     18.96765    -0.387242            0  -0.33750676 -2.5477044e-05 
  385400    19.063918  -0.38752022            0  -0.33753255 0.0071045593 
  385500    19.194766   -0.3877394            0  -0.33740864 0.0086397072 
  385600    19.222927  -0.38774768            0  -0.33734307 0.0034096557 
  385700      19.1033  -0.38733838            0  -0.33724745 0.0053708677 
  385800    18.987682  -0.38730532            0  -0.33751756 0.0068251754 
  385900    19.054875   -0.3874097            0  -0.33744574 0.0019577101 
  386000    19.167551  -0.38777875            0  -0.33751935 0.0036047264 
  386100    19.158856  -0.38781156            0  -0.33757496 0.0064914762 
  386200    19.103528  -0.38769177            0  -0.33760024 0.0034655767 
  386300    19.010313  -0.38743703            0  -0.33758992 0.0038264032 
  386400    18.925967  -0.38719423            0  -0.33756829 0.0032074252 
  386500    18.915977   -0.3870402            0  -0.33744045 0.0021740586 
  386600    18.954106  -0.38726156            0  -0.33756183 0.0060649825 
  386700    19.111599  -0.38783671            0  -0.33772402 0.0064930336 
  386800    19.280642  -0.38819171            0  -0.33763577  0.002590913 
  386900    19.334333  -0.38836041            0  -0.33766368 0.0042002422 
  387000    19.187873  -0.38804461            0  -0.33773192 0.0053828358 
  387100    18.947174  -0.38743619            0  -0.33775464 0.0048054368 
  387200    19.047372  -0.38758889            0  -0.33764461 0.0013462445 
  387300    19.111178  -0.38787726            0  -0.33776567 0.0034643275 
  387400    19.246409  -0.38807316            0  -0.33760698 0.0049464723 
  387500    19.267135  -0.38811117            0  -0.33759064 0.0089823706 
  387600    19.228127  -0.38787174            0   -0.3374535  0.005189139 
  387700    19.127766    -0.387517            0  -0.33736191 -0.0014780259 
  387800    18.940823  -0.38699821            0  -0.33733332 0.0016339919 
  387900    19.167634  -0.38768095            0  -0.33742133 0.0023980444 
  388000     19.14338  -0.38748666            0  -0.33729064  0.010481971 
  388100    19.161948  -0.38774979            0  -0.33750507  0.005463671 
  388200    19.194268  -0.38789448            0  -0.33756502 0.0027546255 
  388300    19.028084  -0.38749311            0   -0.3375994 0.0093999266 
  388400    19.120907  -0.38784584            0  -0.33770875 0.00079289711 
  388500    18.735556  -0.38698946            0   -0.3378628  0.007031247 
  388600    18.814515   -0.3870612            0   -0.3377275  0.001972816 
  388700    18.867893  -0.38730272            0  -0.33782905 -0.00041426491 
  388800    18.981181  -0.38737508            0  -0.33760436 0.0037350965 
  388900    18.865156   -0.3870895            0    -0.337623 0.0091463141 
  389000    18.967512  -0.38722653            0  -0.33749165 -0.00059329562 
  389100    19.019254  -0.38723711            0  -0.33736656 0.0011876234 
  389200    19.025496  -0.38751421            0  -0.33762729  0.010090625 
  389300       19.292  -0.38799252            0   -0.3374068 0.0029868594 
  389400    19.060118  -0.38764016            0  -0.33766245 0.0030366916 
  389500    18.976149  -0.38744829            0  -0.33769077 0.0020754284 
  389600    18.900851  -0.38754012            0  -0.33798004 0.0011936523 
  389700    19.029349  -0.38764324            0  -0.33774622  0.004130107 
  389800    18.939246   -0.3874858            0  -0.33782504  0.012762394 
  389900    19.194104  -0.38822034            0  -0.33789131 0.00025055105 
  390000    19.118992  -0.38803501            0  -0.33790294 -5.590362e-05 
  390100    19.133791  -0.38792893            0  -0.33775805 0.0031602086 
  390200    18.881228  -0.38727205            0  -0.33776342 0.0096179567 
  390300    19.214907  -0.38809489            0  -0.33771131 -0.00039728876 
  390400    19.129864  -0.38786785            0  -0.33770727 0.0062856906 
  390500    19.190843  -0.38790898            0  -0.33758851 0.0072180526 
  390600     19.05813  -0.38757173            0  -0.33759924 0.0046125901 
  390700    18.985424  -0.38751805            0   -0.3377362 0.0032090254 
  390800    18.960482  -0.38738618            0  -0.33766973 0.0036294672 
  390900     18.84447    -0.387235            0  -0.33782275 0.0056838044 
  391000    18.838158  -0.38737495            0  -0.33797926  0.004156116 
  391100    18.939613  -0.38765157            0  -0.33798985 0.0030801461 
  391200    18.954391  -0.38774328            0   -0.3380428 0.0022310334 
  391300    18.829718  -0.38741136            0  -0.33803779 0.00021181922 
  391400    18.766406  -0.38720655            0  -0.33799899 0.0032149572 
  391500    18.900083  -0.38764621            0  -0.33808814 0.0061238096 
  391600    18.813733  -0.38737392            0  -0.33804227 0.0066810116 
  391700     18.66929  -0.38702054            0  -0.33806763 0.0054714042 
  391800    18.720798  -0.38691063            0  -0.33782266 0.0018035839 
  391900    18.765174   -0.3870287            0  -0.33782437 0.0020514925 
  392000    18.612208  -0.38663903            0   -0.3378358 0.0079470048 
  392100    18.569924  -0.38650041            0  -0.33780805 -0.0017423556 
  392200     18.37917  -0.38605212            0  -0.33785994 -0.0031742385 
  392300    18.463465  -0.38623044            0  -0.33781723 0.0014264766 
  392400    18.557934  -0.38648998            0  -0.33782906 0.0086514778 
  392500    18.895326  -0.38733748            0  -0.33779188 0.0046744151 
  392600    18.771582  -0.38709927            0  -0.33787814 0.0041262359 
  392700    18.622741   -0.3866952            0  -0.33786435 -0.00033089033 
  392800    18.266308  -0.38593179            0  -0.33803554  0.006417443 
  392900    18.339578  -0.38611289            0  -0.33802452  0.002200844 
  393000    18.314183  -0.38604066            0  -0.33801888 0.00045869967 
  393100    18.267921  -0.38580006            0  -0.33789959 0.0043450882 
  393200    18.405021  -0.38614496            0  -0.33788499 0.0010924437 
  393300    18.428372   -0.3863346            0  -0.33801341 0.0059942552 
  393400    18.401591  -0.38606894            0  -0.33781797 0.0059066131 
  393500    18.237854  -0.38549089            0  -0.33766926  0.006179492 
  393600    18.426095  -0.38589832            0  -0.33758309 0.00046590981 
  393700    18.462951  -0.38591781            0  -0.33750594 0.0040089335 
  393800    18.513427  -0.38601322            0    -0.337469 0.0086075307 
  393900    18.697802  -0.38625965            0  -0.33723198  0.005031344 
  394000    18.612892  -0.38585592            0   -0.3370509 0.0042130353 
  394100    18.511267  -0.38572974            0  -0.33719119 0.0012957092 
  394200     18.47511  -0.38573272            0  -0.33728897 -0.0012565107 
  394300    18.290096  -0.38513577            0  -0.33717715 0.0048084986 
  394400    18.445608  -0.38560679            0   -0.3372404 -0.000625532 
  394500    18.189195  -0.38506917            0  -0.33737512 0.0071845339 
  394600    18.353006  -0.38552231            0  -0.33739873 0.0021704986 
  394700    18.274847  -0.38532786            0  -0.33740922 0.0093563842 
  394800    18.534995  -0.38595593            0  -0.33735516 0.0008145589 
  394900    18.216864  -0.38512393            0  -0.33735733 0.0073118978 
  395000    18.209062  -0.38537238            0  -0.33762624 0.0035470185 
  395100    18.272722  -0.38530939            0  -0.33739632 0.0046289461 
  395200    18.418812  -0.38562675            0  -0.33733063 0.0037479964 
  395300    18.572146  -0.38584661            0  -0.33714842 0.00043625099 
  395400    18.541043  -0.38580263            0    -0.337186 0.0051351816 
  395500    18.569627  -0.38613277            0  -0.33744119  0.005055172 
  395600    18.566048   -0.3859618            0   -0.3372796 0.0034774504 
  395700    18.613564  -0.38618468            0  -0.33737789 0.0034552644 
  395800    18.580684  -0.38613894            0  -0.33741836 0.0049747119 
  395900    18.341508  -0.38555221            0  -0.33745878 0.0086077313 
  396000    18.663749  -0.38635461            0  -0.33741623 -0.0039241515 
  396100    18.523856  -0.38604829            0  -0.33747673 0.0061547924 
  396200    18.645106  -0.38637113            0  -0.33748163 0.0083209816 
  396300    18.642737  -0.38615141            0  -0.33726813 0.0017275775 
  396400    18.444957  -0.38561274            0  -0.33724806  0.002606904 
  396500    18.226177  -0.38520699            0  -0.33741597 0.0083490648 
  396600    18.578238  -0.38589029            0  -0.33717613 0.00073501831 
  396700    18.400945  -0.38567208            0   -0.3374228 0.0088696704 
  396800     18.32257  -0.38546119            0  -0.33741742 0.0064346098 
  396900    18.361888  -0.38553521            0  -0.33738834 -0.0026767902 
  397000    18.352465  -0.38558763            0  -0.33746547 0.0029520182 
  397100    18.349452  -0.38557787            0  -0.33746361 0.0060574904 
  397200    18.317479  -0.38520813            0  -0.33717771 0.0014267257 
  397300    18.405253   -0.3852886            0  -0.33702802 -0.00016458893 
  397400    18.431833  -0.38546019            0  -0.33712991 0.0072099205 
  397500    18.519601  -0.38559736            0  -0.33703695 0.0067013554 
  397600    18.714175  -0.38609813            0  -0.33702753 -0.0011113529 
  397700    18.483849  -0.38544395            0  -0.33697728 0.0061830951 
  397800    18.717337  -0.38611627            0  -0.33703738 0.00073500099 
  397900    18.682099   -0.3863164            0   -0.3373299 0.0022123142 
  398000    18.499619   -0.3857357            0  -0.33722768 0.0097988026 
  398100    18.595129  -0.38581892            0  -0.33706047  0.001825207 
  398200     18.44152   -0.3856197            0  -0.33726403 0.0019330382 
  398300    18.457645  -0.38577156            0  -0.33737361 0.0017899252 
  398400    18.426529  -0.38572081            0  -0.33740445 0.0070531306 
  398500    18.656728  -0.38627349            0  -0.33735352 0.00024989309 
  398600    18.329059  -0.38541062            0  -0.33734983 0.0060151285 
  398700     18.48932  -0.38581233            0  -0.33733133  0.001456868 
  398800    18.374987  -0.38559453            0  -0.33741331 0.0088848945 
  398900    18.759075  -0.38645301            0  -0.33726468 0.0013587119 
  399000    18.700292  -0.38624445            0  -0.33721025 0.0039582579 
  399100     18.70383  -0.38626686            0  -0.33722338  0.006347801 
  399200    18.681081  -0.38619274            0  -0.33720891 0.0063118818 
  399300    18.639676  -0.38602715            0   -0.3371519 0.0023221363 
  399400    18.489968  -0.38571756            0  -0.33723485  0.005469202 
  399500    18.404046  -0.38544492            0  -0.33718751 0.0045501386 
  399600    18.383817  -0.38546547            0   -0.3372611 -0.00052523053 
  399700    18.350531  -0.38535469            0   -0.3372376 0.0048005876 
  399800     18.51351  -0.38574944            0    -0.337205 -0.00025730646 
  399900     18.24589  -0.38514346            0  -0.33730075 0.0025117673 
  400000    18.179359  -0.38503993            0  -0.33737167 0.0043984317 
  400100    18.418099   -0.3856998            0  -0.33740554 6.0897642e-05 
  400200     18.52074  -0.38599038            0  -0.33742698 0.0065893828 
  400300    18.407304  -0.38574735            0   -0.3374814  0.013089999 
  400400    18.609586  -0.38623667            0  -0.33744032 -0.00032596515 
  400500    18.269338   -0.3854481            0  -0.33754391 0.0023713462 
  400600    18.274587  -0.38545716            0   -0.3375392 0.0031264036 
  400700     18.06708  -0.38494937            0  -0.33757552 0.0065565035 
  400800     18.23357  -0.38540763            0  -0.33759723 -0.0023077179 
  400900    18.247748   -0.3854978            0  -0.33765023 0.0034672501 
  401000    18.332447  -0.38565636            0  -0.33758669 0.0046492071 
  401100    18.157333  -0.38513746            0  -0.33752696 0.0063207409 
  401200    18.161986  -0.38515676            0  -0.33753406 0.0023786329 
  401300    18.189155  -0.38515831            0  -0.33746437 0.0041621939 
  401400    18.307667  -0.38536605            0  -0.33736136 0.0045887156 
  401500    18.346057  -0.38547476            0   -0.3373694 0.0060455273 
  401600    18.480312    -0.385687            0  -0.33722961 0.0057328803 
  401700    18.607239  -0.38598354            0  -0.33719333 0.0015855354 
  401800    18.337291   -0.3854922            0  -0.33740982 0.0037253875 
  401900    18.339286  -0.38545271            0  -0.33736511 0.0048065532 
  402000    18.205616  -0.38521716            0  -0.33748006 0.0023008197 
  402100    17.962548  -0.38468888            0  -0.33758913 -0.0015114247 
  402200    18.105114  -0.38501581            0  -0.33754223 -0.00079928438 
  402300     18.25949  -0.38551897            0   -0.3376406 0.0048300096 
  402400    18.361799   -0.3858914            0  -0.33774477 0.0032021987 
  402500    18.316924  -0.38562393            0  -0.33759496 0.0027978834 
  402600    18.262158  -0.38544122            0  -0.33755585 0.0017743423 
  402700    18.185149  -0.38514962            0  -0.33746618 0.0053247863 
  402800    18.237921   -0.3853008            0  -0.33747899 0.0031691867 
  402900    18.401314  -0.38553629            0  -0.33728604 0.0029678009 
  403000      18.3777  -0.38552955            0  -0.33734122 0.0089813123 
  403100    18.364911  -0.38538364            0  -0.33722885  0.011813947 
  403200    18.480082  -0.38583729            0  -0.33738051 0.0025469369 
  403300    18.395861  -0.38544351            0  -0.33720756  0.004269455 
  403400    18.260816   -0.3851959            0  -0.33731406  0.004500715 
  403500    18.317296  -0.38535959            0  -0.33732965 0.0015693432 
  403600    18.290854  -0.38523727            0  -0.33727666  0.003775827 
  403700    18.313442  -0.38520395            0  -0.33718411 0.0054564158 
  403800    18.198699  -0.38486802            0  -0.33714905 0.0025823038 
  403900    18.134697  -0.38491917            0  -0.33736802 0.0007961613 
  404000    17.928128  -0.38428564            0  -0.33727614 0.0079077599 
  404100    18.166723  -0.38482048            0  -0.33718536 0.00090685807 
  404200    18.286832   -0.3852352            0  -0.33728514 3.7814487e-05 
  404300     18.20802   -0.3851584            0  -0.33741499 0.0086980222 
  404400    18.147371  -0.38509261            0  -0.33750823 0.0047739558 
  404500    18.142079  -0.38507986            0  -0.33750936 -0.0017284713 
  404600    18.007564  -0.38487085            0  -0.33765306 0.0028578042 
  404700    17.984553  -0.38474441            0  -0.33758695 0.0049688772 
  404800    17.965162  -0.38464988            0  -0.33754328 0.0044600606 
  404900    17.926552   -0.3845491            0  -0.33754373 0.0017842035 
  405000    17.826704   -0.3842771            0  -0.33753355 0.00021808328 
  405100    18.089552   -0.3848236            0  -0.33739083 0.0014039111 
  405200    18.195952  -0.38517993            0  -0.33746816 0.0087050987 
  405300    18.300382  -0.38555876            0  -0.33757317 0.0028110023 
  405400    17.958441  -0.38475396            0  -0.33766497 0.0072514161 
  405500    18.093489   -0.3850148            0  -0.33757171 0.0044348465 
  405600    18.224592  -0.38533131            0  -0.33754445 0.0018848869 
  405700    18.052012  -0.38482938            0  -0.33749505 0.0058597678 
  405800    18.064353  -0.38477774            0  -0.33741104 0.0017238739 
  405900    18.078921  -0.38485863            0  -0.33745374  0.004288991 
  406000    18.234827  -0.38508963            0  -0.33727593 0.0032589313 
  406100    18.034006  -0.38471588            0  -0.33742876 0.0066970633 
  406200    18.142605  -0.38493353            0  -0.33736165 0.0028937827 
  406300     18.15981  -0.38520016            0  -0.33758316  0.002822967 
  406400    18.292019  -0.38559875            0  -0.33763508 0.0033889071 
  406500    18.355154  -0.38555188            0  -0.33742267 0.0069805332 
  406600    18.419674   -0.3858527            0  -0.33755431 0.0027047479 
  406700    18.414469  -0.38556879            0  -0.33728405 0.0019261527 
  406800     18.31655  -0.38521866            0  -0.33719068 0.0032122481 
  406900    18.367863  -0.38550969            0  -0.33734716 0.0012936843 
  407000    18.397219  -0.38526557            0  -0.33702606 0.0031046952 
  407100    18.306573  -0.38521736            0  -0.33721554 0.0013446325 
  407200    18.118539  -0.38463369            0  -0.33712491 0.0063714823 
  407300    18.093631  -0.38461701            0  -0.33717354 0.0067547577 
  407400    18.421073  -0.38538921            0  -0.33708716 -0.0019989284 
  407500    18.214064   -0.3849178            0  -0.33715854  0.007495467 
  407600      18.4229   -0.3855209            0  -0.33721405 0.0021341792 
  407700    18.245689  -0.38508417            0  -0.33724199 0.0057456973 
  407800    18.232648  -0.38503578            0  -0.33722779 -0.00095790771 
  407900    17.992966  -0.38452987            0  -0.33735036  0.004883431 
  408000    18.110057   -0.3847056            0  -0.33721906 0.0010776103 
  408100    18.141191  -0.38496859            0  -0.33740041  0.001545596 
  408200    18.124899  -0.38512845            0    -0.337603 0.0082734967 
  408300    18.185202  -0.38516677            0  -0.33748319  0.006009509 
  408400      18.2125   -0.3853792            0  -0.33762404 0.0010382827 
  408500    18.003955  -0.38467711            0  -0.33746878  0.003419621 
  408600    18.091089  -0.38480684            0  -0.33737004 0.0029584815 
  408700    18.128158   -0.3851334            0   -0.3375994 0.0066905062 
  408800    18.385967  -0.38546214            0  -0.33725214 0.0032418704 
  408900    18.401934   -0.3856207            0  -0.33736883 0.0039925628 
  409000    18.439233  -0.38551116            0  -0.33716149 0.0054591467 
  409100    18.512485  -0.38595646            0  -0.33741472 0.0046930529 
  409200    18.539643  -0.38579412            0  -0.33718116  0.013951737 
  409300    18.683582  -0.38616858            0  -0.33717819 -0.0019456792 
  409400    18.319121  -0.38544561            0  -0.33741088 0.0056510155 
  409500    18.383944  -0.38534102            0  -0.33713632  0.009613701 
  409600    18.468918  -0.38571088            0  -0.33728337 0.0021298274 
  409700    18.320153  -0.38524837            0  -0.33721093 0.0030747749 
  409800    18.117348  -0.38459047            0  -0.33708481 0.0061416113 
  409900    18.189222  -0.38491675            0  -0.33722263 0.00013435855 
  410000    17.994312  -0.38431615            0   -0.3371331 0.0059702297 
  410100    17.944457  -0.38412905            0  -0.33707673  0.005520202 
  410200    17.890771  -0.38394326            0  -0.33703171 0.0042353733 
  410300    17.878071  -0.38377577            0  -0.33689752 0.0029790711 
  410400     17.89458  -0.38393013            0  -0.33700859 0.0037820774 
  410500    17.953063  -0.38395874            0  -0.33688386 0.0055188257 
  410600    18.019896  -0.38413119            0  -0.33688106 0.0028671919 
  410700    17.945622  -0.38407977            0   -0.3370244 0.0037920322 
  410800    17.931929   -0.3839509            0  -0.33693143 0.0062850235 
  410900    17.964461  -0.38400722            0  -0.33690245 0.0016226213 
  411000    17.889863  -0.38379068            0  -0.33688152 0.0020423423 
  411100    17.890313  -0.38368778            0  -0.33677744 0.0046067254 
  411200    17.817596  -0.38389981            0  -0.33718014 0.0035939897 
  411300    17.907981  -0.38384661            0  -0.33688994 0.00081301781 
  411400    18.056658  -0.38437315            0  -0.33702662 0.00014714467 
  411500    17.858068  -0.38401216            0  -0.33718636 0.0053837306 
  411600    17.965224  -0.38433465            0  -0.33722788 -0.001849085 
  411700    17.997585  -0.38452274            0  -0.33733111 0.0065761388 
  411800     18.20122  -0.38504124            0  -0.33731566 0.0052023294 
  411900    18.209799  -0.38511466            0  -0.33736658 0.0048500948 
  412000    18.177685  -0.38504995            0  -0.33738608 0.0051876053 
  412100    18.092663  -0.38480908            0  -0.33736815 0.0032387457 
  412200    17.993204  -0.38454348            0  -0.33736334 0.0011066923 
  412300    18.168693  -0.38490722            0  -0.33726693 -0.00040387822 
  412400    18.244584  -0.38501192            0  -0.33717264 0.0050108013 
  412500    18.455431   -0.3854527            0  -0.33706055 0.0024177049 
  412600     18.27954  -0.38497434            0   -0.3370434 0.0078900301 
  412700    18.267444  -0.38477045            0  -0.33687123 0.00058809003 
  412800    18.037472  -0.38412539            0  -0.33682918 0.0040436553 
  412900     18.09466  -0.38441706            0   -0.3369709 0.0012542805 
  413000    18.206167   -0.3846702            0  -0.33693165 0.0027072885 
  413100    18.173899  -0.38484485            0  -0.33719091 0.0073466291 
  413200    18.220742  -0.38476711            0  -0.33699034 0.0061153552 
  413300    18.037273   -0.3843893            0  -0.33709361 0.0048767316 
  413400    18.031054   -0.3842881            0  -0.33700872 -2.6056281e-05 
  413500    18.002657  -0.38421369            0  -0.33700876 0.0054482557 
  413600    18.067754  -0.38458713            0  -0.33721151 0.0050064467 
  413700    18.133868  -0.38452461            0  -0.33697563 -7.1485592e-05 
  413800    18.079749  -0.38458459            0  -0.33717752 0.00089175928 
  413900      18.1288  -0.38468543            0  -0.33714975 0.0036936997 
  414000    18.155197  -0.38490423            0  -0.33729933 0.0026342731 
  414100    18.025311  -0.38465642            0  -0.33739209  0.001942877 
  414200    17.978662  -0.38452312            0  -0.33738112 0.0049344732 
  414300    18.055301  -0.38476309            0  -0.33742013 0.0046762282 
  414400    17.942399  -0.38455432            0   -0.3375074 0.0070615819 
  414500    18.306303  -0.38530438            0  -0.33730326 0.0008984698 
  414600    18.270004  -0.38525606            0  -0.33735013   0.00545763 
  414700    18.490354  -0.38571144            0  -0.33722772 0.0015342732 
  414800    18.261675  -0.38529351            0  -0.33740941  0.007520128 
  414900    18.268346  -0.38522059            0    -0.337319 0.0053170596 
  415000    18.323984  -0.38539872            0  -0.33735124 0.0033945762 
  415100    18.156379  -0.38500106            0  -0.33739306 0.0051219358 
  415200    18.022839  -0.38482868            0  -0.33757084 0.0035368182 
  415300    17.996259  -0.38465946            0  -0.33747131 0.0043819655 
  415400    18.124642  -0.38512862            0  -0.33760384 -0.00070416009 
  415500    18.081522  -0.38489962            0   -0.3374879 0.0040785795 
  415600    18.054463  -0.38489745            0  -0.33755669 0.0055145615 
  415700    17.943802  -0.38452836            0  -0.33747776 0.0013804449 
  415800    17.952587   -0.3845951            0  -0.33752146 -0.0013185444 
  415900    18.021324  -0.38470866            0  -0.33745479 0.0036441523 
  416000    18.174606  -0.38503049            0  -0.33737469 0.0062057397 
  416100    18.368399  -0.38540084            0   -0.3372369   0.00208371 
  416200    18.097053  -0.38478121            0  -0.33732876  0.010020151 
  416300    18.239078  -0.38488734            0  -0.33706249 0.0036709457 
  416400    18.080332  -0.38457072            0  -0.33716212 0.0034903223 
  416500    18.237435  -0.38502154            0    -0.337201 0.0029935084 
  416600    18.237093  -0.38491204            0   -0.3370924 0.0015473777 
  416700    18.075832   -0.3843665            0   -0.3369697 0.0045398957 
  416800    18.202106  -0.38484833            0  -0.33712043 0.0036168691 
  416900     18.26625  -0.38494018            0  -0.33704409 0.0088069604 
  417000    18.396078  -0.38522578            0  -0.33698927 0.0054427075 
  417100    18.446417  -0.38525676            0  -0.33688825 -0.0006856801 
  417200    18.075984  -0.38447897            0  -0.33708178 0.0064717991 
  417300    18.249542  -0.38479059            0  -0.33693831 0.0019200767 
  417400    18.116833  -0.38456585            0  -0.33706154 0.0064578755 
  417500       18.225  -0.38477869            0  -0.33699075 0.0034268832 
  417600    17.910269  -0.38410749            0  -0.33714482 0.0082852379 
  417700    17.910491  -0.38433953            0  -0.33737627 0.00073192532 
  417800    17.841534  -0.38404774            0   -0.3372653 0.00028363608 
  417900    18.064738  -0.38449912            0  -0.33713141 0.0018458911 
  418000    18.248854  -0.38497043            0  -0.33711995 0.0074871581 
  418100    18.339296   -0.3850286            0  -0.33694097 0.0079056182 
  418200    18.152718  -0.38450444            0  -0.33690603 0.0081414936 
  418300    18.253929  -0.38467008            0   -0.3368063 0.00057921184 
  418400    18.036581  -0.38409055            0  -0.33679667 0.0075505222 
  418500    18.194427  -0.38458714            0  -0.33687937 0.0047842997 
  418600    18.070097  -0.38419173            0  -0.33680997 0.0060810083 
  418700    18.051723  -0.38407369            0   -0.3367401 0.00055005675 
  418800    17.999457  -0.38404629            0  -0.33684976 0.0027755334 
  418900    18.204738  -0.38479471            0  -0.33705991 0.00080918015 
  419000    17.991817  -0.38429126            0  -0.33711476 0.0073213254 
  419100    18.063349  -0.38459795            0  -0.33723388 0.0012855579 
  419200    18.190286  -0.38491737            0  -0.33722046 0.00049870736 
  419300    18.397712   -0.3854757            0   -0.3372349 0.0071183243 
  419400    18.363402  -0.38536574            0   -0.3372149 0.0085884038 
  419500    18.325371  -0.38519632            0  -0.33714521 -0.0010626175 
  419600    18.153367  -0.38483075            0  -0.33723065 0.0012012531 
  419700    18.278177  -0.38496799            0  -0.33704062 0.0036545052 
  419800    18.386725   -0.3852116            0  -0.33699961 0.0071568199 
  419900    18.567645  -0.38559598            0   -0.3369096 0.0069334951 
  420000    18.675198  -0.38575385            0  -0.33678545 0.0039846586 
  420100     18.51118  -0.38507954            0  -0.33654121 0.0029288636 
  420200    18.470871  -0.38518655            0  -0.33675391 0.0024784241 
  420300    18.534204  -0.38528363            0  -0.33668493 0.0045473793 
  420400    18.511055  -0.38537394            0  -0.33683594 0.0023868924 
  420500    18.376833  -0.38531615            0  -0.33713009 0.0044490221 
  420600    18.498199   -0.3856206            0   -0.3371163 0.0045657008 
  420700    18.546848  -0.38592959            0  -0.33729774  0.003177905 
  420800    18.367327  -0.38558699            0  -0.33742586 0.0082204154 
  420900    18.523306  -0.38593891            0  -0.33736879 -0.00061228162 
  421000    18.226783   -0.3851721            0  -0.33737949 0.0080390406 
  421100    18.369475  -0.38555727            0  -0.33739051 0.00030965105 
  421200    18.375773  -0.38543108            0   -0.3372478 0.0016657052 
  421300    18.553623  -0.38573377            0  -0.33708415 0.0028417638 
  421400    18.265694  -0.38520856            0  -0.33731393 0.0091009793 
  421500    18.503351  -0.38544201            0  -0.33692421 -0.00039987618 
  421600    18.490301  -0.38570213            0  -0.33721855 0.0044355216 
  421700    18.627745  -0.38604527            0   -0.3372013 0.0073605072 
  421800    18.471809  -0.38558224            0  -0.33714715 0.0097278664 
  421900    18.523901  -0.38582562            0  -0.33725393 0.0056285594 
  422000    18.332183    -0.385457            0  -0.33738802 0.0075547006 
  422100    18.350559  -0.38540351            0  -0.33728635 0.00012918253 
  422200    18.160355  -0.38487035            0  -0.33725192 0.0010102433 
  422300    18.283407  -0.38520567            0  -0.33726459 0.0017592786 
  422400    18.158465  -0.38492211            0  -0.33730864 0.0088352779 
  422500    18.370586  -0.38548008            0  -0.33731041 -0.0033544501 
  422600    17.962466  -0.38445507            0  -0.33735553 0.0085614012 
  422700    17.908374  -0.38436922            0  -0.33741151 0.0038567459 
  422800    17.917781  -0.38464932            0  -0.33766695 -0.0023686855 
  422900    17.897131  -0.38448284            0  -0.33755462 0.0045874739 
  423000    18.122182  -0.38507292            0  -0.33755459 0.00056323491 
  423100    18.254831  -0.38520882            0  -0.33734267 0.0017155558 
  423200    18.412474   -0.3856274            0  -0.33734789 0.0032751418 
  423300     18.46567  -0.38557603            0  -0.33715703 0.0042800166 
  423400    18.227251  -0.38502689            0  -0.33723305 0.0063724319 
  423500    18.148366  -0.38472359            0   -0.3371366 0.0046957825 
  423600    18.000897  -0.38469143            0  -0.33749113 0.0059741207 
  423700    18.069036  -0.38459153            0  -0.33721256 0.0049793136 
  423800    18.007251  -0.38453637            0   -0.3373194 0.0029202792 
  423900    17.980453  -0.38456456            0  -0.33741786 0.0028482042 
  424000    17.883282  -0.38425389            0  -0.33736198 0.0053903817 
  424100    18.111777  -0.38484508            0  -0.33735403 -0.0010826092 
  424200    18.060427  -0.38476934            0  -0.33741293 0.0054562417 
  424300    18.113066  -0.38482676            0  -0.33733233 0.0095710831 
  424400    18.240917  -0.38511445            0  -0.33728478 0.0023668143 
  424500    18.197589   -0.3849216            0  -0.33720554 -0.00075487604 
  424600    18.072858  -0.38453003            0  -0.33714103 0.0053419931 
  424700     18.28792  -0.38520306            0  -0.33725015 0.0021776009 
  424800    18.304853  -0.38522221            0   -0.3372249 0.0025933407 
  424900    18.043728  -0.38440956            0  -0.33709694 0.0076000029 
  425000    18.186567  -0.38484225            0   -0.3371551 0.00020129113 
  425100    18.313565  -0.38501124            0  -0.33699109 0.0040601613 
  425200    18.578008  -0.38559731            0  -0.33688375 0.0062815936 
  425300     18.46224  -0.38533522            0  -0.33692522 0.0089211809 
  425400    18.448267  -0.38504944            0  -0.33667608  0.003671622 
  425500    18.222564  -0.38452668            0  -0.33674514 0.0066618245 
  425600    18.243126  -0.38462161            0  -0.33678615 0.0020806313 
  425700    18.169349  -0.38420518            0  -0.33656317 0.0076930156 
  425800    18.214754  -0.38469747            0  -0.33693641  0.003466572 
  425900    18.347984  -0.38484776            0  -0.33673735 -0.0020624507 
  426000    18.297326   -0.3848034            0  -0.33682582 0.00046517195 
  426100    18.387337  -0.38534621            0  -0.33713261  0.004312059 
  426200    18.382543  -0.38522696            0  -0.33702593  0.011876516 
  426300    18.349283  -0.38530181            0  -0.33718799 0.0046785584 
  426400    18.154105  -0.38487347            0  -0.33727144 -0.0024520359 
  426500    17.871326  -0.38414335            0  -0.33728279 0.0045478087 
  426600    17.966184  -0.38455315            0  -0.33744386 0.0034800055 
  426700    18.150948  -0.38505347            0  -0.33745971 0.0028517068 
  426800     18.18834   -0.3850993            0  -0.33740749 0.0046946392 
  426900     18.02729  -0.38480602            0  -0.33753651  0.006621403 
  427000    18.002931  -0.38475736            0  -0.33755172 0.0030740711 
  427100    17.833701  -0.38424808            0  -0.33748618 0.0096996164 
  427200    18.167338  -0.38492771            0  -0.33729098 0.0013437599 
  427300    18.055848  -0.38469842            0  -0.33735402 0.0037197098 
  427400    18.117801  -0.38480595            0   -0.3372991 0.00096817901 
  427500    18.261984  -0.38502565            0  -0.33714074 0.00021029276 
  427600    18.182256  -0.38486702            0  -0.33719117 0.0045181279 
  427700    18.377223  -0.38538984            0  -0.33720277 0.0027336566 
  427800    18.320465  -0.38525349            0  -0.33721523 0.0086219739 
  427900    18.441663   -0.3854965            0  -0.33714045 0.0029218068 
  428000     18.27434  -0.38511167            0  -0.33719436 0.0010985322 
  428100    18.106861  -0.38464925            0  -0.33717109 0.0037137217 
  428200    18.120132   -0.3848617            0  -0.33734874 0.0010550952 
  428300    18.289997  -0.38512551            0  -0.33716715 -0.0027835143 
  428400    18.287026  -0.38524733            0  -0.33729676 0.0044979736 
  428500    18.358822  -0.38561015            0  -0.33747132 0.0052739274 
  428600    18.555185  -0.38596348            0  -0.33730977 0.0020054202 
  428700    18.598857  -0.38598031            0  -0.33721209 0.00071413252 
  428800    18.575322  -0.38600868            0  -0.33730216 0.0027240995 
  428900    18.339658  -0.38526468            0   -0.3371761 0.0086603502 
  429000    18.444798  -0.38557181            0  -0.33720754 -0.0012892701 
  429100    18.302248  -0.38514212            0  -0.33715164 0.0020852273 
  429200    18.469998  -0.38572828            0  -0.33729793 0.0016109747 
  429300    18.475965  -0.38574758            0  -0.33730159  0.007055101 
  429400    18.358951  -0.38550974            0  -0.33737057  0.008281445 
  429500    18.361105  -0.38548497            0  -0.33734015 0.0037687602 
  429600    18.327092  -0.38527792            0  -0.33722229 0.0025745457 
  429700    18.151595  -0.38498391            0  -0.33738846 0.0069237751 
  429800     18.34054  -0.38560577            0  -0.33751488 0.0028174772 
  429900    18.505635  -0.38583006            0  -0.33730628 0.0030534691 
  430000    18.472823  -0.38577708            0  -0.33733933 0.0029246993 
  430100    18.442365  -0.38571664            0  -0.33735875 0.0037083791 
  430200    18.349943  -0.38556254            0  -0.33744699 0.0040564298 
  430300    18.155455  -0.38498687            0   -0.3373813 0.0029411164 
  430400    18.114179   -0.3849132            0  -0.33741585 -0.00013960527 
  430500    18.003179  -0.38462651            0  -0.33742022  0.006779487 
  430600    17.918822  -0.38459399            0   -0.3376089 0.0035067556 
  430700    17.980276  -0.38451958            0  -0.33737334 -0.00020092905 
  430800    17.857379  -0.38429217            0  -0.33746818 0.0063596696 
  430900    17.952775  -0.38459366            0  -0.33751953  0.002789079 
  431000    17.877425  -0.38426431            0  -0.33738776 0.0015162101 
  431100    17.738024  -0.38394274            0  -0.33743171 0.0026040019 
  431200    17.664112  -0.38381006            0  -0.33749284 0.0028346527 
  431300    17.717488  -0.38375222            0  -0.33729504 0.0042922664 
  431400    17.756292  -0.38402007            0  -0.33746115 0.0047377794 
  431500    17.874102  -0.38417907            0  -0.33731123 0.0033757573 
  431600     18.10859  -0.38460627            0  -0.33712358 0.00089838291 
  431700    18.137966   -0.3847678            0  -0.33720809 0.0085464049 
  431800    18.048356  -0.38458762            0  -0.33726287 0.0056289817 
  431900    18.051572  -0.38429777            0  -0.33696459 0.00041548119 
  432000     18.07727  -0.38429589            0  -0.33689532 0.00063914131 
  432100    18.009773  -0.38436705            0  -0.33714347 0.0038799058 
  432200    18.086427  -0.38441284            0  -0.33698826 0.0056365509 
  432300    18.114045  -0.38471675            0  -0.33721975    0.0042042 
  432400    18.455248  -0.38538037            0   -0.3369887 -3.9705702e-05 
  432500    18.477443  -0.38538874            0  -0.33693887 0.0077289956 
  432600    18.485585  -0.38561377            0  -0.33714256 0.0074124714 
  432700    18.362503  -0.38517699            0  -0.33702851 0.0059901943 
  432800    18.230056  -0.38493954            0  -0.33713835 0.0017458026 
  432900    18.136066   -0.3848956            0  -0.33734086 0.0012292607 
  433000    18.019733  -0.38448955            0  -0.33723985 0.0058450939 
  433100    18.071606  -0.38471076            0  -0.33732504 0.0046442365 
  433200    18.139206  -0.38482067            0   -0.3372577 -0.00074090042 
  433300    17.984354   -0.3844274            0  -0.33727047 0.0068776617 
  433400    18.071284  -0.38465608            0  -0.33727121 0.0039437454 
  433500    18.034172  -0.38456607            0  -0.33727851 0.0035664517 
  433600    18.227882   -0.3849053            0  -0.33710981  0.001857891 
  433700    18.073924  -0.38458071            0  -0.33718892 0.0022492679 
  433800    17.940491  -0.38422075            0  -0.33717883 0.0027319282 
  433900    18.061186  -0.38450757            0  -0.33714918 0.0047023175 
  434000    18.165664   -0.3847592            0  -0.33712686 0.0049212368 
  434100    18.123303  -0.38460669            0  -0.33708542 0.0031713919 
  434200     18.14687  -0.38459879            0  -0.33701572 4.9744814e-05 
  434300    17.961621  -0.38415726            0  -0.33705994 0.0076279205 
  434400     18.02652  -0.38427316            0  -0.33700566 0.0058228758 
  434500    18.026416   -0.3844508            0  -0.33718358 -0.00096603981 
  434600    17.792531  -0.38400681            0  -0.33735286 0.0032052208 
  434700    17.801707  -0.38409227            0  -0.33741426 0.0024323706 
  434800     17.91599  -0.38445433            0  -0.33747665 -0.00054720475 
  434900    17.896211  -0.38435097            0  -0.33742516  0.005403302 
  435000    18.022432  -0.38463399            0  -0.33737721 0.0044534497 
  435100    17.952042   -0.3843853            0  -0.33731309 0.0044145062 
  435200    18.080697  -0.38452902            0  -0.33711947 0.0027536492 
  435300    18.139837  -0.38480856            0  -0.33724393 0.0014734096 
  435400    18.366778  -0.38530107            0  -0.33714138 -0.00026406664 
  435500    18.381462  -0.38524854            0  -0.33705035 0.0040076534 
  435600    18.211524  -0.38484422            0  -0.33709163 0.0074943696 
  435700    18.197168  -0.38492191            0  -0.33720695 0.0067546826 
  435800    18.270207  -0.38482174            0  -0.33691527 0.0064125074 
  435900    18.218499  -0.38474039            0  -0.33696951 0.0049134519 
  436000    17.993879   -0.3841769            0  -0.33699499 0.0067322888 
  436100    18.117314  -0.38445172            0  -0.33694615 0.0034364889 
  436200    17.933741  -0.38420648            0  -0.33718226 0.0057842062 
  436300    18.018978  -0.38429398            0  -0.33704626 -0.001770792 
  436400     17.91611   -0.3841536            0  -0.33717561  0.005073118 
  436500    17.888382  -0.38426789            0  -0.33736261 0.0088800137 
  436600    17.987796   -0.3843209            0  -0.33715494 0.0040690749 
  436700    17.869619  -0.38413165            0  -0.33727557 0.0027951443 
  436800    17.963778  -0.38428797            0  -0.33718499 -0.00064268335 
  436900    18.013182  -0.38426597            0  -0.33703345 0.0038741818 
  437000    18.292433  -0.38493382            0  -0.33696907 0.0042246395 
  437100    18.217299  -0.38481558            0  -0.33704784 0.0090683532 
  437200    18.315578  -0.38488955            0  -0.33686411 0.0017724418 
  437300    18.264569  -0.38491648            0   -0.3370248 0.0026603249 
  437400    18.328606  -0.38504404            0  -0.33698444 0.0034494786 
  437500    18.205291  -0.38498952            0  -0.33725327  0.004476933 
  437600    18.302784  -0.38523581            0  -0.33724393 -0.0011518174 
  437700     17.94702  -0.38447614            0   -0.3374171 0.0087655359 
  437800    18.275913  -0.38518522            0  -0.33726379  0.001549116 
  437900     18.20267  -0.38492628            0   -0.3371969 0.0032092679 
  438000    18.304522  -0.38519854            0  -0.33720209 6.989208e-05 
  438100    18.180211  -0.38477533            0  -0.33710484 0.0060957799 
  438200    18.162697  -0.38459262            0  -0.33696805 0.0074801171 
  438300     18.15057  -0.38456363            0  -0.33697086 0.0048511162 
  438400    17.967096  -0.38414313            0  -0.33703145 0.0059678789 
  438500    18.353097  -0.38533302            0   -0.3372092 0.0016004851 
  438600    18.508628  -0.38536391            0  -0.33683227 0.0072776034 
  438700    18.500847  -0.38531742            0  -0.33680619 0.0032821947 
  438800    18.567607  -0.38542707            0  -0.33674078 2.6074487e-05 
  438900    18.572202  -0.38523048            0  -0.33653214 0.0021317351 
  439000     18.26342  -0.38512216            0  -0.33723349  0.009223085 
  439100    18.764129  -0.38586809            0   -0.3366665 0.0032314034 
  439200    18.641064  -0.38574477            0  -0.33686587 0.0060753868 
  439300    18.581884  -0.38578302            0   -0.3370593 0.0015186577 
  439400    18.581911   -0.3856504            0   -0.3369266 0.00096232482 
  439500    18.419662  -0.38519115            0  -0.33689279 0.0060442065 
  439600     18.26415  -0.38502574            0  -0.33713515 0.0022145297 
  439700    18.246362   -0.3845898            0  -0.33674585  -0.00115345 
  439800    18.089518  -0.38423884            0  -0.33680615 0.0064987821 
  439900    18.161356  -0.38435123            0  -0.33673018 0.0037242001 
  440000    17.986166  -0.38385495            0  -0.33669326 0.0036836156 
  440100    18.132567  -0.38422071            0  -0.33667515 0.00058160795 
  440200    18.257344  -0.38478973            0  -0.33691699 0.0046047756 
  440300    18.559724  -0.38542109            0  -0.33675548 0.0060357005 
  440400    18.529642  -0.38545863            0   -0.3368719 0.0072899771 
  440500    18.307438  -0.38489251            0  -0.33688841 0.0060833324 
  440600    18.136702  -0.38438903            0  -0.33683263 0.0054118532 
  440700    18.098552  -0.38435302            0  -0.33689665 0.0040683999 
  440800    18.068077  -0.38420664            0  -0.33683017 0.0023459269 
  440900    18.219839  -0.38472346            0  -0.33694906 -0.0021674882 
  441000    18.059889  -0.38447259            0   -0.3371176 0.0071149105 
  441100    18.251212  -0.38496007            0  -0.33710341 0.0013545957 
  441200    18.129172  -0.38457276            0   -0.3370361 0.0037817993 
  441300    18.078699  -0.38440639            0  -0.33700207 0.0042902185 
  441400     18.03998  -0.38430461            0  -0.33700182 0.0022751626 
  441500    18.048973  -0.38434635            0  -0.33701998 0.0017004872 
  441600    18.164257  -0.38472597            0  -0.33709731 0.0016114752 
  441700    18.237819  -0.38482019            0  -0.33699864 0.0041734297 
  441800    18.115139  -0.38450377            0   -0.3370039  0.004754008 
  441900    18.088652  -0.38449849            0  -0.33706807 0.0037968605 
  442000    17.988678   -0.3846309            0  -0.33746263 0.0066826513 
  442100    18.027454   -0.3844272            0  -0.33715726  0.005299883 
  442200    18.077664   -0.3845064            0  -0.33710479 0.0029251398 
  442300    18.077101  -0.38441588            0  -0.33701576 0.0026934605 
  442400    18.061083  -0.38436639            0  -0.33700826 0.0065841943 
  442500    18.196162  -0.38469383            0  -0.33698151 0.0010157783 
  442600      18.0572  -0.38430805            0  -0.33696011 0.0028092767 
  442700     18.06043  -0.38450756            0  -0.33715114  0.004856506 
  442800    18.047142  -0.38427908            0  -0.33695751 0.0033622909 
  442900    18.073558  -0.38435192            0  -0.33696109 0.0042105295 
  443000     18.45138  -0.38527761            0  -0.33689608 0.0013046381 
  443100    18.172274  -0.38471004            0  -0.33706037  0.013731287 
  443200    18.444522  -0.38504479            0  -0.33668125 0.0013129815 
  443300     18.36045  -0.38502522            0  -0.33688213 -0.00099021903 
  443400    18.490125  -0.38523963            0  -0.33675651 0.0026229919 
  443500    18.506443  -0.38518175            0  -0.33665584 0.0080413579 
  443600    18.405728  -0.38501218            0  -0.33675036 0.0082521604 
  443700    18.487851  -0.38541467            0  -0.33693752 0.0045724488 
  443800    18.413151  -0.38512789            0   -0.3368466 0.0043109872 
  443900    18.318111  -0.38487766            0  -0.33684558 0.0033802396 
  444000    18.280947  -0.38491326            0  -0.33697863 -0.00027097039 
  444100    18.286461   -0.3848648            0  -0.33691571 0.0041272798 
  444200    18.313741  -0.38493233            0   -0.3369117  0.008920475 
  444300    18.556202  -0.38547852            0  -0.33682214 0.0020451285 
  444400    18.237369  -0.38484182            0  -0.33702146 0.0064553568 
  444500    18.215034  -0.38472752            0  -0.33696572 0.00086340309 
  444600    18.215203  -0.38470419            0  -0.33694195 0.0013348758 
  444700    18.341126  -0.38509752            0   -0.3370051 0.0014246982 
  444800    18.061716  -0.38424853            0  -0.33688875  0.013397214 
  444900    18.453925   -0.3851443            0   -0.3367561 -0.0020024756 
  445000    18.332654  -0.38484731            0  -0.33677709 -0.00054034921 
  445100    18.354949  -0.38473348            0  -0.33660481 0.0091724608 
  445200    18.603173  -0.38543931            0  -0.33665977 0.0039846304 
  445300    18.421203    -0.384929            0   -0.3366266 0.0057726395 
  445400    18.344827  -0.38479484            0  -0.33669271 0.0060951182 
  445500    18.471495   -0.3851529            0  -0.33671863 0.0034584007 
  445600    18.393931  -0.38509528            0  -0.33686439 0.0044869715 
  445700    18.446659  -0.38523328            0  -0.33686414 0.0027315599 
  445800    18.380707     -0.38505            0  -0.33685379 0.0039275585 
  445900    18.532389  -0.38541976            0  -0.33682582 0.0026802963 
  446000    18.317775  -0.38501163            0  -0.33698043  0.009110641 
  446100    18.263554  -0.38479918            0  -0.33691016 0.0035650035 
  446200    18.004643  -0.38406344            0  -0.33685331 0.0023123158 
  446300    18.031275  -0.38393897            0  -0.33665901 0.0044449385 
  446400    18.132328  -0.38435124            0  -0.33680631 0.0037787011 
  446500    18.254537  -0.38460206            0  -0.33673668 0.0062607079 
  446600    18.383056  -0.38506012            0  -0.33685775 0.0078667605 
  446700    18.539544  -0.38554503            0  -0.33693233 0.0019270107 
  446800    18.450487  -0.38534323            0  -0.33696405 -0.001438648 
  446900    18.289897  -0.38504498            0  -0.33708688 0.0066623718 
  447000    18.357891  -0.38529724            0  -0.33716086  0.011802153 
  447100    18.602431  -0.38564413            0  -0.33686653 0.0030509755 
  447200    18.544632  -0.38567946            0  -0.33705342 0.0029236138 
  447300     18.65958  -0.38599925            0   -0.3370718 0.0027968337 
  447400    18.614215  -0.38563093            0  -0.33682244  0.005009692 
  447500    18.553355  -0.38549514            0  -0.33684623 0.0022341116 
  447600    18.518304  -0.38532766            0  -0.33677066 0.0064166806 
  447700    18.372676  -0.38502764            0  -0.33685249  0.007548567 
  447800    18.290922   -0.3848693            0  -0.33690851 -0.00061308093 
  447900    18.357809  -0.38499219            0  -0.33685602 0.00098743327 
  448000    18.583304  -0.38569536            0  -0.33696792 0.0042545696 
  448100    18.588201  -0.38568889            0  -0.33694861 0.0059595893 
  448200    18.258045  -0.38511939            0  -0.33724481 0.0063656012 
  448300    18.483772   -0.3854024            0  -0.33693594 -0.00027569386 
  448400    18.373218  -0.38525507            0  -0.33707849 0.0080348128 
  448500    18.680664  -0.38606763            0   -0.3370849 -5.7791675e-05 
  448600    18.607537  -0.38577039            0  -0.33697941 0.0053402961 
  448700    18.659743  -0.38596255            0  -0.33703467 0.0060989432 
  448800    18.362773  -0.38545168            0  -0.33730249 0.0061468978 
  448900    18.192143  -0.38478823            0  -0.33708645 0.0014444918 
  449000    18.026149  -0.38429867            0  -0.33703215 0.0031593008 
  449100    18.171314   -0.3846683            0  -0.33702114 0.00079094324 
  449200    18.262584  -0.38496374            0  -0.33707725 0.0047933297 
  449300    18.259902   -0.3847362            0  -0.33685675 0.0082781158 
  449400    18.293492  -0.38484124            0  -0.33687371 0.0024245818 
  449500    18.272165  -0.38472438            0  -0.33681278 0.0016287988 
  449600    18.264516  -0.38464685            0   -0.3367553   0.00359516 
  449700    18.313362  -0.38486511            0  -0.33684548 0.0039119442 
  449800    18.514809  -0.38541318            0  -0.33686533 0.0039497417 
  449900     18.52474  -0.38533198            0  -0.33675809 0.0074933448 
  450000    18.402599  -0.38527461            0  -0.33702099 9.4595251e-05 
  450100    18.113927  -0.38453043            0  -0.33703375 -0.0018067864 
  450200    18.088899  -0.38449503            0  -0.33706397 0.0026339167 
  450300    18.226562  -0.38493444            0  -0.33714241 0.0060236735 
  450400    18.471218  -0.38565566            0  -0.33722212 0.0050247544 
  450500    18.409373  -0.38537925            0  -0.33710787  0.007101322 
  450600    18.374059  -0.38529533            0  -0.33711655 0.0010051883 
  450700    18.258366  -0.38488923            0  -0.33701381 0.0030420302 
  450800     18.33046  -0.38491524            0  -0.33685078 0.0016673388 
  450900    18.314519  -0.38508614            0  -0.33706348 0.0017512189 
  451000    18.471407  -0.38514838            0  -0.33671434   0.00510724 
  451100    18.482208  -0.38524392            0  -0.33678156 0.0041907443 
  451200    18.230911  -0.38460973            0   -0.3368063 0.0030384426 
  451300    18.201349  -0.38464193            0  -0.33691602 0.00055247962 
  451400    18.424611  -0.38528827            0  -0.33697694 0.00086483903 
  451500    18.302119  -0.38505924            0  -0.33706909 0.0077811936 
  451600    18.426154   -0.3853311            0  -0.33701572  0.001792997 
  451700    18.411976   -0.3851352            0  -0.33685699 0.0035111045 
  451800    18.495534  -0.38563491            0  -0.33713761 0.0050509226 
  451900    18.810788  -0.38613526            0  -0.33681133 0.0028078484 
  452000    18.875996  -0.38620235            0  -0.33670743 0.0052716049 
  452100     18.73358  -0.38584817            0  -0.33672669  0.010550993 
  452200    18.787979  -0.38613357            0  -0.33686945 0.0026804939 
  452300    18.633055  -0.38590368            0  -0.33704578 0.0033537018 
  452400    18.727085  -0.38597697            0  -0.33687251 0.0042299704 
  452500    18.696639   -0.3860595            0  -0.33703488 0.0035987782 
  452600    18.505985  -0.38562295            0  -0.33709824 0.0056054138 
  452700    18.431615  -0.38533341            0  -0.33700371 0.0040874651 
  452800    18.275111  -0.38497336            0  -0.33705403 0.0042617788 
  452900    18.406304   -0.3853321            0  -0.33706877  0.001128493 
  453000    18.483372   -0.3855726            0  -0.33710718 0.0010708357 
  453100    18.395834  -0.38529943            0  -0.33706356 0.0030971349 
  453200     18.43402  -0.38547325            0  -0.33713724 0.00046118585 
  453300     18.30477  -0.38503885            0  -0.33704175 0.0076073403 
  453400     18.52825  -0.38569867            0  -0.33711558 -0.00023269884 
  453500    18.328187  -0.38498482            0  -0.33692632 0.0045078361 
  453600    18.328712  -0.38522943            0  -0.33716956 0.0011476094 
  453700    18.411485  -0.38547499            0  -0.33719808 0.0016551581 
  453800    18.539938    -0.385749            0  -0.33713526 0.0047105887 
  453900    18.462089  -0.38579405            0  -0.33738445 0.0048384467 
  454000    18.475654  -0.38585157            0   -0.3374064 -0.00013297578 
  454100      18.0871  -0.38486258            0  -0.33743623 0.0088706301 
  454200    18.262344  -0.38522848            0  -0.33734263 0.0041104458 
  454300    18.332915  -0.38530473            0  -0.33723383 -0.0017446324 
  454400    18.092335  -0.38460431            0  -0.33716424  0.006633299 
  454500    18.108195  -0.38461363            0  -0.33713197 0.0058261564 
  454600    18.189565  -0.38468565            0  -0.33699063 0.00059992391 
  454700    18.129562  -0.38453626            0  -0.33699858 0.0042363913 
  454800    18.188379   -0.3847128            0  -0.33702089 0.0067561754 
  454900    18.200783  -0.38464598            0  -0.33692155 0.0018402173 
  455000    17.926041  -0.38420679            0  -0.33720276 -0.0011825003 
  455100    17.983538  -0.38415773            0  -0.33700294 0.0032660156 
  455200     18.11093  -0.38456976            0  -0.33708093 0.0060406526 
  455300    18.186152  -0.38498027            0   -0.3372942 0.0026195059 
  455400     18.16593   -0.3849342            0  -0.33730116 0.0042231952 
  455500    18.258023   -0.3851489            0  -0.33727437  0.007395888 
  455600    18.244267   -0.3851262            0  -0.33728775  0.004694042 
  455700    18.094941  -0.38471993            0  -0.33727303 0.0049571098 
  455800    18.179934  -0.38491291            0  -0.33724315  0.002791904 
  455900    18.334699  -0.38521991            0  -0.33714433 0.0030045855 
  456000    18.389815  -0.38559965            0  -0.33737956 0.0035461404 
  456100    18.215553  -0.38484752            0  -0.33708436 0.0087459213 
  456200    18.116003  -0.38460452            0  -0.33710239  0.001085451 
  456300    18.134884  -0.38460441            0  -0.33705277 -0.0037817188 
  456400    18.191944   -0.3846795            0  -0.33697824 -0.00014090534 
  456500     18.09105  -0.38454048            0  -0.33710378 0.0067163002 
  456600    18.251896  -0.38477571            0  -0.33691725 0.0002518233 
  456700    18.148551  -0.38465565            0  -0.33706818 0.0034308157 
  456800    18.245848   -0.3848873            0  -0.33704471 0.0044985589 
  456900    18.174122  -0.38480342            0  -0.33714889 0.0060726107 
  457000    18.225039  -0.38489599            0  -0.33710796 0.0028309551 
  457100     18.16147  -0.38482652            0  -0.33720517 0.0033370637 
  457200    18.194519  -0.38481949            0  -0.33711148 0.0030341907 
  457300    18.190889  -0.38491471            0  -0.33721622 0.0049769341 
  457400    18.377699  -0.38539261            0  -0.33720428 0.0018174828 
  457500    18.357638  -0.38525966            0  -0.33712394  0.005009423 
  457600    18.283919  -0.38499896            0  -0.33705653 0.0016668159 
  457700    18.191765  -0.38458432            0  -0.33688354 0.00066806198 
  457800    18.281909  -0.38451702            0  -0.33657987 0.0019996481 
  457900    18.146912  -0.38438052            0  -0.33679734 0.0053244157 
  458000    18.200436  -0.38452556            0  -0.33680203 0.0042293131 
  458100    18.300538  -0.38479567            0  -0.33680967 0.0047274817 
  458200    18.322983   -0.3849539            0  -0.33690904    0.0058062 
  458300    18.498321  -0.38553241            0   -0.3370278 0.00093394712 
  458400    18.280039  -0.38497329            0  -0.33704104 0.0070214095 
  458500    18.347821   -0.3850758            0  -0.33696582 0.0024956657 
  458600    18.278849  -0.38490582            0  -0.33697669 0.0015712976 
  458700    18.214957  -0.38463376            0  -0.33687216 0.0018741864 
  458800    18.287843  -0.38467389            0  -0.33672118 -0.00053078649 
  458900    18.267577  -0.38472851            0  -0.33682893 0.0053983971 
  459000    18.441915   -0.3850296            0   -0.3366729  0.007600793 
  459100    18.548276  -0.38532267            0  -0.33668707 0.0051648132 
  459200    18.368197  -0.38519134            0  -0.33702793 0.0071646533 
  459300    18.370335  -0.38492429            0  -0.33675527 0.0029483006 
  459400    18.113203  -0.38434597            0  -0.33685119 0.0027680199 
  459500    18.266225  -0.38498377            0  -0.33708774 -0.0036199041 
  459600    18.425297   -0.3852299            0  -0.33691677 0.0025763761 
  459700    18.606262  -0.38563044            0   -0.3368428 0.0049740027 
  459800    18.540873  -0.38543445            0  -0.33681826  0.007014235 
  459900    18.569531  -0.38530899            0  -0.33661766 0.0035833164 
  460000    18.537927  -0.38527505            0  -0.33666659 0.0064056349 
  460100    18.666184  -0.38547223            0  -0.33652746   0.00520272 
  460200    18.494264  -0.38523086            0  -0.33673689 0.0077312293 
  460300    18.559839  -0.38568513            0  -0.33701922 0.0050129649 
  460400     18.44508   -0.3852634            0  -0.33689839 0.0072846582 
  460500    18.277037  -0.38513023            0  -0.33720585 0.0039172575 
  460600    18.093214  -0.38457764            0  -0.33713527 0.0021473777 
  460700    18.173294  -0.38488471            0  -0.33723235 -0.0012989672 
  460800     18.05155  -0.38449629            0  -0.33716317 0.0063620444 
  460900    18.279893  -0.38508179            0  -0.33714992 -0.00070342772 
  461000    18.305262  -0.38515499            0   -0.3371566 0.00012835672 
  461100    18.373618  -0.38515269            0  -0.33697506 0.0059006787 
  461200    18.439055  -0.38532229            0  -0.33697308 0.0025187269 
  461300    18.207464  -0.38474881            0  -0.33700686 0.0025937445 
  461400    18.191641  -0.38469842            0  -0.33699796 0.0033352827 
  461500    18.281463  -0.38497838            0  -0.33704239 0.0042608951 
  461600    18.341829  -0.38509056            0  -0.33699629 0.0059705199 
  461700    18.522724  -0.38550034            0  -0.33693174 0.0028388752 
  461800    18.375141   -0.3851901            0  -0.33700848 0.0056311666 
  461900    18.224243  -0.38459423            0  -0.33680828 0.0062351105 
  462000    18.186695  -0.38472647            0  -0.33703898 0.0023676489 
  462100    18.226798  -0.38496277            0  -0.33717013 0.0047937016 
  462200    18.283508  -0.38526218            0  -0.33732083 0.0052026175 
  462300    18.356152  -0.38549458            0  -0.33736275 -0.0029600223 
  462400    18.142474  -0.38509348            0  -0.33752194  0.001591357 
  462500    18.065736  -0.38509081            0  -0.33772049 0.0023817567 
  462600    18.063712  -0.38491516            0  -0.33755014 0.0038169308 
  462700    18.287608   -0.3856191            0    -0.337667 0.0017344492 
  462800    18.383241  -0.38578818            0  -0.33758532 0.0061435349 
  462900    18.404656  -0.38568917            0  -0.33743016 0.0052314307 
  463000    18.498232  -0.38582339            0  -0.33731901 -5.7200627e-06 
  463100    18.578232   -0.3859807            0  -0.33726655 0.0012347744 
  463200    18.412405  -0.38543914            0  -0.33715981  0.010942092 
  463300    18.320201  -0.38546366            0   -0.3374261 0.0039406744 
  463400    18.311915  -0.38536341            0  -0.33734758 -0.0010517936 
  463500    18.141879  -0.38512243            0  -0.33755245 0.0061577599 
  463600    18.299267  -0.38561397            0   -0.3376313 0.0025895299 
  463700    18.244949  -0.38536911            0  -0.33752887 0.0060670955 
  463800    18.168708  -0.38520749            0  -0.33756716 0.0070488481 
  463900    18.155934  -0.38525649            0  -0.33764965 -0.0012298017 
  464000    17.942501  -0.38464584            0  -0.33759865 0.00039949643 
  464100    17.949221     -0.38469            0  -0.33762519 0.0011574896 
  464200    18.132348  -0.38512845            0  -0.33758346 0.0054494705 
  464300    18.125245   -0.3850556            0  -0.33752924 0.0066424081 
  464400    18.250695  -0.38530248            0  -0.33744717 0.0034835984 
  464500    18.336886  -0.38544501            0   -0.3373637 0.0042798558 
  464600    18.307431  -0.38512691            0  -0.33712283 0.0077740794 
  464700      18.3347  -0.38526696            0  -0.33719139 0.0043012645 
  464800    18.362306  -0.38534377            0   -0.3371958 0.0016402424 
  464900    18.282269  -0.38505717            0  -0.33711907 0.0047563422 
  465000     18.29525  -0.38514761            0  -0.33717547  0.004723173 
  465100    18.254753  -0.38517122            0  -0.33730527 0.0017257782 
  465200    18.150192  -0.38496296            0  -0.33737118 0.0029540099 
  465300    17.977111  -0.38460902            0  -0.33747108 0.0068295283 
  465400    17.960272  -0.38475668            0  -0.33766289 0.0029641712 
  465500    17.900942     -0.38461            0  -0.33767178 0.0046848262 
  465600    17.864351  -0.38456569            0  -0.33772342 0.0066941219 
  465700    18.143163   -0.3851711            0  -0.33759776 -0.0041649823 
  465800    18.266788  -0.38533391            0   -0.3374364 -0.0003367586 
  465900    18.423583   -0.3855468            0  -0.33723817 0.0089886683 
  466000     18.42039  -0.38547462            0  -0.33717435 0.0094289869 
  466100    18.660822  -0.38600071            0  -0.33707001 -0.0017805686 
  466200    18.368707  -0.38518714            0  -0.33702239 0.0074559257 
  466300     18.47597  -0.38549185            0  -0.33704585 0.0035009903 
  466400    18.347354  -0.38531674            0  -0.33720798 0.0034794127 
  466500    18.368813  -0.38556521            0  -0.33740018 0.0036089643 
  466600     18.15666  -0.38500535            0  -0.33739661 0.0066443121 
  466700    18.219391  -0.38518358            0  -0.33741036 -0.0016310548 
  466800    18.208221  -0.38515972            0  -0.33741578 0.00048193504 
  466900    18.217872  -0.38544064            0   -0.3376714 0.0075748544 
  467000    18.391788  -0.38576879            0  -0.33754352 0.0048567375 
  467100    18.370976  -0.38565596            0  -0.33748526 0.0044138266 
  467200    18.504041  -0.38605514            0  -0.33753553 0.0033651905 
  467300     18.55932  -0.38601262            0  -0.33734807 0.0038266016 
  467400    18.519873  -0.38600406            0  -0.33744294 0.0013388933 
  467500    18.260387   -0.3850805            0  -0.33719977  0.009983068 
  467600    18.487496  -0.38563235            0  -0.33715613 0.0032860088 
  467700    18.423032  -0.38555476            0  -0.33724757 0.0050847316 
  467800    18.561925  -0.38589705            0  -0.33722567 -0.0013658559 
  467900     18.30717   -0.3851731            0  -0.33716971 0.0058295934 
  468000    18.308808  -0.38527785            0  -0.33727016 0.0056153739 
  468100    18.363179  -0.38541152            0  -0.33726127 0.0043120473 
  468200    18.058988  -0.38468466            0  -0.33733203  0.012274967 
  468300    18.274307  -0.38511958            0  -0.33720237 -0.0026912637 
  468400    18.218082  -0.38490758            0  -0.33713779 -0.0010795049 
  468500    18.182282  -0.38498727            0  -0.33731134 0.0044446102 
  468600    18.299981  -0.38499315            0  -0.33700861 0.0043319731 
  468700    18.311252  -0.38508705            0  -0.33707295 0.0027379314 
  468800    18.357294  -0.38520877            0  -0.33707395 0.0067257254 
  468900    18.462224  -0.38556347            0  -0.33715351  0.004770392 
  469000    18.541605   -0.3855758            0  -0.33695769 0.0040868726 
  469100    18.211648  -0.38502151            0  -0.33726859 0.0097311818 
  469200    18.449244  -0.38539955            0  -0.33702362 0.0015370692 
  469300    18.315062  -0.38516438            0   -0.3371403 0.00090119708 
  469400    18.289943  -0.38501274            0  -0.33705452 0.0036996257 
  469500    18.268419  -0.38513328            0   -0.3372315 0.0048407726 
  469600    18.379606  -0.38539926            0  -0.33720594 0.0012304468 
  469700    18.377406  -0.38540898            0  -0.33722143 0.0044154639 
  469800    18.293582  -0.38514917            0  -0.33718141 0.0068147637 
  469900    18.422892  -0.38541885            0  -0.33711202 0.00091481887 
  470000    18.265933  -0.38491613            0  -0.33702086 0.0070436021 
  470100    18.404927  -0.38520459            0  -0.33694487 0.0038448149 
  470200    18.381796  -0.38489928            0  -0.33670021  0.001292643 
  470300    18.476164  -0.38491604            0  -0.33646953 0.0007467496 
  470400    18.465554  -0.38481531            0  -0.33639662 0.0036713824 
  470500    18.491208  -0.38515858            0  -0.33667263 0.0024568441 
  470600    18.540894  -0.38508875            0  -0.33647251 0.0037188545 
  470700    18.403215  -0.38497212            0  -0.33671689  0.003200925 
  470800    18.370531   -0.3850952            0  -0.33692567  0.003282368 
  470900    18.392119  -0.38506218            0  -0.33683604 0.0067947587 
  471000    18.462894   -0.3852889            0  -0.33687719 0.00051859079 
  471100      18.2776   -0.3848353            0  -0.33690944 0.0064903337 
  471200    18.248089  -0.38465277            0  -0.33680429 0.0098311173 
  471300    18.333347  -0.38491104            0  -0.33683901 0.0010741799 
  471400    18.143938  -0.38449539            0  -0.33692001  0.003591105 
  471500    18.317477  -0.38508605            0  -0.33705564 -0.00014451984 
  471600    18.431326  -0.38541995            0  -0.33709101 0.0015252505 
  471700    18.436605  -0.38539078            0    -0.337048 0.0053858419 
  471800    18.385643  -0.38518382            0  -0.33697466 0.0073428511 
  471900    18.295767  -0.38506185            0  -0.33708836  0.010811875 
  472000    18.682562  -0.38585258            0  -0.33686487 0.0027817723 
  472100    18.479743  -0.38541246            0  -0.33695656 0.0075295163 
  472200    18.602658  -0.38567625            0  -0.33689806 0.0011038557 
  472300    18.421433  -0.38522551            0  -0.33692251 0.0032961135 
  472400    18.359732  -0.38523195            0  -0.33709073 0.0049475679 
  472500    18.359587  -0.38523036            0  -0.33708953 0.0014924779 
  472600    18.184065  -0.38490777            0  -0.33722718 -0.0004504521 
  472700    17.906427  -0.38431678            0  -0.33736418 0.0057151228 
  472800     18.07039  -0.38459795            0  -0.33721542  0.001881552 
  472900    18.226027  -0.38495445            0  -0.33716382 0.0015476478 
  473000    18.205306  -0.38491172            0  -0.33717543 0.0046578821 
  473100    18.378796  -0.38516695            0  -0.33697574 0.0040993129 
  473200    18.320903  -0.38494013            0  -0.33690073 0.0032219494 
  473300    18.172703   -0.3846349            0  -0.33698409 -0.00063536807 
  473400    18.130843   -0.3845778            0  -0.33703675 -0.00047910766 
  473500    18.196462  -0.38482326            0  -0.33711016 0.0022913125 
  473600    18.411651  -0.38535247            0  -0.33707511 0.0055390124 
  473700    18.368425  -0.38526019            0  -0.33709619 0.0094186116 
  473800    18.592898  -0.38567165            0  -0.33691905 0.0005663883 
  473900    18.240844  -0.38467909            0  -0.33684961 0.0072976269 
  474000    18.096925  -0.38451769            0  -0.33706559 0.0020782481 
  474100    17.998749  -0.38416075            0  -0.33696607 0.00038828004 
  474200    18.096994  -0.38441664            0  -0.33696435 -0.00047411252 
  474300    18.155333  -0.38466298            0  -0.33705772 0.0030636413 
  474400    18.355193  -0.38528632            0  -0.33715701 0.0040461773 
  474500     18.24048  -0.38500756            0  -0.33717903 0.0095669143 
  474600    18.394402  -0.38534908            0  -0.33711696 -0.00010094463 
  474700    18.355754  -0.38520899            0   -0.3370782 0.0015867337 
  474800    18.247471  -0.38472983            0  -0.33688298 0.0084046173 
  474900    18.411894  -0.38502627            0  -0.33674828 0.0027517849 
  475000     18.50446  -0.38534126            0  -0.33682055 0.0031453775 
  475100    18.643817  -0.38559743            0  -0.33671131 0.0063718677 
  475200    18.498103  -0.38527435            0  -0.33677031 0.0058440308 
  475300    18.363629  -0.38514418            0  -0.33699275 0.00084321227 
  475400    18.429398  -0.38532641            0  -0.33700252 -0.00030388487 
  475500    18.331058  -0.38518619            0  -0.33712016 0.0050425444 
  475600    18.427921   -0.3855844            0  -0.33726438 0.0025862878 
  475700    18.240111  -0.38503189            0  -0.33720434 0.0079528928 
  475800    18.303594  -0.38522602            0  -0.33723201 0.0052005589 
  475900    18.340108    -0.385298            0  -0.33720824 0.00076637886 
  476000    18.166322  -0.38485018            0  -0.33721611 0.0040015058 
  476100    18.347886   -0.3851192            0  -0.33700905 0.0028092936 
  476200    18.286567  -0.38502079            0  -0.33707142 0.0064932346 
  476300    18.400081  -0.38540946            0  -0.33716245 -0.00045116562 
  476400     18.46782  -0.38552074            0  -0.33709611 0.00016650614 
  476500    18.461979  -0.38558607            0  -0.33717675 0.0047600453 
  476600    18.268345  -0.38502176            0  -0.33712018 0.0068355973 
  476700    18.394419  -0.38533659            0  -0.33710442 -0.0019339589 
  476800    18.376959  -0.38520445            0  -0.33701807 0.0046317441 
  476900    18.258485  -0.38494501            0  -0.33706927  0.011025909 
  477000    18.307234  -0.38486055            0  -0.33685699 0.0031351955 
  477100    18.225989  -0.38459817            0  -0.33680764 -0.00025627218 
  477200    18.053804  -0.38428059            0  -0.33694156 0.0055279676 
  477300       18.182  -0.38469807            0  -0.33702289 0.0037802716 
  477400    18.238264  -0.38490319            0  -0.33708048 0.0075560679 
  477500    18.325703  -0.38504317            0  -0.33699119 0.0049275901 
  477600    18.499424  -0.38551958            0  -0.33701208 -0.00033007662 
  477700    18.419472  -0.38542789            0  -0.33713004 0.0035368772 
  477800    18.253089  -0.38502125            0  -0.33715967 0.0061335976 
  477900    18.235937   -0.3849816            0  -0.33716499  0.006277726 
  478000    18.184554  -0.38477811            0  -0.33709624 0.0018916951 
  478100    18.094901  -0.38446684            0  -0.33702004 -0.00012735559 
  478200    18.005522  -0.38437049            0  -0.33715806 0.0075554073 
  478300    18.019968  -0.38418467            0  -0.33693435  0.010063459 
  478400    18.099807  -0.38445424            0  -0.33699457 0.00097014527 
  478500    17.863111  -0.38391526            0  -0.33707624 0.0039760831 
  478600    17.810692  -0.38378938            0   -0.3370878 0.00028734232 
  478700    17.683956  -0.38356472            0  -0.33719546 -0.00022178997 
  478800     17.72071  -0.38373672            0  -0.33727109 0.0018734181 
  478900    17.936247  -0.38420108            0  -0.33717029 0.0052897038 
  479000    18.054827  -0.38456374            0  -0.33722202 0.0040053434 
  479100    18.043261  -0.38450581            0  -0.33719442 0.00062307285 
  479200    17.875011  -0.38411321            0  -0.33724299 0.0048944747 
  479300    17.968427  -0.38440913            0  -0.33729396   0.00225366 
  479400    17.852552  -0.38422003            0   -0.3374087 0.0071410676 
  479500    18.052436   -0.3847414            0  -0.33740595 -0.00087975899 
  479600    17.900161  -0.38444159            0  -0.33750542 0.0079465141 
  479700    18.004209  -0.38479425            0  -0.33758526 0.0059609499 
  479800    17.913949   -0.3845642            0  -0.33759188 0.0040232613 
  479900    18.103749  -0.38495956            0  -0.33748956 -0.0017301611 
  480000    17.968144  -0.38455801            0  -0.33744358 0.0026500808 
  480100    18.044352  -0.38474364            0  -0.33742939 0.00089909291 
  480200    18.073641  -0.38483603            0  -0.33744498 0.0030460652 
  480300    18.295551  -0.38534805            0  -0.33737512 0.0021041666 
  480400    18.525309  -0.38582502            0  -0.33724965 0.0031256855 
  480500    18.344347  -0.38534718            0  -0.33724631 0.0091880297 
  480600    18.342325  -0.38537455            0  -0.33727898 0.0018067051 
  480700    18.213899  -0.38480731            0  -0.33704848 0.0018238289 
  480800    18.310328  -0.38511383            0  -0.33710216 0.0023085531 
  480900    18.470382  -0.38538905            0   -0.3369577 0.0070615364 
  481000    18.482866  -0.38533604            0  -0.33687195 0.0067803144 
  481100    18.390295  -0.38517898            0  -0.33695763 0.0010926963 
  481200     18.34216  -0.38506256            0  -0.33696742 -0.00016681042 
  481300    18.350545  -0.38513912            0    -0.337022   0.00204945 
  481400    18.278831   -0.3850401            0  -0.33711102 0.0078386452 
  481500    18.454883  -0.38543266            0  -0.33704195  0.003664015 
  481600    18.456667  -0.38540339            0    -0.337008 0.0079646768 
  481700    18.426078  -0.38522842            0  -0.33691324 0.0055042751 
  481800     18.26255  -0.38484032            0  -0.33695393 0.00056360414 
  481900    18.250629   -0.3847475            0  -0.33689236 0.00080423306 
  482000     18.20227  -0.38477515            0  -0.33704682 0.0048770625 
  482100    18.182405  -0.38479446            0  -0.33711822 0.0044949052 
  482200    18.038545  -0.38450614            0  -0.33720711 0.0058334451 
  482300    17.986376  -0.38438628            0  -0.33722405 0.00092683384 
  482400    17.985952  -0.38450529            0  -0.33734417 0.00046032181 
  482500    17.968946  -0.38439863            0   -0.3372821 0.0035316248 
  482600    17.892936  -0.38422077            0  -0.33730355 0.0064244643 
  482700    18.098412  -0.38467145            0  -0.33721545 0.0045222799 
  482800    18.213018  -0.38480465            0  -0.33704814 0.0065706592 
  482900    18.324662  -0.38489245            0  -0.33684319 0.0027372209 
  483000    18.186811   -0.3846344            0  -0.33694661 0.0058639927 
  483100    18.145788  -0.38447703            0   -0.3368968 0.0012862608 
  483200    18.171185  -0.38447447            0  -0.33682764 -0.0030426863 
  483300    18.163525  -0.38440183            0  -0.33677509 0.0010690043 
  483400    18.152361  -0.38447205            0  -0.33687459 0.0071618014 
  483500    18.220071  -0.38446109            0  -0.33668608 0.0086355843 
  483600    18.442568  -0.38515496            0  -0.33679654 -0.0021742711 
  483700    18.093949  -0.38442916            0  -0.33698486 0.0083123471 
  483800    18.291444  -0.38477618            0  -0.33681402 0.00023130078 
  483900    18.135143  -0.38465556            0  -0.33710325 0.00064062642 
  484000    18.119393    -0.384658            0  -0.33714698 0.0050066289 
  484100     18.22957  -0.38490818            0  -0.33710827 0.00049985925 
  484200    17.997387  -0.38438196            0  -0.33719085 0.0037237496 
  484300     18.04159  -0.38445198            0  -0.33714497 0.0021893561 
  484400    18.041539  -0.38429693            0  -0.33699005  0.003717776 
  484500     17.98989  -0.38409345            0    -0.336922 0.0042510591 
  484600    17.901932  -0.38408383            0  -0.33714302 0.0021734549 
  484700     17.88229  -0.38391608            0  -0.33702677 0.0024924463 
  484800    17.963623   -0.3841112            0  -0.33700863 0.0030869655 
  484900    18.094829  -0.38468698            0  -0.33724037 0.0059908626 
  485000    18.343483  -0.38532907            0  -0.33723046 0.0055743456 
  485100    18.247343  -0.38515394            0  -0.33730742 0.0038042968 
  485200    18.065533  -0.38469618            0  -0.33732639 0.0014268323 
  485300    18.043013  -0.38447724            0   -0.3371665 0.0057683014 
  485400    18.420281  -0.38538236            0  -0.33708238 0.0042958905 
  485500    18.694971  -0.38585962            0  -0.33683937 0.0065349778 
  485600     18.65875   -0.3858578            0  -0.33693252 0.0066851239 
  485700    18.579914   -0.3854879            0  -0.33676935 0.0027867269 
  485800     18.55913  -0.38555518            0  -0.33689112 0.0036321527 
  485900    18.548565   -0.3855179            0  -0.33688154 0.0080604151 
  486000    18.648251  -0.38577416            0  -0.33687641 0.00034887247 
  486100    18.236005  -0.38461248            0  -0.33679569  0.009555847 
  486200    18.472762   -0.3851368            0  -0.33669921 0.0005175741 
  486300    18.425572  -0.38496689            0  -0.33665303 0.00041598689 
  486400    18.397273  -0.38495576            0  -0.33671611 0.0081615348 
  486500    18.300155  -0.38458645            0  -0.33660145  0.011398373 
  486600    18.248881  -0.38462247            0  -0.33677192 -0.00054671484 
  486700    18.313715  -0.38475634            0  -0.33673579 0.00032521116 
  486800    18.463174   -0.3852632            0  -0.33685075 0.0050997209 
  486900    18.598933  -0.38561552            0  -0.33684709 0.0046029936 
  487000    18.599359  -0.38570954            0     -0.33694 0.0043406416 
  487100    18.706514  -0.38594048            0  -0.33688996 0.00051272014 
  487200    18.677931  -0.38601737            0  -0.33704181 0.0077199906 
  487300    18.706642  -0.38602757            0  -0.33697672 0.0084536933 
  487400    18.786526  -0.38604362            0  -0.33678331 -0.0027877629 
  487500    18.400578   -0.3851936            0  -0.33694528 0.0066227805 
  487600    18.492901  -0.38523924            0  -0.33674884 0.0072035238 
  487700    18.673185  -0.38563184            0  -0.33666872 0.0027911456 
  487800    18.975831  -0.38628876            0  -0.33653206 0.0011197916 
  487900    18.786916  -0.38597324            0  -0.33671191  0.011151756 
  488000    18.857743  -0.38605498            0  -0.33660792 0.0041406329 
  488100    18.828254  -0.38603514            0  -0.33666541 7.1585292e-05 
  488200    18.808647  -0.38625643            0  -0.33693811 0.0037067508 
  488300    18.901432  -0.38656326            0  -0.33700165 0.0056969234 
  488400    18.874745  -0.38653679            0  -0.33704516 0.0045321002 
  488500    18.866662  -0.38652844            0    -0.337058 -0.00010636823 
  488600      18.7382  -0.38600762            0  -0.33687402 0.0069263786 
  488700    18.621067  -0.38588497            0  -0.33705851 0.0041369372 
  488800    18.569351  -0.38564148            0  -0.33695062  0.001970442 
  488900    18.577607  -0.38589479            0  -0.33718229 0.0039901634 
  489000    18.544801  -0.38581401            0  -0.33718752 0.0050159054 
  489100    18.541956  -0.38594924            0  -0.33733022 -0.0005039828 
  489200    18.381756  -0.38544159            0  -0.33724262 0.0041457739 
  489300    18.419467  -0.38559061            0  -0.33729276 0.0015800012 
  489400    18.569512  -0.38582011            0  -0.33712883 0.0014846151 
  489500    18.594797  -0.38582373            0  -0.33706615 0.0039566401 
  489600    18.667033  -0.38587065            0  -0.33692366 -0.00027612628 
  489700    18.825066  -0.38624015            0  -0.33687877 0.0019465883 
  489800    18.774125  -0.38620001            0  -0.33697221 0.0093039588 
  489900    18.638697  -0.38582847            0  -0.33695578 0.0013238148 
  490000     18.61684  -0.38574051            0  -0.33692513 -0.0015293147 
  490100    18.534347  -0.38557449            0  -0.33697542  0.010976593 
  490200    18.703882  -0.38626687            0  -0.33722325 0.0067969926 
  490300    18.648099  -0.38604144            0   -0.3371441 0.0023201492 
  490400    18.495794  -0.38578468            0  -0.33728669 0.0057018486 
  490500    18.519355   -0.3858896            0  -0.33732984 0.0044617786 
  490600    18.359819  -0.38541079            0  -0.33726934 0.0057618482 
  490700    18.478162  -0.38588498            0  -0.33743323 -0.00028143588 
  490800     18.24744  -0.38539595            0  -0.33754918 0.0063135964 
  490900    18.442342  -0.38578355            0  -0.33742572 0.00068515028 
  491000    18.499959  -0.38609805            0  -0.33758915 -0.0009842516 
  491100    18.410642  -0.38584593            0  -0.33757122 0.0086030249 
  491200    18.547542  -0.38616035            0  -0.33752668 0.0061337526 
  491300    18.521048  -0.38611911            0  -0.33755491 0.0043547445 
  491400    18.487652  -0.38584963            0  -0.33737299 0.0044345183 
  491500    18.440451  -0.38564558            0  -0.33729271 0.0015290591 
  491600    18.493211    -0.385719            0  -0.33722779 -0.0015520796 
  491700    18.293273  -0.38519475            0   -0.3372278 0.0098407231 
  491800    18.657014  -0.38607542            0   -0.3371547 0.00099628423 
  491900    18.660747  -0.38600773            0  -0.33707722 6.3432257e-05 
  492000    18.331675  -0.38516186            0  -0.33709421  0.009165215 
  492100     18.49954  -0.38559542            0  -0.33708761 0.0048537597 
  492200    18.397148  -0.38547448            0  -0.33723516  0.005711787 
  492300    18.507091  -0.38574175            0  -0.33721414 0.0046861673 
  492400    18.461442  -0.38568926            0  -0.33728135 0.0046987097 
  492500    18.252286  -0.38522934            0  -0.33736986 0.0066714925 
  492600    18.325257  -0.38548648            0  -0.33743566 0.0021465277 
  492700    18.298969  -0.38537949            0   -0.3373976 0.0023100939 
  492800    18.416358  -0.38562604            0  -0.33733634 0.0038311551 
  492900    18.065936    -0.384679            0  -0.33730816 0.0098771204 
  493000    18.155458  -0.38481838            0  -0.33721279 0.00020585118 
  493100     17.96012  -0.38420898            0  -0.33711559 0.0048614509 
  493200    18.257873  -0.38483424            0  -0.33696011 -0.00041353709 
  493300    18.163237  -0.38461154            0  -0.33698556 0.0049302252 
  493400    18.151183  -0.38467662            0  -0.33708224 0.0053861319 
  493500    18.112384  -0.38447957            0  -0.33698693 -0.00041578049 
  493600    18.092835  -0.38458526            0  -0.33714388 -0.00026142955 
  493700    18.056799  -0.38445131            0  -0.33710442 0.0042933746 
  493800    18.080612  -0.38460967            0  -0.33720034 0.0046278138 
  493900    18.299981  -0.38492299            0  -0.33693845 0.0040412902 
  494000    18.261524  -0.38457787            0  -0.33669417  0.005845503 
  494100    18.098862  -0.38418705            0  -0.33672987 0.0033748306 
  494200    18.025295  -0.38402665            0  -0.33676237 0.0019321771 
  494300    18.100212  -0.38419369            0  -0.33673297 0.0050505884 
  494400    18.226834  -0.38454711            0  -0.33675437 0.0074647678 
  494500    18.191324  -0.38491306            0  -0.33721342 0.0082313289 
  494600    18.227071  -0.38484012            0  -0.33704675 0.0037465222 
  494700    18.243941  -0.38485541            0  -0.33701781 0.0022643415 
  494800    18.256286  -0.38502611            0  -0.33715614 0.0051536622 
  494900    18.281591  -0.38495975            0  -0.33702342 0.0088974819 
  495000    18.423775  -0.38523519            0  -0.33692605 0.0040060864 
  495100    18.373631  -0.38528461            0  -0.33710695 -0.0021145416 
  495200    18.278638  -0.38470598            0   -0.3367774  0.004053183 
  495300    18.405701  -0.38512529            0  -0.33686354  0.004070359 
  495400    18.429415  -0.38507816            0  -0.33675423 0.0037526943 
  495500    18.257401  -0.38454879            0   -0.3366759 0.0036322875 
  495600    18.202721  -0.38459383            0  -0.33686432 0.0020918398 
  495700    18.207432  -0.38461799            0  -0.33687613 0.0042251541 
  495800    18.332776  -0.38494015            0  -0.33686962 0.0052288177 
  495900    18.280268  -0.38496232            0  -0.33702947 0.0081265348 
  496000    18.513963  -0.38553346            0  -0.33698784 0.0018960628 
  496100    18.316354   -0.3850106            0  -0.33698312 0.0059789214 
  496200    18.444283  -0.38530749            0  -0.33694457 0.0052854161 
  496300    18.337562  -0.38501366            0  -0.33693058 0.0066211946 
  496400    18.409077  -0.38521342            0  -0.33694282 -0.0041297312 
  496500    18.269716  -0.38488453            0  -0.33697935  0.001142185 
  496600    18.353785  -0.38513162            0    -0.337006 0.0055030231 
  496700    18.496379  -0.38522026            0  -0.33672074  0.002151162 
  496800    18.424703  -0.38508999            0  -0.33677842 0.0073078012 
  496900     18.33928  -0.38493159            0  -0.33684401 0.0072922261 
  497000    18.322248  -0.38466795            0  -0.33662502 0.0012275614 
  497100    18.264018    -0.384677            0  -0.33678675 0.0010446453 
  497200    18.403292  -0.38520254            0   -0.3369471 0.0036680656 
  497300    18.782642  -0.38572529            0  -0.33647516 0.0031165338 
  497400    18.734578  -0.38573291            0  -0.33660881 0.0049646252 
  497500    18.705342  -0.38587247            0  -0.33682503 0.0049537049 
  497600    18.634022  -0.38555168            0  -0.33669125 0.0064222587 
  497700    18.608847  -0.38571632            0   -0.3369219 0.0049614834 
  497800    18.638016  -0.38590341            0  -0.33703251 0.00048331783 
  497900    18.370595  -0.38543846            0  -0.33726876 0.0060316653 
  498000    18.545051  -0.38586394            0   -0.3372368 0.0024393617 
  498100    18.539488  -0.38579689            0  -0.33718433 0.0058597203 
  498200    18.565953  -0.38586199            0  -0.33718004 0.0030722054 
  498300    18.431871  -0.38545298            0  -0.33712261 0.0035098324 
  498400    18.624603  -0.38573179            0  -0.33689606 0.0028594796 
  498500    18.517623  -0.38540637            0  -0.33685115 0.0097087524 
  498600    18.571008  -0.38550843            0  -0.33681323 -0.00076284048 
  498700    18.327701  -0.38494795            0  -0.33689072 0.0026586278 
  498800    18.140407  -0.38450033            0  -0.33693421 0.0060636726 
  498900    18.356266  -0.38501321            0  -0.33688109 0.0014363811 
  499000     18.46419  -0.38527623            0  -0.33686112 0.0068655096 
  499100    18.607896  -0.38562631            0  -0.33683438 0.0074969692 
  499200    18.862749  -0.38646107            0  -0.33700089 -0.00047572576 
  499300    18.466546  -0.38538509            0   -0.3369638 0.0094880858 
  499400    18.308086  -0.38497187            0  -0.33696607   0.00183341 
  499500    18.378512  -0.38523348            0  -0.33704303 -0.0033336573 
  499600    18.532849  -0.38559583            0  -0.33700069 0.0023045195 
  499700    18.389326  -0.38521273            0  -0.33699392  0.010271149 
  499800    18.475693  -0.38548414            0  -0.33703886 0.0017908775 
  499900    18.452162   -0.3852687            0  -0.33688512 0.0027266327 
  500000     18.28169  -0.38476531            0  -0.33682873 0.0088012149 
Loop time of 5767.17 on 64 procs for 500000 steps with 585216 atoms

Performance: 37453.374 tau/day, 86.698 timesteps/s
99.0% CPU use with 64 MPI tasks x 1 OpenMP threads

MPI task timing breakdown:
Section |  min time  |  avg time  |  max time  |%varavg| %total
---------------------------------------------------------------
Pair    | 1278.8     | 1822.4     | 2903.6     | 775.0 | 31.60
Bond    | 0.085531   | 0.10789    | 0.1696     |   5.3 |  0.00
Neigh   | 192.32     | 274.01     | 401.12     | 239.2 |  4.75
Comm    | 1582       | 2728.2     | 3344.4     | 687.4 | 47.31
Output  | 242.22     | 243.11     | 243.52     |   1.6 |  4.22
Modify  | 443.86     | 516.93     | 629.65     | 206.7 |  8.96
Other   |            | 182.5      |            |       |  3.16

Nlocal:        9144.00 ave       13990 max        5073 min
Histogram: 3 7 10 7 6 13 9 4 3 2
Nghost:        12704.7 ave       19088 max        6754 min
Histogram: 6 3 6 11 9 9 6 4 6 4
Neighs:       282550.0 ave      445226 max      154243 min
Histogram: 3 8 11 5 9 13 6 5 3 1

Total # of neighbors = 18083224
Ave neighs/atom = 30.900085
Ave special neighs/atom = 0.0000000
Neighbor list builds = 16540
Dangerous builds = 0

write_data      data.cubes
System init for write_data ...
WARNING: Not all mixed pair coeffs generated from mixing. Use write_data with 'pair ij' option to store all pair coeffs. (src/write_data.cpp:312)
Total wall time: 1:36:13
