LAMMPS (24 Dec 2020)
OMP_NUM_THREADS environment is not set. Defaulting to 1 thread. (src/comm.cpp:94)
  using 1 OpenMP thread(s) per MPI task
# Simple rigid body system
# needed variables:

#variable	startTemp equal 0.5
#variable 	temp 	  equal 0.8

units		lj
atom_style	full
dimension 	3
boundary	p p f
pair_style	lj/smooth/linear 2.0

variable 	sigma		equal 1.0
variable 	epsilon 	equal 1.0

region		box block 0 80 0 80 0 160
create_box 	3 box
Created orthogonal box = (0.0000000 0.0000000 0.0000000) to (80.000000 80.000000 160.00000)
  6 by 4 by 8 MPI processor grid



lattice 	sc 0.66
Lattice spacing in x,y,z = 1.1485556 1.1485556 1.1485556
region		fluid block EDGE EDGE EDGE EDGE 2 100 units box
create_atoms 	1 region fluid
Created 421400 atoms
  create_atoms CPU = 0.145 seconds

lattice 	sc 0.045
Lattice spacing in x,y,z = 2.8114422 2.8114422 2.8114422
region		gas block EDGE EDGE EDGE EDGE 101 158 units box
create_atoms    1 region gas
Created 17661 atoms
  create_atoms CPU = 0.004 seconds

group		solvent type 1
439061 atoms in group solvent

mass		1 1.0
mass		2 1.0
mass		3 1.0



neighbor 	0.4 bin

pair_coeff	1 1 1.0 1.0
pair_coeff	2 2 0.0 0.0
pair_coeff	3 3 0.0 0.0
pair_coeff	2 3 0.0 0.0
pair_coeff	1 2*3 0.0 0.0

pair_modify 	shift yes

delete_atoms	overlap 0.5 solvent solvent
System init for delete_atoms ...
Neighbor list info ...
  update every 1 steps, delay 10 steps, check yes
  max neighbors/atom: 2000, page size: 100000
  master list distance cutoff = 2.4
  ghost atom cutoff = 2.4
  binsize = 1.2, bins = 67 67 134
  2 neighbor lists, perpetual/occasional/extra = 1 1 0
  (1) command delete_atoms, occasional
      attributes: full, newton on
      pair build: full/bin
      stencil: full/bin/3d
      bin: standard
  (2) pair lj/smooth/linear, perpetual
      attributes: half, newton on
      pair build: half/bin/newton
      stencil: half/bin/3d/newton
      bin: standard
WARNING: Ignoring 'compress yes' for molecular system (src/delete_atoms.cpp:125)
Deleted 0 atoms, new total = 439061

velocity 	solvent create ${startTemp} 563435 loop geom
velocity 	solvent create .45 563435 loop geom

balance 	1.05 shift z 10 1.05
Balancing ...
Neighbor list info ...
  update every 1 steps, delay 10 steps, check yes
  max neighbors/atom: 2000, page size: 100000
  master list distance cutoff = 2.4
  ghost atom cutoff = 2.4
  binsize = 1.2, bins = 67 67 134
  1 neighbor lists, perpetual/occasional/extra = 1 0 0
  (1) pair lj/smooth/linear, perpetual
      attributes: half, newton on
      pair build: half/bin/newton
      stencil: half/bin/3d/newton
      bin: standard
 rebalancing time: 0.007 seconds
  iteration count = 5
  initial/final maximal load/proc = 3888.0000 2808.0000
  initial/final imbalance factor  = 1.7002102 1.2279296
  x cuts: 0.0000000 0.16666667 0.33333333 0.50000000 0.66666667 0.83333333 1.0000000
  y cuts: 0.0000000 0.25000000 0.50000000 0.75000000 1.0000000
  z cuts: 0.0000000 0.089843750 0.17578125 0.25390625 0.33593750 0.41406250 0.50390625 0.58203125 1.0000000


####################### WALLS ###########################


variable       epsilonWall equal 2*${epsilon}
variable       epsilonWall equal 2*1

variable       cutoffTop   equal   0.7147*${sigma}
variable       cutoffTop   equal   0.7147*1

variable       cutoffLow   equal   3*${sigma}
variable       cutoffLow   equal   3*1


fix            topWall all wall/lj93 zhi EDGE                ${epsilonWall} ${sigma} ${cutoffTop} units box
fix            topWall all wall/lj93 zhi EDGE                2 ${sigma} ${cutoffTop} units box
fix            topWall all wall/lj93 zhi EDGE                2 1 ${cutoffTop} units box
fix            topWall all wall/lj93 zhi EDGE                2 1 0.7147 units box

fix            lowWall all wall/lj93 zlo EDGE                ${epsilonWall} ${sigma} ${cutoffLow} units box
fix            lowWall all wall/lj93 zlo EDGE                2 ${sigma} ${cutoffLow} units box
fix            lowWall all wall/lj93 zlo EDGE                2 1 ${cutoffLow} units box
fix            lowWall all wall/lj93 zlo EDGE                2 1 3 units box


###################### COMPUTES ##########################

compute        bin1 solvent chunk/atom bin/1d z upper 1.0


######################	FIXES ############################


fix 		peclet solvent ave/chunk 1000 1 1000 bin1 density/number norm 		 none ave one file density.profile

fix 		 temp solvent ave/chunk 1000 1 1000 bin1 temp norm 		 none ave one file temp.profile

fix 		2 solvent nve


## Thermostat


region		regthermo block EDGE EDGE EDGE EDGE 0 20 units box

group 		thermo dynamic solvent region regthermo every 1000
dynamic group thermo defined

fix 		3 thermo langevin ${startTemp} ${temp} 10 156453
fix 		3 thermo langevin .45 ${temp} 10 156453
fix 		3 thermo langevin .45 .45 10 156453



#### Load balancing


fix 		bal all balance 1000 1.05 shift z 10 1.05


############### Diagnostics and computes ###################
#compute 	com cube	  rigid/local	1 mol x y z
#compute 	quat cube	  rigid/local	1 mol quatw quati quatj quatk

thermo 		1000
thermo_style 	custom step temp epair evdwl etotal press pe ke atoms

dump		1 all custom 100000 dump.lammpstrj id mol type x y z
dump 		2 all image 10000 image.*.png type type
dump 		3 all movie 1000 movie.avi type type

#dump 		com cube local 1000 dump.*.xyz c_com[*]
#dump		quat cube      local 1000 dump.*.quat c_quat[*]


restart 	1000000 restart.dat
timestep 	0.005
timer 		full
New timer settings: style=full  mode=nosync  timeout=off

run		5000000
Per MPI rank memory allocation (min/avg/max) = 9.917 | 9.995 | 10.07 Mbytes
Step Temp E_pair E_vdwl TotEng Press PotEng KinEng Atoms 
       0         0.45   0.22342731   0.22342731   0.89842577    4.4248531   0.22342731   0.67499846   439061 
    1000    1.5916174   -1.9979475   -1.9979475   0.38947314    2.0541079   -1.9979475    2.3874206   439061 
    2000    1.5011821   -2.0580418   -2.0580418   0.19372621      1.21096   -2.0580418     2.251768   439061 
    3000    1.3446453   -2.0009252   -2.0009252  0.016038124   0.88204104   -2.0009252    2.0169633   439061 
    4000    1.2561866   -2.0034878   -2.0034878   -0.1192121   0.70078815   -2.0034878    1.8842757   439061 
    5000     1.201764   -1.9981763   -1.9981763  -0.19553446   0.55825644   -1.9981763    1.8026419   439061 
    6000    1.1668349   -1.9845019   -1.9845019  -0.23425353   0.46684306   -1.9845019    1.7502484   439061 
    7000    1.1437908   -1.9690061   -1.9690061  -0.25332375   0.46397799   -1.9690061    1.7156823   439061 
    8000    1.1287321    -1.959027    -1.959027  -0.26593262   0.49168225    -1.959027    1.6930943   439061 
    9000     1.120951   -1.9562449   -1.9562449  -0.27482232   0.52357433   -1.9562449    1.6814226   439061 
   10000    1.1198475   -1.9647931   -1.9647931  -0.28502573   0.54365508   -1.9647931    1.6797674   439061 
   11000    1.1199774   -1.9748157   -1.9748157  -0.29485344    0.5644674   -1.9748157    1.6799623   439061 
   12000    1.1177818   -1.9814653   -1.9814653  -0.30479644   0.57615927   -1.9814653    1.6766689   439061 
   13000    1.1113188    -1.978988    -1.978988  -0.31201357   0.55266172    -1.978988    1.6669745   439061 
   14000    1.0949037   -1.9611552   -1.9611552  -0.31880339   0.50996579   -1.9611552    1.6423518   439061 
   15000    1.0775557   -1.9418918   -1.9418918  -0.32556194   0.45827804   -1.9418918    1.6163299   439061 
   16000    1.0618682   -1.9236514   -1.9236514  -0.33085268   0.42631134   -1.9236514    1.5927987   439061 
   17000    1.0527024   -1.9155113   -1.9155113   -0.3364613   0.43744997   -1.9155113      1.57905   439061 
   18000    1.0476006   -1.9268236   -1.9268236  -0.35542629   0.51259958   -1.9268236    1.5713973   439061 
   19000    1.0325612   -1.9431841   -1.9431841  -0.39434581   0.56192137   -1.9431841    1.5488383   439061 
   20000    1.0122243   -1.9501472   -1.9501472  -0.43181424   0.53457584   -1.9501472     1.518333   439061 
   21000   0.99691332   -1.9540342   -1.9540342  -0.45866761   0.50892499   -1.9540342    1.4953666   439061 
   22000   0.98435482   -1.9587781   -1.9587781  -0.48224923    0.5074647   -1.9587781    1.4765289   439061 
   23000   0.97552666   -1.9705194   -1.9705194  -0.50723275   0.50577673   -1.9705194    1.4632867   439061 
   24000   0.96663535   -1.9783492   -1.9783492  -0.52839945   0.51172124   -1.9783492    1.4499497   439061 
   25000   0.95848764   -1.9863845   -1.9863845  -0.54865634    0.4926574   -1.9863845    1.4377282   439061 
   26000   0.94848658   -1.9885207   -1.9885207   -0.5657941   0.47598097   -1.9885207    1.4227266   439061 
   27000   0.93716937   -1.9862048   -1.9862048  -0.58045396    0.4504391   -1.9862048    1.4057509   439061 
   28000   0.92607396   -1.9820468   -1.9820468  -0.59293899   0.42696459   -1.9820468    1.3891078   439061 
   29000   0.91658776   -1.9785324   -1.9785324  -0.60365392    0.4057038   -1.9785324    1.3748785   439061 
   30000   0.90516362   -1.9725546   -1.9725546  -0.61481226   0.37936003   -1.9725546    1.3577423   439061 
   31000   0.89429167   -1.9654665   -1.9654665  -0.62403203   0.36162791   -1.9654665    1.3414344   439061 
   32000   0.88454527   -1.9593749   -1.9593749  -0.63256007   0.33968201   -1.9593749    1.3268149   439061 
   33000   0.87727209   -1.9559744   -1.9559744  -0.64006923   0.32575649   -1.9559744    1.3159051   439061 
   34000   0.87228569   -1.9542993   -1.9542993  -0.64587371   0.31701179   -1.9542993    1.3084256   439061 
   35000   0.86774959    -1.953543    -1.953543  -0.65192154    0.3175757    -1.953543    1.3016214   439061 
   36000   0.86432463   -1.9550395   -1.9550395  -0.65855552   0.30931223   -1.9550395     1.296484   439061 
   37000   0.86039469   -1.9528809   -1.9528809  -0.66229182   0.30780003   -1.9528809    1.2905891   439061 
   38000   0.85817214    -1.954145    -1.954145  -0.66688969   0.30335124    -1.954145    1.2872553   439061 
   39000   0.85639644   -1.9553963   -1.9553963  -0.67080461   0.29981285   -1.9553963    1.2845917   439061 
   40000   0.85548157   -1.9584133   -1.9584133  -0.67519382   0.29525518   -1.9584133    1.2832194   439061 
   41000   0.85195767   -1.9566059   -1.9566059  -0.67867236   0.29414369   -1.9566059    1.2779336   439061 
   42000   0.85028567   -1.9583541   -1.9583541  -0.68292851   0.28389894   -1.9583541    1.2754256   439061 
   43000   0.84568823   -1.9554546   -1.9554546  -0.68692512   0.27860466   -1.9554546    1.2685295   439061 
   44000   0.84202165   -1.9543768   -1.9543768  -0.69134725   0.26806471   -1.9543768    1.2630296   439061 
   45000   0.83912274   -1.9536295   -1.9536295  -0.69494825   0.26686514   -1.9536295    1.2586812   439061 
   46000   0.83760327   -1.9550571   -1.9550571  -0.69865505   0.27349583   -1.9550571     1.256402   439061 
   47000   0.83919037   -1.9638323   -1.9638323  -0.70504959   0.29920626   -1.9638323    1.2587827   439061 
   48000   0.83812013   -1.9737543   -1.9737543  -0.71657702   0.33222557   -1.9737543    1.2571773   439061 
   49000   0.83575983   -1.9851996   -1.9851996  -0.73156267   0.34064394   -1.9851996    1.2536369   439061 
   50000    0.8303617    -1.990896    -1.990896  -0.74535628   0.32858083    -1.990896    1.2455397   439061 
   51000   0.82544531   -1.9934334   -1.9934334  -0.75526824   0.31520247   -1.9934334    1.2381651   439061 
   52000   0.82016587   -1.9937609   -1.9937609  -0.76351489   0.31297687   -1.9937609     1.230246   439061 
   53000   0.81872963   -1.9989829   -1.9989829  -0.77089123   0.31098691   -1.9989829    1.2280916   439061 
   54000   0.81594105    -2.002252    -2.002252  -0.77834318   0.30717915    -2.002252    1.2239088   439061 
   55000   0.81296842   -2.0055904   -2.0055904  -0.78614058    0.3031125   -2.0055904    1.2194498   439061 
   56000   0.80881137   -2.0060852   -2.0060852  -0.79287094   0.29714043   -2.0060852    1.2132143   439061 
   57000   0.80617595   -2.0087018   -2.0087018  -0.79944066   0.29005445   -2.0087018    1.2092612   439061 
   58000   0.80265561   -2.0089556   -2.0089556  -0.80497492   0.28395052   -2.0089556    1.2039807   439061 
   59000   0.79815129   -2.0081503   -2.0081503  -0.81092607    0.2769613   -2.0081503    1.1972242   439061 
   60000   0.79418475   -2.0074405   -2.0074405  -0.81616604   0.27000844   -2.0074405    1.1912744   439061 
   61000   0.78943355    -2.004705    -2.004705  -0.82055738   0.25980667    -2.004705    1.1841476   439061 
   62000   0.78457249   -2.0029328   -2.0029328  -0.82607675   0.24788518   -2.0029328     1.176856   439061 
   63000    0.7806975   -2.0012694   -2.0012694  -0.83022578   0.23854858   -2.0012694    1.1710436   439061 
   64000   0.77730513   -1.9998425   -1.9998425  -0.83388742   0.23254044   -1.9998425     1.165955   439061 
   65000   0.77516917   -2.0002332   -2.0002332  -0.83748214    0.2340123   -2.0002332    1.1627511   439061 
   66000   0.77256763   -2.0009506   -2.0009506  -0.84210176   0.23003803   -2.0009506    1.1588488   439061 
   67000   0.77043455   -2.0018427   -2.0018427   -0.8461935   0.22445017   -2.0018427    1.1556492   439061 
   68000   0.76882338   -2.0028273   -2.0028273  -0.84959484   0.22274815   -2.0028273    1.1532324   439061 
   69000   0.76709792   -2.0037216   -2.0037216  -0.85307732   0.22184742   -2.0037216    1.1506443   439061 
   70000   0.76603443   -2.0055337   -2.0055337  -0.85648468   0.21962922   -2.0055337     1.149049   439061 
   71000   0.76350533   -2.0057291   -2.0057291  -0.86047372    0.2116898   -2.0057291    1.1452554   439061 
   72000    0.7622898   -2.0065658   -2.0065658  -0.86313373   0.20891826   -2.0065658    1.1434321   439061 
   73000   0.76054366   -2.0072978   -2.0072978  -0.86648495   0.20541731   -2.0072978    1.1408129   439061 
   74000   0.75889292   -2.0080962   -2.0080962  -0.86975943   0.20372793   -2.0080962    1.1383368   439061 
   75000    0.7579308   -2.0101386   -2.0101386  -0.87324501   0.20029909   -2.0101386    1.1368936   439061 
   76000   0.75681628    -2.012004    -2.012004  -0.87678212   0.20010236    -2.012004    1.1352218   439061 
   77000   0.75706985    -2.014625    -2.014625  -0.87902283   0.20689512    -2.014625    1.1356022   439061 
   78000   0.75742013   -2.0198986   -2.0198986  -0.88377101   0.21088316   -2.0198986    1.1361276   439061 
   79000   0.75824921   -2.0260351   -2.0260351  -0.88866385   0.22534344   -2.0260351    1.1373712   439061 
   80000   0.75838568   -2.0334431   -2.0334431   -0.8958672    0.2346562   -2.0334431    1.1375759   439061 
   81000    0.7554175   -2.0372748   -2.0372748  -0.90415118   0.24821614   -2.0372748    1.1331237   439061 
   82000   0.75519638   -2.0436704   -2.0436704  -0.91087839   0.24593458   -2.0436704     1.132792   439061 
   83000   0.75268438   -2.0466984   -2.0466984  -0.91767441   0.23836493   -2.0466984     1.129024   439061 
   84000   0.74973701   -2.0476859   -2.0476859  -0.92308295   0.23701966   -2.0476859     1.124603   439061 
   85000    0.7483952   -2.0506488   -2.0506488  -0.92805854   0.23108643   -2.0506488    1.1225902   439061 
   86000   0.74702989   -2.0530408   -2.0530408  -0.93249849    0.2320064   -2.0530408    1.1205423   439061 
   87000   0.74595088   -2.0566105   -2.0566105  -0.93768669   0.22559882   -2.0566105    1.1189238   439061 
   88000   0.74468373   -2.0586492   -2.0586492  -0.94162611   0.22470012   -2.0586492    1.1170231   439061 
   89000   0.74159516   -2.0590018   -2.0590018  -0.94661154   0.22346287   -2.0590018    1.1123902   439061 
   90000   0.73972153   -2.0601956   -2.0601956  -0.95061582    0.2219931   -2.0601956    1.1095798   439061 
   91000   0.73778288    -2.061898    -2.061898  -0.95522615   0.21774268    -2.061898    1.1066718   439061 
   92000   0.73483076   -2.0613009   -2.0613009  -0.95905729   0.21469763   -2.0613009    1.1022436   439061 
   93000   0.73428791   -2.0639276   -2.0639276  -0.96249828   0.20700652   -2.0639276    1.1014294   439061 
   94000   0.72990046   -2.0609843   -2.0609843  -0.96613612   0.20035792   -2.0609843    1.0948482   439061 
   95000   0.72713432   -2.0601195   -2.0601195  -0.96942049   0.20048145   -2.0601195     1.090699   439061 
   96000   0.72562728   -2.0604988   -2.0604988   -0.9720604   0.19078759   -2.0604988    1.0884384   439061 
   97000   0.72363538   -2.0601648   -2.0601648  -0.97471421   0.18974076   -2.0601648    1.0854506   439061 
   98000   0.72196553   -2.0596772   -2.0596772  -0.97673136   0.19237966   -2.0596772    1.0829458   439061 
   99000   0.72106869   -2.0610745   -2.0610745  -0.97947397    0.1875383   -2.0610745    1.0816006   439061 
  100000   0.72074034   -2.0628678   -2.0628678  -0.98175976   0.18169538   -2.0628678    1.0811081   439061 
  101000   0.71837287   -2.0617284   -2.0617284  -0.98417157    0.1818112   -2.0617284    1.0775568   439061 
  102000   0.71748576   -2.0630277   -2.0630277  -0.98680148   0.17928896   -2.0630277    1.0762262   439061 
  103000   0.71593688   -2.0635653   -2.0635653  -0.98966243   0.17836576   -2.0635653    1.0739029   439061 
  104000   0.71483698   -2.0643364   -2.0643364  -0.99208332   0.17130019   -2.0643364     1.072253   439061 
  105000   0.71304332    -2.064013    -2.064013   -0.9944504   0.17160698    -2.064013    1.0695626   439061 
  106000   0.71238628   -2.0656761   -2.0656761  -0.99709909    0.1701135   -2.0656761     1.068577   439061 
  107000   0.71247209   -2.0690453   -2.0690453   -1.0003396    0.1672538   -2.0690453    1.0687057   439061 
  108000    0.7109689   -2.0699584   -2.0699584   -1.0035074   0.16903134   -2.0699584    1.0664509   439061 
  109000   0.71015705   -2.0713509   -2.0713509   -1.0061178   0.16863084   -2.0713509    1.0652332   439061 
  110000   0.70864477   -2.0710158   -2.0710158    -1.008051   0.17226166   -2.0710158    1.0629647   439061 
  111000   0.71008442    -2.076408    -2.076408   -1.0112838   0.16814114    -2.076408    1.0651242   439061 
  112000   0.71029574   -2.0796004   -2.0796004   -1.0141592   0.17585764   -2.0796004    1.0654412   439061 
  113000   0.70973098   -2.0824175   -2.0824175   -1.0178235     0.179267   -2.0824175     1.064594   439061 
  114000   0.71087603   -2.0894136   -2.0894136    -1.023102   0.18987871   -2.0894136    1.0663116   439061 
  115000   0.71026666   -2.0937332   -2.0937332   -1.0283356   0.19474847   -2.0937332    1.0653976   439061 
  116000   0.71023208   -2.0982077   -2.0982077    -1.032862    0.1942347   -2.0982077    1.0653457   439061 
  117000   0.70786829   -2.0999921   -2.0999921   -1.0381921   0.19780999   -2.0999921       1.0618   439061 
  118000    0.7064828   -2.1024818   -2.1024818     -1.04276   0.19214148   -2.1024818    1.0597218   439061 
  119000   0.70441308   -2.1035752   -2.1035752    -1.046958   0.18955915   -2.1035752    1.0566172   439061 
  120000   0.70481937   -2.1073301   -2.1073301   -1.0501035   0.18451941   -2.1073301    1.0572267   439061 
  121000   0.70276324   -2.1072896   -2.1072896   -1.0531471   0.18512533   -2.1072896    1.0541425   439061 
  122000   0.70293473    -2.110063    -2.110063   -1.0556633   0.18101568    -2.110063    1.0543997   439061 
  123000   0.70098016   -2.1102994   -2.1102994   -1.0588316   0.18130349   -2.1102994    1.0514678   439061 
  124000   0.70037429   -2.1122907   -2.1122907   -1.0617316   0.18423062   -2.1122907     1.050559   439061 
  125000   0.69775836   -2.1132213   -2.1132213   -1.0665862   0.18099243   -2.1132213    1.0466352   439061 
  126000   0.69762663    -2.116033    -2.116033   -1.0695954   0.17525768    -2.116033    1.0464376   439061 
  127000   0.69360274    -2.112852    -2.112852   -1.0724502   0.17717095    -2.112852    1.0404017   439061 
  128000   0.69420698   -2.1154867   -2.1154867   -1.0741786   0.16916649   -2.1154867    1.0413081   439061 
  129000   0.69230217   -2.1148074   -2.1148074   -1.0763565    0.1708783   -2.1148074    1.0384509   439061 
  130000   0.69050539   -2.1148158   -2.1148158     -1.07906   0.16199524   -2.1148158    1.0357557   439061 
  131000   0.68920011   -2.1152817   -2.1152817   -1.0814839   0.16369263   -2.1152817    1.0337978   439061 
  132000   0.68668418   -2.1141061   -2.1141061   -1.0840822    0.1575851   -2.1141061    1.0300239   439061 
  133000   0.68694754   -2.1167845   -2.1167845   -1.0863655   0.15750608   -2.1167845     1.030419   439061 
  134000   0.68489889   -2.1156834   -2.1156834   -1.0883374   0.16048509   -2.1156834     1.027346   439061 
  135000   0.68410696   -2.1167699   -2.1167699   -1.0906118   0.15454524   -2.1167699    1.0261581   439061 
  136000   0.68380537   -2.1187635   -2.1187635   -1.0930578   0.15518662   -2.1187635    1.0257057   439061 
  137000   0.68231469   -2.1180387   -2.1180387    -1.094569   0.15232532   -2.1180387    1.0234697   439061 
  138000   0.68133618   -2.1186356   -2.1186356   -1.0966337   0.15047455   -2.1186356    1.0220019   439061 
  139000   0.68059397   -2.1191241   -2.1191241   -1.0982355   0.14868548   -2.1191241    1.0208886   439061 
  140000   0.67999977   -2.1215341   -2.1215341   -1.1015367   0.14554285   -2.1215341    1.0199973   439061 
  141000   0.67909915   -2.1216351   -2.1216351   -1.1029887   0.14759573   -2.1216351    1.0186464   439061 
  142000   0.67801064    -2.123109    -2.123109   -1.1060953   0.14747847    -2.123109    1.0170136   439061 
  143000   0.67815058   -2.1250157   -2.1250157   -1.1077922   0.14721435   -2.1250157    1.0172235   439061 
  144000   0.67728025   -2.1256637   -2.1256637   -1.1097456   0.14609757   -2.1256637    1.0159181   439061 
  145000   0.67868618   -2.1301801   -2.1301801   -1.1121532   0.14821811   -2.1301801    1.0180269   439061 
  146000    0.6777737   -2.1317261   -2.1317261   -1.1150679   0.15110851   -2.1317261    1.0166582   439061 
  147000    0.6769694   -2.1333213   -2.1333213   -1.1178695   0.15178172   -2.1333213    1.0154518   439061 
  148000   0.67871431   -2.1395619   -2.1395619   -1.1214927   0.15216607   -2.1395619    1.0180691   439061 
  149000   0.67832901   -2.1424697   -2.1424697   -1.1249785   0.16121442   -2.1424697    1.0174912   439061 
  150000   0.67838768   -2.1456461   -2.1456461   -1.1280669   0.16179966   -2.1456461    1.0175792   439061 
  151000   0.67801411   -2.1489833   -2.1489833   -1.1319645   0.16395548   -2.1489833    1.0170188   439061 
  152000     0.677451   -2.1522281   -2.1522281   -1.1360539   0.16207457   -2.1522281    1.0161742   439061 
  153000   0.67686333    -2.155267    -2.155267   -1.1399743   0.16553509    -2.155267    1.0152927   439061 
  154000   0.67609281    -2.157374    -2.157374   -1.1432371   0.16002432    -2.157374    1.0141369   439061 
  155000   0.67374043   -2.1569926   -2.1569926   -1.1463843   0.16092757   -2.1569926    1.0106083   439061 
  156000   0.67392632   -2.1599404   -2.1599404   -1.1490533    0.1572232   -2.1599404    1.0108872   439061 
  157000   0.67310231   -2.1616749   -2.1616749   -1.1520237   0.15593751   -2.1616749    1.0096512   439061 
  158000   0.67199752   -2.1625525   -2.1625525   -1.1545585    0.1543926   -2.1625525     1.007994   439061 
  159000   0.67150704   -2.1641292   -2.1641292   -1.1568709   0.15223752   -2.1641292    1.0072583   439061 
  160000   0.66974066   -2.1633261   -2.1633261   -1.1587174   0.15429519   -2.1633261    1.0046087   439061 
  161000   0.66840924   -2.1637693   -2.1637693   -1.1611577     0.151155   -2.1637693    1.0026116   439061 
  162000   0.66746694   -2.1647018   -2.1647018   -1.1635037   0.15008996   -2.1647018    1.0011981   439061 
  163000   0.66622909   -2.1651141   -2.1651141   -1.1657727   0.14476708   -2.1651141   0.99934136   439061 
  164000   0.66452415   -2.1646352   -2.1646352   -1.1678512     0.144105   -2.1646352   0.99678396   439061 
  165000    0.6631663   -2.1660825   -2.1660825   -1.1713354   0.14045961   -2.1660825   0.99474719   439061 
  166000   0.66210184   -2.1669239   -2.1669239   -1.1737734   0.14011896   -2.1669239    0.9931505   439061 
  167000    0.6612539   -2.1673863   -2.1673863   -1.1755077   0.13551591   -2.1673863   0.99187859   439061 
  168000   0.66098557   -2.1688712   -2.1688712   -1.1773951   0.13757362   -2.1688712    0.9914761   439061 
  169000   0.65991263   -2.1688661   -2.1688661   -1.1789994   0.13767152   -2.1688661    0.9898667   439061 
  170000   0.65939689   -2.1707535   -2.1707535   -1.1816604   0.13659057   -2.1707535   0.98909308   439061 
  171000   0.65785056   -2.1706684   -2.1706684   -1.1838948   0.13301488   -2.1706684   0.98677359   439061 
  172000   0.65767953   -2.1719049   -2.1719049   -1.1853878    0.1309486   -2.1719049   0.98651705   439061 
  173000   0.65626029   -2.1718797   -2.1718797   -1.1874915   0.13283098   -2.1718797   0.98438819   439061 
  174000   0.65674557   -2.1750031   -2.1750031    -1.189887   0.12839511   -2.1750031    0.9851161   439061 
  175000   0.65433178   -2.1731008   -2.1731008   -1.1916054   0.13069021   -2.1731008   0.98149543   439061 
  176000   0.65434266   -2.1747122   -2.1747122   -1.1932005   0.12860065   -2.1747122   0.98151176   439061 
  177000   0.65351878     -2.17568     -2.17568    -1.195404   0.12579072     -2.17568   0.98027593   439061 
  178000   0.65347077   -2.1783433   -2.1783433   -1.1981394   0.12669982   -2.1783433   0.98020392   439061 
  179000   0.65395736   -2.1802913   -2.1802913   -1.1993575   0.12807168   -2.1802913    0.9809338   439061 
  180000   0.65350925   -2.1829402   -2.1829402   -1.2026786   0.12544305   -2.1829402   0.98026164   439061 
  181000   0.65278488   -2.1835767   -2.1835767   -1.2044016   0.13000147   -2.1835767   0.97917508   439061 
  182000   0.65339632   -2.1866246   -2.1866246   -1.2065323   0.13171236   -2.1866246   0.98009224   439061 
  183000   0.65317648   -2.1885405   -2.1885405    -1.208778   0.13557106   -2.1885405   0.97976249   439061 
  184000   0.65389728   -2.1924326   -2.1924326   -1.2115889    0.1342558   -2.1924326   0.98084369   439061 
  185000   0.65290248   -2.1931402   -2.1931402   -1.2137887    0.1388287   -2.1931402   0.97935148   439061 
  186000   0.65237164   -2.1953351   -2.1953351   -1.2167798   0.13750493   -2.1953351   0.97855523   439061 
  187000   0.65239628   -2.1984847   -2.1984847   -1.2198925    0.1349049   -2.1984847    0.9785922   439061 
  188000   0.65133927   -2.1996525   -2.1996525   -1.2226459   0.13761936   -2.1996525   0.97700668   439061 
  189000   0.65017755   -2.2000621   -2.2000621    -1.224798   0.14055306   -2.2000621   0.97526411   439061 
  190000   0.65109776   -2.2044341   -2.2044341   -1.2277897   0.13626929   -2.2044341   0.97664442   439061 
  191000   0.64936499   -2.2040681   -2.2040681   -1.2300228   0.13585943   -2.2040681   0.97404526   439061 
  192000   0.64904577   -2.2059863   -2.2059863   -1.2324198   0.13630572   -2.2059863   0.97356644   439061 
  193000   0.64879013   -2.2063571   -2.2063571   -1.2331741   0.13533682   -2.2063571   0.97318298   439061 
  194000   0.64889375   -2.2084602   -2.2084602   -1.2351218   0.13375568   -2.2084602    0.9733384   439061 
  195000   0.64616688   -2.2080593   -2.2080593   -1.2388112   0.13346473   -2.2080593   0.96924811   439061 
  196000   0.64571455   -2.2100264   -2.2100264   -1.2414567   0.13201144   -2.2100264   0.96856962   439061 
  197000   0.64434113   -2.2105904   -2.2105904   -1.2440809   0.13236158   -2.2105904    0.9665095   439061 
  198000   0.64399273    -2.211564    -2.211564   -1.2455771    0.1306464    -2.211564    0.9659869   439061 
  199000   0.64302304   -2.2126852   -2.2126852   -1.2481529   0.12759889   -2.2126852   0.96453237   439061 
  200000   0.64312856   -2.2141325   -2.2141325   -1.2494418   0.12418575   -2.2141325   0.96469064   439061 
  201000   0.64219357   -2.2142965   -2.2142965   -1.2510083   0.11978288   -2.2142965   0.96328817   439061 
  202000   0.63963286    -2.212345    -2.212345   -1.2528979   0.11784882    -2.212345   0.95944711   439061 
  203000   0.63980886   -2.2134179   -2.2134179   -1.2537068   0.11904358   -2.2134179    0.9597111   439061 
  204000   0.64075101   -2.2165082   -2.2165082   -1.2553838   0.11875099   -2.2165082   0.96112433   439061 
  205000   0.63864074   -2.2148637   -2.2148637   -1.2569048   0.12152016   -2.2148637   0.95795893   439061 
  206000   0.63763406   -2.2158964   -2.2158964   -1.2594475    0.1202863   -2.2158964   0.95644891   439061 
  207000   0.63744921   -2.2172384   -2.2172384   -1.2610668   0.11897513   -2.2172384   0.95617163   439061 
  208000   0.63616783   -2.2174393   -2.2174393   -1.2631898   0.11939191   -2.2174393   0.95424957   439061 
  209000   0.63687006   -2.2207896   -2.2207896   -1.2654867   0.11610153   -2.2207896   0.95530292   439061 
  210000   0.63601171   -2.2212361   -2.2212361   -1.2672207   0.11657318   -2.2212361    0.9540154   439061 
  211000    0.6355838   -2.2227359   -2.2227359   -1.2693623   0.11584778   -2.2227359   0.95337352   439061 
  212000   0.63538028   -2.2243055   -2.2243055   -1.2712372   0.11738829   -2.2243055   0.95306825   439061 
  213000   0.63473147    -2.224635    -2.224635     -1.27254   0.11435761    -2.224635   0.95209503   439061 
  214000   0.63402594   -2.2253105   -2.2253105   -1.2742737   0.11534002   -2.2253105   0.95103674   439061 
  215000   0.63348662   -2.2263763   -2.2263763   -1.2761485    0.1168217   -2.2263763   0.95022776   439061 
  216000   0.63311794    -2.228512    -2.228512   -1.2788372   0.11312874    -2.228512   0.94967475   439061 
  217000   0.63377482   -2.2302854   -2.2302854   -1.2796253   0.11742563   -2.2302854   0.95066007   439061 
  218000   0.63377397   -2.2317226   -2.2317226   -1.2810638   0.11960332   -2.2317226   0.95065879   439061 
  219000   0.63364684   -2.2331194   -2.2331194   -1.2826513   0.11900658   -2.2331194   0.95046809   439061 
  220000    0.6343052   -2.2361305   -2.2361305   -1.2846748   0.11594133   -2.2361305   0.95145564   439061 
  221000   0.63189713   -2.2345895   -2.2345895    -1.286746   0.11854546   -2.2345895   0.94784353   439061 
  222000   0.63144545    -2.236995    -2.236995    -1.289829   0.11666056    -2.236995   0.94716602   439061 
  223000   0.63076093   -2.2379068   -2.2379068   -1.2917676     0.117071   -2.2379068   0.94613925   439061 
  224000   0.63144736   -2.2403892   -2.2403892   -1.2932203   0.12243491   -2.2403892   0.94716888   439061 
  225000   0.63195564   -2.2436692   -2.2436692    -1.295738   0.12086587   -2.2436692   0.94793129   439061 
  226000   0.63132887   -2.2446186   -2.2446186   -1.2976274   0.12162233   -2.2446186   0.94699114   439061 
  227000   0.63203675   -2.2479626   -2.2479626   -1.2999096   0.12096823   -2.2479626   0.94805297   439061 
  228000   0.63027191    -2.247114    -2.247114   -1.3017083    0.1220962    -2.247114   0.94540572   439061 
  229000   0.63041494   -2.2492531   -2.2492531   -1.3036328    0.1217068   -2.2492531   0.94562025   439061 
  230000   0.62944286    -2.250039    -2.250039   -1.3058769   0.11961436    -2.250039   0.94416214   439061 
  231000   0.62755039   -2.2499145   -2.2499145   -1.3085911   0.11525845   -2.2499145   0.94132344   439061 
  232000   0.62831762   -2.2527967   -2.2527967   -1.3103224   0.11050336   -2.2527967   0.94247428   439061 
  233000   0.62622214   -2.2523259   -2.2523259   -1.3129948   0.11183471   -2.2523259   0.93933107   439061 
  234000   0.62589289   -2.2535444   -2.2535444   -1.3147072   0.11700584   -2.2535444    0.9388372   439061 
  235000   0.62495613   -2.2547614   -2.2547614   -1.3173293   0.11365845   -2.2547614   0.93743207   439061 
  236000   0.62351962   -2.2552644   -2.2552644   -1.3199871   0.11572889   -2.2552644    0.9352773   439061 
  237000   0.62438326   -2.2577463   -2.2577463   -1.3211735   0.11144467   -2.2577463   0.93657275   439061 
  238000   0.62350128   -2.2582227   -2.2582227   -1.3229729   0.10895938   -2.2582227   0.93524978   439061 
  239000   0.62364302   -2.2596139   -2.2596139   -1.3241515    0.1116999   -2.2596139   0.93546239   439061 
  240000   0.62275081   -2.2600783   -2.2600783   -1.3259542   0.10565945   -2.2600783   0.93412409   439061 
  241000   0.62135101   -2.2589732   -2.2589732   -1.3269488   0.10842384   -2.2589732   0.93202439   439061 
  242000   0.62204212   -2.2621996   -2.2621996   -1.3291386   0.10629503   -2.2621996   0.93306105   439061 
  243000   0.62155584    -2.262601    -2.262601   -1.3302694   0.10517475    -2.262601   0.93233163   439061 
  244000   0.62062325    -2.263205    -2.263205   -1.3322723   0.10518767    -2.263205   0.93093275   439061 
  245000   0.61958093   -2.2629046   -2.2629046   -1.3335353   0.10555512   -2.2629046   0.92936928   439061 
  246000   0.61939676    -2.264496    -2.264496    -1.335403   0.10494812    -2.264496   0.92909303   439061 
  247000   0.61975373   -2.2672991   -2.2672991   -1.3376707   0.10045034   -2.2672991   0.92962848   439061 
  248000   0.61899331    -2.267163    -2.267163   -1.3386751   0.10361104    -2.267163   0.92848785   439061 
  249000   0.61807257   -2.2676515   -2.2676515   -1.3405447   0.10556724   -2.2676515   0.92710674   439061 
  250000   0.61899175   -2.2706093   -2.2706093   -1.3421238   0.10453497   -2.2706093    0.9284855   439061 
  251000   0.61835317   -2.2714341   -2.2714341   -1.3439065   0.10456378   -2.2714341   0.92752764   439061 
  252000   0.61810648   -2.2732492   -2.2732492   -1.3460916   0.10536028   -2.2732492    0.9271576   439061 
  253000   0.61697353    -2.273818    -2.273818   -1.3483598   0.10694241    -2.273818   0.92545819   439061 
  254000   0.61687496   -2.2756011   -2.2756011   -1.3502908   0.10302784   -2.2756011   0.92531034   439061 
  255000   0.61605635   -2.2764849   -2.2764849   -1.3524025  0.099836602   -2.2764849   0.92408242   439061 
  256000   0.61516222   -2.2771298   -2.2771298   -1.3543885    0.1002001   -2.2771298   0.92274122   439061 
  257000   0.61556283   -2.2788231   -2.2788231   -1.3554809  0.099348154   -2.2788231   0.92334214   439061 
  258000   0.61594711   -2.2807567   -2.2807567   -1.3568381   0.10263516   -2.2807567   0.92391857   439061 
  259000    0.6161025   -2.2821459   -2.2821459   -1.3579942   0.10516891   -2.2821459   0.92415165   439061 
  260000   0.61575572   -2.2840071   -2.2840071   -1.3603756    0.1061053   -2.2840071   0.92363148   439061 
  261000    0.6154467    -2.284975    -2.284975   -1.3618071   0.10579735    -2.284975   0.92316795   439061 
  262000   0.61586257   -2.2871134   -2.2871134   -1.3633217   0.10637761   -2.2871134   0.92379176   439061 
  263000    0.6158401   -2.2890113   -2.2890113   -1.3652532   0.10488868   -2.2890113   0.92375804   439061 
  264000   0.61484663   -2.2891444   -2.2891444   -1.3668766   0.10939491   -2.2891444   0.92226784   439061 
  265000   0.61407321   -2.2899869   -2.2899869   -1.3688792   0.10443706   -2.2899869   0.92110772   439061 
  266000   0.61415619   -2.2920822   -2.2920822     -1.37085   0.10398972   -2.2920822   0.92123219   439061 
  267000   0.61462561   -2.2938302   -2.2938302   -1.3718939   0.10295809   -2.2938302   0.92193632   439061 
  268000   0.61365735   -2.2935326   -2.2935326   -1.3730487   0.10182229   -2.2935326   0.92048393   439061 
  269000   0.61237404    -2.293451    -2.293451    -1.374892   0.10464448    -2.293451   0.91855896   439061 
  270000   0.61156364   -2.2946149   -2.2946149   -1.3772715   0.10297599   -2.2946149   0.91734337   439061 
  271000   0.61208866   -2.2971248   -2.2971248   -1.3789939   0.10002668   -2.2971248    0.9181309   439061 
  272000   0.60988093   -2.2953036   -2.2953036   -1.3804843   0.10332674   -2.2953036   0.91481932   439061 
  273000   0.61100454   -2.2982724   -2.2982724   -1.3817677  0.097471278   -2.2982724   0.91650472   439061 
  274000   0.60940751   -2.2977358   -2.2977358   -1.3836266  0.098772067   -2.2977358   0.91410919   439061 
  275000   0.60947324   -2.2988674   -2.2988674   -1.3846596  0.098752824   -2.2988674   0.91420778   439061 
  276000   0.60831997   -2.2985929   -2.2985929    -1.386115  0.098207304   -2.2985929   0.91247788   439061 
  277000   0.60799867   -2.2998585   -2.2998585   -1.3878626  0.092842758   -2.2998585   0.91199592   439061 
  278000   0.60729076   -2.3000564   -2.3000564   -1.3891223  0.096929322   -2.3000564   0.91093407   439061 
  279000   0.60726831   -2.3015982   -2.3015982   -1.3906978  0.098449301   -2.3015982   0.91090039   439061 
  280000   0.60713807   -2.3032898   -2.3032898   -1.3925848  0.096657283   -2.3032898   0.91070504   439061 
  281000   0.60659694   -2.3051097   -2.3051097   -1.3952164  0.093924413   -2.3051097   0.90989333   439061 
  282000   0.60686632   -2.3061967   -2.3061967   -1.3958993  0.096890552   -2.3061967    0.9102974   439061 
  283000   0.60644683   -2.3074211   -2.3074211   -1.3977529  0.096003863   -2.3074211   0.90966817   439061 
  284000   0.60536112   -2.3072658   -2.3072658   -1.3992262   0.09372417   -2.3072658   0.90803961   439061 
  285000    0.6062521   -2.3098853   -2.3098853   -1.4005092  0.092789654   -2.3098853   0.90937607   439061 
  286000    0.6053819   -2.3099269   -2.3099269   -1.4018561  0.095424819   -2.3099269   0.90807079   439061 
  287000   0.60513015   -2.3110722   -2.3110722   -1.4033791  0.091669115   -2.3110722   0.90769316   439061 
  288000   0.60471905   -2.3114373   -2.3114373   -1.4043608  0.091253082   -2.3114373   0.90707651   439061 
  289000   0.60386007   -2.3110563   -2.3110563   -1.4052682  0.091898492   -2.3110563   0.90578804   439061 
  290000   0.60325251   -2.3116114   -2.3116114   -1.4067347  0.094777414   -2.3116114    0.9048767   439061 
  291000   0.60396467   -2.3138137   -2.3138137   -1.4078687  0.093593445   -2.3138137   0.90594494   439061 
  292000   0.60309572   -2.3148536   -2.3148536   -1.4102121  0.091556268   -2.3148536   0.90464152   439061 
  293000   0.60318393   -2.3165549   -2.3165549    -1.411781  0.092137141   -2.3165549   0.90477384   439061 
  294000   0.60236769   -2.3167738   -2.3167738   -1.4132243  0.094424071   -2.3167738   0.90354948   439061 
  295000   0.60219247   -2.3186788   -2.3186788   -1.4153921  0.091898958   -2.3186788   0.90328664   439061 
  296000   0.60148047   -2.3188693   -2.3188693   -1.4166506  0.091398783   -2.3188693   0.90221864   439061 
  297000   0.60028323   -2.3196048   -2.3196048    -1.419182  0.092734876   -2.3196048    0.9004228   439061 
  298000   0.60195897   -2.3236558   -2.3236558   -1.4207195  0.087120951   -2.3236558   0.90293639   439061 
  299000   0.60107281     -2.32338     -2.32338   -1.4217728   0.09006196     -2.32338   0.90160716   439061 
  300000   0.60016952   -2.3242732   -2.3242732   -1.4240209  0.092721538   -2.3242732   0.90025223   439061 
  301000   0.60088902   -2.3268895   -2.3268895    -1.425558  0.097181657   -2.3268895   0.90133148   439061 
  302000   0.60027111   -2.3277145   -2.3277145   -1.4273099   0.09505463   -2.3277145   0.90040462   439061 
  303000   0.60031169   -2.3299062   -2.3299062   -1.4294407  0.096569866   -2.3299062   0.90046549   439061 
  304000   0.60022626    -2.331587    -2.331587   -1.4312497  0.094119581    -2.331587   0.90033733   439061 
  305000   0.59994016   -2.3335271   -2.3335271   -1.4336189  0.092463037   -2.3335271   0.89990819   439061 
  306000   0.59958403   -2.3340147   -2.3340147   -1.4346407  0.094092892   -2.3340147   0.89937399   439061 
  307000    0.6000826   -2.3362472   -2.3362472   -1.4361254  0.092317111   -2.3362472   0.90012185   439061 
  308000   0.59841714   -2.3363914   -2.3363914   -1.4387677  0.090855093   -2.3363914   0.89762366   439061 
  309000   0.59881388   -2.3382442   -2.3382442   -1.4400255  0.089631716   -2.3382442   0.89821878   439061 
  310000   0.59718217   -2.3368607   -2.3368607   -1.4410895  0.090261418   -2.3368607   0.89577121   439061 
  311000   0.59726526   -2.3385583   -2.3385583   -1.4426625  0.087573768   -2.3385583   0.89589585   439061 
  312000   0.59693731    -2.340326    -2.340326   -1.4449221   0.08844955    -2.340326   0.89540392   439061 
  313000   0.59709543   -2.3417404   -2.3417404   -1.4460993  0.090301825   -2.3417404    0.8956411   439061 
  314000   0.59628751   -2.3414698   -2.3414698   -1.4470406  0.087742003   -2.3414698   0.89442922   439061 
  315000   0.59529071   -2.3420135   -2.3420135   -1.4490794  0.087881089   -2.3420135   0.89293403   439061 
  316000   0.59534261   -2.3437662   -2.3437662   -1.4507543  0.088631509   -2.3437662   0.89301188   439061 
  317000   0.59406944   -2.3430965   -2.3430965   -1.4519943  0.087887831   -2.3430965   0.89110212   439061 
  318000   0.59473546   -2.3448772   -2.3448772   -1.4527761  0.091250439   -2.3448772   0.89210116   439061 
  319000   0.59359874   -2.3451981   -2.3451981    -1.454802  0.085135874   -2.3451981   0.89039608   439061 
  320000   0.59316977   -2.3459399   -2.3459399   -1.4561873  0.087260402   -2.3459399   0.88975263   439061 
  321000   0.59307368   -2.3470816   -2.3470816   -1.4574731  0.085202095   -2.3470816   0.88960849   439061 
  322000    0.5941366   -2.3496362   -2.3496362   -1.4584333  0.087688329   -2.3496362   0.89120286   439061 
  323000   0.59448982   -2.3512122   -2.3512122   -1.4594795   0.08476629   -2.3512122    0.8917327   439061 
  324000   0.59389921   -2.3509937   -2.3509937   -1.4601469  0.085169787   -2.3509937   0.89084678   439061 
  325000   0.59430793    -2.353955    -2.353955   -1.4624951  0.083876188    -2.353955   0.89145987   439061 
  326000   0.59254273   -2.3522155   -2.3522155   -1.4634034  0.083604832   -2.3522155   0.88881208   439061 
  327000    0.5915216   -2.3520006   -2.3520006   -1.4647202   0.08617341   -2.3520006   0.88728038   439061 
  328000   0.59197167    -2.355166    -2.355166   -1.4672106  0.082681237    -2.355166   0.88795548   439061 
  329000   0.59071698   -2.3546071   -2.3546071   -1.4685337  0.080421935   -2.3546071   0.88607346   439061 
  330000   0.59114314   -2.3560699   -2.3560699   -1.4693572  0.080864729   -2.3560699   0.88671269   439061 
  331000   0.59042509   -2.3570877   -2.3570877   -1.4714521  0.083313084   -2.3570877   0.88563561   439061 
  332000   0.59034354   -2.3575826   -2.3575826   -1.4720693  0.082896146   -2.3575826   0.88551329   439061 
  333000   0.58945568   -2.3585079   -2.3585079   -1.4743264  0.082521778   -2.3585079    0.8841815   439061 
  334000   0.59050636   -2.3616251   -2.3616251   -1.4758675  0.081116223   -2.3616251   0.88575752   439061 
  335000   0.58914536   -2.3611321   -2.3611321    -1.477416  0.082288283   -2.3611321   0.88371602   439061 
  336000   0.58845363   -2.3609851   -2.3609851   -1.4783067  0.079387533   -2.3609851   0.88267844   439061 
  337000   0.58965081   -2.3637242   -2.3637242     -1.47925  0.079685552   -2.3637242   0.88447421   439061 
  338000   0.58830383   -2.3628452   -2.3628452   -1.4803914  0.078852908   -2.3628452   0.88245374   439061 
  339000   0.58821288   -2.3635918   -2.3635918   -1.4812745  0.084709644   -2.3635918   0.88231732   439061 
  340000   0.58862329   -2.3658932   -2.3658932   -1.4829602  0.083142511   -2.3658932   0.88293293   439061 
  341000   0.58888863   -2.3687903   -2.3687903   -1.4854594  0.083928348   -2.3687903   0.88333093   439061 
  342000   0.58724837   -2.3684401   -2.3684401   -1.4875696  0.080333465   -2.3684401   0.88087055   439061 
  343000   0.58773457   -2.3707982   -2.3707982   -1.4891984  0.083042531   -2.3707982   0.88159985   439061 
  344000   0.58879733   -2.3723976   -2.3723976   -1.4892036  0.083676094   -2.3723976   0.88319398   439061 
  345000   0.58767775   -2.3724981   -2.3724981   -1.4909835  0.081706848   -2.3724981   0.88151462   439061 
  346000   0.58674881   -2.3726505   -2.3726505   -1.4925292  0.083077796   -2.3726505   0.88012121   439061 
  347000   0.58735133   -2.3756748   -2.3756748   -1.4946499  0.082466043   -2.3756748   0.88102499   439061 
  348000   0.58593302   -2.3750893   -2.3750893   -1.4961918   0.08268351   -2.3750893   0.87889753   439061 
  349000   0.58628851   -2.3771016   -2.3771016   -1.4976708  0.080177555   -2.3771016   0.87943076   439061 
  350000   0.58521772   -2.3775498   -2.3775498   -1.4997252  0.082164057   -2.3775498   0.87782459   439061 
  351000   0.58542508   -2.3784841   -2.3784841   -1.5003485  0.083922771   -2.3784841   0.87813562   439061 
  352000   0.58508217   -2.3785953   -2.3785953   -1.5009741  0.082882042   -2.3785953   0.87762125   439061 
  353000    0.5847023   -2.3803796   -2.3803796   -1.5033282  0.077508306   -2.3803796   0.87705146   439061 
  354000   0.58424901    -2.380608    -2.380608   -1.5042365  0.079437945    -2.380608   0.87637152   439061 
  355000    0.5844266   -2.3815753   -2.3815753   -1.5049374  0.079398337   -2.3815753    0.8766379   439061 
  356000   0.58447831   -2.3826906   -2.3826906   -1.5059751  0.078045315   -2.3826906   0.87671548   439061 
  357000   0.58324084   -2.3822521   -2.3822521   -1.5073929  0.079325807   -2.3822521   0.87485926   439061 
  358000   0.58330547   -2.3838091   -2.3838091   -1.5088529  0.078687614   -2.3838091   0.87495621   439061 
  359000   0.58340593   -2.3849245   -2.3849245   -1.5098176  0.078200856   -2.3849245   0.87510691   439061 
  360000    0.5831534   -2.3863158   -2.3863158   -1.5115877  0.076335241   -2.3863158   0.87472811   439061 
  361000   0.58336378   -2.3873146   -2.3873146   -1.5122709  0.077091848   -2.3873146   0.87504368   439061 
  362000   0.58302647    -2.387892    -2.387892   -1.5133543  0.076948903    -2.387892   0.87453772   439061 
  363000   0.58163052   -2.3876807   -2.3876807   -1.5152369  0.078890749   -2.3876807   0.87244379   439061 
  364000   0.58153223   -2.3888909   -2.3888909   -1.5165946  0.077644925   -2.3888909   0.87229636   439061 
  365000   0.58192085   -2.3908855   -2.3908855   -1.5180062  0.075385472   -2.3908855   0.87287929   439061 
  366000   0.58133472   -2.3910337   -2.3910337   -1.5190336  0.076386727   -2.3910337   0.87200009   439061 
  367000   0.58129428   -2.3924491   -2.3924491   -1.5205097  0.076995616   -2.3924491   0.87193943   439061 
  368000   0.58143505    -2.394475    -2.394475   -1.5223244  0.074746486    -2.394475   0.87215059   439061 
  369000    0.5802917   -2.3944219   -2.3944219   -1.5239863  0.077533437   -2.3944219   0.87043557   439061 
  370000   0.58058684   -2.3962613   -2.3962613   -1.5253831  0.079477433   -2.3962613   0.87087828   439061 
  371000   0.58052779   -2.3979649   -2.3979649   -1.5271752  0.078085079   -2.3979649    0.8707897   439061 
  372000   0.57986423   -2.3983542   -2.3983542   -1.5285599  0.078215022   -2.3983542   0.86979437   439061 
  373000   0.57892372   -2.3986787   -2.3986787   -1.5302951  0.077514289   -2.3986787    0.8683836   439061 
  374000   0.58033277   -2.4020621   -2.4020621   -1.5315649  0.076322943   -2.4020621   0.87049717   439061 
  375000   0.57889863   -2.4005884   -2.4005884   -1.5322424  0.072391899   -2.4005884   0.86834597   439061 
  376000   0.57878315   -2.4023434   -2.4023434   -1.5341706  0.071728904   -2.4023434   0.86817275   439061 
  377000   0.57797955   -2.4012036   -2.4012036   -1.5342363  0.071202455   -2.4012036   0.86696734   439061 
  378000   0.57843715   -2.4026579   -2.4026579   -1.5350041  0.071218605   -2.4026579   0.86765376   439061 
  379000   0.57832541   -2.4028749   -2.4028749   -1.5353887  0.075478114   -2.4028749   0.86748614   439061 
  380000   0.57808603    -2.403992    -2.403992   -1.5368649  0.070216074    -2.403992   0.86712707   439061 
  381000   0.57791453   -2.4054663   -2.4054663   -1.5385965  0.073460159   -2.4054663   0.86686981   439061 
  382000   0.57793478    -2.406288    -2.406288   -1.5393878  0.073799538    -2.406288    0.8669002   439061 
  383000   0.57766516   -2.4064685   -2.4064685   -1.5399727  0.071863564   -2.4064685   0.86649577   439061 
  384000   0.57680707   -2.4074477   -2.4074477   -1.5422391  0.076426148   -2.4074477   0.86520864   439061 
  385000   0.57671592   -2.4092701   -2.4092701   -1.5441982  0.072667189   -2.4092701    0.8650719   439061 
  386000   0.57708856   -2.4113712   -2.4113712   -1.5457403  0.069129766   -2.4113712   0.86563087   439061 
  387000   0.57696543     -2.41171     -2.41171   -1.5462638  0.076881222     -2.41171   0.86544618   439061 
  388000   0.57571243     -2.41127     -2.41127   -1.5477033  0.072031593     -2.41127   0.86356667   439061 
  389000   0.57562601   -2.4129676   -2.4129676   -1.5495306  0.070996952   -2.4129676   0.86343706   439061 
  390000   0.57619771   -2.4147076   -2.4147076    -1.550413  0.073855875   -2.4147076   0.86429459   439061 
  391000   0.57585151   -2.4153388   -2.4153388   -1.5515635  0.071435356   -2.4153388   0.86377529   439061 
  392000   0.57564737   -2.4167654   -2.4167654   -1.5532963  0.073433548   -2.4167654   0.86346909   439061 
  393000   0.57473948   -2.4166524   -2.4166524   -1.5545452  0.075644152   -2.4166524   0.86210726   439061 
  394000   0.57573254   -2.4200574   -2.4200574   -1.5564606  0.070322598   -2.4200574   0.86359684   439061 
  395000   0.57486272   -2.4194432   -2.4194432   -1.5571511  0.075014303   -2.4194432   0.86229211   439061 
  396000    0.5744157    -2.420146    -2.420146   -1.5585244  0.074477249    -2.420146   0.86162159   439061 
  397000   0.57466357   -2.4221182   -2.4221182   -1.5601248  0.069567937   -2.4221182   0.86199339   439061 
  398000   0.57501093   -2.4236321   -2.4236321   -1.5611177  0.068037323   -2.4236321   0.86251443   439061 
  399000   0.57355613   -2.4226529   -2.4226529   -1.5623207  0.072888071   -2.4226529   0.86033224   439061 
  400000    0.5737982   -2.4249798   -2.4249798   -1.5642845  0.068668402   -2.4249798   0.86069534   439061 
  401000   0.57402392   -2.4269554   -2.4269554   -1.5659215  0.069978954   -2.4269554   0.86103392   439061 
  402000   0.57347898   -2.4268004   -2.4268004   -1.5665839  0.072370796   -2.4268004   0.86021652   439061 
  403000   0.57252041   -2.4265233   -2.4265233   -1.5677447  0.072688451   -2.4265233   0.85877866   439061 
  404000   0.57241846    -2.428567    -2.428567   -1.5699412  0.074010775    -2.428567   0.85862574   439061 
  405000   0.57306197    -2.430277    -2.430277   -1.5706861  0.070081433    -2.430277     0.859591   439061 
  406000   0.57225361   -2.4303526   -2.4303526   -1.5719741  0.069498901   -2.4303526   0.85837846   439061 
  407000   0.57160437   -2.4301445   -2.4301445     -1.57274  0.067615091   -2.4301445    0.8574046   439061 
  408000   0.57162918   -2.4300735   -2.4300735   -1.5726317  0.067196351   -2.4300735   0.85744182   439061 
  409000   0.57063052   -2.4299556   -2.4299556   -1.5740118  0.070565761   -2.4299556   0.85594384   439061 
  410000   0.56977743   -2.4301123   -2.4301123   -1.5754481  0.070918379   -2.4301123   0.85466419   439061 
  411000    0.5708769    -2.432831    -2.432831   -1.5765176  0.065743776    -2.432831   0.85631341   439061 
  412000   0.57086073   -2.4343314   -2.4343314   -1.5780423  0.065670865   -2.4343314   0.85628914   439061 
  413000   0.56979161   -2.4342338   -2.4342338   -1.5795483  0.069581154   -2.4342338   0.85468547   439061 
  414000   0.57022199   -2.4355098   -2.4355098   -1.5801788  0.072512742   -2.4355098   0.85533104   439061 
  415000   0.57023847   -2.4370202   -2.4370202   -1.5816645  0.068302753   -2.4370202   0.85535576   439061 
  416000   0.57038697   -2.4385379   -2.4385379   -1.5829594  0.067022824   -2.4385379   0.85557851   439061 
  417000   0.56950594   -2.4389698   -2.4389698   -1.5847128  0.067221223   -2.4389698   0.85425696   439061 
  418000   0.56909576   -2.4403445   -2.4403445   -1.5867028  0.068006089   -2.4403445   0.85364169   439061 
  419000   0.56954727   -2.4425606   -2.4425606   -1.5882416   0.06506409   -2.4425606   0.85431895   439061 
  420000   0.56848786   -2.4419875   -2.4419875   -1.5892576  0.064525733   -2.4419875   0.85272985   439061 
  421000   0.56844756   -2.4422382   -2.4422382   -1.5895688  0.065173634   -2.4422382    0.8526694   439061 
  422000   0.56870567   -2.4446571   -2.4446571   -1.5916005  0.063496332   -2.4446571   0.85305657   439061 
  423000   0.56785886    -2.444309    -2.444309   -1.5925226  0.066262243    -2.444309   0.85178635   439061 
  424000   0.56766157   -2.4446578   -2.4446578   -1.5931674  0.067852946   -2.4446578   0.85149042   439061 
  425000   0.56721294   -2.4461574   -2.4461574   -1.5953399  0.066744632   -2.4461574   0.85081747   439061 
  426000   0.56809951    -2.447947    -2.447947   -1.5957996  0.064035325    -2.447947   0.85214732   439061 
  427000   0.56783763   -2.4485883   -2.4485883   -1.5968338  0.068926344   -2.4485883   0.85175451   439061 
  428000    0.5676584   -2.4501479   -2.4501479   -1.5986622  0.067482139   -2.4501479   0.85148566   439061 
  429000   0.56687143   -2.4504532   -2.4504532    -1.600148  0.066270158   -2.4504532    0.8503052   439061 
  430000   0.56610243   -2.4504141   -2.4504141   -1.6012624  0.065271765   -2.4504141   0.84915171   439061 
  431000   0.56724151   -2.4536528   -2.4536528   -1.6027924  0.068652354   -2.4536528   0.85086033   439061 
  432000   0.56673016   -2.4540698   -2.4540698   -1.6039765  0.067385649   -2.4540698    0.8500933   439061 
  433000   0.56645675   -2.4553969   -2.4553969   -1.6057137  0.068174782   -2.4553969   0.84968319   439061 
  434000   0.56602285   -2.4553405   -2.4553405   -1.6063082  0.067324784   -2.4553405   0.84903234   439061 
  435000   0.56588051   -2.4569226   -2.4569226   -1.6081038  0.068388672   -2.4569226   0.84881883   439061 
  436000   0.56518803   -2.4570674   -2.4570674   -1.6092872  0.065991576   -2.4570674   0.84778012   439061 
  437000   0.56542159   -2.4589516   -2.4589516   -1.6108211  0.067835587   -2.4589516   0.84813045   439061 
  438000   0.56536135   -2.4598628   -2.4598628   -1.6118227  0.067620164   -2.4598628   0.84804009   439061 
  439000   0.56455345   -2.4592578   -2.4592578   -1.6124295  0.066835065   -2.4592578   0.84682825   439061 
  440000   0.56509623   -2.4615424   -2.4615424      -1.6139  0.066022313   -2.4615424   0.84764242   439061 
  441000   0.56463971   -2.4617117   -2.4617117   -1.6147541  0.069976734   -2.4617117   0.84695763   439061 
  442000   0.56538602   -2.4629905   -2.4629905   -1.6149134  0.067226906   -2.4629905   0.84807709   439061 
  443000   0.56480926   -2.4636975   -2.4636975   -1.6164855  0.067213772   -2.4636975   0.84721196   439061 
  444000      0.56314   -2.4624891   -2.4624891   -1.6177811  0.064521116   -2.4624891   0.84470808   439061 
  445000   0.56446027   -2.4647533   -2.4647533   -1.6180648  0.063259204   -2.4647533   0.84668847   439061 
  446000   0.56387468   -2.4645828   -2.4645828   -1.6187727  0.063407302   -2.4645828   0.84581009   439061 
  447000   0.56280961   -2.4641306   -2.4641306   -1.6199181  0.064236879   -2.4641306   0.84421249   439061 
  448000    0.5632358    -2.465609    -2.465609   -1.6207572  0.061383684    -2.465609   0.84485178   439061 
  449000   0.56247651    -2.466212    -2.466212   -1.6224991  0.062225488    -2.466212   0.84371285   439061 
  450000   0.56228221   -2.4672961   -2.4672961   -1.6238747  0.064545015   -2.4672961   0.84342139   439061 
  451000   0.56181607    -2.468411    -2.468411   -1.6256888  0.063209056    -2.468411   0.84272218   439061 
  452000   0.56166753   -2.4699049   -2.4699049   -1.6274055  0.064138278   -2.4699049   0.84249938   439061 
  453000   0.56252847   -2.4712493   -2.4712493   -1.6274585  0.060377821   -2.4712493   0.84379079   439061 
  454000   0.56339572   -2.4732083   -2.4732083   -1.6281167  0.064860629   -2.4732083   0.84509166   439061 
  455000    0.5625392   -2.4738208   -2.4738208    -1.630014  0.062168839   -2.4738208   0.84380688   439061 
  456000    0.5621138   -2.4744448   -2.4744448    -1.631276  0.061956216   -2.4744448   0.84316878   439061 
  457000   0.56195776   -2.4757544   -2.4757544   -1.6328197   0.06357679   -2.4757544   0.84293472   439061 
  458000   0.56103012   -2.4757778   -2.4757778   -1.6342346  0.064338814   -2.4757778   0.84154327   439061 
  459000   0.56184317   -2.4781366   -2.4781366   -1.6353738  0.059095435   -2.4781366   0.84276284   439061 
  460000   0.56071575   -2.4776195   -2.4776195   -1.6365478  0.061276604   -2.4776195   0.84107171   439061 
  461000   0.56195145   -2.4808108   -2.4808108   -1.6378855  0.058695259   -2.4808108   0.84292526   439061 
  462000   0.56117734   -2.4812956   -2.4812956   -1.6395315  0.060129493   -2.4812956    0.8417641   439061 
  463000   0.56051723   -2.4811514   -2.4811514   -1.6403775  0.060773967   -2.4811514   0.84077392   439061 
  464000   0.56083542   -2.4814124   -2.4814124   -1.6401612  0.064215887   -2.4814124   0.84125121   439061 
  465000   0.55932931   -2.4812549   -2.4812549   -1.6422628  0.064063697   -2.4812549   0.83899206   439061 
  466000   0.55992374   -2.4833146   -2.4833146   -1.6434309  0.063739273   -2.4833146   0.83988369   439061 
  467000   0.55949675   -2.4841644   -2.4841644   -1.6449212  0.063368855   -2.4841644   0.83924321   439061 
  468000   0.55923197   -2.4836435   -2.4836435   -1.6447974  0.062971053   -2.4836435   0.83884604   439061 
  469000   0.55915137   -2.4849488   -2.4849488   -1.6462237  0.063580565   -2.4849488   0.83872514   439061 
  470000   0.55949925   -2.4853244   -2.4853244   -1.6460774  0.064828243   -2.4853244   0.83924697   439061 
  471000    0.5580807   -2.4846708   -2.4846708   -1.6475517  0.061478107   -2.4846708   0.83711914   439061 
  472000   0.55890738   -2.4868373   -2.4868373   -1.6484782  0.060478224   -2.4868373   0.83835917   439061 
  473000   0.55927478   -2.4891071   -2.4891071   -1.6501968  0.055666517   -2.4891071   0.83891026   439061 
  474000   0.55776839   -2.4875749   -2.4875749   -1.6509242  0.065134511   -2.4875749   0.83665067   439061 
  475000   0.55858024   -2.4895456   -2.4895456   -1.6516772   0.05821159   -2.4895456   0.83786845   439061 
  476000   0.55939593   -2.4909235   -2.4909235   -1.6518315  0.061876471   -2.4909235   0.83909199   439061 
  477000   0.55862211   -2.4915847   -2.4915847   -1.6536534  0.062112025   -2.4915847   0.83793126   439061 
  478000   0.55881272   -2.4934922   -2.4934922    -1.655275  0.057726051   -2.4934922   0.83821717   439061 
  479000   0.55793594    -2.492867    -2.492867    -1.655965  0.063789896    -2.492867     0.836902   439061 
  480000   0.55846664   -2.4949203   -2.4949203   -1.6572222  0.065624066   -2.4949203   0.83769805   439061 
  481000   0.55702378   -2.4939803   -2.4939803   -1.6584466  0.061568878   -2.4939803   0.83553377   439061 
  482000   0.55744229   -2.4957084   -2.4957084   -1.6595468  0.059927508   -2.4957084   0.83616153   439061 
  483000   0.55759161   -2.4981506   -2.4981506    -1.661765  0.060369867   -2.4981506   0.83638551   439061 
  484000   0.55796763   -2.4990671   -2.4990671   -1.6621175  0.059382524   -2.4990671   0.83694954   439061 
  485000   0.55695356   -2.4990731   -2.4990731   -1.6636446  0.058783529   -2.4990731   0.83542844   439061 
  486000   0.55671517   -2.5000058   -2.5000058   -1.6649349  0.056074898   -2.5000058   0.83507086   439061 
  487000   0.55629279   -2.4997014   -2.4997014   -1.6652641  0.058353688   -2.4997014   0.83443728   439061 
  488000   0.55577525   -2.5000991   -2.5000991   -1.6664381  0.059397191   -2.5000991   0.83366097   439061 
  489000   0.55529805   -2.5007334   -2.5007334   -1.6677882  0.054521245   -2.5007334   0.83294518   439061 
  490000   0.55589034   -2.5030543   -2.5030543   -1.6692207  0.055406891   -2.5030543   0.83383362   439061 
  491000   0.55652037   -2.5049504   -2.5049504   -1.6701717  0.056633713   -2.5049504   0.83477865   439061 
  492000    0.5559045   -2.5044066   -2.5044066   -1.6705518  0.059776294   -2.5044066   0.83385485   439061 
  493000   0.55574932   -2.5058666   -2.5058666   -1.6722445  0.058399169   -2.5058666   0.83362208   439061 
  494000   0.55535766   -2.5055476   -2.5055476    -1.672513  0.057485841   -2.5055476   0.83303459   439061 
  495000   0.55547422     -2.50701     -2.50701   -1.6738006  0.056557983     -2.50701   0.83320944   439061 
  496000   0.55491902   -2.5070726   -2.5070726    -1.674696  0.057133233   -2.5070726   0.83237664   439061 
  497000    0.5548794    -2.508081    -2.508081   -1.6757638  0.054734763    -2.508081    0.8323172   439061 
  498000   0.55454655   -2.5085753   -2.5085753   -1.6767573  0.058706738   -2.5085753   0.83181793   439061 
  499000   0.55511169   -2.5103282   -2.5103282   -1.6776625  0.055150687   -2.5103282   0.83266564   439061 
  500000   0.55446114   -2.5101132   -2.5101132   -1.6784234  0.056826592   -2.5101132   0.83168982   439061 
  501000   0.55393337   -2.5104345   -2.5104345   -1.6795363  0.057984207   -2.5104345   0.83089817   439061 
  502000   0.55451043   -2.5124195   -2.5124195   -1.6806557  0.054820737   -2.5124195   0.83176376   439061 
  503000   0.55457678   -2.5128629   -2.5128629   -1.6809996  0.059987577   -2.5128629   0.83186327   439061 
  504000   0.55407601    -2.513576    -2.513576   -1.6824638    0.0571978    -2.513576   0.83111212   439061 
  505000    0.5537182   -2.5140219   -2.5140219   -1.6834465  0.057156227   -2.5140219   0.83057541   439061 
  506000   0.55428768   -2.5160651   -2.5160651   -1.6846355  0.055657854   -2.5160651   0.83142963   439061 
  507000   0.55309963   -2.5159528   -2.5159528   -1.6863053  0.056897238   -2.5159528   0.82964755   439061 
  508000   0.55245696   -2.5166448   -2.5166448   -1.6879613   0.05318981   -2.5166448   0.82868355   439061 
  509000   0.55322579   -2.5195294   -2.5195294   -1.6896926  0.056069798   -2.5195294   0.82983679   439061 
  510000    0.5530134    -2.519834    -2.519834   -1.6903157  0.055711102    -2.519834   0.82951821   439061 
  511000    0.5525253   -2.5202655   -2.5202655   -1.6914794  0.056190865   -2.5202655   0.82878606   439061 
  512000   0.55271443   -2.5216584   -2.5216584   -1.6925887   0.05684174   -2.5216584   0.82906976   439061 
  513000   0.55294316   -2.5234217   -2.5234217   -1.6940088  0.057984482   -2.5234217   0.82941285   439061 
  514000   0.55235797   -2.5238766   -2.5238766   -1.6953415  0.058334276   -2.5238766   0.82853506   439061 
  515000   0.55267967   -2.5255765   -2.5255765   -1.6965589  0.054567292   -2.5255765   0.82901762   439061 
  516000   0.55200868   -2.5252824   -2.5252824   -1.6972713  0.055703781   -2.5252824   0.82801114   439061 
  517000   0.55112958   -2.5255312   -2.5255312   -1.6988388  0.056519752   -2.5255312   0.82669248   439061 
  518000   0.55106259   -2.5264392   -2.5264392   -1.6998472  0.056264304   -2.5264392   0.82659201   439061 
  519000    0.5517448   -2.5280244   -2.5280244    -1.700409  0.053644096   -2.5280244   0.82761531   439061 
  520000   0.55171329   -2.5293024   -2.5293024   -1.7017344  0.052874134   -2.5293024   0.82756806   439061 
  521000   0.55034661   -2.5292112   -2.5292112   -1.7036932  0.056162317   -2.5292112   0.82551804   439061 
  522000   0.54993751   -2.5295396   -2.5295396   -1.7046352  0.053189842   -2.5295396   0.82490439   439061 
  523000   0.55004919   -2.5312051   -2.5312051   -1.7061332   0.05615431   -2.5312051    0.8250719   439061 
  524000   0.55048061   -2.5324582   -2.5324582   -1.7067392   0.05936879   -2.5324582   0.82571903   439061 
  525000   0.55132647   -2.5340833   -2.5340833   -1.7070954  0.056418436   -2.5340833   0.82698782   439061 
  526000   0.54994573   -2.5338676   -2.5338676   -1.7089509  0.058524717   -2.5338676   0.82491671   439061 
  527000   0.55068242   -2.5357732   -2.5357732   -1.7097514   0.05374215   -2.5357732   0.82602175   439061 
  528000   0.55061936   -2.5362768   -2.5362768   -1.7103496  0.059913467   -2.5362768   0.82592716   439061 
  529000   0.54978179   -2.5368631   -2.5368631   -1.7121923  0.056155158   -2.5368631   0.82467081   439061 
  530000   0.54867275   -2.5365904   -2.5365904   -1.7135831  0.053805666   -2.5365904   0.82300725   439061 
  531000   0.54901802   -2.5377907   -2.5377907   -1.7142655    0.0510338   -2.5377907   0.82352515   439061 
  532000   0.54869462   -2.5380365   -2.5380365   -1.7149965  0.053177712   -2.5380365   0.82304005   439061 
  533000   0.54886621   -2.5390307   -2.5390307   -1.7157333  0.051138572   -2.5390307   0.82329744   439061 
  534000   0.54802591   -2.5379718   -2.5379718   -1.7159348   0.05063635   -2.5379718   0.82203699   439061 
  535000   0.54926748   -2.5405342   -2.5405342   -1.7166348  0.054453813   -2.5405342   0.82389934   439061 
  536000   0.54790049   -2.5396627   -2.5396627   -1.7178139   0.04893056   -2.5396627   0.82184887   439061 
  537000   0.54789531   -2.5409095   -2.5409095   -1.7190684  0.051812114   -2.5409095   0.82184109   439061 
  538000   0.54841338   -2.5418995   -2.5418995   -1.7192813  0.051901019   -2.5418995    0.8226182   439061 
  539000   0.54819126   -2.5436224   -2.5436224   -1.7213374   0.05670314   -2.5436224   0.82228502   439061 
  540000   0.54875019   -2.5449551   -2.5449551   -1.7218317  0.051085378   -2.5449551   0.82312341   439061 
  541000   0.54829135   -2.5455694   -2.5455694   -1.7231342  0.052718827   -2.5455694   0.82243515   439061 
  542000   0.54804568   -2.5460265   -2.5460265   -1.7239598  0.055767291   -2.5460265   0.82206664   439061 
  543000   0.54863352   -2.5485604   -2.5485604    -1.725612  0.052780076   -2.5485604   0.82294841   439061 
  544000   0.54661424   -2.5465491   -2.5465491   -1.7266296  0.055647187   -2.5465491   0.81991949   439061 
  545000   0.54643907   -2.5482478   -2.5482478   -1.7285911  0.050806507   -2.5482478   0.81965673   439061 
  546000   0.54815128   -2.5519089   -2.5519089   -1.7296838  0.048654931   -2.5519089   0.82222505   439061 
  547000     0.546747   -2.5506373   -2.5506373   -1.7305186  0.050776042   -2.5506373   0.82011863   439061 
  548000   0.54716088    -2.551564    -2.551564   -1.7308245  0.055230712    -2.551564   0.82073946   439061 
  549000   0.54735307   -2.5523959   -2.5523959   -1.7313681  0.057500886   -2.5523959   0.82102774   439061 
  550000   0.54648482   -2.5533015   -2.5533015   -1.7335761  0.053203434   -2.5533015   0.81972537   439061 
  551000   0.54635048   -2.5542105   -2.5542105   -1.7346866  0.051545985   -2.5542105   0.81952385   439061 
  552000   0.54640917   -2.5553393   -2.5553393   -1.7357274  0.050569431   -2.5553393   0.81961189   439061 
  553000   0.54485014   -2.5548155   -2.5548155   -1.7375421  0.048723382   -2.5548155   0.81727334   439061 
  554000   0.54599095   -2.5572285   -2.5572285   -1.7382439  0.052156434   -2.5572285   0.81898456   439061 
  555000   0.54601007   -2.5584482   -2.5584482    -1.739435  0.050890926   -2.5584482   0.81901324   439061 
  556000   0.54533839   -2.5574884   -2.5574884   -1.7394827  0.054935218   -2.5574884   0.81800572   439061 
  557000   0.54489417   -2.5585464   -2.5585464   -1.7412069  0.054188675   -2.5585464    0.8173394   439061 
  558000   0.54464954   -2.5590587   -2.5590587   -1.7420862  0.053496309   -2.5590587   0.81697245   439061 
  559000   0.54562545   -2.5609162   -2.5609162   -1.7424798  0.053717703   -2.5609162   0.81843632   439061 
  560000   0.54490725   -2.5609789   -2.5609789   -1.7436199  0.054376423   -2.5609789   0.81735901   439061 
  561000   0.54551774   -2.5630045   -2.5630045   -1.7447297  0.053839692   -2.5630045   0.81827475   439061 
  562000   0.54463468   -2.5626231   -2.5626231    -1.745673  0.052953021   -2.5626231   0.81695017   439061 
  563000   0.54561398   -2.5639341   -2.5639341    -1.745515  0.054068876   -2.5639341   0.81841911   439061 
  564000    0.5454272   -2.5648944   -2.5648944   -1.7467554  0.052410064   -2.5648944   0.81813894   439061 
  565000   0.54457743   -2.5643992   -2.5643992   -1.7475349  0.050577883   -2.5643992   0.81686428   439061 
  566000   0.54510966   -2.5656601   -2.5656601   -1.7479975  0.050098873   -2.5656601   0.81766262   439061 
  567000   0.54318186   -2.5638531   -2.5638531   -1.7490821   0.04932742   -2.5638531   0.81477093   439061 
  568000   0.54356675   -2.5664315   -2.5664315   -1.7510832  0.048602595   -2.5664315   0.81534827   439061 
  569000   0.54341479   -2.5673305   -2.5673305   -1.7522101   0.04590292   -2.5673305   0.81512033   439061 
  570000    0.5427047   -2.5672966   -2.5672966   -1.7532414  0.048667064   -2.5672966   0.81405519   439061 
  571000   0.54225387   -2.5677537   -2.5677537   -1.7543747   0.04789284   -2.5677537   0.81337896   439061 
  572000   0.54350118   -2.5706752   -2.5706752   -1.7554252  0.050276068   -2.5706752   0.81524992   439061 
  573000   0.54307865   -2.5704624   -2.5704624   -1.7558463  0.052906575   -2.5704624   0.81461611   439061 
  574000   0.54293891   -2.5715413   -2.5715413   -1.7571347  0.052788415   -2.5715413   0.81440652   439061 
  575000   0.54379559   -2.5742031   -2.5742031   -1.7585116  0.050765309   -2.5742031   0.81569152   439061 
  576000   0.54394899   -2.5753712   -2.5753712   -1.7594496  0.050048482   -2.5753712   0.81592163   439061 
  577000    0.5434085   -2.5755343   -2.5755343   -1.7604234  0.053073991   -2.5755343   0.81511089   439061 
  578000   0.54290271   -2.5758632   -2.5758632    -1.761511  0.052434293   -2.5758632   0.81435221   439061 
  579000   0.54238204   -2.5768532   -2.5768532    -1.763282  0.049088965   -2.5768532   0.81357121   439061 
  580000   0.54221359   -2.5773036   -2.5773036    -1.763985  0.050941259   -2.5773036   0.81331853   439061 
  581000    0.5430921   -2.5784423   -2.5784423    -1.763806  0.052192213   -2.5784423   0.81463629   439061 
  582000   0.54292995   -2.5789495   -2.5789495   -1.7645564  0.049552303   -2.5789495   0.81439307   439061 
  583000   0.54248279   -2.5799742   -2.5799742   -1.7662519  0.050198504   -2.5799742   0.81372233   439061 
  584000   0.54157381   -2.5793536   -2.5793536   -1.7669947  0.049152232   -2.5793536   0.81235886   439061 
  585000   0.54188712   -2.5807324   -2.5807324   -1.7679036  0.046851806   -2.5807324   0.81282883   439061 
  586000   0.54063699   -2.5795725   -2.5795725   -1.7686188  0.051963541   -2.5795725   0.81095364   439061 
  587000   0.54119437   -2.5817088   -2.5817088   -1.7699191  0.049129787   -2.5817088   0.81178971   439061 
  588000   0.54177886   -2.5820795   -2.5820795   -1.7694131  0.048316275   -2.5820795   0.81266644   439061 
  589000   0.54139808    -2.582731    -2.582731   -1.7706357  0.047478848    -2.582731   0.81209527   439061 
  590000   0.54092637   -2.5832617   -2.5832617    -1.771874  0.045474613   -2.5832617   0.81138771   439061 
  591000   0.54213602   -2.5853586   -2.5853586   -1.7721564  0.048784016   -2.5853586   0.81320218   439061 
  592000   0.54132708   -2.5851418   -2.5851418    -1.773153  0.046297818   -2.5851418   0.81198876   439061 
  593000   0.54105532   -2.5861481   -2.5861481   -1.7745669  0.048320355   -2.5861481   0.81158113   439061 
  594000   0.54160847    -2.588336    -2.588336   -1.7759252  0.050162196    -2.588336   0.81241086   439061 
  595000   0.54022262   -2.5878181   -2.5878181   -1.7774861  0.046945544   -2.5878181   0.81033209   439061 
  596000   0.54077243   -2.5899513   -2.5899513   -1.7787945  0.045547565   -2.5899513   0.81115679   439061 
  597000   0.53971307   -2.5898262   -2.5898262   -1.7802584  0.052093907   -2.5898262   0.80956776   439061 
  598000   0.54004668   -2.5909914   -2.5909914   -1.7809233  0.048746528   -2.5909914   0.81006817   439061 
  599000   0.54050878   -2.5923736   -2.5923736   -1.7816123  0.050018315   -2.5923736   0.81076132   439061 
  600000   0.53908431   -2.5919858   -2.5919858   -1.7833612  0.049009816   -2.5919858   0.80862462   439061 
  601000   0.54016463   -2.5935422   -2.5935422   -1.7832971  0.045745538   -2.5935422    0.8102451   439061 
  602000   0.53967015   -2.5937606   -2.5937606   -1.7842572  0.047824673   -2.5937606   0.80950339   439061 
  603000   0.53916169   -2.5944686   -2.5944686   -1.7857279  0.047529213   -2.5944686   0.80874069   439061 
  604000   0.53938707   -2.5957178   -2.5957178    -1.786639  0.047991405   -2.5957178   0.80907876   439061 
  605000   0.53997164   -2.5972547   -2.5972547   -1.7872991   0.04520433   -2.5972547   0.80995562   439061 
  606000    0.5396812   -2.5975163   -2.5975163   -1.7879963  0.046554103   -2.5975163   0.80951995   439061 
  607000      0.53936   -2.5982601   -2.5982601   -1.7892219  0.044735393   -2.5982601   0.80903816   439061 
  608000   0.53836593   -2.5975617   -2.5975617   -1.7900147  0.047252771   -2.5975617   0.80754706   439061 
  609000    0.5395999   -2.6009718   -2.6009718   -1.7915738  0.043061354   -2.6009718     0.809398   439061 
  610000   0.53915374   -2.6014357   -2.6014357   -1.7927069  0.046455777   -2.6014357   0.80872877   439061 
  611000   0.53917056   -2.6017607   -2.6017607   -1.7930067  0.046361033   -2.6017607   0.80875399   439061 
  612000   0.53892316   -2.6025136   -2.6025136   -1.7941307  0.047631121   -2.6025136   0.80838289   439061 
  613000    0.5398377    -2.604228    -2.604228   -1.7944733  0.049615966    -2.604228   0.80975471   439061 
  614000   0.53904714   -2.6049031   -2.6049031   -1.7963342  0.049326381   -2.6049031   0.80856887   439061 
  615000   0.53806678   -2.6042429   -2.6042429   -1.7971446  0.048573965   -2.6042429   0.80709833   439061 
  616000   0.53805187   -2.6055926   -2.6055926   -1.7985166   0.04913613   -2.6055926   0.80707596   439061 
  617000    0.5388717   -2.6072554   -2.6072554   -1.7989497  0.047409774   -2.6072554   0.80830571   439061 
  618000   0.53813673   -2.6070263   -2.6070263    -1.799823  0.050757691   -2.6070263   0.80720326   439061 
  619000   0.53765134   -2.6072588   -2.6072588   -1.8007836  0.046369948   -2.6072588   0.80647518   439061 
  620000   0.53794309   -2.6089971   -2.6089971   -1.8020843  0.047151856   -2.6089971    0.8069128   439061 
  621000   0.53702252   -2.6085865   -2.6085865   -1.8030546    0.0501408   -2.6085865   0.80553195   439061 
  622000   0.53811041    -2.610663    -2.610663   -1.8034992   0.04198214    -2.610663   0.80716378   439061 
  623000   0.53641361   -2.6094063   -2.6094063   -1.8047877  0.045253673   -2.6094063   0.80461858   439061 
  624000   0.53683383   -2.6106409   -2.6106409    -1.805392  0.047443667   -2.6106409   0.80524892   439061 
  625000   0.53645644   -2.6115894   -2.6115894   -1.8069066  0.043925517   -2.6115894   0.80468283   439061 
  626000   0.53727905   -2.6125352   -2.6125352   -1.8066184   0.04700701   -2.6125352   0.80591674   439061 
  627000   0.53676374   -2.6128793   -2.6128793   -1.8077355  0.047611227   -2.6128793   0.80514378   439061 
  628000   0.53787942   -2.6157495   -2.6157495   -1.8089322  0.046254725   -2.6157495    0.8068173   439061 
  629000   0.53699246   -2.6155675   -2.6155675   -1.8100806  0.049309869   -2.6155675   0.80548685   439061 
  630000   0.53680449   -2.6166062   -2.6166062   -1.8114013  0.046065231   -2.6166062   0.80520491   439061 
  631000   0.53683565   -2.6171854   -2.6171854   -1.8119337  0.047454796   -2.6171854   0.80525165   439061 
  632000   0.53693797   -2.6186258   -2.6186258   -1.8132207  0.046503177   -2.6186258   0.80540512   439061 
  633000   0.53663715   -2.6184913   -2.6184913   -1.8135374  0.050067748   -2.6184913   0.80495389   439061 
  634000    0.5370301   -2.6197041   -2.6197041   -1.8141608  0.049561727   -2.6197041   0.80554332   439061 
  635000    0.5365317   -2.6209754   -2.6209754   -1.8161796  0.047489319   -2.6209754   0.80479572   439061 
  636000   0.53622852   -2.6211954   -2.6211954   -1.8168545  0.045319062   -2.6211954   0.80434095   439061 
  637000   0.53574879   -2.6208177   -2.6208177   -1.8171964  0.046431166   -2.6208177   0.80362135   439061 
  638000   0.53535334   -2.6215117   -2.6215117   -1.8184836  0.039782281   -2.6215117   0.80302817   439061 
  639000   0.53491576   -2.6217962   -2.6217962   -1.8194244  0.042354654   -2.6217962   0.80237181   439061 
  640000   0.53439947   -2.6216063   -2.6216063    -1.820009  0.043841932   -2.6216063   0.80159738   439061 
  641000   0.53483114   -2.6227861   -2.6227861   -1.8205412  0.041812199   -2.6227861   0.80224488   439061 
  642000    0.5351342   -2.6246555   -2.6246555    -1.821956  0.044521278   -2.6246555   0.80269947   439061 
  643000   0.53496406   -2.6252871   -2.6252871   -1.8228429   0.04629008   -2.6252871   0.80244426   439061 
  644000   0.53562688   -2.6265336   -2.6265336   -1.8230951  0.046749845   -2.6265336    0.8034385   439061 
  645000   0.53556132   -2.6271358   -2.6271358   -1.8237957  0.044904247   -2.6271358   0.80334014   439061 
  646000   0.53480714   -2.6270988   -2.6270988   -1.8248899  0.047686393   -2.6270988   0.80220888   439061 
  647000   0.53549306    -2.629691    -2.629691   -1.8264532  0.046450225    -2.629691   0.80323776   439061 
  648000   0.53506812   -2.6298773   -2.6298773    -1.827277  0.048137143   -2.6298773   0.80260036   439061 
  649000   0.53412961   -2.6297659   -2.6297659   -1.8285733  0.047118519   -2.6297659   0.80119258   439061 
  650000   0.53426361   -2.6304231   -2.6304231   -1.8290295  0.047548411   -2.6304231   0.80139359   439061 
  651000   0.53438901   -2.6314424   -2.6314424   -1.8298607  0.043205505   -2.6314424   0.80158168   439061 
  652000   0.53415519   -2.6311119   -2.6311119   -1.8298809  0.046442317   -2.6311119   0.80123096   439061 
  653000   0.53415196   -2.6320872   -2.6320872   -1.8308611  0.047389221   -2.6320872   0.80122612   439061 
  654000   0.53573002   -2.6349639   -2.6349639   -1.8313707  0.041991755   -2.6349639    0.8035932   439061 
  655000    0.5354524   -2.6348606   -2.6348606   -1.8316839  0.041241496   -2.6348606   0.80317677   439061 
  656000   0.53467086   -2.6352033   -2.6352033   -1.8331988  0.043227079   -2.6352033   0.80200446   439061 
  657000   0.53433233   -2.6363725   -2.6363725   -1.8348759  0.041483189   -2.6363725   0.80149667   439061 
  658000   0.53370966   -2.6364158   -2.6364158   -1.8358532  0.038621186   -2.6364158   0.80056267   439061 
  659000   0.53276009   -2.6358658   -2.6358658   -1.8367275  0.040952221   -2.6358658   0.79913832   439061 
  660000   0.53313293   -2.6369379   -2.6369379   -1.8372403  0.040606025   -2.6369379   0.79969757   439061 
  661000   0.53255018   -2.6374374   -2.6374374    -1.838614  0.040498885   -2.6374374   0.79882345   439061 
  662000    0.5332332   -2.6394393   -2.6394393   -1.8395914  0.042838551   -2.6394393   0.79984798   439061 
  663000   0.53239161   -2.6387573   -2.6387573   -1.8401717  0.041297556   -2.6387573    0.7985856   439061 
  664000   0.53333733   -2.6407255   -2.6407255   -1.8407213  0.041950039   -2.6407255   0.80000418   439061 
  665000   0.53303554    -2.641048    -2.641048   -1.8414965  0.047287906    -2.641048   0.79955149   439061 
  666000   0.53346591   -2.6429723   -2.6429723   -1.8427752  0.044473548   -2.6429723   0.80019704   439061 
  667000   0.53366101   -2.6444838   -2.6444838   -1.8439941   0.04494264   -2.6444838   0.80048969   439061 
  668000   0.53288198   -2.6443617   -2.6443617   -1.8450406  0.043606175   -2.6443617   0.79932115   439061 
  669000   0.53290219   -2.6452867   -2.6452867   -1.8459352   0.04534931   -2.6452867   0.79935147   439061 
  670000   0.53330071   -2.6461534   -2.6461534   -1.8462041  0.043684503   -2.6461534   0.79994924   439061 
  671000   0.53285384    -2.646137    -2.646137   -1.8468581  0.040797808    -2.646137   0.79927894   439061 
  672000   0.53304896   -2.6463876   -2.6463876   -1.8468159   0.04334693   -2.6463876   0.79957162   439061 
  673000   0.53174867   -2.6459074   -2.6459074   -1.8482862  0.040466304   -2.6459074   0.79762119   439061 
  674000   0.53179721    -2.646375    -2.646375    -1.848681  0.043339363    -2.646375     0.797694   439061 
  675000   0.53138736   -2.6466402   -2.6466402    -1.849561  0.042201614   -2.6466402   0.79707922   439061 
  676000   0.53194426   -2.6487532   -2.6487532   -1.8508386  0.038908362   -2.6487532   0.79791457   439061 
  677000   0.53165184   -2.6498524   -2.6498524   -1.8523764  0.037981463   -2.6498524   0.79747594   439061 
  678000   0.53186479   -2.6503369   -2.6503369   -1.8525415  0.040136311   -2.6503369   0.79779537   439061 
  679000   0.53135647    -2.649597    -2.649597   -1.8525641  0.042828767    -2.649597    0.7970329   439061 
  680000   0.53152569    -2.650911    -2.650911   -1.8536243  0.041540663    -2.650911   0.79728672   439061 
  681000   0.53179999   -2.6523287   -2.6523287   -1.8546306  0.040593808   -2.6523287   0.79769816   439061 
  682000   0.53192531   -2.6532653   -2.6532653   -1.8553791  0.040084208   -2.6532653   0.79788615   439061 
  683000   0.53210799   -2.6547129   -2.6547129   -1.8565527  0.047168034   -2.6547129   0.79816017   439061 
  684000   0.53210939   -2.6555873   -2.6555873   -1.8574251  0.041668641   -2.6555873   0.79816226   439061 
  685000   0.53306048   -2.6573973   -2.6573973   -1.8578084  0.041517127   -2.6573973    0.7995889   439061 
  686000   0.53213876   -2.6568247   -2.6568247   -1.8586184  0.045401957   -2.6568247   0.79820632   439061 
  687000   0.53149185   -2.6576503   -2.6576503   -1.8604143  0.041452927   -2.6576503   0.79723597   439061 
  688000   0.53062675   -2.6568119   -2.6568119   -1.8608736  0.043920029   -2.6568119   0.79593831   439061 
  689000   0.53061257    -2.657943    -2.657943    -1.862026  0.041909642    -2.657943   0.79591705   439061 
  690000   0.53052641   -2.6592153   -2.6592153   -1.8634275  0.041740943   -2.6592153    0.7957878   439061 
  691000   0.52993131   -2.6593556   -2.6593556   -1.8644604   0.04277189   -2.6593556   0.79489515   439061 
  692000   0.52976077   -2.6601815   -2.6601815   -1.8655422  0.041352257   -2.6601815   0.79463935   439061 
  693000   0.53005887   -2.6610394   -2.6610394   -1.8659529  0.041300761   -2.6610394    0.7950865   439061 
  694000   0.52990813   -2.6613984   -2.6613984   -1.8665381  0.042546951   -2.6613984   0.79486039   439061 
  695000   0.53046102   -2.6631354   -2.6631354   -1.8674457  0.039132406   -2.6631354   0.79568972   439061 
  696000    0.5286548   -2.6622611   -2.6622611   -1.8692807  0.044630811   -2.6622611   0.79298039   439061 
  697000   0.52929836   -2.6643422   -2.6643422   -1.8703965  0.039829926   -2.6643422   0.79394574   439061 
  698000   0.52971624   -2.6648565   -2.6648565    -1.870284  0.040062515   -2.6648565   0.79457255   439061 
  699000   0.52971973   -2.6655716   -2.6655716   -1.8709938  0.041581746   -2.6655716   0.79457779   439061 
  700000   0.52873193   -2.6657643   -2.6657643   -1.8726682  0.040525915   -2.6657643   0.79309608   439061 
  701000   0.52848037   -2.6654874   -2.6654874   -1.8727687  0.043591781   -2.6654874   0.79271875   439061 
  702000   0.52964426     -2.66744     -2.66744   -1.8729754  0.042634477     -2.66744   0.79446458   439061 
  703000   0.52983499   -2.6686702   -2.6686702   -1.8739195  0.041472874   -2.6686702   0.79475068   439061 
  704000   0.52975213   -2.6693121   -2.6693121   -1.8746857  0.041624997   -2.6693121   0.79462638   439061 
  705000   0.52900141   -2.6699213   -2.6699213    -1.876421  0.041758042   -2.6699213   0.79350031   439061 
  706000   0.52798604   -2.6681722   -2.6681722   -1.8761949  0.042938665   -2.6681722   0.79197726   439061 
  707000   0.52865606   -2.6707362   -2.6707362   -1.8777539   0.03984824   -2.6707362   0.79298229   439061 
  708000   0.52868927   -2.6715652   -2.6715652   -1.8785331  0.039907839   -2.6715652    0.7930321   439061 
  709000   0.52841529   -2.6721558   -2.6721558   -1.8795347  0.042196939   -2.6721558   0.79262113   439061 
  710000   0.52799861   -2.6716804   -2.6716804   -1.8796843  0.044246853   -2.6716804   0.79199611   439061 
  711000    0.5288775   -2.6745995   -2.6745995   -1.8812851  0.042884593   -2.6745995   0.79331445   439061 
  712000   0.52804452   -2.6744799   -2.6744799    -1.882415  0.042499009   -2.6744799   0.79206498   439061 
  713000   0.52884772   -2.6761435   -2.6761435   -1.8828737  0.042102423   -2.6761435   0.79326978   439061 
  714000   0.52805454   -2.6759727   -2.6759727   -1.8838927  0.041994611   -2.6759727      0.79208   439061 
  715000   0.52859449   -2.6776319   -2.6776319   -1.8847419  0.042393757   -2.6776319   0.79288993   439061 
  716000   0.52756251   -2.6771996   -2.6771996   -1.8858577  0.042133182   -2.6771996   0.79134197   439061 
  717000   0.52739904   -2.6774461   -2.6774461   -1.8863493  0.042996778   -2.6774461   0.79109676   439061 
  718000   0.52766757    -2.678632    -2.678632   -1.8871325  0.043939785    -2.678632   0.79149955   439061 
  719000   0.52760707   -2.6799894   -2.6799894   -1.8885806   0.03926588   -2.6799894    0.7914088   439061 
  720000   0.52821948   -2.6820171   -2.6820171   -1.8896897  0.038482348   -2.6820171   0.79232741   439061 
  721000   0.52749206   -2.6815671   -2.6815671   -1.8903308   0.04038435   -2.6815671   0.79123629   439061 
  722000   0.52699926   -2.6820673   -2.6820673   -1.8915702   0.04172197   -2.6820673   0.79049708   439061 
  723000   0.52729425   -2.6829007   -2.6829007   -1.8919611  0.034706191   -2.6829007   0.79093957   439061 
  724000   0.52700867   -2.6836071   -2.6836071   -1.8930959  0.040486042   -2.6836071   0.79051121   439061 
  725000   0.52724463   -2.6846688   -2.6846688   -1.8938036  0.039898237   -2.6846688   0.79086514   439061 
  726000   0.52780267   -2.6860575   -2.6860575   -1.8943553  0.038856591   -2.6860575    0.7917022   439061 
  727000   0.52666218   -2.6857897   -2.6857897   -1.8957982   0.04036461   -2.6857897   0.78999147   439061 
  728000    0.5264339    -2.685141    -2.685141   -1.8954919  0.042421751    -2.685141   0.78964906   439061 
  729000   0.52705986   -2.6871891   -2.6871891   -1.8966011  0.041725044   -2.6871891   0.79058798   439061 
  730000    0.5264846   -2.6872558   -2.6872558   -1.8975307  0.041690236   -2.6872558   0.78972511   439061 
  731000    0.5269672   -2.6891354   -2.6891354   -1.8986864  0.040993592   -2.6891354     0.790449   439061 
  732000   0.52719369   -2.6887539   -2.6887539   -1.8979651  0.037416401   -2.6887539   0.79078874   439061 
  733000   0.52698517   -2.6893635   -2.6893635   -1.8988875  0.037614727   -2.6893635   0.79047596   439061 
  734000   0.52635185   -2.6900265   -2.6900265   -1.9005006  0.040159628   -2.6900265   0.78952598   439061 
  735000   0.52723695   -2.6910256   -2.6910256    -1.900172  0.041316608   -2.6910256   0.79085362   439061 
  736000   0.52652178   -2.6909555   -2.6909555   -1.9011747  0.038968371   -2.6909555   0.78978087   439061 
  737000   0.52688795    -2.691635    -2.691635   -1.9013049  0.038110847    -2.691635   0.79033013   439061 
  738000   0.52593618   -2.6915054   -2.6915054   -1.9026029  0.036831571   -2.6915054   0.78890247   439061 
  739000   0.52616164   -2.6927458   -2.6927458   -1.9035051  0.037291089   -2.6927458   0.78924066   439061 
  740000   0.52582154   -2.6938834   -2.6938834   -1.9051529  0.033845038   -2.6938834   0.78873052   439061 
  741000   0.52507555   -2.6934023   -2.6934023   -1.9057908  0.035376473   -2.6934023   0.78761153   439061 
  742000   0.52535563   -2.6943496   -2.6943496   -1.9063179  0.037516688   -2.6943496   0.78803166   439061 
  743000   0.52580149   -2.6957198   -2.6957198   -1.9070193  0.042224797   -2.6957198   0.78870043   439061 
  744000   0.52667215   -2.6980579   -2.6980579   -1.9080515  0.041434792   -2.6980579   0.79000643   439061 
  745000   0.52698215   -2.6987242   -2.6987242   -1.9082527  0.040567755   -2.6987242   0.79047142   439061 
  746000   0.52708416   -2.6997369   -2.6997369   -1.9091125  0.044359174   -2.6997369   0.79062443   439061 
  747000   0.52704577    -2.700533    -2.700533   -1.9099661  0.040018683    -2.700533   0.79056685   439061 
  748000   0.52660605   -2.7012502   -2.7012502    -1.911343  0.040480785   -2.7012502   0.78990727   439061 
  749000   0.52644658   -2.7024991   -2.7024991    -1.912831  0.037482214   -2.7024991   0.78966807   439061 
  750000   0.52570353   -2.7014552   -2.7014552   -1.9129017  0.041691693   -2.7014552   0.78855349   439061 
  751000   0.52529659   -2.7018974   -2.7018974   -1.9139544    0.0370389   -2.7018974   0.78794308   439061 
  752000   0.52506505   -2.7028106   -2.7028106   -1.9152148  0.037719317   -2.7028106   0.78759578   439061 
  753000   0.52448725   -2.7013906   -2.7013906   -1.9146615  0.039623651   -2.7013906   0.78672908   439061 
  754000   0.52489145   -2.7020211   -2.7020211   -1.9146857  0.039980088   -2.7020211   0.78733538   439061 
  755000   0.52513014    -2.702995    -2.702995   -1.9153016  0.038325499    -2.702995   0.78769342   439061 
  756000   0.52496203   -2.7037717   -2.7037717   -1.9163305  0.036735621   -2.7037717   0.78744126   439061 
  757000   0.52547714   -2.7055211   -2.7055211   -1.9173072  0.036553919   -2.7055211   0.78821392   439061 
  758000   0.52410136   -2.7047692   -2.7047692    -1.918619   0.03694417   -2.7047692   0.78615024   439061 
  759000   0.52463962   -2.7064624   -2.7064624   -1.9195047   0.03835911   -2.7064624   0.78695763   439061 
  760000   0.52469189   -2.7071648   -2.7071648   -1.9201288  0.035781095   -2.7071648   0.78703604   439061 
  761000   0.52499425   -2.7082669   -2.7082669   -1.9207773  0.038023691   -2.7082669   0.78748958   439061 
  762000   0.52425367   -2.7084612   -2.7084612   -1.9220825  0.037719159   -2.7084612   0.78637871   439061 
  763000   0.52345338   -2.7083848   -2.7083848   -1.9232065  0.041636294   -2.7083848   0.78517828   439061 
  764000   0.52463077   -2.7111846   -2.7111846   -1.9242403  0.038738434   -2.7111846   0.78694436   439061 
  765000   0.52424173   -2.7119496   -2.7119496   -1.9255888  0.040602628   -2.7119496   0.78636081   439061 
  766000   0.52452866    -2.713207    -2.713207   -1.9264158  0.038943817    -2.713207   0.78679119   439061 
  767000   0.52452996   -2.7137057   -2.7137057   -1.9269126   0.03884076   -2.7137057   0.78679314   439061 
  768000      0.52369   -2.7140301   -2.7140301   -1.9284969  0.037820693   -2.7140301   0.78553321   439061 
  769000    0.5248301     -2.71642     -2.71642   -1.9291766  0.035929796     -2.71642   0.78724336   439061 
  770000   0.52386864   -2.7152393   -2.7152393   -1.9294381  0.040237591   -2.7152393   0.78580117   439061 
  771000   0.52384013   -2.7164779   -2.7164779   -1.9307195  0.036258297   -2.7164779    0.7857584   439061 
  772000   0.52269892   -2.7152528   -2.7152528   -1.9312062  0.038953102   -2.7152528   0.78404659   439061 
  773000   0.52408855   -2.7178805   -2.7178805   -1.9317494  0.036896835   -2.7178805   0.78613103   439061 
  774000   0.52368927   -2.7176496   -2.7176496   -1.9321175  0.038284704   -2.7176496   0.78553212   439061 
  775000   0.52363099   -2.7179024   -2.7179024   -1.9324577  0.036254867   -2.7179024    0.7854447   439061 
  776000   0.52385227   -2.7189265   -2.7189265   -1.9331499  0.040966632   -2.7189265   0.78577662   439061 
  777000   0.52306791   -2.7194088   -2.7194088   -1.9348087  0.035692898   -2.7194088   0.78460008   439061 
  778000   0.52331375   -2.7204406   -2.7204406   -1.9354717  0.037438362   -2.7204406   0.78496883   439061 
  779000   0.52342581   -2.7216369   -2.7216369      -1.9365  0.037384913   -2.7216369   0.78513693   439061 
  780000   0.52315708   -2.7221785   -2.7221785   -1.9374447  0.037319516   -2.7221785   0.78473383   439061 
  781000   0.52303312   -2.7227926   -2.7227926   -1.9382447  0.037551767   -2.7227926    0.7845479   439061 
  782000   0.52242109   -2.7230282   -2.7230282   -1.9393984  0.033720381   -2.7230282   0.78362984   439061 
  783000   0.52219013   -2.7235128   -2.7235128   -1.9402294  0.037062506   -2.7235128   0.78328342   439061 
  784000   0.52246513   -2.7239599   -2.7239599    -1.940264  0.037994706   -2.7239599    0.7836959   439061 
  785000   0.52189441   -2.7242305   -2.7242305   -1.9413906  0.034644826   -2.7242305   0.78283983   439061 
  786000   0.52132974    -2.723738    -2.723738   -1.9417452  0.037955501    -2.723738   0.78199283   439061 
  787000   0.52269735   -2.7265048   -2.7265048   -1.9424605  0.035484873   -2.7265048   0.78404424   439061 
  788000   0.52300822   -2.7267699   -2.7267699   -1.9422593  0.039128928   -2.7267699   0.78451054   439061 
  789000   0.52270583   -2.7272145   -2.7272145   -1.9431575  0.040164908   -2.7272145   0.78405695   439061 
  790000   0.52237054   -2.7273509   -2.7273509   -1.9437969  0.039067191   -2.7273509   0.78355403   439061 
  791000   0.52231378   -2.7291079   -2.7291079    -1.945639  0.037650754   -2.7291079   0.78346889   439061 
  792000   0.52290133    -2.730695    -2.730695   -1.9463448  0.035716293    -2.730695   0.78435021   439061 
  793000   0.52284821   -2.7309021   -2.7309021   -1.9466316  0.035658774   -2.7309021   0.78427052   439061 
  794000   0.52112894   -2.7290894   -2.7290894   -1.9473978  0.038036413   -2.7290894   0.78169162   439061 
  795000   0.52070334   -2.7299207   -2.7299207   -1.9488675  0.036723948   -2.7299207   0.78105323   439061 
  796000   0.52128082   -2.7318534   -2.7318534   -1.9499339  0.036393828   -2.7318534   0.78191945   439061 
  797000    0.5212795   -2.7322475   -2.7322475   -1.9503301  0.033299037   -2.7322475   0.78191747   439061 
  798000   0.52122301   -2.7328997   -2.7328997    -1.951067   0.03466139   -2.7328997   0.78183274   439061 
  799000   0.52100894   -2.7332257   -2.7332257    -1.951714  0.032956589   -2.7332257   0.78151163   439061 
  800000   0.52026068   -2.7333217   -2.7333217   -1.9529324  0.034440184   -2.7333217   0.78038925   439061 
  801000    0.5205282    -2.733821    -2.733821   -1.9530304  0.035936907    -2.733821   0.78079052   439061 
  802000   0.52119842   -2.7356366   -2.7356366   -1.9538408  0.035049793   -2.7356366   0.78179584   439061 
  803000   0.52024565   -2.7348777   -2.7348777    -1.954511  0.036336257   -2.7348777    0.7803667   439061 
  804000   0.52120455   -2.7369465   -2.7369465   -1.9551415  0.030401206   -2.7369465   0.78180504   439061 
  805000   0.52151709   -2.7377944   -2.7377944   -1.9555205  0.035764517   -2.7377944   0.78227386   439061 
  806000   0.52082309   -2.7369612   -2.7369612   -1.9557284  0.037230953   -2.7369612   0.78123285   439061 
  807000   0.52086202   -2.7380117   -2.7380117   -1.9567204  0.034345316   -2.7380117   0.78129125   439061 
  808000   0.52128976   -2.7398804   -2.7398804   -1.9579475  0.037418254   -2.7398804   0.78193286   439061 
  809000   0.51989711   -2.7393967   -2.7393967   -1.9595528  0.035330223   -2.7393967    0.7798439   439061 
  810000   0.51948791   -2.7397171   -2.7397171    -1.960487  0.038055118   -2.7397171   0.77923008   439061 
  811000   0.52042135   -2.7414641   -2.7414641   -1.9608338   0.03505156   -2.7414641   0.78063024   439061 
  812000   0.52042623    -2.742246    -2.742246   -1.9616084  0.037094552    -2.742246   0.78063757   439061 
  813000   0.52034392   -2.7430686   -2.7430686   -1.9625545  0.036552696   -2.7430686    0.7805141   439061 
  814000   0.52017008   -2.7440983   -2.7440983   -1.9638449  0.032340765   -2.7440983   0.78025335   439061 
  815000   0.52113488   -2.7459674   -2.7459674   -1.9642669  0.034233944   -2.7459674   0.78170053   439061 
  816000   0.52009453   -2.7452189   -2.7452189   -1.9650789  0.036061679   -2.7452189   0.78014003   439061 
  817000   0.52106682   -2.7475232   -2.7475232   -1.9659247  0.036260319   -2.7475232   0.78159845   439061 
  818000   0.52047132   -2.7478292   -2.7478292    -1.967124  0.037419238   -2.7478292    0.7807052   439061 
  819000   0.51978966   -2.7478003   -2.7478003   -1.9681176  0.039276597   -2.7478003   0.77968272   439061 
  820000   0.52033227   -2.7495789   -2.7495789   -1.9690823  0.036485348   -2.7495789   0.78049663   439061 
  821000   0.51979473   -2.7494114   -2.7494114    -1.969721  0.036291345   -2.7494114   0.77969032   439061 
  822000   0.51972148   -2.7496249   -2.7496249   -1.9700444  0.036762468   -2.7496249   0.77958044   439061 
  823000   0.51982007   -2.7506589   -2.7506589   -1.9709306  0.035556397   -2.7506589   0.77972833   439061 
  824000   0.51939147   -2.7509331   -2.7509331   -1.9718476   0.03163862   -2.7509331   0.77908543   439061 
  825000   0.51954592   -2.7520646   -2.7520646   -1.9727475  0.031127854   -2.7520646   0.77931711   439061 
  826000   0.51892326   -2.7518775   -2.7518775   -1.9734944  0.029966382   -2.7518775   0.77838312   439061 
  827000   0.51832574    -2.751752    -2.751752   -1.9742652  0.032457414    -2.751752   0.77748683   439061 
  828000   0.51792539   -2.7524234   -2.7524234   -1.9755371  0.031833762   -2.7524234   0.77688632   439061 
  829000   0.51751766   -2.7514264   -2.7514264   -1.9751517  0.034767475   -2.7514264   0.77627472   439061 
  830000    0.5196537   -2.7548953   -2.7548953   -1.9754165  0.033412717   -2.7548953   0.77947878   439061 
  831000   0.51998512   -2.7563561   -2.7563561   -1.9763802  0.034193789   -2.7563561   0.77997591   439061 
  832000   0.51959462    -2.756909    -2.756909   -1.9775188  0.034391515    -2.756909   0.77939015   439061 
  833000   0.51891032   -2.7567417   -2.7567417   -1.9783779  0.032101655   -2.7567417   0.77836371   439061 
  834000   0.51880057   -2.7579315   -2.7579315   -1.9797324  0.034319299   -2.7579315   0.77819909   439061 
  835000   0.51816136   -2.7576957   -2.7576957   -1.9804554  0.037846927   -2.7576957   0.77724027   439061 
  836000   0.51880407   -2.7600093   -2.7600093    -1.981805  0.033676018   -2.7600093   0.77820434   439061 
  837000   0.51925077   -2.7601604   -2.7601604    -1.981286  0.039068875   -2.7601604   0.77887438   439061 
  838000   0.51860785   -2.7601917   -2.7601917   -1.9822817  0.037650802   -2.7601917   0.77791001   439061 
  839000   0.51872322   -2.7615303   -2.7615303   -1.9834473  0.038234703   -2.7615303   0.77808306   439061 
  840000   0.51857856   -2.7619203   -2.7619203   -1.9840542  0.034077341   -2.7619203   0.77786607   439061 
  841000   0.51824529   -2.7624746   -2.7624746   -1.9851084  0.032587261   -2.7624746   0.77736617   439061 
  842000   0.51717769   -2.7621596   -2.7621596   -1.9863949  0.032267034   -2.7621596   0.77576477   439061 
  843000   0.51683649   -2.7624181   -2.7624181   -1.9871651  0.033667444   -2.7624181   0.77525297   439061 
  844000   0.51687581   -2.7625773   -2.7625773   -1.9872654  0.030835196   -2.7625773   0.77531195   439061 
  845000   0.51764634   -2.7635789   -2.7635789   -1.9871112  0.031095118   -2.7635789   0.77646775   439061 
  846000   0.51863578   -2.7655129   -2.7655129    -1.987561  0.032888315   -2.7655129   0.77795189   439061 
  847000   0.51788513   -2.7651233   -2.7651233   -1.9882974  0.033031006   -2.7651233   0.77682592   439061 
  848000   0.51688581   -2.7651396   -2.7651396   -1.9898126  0.030906837   -2.7651396   0.77532694   439061 
  849000   0.51674814   -2.7653471   -2.7653471   -1.9902266  0.033717146   -2.7653471   0.77512045   439061 
  850000   0.51691976   -2.7665677   -2.7665677   -1.9911898  0.031848642   -2.7665677   0.77537787   439061 
  851000   0.51778129   -2.7685843   -2.7685843   -1.9919141  0.029304408   -2.7685843   0.77667016   439061 
  852000   0.51757363   -2.7681235   -2.7681235   -1.9917648  0.031562376   -2.7681235   0.77635868   439061 
  853000   0.51783271   -2.7695393   -2.7695393    -1.992792  0.036358598   -2.7695393   0.77674729   439061 
  854000   0.51707053   -2.7692078   -2.7692078   -1.9936038   0.03359518   -2.7692078   0.77560403   439061 
  855000   0.51686124   -2.7699579   -2.7699579   -1.9946678  0.032677563   -2.7699579   0.77529009   439061 
  856000   0.51598266   -2.7694123   -2.7694123   -1.9954401   0.03630888   -2.7694123   0.77397222   439061 
  857000   0.51587971   -2.7712394   -2.7712394   -1.9974216  0.031937708   -2.7712394    0.7738178   439061 
  858000   0.51697699   -2.7730568   -2.7730568   -1.9975931  0.032107165   -2.7730568   0.77546372   439061 
  859000   0.51614383   -2.7725282   -2.7725282   -1.9983143  0.035899974   -2.7725282   0.77421399   439061 
  860000   0.51696756    -2.774089    -2.774089   -1.9986394   0.03440685    -2.774089   0.77544958   439061 
  861000   0.51695203   -2.7742503   -2.7742503   -1.9988241  0.035130509   -2.7742503   0.77542628   439061 
  862000     0.516866   -2.7750103   -2.7750103    -1.999713  0.032403361   -2.7750103   0.77529723   439061 
  863000    0.5160371   -2.7746233   -2.7746233   -2.0005694   0.02998012   -2.7746233   0.77405389   439061 
  864000   0.51547415   -2.7749232   -2.7749232   -2.0017137  0.035649127   -2.7749232   0.77320946   439061 
  865000   0.51575878   -2.7759062   -2.7759062   -2.0022698  0.030690716   -2.7759062   0.77363641   439061 
  866000   0.51656287   -2.7772833   -2.7772833   -2.0024407  0.030756618   -2.7772833   0.77484254   439061 
  867000   0.51631483   -2.7772692   -2.7772692   -2.0027988  0.032090737   -2.7772692   0.77447049   439061 
  868000   0.51532241    -2.776464    -2.776464   -2.0034821  0.035055721    -2.776464   0.77298186   439061 
  869000   0.51633711   -2.7790117   -2.7790117   -2.0045078  0.030866246   -2.7790117    0.7745039   439061 
  870000   0.51614555   -2.7790366   -2.7790366   -2.0048201  0.032557707   -2.7790366   0.77421656   439061 
  871000   0.51561413   -2.7799439   -2.7799439   -2.0065245  0.033168796   -2.7799439   0.77341943   439061 
  872000    0.5158029   -2.7804559   -2.7804559   -2.0067534  0.035275702   -2.7804559   0.77370259   439061 
  873000    0.5147922   -2.7806109   -2.7806109   -2.0084244  0.033566846   -2.7806109   0.77218654   439061 
  874000   0.51533068   -2.7826605   -2.7826605   -2.0096663  0.035024196   -2.7826605   0.77299426   439061 
  875000   0.51608708   -2.7842079   -2.7842079   -2.0100791   0.03215495   -2.7842079   0.77412885   439061 
  876000   0.51635751   -2.7845922   -2.7845922   -2.0100577  0.035017713   -2.7845922    0.7745345   439061 
  877000   0.51572429   -2.7840225   -2.7840225   -2.0104378  0.036305772   -2.7840225   0.77358468   439061 
  878000   0.51477098   -2.7835179   -2.7835179   -2.0113632  0.032485291   -2.7835179    0.7721547   439061 
  879000   0.51613341   -2.7864842   -2.7864842   -2.0122858  0.031064133   -2.7864842   0.77419835   439061 
  880000   0.51618892   -2.7864494   -2.7864494   -2.0121678  0.033077524   -2.7864494   0.77428161   439061 
  881000   0.51568093   -2.7861225   -2.7861225   -2.0126029  0.032210395   -2.7861225   0.77351963   439061 
  882000   0.51453288   -2.7859567   -2.7859567   -2.0141591  0.029752931   -2.7859567   0.77179756   439061 
  883000   0.51444456   -2.7870485   -2.7870485   -2.0153834  0.030877832   -2.7870485   0.77166508   439061 
  884000   0.51354612   -2.7862452   -2.7862452   -2.0159278  0.031252245   -2.7862452   0.77031742   439061 
  885000   0.51384976   -2.7874116   -2.7874116   -2.0166387  0.030123223   -2.7874116   0.77077288   439061 
  886000   0.51423851    -2.788765    -2.788765    -2.017409  0.028873761    -2.788765   0.77135601   439061 
  887000   0.51464867   -2.7898577   -2.7898577   -2.0178865  0.028148623   -2.7898577   0.77197124   439061 
  888000   0.51505274   -2.7907192   -2.7907192   -2.0181418  0.031287817   -2.7907192   0.77257735   439061 
  889000    0.5147966    -2.791286    -2.791286   -2.0190929  0.030917585    -2.791286   0.77219314   439061 
  890000   0.51453575   -2.7917707   -2.7917707   -2.0199688  0.036185132   -2.7917707   0.77180186   439061 
  891000   0.51540676   -2.7939549   -2.7939549   -2.0208465  0.031639242   -2.7939549   0.77310838   439061 
  892000    0.5145715   -2.7933751   -2.7933751   -2.0215196  0.033089911   -2.7933751    0.7718555   439061 
  893000   0.51397071    -2.792871    -2.792871   -2.0219167  0.035045779    -2.792871   0.77095431   439061 
  894000   0.51398441   -2.7939501   -2.7939501   -2.0229753   0.03365029   -2.7939501   0.77097486   439061 
  895000   0.51471164   -2.7951504   -2.7951504   -2.0230847  0.031365144   -2.7951504   0.77206571   439061 
  896000   0.51435707   -2.7949483   -2.7949483   -2.0234144  0.030207044   -2.7949483   0.77153385   439061 
  897000   0.51388103   -2.7948984   -2.7948984   -2.0240786  0.029701517   -2.7948984   0.77081979   439061 
  898000   0.51391103    -2.795713    -2.795713   -2.0248482  0.028650286    -2.795713   0.77086479   439061 
  899000   0.51300899   -2.7949785   -2.7949785   -2.0254668  0.030432191   -2.7949785   0.76951174   439061 
  900000   0.51295364   -2.7957749   -2.7957749   -2.0263462  0.029623764   -2.7957749   0.76942871   439061 
  901000   0.51317781   -2.7964177   -2.7964177   -2.0266527  0.031517752   -2.7964177   0.76976496   439061 
  902000   0.51283651   -2.7968721   -2.7968721   -2.0276191  0.029564743   -2.7968721   0.76925302   439061 
  903000   0.51260021   -2.7971238   -2.7971238   -2.0282252  0.030069097   -2.7971238   0.76889856   439061 
  904000   0.51333902   -2.7981293   -2.7981293   -2.0281225  0.031838221   -2.7981293   0.77000678   439061 
  905000   0.51317145   -2.7991428   -2.7991428   -2.0293874  0.031557626   -2.7991428   0.76975542   439061 
  906000   0.51334371    -2.800072    -2.800072   -2.0300582  0.031292391    -2.800072   0.77001381   439061 
  907000   0.51355542   -2.8014935   -2.8014935   -2.0311621  0.030884736   -2.8014935   0.77033138   439061 
  908000   0.51189221   -2.8012254   -2.8012254   -2.0333889  0.030874132   -2.8012254   0.76783656   439061 
  909000   0.51234742   -2.8027142   -2.8027142   -2.0341948  0.029497237   -2.8027142   0.76851937   439061 
  910000   0.51239405   -2.8033477   -2.8033477   -2.0347584  0.030931446   -2.8033477   0.76858933   439061 
  911000   0.51277356    -2.805774    -2.805774   -2.0366154  0.029798286    -2.805774   0.76915859   439061 
  912000   0.51259706   -2.8060803   -2.8060803   -2.0371864  0.033185826   -2.8060803   0.76889384   439061 
  913000   0.51289073   -2.8067443   -2.8067443     -2.03741  0.033130542   -2.8067443   0.76933435   439061 
  914000   0.51340281    -2.807742    -2.807742   -2.0376395  0.035628866    -2.807742   0.77010246   439061 
  915000   0.51353084   -2.8079936   -2.8079936   -2.0376991  0.035250719   -2.8079936   0.77029451   439061 
  916000   0.51390165   -2.8087894   -2.8087894   -2.0379387  0.030346507   -2.8087894   0.77085072   439061 
  917000   0.51342411   -2.8091414   -2.8091414    -2.039007  0.035633705   -2.8091414    0.7701344   439061 
  918000   0.51252481   -2.8086532   -2.8086532   -2.0398677  0.031468044   -2.8086532   0.76878546   439061 
  919000   0.51180742   -2.8084446   -2.8084446   -2.0407353  0.030083794   -2.8084446   0.76770938   439061 
  920000   0.51169847   -2.8082417   -2.8082417   -2.0406958  0.030523987   -2.8082417   0.76754596   439061 
  921000   0.51197786   -2.8091343   -2.8091343   -2.0411693  0.028322231   -2.8091343   0.76796504   439061 
  922000    0.5113245   -2.8088383   -2.8088383   -2.0418533  0.025827905   -2.8088383   0.76698501   439061 
  923000    0.5108386   -2.8088935   -2.8088935   -2.0426373  0.026516334   -2.8088935   0.76625616   439061 
  924000   0.51145454   -2.8101723   -2.8101723   -2.0429922  0.026901261   -2.8101723   0.76718006   439061 
  925000   0.51197415   -2.8109095   -2.8109095   -2.0429501  0.030640319   -2.8109095   0.76795947   439061 
  926000   0.51170784   -2.8118355   -2.8118355   -2.0442755  0.029009386   -2.8118355   0.76756002   439061 
  927000   0.51172694   -2.8128454   -2.8128454   -2.0452568  0.030985085   -2.8128454   0.76758866   439061 
  928000   0.51231627   -2.8148435   -2.8148435   -2.0463708  0.033712267   -2.8148435   0.76847266   439061 
  929000   0.51149925   -2.8141033   -2.8141033   -2.0468562  0.032903192   -2.8141033   0.76724713   439061 
  930000   0.51197239   -2.8158234   -2.8158234   -2.0478665  0.026962959   -2.8158234   0.76795684   439061 
  931000   0.51161322   -2.8155573   -2.8155573   -2.0481392  0.031283602   -2.8155573   0.76741807   439061 
  932000   0.51274493   -2.8183282   -2.8183282   -2.0492126  0.030322569   -2.8183282   0.76911565   439061 
  933000   0.51195312    -2.817964    -2.817964   -2.0500361  0.031633865    -2.817964   0.76792793   439061 
  934000   0.51218876   -2.8189317   -2.8189317   -2.0506503  0.031151024   -2.8189317   0.76828139   439061 
  935000   0.51164593   -2.8183775   -2.8183775   -2.0509104  0.029752464   -2.8183775   0.76746714   439061 
  936000   0.51169652   -2.8188769   -2.8188769   -2.0513338  0.032837523   -2.8188769   0.76754304   439061 
  937000   0.51063278   -2.8191447   -2.8191447   -2.0531973  0.026951693   -2.8191447   0.76594742   439061 
  938000   0.50956344   -2.8184557   -2.8184557   -2.0541122  0.026695567   -2.8184557   0.76434342   439061 
  939000   0.51085922   -2.8202628   -2.8202628   -2.0539757  0.028973861   -2.8202628   0.76628709   439061 
  940000   0.51034804   -2.8203023   -2.8203023    -2.054782  0.030371604   -2.8203023   0.76552032   439061 
  941000   0.51044085   -2.8211279   -2.8211279   -2.0554684  0.029449766   -2.8211279   0.76565953   439061 
  942000    0.5114253   -2.8229583   -2.8229583   -2.0558221   0.02717075   -2.8229583   0.76713621   439061 
  943000   0.50998974    -2.822141    -2.822141   -2.0571581  0.030154817    -2.822141   0.76498287   439061 
  944000   0.51050552    -2.823161    -2.823161   -2.0574044  0.028098938    -2.823161   0.76575654   439061 
  945000    0.5101775   -2.8233092   -2.8233092   -2.0580447  0.031802846   -2.8233092   0.76526451   439061 
  946000   0.51070409   -2.8253541   -2.8253541   -2.0592997  0.031298405   -2.8253541   0.76605439   439061 
  947000   0.51070537   -2.8258553   -2.8258553    -2.059799  0.031711046   -2.8258553    0.7660563   439061 
  948000   0.51118994   -2.8271899   -2.8271899   -2.0604068  0.028908981   -2.8271899   0.76678316   439061 
  949000   0.51113881   -2.8281176   -2.8281176   -2.0614111  0.032552363   -2.8281176   0.76670647   439061 
  950000   0.51048122   -2.8275637   -2.8275637   -2.0618437  0.031349348   -2.8275637   0.76572008   439061 
  951000   0.51041866   -2.8287788   -2.8287788   -2.0631525  0.028985416   -2.8287788   0.76562624   439061 
  952000   0.51062735   -2.8294101   -2.8294101   -2.0634708  0.028828051   -2.8294101   0.76593929   439061 
  953000   0.51052516    -2.830165    -2.830165    -2.064379  0.027939003    -2.830165     0.765786   439061 
  954000   0.50978159   -2.8289261   -2.8289261   -2.0642555  0.031822383   -2.8289261   0.76467065   439061 
  955000   0.51010413   -2.8292193   -2.8292193   -2.0640649  0.029065725   -2.8292193   0.76515445   439061 
  956000   0.51030535   -2.8304474   -2.8304474   -2.0649911  0.026341312   -2.8304474   0.76545628   439061 
  957000   0.51014431   -2.8301783   -2.8301783   -2.0649636   0.02864232   -2.8301783   0.76521473   439061 
  958000   0.50981588   -2.8299616   -2.8299616   -2.0652395   0.02753916   -2.8299616   0.76472207   439061 
  959000   0.50978624   -2.8305002   -2.8305002   -2.0658226  0.025478256   -2.8305002   0.76467761   439061 
  960000   0.50995397   -2.8312311   -2.8312311   -2.0663019  0.024787115   -2.8312311   0.76492921   439061 
  961000   0.50857236   -2.8302528   -2.8302528    -2.067396  0.027652003   -2.8302528   0.76285681   439061 
  962000   0.50923422   -2.8315449   -2.8315449   -2.0676953  0.027155679   -2.8315449   0.76384959   439061 
  963000   0.50886675   -2.8317711   -2.8317711   -2.0684727  0.025934366   -2.8317711   0.76329839   439061 
  964000   0.50902022   -2.8323954   -2.8323954   -2.0688668  0.029184749   -2.8323954   0.76352859   439061 
  965000    0.5097685   -2.8347711   -2.8347711   -2.0701201  0.028661195   -2.8347711   0.76465101   439061 
  966000    0.5092598   -2.8345419   -2.8345419    -2.070654  0.030236741   -2.8345419   0.76388796   439061 
  967000   0.50887435   -2.8351295   -2.8351295   -2.0718197  0.030821541   -2.8351295   0.76330979   439061 
  968000   0.50955524   -2.8372138   -2.8372138   -2.0728827  0.029837077   -2.8372138   0.76433112   439061 
  969000   0.50896904   -2.8369121   -2.8369121   -2.0734603  0.031392778   -2.8369121   0.76345182   439061 
  970000   0.50838394   -2.8362836   -2.8362836   -2.0737094  0.030976106   -2.8362836   0.76257417   439061 
  971000   0.50876068   -2.8372752   -2.8372752    -2.074136   0.02995522   -2.8372752   0.76313928   439061 
  972000   0.50938143   -2.8380943   -2.8380943   -2.0740239  0.025074177   -2.8380943   0.76407041   439061 
  973000   0.50917945   -2.8385658   -2.8385658   -2.0747984  0.029712618   -2.8385658   0.76376744   439061 
  974000   0.50848667    -2.837313    -2.837313   -2.0745848  0.029279949    -2.837313   0.76272827   439061 
  975000   0.50882997   -2.8394037   -2.8394037   -2.0761604  0.028190327   -2.8394037   0.76324322   439061 
  976000   0.50896147   -2.8400275   -2.8400275    -2.076587  0.024087783   -2.8400275   0.76344046   439061 
  977000     0.508163    -2.839307    -2.839307   -2.0770642  0.027515633    -2.839307   0.76224277   439061 
  978000     0.508003   -2.8410645   -2.8410645   -2.0790618  0.022769524   -2.8410645   0.76200277   439061 
  979000   0.50887438   -2.8416363   -2.8416363   -2.0783265  0.024859797   -2.8416363   0.76330983   439061 
  980000   0.50802766   -2.8412736   -2.8412736   -2.0792339  0.025495235   -2.8412736   0.76203975   439061 
  981000   0.50750912   -2.8418495   -2.8418495   -2.0805875  0.025282231   -2.8418495   0.76126195   439061 
  982000   0.50743391   -2.8426859   -2.8426859   -2.0815368  0.024560786   -2.8426859   0.76114913   439061 
  983000   0.50813224   -2.8443519   -2.8443519   -2.0821553  0.025771668   -2.8443519   0.76219662   439061 
  984000   0.50798964   -2.8452323   -2.8452323   -2.0832496  0.028620556   -2.8452323   0.76198272   439061 
  985000   0.50808025   -2.8462779   -2.8462779   -2.0841593   0.02833075   -2.8462779   0.76211864   439061 
  986000     0.507694    -2.846118    -2.846118   -2.0845787   0.03003353    -2.846118   0.76153927   439061 
  987000   0.50802886   -2.8483026   -2.8483026    -2.086261  0.029325147   -2.8483026   0.76204155   439061 
  988000   0.50803468   -2.8485967   -2.8485967   -2.0865464  0.028693411   -2.8485967   0.76205028   439061 
  989000   0.50807693   -2.8496923   -2.8496923   -2.0875786  0.030563639   -2.8496923   0.76211367   439061 
  990000   0.50852771   -2.8506571   -2.8506571   -2.0878673  0.031793262   -2.8506571   0.76278982   439061 
  991000   0.50772496   -2.8499622   -2.8499622   -2.0883765  0.030807346   -2.8499622    0.7615857   439061 
  992000   0.50674447   -2.8491706   -2.8491706   -2.0890557  0.031900416   -2.8491706   0.76011498   439061 
  993000   0.50726947   -2.8504261   -2.8504261   -2.0895236  0.032066421   -2.8504261   0.76090247   439061 
  994000   0.50734453   -2.8511234   -2.8511234   -2.0901084  0.025178559   -2.8511234   0.76101506   439061 
  995000   0.50764685   -2.8513544   -2.8513544   -2.0898858  0.028611163   -2.8513544   0.76146855   439061 
  996000   0.50740939   -2.8507169   -2.8507169   -2.0896046  0.029946609   -2.8507169   0.76111236   439061 
  997000   0.50588294   -2.8496525   -2.8496525   -2.0908298  0.030085351   -2.8496525   0.75882268   439061 
  998000   0.50679183   -2.8519011   -2.8519011   -2.0917151  0.023571516   -2.8519011   0.76018602   439061 
  999000   0.50574947   -2.8516743   -2.8516743   -2.0930518  0.023761783   -2.8516743   0.75862248   439061 
 1000000   0.50589953   -2.8520861   -2.8520861   -2.0932385  0.026559491   -2.8520861   0.75884756   439061 
 1001000   0.50694211   -2.8543864   -2.8543864    -2.093975  0.022701635   -2.8543864   0.76041143   439061 
 1002000   0.50657038    -2.854384    -2.854384   -2.0945301  0.021239198    -2.854384   0.75985384   439061 
 1003000   0.50675813   -2.8546156   -2.8546156   -2.0944801  0.026366587   -2.8546156   0.76013547   439061 
 1004000   0.50685366   -2.8557879   -2.8557879   -2.0955091  0.025235355   -2.8557879   0.76027875   439061 
 1005000   0.50678349     -2.85692     -2.85692   -2.0967465  0.024745337     -2.85692   0.76017351   439061 
 1006000   0.50657146   -2.8569914   -2.8569914   -2.0971359  0.027431283   -2.8569914   0.75985546   439061 
 1007000   0.50652413   -2.8574336   -2.8574336   -2.0976491  0.029088824   -2.8574336   0.75978446   439061 
 1008000   0.50647076   -2.8584029   -2.8584029   -2.0986985   0.02820306   -2.8584029   0.75970441   439061 
 1009000   0.50602162   -2.8581214   -2.8581214   -2.0990907   0.03029024   -2.8581214    0.7590307   439061 
 1010000   0.50678916    -2.859891    -2.859891    -2.099709  0.028986939    -2.859891   0.76018201   439061 
 1011000   0.50552355   -2.8590226   -2.8590226    -2.100739  0.026209954   -2.8590226    0.7582836   439061 
 1012000    0.5071735   -2.8620636   -2.8620636    -2.101305   0.02108509   -2.8620636   0.76075852   439061 
 1013000   0.50616471   -2.8603292   -2.8603292   -2.1010839  0.027959353   -2.8603292   0.75924533   439061 
 1014000   0.50583736   -2.8596333   -2.8596333    -2.100879  0.026832325   -2.8596333   0.75875431   439061 
 1015000   0.50511842   -2.8601438   -2.8601438   -2.1024679  0.025766763   -2.8601438    0.7576759   439061 
 1016000   0.50629174   -2.8630516   -2.8630516   -2.1036157  0.021891249   -2.8630516   0.75943589   439061 
 1017000   0.50534191   -2.8620332   -2.8620332    -2.104022  0.024062554   -2.8620332   0.75801113   439061 
 1018000   0.50607485   -2.8636776   -2.8636776   -2.1045671  0.022053741   -2.8636776   0.75911054   439061 
 1019000   0.50493159   -2.8631005   -2.8631005   -2.1057049  0.026297934   -2.8631005   0.75739566   439061 
 1020000   0.50458369   -2.8634958   -2.8634958    -2.106622  0.024214326   -2.8634958   0.75687382   439061 
 1021000   0.50574755    -2.865218    -2.865218   -2.1065984  0.026118592    -2.865218    0.7586196   439061 
 1022000   0.50499847   -2.8647378   -2.8647378   -2.1072418   0.02768243   -2.8647378   0.75749598   439061 
 1023000   0.50550143   -2.8663393   -2.8663393   -2.1080889  0.025370651   -2.8663393   0.75825042   439061 
 1024000   0.50532499   -2.8656445   -2.8656445   -2.1076588  0.029283326   -2.8656445   0.75798576   439061 
 1025000   0.50546473   -2.8665916   -2.8665916   -2.1083963  0.028736702   -2.8665916   0.75819536   439061 
 1026000   0.50606064   -2.8682472   -2.8682472    -2.109158  0.028324784   -2.8682472   0.75908923   439061 
 1027000   0.50411414   -2.8673373   -2.8673373   -2.1111678  0.027514495   -2.8673373   0.75616949   439061 
 1028000   0.50553593   -2.8695332   -2.8695332    -2.111231  0.026585167   -2.8695332   0.75830217   439061 
 1029000   0.50515596   -2.8700246   -2.8700246   -2.1122924  0.022542567   -2.8700246   0.75773221   439061 
 1030000   0.50444779   -2.8694131   -2.8694131   -2.1127431  0.026978138   -2.8694131   0.75666997   439061 
 1031000    0.5047661   -2.8700215   -2.8700215    -2.112874  0.026796171   -2.8700215   0.75714743   439061 
 1032000    0.5045576    -2.870771    -2.870771   -2.1139363  0.025806415    -2.870771   0.75683468   439061 
 1033000   0.50405104   -2.8707815   -2.8707815   -2.1147067  0.024606343   -2.8707815   0.75607484   439061 
 1034000   0.50443486   -2.8714858   -2.8714858   -2.1148352  0.025441557   -2.8714858   0.75665057   439061 
 1035000   0.50507818   -2.8729613   -2.8729613   -2.1153457  0.025452749   -2.8729613   0.75761554   439061 
 1036000   0.50476694   -2.8722796   -2.8722796   -2.1151309  0.027690905   -2.8722796   0.75714869   439061 
 1037000   0.50462235   -2.8736785   -2.8736785   -2.1167467  0.025782415   -2.8736785    0.7569318   439061 
 1038000   0.50469139   -2.8736467   -2.8736467   -2.1166113  0.024073059   -2.8736467   0.75703536   439061 
 1039000   0.50421745   -2.8729455   -2.8729455    -2.116621  0.029096893   -2.8729455   0.75632445   439061 
 1040000   0.50438903   -2.8747502   -2.8747502   -2.1181683  0.029083743   -2.8747502   0.75658183   439061 
 1041000   0.50543669   -2.8766127   -2.8766127   -2.1184594  0.024464709   -2.8766127   0.75815331   439061 
 1042000   0.50357255   -2.8748138   -2.8748138   -2.1194567  0.026529457   -2.8748138    0.7553571   439061 
 1043000   0.50376765   -2.8754598   -2.8754598   -2.1198101   0.02759752   -2.8754598   0.75564976   439061 
 1044000   0.50410388   -2.8768167   -2.8768167   -2.1206626  0.021197343   -2.8768167    0.7561541   439061 
 1045000   0.50395459   -2.8770969   -2.8770969   -2.1211667  0.022362109   -2.8770969   0.75593016   439061 
 1046000   0.50426867   -2.8773756   -2.8773756   -2.1209743  0.022441638   -2.8773756   0.75640128   439061 
 1047000     0.504661   -2.8789574   -2.8789574   -2.1219676  0.022982382   -2.8789574   0.75698978   439061 
 1048000   0.50391881   -2.8785259   -2.8785259   -2.1226494  0.024578927   -2.8785259   0.75587649   439061 
 1049000   0.50279009   -2.8776144   -2.8776144    -2.123431   0.02520245   -2.8776144   0.75418341   439061 
 1050000   0.50346877   -2.8785049   -2.8785049   -2.1233035  0.026441531   -2.8785049   0.75520143   439061 
 1051000   0.50366734   -2.8794824   -2.8794824   -2.1239831  0.023177578   -2.8794824   0.75549928   439061 
 1052000   0.50419509   -2.8810827   -2.8810827   -2.1247917  0.025240826   -2.8810827   0.75629092   439061 
 1053000   0.50356689   -2.8810899   -2.8810899   -2.1257413  0.027171964   -2.8810899   0.75534862   439061 
 1054000   0.50364881   -2.8814905   -2.8814905    -2.126019  0.030215671   -2.8814905   0.75547149   439061 
 1055000   0.50359906   -2.8816091   -2.8816091   -2.1262122   0.02652171   -2.8816091   0.75539687   439061 
 1056000    0.5035946    -2.882029    -2.882029   -2.1266388  0.028005009    -2.882029   0.75539018   439061 
 1057000   0.50369153   -2.8830294   -2.8830294   -2.1274938  0.025616999   -2.8830294   0.75553558   439061 
 1058000   0.50264374   -2.8823534   -2.8823534   -2.1283895  0.025261126   -2.8823534    0.7539639   439061 
 1059000   0.50213409   -2.8826846   -2.8826846   -2.1294852  0.022552945   -2.8826846   0.75319942   439061 
 1060000   0.50284368   -2.8841223   -2.8841223   -2.1298585  0.023702813   -2.8841223    0.7542638   439061 
 1061000   0.50249689   -2.8840179   -2.8840179   -2.1302743  0.023388267   -2.8840179   0.75374362   439061 
 1062000   0.50208378   -2.8831258   -2.8831258   -2.1300019  0.022007164   -2.8831258   0.75312395   439061 
 1063000   0.50310908   -2.8847507   -2.8847507   -2.1300888  0.026759691   -2.8847507    0.7546619   439061 
 1064000   0.50366747   -2.8860675   -2.8860675    -2.130568  0.023365202   -2.8860675   0.75549948   439061 
 1065000   0.50328808   -2.8863176   -2.8863176   -2.1313872  0.024567718   -2.8863176    0.7549304   439061 
 1066000   0.50338611   -2.8872034   -2.8872034   -2.1321259  0.025115519   -2.8872034   0.75507745   439061 
 1067000    0.5033619   -2.8880505   -2.8880505   -2.1330094  0.024173426   -2.8880505   0.75504113   439061 
 1068000   0.50309476   -2.8882685   -2.8882685   -2.1336281  0.026137657   -2.8882685   0.75464043   439061 
 1069000   0.50206186    -2.887935    -2.887935   -2.1348439    0.0271483    -2.887935   0.75309107   439061 
 1070000   0.50237412   -2.8899135   -2.8899135   -2.1363541  0.022561836   -2.8899135   0.75355946   439061 
 1071000   0.50255665   -2.8902177   -2.8902177   -2.1363844  0.024395547   -2.8902177   0.75383325   439061 
 1072000   0.50193003   -2.8905079   -2.8905079   -2.1376146  0.021657553   -2.8905079   0.75289332   439061 
 1073000   0.50276859   -2.8916513   -2.8916513   -2.1375001  0.025461507   -2.8916513   0.75415116   439061 
 1074000   0.50258604   -2.8918616   -2.8918616   -2.1379842  0.023887865   -2.8918616   0.75387734   439061 
 1075000   0.50258812   -2.8926274   -2.8926274   -2.1387469  0.025878025   -2.8926274   0.75388046   439061 
 1076000   0.50236859   -2.8926094   -2.8926094   -2.1390582  0.027818621   -2.8926094   0.75355116   439061 
 1077000   0.50312749   -2.8943316   -2.8943316   -2.1396421  0.025147167   -2.8943316   0.75468952   439061 
 1078000   0.50272563    -2.894381    -2.894381   -2.1402943  0.023252661    -2.894381   0.75408672   439061 
 1079000   0.50151191   -2.8936006   -2.8936006   -2.1413345  0.026286213   -2.8936006   0.75226615   439061 
 1080000   0.50185015   -2.8943594   -2.8943594   -2.1415859  0.024728775   -2.8943594   0.75277351   439061 
 1081000   0.50154614   -2.8945208   -2.8945208   -2.1422033  0.024681156   -2.8945208    0.7523175   439061 
 1082000   0.50163516   -2.8953931   -2.8953931   -2.1429421  0.025551864   -2.8953931   0.75245103   439061 
 1083000   0.50158153    -2.895776    -2.895776   -2.1434054  0.024617851    -2.895776   0.75237058   439061 
 1084000    0.5013995   -2.8961859   -2.8961859   -2.1440884  0.022937001   -2.8961859   0.75209754   439061 
 1085000   0.50138962    -2.896676    -2.896676   -2.1445932  0.023641534    -2.896676   0.75208272   439061 
 1086000   0.50130587   -2.8968587   -2.8968587   -2.1449016  0.025839491   -2.8968587    0.7519571   439061 
 1087000   0.50209792    -2.897985    -2.897985   -2.1448399  0.027237615    -2.897985   0.75314516   439061 
 1088000   0.50229274   -2.8991689   -2.8991689   -2.1457315  0.023220043   -2.8991689   0.75343739   439061 
 1089000   0.50179473   -2.8995343   -2.8995343   -2.1468439  0.023138118   -2.8995343   0.75269039   439061 
 1090000   0.50186131    -2.899398    -2.899398   -2.1466077  0.027277949    -2.899398   0.75279025   439061 
 1091000   0.50203697   -2.9003653   -2.9003653   -2.1473116  0.024850499   -2.9003653   0.75305374   439061 
 1092000   0.50148772   -2.9002109   -2.9002109    -2.147981  0.023944386   -2.9002109   0.75222987   439061 
 1093000   0.50138455   -2.9009489   -2.9009489   -2.1488738  0.021861105   -2.9009489   0.75207511   439061 
 1094000   0.50101047   -2.9013728   -2.9013728   -2.1498588  0.024662831   -2.9013728     0.751514   439061 
 1095000   0.50069446   -2.9016928   -2.9016928   -2.1506528   0.02458556   -2.9016928   0.75103998   439061 
 1096000   0.50078821   -2.9022288   -2.9022288   -2.1510482  0.020088018   -2.9022288    0.7511806   439061 
 1097000   0.50015785   -2.9025168   -2.9025168   -2.1522818  0.020369164   -2.9025168   0.75023507   439061 
 1098000    0.4992413    -2.901632    -2.901632   -2.1527718  0.022290047    -2.901632   0.74886025   439061 
 1099000   0.49978599   -2.9033676   -2.9033676   -2.1536903  0.022865854   -2.9033676   0.74967728   439061 
 1100000   0.49987779   -2.9038519   -2.9038519   -2.1540369  0.022902685   -2.9038519   0.74981498   439061 
 1101000   0.50084784   -2.9057837   -2.9057837   -2.1545136  0.021354649   -2.9057837   0.75127005   439061 
 1102000   0.50061702    -2.906485    -2.906485   -2.1555612  0.025123325    -2.906485   0.75092382   439061 
 1103000   0.50006354    -2.906117    -2.906117   -2.1560234  0.025430349    -2.906117    0.7500936   439061 
 1104000   0.50012489   -2.9070483   -2.9070483   -2.1568626  0.026372349   -2.9070483   0.75018562   439061 
 1105000    0.5003555    -2.908291    -2.908291   -2.1577595  0.025986358    -2.908291   0.75053154   439061 
 1106000   0.50066563   -2.9091713   -2.9091713   -2.1581745  0.024966896   -2.9091713   0.75099674   439061 
 1107000   0.50056382   -2.9094384   -2.9094384   -2.1585944  0.028115307   -2.9094384   0.75084402   439061 
 1108000   0.50102203   -2.9108123   -2.9108123   -2.1592809  0.022334874   -2.9108123   0.75153133   439061 
 1109000   0.50035935   -2.9099039   -2.9099039   -2.1593666  0.022721726   -2.9099039   0.75053731   439061 
 1110000   0.50009445   -2.9099561   -2.9099561   -2.1598162   0.02389016   -2.9099561   0.75013997   439061 
 1111000   0.49973983    -2.910183    -2.910183    -2.160575  0.021758721    -2.910183   0.74960803   439061 
 1112000   0.49965813   -2.9103439   -2.9103439   -2.1608584  0.021731375   -2.9103439   0.74948549   439061 
 1113000    0.4995168   -2.9101505   -2.9101505    -2.160877  0.024006533   -2.9101505   0.74927349   439061 
 1114000   0.49977078   -2.9107279   -2.9107279   -2.1610735  0.021018543   -2.9107279   0.74965446   439061 
 1115000   0.49989934   -2.9112541   -2.9112541   -2.1614068  0.020297694   -2.9112541   0.74984731   439061 
 1116000   0.49923231   -2.9106905   -2.9106905   -2.1618437  0.019897996   -2.9106905   0.74884676   439061 
 1117000   0.49993023   -2.9116342   -2.9116342   -2.1617405   0.01901104   -2.9116342   0.74989363   439061 
 1118000   0.49914954    -2.912289    -2.912289   -2.1635664  0.018601145    -2.912289    0.7487226   439061 
 1119000    0.4989025   -2.9126214   -2.9126214   -2.1642693  0.020446741   -2.9126214   0.74835204   439061 
 1120000   0.49904114   -2.9135032   -2.9135032   -2.1649432  0.019774677   -2.9135032   0.74856001   439061 
 1121000   0.50006529   -2.9152435   -2.9152435   -2.1651473  0.021755319   -2.9152435   0.75009623   439061 
 1122000   0.49984319   -2.9159259   -2.9159259   -2.1661628  0.022944174   -2.9159259   0.74976308   439061 
 1123000   0.49978617   -2.9159978   -2.9159978   -2.1663202  0.026616863   -2.9159978   0.74967755   439061 
 1124000   0.49956991   -2.9162259   -2.9162259   -2.1668728  0.025082085   -2.9162259   0.74935316   439061 
 1125000   0.49963066   -2.9179935   -2.9179935   -2.1685493  0.025607748   -2.9179935   0.74944428   439061 
 1126000   0.49977436   -2.9184876   -2.9184876   -2.1688278  0.024962357   -2.9184876   0.74965983   439061 
 1127000   0.49932769     -2.91889     -2.91889   -2.1699001  0.024194787     -2.91889   0.74898982   439061 
 1128000   0.49972917   -2.9203685   -2.9203685   -2.1707764  0.024020048   -2.9203685   0.74959205   439061 
 1129000   0.49877236   -2.9189814   -2.9189814   -2.1708245  0.026566342   -2.9189814   0.74815684   439061 
 1130000   0.49909729     -2.91973     -2.91973   -2.1710858  0.024986585     -2.91973   0.74864422   439061 
 1131000   0.49860866   -2.9193362   -2.9193362   -2.1714249  0.024306334   -2.9193362   0.74791129   439061 
 1132000    0.4979775   -2.9188475   -2.9188475    -2.171883  0.022520707   -2.9188475   0.74696455   439061 
 1133000    0.4977765   -2.9200986   -2.9200986   -2.1734356  0.019313939   -2.9200986   0.74666305   439061 
 1134000   0.49736164   -2.9191681   -2.9191681   -2.1731273  0.020400127   -2.9191681   0.74604075   439061 
 1135000   0.49801332   -2.9205845   -2.9205845   -2.1735662  0.017971385   -2.9205845   0.74701828   439061 
 1136000   0.49788765   -2.9207451   -2.9207451   -2.1739153  0.018125921   -2.9207451   0.74682977   439061 
 1137000   0.49846342   -2.9221564   -2.9221564    -2.174463  0.017942815   -2.9221564   0.74769342   439061 
 1138000   0.49850563    -2.923044    -2.923044   -2.1752873  0.017505767    -2.923044   0.74775675   439061 
 1139000    0.4989193   -2.9233467   -2.9233467   -2.1749695  0.021185504   -2.9233467   0.74837725   439061 
 1140000   0.49799325   -2.9230225   -2.9230225   -2.1760344  0.022455561   -2.9230225   0.74698817   439061 
 1141000   0.49831705   -2.9242223   -2.9242223   -2.1767484  0.022272265   -2.9242223   0.74747388   439061 
 1142000   0.49835523   -2.9252533   -2.9252533   -2.1777222  0.020156727   -2.9252533   0.74753114   439061 
 1143000   0.49777643   -2.9255199   -2.9255199    -2.178857  0.021832973   -2.9255199   0.74666294   439061 
 1144000   0.49779688   -2.9261263   -2.9261263   -2.1794327  0.025558565   -2.9261263   0.74669362   439061 
 1145000   0.49731398   -2.9257195   -2.9257195   -2.1797502  0.023267055   -2.9257195   0.74596927   439061 
 1146000   0.49805677    -2.927876    -2.927876   -2.1807925   0.02109732    -2.927876   0.74708345   439061 
 1147000   0.49776853     -2.92787     -2.92787   -2.1812189  0.021241829     -2.92787   0.74665109   439061 
 1148000   0.49755655   -2.9283629   -2.9283629   -2.1820298  0.023157703   -2.9283629   0.74633312   439061 
 1149000   0.49745593   -2.9286897   -2.9286897   -2.1825075  0.021564784   -2.9286897    0.7461822   439061 
 1150000   0.49676887   -2.9285881   -2.9285881   -2.1834365  0.021415639   -2.9285881   0.74515161   439061 
 1151000    0.4967577   -2.9291018   -2.9291018    -2.183967  0.021462555   -2.9291018   0.74513486   439061 
 1152000   0.49698103   -2.9300285   -2.9300285   -2.1845587  0.017495466   -2.9300285   0.74546985   439061 
 1153000   0.49790609   -2.9312067   -2.9312067   -2.1843492  0.020514938   -2.9312067   0.74685744   439061 
 1154000   0.49734089   -2.9308427   -2.9308427   -2.1848331  0.023073959   -2.9308427   0.74600963   439061 
 1155000   0.49721543    -2.930848    -2.930848   -2.1850265  0.025246092    -2.930848   0.74582145   439061 
 1156000   0.49707753   -2.9310418   -2.9310418   -2.1854272   0.02279688   -2.9310418    0.7456146   439061 
 1157000   0.49635613   -2.9308199   -2.9308199   -2.1862874  0.021984812   -2.9308199    0.7445325   439061 
 1158000   0.49767475   -2.9326308   -2.9326308   -2.1861204  0.021709465   -2.9326308   0.74651043   439061 
 1159000   0.49732652    -2.932955    -2.932955   -2.1869669   0.01941369    -2.932955   0.74598808   439061 
 1160000   0.49748258   -2.9339052   -2.9339052    -2.187683  0.021607239   -2.9339052   0.74622217   439061 
 1161000   0.49732268   -2.9342501   -2.9342501   -2.1882678  0.018841978   -2.9342501   0.74598233   439061 
 1162000   0.49654442   -2.9335717   -2.9335717   -2.1887568  0.022706718   -2.9335717   0.74481493   439061 
 1163000   0.49658659   -2.9339745   -2.9339745   -2.1890963  0.018974275   -2.9339745   0.74487819   439061 
 1164000   0.49745234    -2.935082    -2.935082   -2.1889052  0.020007136    -2.935082   0.74617681   439061 
 1165000   0.49699866   -2.9355154   -2.9355154   -2.1900191   0.02136862   -2.9355154   0.74549629   439061 
 1166000   0.49625704   -2.9354054   -2.9354054   -2.1910216  0.022413988   -2.9354054   0.74438386   439061 
 1167000   0.49779751   -2.9387459   -2.9387459   -2.1920514  0.020321836   -2.9387459   0.74669457   439061 
 1168000   0.49674218   -2.9381842   -2.9381842   -2.1930726  0.021060125   -2.9381842   0.74511158   439061 
 1169000   0.49594346   -2.9374042   -2.9374042   -2.1934907  0.018468631   -2.9374042    0.7439135   439061 
 1170000   0.49606863   -2.9372523   -2.9372523   -2.1931511  0.026200191   -2.9372523   0.74410125   439061 
 1171000   0.49646996   -2.9385891   -2.9385891   -2.1938859  0.021416751   -2.9385891   0.74470324   439061 
 1172000   0.49678784   -2.9389979   -2.9389979   -2.1938178  0.021525914   -2.9389979   0.74518007   439061 
 1173000   0.49623035   -2.9389922   -2.9389922   -2.1946484  0.021116278   -2.9389922   0.74434383   439061 
 1174000   0.49698411    -2.940299    -2.940299   -2.1948245    0.0209633    -2.940299   0.74547447   439061 
 1175000    0.4972755   -2.9403932   -2.9403932   -2.1944816  0.021659829   -2.9403932   0.74591155   439061 
 1176000   0.49606196   -2.9403698   -2.9403698   -2.1962786  0.017155749   -2.9403698   0.74409125   439061 
 1177000   0.49653257   -2.9405029   -2.9405029   -2.1957058  0.017143301   -2.9405029   0.74479716   439061 
 1178000   0.49631313   -2.9411272   -2.9411272   -2.1966592  0.019766382   -2.9411272     0.744468   439061 
 1179000   0.49565355   -2.9404779   -2.9404779   -2.1969992  0.021070059   -2.9404779   0.74347863   439061 
 1180000   0.49641806   -2.9421739   -2.9421739   -2.1975485   0.01838628   -2.9421739    0.7446254   439061 
 1181000   0.49580674   -2.9419115   -2.9419115   -2.1982031  0.018278492   -2.9419115   0.74370842   439061 
 1182000   0.49460869   -2.9414418   -2.9414418   -2.1995305  0.018789835   -2.9414418   0.74191135   439061 
 1183000   0.49510064   -2.9426204   -2.9426204   -2.1999712  0.017120796   -2.9426204   0.74264926   439061 
 1184000   0.49504726   -2.9435878   -2.9435878   -2.2010186   0.01914346   -2.9435878    0.7425692   439061 
 1185000   0.49528173   -2.9430888   -2.9430888   -2.2001679  0.019507913   -2.9430888   0.74292091   439061 
 1186000   0.49572531   -2.9448807   -2.9448807   -2.2012944  0.019724861   -2.9448807   0.74358627   439061 
 1187000   0.49558226   -2.9456183   -2.9456183   -2.2022466  0.022483383   -2.9456183    0.7433717   439061 
 1188000   0.49577219   -2.9463007   -2.9463007   -2.2026442  0.022612475   -2.9463007   0.74365659   439061 
 1189000   0.49552195   -2.9458599   -2.9458599   -2.2025786  0.024100967   -2.9458599   0.74328124   439061 
 1190000   0.49481922   -2.9457759   -2.9457759   -2.2035488  0.025421276   -2.9457759   0.74222714   439061 
 1191000    0.4952646   -2.9469896   -2.9469896   -2.2040944  0.021498521   -2.9469896   0.74289521   439061 
 1192000   0.49522249   -2.9469634   -2.9469634   -2.2041314  0.022950635   -2.9469634   0.74283204   439061 
 1193000   0.49497551   -2.9473755   -2.9473755   -2.2049139  0.020605941   -2.9473755   0.74246157   439061 
 1194000   0.49478454    -2.947019    -2.947019   -2.2048439  0.018936377    -2.947019   0.74217512   439061 
 1195000    0.4942933   -2.9474398   -2.9474398   -2.2060015  0.024724144   -2.9474398   0.74143825   439061 
 1196000   0.49512353   -2.9480577   -2.9480577   -2.2053741   0.01873599   -2.9480577    0.7426836   439061 
 1197000   0.49493068   -2.9482737   -2.9482737   -2.2058794  0.021738266   -2.9482737   0.74239433   439061 
 1198000   0.49542005   -2.9495878   -2.9495878   -2.2064594  0.019222826   -2.9495878   0.74312839   439061 
 1199000   0.49473622   -2.9492156   -2.9492156    -2.207113  0.017203614   -2.9492156   0.74210264   439061 
 1200000   0.49382286    -2.948866    -2.948866   -2.2081334  0.020839827    -2.948866    0.7407326   439061 
 1201000   0.49436509   -2.9498851   -2.9498851   -2.2083392  0.017876021   -2.9498851   0.74154595   439061 
 1202000   0.49304279   -2.9487913   -2.9487913   -2.2092288   0.01925499   -2.9487913    0.7395625   439061 
 1203000   0.49318095   -2.9494487   -2.9494487    -2.209679  0.020446656   -2.9494487   0.73976973   439061 
 1204000   0.49421448    -2.951353    -2.951353    -2.210033  0.020246624    -2.951353   0.74132003   439061 
 1205000   0.49418363   -2.9517083   -2.9517083   -2.2104345  0.019475763   -2.9517083   0.74127376   439061 
 1206000   0.49465704    -2.952907    -2.952907   -2.2109231  0.024322672    -2.952907   0.74198388   439061 
 1207000   0.49500663   -2.9532607   -2.9532607   -2.2107524   0.02505726   -2.9532607   0.74250825   439061 
 1208000   0.49449662    -2.954102    -2.954102   -2.2123588  0.021026711    -2.954102   0.74174324   439061 
 1209000   0.49412526   -2.9541494   -2.9541494   -2.2129632  0.019345651   -2.9541494    0.7411862   439061 
 1210000   0.49404831   -2.9539753   -2.9539753   -2.2129045  0.021272139   -2.9539753   0.74107077   439061 
 1211000    0.4938989   -2.9549809   -2.9549809   -2.2141342  0.021936255   -2.9549809   0.74084666   439061 
 1212000   0.49337843   -2.9548968   -2.9548968   -2.2148308  0.019635046   -2.9548968   0.74006595   439061 
 1213000   0.49294111   -2.9553665   -2.9553665   -2.2159565   0.01827504   -2.9553665   0.73940998   439061 
 1214000   0.49364482    -2.955923    -2.955923   -2.2154575  0.020190388    -2.955923   0.74046555   439061 
 1215000   0.49344736   -2.9562138   -2.9562138   -2.2160444  0.019127775   -2.9562138   0.74016935   439061 
 1216000   0.49298346    -2.956359    -2.956359   -2.2168855  0.019600485    -2.956359    0.7394735   439061 
 1217000   0.49351579   -2.9573738   -2.9573738   -2.2171018  0.019188232   -2.9573738     0.740272   439061 
 1218000   0.49352509    -2.957873    -2.957873    -2.217587  0.020185796    -2.957873   0.74028595   439061 
 1219000    0.4933689   -2.9582215   -2.9582215   -2.2181699  0.020448079   -2.9582215   0.74005166   439061 
 1220000   0.49276386   -2.9572577   -2.9572577   -2.2181136  0.021655319   -2.9572577    0.7391441   439061 
 1221000   0.49288029   -2.9585317   -2.9585317   -2.2192129  0.019165555   -2.9585317   0.73931875   439061 
 1222000   0.49326025   -2.9589699   -2.9589699   -2.2190812  0.020657032   -2.9589699   0.73988868   439061 
 1223000    0.4934049   -2.9599615   -2.9599615   -2.2198558  0.019590953   -2.9599615   0.74010567   439061 
 1224000   0.49326109    -2.959998    -2.959998   -2.2201081  0.020651114    -2.959998   0.73988994   439061 
 1225000   0.49337472   -2.9605188   -2.9605188   -2.2204584  0.020610172   -2.9605188   0.74006039   439061 
 1226000   0.49312261   -2.9614218   -2.9614218   -2.2217396  0.014055511   -2.9614218   0.73968223   439061 
 1227000   0.49192222   -2.9600337   -2.9600337    -2.222152  0.018372752   -2.9600337   0.73788165   439061 
 1228000   0.49267427   -2.9623728   -2.9623728    -2.223363  0.017552611   -2.9623728   0.73900973   439061 
 1229000   0.49291782   -2.9627459   -2.9627459   -2.2233709  0.017263319   -2.9627459   0.73937505   439061 
 1230000   0.49228449   -2.9623658   -2.9623658   -2.2239408  0.021317747   -2.9623658   0.73842505   439061 
 1231000   0.49215717   -2.9629192   -2.9629192   -2.2246851  0.014684943   -2.9629192   0.73823407   439061 
 1232000   0.49284267   -2.9634182   -2.9634182   -2.2241559  0.019944053   -2.9634182   0.73926231   439061 
 1233000   0.49410273   -2.9659819   -2.9659819   -2.2248295  0.019505675   -2.9659819   0.74115241   439061 
 1234000   0.49199315   -2.9639456   -2.9639456   -2.2259575  0.024083623   -2.9639456   0.73798804   439061 
 1235000    0.4925516   -2.9643398   -2.9643398   -2.2255141  0.018957688   -2.9643398   0.73882572   439061 
 1236000    0.4927428   -2.9656801   -2.9656801   -2.2265676  0.016826016   -2.9656801   0.73911251   439061 
 1237000   0.49212842   -2.9652124   -2.9652124   -2.2270215  0.021295267   -2.9652124   0.73819095   439061 
 1238000   0.49237193    -2.966205    -2.966205   -2.2276488  0.020430897    -2.966205   0.73855622   439061 
 1239000   0.49203977   -2.9659858   -2.9659858   -2.2279278  0.018835156   -2.9659858   0.73805798   439061 
 1240000   0.49146984   -2.9659434   -2.9659434   -2.2287403  0.017652309   -2.9659434   0.73720309   439061 
 1241000   0.49167365   -2.9670457   -2.9670457   -2.2295369  0.016717855   -2.9670457    0.7375088   439061 
 1242000    0.4920606   -2.9677625   -2.9677625   -2.2296733   0.01693784   -2.9677625   0.73808923   439061 
 1243000   0.49222156   -2.9668699   -2.9668699   -2.2285393  0.019835937   -2.9668699   0.73833066   439061 
 1244000   0.49168282   -2.9671839   -2.9671839   -2.2296614  0.019750664   -2.9671839   0.73752254   439061 
 1245000   0.49218247   -2.9685236   -2.9685236   -2.2302516  0.015771954   -2.9685236   0.73827202   439061 
 1246000   0.49188404   -2.9684893   -2.9684893   -2.2306649  0.018188846   -2.9684893   0.73782437   439061 
 1247000   0.49204739   -2.9698714   -2.9698714    -2.231802  0.020499203   -2.9698714   0.73806941   439061 
 1248000   0.49098606   -2.9692112   -2.9692112   -2.2327338  0.018578013   -2.9692112   0.73647742   439061 
 1249000   0.49128109   -2.9696385   -2.9696385   -2.2327186  0.017399575   -2.9696385   0.73691996   439061 
 1250000   0.49134455   -2.9698703   -2.9698703   -2.2328552  0.019355847   -2.9698703   0.73701514   439061 
 1251000   0.49109364   -2.9702143   -2.9702143   -2.2335755  0.019885349   -2.9702143   0.73663878   439061 
 1252000   0.49172031   -2.9709639   -2.9709639   -2.2333851  0.017534172   -2.9709639   0.73757878   439061 
 1253000   0.49142652   -2.9717968   -2.9717968   -2.2346587   0.01643038   -2.9717968    0.7371381   439061 
 1254000     0.490443   -2.9710692   -2.9710692   -2.2354064  0.018695712   -2.9710692   0.73566283   439061 
 1255000   0.49099138    -2.972404    -2.972404   -2.2359186  0.016324218    -2.972404   0.73648539   439061 
 1256000   0.49153871   -2.9743894   -2.9743894    -2.237083  0.013706902   -2.9743894   0.73730639   439061 
 1257000   0.49073588   -2.9733442   -2.9733442    -2.237242  0.016292373   -2.9733442   0.73610214   439061 
 1258000   0.49159422   -2.9751691   -2.9751691   -2.2377794  0.020204741   -2.9751691   0.73738965   439061 
 1259000   0.49143548   -2.9754418   -2.9754418   -2.2382903  0.021366023   -2.9754418   0.73715154   439061 
 1260000   0.49179294   -2.9775601   -2.9775601   -2.2398724   0.01816255   -2.9775601   0.73768773   439061 
 1261000   0.49154123   -2.9772326   -2.9772326   -2.2399224  0.020751697   -2.9772326   0.73731016   439061 
 1262000   0.49093336   -2.9769076   -2.9769076   -2.2405093  0.021946701   -2.9769076   0.73639836   439061 
 1263000   0.49103931   -2.9774942   -2.9774942    -2.240937  0.020514905   -2.9774942   0.73655729   439061 
 1264000   0.49065049   -2.9776798   -2.9776798   -2.2417057  0.020947136   -2.9776798   0.73597407   439061 
 1265000    0.4911406   -2.9779753   -2.9779753   -2.2412661  0.022648906   -2.9779753   0.73670922   439061 
 1266000   0.49132268   -2.9787789   -2.9787789   -2.2417966  0.020007101   -2.9787789   0.73698234   439061 
 1267000   0.49115487   -2.9783753   -2.9783753   -2.2416447  0.018101035   -2.9783753   0.73673063   439061 
 1268000   0.49124137   -2.9789089   -2.9789089   -2.2420485  0.017281589   -2.9789089   0.73686037   439061 
 1269000   0.49056375   -2.9784174   -2.9784174   -2.2425734  0.020717869   -2.9784174   0.73584395   439061 
 1270000   0.48958323   -2.9775775   -2.9775775   -2.2432044  0.017315101   -2.9775775   0.73437317   439061 
 1271000   0.49023517   -2.9791094   -2.9791094   -2.2437583  0.015098314   -2.9791094   0.73535108   439061 
 1272000   0.49024023   -2.9795162   -2.9795162   -2.2441576   0.01692082   -2.9795162   0.73535867   439061 
 1273000   0.49093039   -2.9807162   -2.9807162   -2.2443223  0.019390588   -2.9807162    0.7363939   439061 
 1274000   0.49002788   -2.9795402   -2.9795402      -2.2445  0.016607588   -2.9795402   0.73504015   439061 
 1275000   0.49055216   -2.9809056   -2.9809056   -2.2450791  0.016220542   -2.9809056   0.73582656   439061 
 1276000   0.48967766   -2.9798793   -2.9798793   -2.2453645  0.017918126   -2.9798793   0.73451482   439061 
 1277000   0.49071925   -2.9818638   -2.9818638   -2.2457866  0.019570732   -2.9818638   0.73607719   439061 
 1278000   0.49049773   -2.9820497   -2.9820497   -2.2463048  0.019101788   -2.9820497   0.73574492   439061 
 1279000   0.49135559   -2.9838972   -2.9838972   -2.2468655   0.01501084   -2.9838972   0.73703171   439061 
 1280000   0.48997231   -2.9819029   -2.9819029   -2.2469462  0.021633594   -2.9819029   0.73495679   439061 
 1281000   0.49110372   -2.9847171   -2.9847171   -2.2480632  0.016722524   -2.9847171    0.7366539   439061 
 1282000   0.48993178   -2.9843522   -2.9843522   -2.2494562  0.019386866   -2.9843522   0.73489599   439061 
 1283000   0.49051623   -2.9854976   -2.9854976   -2.2497249  0.017666546   -2.9854976   0.73577267   439061 
 1284000   0.49079713   -2.9849958   -2.9849958   -2.2488018   0.02083663   -2.9849958   0.73619402   439061 
 1285000   0.49010557   -2.9852656   -2.9852656   -2.2501089  0.022537798   -2.9852656   0.73515668   439061 
 1286000   0.48928057    -2.984907    -2.984907   -2.2509878  0.021986357    -2.984907   0.73391918   439061 
 1287000   0.49015937   -2.9864407   -2.9864407   -2.2512033  0.020173734   -2.9864407   0.73523738   439061 
 1288000   0.48996112   -2.9866719   -2.9866719   -2.2517319  0.016479209   -2.9866719   0.73494001   439061 
 1289000   0.49000361   -2.9871847   -2.9871847    -2.252181  0.014833727   -2.9871847   0.73500374   439061 
 1290000   0.48910203   -2.9857416   -2.9857416   -2.2520902  0.017238779   -2.9857416   0.73365138   439061 
 1291000   0.48936128   -2.9857643   -2.9857643   -2.2517241   0.01620042   -2.9857643   0.73404024   439061 
 1292000   0.48907751   -2.9858757   -2.9858757   -2.2522611  0.015750552   -2.9858757   0.73361459   439061 
 1293000   0.48920785   -2.9858926   -2.9858926   -2.2520825  0.017648946   -2.9858926    0.7338101   439061 
 1294000   0.48903036   -2.9859298   -2.9859298   -2.2523859  0.017768314   -2.9859298   0.73354386   439061 
 1295000   0.48905906   -2.9854904   -2.9854904   -2.2519035   0.01761471   -2.9854904   0.73358691   439061 
 1296000   0.48895316   -2.9862318   -2.9862318   -2.2528037  0.018289385   -2.9862318   0.73342807   439061 
 1297000   0.48910387   -2.9874647   -2.9874647   -2.2538106  0.014730898   -2.9874647   0.73365414   439061 
 1298000   0.48916863    -2.988505    -2.988505   -2.2547537  0.015755766    -2.988505   0.73375127   439061 
 1299000   0.48927093   -2.9886663   -2.9886663   -2.2547616   0.01418834   -2.9886663   0.73390473   439061 
 1300000    0.4894451   -2.9890333   -2.9890333   -2.2548673  0.012342826   -2.9890333   0.73416598   439061 
 1301000   0.48947498   -2.9898483   -2.9898483   -2.2556375  0.014855859   -2.9898483   0.73421079   439061 
 1302000     0.488773   -2.9895689   -2.9895689   -2.2564111  0.020723949   -2.9895689   0.73315783   439061 
 1303000   0.49029917   -2.9920528   -2.9920528   -2.2566058  0.014738643   -2.9920528   0.73544709   439061 
 1304000   0.48969086   -2.9914542   -2.9914542   -2.2569196  0.017348003   -2.9914542   0.73453461   439061 
 1305000   0.48959451   -2.9922692   -2.9922692   -2.2578791  0.019103249   -2.9922692   0.73439009   439061 
 1306000   0.48948471   -2.9930252   -2.9930252   -2.2587998  0.020616962   -2.9930252   0.73422539   439061 
 1307000   0.48910735   -2.9935934   -2.9935934   -2.2599341  0.016254477   -2.9935934   0.73365935   439061 
 1308000   0.48879558   -2.9930052   -2.9930052   -2.2598135  0.019936869   -2.9930052    0.7331917   439061 
 1309000   0.48845832   -2.9934619   -2.9934619   -2.2607761  0.020768138   -2.9934619   0.73268582   439061 
 1310000   0.48829932   -2.9935614   -2.9935614   -2.2611141  0.020714561   -2.9935614   0.73244731   439061 
 1311000   0.48940605   -2.9951928   -2.9951928   -2.2610854  0.018640069   -2.9951928   0.73410741   439061 
 1312000    0.4886641   -2.9947532   -2.9947532   -2.2617588  0.015578657   -2.9947532   0.73299448   439061 
 1313000   0.48948234   -2.9956849   -2.9956849   -2.2614631  0.013120027   -2.9956849   0.73422184   439061 
 1314000    0.4887768   -2.9956897   -2.9956897   -2.2625262  0.015700424   -2.9956897   0.73316353   439061 
 1315000   0.48827984   -2.9953286   -2.9953286   -2.2629105  0.015597581   -2.9953286    0.7324181   439061 
 1316000   0.48848771   -2.9956456   -2.9956456   -2.2629157  0.015590888   -2.9956456    0.7327299   439061 
 1317000   0.48823583   -2.9961226   -2.9961226   -2.2637706  0.014921584   -2.9961226   0.73235208   439061 
 1318000   0.48840763    -2.996694    -2.996694   -2.2640842  0.015817505    -2.996694   0.73260977   439061 
 1319000   0.48810917   -2.9970511   -2.9970511    -2.264889  0.016656802   -2.9970511   0.73216209   439061 
 1320000   0.48743955   -2.9962922   -2.9962922   -2.2651345  0.016114271   -2.9962922   0.73115765   439061 
 1321000   0.48809555   -2.9978965   -2.9978965   -2.2657549     0.017978   -2.9978965   0.73214165   439061 
 1322000   0.48790559   -2.9991817   -2.9991817   -2.2673249  0.016533994   -2.9991817   0.73185671   439061 
 1323000   0.48810591   -2.9989011   -2.9989011   -2.2667439  0.017610961   -2.9989011    0.7321572   439061 
 1324000     0.488078   -2.9994262   -2.9994262   -2.2673108   0.01925818   -2.9994262   0.73211533   439061 
 1325000   0.48840803   -3.0006411   -3.0006411   -2.2680307  0.018674902   -3.0006411   0.73261038   439061 
 1326000   0.48835052   -3.0012737   -3.0012737   -2.2687496   0.01740884   -3.0012737   0.73252411   439061 
 1327000   0.48719263   -3.0016345   -3.0016345   -2.2708472   0.01402106   -3.0016345   0.73078728   439061 
 1328000   0.48712033   -3.0020822   -3.0020822   -2.2714033  0.017578663   -3.0020822   0.73067883   439061 
 1329000   0.48730498   -3.0031585   -3.0031585   -2.2722027  0.017929253   -3.0031585   0.73095581   439061 
 1330000   0.48735509   -3.0028754   -3.0028754   -2.2718445  0.016842529   -3.0028754   0.73103098   439061 
 1331000   0.48773527   -3.0048871   -3.0048871   -2.2732859  0.019254987   -3.0048871   0.73160124   439061 
 1332000   0.48759951   -3.0046807   -3.0046807   -2.2732831    0.0187711   -3.0046807    0.7313976   439061 
 1333000   0.48757761    -3.004422    -3.004422   -2.2730573  0.017727217    -3.004422   0.73136474   439061 
 1334000   0.48799819   -3.0048097   -3.0048097    -2.272814  0.017224079   -3.0048097   0.73199562   439061 
 1335000   0.48818527    -3.005971    -3.005971   -2.2736948   0.01704792    -3.005971   0.73227623   439061 
 1336000   0.48778401   -3.0051257   -3.0051257   -2.2734513  0.017622115   -3.0051257   0.73167435   439061 
 1337000   0.48786555   -3.0063171   -3.0063171   -2.2745204  0.016805588   -3.0063171   0.73179665   439061 
 1338000   0.48702549   -3.0050799   -3.0050799   -2.2745433  0.016145526   -3.0050799   0.73053657   439061 
 1339000   0.48633344   -3.0049688   -3.0049688   -2.2754703  0.012547248   -3.0049688   0.72949849   439061 
 1340000   0.48675436   -3.0063434   -3.0063434   -2.2762135 0.0095953908   -3.0063434   0.73012987   439061 
 1341000   0.48625261   -3.0060174   -3.0060174   -2.2766401  0.015006439   -3.0060174   0.72937725   439061 
 1342000   0.48725253   -3.0062422   -3.0062422   -2.2753651  0.016020076   -3.0062422   0.73087713   439061 
 1343000   0.48692497   -3.0070836   -3.0070836   -2.2766978  0.015293979   -3.0070836    0.7303858   439061 
 1344000   0.48646173   -3.0067036   -3.0067036   -2.2770127  0.017399024   -3.0067036   0.72969093   439061 
 1345000    0.4872325   -3.0076103   -3.0076103   -2.2767632  0.015456594   -3.0076103   0.73084708   439061 
 1346000    0.4872734   -3.0080363   -3.0080363   -2.2771279  0.015510551   -3.0080363   0.73090843   439061 
 1347000   0.48653814   -3.0078482   -3.0078482   -2.2780427  0.017608013   -3.0078482   0.72980555   439061 
 1348000   0.48749846   -3.0102543   -3.0102543   -2.2790083  0.014567943   -3.0102543   0.73124602   439061 
 1349000   0.48651416   -3.0098488   -3.0098488   -2.2800792  0.020872687   -3.0098488   0.72976958   439061 
 1350000   0.48565306   -3.0092713   -3.0092713   -2.2807933  0.018309786   -3.0092713   0.72847794   439061 
 1351000    0.4859789   -3.0098555   -3.0098555   -2.2808888  0.015376292   -3.0098555   0.72896669   439061 
 1352000   0.48609016   -3.0107646   -3.0107646    -2.281631  0.014874426   -3.0107646   0.72913358   439061 
 1353000   0.48528033   -3.0102905   -3.0102905   -2.2823716  0.019176088   -3.0102905   0.72791884   439061 
 1354000   0.48701169   -3.0132408   -3.0132408   -2.2827249   0.01430516   -3.0132408   0.73051587   439061 
 1355000   0.48569396   -3.0113314   -3.0113314   -2.2827922  0.018058011   -3.0113314   0.72853928   439061 
 1356000   0.48678262   -3.0131077   -3.0131077   -2.2829354  0.016045973   -3.0131077   0.73017227   439061 
 1357000   0.48639375   -3.0135313   -3.0135313   -2.2839424   0.01481716   -3.0135313   0.72958896   439061 
 1358000   0.48615029   -3.0136991   -3.0136991   -2.2844754  0.018023567   -3.0136991   0.72922378   439061 
 1359000    0.4868664    -3.015285    -3.015285    -2.284987  0.013770312    -3.015285   0.73029794   439061 
 1360000     0.486335    -3.015083    -3.015083   -2.2855822  0.016352271    -3.015083   0.72950085   439061 
 1361000   0.48614305   -3.0142778   -3.0142778   -2.2850649  0.019333644   -3.0142778   0.72921291   439061 
 1362000    0.4863071   -3.0151168   -3.0151168   -2.2856578   0.01523692   -3.0151168   0.72945898   439061 
 1363000   0.48513589   -3.0144325   -3.0144325   -2.2867303  0.015541188   -3.0144325   0.72770218   439061 
 1364000   0.48510817   -3.0146195   -3.0146195   -2.2869588   0.01464167   -3.0146195    0.7276606   439061 
 1365000   0.48537257   -3.0151384   -3.0151384   -2.2870812  0.015573516   -3.0151384    0.7280572   439061 
 1366000   0.48566389   -3.0155874   -3.0155874   -2.2870932  0.013019252   -3.0155874   0.72849418   439061 
 1367000   0.48489308   -3.0158941   -3.0158941   -2.2885561  0.010832638   -3.0158941   0.72733796   439061 
 1368000   0.48480022   -3.0161232   -3.0161232   -2.2889245   0.01449644   -3.0161232   0.72719867   439061 
 1369000      0.48447   -3.0155835   -3.0155835   -2.2888801  0.016305136   -3.0155835   0.72670335   439061 
 1370000   0.48527708   -3.0166441   -3.0166441   -2.2887302  0.014270748   -3.0166441   0.72791395   439061 
 1371000    0.4851399   -3.0167508   -3.0167508   -2.2890426  0.017862542   -3.0167508    0.7277082   439061 
 1372000   0.48553722   -3.0183626   -3.0183626   -2.2900585  0.019266721   -3.0183626   0.72830417   439061 
 1373000   0.48596423   -3.0192627   -3.0192627    -2.290318   0.01693839   -3.0192627   0.72894468   439061 
 1374000   0.48715135   -3.0200293   -3.0200293    -2.289304  0.017593122   -3.0200293   0.73072537   439061 
 1375000    0.4863934   -3.0197711   -3.0197711   -2.2901827  0.018103813   -3.0197711   0.72958844   439061 
 1376000   0.48673549   -3.0208559   -3.0208559   -2.2907543   0.02036377   -3.0208559   0.73010157   439061 
 1377000   0.48558048   -3.0193315   -3.0193315   -2.2909625   0.02275922   -3.0193315   0.72836906   439061 
 1378000   0.48598938     -3.02075     -3.02075   -2.2917676  0.018577705     -3.02075    0.7289824   439061 
 1379000   0.48560504   -3.0205122   -3.0205122   -2.2921063  0.015672734   -3.0205122   0.72840589   439061 
 1380000   0.48500596   -3.0199436   -3.0199436   -2.2924363  0.013015108   -3.0199436   0.72750729   439061 
 1381000   0.48451816   -3.0197362   -3.0197362   -2.2929606   0.01435773   -3.0197362   0.72677558   439061 
 1382000   0.48480004   -3.0202778   -3.0202778   -2.2930794  0.010640789   -3.0202778   0.72719841   439061 
 1383000   0.48487476   -3.0209661   -3.0209661   -2.2936556  0.012716121   -3.0209661   0.72731048   439061 
 1384000   0.48446742   -3.0209514   -3.0209514   -2.2942519  0.015514372   -3.0209514   0.72669948   439061 
 1385000   0.48492635   -3.0223345   -3.0223345   -2.2949466  0.013426138   -3.0223345   0.72738786   439061 
 1386000   0.48551375   -3.0233157   -3.0233157   -2.2950467  0.013513584   -3.0233157   0.72826896   439061 
 1387000   0.48504249   -3.0224675   -3.0224675   -2.2949054   0.01877114   -3.0224675   0.72756207   439061 
 1388000   0.48507827   -3.0230287   -3.0230287   -2.2954129  0.017576963   -3.0230287   0.72761574   439061 
 1389000   0.48520212   -3.0236763   -3.0236763   -2.2958747  0.019210359   -3.0236763   0.72780152   439061 
 1390000   0.48521046   -3.0242863   -3.0242863   -2.2964723  0.018710527   -3.0242863   0.72781404   439061 
 1391000   0.48593599   -3.0250027   -3.0250027   -2.2961004  0.020226185   -3.0250027   0.72890232   439061 
 1392000   0.48498957   -3.0240667   -3.0240667    -2.296584  0.020586268   -3.0240667   0.72748269   439061 
 1393000   0.48471965    -3.024836    -3.024836   -2.2977582  0.015687325    -3.024836   0.72707782   439061 
 1394000   0.48403262   -3.0252018   -3.0252018   -2.2991545  0.015328552   -3.0252018   0.72604728   439061 
 1395000   0.48403412   -3.0262581   -3.0262581   -2.3002086  0.012838315   -3.0262581   0.72604952   439061 
 1396000   0.48355452   -3.0256758   -3.0256758   -2.3003456  0.012083847   -3.0256758   0.72533013   439061 
 1397000     0.483878   -3.0254065   -3.0254065   -2.2995911  0.014700378   -3.0254065   0.72581534   439061 
 1398000   0.48498611   -3.0274137   -3.0274137   -2.2999362  0.016240638   -3.0274137   0.72747751   439061 
 1399000   0.48496557   -3.0274825   -3.0274825   -2.3000358 0.0086964095   -3.0274825    0.7274467   439061 
 1400000   0.48400563   -3.0265263   -3.0265263   -2.3005195  0.015431204   -3.0265263   0.72600679   439061 
 1401000   0.48417876    -3.027554    -3.027554   -2.3012875  0.014867856    -3.027554   0.72626648   439061 
 1402000   0.48392949   -3.0263929   -3.0263929   -2.3005004  0.019015595   -3.0263929   0.72589258   439061 
 1403000   0.48467827   -3.0277624   -3.0277624   -2.3007466  0.016564256   -3.0277624   0.72701575   439061 
 1404000    0.4844008   -3.0279349   -3.0279349   -2.3013353  0.016583845   -3.0279349   0.72659955   439061 
 1405000   0.48473821   -3.0297224   -3.0297224   -2.3026167   0.01456362   -3.0297224   0.72710566   439061 
 1406000   0.48434911   -3.0295285   -3.0295285   -2.3030065  0.017598859   -3.0295285     0.726522   439061 
 1407000    0.4831901   -3.0287677   -3.0287677   -2.3039842  0.013544694   -3.0287677   0.72478349   439061 
 1408000   0.48413693   -3.0304309   -3.0304309   -2.3042272  0.014214321   -3.0304309   0.72620375   439061 
 1409000   0.48372379   -3.0297817   -3.0297817   -2.3041977   0.01380643   -3.0297817   0.72558403   439061 
 1410000   0.48405091   -3.0315116   -3.0315116   -2.3054369  0.015354662   -3.0315116    0.7260747   439061 
 1411000   0.48385924   -3.0315563   -3.0315563   -2.3057691  0.012796952   -3.0315563    0.7257872   439061 
 1412000    0.4833468   -3.0309028   -3.0309028   -2.3058842  0.017779498   -3.0309028   0.72501854   439061 
 1413000   0.48378671   -3.0319109   -3.0319109   -2.3062325  0.014330813   -3.0319109   0.72567842   439061 
 1414000   0.48263598   -3.0309402   -3.0309402   -2.3069879  0.017012803   -3.0309402   0.72395232   439061 
 1415000   0.48378466   -3.0329782   -3.0329782   -2.3073029     0.016221   -3.0329782   0.72567534   439061 
 1416000   0.48384888   -3.0329988   -3.0329988   -2.3072271  0.017661172   -3.0329988   0.72577166   439061 
 1417000   0.48376444   -3.0335135   -3.0335135   -2.3078685  0.017778418   -3.0335135   0.72564501   439061 
 1418000   0.48320669   -3.0329713   -3.0329713   -2.3081629  0.013499934   -3.0329713   0.72480838   439061 
 1419000   0.48347119   -3.0346486   -3.0346486   -2.3094435  0.015461702   -3.0346486   0.72520513   439061 
 1420000   0.48346049   -3.0349525   -3.0349525   -2.3097634  0.014360738   -3.0349525   0.72518908   439061 
 1421000   0.48289867   -3.0347854   -3.0347854    -2.310439  0.013693515   -3.0347854   0.72434636   439061 
 1422000    0.4831607   -3.0342529   -3.0342529   -2.3095135  0.015100526   -3.0342529    0.7247394   439061 
 1423000   0.48276089   -3.0342251   -3.0342251   -2.3100854  0.018451493   -3.0342251   0.72413969   439061 
 1424000   0.48320813   -3.0358744   -3.0358744   -2.3110638  0.011925941   -3.0358744   0.72481054   439061 
 1425000   0.48296767   -3.0356574   -3.0356574   -2.3112075  0.013455032   -3.0356574   0.72444986   439061 
 1426000   0.48258613   -3.0354177   -3.0354177   -2.3115401  0.016277213   -3.0354177   0.72387754   439061 
 1427000   0.48312996    -3.036883    -3.036883   -2.3121897  0.017137523    -3.036883   0.72469329   439061 
 1428000   0.48238829   -3.0359273   -3.0359273   -2.3123466  0.018982709   -3.0359273   0.72358078   439061 
 1429000   0.48263234   -3.0371676   -3.0371676   -2.3132208   0.01467575   -3.0371676   0.72394686   439061 
 1430000   0.48308254   -3.0367474   -3.0367474   -2.3121252  0.016794567   -3.0367474   0.72462216   439061 
 1431000   0.48252156    -3.038019    -3.038019   -2.3142383  0.013652959    -3.038019   0.72378068   439061 
 1432000   0.48198854   -3.0381867   -3.0381867   -2.3152055   0.01436504   -3.0381867   0.72298116   439061 
 1433000   0.48306415   -3.0400603   -3.0400603   -2.3154658   0.01335833   -3.0400603   0.72459457   439061 
 1434000   0.48225165   -3.0387844   -3.0387844   -2.3154086  0.016072646   -3.0387844   0.72337583   439061 
 1435000   0.48294864   -3.0401708   -3.0401708   -2.3157495  0.013596505   -3.0401708   0.72442131   439061 
 1436000   0.48213985   -3.0386118   -3.0386118   -2.3154037  0.020146693   -3.0386118   0.72320813   439061 
 1437000      0.48316   -3.0403673   -3.0403673   -2.3156289  0.017582123   -3.0403673   0.72473835   439061 
 1438000   0.48303999   -3.0400907   -3.0400907   -2.3155324  0.016379041   -3.0400907   0.72455834   439061 
 1439000   0.48239076   -3.0398635   -3.0398635    -2.316279  0.018446045   -3.0398635   0.72358449   439061 
 1440000   0.48319344   -3.0402707   -3.0402707   -2.3154822  0.016890789   -3.0402707   0.72478851   439061 
 1441000   0.48281989   -3.0412825   -3.0412825   -2.3170543  0.013827868   -3.0412825   0.72422818   439061 
 1442000   0.48227259   -3.0413013   -3.0413013   -2.3178941  0.016862032   -3.0413013   0.72340724   439061 
 1443000   0.48204821   -3.0409106   -3.0409106   -2.3178399  0.016045729   -3.0409106   0.72307066   439061 
 1444000   0.48207248   -3.0413707   -3.0413707   -2.3182637  0.011043787   -3.0413707   0.72310707   439061 
 1445000   0.48193515   -3.0421079   -3.0421079   -2.3192069 0.0092958876   -3.0421079   0.72290108   439061 
 1446000   0.48221829   -3.0433551   -3.0433551   -2.3200293  0.011273801   -3.0433551   0.72332579   439061 
 1447000   0.48228025   -3.0437644   -3.0437644   -2.3203457   0.01246689   -3.0437644   0.72341873   439061 
 1448000   0.48223423   -3.0430085   -3.0430085   -2.3196588  0.016287461   -3.0430085    0.7233497   439061 
 1449000   0.48285059   -3.0444711   -3.0444711   -2.3201969  0.016991641   -3.0444711   0.72427424   439061 
 1450000   0.48286429   -3.0449394   -3.0449394   -2.3206446  0.019176687   -3.0449394   0.72429479   439061 
 1451000   0.48204578   -3.0455702   -3.0455702   -2.3225031  0.017492829   -3.0455702   0.72306702   439061 
 1452000   0.48203666   -3.0464137   -3.0464137   -2.3233603  0.012100569   -3.0464137   0.72305335   439061 
 1453000   0.48163968    -3.046719    -3.046719   -2.3242611  0.011498827    -3.046719   0.72245788   439061 
 1454000    0.4811394   -3.0464288   -3.0464288   -2.3247213  0.014455374   -3.0464288   0.72170746   439061 
 1455000   0.48121193   -3.0478805   -3.0478805   -2.3260642  0.014723155   -3.0478805   0.72181625   439061 
 1456000   0.48229517   -3.0491933   -3.0491933   -2.3257522  0.017681583   -3.0491933   0.72344111   439061 
 1457000   0.48194048   -3.0484391   -3.0484391     -2.32553  0.017135618   -3.0484391   0.72290907   439061 
 1458000   0.48205458   -3.0491479   -3.0491479   -2.3260677  0.020556084   -3.0491479   0.72308023   439061 
 1459000   0.48207441   -3.0495939   -3.0495939   -2.3264839  0.016067463   -3.0495939   0.72310997   439061 
 1460000    0.4808979   -3.0486693   -3.0486693   -2.3273241  0.017669147   -3.0486693   0.72134521   439061 
 1461000   0.48042693   -3.0486447   -3.0486447   -2.3280059  0.017093901   -3.0486447   0.72063876   439061 
 1462000   0.48122501   -3.0493487   -3.0493487   -2.3275128  0.014086964   -3.0493487   0.72183587   439061 
 1463000   0.48022728   -3.0480296   -3.0480296   -2.3276903   0.01835883   -3.0480296   0.72033929   439061 
 1464000   0.48170741    -3.050248    -3.050248   -2.3276885  0.014479538    -3.050248   0.72255947   439061 
 1465000   0.48175657   -3.0507669   -3.0507669   -2.3281337  0.012012424   -3.0507669   0.72263321   439061 
 1466000   0.48059272    -3.049207    -3.049207   -2.3283196  0.013345994    -3.049207   0.72088744   439061 
 1467000   0.48100072   -3.0506287   -3.0506287   -2.3291292  0.010496335   -3.0506287   0.72149944   439061 
 1468000   0.48029161   -3.0502156   -3.0502156   -2.3297798  0.012176683   -3.0502156   0.72043578   439061 
 1469000   0.48008867   -3.0500468   -3.0500468   -2.3299154   0.01088066   -3.0500468   0.72013137   439061 
 1470000   0.48060105   -3.0512421   -3.0512421   -2.3303421  0.014273067   -3.0512421   0.72089993   439061 
 1471000   0.48033466   -3.0520576   -3.0520576   -2.3315573   0.01592574   -3.0520576   0.72050035   439061 
 1472000   0.47993106   -3.0523031   -3.0523031   -2.3324081  0.015214236   -3.0523031   0.71989495   439061 
 1473000   0.48085672   -3.0538507   -3.0538507   -2.3325672  0.017263511   -3.0538507   0.72128343   439061 
 1474000   0.48085709   -3.0544175   -3.0544175   -2.3331335  0.016730359   -3.0544175   0.72128399   439061 
 1475000   0.48065838   -3.0547519   -3.0547519    -2.333766  0.018780215   -3.0547519   0.72098592   439061 
 1476000   0.48084027   -3.0553747   -3.0553747   -2.3341159  0.017803187   -3.0553747   0.72125877   439061 
 1477000   0.48101704    -3.055763    -3.055763   -2.3342391  0.018600901    -3.055763   0.72152392   439061 
 1478000   0.48140015   -3.0558953   -3.0558953   -2.3337967  0.016056022   -3.0558953   0.72209859   439061 
 1479000    0.4807566   -3.0563638   -3.0563638   -2.3352306    0.0144635   -3.0563638   0.72113326   439061 
 1480000   0.48009468   -3.0558271   -3.0558271   -2.3356867  0.012620642   -3.0558271   0.72014038   439061 
 1481000   0.48001094   -3.0556037   -3.0556037   -2.3355889  0.012892069   -3.0556037   0.72001477   439061 
 1482000    0.4795061   -3.0557447   -3.0557447   -2.3364872  0.015392187   -3.0557447   0.71925752   439061 
 1483000   0.47952618    -3.055409    -3.055409   -2.3361214  0.013045652    -3.055409   0.71928763   439061 
 1484000   0.47905414     -3.05537     -3.05537   -2.3367904  0.016190311     -3.05537   0.71857958   439061 
 1485000   0.47945364   -3.0562344   -3.0562344   -2.3370556 0.0090547156   -3.0562344   0.71917882   439061 
 1486000   0.47878314   -3.0558377   -3.0558377   -2.3376646  0.013510876   -3.0558377   0.71817308   439061 
 1487000   0.47921749   -3.0567528   -3.0567528   -2.3379282  0.011817284   -3.0567528   0.71882461   439061 
 1488000   0.47952168   -3.0575381   -3.0575381   -2.3382572 0.0091084735   -3.0575381   0.71928089   439061 
 1489000   0.47947362   -3.0582209   -3.0582209   -2.3390122  0.010950286   -3.0582209   0.71920879   439061 
 1490000   0.47942673     -3.05811     -3.05811   -2.3389715  0.013691559     -3.05811   0.71913846   439061 
 1491000   0.48005649   -3.0594952   -3.0594952   -2.3394121   0.01669852   -3.0594952    0.7200831   439061 
 1492000   0.48061692   -3.0601374   -3.0601374   -2.3392136  0.017686913   -3.0601374   0.72092375   439061 
 1493000   0.48013635   -3.0598312   -3.0598312   -2.3396283  0.018353004   -3.0598312   0.72020289   439061 
 1494000   0.48037539   -3.0613615   -3.0613615   -2.3408001  0.011681217   -3.0613615   0.72056145   439061 
 1495000   0.47890308    -3.059671    -3.059671    -2.341318  0.017477576    -3.059671   0.71835298   439061 
 1496000   0.47965027   -3.0617294   -3.0617294   -2.3422556  0.013893127   -3.0617294   0.71947376   439061 
 1497000   0.47898264    -3.061288    -3.061288   -2.3428157  0.011922822    -3.061288   0.71847232   439061 
 1498000   0.47924583   -3.0617822   -3.0617822   -2.3429151  0.012872393   -3.0617822   0.71886711   439061 
 1499000   0.47906687   -3.0617849   -3.0617849   -2.3431862  0.014122463   -3.0617849   0.71859866   439061 
 1500000   0.47903814   -3.0622355   -3.0622355     -2.34368  0.013616525   -3.0622355   0.71855557   439061 
 1501000   0.47827156   -3.0613586   -3.0613586   -2.3439529  0.016646321   -3.0613586   0.71740571   439061 
 1502000   0.47780627   -3.0608508   -3.0608508   -2.3441431  0.015602823   -3.0608508   0.71670777   439061 
 1503000   0.47854492   -3.0623311   -3.0623311   -2.3445153  0.012631654   -3.0623311   0.71781574   439061 
 1504000   0.47937198   -3.0632248   -3.0632248   -2.3441685 0.0091419684   -3.0632248   0.71905633   439061 
 1505000   0.47913165   -3.0631744   -3.0631744   -2.3444786  0.014246846   -3.0631744   0.71869584   439061 
 1506000   0.47958989   -3.0642118   -3.0642118   -2.3448286  0.017612172   -3.0642118   0.71938319   439061 
 1507000   0.47896389   -3.0645405   -3.0645405   -2.3460963  0.014913417   -3.0645405   0.71844419   439061 
 1508000   0.47870225   -3.0643314   -3.0643314   -2.3462796  0.010652167   -3.0643314   0.71805174   439061 
 1509000    0.4783908   -3.0642907   -3.0642907   -2.3467061    0.0166747   -3.0642907   0.71758456   439061 
 1510000   0.47816875   -3.0646802   -3.0646802   -2.3474287  0.012329227   -3.0646802   0.71725149   439061 
 1511000    0.4790253   -3.0658445   -3.0658445   -2.3473081  0.011885585   -3.0658445   0.71853631   439061 
 1512000   0.47947828   -3.0655372   -3.0655372   -2.3463215    0.0158385   -3.0655372   0.71921578   439061 
 1513000   0.47860377   -3.0654665   -3.0654665   -2.3475625  0.015337455   -3.0654665   0.71790402   439061 
 1514000    0.4787735   -3.0665799   -3.0665799   -2.3484213  0.013391649   -3.0665799   0.71815861   439061 
 1515000   0.47898962   -3.0658674   -3.0658674   -2.3473846  0.014168169   -3.0658674   0.71848279   439061 
 1516000   0.47921467   -3.0665003   -3.0665003     -2.34768  0.015837731   -3.0665003   0.71882037   439061 
 1517000   0.47905872   -3.0668572   -3.0668572   -2.3482708   0.01525799   -3.0668572   0.71858644   439061 
 1518000   0.47878823   -3.0666138   -3.0666138   -2.3484331   0.01488354   -3.0666138   0.71818071   439061 
 1519000   0.47856439   -3.0669485   -3.0669485   -2.3491035  0.011457213   -3.0669485   0.71784495   439061 
 1520000    0.4777007   -3.0665609   -3.0665609   -2.3500115  0.014177517   -3.0665609   0.71654941   439061 
 1521000   0.47752809    -3.067999    -3.067999   -2.3517085 0.0078357749    -3.067999    0.7162905   439061 
 1522000   0.47707798   -3.0677175   -3.0677175   -2.3521021 0.0087300899   -3.0677175   0.71561533   439061 
 1523000   0.47848602   -3.0694213   -3.0694213   -2.3516939 0.0094038587   -3.0694213    0.7177274   439061 
 1524000   0.47794544   -3.0686113   -3.0686113   -2.3516947  0.014116351   -3.0686113   0.71691653   439061 
 1525000   0.47826762   -3.0686003   -3.0686003   -2.3512005  0.013929259   -3.0686003    0.7173998   439061 
 1526000   0.47867572   -3.0689139   -3.0689139   -2.3509019  0.016354321   -3.0689139   0.71801195   439061 
 1527000   0.47811933   -3.0679516   -3.0679516   -2.3507742  0.020422201   -3.0679516   0.71717736   439061 
 1528000     0.479769   -3.0706365   -3.0706365   -2.3509846  0.015576294   -3.0706365   0.71965186   439061 
 1529000   0.47857833   -3.0697734   -3.0697734   -2.3519075  0.017350714   -3.0697734   0.71786586   439061 
 1530000   0.47804807    -3.069014    -3.069014   -2.3519435  0.013287178    -3.069014   0.71707047   439061 
 1531000   0.47874515    -3.069917    -3.069917   -2.3518009   0.01444088    -3.069917   0.71811609   439061 
 1532000   0.47744878   -3.0693642   -3.0693642   -2.3531926  0.011763412   -3.0693642   0.71617154   439061 
 1533000   0.47707202    -3.070084    -3.070084   -2.3544776 0.0073223198    -3.070084    0.7156064   439061 
 1534000   0.47622527   -3.0687239   -3.0687239   -2.3543876  0.010511676   -3.0687239   0.71433627   439061 
 1535000   0.47728223   -3.0707149   -3.0707149   -2.3547932 0.0082634847   -3.0707149   0.71592171   439061 
 1536000   0.47636195   -3.0690645   -3.0690645   -2.3545232  0.013866351   -3.0690645    0.7145413   439061 
 1537000   0.47711205    -3.070998    -3.070998   -2.3553316  0.014337029    -3.070998   0.71566644   439061 
 1538000   0.47713227   -3.0708234   -3.0708234   -2.3551266   0.01624768   -3.0708234   0.71569677   439061 
 1539000   0.47824057   -3.0722858   -3.0722858   -2.3549266  0.014135963   -3.0722858   0.71735922   439061 
 1540000   0.47823071   -3.0728145   -3.0728145     -2.35547  0.016400173   -3.0728145   0.71734444   439061 
 1541000   0.47797436   -3.0738832   -3.0738832   -2.3569233  0.015020589   -3.0738832   0.71695991   439061 
 1542000   0.47847648   -3.0747388   -3.0747388   -2.3570257  0.015512351   -3.0747388   0.71771308   439061 
 1543000   0.47776016   -3.0739606   -3.0739606    -2.357322  0.013781404   -3.0739606   0.71663861   439061 
 1544000   0.47696212   -3.0733976   -3.0733976    -2.357956  0.019375748   -3.0733976   0.71544155   439061 
 1545000    0.4770122   -3.0738121   -3.0738121   -2.3582955  0.017236378   -3.0738121   0.71551667   439061 
 1546000   0.47709807   -3.0740919   -3.0740919   -2.3584464  0.016130871   -3.0740919   0.71564547   439061 
 1547000   0.47743908   -3.0753388   -3.0753388   -2.3591818 0.0089469495   -3.0753388   0.71615699   439061 
 1548000   0.47733992   -3.0751638   -3.0751638   -2.3591556  0.011143481   -3.0751638   0.71600825   439061 
 1549000   0.47664531   -3.0749285   -3.0749285   -2.3599622  0.010935497   -3.0749285   0.71496633   439061 
 1550000   0.47701198   -3.0757959   -3.0757959   -2.3602796 0.0092289926   -3.0757959   0.71551633   439061 
 1551000    0.4769784   -3.0757175   -3.0757175   -2.3602516  0.011294843   -3.0757175   0.71546597   439061 
 1552000   0.47734488   -3.0766201   -3.0766201   -2.3606044  0.012787464   -3.0766201   0.71601569   439061 
 1553000   0.47730766   -3.0774067   -3.0774067   -2.3614469  0.012477845   -3.0774067   0.71595986   439061 
 1554000   0.47636401   -3.0762076   -3.0762076   -2.3616632  0.016624684   -3.0762076   0.71454439   439061 
 1555000   0.47756876   -3.0781975   -3.0781975   -2.3618459  0.011296053   -3.0781975   0.71635151   439061 
 1556000   0.47723938   -3.0782837   -3.0782837   -2.3624262  0.011390262   -3.0782837   0.71585744   439061 
 1557000   0.47733313   -3.0787915   -3.0787915   -2.3627934  0.017330487   -3.0787915   0.71599806   439061 
 1558000   0.47736093   -3.0799671   -3.0799671   -2.3639274  0.014324925   -3.0799671   0.71603976   439061 
 1559000   0.47732918   -3.0803259   -3.0803259   -2.3643338  0.015181479   -3.0803259   0.71599214   439061 
 1560000   0.47726213     -3.07959     -3.07959   -2.3636984  0.013920471     -3.07959   0.71589156   439061 
 1561000   0.47678053   -3.0803896   -3.0803896   -2.3652204  0.013315063   -3.0803896   0.71516917   439061 
 1562000   0.47689627   -3.0807738   -3.0807738    -2.365431  0.011880994   -3.0807738   0.71534278   439061 
 1563000   0.47676065   -3.0813567   -3.0813567   -2.3662174  0.012346686   -3.0813567   0.71513934   439061 
 1564000   0.47684429   -3.0814474   -3.0814474   -2.3661826 0.0099539201   -3.0814474    0.7152648   439061 
 1565000   0.47625275   -3.0814283   -3.0814283   -2.3670507  0.011515726   -3.0814283    0.7143775   439061 
 1566000   0.47606964   -3.0811902   -3.0811902   -2.3670874  0.013604872   -3.0811902   0.71410283   439061 
 1567000   0.47692801   -3.0822341   -3.0822341   -2.3668437  0.010038042   -3.0822341   0.71539039   439061 
 1568000   0.47692126   -3.0827242   -3.0827242    -2.367344  0.011729473   -3.0827242   0.71538026   439061 
 1569000    0.4762514   -3.0817878   -3.0817878   -2.3674123  0.013961995   -3.0817878   0.71437547   439061 
 1570000   0.47653052   -3.0817157   -3.0817157   -2.3669215  0.013473495   -3.0817157   0.71479415   439061 
 1571000   0.47630813   -3.0820122   -3.0820122   -2.3675517  0.012523131   -3.0820122   0.71446056   439061 
 1572000   0.47625498   -3.0827342   -3.0827342   -2.3683533 0.0097702719   -3.0827342   0.71438084   439061 
 1573000   0.47680333   -3.0838225   -3.0838225   -2.3686192  0.010902636   -3.0838225   0.71520336   439061 
 1574000   0.47643927   -3.0833679   -3.0833679   -2.3687107  0.011975052   -3.0833679   0.71465728   439061 
 1575000   0.47616232    -3.083863    -3.083863   -2.3696211  0.011081555    -3.083863   0.71424185   439061 
 1576000   0.47668401   -3.0841234   -3.0841234    -2.369099  0.012846324   -3.0841234   0.71502438   439061 
 1577000   0.47677297   -3.0843699   -3.0843699   -2.3692121  0.014229009   -3.0843699   0.71515782   439061 
 1578000   0.47735466    -3.084892    -3.084892   -2.3688617  0.014936138    -3.084892   0.71603036   439061 
 1579000   0.47656537   -3.0845885   -3.0845885   -2.3697421  0.015435778   -3.0845885   0.71484643   439061 
 1580000   0.47672062   -3.0849349   -3.0849349   -2.3698556  0.018394744   -3.0849349    0.7150793   439061 
 1581000   0.47643702   -3.0845987   -3.0845987   -2.3699448  0.014916138   -3.0845987    0.7146539   439061 
 1582000   0.47599238   -3.0849134   -3.0849134   -2.3709265  0.015637573   -3.0849134   0.71398694   439061 
 1583000   0.47636781   -3.0853921   -3.0853921    -2.370842  0.012901439   -3.0853921   0.71455009   439061 
 1584000   0.47607876   -3.0860691   -3.0860691   -2.3719525 0.0095076387   -3.0860691   0.71411652   439061 
 1585000   0.47526403   -3.0843173   -3.0843173   -2.3714228 0.0098184784   -3.0843173   0.71289442   439061 
 1586000   0.47439342    -3.084104    -3.084104   -2.3725155  0.013487618    -3.084104   0.71158851   439061 
 1587000   0.47519779   -3.0847773   -3.0847773   -2.3719822 0.0084654616   -3.0847773   0.71279506   439061 
 1588000   0.47502133    -3.085193    -3.085193   -2.3726626  0.012049983    -3.085193   0.71253037   439061 
 1589000   0.47570772   -3.0864952   -3.0864952   -2.3729352 0.0096282528   -3.0864952   0.71355995   439061 
 1590000   0.47486119   -3.0853941   -3.0853941    -2.373104  0.011967215   -3.0853941   0.71229017   439061 
 1591000   0.47532258   -3.0862215   -3.0862215   -2.3732393  0.014063089   -3.0862215   0.71298225   439061 
 1592000   0.47565242   -3.0874551   -3.0874551   -2.3739781  0.015356719   -3.0874551   0.71347701   439061 
 1593000     0.475202   -3.0859563   -3.0859563   -2.3731549  0.018836479   -3.0859563   0.71280137   439061 
 1594000   0.47596461   -3.0877755   -3.0877755   -2.3738302  0.017786449   -3.0877755   0.71394529   439061 
 1595000    0.4759177    -3.088037    -3.088037   -2.3741621  0.013594161    -3.088037   0.71387493   439061 
 1596000   0.47618248   -3.0897537   -3.0897537   -2.3754816 0.0083645844   -3.0897537    0.7142721   439061 
 1597000   0.47541616   -3.0891039   -3.0891039   -2.3759813  0.010881875   -3.0891039   0.71312261   439061 
 1598000   0.47479013   -3.0887651   -3.0887651   -2.3765816  0.014151794   -3.0887651   0.71218357   439061 
 1599000   0.47505139   -3.0898215   -3.0898215    -2.377246  0.013599846   -3.0898215   0.71257546   439061 
 1600000   0.47610229   -3.0920027   -3.0920027   -2.3778508 0.0069998477   -3.0920027   0.71415181   439061 
 1601000    0.4758205   -3.0914616   -3.0914616   -2.3777325   0.01467574   -3.0914616   0.71372912   439061 
 1602000   0.47426202   -3.0902441   -3.0902441   -2.3788527  0.014568686   -3.0902441   0.71139141   439061 
 1603000   0.47503958   -3.0914482   -3.0914482   -2.3788904   0.01251666   -3.0914482   0.71255775   439061 
 1604000   0.47511656   -3.0916152   -3.0916152    -2.378942   0.01247943   -3.0916152   0.71267321   439061 
 1605000   0.47464589   -3.0923357   -3.0923357   -2.3803685  0.011975133   -3.0923357   0.71196722   439061 
 1606000   0.47440994   -3.0919099   -3.0919099   -2.3802966  0.013533383   -3.0919099   0.71161329   439061 
 1607000   0.47525016   -3.0938916   -3.0938916   -2.3810179 0.0092143452   -3.0938916   0.71287362   439061 
 1608000   0.47483526    -3.093969    -3.093969   -2.3817177  0.011429943    -3.093969   0.71225127   439061 
 1609000   0.47461641   -3.0929378   -3.0929378   -2.3810148  0.010005869   -3.0929378   0.71192299   439061 
 1610000   0.47466222   -3.0935582   -3.0935582   -2.3815665  0.011822985   -3.0935582    0.7119917   439061 
 1611000   0.47474283   -3.0936277   -3.0936277   -2.3815151  0.013460175   -3.0936277   0.71211262   439061 
 1612000   0.47477609   -3.0938555   -3.0938555    -2.381693  0.011642214   -3.0938555   0.71216252   439061 
 1613000   0.47405758   -3.0935473   -3.0935473   -2.3824625  0.012624561   -3.0935473   0.71108476   439061 
 1614000   0.47409345   -3.0942977   -3.0942977   -2.3831591  0.012700193   -3.0942977   0.71113856   439061 
 1615000   0.47534035   -3.0962638   -3.0962638   -2.3832549  0.014295031   -3.0962638    0.7130089   439061 
 1616000   0.47463045   -3.0955693   -3.0955693   -2.3836252  0.014641098   -3.0955693   0.71194406   439061 
 1617000   0.47533042   -3.0969003   -3.0969003   -2.3839063  0.011365359   -3.0969003     0.712994   439061 
 1618000   0.47457525   -3.0963219   -3.0963219   -2.3844607  0.012025427   -3.0963219   0.71186125   439061 
 1619000   0.47532706   -3.0974346   -3.0974346   -2.3844456  0.013078433   -3.0974346   0.71298896   439061 
 1620000   0.47415184   -3.0956438   -3.0956438   -2.3844177  0.012706829   -3.0956438   0.71122613   439061 
 1621000   0.47440962   -3.0958124   -3.0958124   -2.3841996  0.012765675   -3.0958124   0.71161282   439061 
 1622000   0.47450522   -3.0960924   -3.0960924   -2.3843362  0.013818712   -3.0960924   0.71175622   439061 
 1623000   0.47489555   -3.0971149   -3.0971149   -2.3847732  0.011216917   -3.0971149   0.71234171   439061 
 1624000   0.47378451    -3.095496    -3.095496   -2.3848208  0.010670879    -3.095496   0.71067515   439061 
 1625000   0.47312196   -3.0953147   -3.0953147   -2.3856334 0.0076270056   -3.0953147   0.70968132   439061 
 1626000   0.47320857   -3.0963738   -3.0963738   -2.3865626 0.0066456825   -3.0963738   0.70981124   439061 
 1627000   0.47300314   -3.0959619   -3.0959619   -2.3864588  0.011204195   -3.0959619    0.7095031   439061 
 1628000   0.47382059   -3.0968481   -3.0968481   -2.3861188 0.0094655354   -3.0968481   0.71072927   439061 
 1629000   0.47418626   -3.0970972   -3.0970972   -2.3858194  0.012533238   -3.0970972   0.71127778   439061 
 1630000   0.47385238   -3.0977308   -3.0977308   -2.3869538  0.012482549   -3.0977308   0.71077695   439061 
 1631000   0.47401782   -3.0988269   -3.0988269   -2.3878018  0.013420643   -3.0988269   0.71102511   439061 
 1632000   0.47415317   -3.0990362   -3.0990362   -2.3878081  0.011173772   -3.0990362   0.71122814   439061 
 1633000   0.47390403   -3.0991978   -3.0991978   -2.3883434  0.013146345   -3.0991978   0.71085442   439061 
 1634000   0.47427585   -3.1000257   -3.1000257   -2.3886135  0.014434026   -3.1000257   0.71141216   439061 
 1635000   0.47413262   -3.1010043   -3.1010043    -2.389807   0.01616093   -3.1010043    0.7111973   439061 
 1636000    0.4742436   -3.1007478   -3.1007478    -2.389384  0.014436053   -3.1007478   0.71136378   439061 
 1637000   0.47390187   -3.1007392   -3.1007392    -2.389888  0.013859624   -3.1007392   0.71085119   439061 
 1638000   0.47406161   -3.1014929   -3.1014929   -2.3904021  0.014556278   -3.1014929    0.7110908   439061 
 1639000   0.47377065   -3.1012817   -3.1012817   -2.3906274  0.014251123   -3.1012817   0.71065435   439061 
 1640000   0.47371524   -3.1009319   -3.1009319   -2.3903606  0.014590515   -3.1009319   0.71057124   439061 
 1641000   0.47430485    -3.102235    -3.102235   -2.3907794  0.011971908    -3.102235   0.71145565   439061 
 1642000   0.47360764   -3.1009673   -3.1009673   -2.3905575  0.013268883   -3.1009673   0.71040984   439061 
 1643000   0.47340146   -3.1002564   -3.1002564   -2.3901558  0.011741738   -3.1002564   0.71010057   439061 
 1644000   0.47395307   -3.1017625   -3.1017625   -2.3908346 0.0093456827   -3.1017625   0.71092799   439061 
 1645000   0.47333993   -3.1007312   -3.1007312    -2.390723  0.011195232   -3.1007312   0.71000827   439061 
 1646000   0.47311716   -3.1008051   -3.1008051    -2.391131   0.01114225   -3.1008051   0.70967412   439061 
 1647000   0.47371163   -3.1017301   -3.1017301   -2.3911643  0.010442976   -3.1017301   0.71056583   439061 
 1648000   0.47245179   -3.1008131   -3.1008131    -2.392137 0.0094648376   -3.1008131   0.70867607   439061 
 1649000   0.47323107   -3.1025289   -3.1025289   -2.3926839  0.010407737   -3.1025289   0.70984499   439061 
 1650000   0.47300246   -3.1025538   -3.1025538   -2.3930517 0.0093614045   -3.1025538   0.70950207   439061 
 1651000   0.47343616   -3.1027983   -3.1027983   -2.3926457  0.015407398   -3.1027983   0.71015262   439061 
 1652000   0.47441486   -3.1045598   -3.1045598   -2.3929391  0.012469576   -3.1045598   0.71162067   439061 
 1653000   0.47342171    -3.104419    -3.104419    -2.394288  0.013613763    -3.104419   0.71013095   439061 
 1654000   0.47342086   -3.1049578   -3.1049578   -2.3948281  0.014433729   -3.1049578   0.71012967   439061 
 1655000   0.47370291   -3.1051321   -3.1051321   -2.3945793  0.014514334   -3.1051321   0.71055275   439061 
 1656000   0.47341078   -3.1054889   -3.1054889   -2.3953743  0.014324263   -3.1054889   0.71011456   439061 
 1657000   0.47392328   -3.1067798   -3.1067798   -2.3958965  0.016473953   -3.1067798    0.7108833   439061 
 1658000     0.473247   -3.1066395   -3.1066395   -2.3967706  0.015866983   -3.1066395   0.70986889   439061 
 1659000   0.47277058   -3.1059478   -3.1059478   -2.3967936  0.017086574   -3.1059478   0.70915425   439061 
 1660000   0.47397057   -3.1076427   -3.1076427   -2.3966884  0.014191091   -3.1076427   0.71095424   439061 
 1661000   0.47348545     -3.10784     -3.10784   -2.3976134  0.010010678     -3.10784   0.71022655   439061 
 1662000   0.47281489   -3.1070582   -3.1070582   -2.3978375  0.010351634   -3.1070582   0.70922072   439061 
 1663000   0.47241232   -3.1063175   -3.1063175   -2.3977007  0.011219852   -3.1063175   0.70861687   439061 
 1664000   0.47254677   -3.1063791   -3.1063791   -2.3975605  0.010587819   -3.1063791   0.70881854   439061 
 1665000    0.4728923   -3.1073157   -3.1073157   -2.3979789  0.011189312   -3.1073157   0.70933683   439061 
 1666000    0.4723151   -3.1064124   -3.1064124   -2.3979414 0.0095416578   -3.1064124   0.70847103   439061 
 1667000   0.47215606   -3.1058994   -3.1058994   -2.3976669 0.0099347353   -3.1058994   0.70823248   439061 
 1668000   0.47259691   -3.1071977   -3.1071977   -2.3983039  0.009581707   -3.1071977   0.70889374   439061 
 1669000   0.47184184   -3.1061049   -3.1061049   -2.3983438  0.011295306   -3.1061049   0.70776115   439061 
 1670000   0.47287479   -3.1080008   -3.1080008   -2.3986903  0.009553611   -3.1080008   0.70931057   439061 
 1671000    0.4732409   -3.1086241   -3.1086241   -2.3987644  0.011982525   -3.1086241   0.70985973   439061 
 1672000   0.47226389   -3.1080356   -3.1080356   -2.3996414  0.014540448   -3.1080356   0.70839422   439061 
 1673000   0.47322638   -3.1094523   -3.1094523   -2.3996143  0.014172114   -3.1094523   0.70983795   439061 
 1674000    0.4729995   -3.1090984   -3.1090984   -2.3996007  0.014529388   -3.1090984   0.70949764   439061 
 1675000   0.47260229   -3.1095821   -3.1095821   -2.4006803  0.013136338   -3.1095821   0.70890183   439061 
 1676000    0.4726453   -3.1109842   -3.1109842   -2.4020178  0.012576651   -3.1109842   0.70896634   439061 
 1677000   0.47281381   -3.1116496   -3.1116496   -2.4024304  0.011488464   -3.1116496   0.70921911   439061 
 1678000   0.47203452    -3.111605    -3.111605   -2.4035548  0.012004648    -3.111605   0.70805017   439061 
 1679000   0.47258981   -3.1120109   -3.1120109   -2.4031278  0.012892552   -3.1120109    0.7088831   439061 
 1680000   0.47149776   -3.1108482   -3.1108482   -2.4036031  0.009826055   -3.1108482   0.70724503   439061 
 1681000   0.47261177    -3.112518    -3.112518    -2.403602 0.0081301411    -3.112518   0.70891605   439061 
 1682000   0.47147029   -3.1118719   -3.1118719   -2.4046681  0.010356183   -3.1118719   0.70720383   439061 
 1683000   0.47165849   -3.1124341   -3.1124341    -2.404948  0.014697097   -3.1124341   0.70748612   439061 
 1684000   0.47221281   -3.1124777   -3.1124777   -2.4041601  0.013860714   -3.1124777    0.7083176   439061 
 1685000   0.47180422   -3.1118432   -3.1118432   -2.4041385  0.011137078   -3.1118432   0.70770471   439061 
 1686000   0.47211535   -3.1124216   -3.1124216   -2.4042502  0.011698318   -3.1124216   0.70817142   439061 
 1687000   0.47206543   -3.1125665   -3.1125665     -2.40447  0.013901156   -3.1125665   0.70809653   439061 
 1688000   0.47289819   -3.1135112   -3.1135112   -2.4041656  0.012636811   -3.1135112   0.70934566   439061 
 1689000    0.4716466   -3.1124875   -3.1124875   -2.4050192   0.01105832   -3.1124875   0.70746829   439061 
 1690000   0.47124819   -3.1119733   -3.1119733   -2.4051026  0.016093255   -3.1119733   0.70687067   439061 
 1691000   0.47146755   -3.1122924   -3.1122924   -2.4050926  0.011055143   -3.1122924   0.70719972   439061 
 1692000   0.47119496   -3.1131546   -3.1131546   -2.4063638 0.0096299445   -3.1131546   0.70679082   439061 
 1693000    0.4722074    -3.114338    -3.114338   -2.4060285 0.0089523654    -3.114338   0.70830948   439061 
 1694000   0.47228093   -3.1145676   -3.1145676   -2.4061479 0.0071010548   -3.1145676   0.70841978   439061 
 1695000   0.47124431   -3.1137434   -3.1137434   -2.4068786  0.011223903   -3.1137434   0.70686485   439061 
 1696000   0.47145873   -3.1144551   -3.1144551   -2.4072686  0.010655062   -3.1144551   0.70718648   439061 
 1697000   0.47130892   -3.1147569   -3.1147569   -2.4077951  0.011757619   -3.1147569   0.70696177   439061 
 1698000   0.47128215   -3.1145925   -3.1145925   -2.4076709  0.011540409   -3.1145925   0.70692161   439061 
 1699000   0.47248236   -3.1158486   -3.1158486   -2.4071266  0.015022591   -3.1158486   0.70872192   439061 
 1700000   0.47297366   -3.1165456   -3.1165456   -2.4070867 0.0084979825   -3.1165456   0.70945888   439061 
 1701000    0.4719195   -3.1155724   -3.1155724   -2.4076947  0.015685802   -3.1155724   0.70787763   439061 
 1702000    0.4720445   -3.1160012   -3.1160012   -2.4079361  0.016918797   -3.1160012   0.70806513   439061 
 1703000   0.47266061   -3.1166302   -3.1166302   -2.4076409  0.013421576   -3.1166302    0.7089893   439061 
 1704000   0.47137614   -3.1153548   -3.1153548   -2.4082922   0.01102942   -3.1153548    0.7070626   439061 
 1705000   0.47131786    -3.115439    -3.115439   -2.4084638  0.011233964    -3.115439   0.70697518   439061 
 1706000   0.47211587    -3.116057    -3.116057   -2.4078848 0.0084776296    -3.116057   0.70817219   439061 
 1707000   0.47115129   -3.1146553   -3.1146553   -2.4079299  0.011291479   -3.1146553   0.70672533   439061 
 1708000   0.47087859   -3.1149208   -3.1149208   -2.4086046  0.010464285   -3.1149208   0.70631628   439061 
 1709000   0.47125885   -3.1149259   -3.1149259   -2.4080393 0.0095928963   -3.1149259   0.70688666   439061 
 1710000   0.47067303   -3.1155833   -3.1155833   -2.4095754  0.008644262   -3.1155833   0.70600794   439061 
 1711000   0.47084225   -3.1158823   -3.1158823   -2.4096205 0.0041194421   -3.1158823   0.70626176   439061 
 1712000   0.47036553    -3.116116    -3.116116   -2.4105693 0.0093501047    -3.116116   0.70554669   439061 
 1713000    0.4715654   -3.1171207   -3.1171207   -2.4097742 0.0080062081   -3.1171207    0.7073465   439061 
 1714000   0.47071861   -3.1166958   -3.1166958   -2.4106195  0.011541335   -3.1166958   0.70607631   439061 
 1715000   0.47163076   -3.1182758   -3.1182758   -2.4108313  0.012234925   -3.1182758   0.70744453   439061 
 1716000   0.47095108   -3.1174828   -3.1174828   -2.4110578  0.014418478   -3.1174828   0.70642501   439061 
 1717000   0.47109984   -3.1187707   -3.1187707   -2.4121225  0.015187003   -3.1187707   0.70664815   439061 
 1718000   0.47162292   -3.1199408   -3.1199408    -2.412508  0.015561578   -3.1199408   0.70743277   439061 
 1719000   0.47119114   -3.1202944   -3.1202944   -2.4135093  0.012983026   -3.1202944    0.7067851   439061 
 1720000   0.47184587    -3.122018    -3.122018   -2.4142508 0.0091036678    -3.122018   0.70776719   439061 
 1721000   0.47147779   -3.1219058   -3.1219058   -2.4146907   0.01046165   -3.1219058   0.70721508   439061 
 1722000   0.47109223   -3.1221806   -3.1221806   -2.4155439 0.0094122763   -3.1221806   0.70663673   439061 
 1723000   0.47175819   -3.1238136   -3.1238136   -2.4161779   0.01129995   -3.1238136   0.70763568   439061 
 1724000   0.47163302   -3.1235267   -3.1235267   -2.4160788  0.011628534   -3.1235267   0.70744792   439061 
 1725000   0.47103409   -3.1218814   -3.1218814   -2.4153319  0.017111001   -3.1218814   0.70654952   439061 
 1726000   0.47072037   -3.1223704   -3.1223704   -2.4162915  0.010961675   -3.1223704   0.70607895   439061 
 1727000   0.47122279   -3.1230563   -3.1230563   -2.4162238  0.010867617   -3.1230563   0.70683257   439061 
 1728000    0.4707008   -3.1233331   -3.1233331   -2.4172836 0.0096352699   -3.1233331    0.7060496   439061 
 1729000   0.47003352   -3.1225768   -3.1225768   -2.4175281 0.0086194736   -3.1225768   0.70504868   439061 
 1730000   0.46963619   -3.1219558   -3.1219558   -2.4175031  0.010655248   -3.1219558   0.70445268   439061 
 1731000     0.470329   -3.1228749   -3.1228749    -2.417383  0.010770043   -3.1228749   0.70549189   439061 
 1732000   0.47098312   -3.1237004   -3.1237004   -2.4172274 0.0098087145   -3.1237004   0.70647307   439061 
 1733000   0.47125641   -3.1232087   -3.1232087   -2.4163257 0.0085504981   -3.1232087   0.70688301   439061 
 1734000   0.47017411   -3.1222518   -3.1222518   -2.4169922  0.011880659   -3.1222518   0.70525956   439061 
 1735000   0.47008506   -3.1225989   -3.1225989   -2.4174729 0.0099107558   -3.1225989   0.70512598   439061 
 1736000   0.47004107   -3.1232307   -3.1232307   -2.4181707 0.0089905991   -3.1232307      0.70506   439061 
 1737000   0.46959181   -3.1232993   -3.1232993   -2.4189132  0.010667361   -3.1232993   0.70438612   439061 
 1738000   0.46968599   -3.1237413   -3.1237413   -2.4192139 0.0051818918   -3.1237413   0.70452738   439061 
 1739000   0.46985012   -3.1234893   -3.1234893   -2.4187157  0.010013154   -3.1234893   0.70477358   439061 
 1740000   0.46975547   -3.1239292   -3.1239292   -2.4192976  0.011799007   -3.1239292   0.70463161   439061 
 1741000   0.46988355   -3.1248016   -3.1248016   -2.4199778  0.014718316   -3.1248016   0.70482372   439061 
 1742000   0.47047081   -3.1257258   -3.1257258   -2.4200212  0.014441002   -3.1257258   0.70570461   439061 
 1743000   0.47056956   -3.1257459   -3.1257459   -2.4198932  0.016605941   -3.1257459   0.70585273   439061 
 1744000   0.46980884   -3.1254086   -3.1254086    -2.420697  0.016732873   -3.1254086   0.70471165   439061 
 1745000    0.4701445   -3.1266945   -3.1266945   -2.4214794  0.013406126   -3.1266945   0.70521514   439061 
 1746000   0.46877624   -3.1256593   -3.1256593   -2.4224966  0.011998569   -3.1256593   0.70316276   439061 
 1747000   0.46931347   -3.1267275   -3.1267275   -2.4227589 0.0083188997   -3.1267275    0.7039686   439061 
 1748000   0.46926107   -3.1267913   -3.1267913   -2.4229013  0.009028481   -3.1267913      0.70389   439061 
 1749000    0.4693729   -3.1268817   -3.1268817   -2.4228239  0.013225448   -3.1268817   0.70405775   439061 
 1750000   0.47050039   -3.1284432   -3.1284432   -2.4226943 0.0069359563   -3.1284432   0.70574897   439061 
 1751000   0.47039465   -3.1283706   -3.1283706   -2.4227803  0.010049131   -3.1283706   0.70559037   439061 
 1752000   0.46976885   -3.1276706   -3.1276706   -2.4230189   0.01031671   -3.1276706   0.70465168   439061 
 1753000   0.46956434   -3.1280152   -3.1280152   -2.4236703  0.010008137   -3.1280152   0.70434491   439061 
 1754000   0.46903096   -3.1272565   -3.1272565   -2.4237117 0.0091082447   -3.1272565   0.70354484   439061 
 1755000   0.46980998   -3.1289121   -3.1289121   -2.4241988   0.01040124   -3.1289121   0.70471336   439061 
 1756000   0.46913529   -3.1285322   -3.1285322   -2.4248309  0.010163639   -3.1285322   0.70370133   439061 
 1757000   0.46961679   -3.1292846   -3.1292846    -2.424861 0.0066941669   -3.1292846   0.70442358   439061 
 1758000   0.46850888    -3.128359    -3.128359   -2.4255973  0.010238191    -3.128359   0.70276171   439061 
 1759000    0.4690521   -3.1285972   -3.1285972   -2.4250207  0.011387744   -3.1285972   0.70357655   439061 
 1760000    0.4702998   -3.1303074   -3.1303074   -2.4248593  0.010616421   -3.1303074    0.7054481   439061 
 1761000   0.46991167   -3.1297568   -3.1297568   -2.4248909  0.011313098   -3.1297568    0.7048659   439061 
 1762000   0.46993337   -3.1308211   -3.1308211   -2.4259226  0.010838846   -3.1308211   0.70489844   439061 
 1763000   0.46965505   -3.1307498   -3.1307498   -2.4262688  0.009401324   -3.1307498   0.70448097   439061 
 1764000   0.46899465   -3.1299865   -3.1299865   -2.4264961 0.0091591082   -3.1299865   0.70349037   439061 
 1765000   0.46929761   -3.1302543   -3.1302543   -2.4263095  0.012962925   -3.1302543   0.70394481   439061 
 1766000   0.46912184   -3.1309952   -3.1309952   -2.4273141 0.0093953387   -3.1309952   0.70368116   439061 
 1767000   0.46934973   -3.1316398   -3.1316398   -2.4276168 0.0062719672   -3.1316398   0.70402299   439061 
 1768000   0.46890493   -3.1304497   -3.1304497   -2.4270939 0.0097749498   -3.1304497    0.7033558   439061 
 1769000   0.46944995   -3.1317579   -3.1317579   -2.4275845 0.0063825786   -3.1317579   0.70417332   439061 
 1770000    0.4693485   -3.1317306   -3.1317306   -2.4277095  0.011159241   -3.1317306   0.70402115   439061 
 1771000   0.46870631   -3.1309777   -3.1309777   -2.4279198 0.0091707084   -3.1309777   0.70305787   439061 
 1772000   0.46944247   -3.1323389   -3.1323389   -2.4281768   0.01052911   -3.1323389    0.7041621   439061 
 1773000   0.46943374   -3.1331127   -3.1331127   -2.4289637 0.0084910509   -3.1331127   0.70414901   439061 
 1774000   0.46871589   -3.1325311   -3.1325311   -2.4294589  0.010781758   -3.1325311   0.70307224   439061 
 1775000   0.46830303   -3.1325807   -3.1325807   -2.4301277 0.0097618311   -3.1325807   0.70245295   439061 
 1776000   0.46862029   -3.1325456   -3.1325456   -2.4296167  0.014207697   -3.1325456   0.70292883   439061 
 1777000   0.46930521   -3.1339231   -3.1339231   -2.4299669  0.010806783   -3.1339231    0.7039562   439061 
 1778000   0.46942591   -3.1350408   -3.1350408   -2.4309036  0.010606496   -3.1350408   0.70413726   439061 
 1779000    0.4687555   -3.1343001   -3.1343001   -2.4311685  0.012401976   -3.1343001   0.70313164   439061 
 1780000    0.4689144   -3.1344715   -3.1344715   -2.4311015  0.010552464   -3.1344715   0.70336999   439061 
 1781000   0.46954749   -3.1359297   -3.1359297   -2.4316101   0.01159157   -3.1359297   0.70431963   439061 
 1782000   0.46938208   -3.1356282   -3.1356282   -2.4315567  0.012234746   -3.1356282   0.70407152   439061 
 1783000   0.46928186   -3.1354907   -3.1354907   -2.4315695  0.013375623   -3.1354907   0.70392119   439061 
 1784000   0.46918659   -3.1349771   -3.1349771   -2.4311988 0.0091470434   -3.1349771   0.70377828   439061 
 1785000   0.46917025   -3.1356307   -3.1356307    -2.431877  0.012461282   -3.1356307   0.70375377   439061 
 1786000   0.46910563    -3.136244    -3.136244   -2.4325872 0.0092672082    -3.136244   0.70365684   439061 
 1787000   0.46878696   -3.1356561   -3.1356561   -2.4324772 0.0056803453   -3.1356561   0.70317885   439061 
 1788000   0.46732384   -3.1343356   -3.1343356   -2.4333515 0.0099281508   -3.1343356   0.70098416   439061 
 1789000   0.46789763   -3.1354064   -3.1354064   -2.4335616  0.010854407   -3.1354064   0.70184485   439061 
 1790000   0.46876601   -3.1363614   -3.1363614    -2.433214 0.0085526007   -3.1363614   0.70314741   439061 
 1791000   0.46872417   -3.1362122   -3.1362122   -2.4331276 0.0081396728   -3.1362122   0.70308465   439061 
 1792000   0.46848538   -3.1361275   -3.1361275    -2.433401 0.0061172574   -3.1361275   0.70272646   439061 
 1793000    0.4677623   -3.1350251   -3.1350251   -2.4333833 0.0098659143   -3.1350251   0.70164185   439061 
 1794000    0.4684751   -3.1368459   -3.1368459   -2.4341348 0.0093386032   -3.1368459   0.70271105   439061 
 1795000   0.46748591   -3.1357755   -3.1357755   -2.4345482  0.013773546   -3.1357755   0.70122726   439061 
 1796000   0.46873814    -3.137499    -3.137499   -2.4343934  0.012906301    -3.137499   0.70310562   439061 
 1797000   0.46883681   -3.1375381   -3.1375381   -2.4342845  0.011199464   -3.1375381   0.70325362   439061 
 1798000    0.4680353   -3.1369723   -3.1369723    -2.434921  0.012271265   -3.1369723   0.70205136   439061 
 1799000   0.46840547   -3.1383376   -3.1383376    -2.435731 0.0088993777   -3.1383376    0.7026066   439061 
 1800000   0.46781514    -3.138278    -3.138278   -2.4365569 0.0095182911    -3.138278   0.70172111   439061 
 1801000    0.4684702   -3.1389794   -3.1389794   -2.4362757   0.00972859   -3.1389794   0.70270371   439061 
 1802000   0.46856372   -3.1390484   -3.1390484   -2.4362045 0.0077313748   -3.1390484   0.70284397   439061 
 1803000   0.46844149   -3.1386021   -3.1386021   -2.4359415  0.011109673   -3.1386021   0.70266064   439061 
 1804000   0.46747763   -3.1379075   -3.1379075   -2.4366926 0.0078401338   -3.1379075   0.70121485   439061 
 1805000   0.46757862   -3.1382095   -3.1382095   -2.4368432 0.0078476739   -3.1382095   0.70136633   439061 
 1806000   0.46791303   -3.1383472   -3.1383472   -2.4364793  0.010591524   -3.1383472   0.70186794   439061 
 1807000   0.46845726   -3.1392284   -3.1392284   -2.4365441 0.0080896559   -3.1392284   0.70268428   439061 
 1808000    0.4685276   -3.1389962   -3.1389962   -2.4362064  0.010890453   -3.1389962   0.70278979   439061 
 1809000   0.46786232   -3.1379248   -3.1379248   -2.4361329  0.010275021   -3.1379248   0.70179188   439061 
 1810000   0.46792957    -3.138433    -3.138433   -2.4365402  0.010675013    -3.138433   0.70189276   439061 
 1811000    0.4681785   -3.1391522   -3.1391522   -2.4368861 0.0090924563   -3.1391522   0.70226615   439061 
 1812000   0.46754354   -3.1385648   -3.1385648   -2.4372511 0.0078769048   -3.1385648   0.70131372   439061 
 1813000   0.46735425   -3.1378938   -3.1378938   -2.4368641  0.012775794   -3.1378938   0.70102977   439061 
 1814000   0.46860763   -3.1397133   -3.1397133   -2.4368034 0.0065836412   -3.1397133   0.70290985   439061 
 1815000   0.46798103    -3.138591    -3.138591    -2.436621    0.0133224    -3.138591   0.70196995   439061 
 1816000   0.46815563   -3.1399419   -3.1399419     -2.43771  0.007457653   -3.1399419   0.70223185   439061 
 1817000    0.4679295   -3.1399878   -3.1399878   -2.4380952 0.0099044103   -3.1399878   0.70189265   439061 
 1818000   0.46723087   -3.1398096   -3.1398096   -2.4389649 0.0082424354   -3.1398096   0.70084472   439061 
 1819000   0.46784776   -3.1404016   -3.1404016   -2.4386315 0.0058707031   -3.1404016   0.70177004   439061 
 1820000    0.4679888   -3.1411831   -3.1411831   -2.4392015 0.0049857745   -3.1411831    0.7019816   439061 
 1821000   0.46678955   -3.1398045   -3.1398045   -2.4396218   0.01107154   -3.1398045   0.70018273   439061 
 1822000   0.46667585   -3.1400235   -3.1400235   -2.4400114 0.0095261528   -3.1400235   0.70001218   439061 
 1823000    0.4675913   -3.1413101   -3.1413101   -2.4399247  0.010776827   -3.1413101   0.70138535   439061 
 1824000   0.46762545   -3.1414049   -3.1414049   -2.4399683  0.011171935   -3.1414049   0.70143658   439061 
 1825000   0.46770519   -3.1421862   -3.1421862     -2.44063  0.011966196   -3.1421862   0.70155618   439061 
 1826000   0.46657596   -3.1413298   -3.1413298   -2.4414675  0.014644656   -3.1413298   0.69986235   439061 
 1827000   0.46778952    -3.142888    -3.142888   -2.4412054  0.011544888    -3.142888   0.70168269   439061 
 1828000   0.46770213   -3.1427677   -3.1427677   -2.4412161   0.01470755   -3.1427677   0.70155159   439061 
 1829000    0.4673427   -3.1423105   -3.1423105    -2.441298  0.015414593   -3.1423105   0.70101245   439061 
 1830000   0.46715901   -3.1429121   -3.1429121   -2.4421752  0.012298309   -3.1429121   0.70073692   439061 
 1831000   0.46698919   -3.1423645   -3.1423645   -2.4418824 0.0089147143   -3.1423645   0.70048218   439061 
 1832000   0.46660473    -3.142659    -3.142659   -2.4427535 0.0080881337    -3.142659    0.6999055   439061 
 1833000   0.46716383     -3.14346     -3.14346   -2.4427158 0.0099660399     -3.14346   0.70074416   439061 
 1834000    0.4670964   -3.1425269   -3.1425269   -2.4418839  0.011986438   -3.1425269   0.70064301   439061 
 1835000   0.46718875   -3.1432596   -3.1432596    -2.442478 0.0090863345   -3.1432596   0.70078153   439061 
 1836000   0.46656659   -3.1424705   -3.1424705   -2.4426222 0.0090487215   -3.1424705   0.69984829   439061 
 1837000    0.4668689   -3.1435245   -3.1435245   -2.4432228  0.006509977   -3.1435245   0.70030175   439061 
 1838000   0.46677805   -3.1444838   -3.1444838   -2.4443183 0.0058733437   -3.1444838   0.70016548   439061 
 1839000   0.46693068   -3.1442831   -3.1442831   -2.4438887  0.010696475   -3.1442831   0.70039443   439061 
 1840000   0.46773689    -3.146067    -3.146067   -2.4444633 0.0065892926    -3.146067   0.70160373   439061 
 1841000   0.46636328   -3.1448148   -3.1448148   -2.4452715  0.011649957   -3.1448148   0.69954333   439061 
 1842000   0.46709034   -3.1458424   -3.1458424   -2.4452085  0.010540068   -3.1458424   0.70063392   439061 
 1843000   0.46701512   -3.1455369   -3.1455369   -2.4450158  0.011198533   -3.1455369   0.70052108   439061 
 1844000   0.46735539   -3.1464866   -3.1464866   -2.4454551  0.011960006   -3.1464866   0.70103149   439061 
 1845000   0.46695458   -3.1468482   -3.1468482   -2.4464179    0.0113259   -3.1468482   0.70043028   439061 
 1846000   0.46661357   -3.1463297   -3.1463297    -2.446411  0.014473013   -3.1463297   0.69991876   439061 
 1847000   0.46729801   -3.1473823   -3.1473823   -2.4464369  0.011432273   -3.1473823   0.70094542   439061 
 1848000   0.46650753   -3.1461908   -3.1461908   -2.4464311 0.0084755639   -3.1461908    0.6997597   439061 
 1849000   0.46608802   -3.1452542   -3.1452542   -2.4461238  0.010349434   -3.1452542   0.69913044   439061 
 1850000   0.46621941   -3.1460929   -3.1460929   -2.4467654   0.01081672   -3.1460929   0.69932752   439061 
 1851000   0.46649061   -3.1469599   -3.1469599   -2.4472256 0.0091207844   -3.1469599   0.69973432   439061 
 1852000   0.46598838   -3.1456146   -3.1456146   -2.4466336  0.012270183   -3.1456146   0.69898098   439061 
 1853000   0.46617507   -3.1457218   -3.1457218   -2.4464608  0.010359695   -3.1457218   0.69926101   439061 
 1854000   0.46612468   -3.1460577   -3.1460577   -2.4468723 0.0092238172   -3.1460577   0.69918543   439061 
 1855000   0.46666904   -3.1473475   -3.1473475   -2.4473456 0.0059321942   -3.1473475   0.70000196   439061 
 1856000   0.46575877   -3.1463403   -3.1463403   -2.4477038 0.0069356696   -3.1463403   0.69863657   439061 
 1857000   0.46644684   -3.1471972   -3.1471972   -2.4475285 0.0065076673   -3.1471972   0.69966866   439061 
 1858000    0.4657204   -3.1472825   -3.1472825   -2.4487035  0.010054462   -3.1472825   0.69857901   439061 
 1859000   0.46676463   -3.1496685   -3.1496685   -2.4495232 0.0055705256   -3.1496685   0.70014535   439061 
 1860000   0.46674665   -3.1498862   -3.1498862   -2.4497678 0.0087075872   -3.1498862   0.70011838   439061 
 1861000   0.46648471   -3.1494823   -3.1494823   -2.4497569  0.010199441   -3.1494823   0.69972546   439061 
 1862000   0.46683771    -3.149483    -3.149483   -2.4492281  0.013998688    -3.149483   0.70025497   439061 
 1863000   0.46662543   -3.1498975   -3.1498975   -2.4499609  0.015535954   -3.1498975   0.69993656   439061 
 1864000    0.4671313   -3.1510341   -3.1510341   -2.4503388  0.012733153   -3.1510341   0.70069535   439061 
 1865000   0.46760799   -3.1511518   -3.1511518   -2.4497414  0.014008875   -3.1511518   0.70141038   439061 
 1866000   0.46726704   -3.1502421   -3.1502421   -2.4493431  0.011566511   -3.1502421   0.70089897   439061 
 1867000   0.46678066   -3.1503543   -3.1503543   -2.4501849   0.01276456   -3.1503543    0.7001694   439061 
 1868000   0.46638845   -3.1497785   -3.1497785   -2.4501975  0.013796816   -3.1497785   0.69958107   439061 
 1869000   0.46559045   -3.1490624   -3.1490624   -2.4506783  0.011345464   -3.1490624   0.69838409   439061 
 1870000   0.46617748   -3.1499248   -3.1499248   -2.4506602 0.0073646854   -3.1499248   0.69926462   439061 
 1871000   0.46512443   -3.1481164   -3.1481164   -2.4504313  0.010107321   -3.1481164   0.69768506   439061 
 1872000   0.46570621   -3.1489797   -3.1489797    -2.450422  0.010202877   -3.1489797   0.69855773   439061 
 1873000   0.46531065   -3.1485976   -3.1485976   -2.4506332 0.0096322592   -3.1485976   0.69796438   439061 
 1874000   0.46579406   -3.1492833   -3.1492833   -2.4505938 0.0082417643   -3.1492833    0.6986895   439061 
 1875000   0.46534184   -3.1489176   -3.1489176   -2.4509064 0.0073509267   -3.1489176   0.69801118   439061 
 1876000   0.46606414    -3.150612    -3.150612   -2.4515173 0.0046129242    -3.150612   0.69909462   439061 
 1877000   0.46537675   -3.1492944   -3.1492944   -2.4512309  0.010148791   -3.1492944   0.69806353   439061 
 1878000   0.46625362   -3.1507392   -3.1507392   -2.4513604 0.0093161795   -3.1507392   0.69937883   439061 
 1879000   0.46577144   -3.1508703   -3.1508703   -2.4522147 0.0096237942   -3.1508703   0.69865557   439061 
 1880000   0.46679229   -3.1525717   -3.1525717   -2.4523849  0.010283452   -3.1525717   0.70018684   439061 
 1881000   0.46633106   -3.1518145   -3.1518145   -2.4523196  0.013118079   -3.1518145   0.69949499   439061 
 1882000   0.46720894   -3.1531411   -3.1531411   -2.4523293  0.007318993   -3.1531411   0.70081182   439061 
 1883000   0.46652855   -3.1525865   -3.1525865   -2.4527953  0.012369168   -3.1525865   0.69979123   439061 
 1884000    0.4668156   -3.1526576   -3.1526576   -2.4524358  0.015767282   -3.1526576    0.7002218   439061 
 1885000   0.46640436   -3.1526139   -3.1526139   -2.4530089  0.010874127   -3.1526139   0.69960494   439061 
 1886000   0.46635959   -3.1521267   -3.1521267    -2.452589  0.014187081   -3.1521267   0.69953779   439061 
 1887000   0.46666166   -3.1525874   -3.1525874   -2.4525965  0.010260235   -3.1525874   0.69999089   439061 
 1888000   0.46600919   -3.1519277   -3.1519277   -2.4529155  0.010377484   -3.1519277   0.69901219   439061 
 1889000   0.46728467   -3.1532332   -3.1532332   -2.4523078 0.0083806328   -3.1532332    0.7009254   439061 
 1890000   0.46580982   -3.1519587   -3.1519587   -2.4532456  0.011470384   -3.1519587   0.69871314   439061 
 1891000   0.46595631   -3.1526469   -3.1526469   -2.4537141 0.0060710215   -3.1526469   0.69893287   439061 
 1892000   0.46488808   -3.1517048   -3.1517048   -2.4543743 0.0067167937   -3.1517048   0.69733053   439061 
 1893000   0.46534387   -3.1531432   -3.1531432    -2.455129  0.004710809   -3.1531432   0.69801422   439061 
 1894000   0.46466205   -3.1524093   -3.1524093   -2.4554178 0.0060068771   -3.1524093   0.69699149   439061 
 1895000   0.46483014   -3.1520354   -3.1520354   -2.4547918 0.0081170411   -3.1520354   0.69724362   439061 
 1896000   0.46551582   -3.1527971   -3.1527971    -2.454525 0.0086364757   -3.1527971   0.69827214   439061 
 1897000   0.46641095   -3.1544686   -3.1544686   -2.4548538 0.0083971936   -3.1544686   0.69961484   439061 
 1898000   0.46603944   -3.1542729   -3.1542729   -2.4552154  0.011032035   -3.1542729   0.69905757   439061 
 1899000   0.46581067   -3.1546972   -3.1546972   -2.4559828  0.009868075   -3.1546972   0.69871442   439061 
 1900000   0.46637544   -3.1555502   -3.1555502   -2.4559886  0.011350189   -3.1555502   0.69956157   439061 
 1901000    0.4659093   -3.1554628   -3.1554628   -2.4566005  0.011290406   -3.1554628   0.69886236   439061 
 1902000   0.46679882   -3.1561076   -3.1561076   -2.4559109 0.0084385625   -3.1561076   0.70019664   439061 
 1903000   0.46637962   -3.1554003   -3.1554003   -2.4558325  0.010870976   -3.1554003   0.69956783   439061 
 1904000   0.46609352   -3.1558378   -3.1558378   -2.4566991  0.012812181   -3.1558378   0.69913868   439061 
 1905000   0.46675591   -3.1563068   -3.1563068   -2.4561745  0.010919558   -3.1563068   0.70013226   439061 
 1906000   0.46609941   -3.1554056   -3.1554056   -2.4562581 0.0072096054   -3.1554056   0.69914752   439061 
 1907000   0.46629618   -3.1556999   -3.1556999   -2.4562572  0.007791782   -3.1556999   0.69944268   439061 
 1908000   0.46546137   -3.1551209   -3.1551209   -2.4569305 0.0091620936   -3.1551209   0.69819046   439061 
 1909000   0.46444886   -3.1527861   -3.1527861   -2.4561144 0.0076473949   -3.1527861    0.6966717   439061 
 1910000   0.46535732   -3.1545839   -3.1545839   -2.4565495 0.0076108871   -3.1545839    0.6980344   439061 
 1911000   0.46503303   -3.1545615   -3.1545615   -2.4570136  0.005940569   -3.1545615   0.69754796   439061 
 1912000   0.46479532   -3.1547411   -3.1547411   -2.4575497  0.008994372   -3.1547411   0.69719139   439061 
 1913000   0.46456222    -3.154773    -3.154773   -2.4579313 0.0069023005    -3.154773   0.69684174   439061 
 1914000   0.46457561   -3.1553126   -3.1553126   -2.4584507 0.0053396093   -3.1553126   0.69686183   439061 
 1915000   0.46378781   -3.1546339   -3.1546339   -2.4589538 0.0075880656   -3.1546339   0.69568014   439061 
 1916000   0.46526389   -3.1571858   -3.1571858   -2.4592915 0.0080121268   -3.1571858   0.69789425   439061 
 1917000   0.46574114   -3.1577503   -3.1577503   -2.4591402   0.01280125   -3.1577503   0.69861012   439061 
 1918000   0.46533398   -3.1569016   -3.1569016   -2.4589022  0.020893251   -3.1569016   0.69799938   439061 
 1919000   0.46619993    -3.157796    -3.157796   -2.4584977  0.016157556    -3.157796    0.6992983   439061 
 1920000   0.46657859   -3.1590312   -3.1590312   -2.4591649  0.014604265   -3.1590312   0.69986629   439061 
 1921000   0.46595188   -3.1593164   -3.1593164   -2.4603902  0.012010868   -3.1593164   0.69892623   439061 
 1922000    0.4652738   -3.1586573   -3.1586573   -2.4607482  0.011226875   -3.1586573   0.69790911   439061 
 1923000   0.46515815   -3.1585483   -3.1585483   -2.4608127  0.010879941   -3.1585483   0.69773564   439061 
 1924000   0.46443629   -3.1572311   -3.1572311   -2.4605783 0.0095117226   -3.1572311   0.69665284   439061 
 1925000   0.46610399   -3.1596544   -3.1596544      -2.4605 0.0052847953   -3.1596544   0.69915439   439061 
 1926000    0.4651933   -3.1584341   -3.1584341   -2.4606457 0.0062659007   -3.1584341   0.69778835   439061 
 1927000   0.46475158   -3.1580549   -3.1580549   -2.4609291 0.0068929536   -3.1580549   0.69712578   439061 
 1928000   0.46384407   -3.1574332   -3.1574332   -2.4616687 0.0081516179   -3.1574332   0.69576451   439061 
 1929000   0.46406492   -3.1580045   -3.1580045   -2.4619087 0.0081900269   -3.1580045   0.69609579   439061 
 1930000   0.46446669   -3.1581284   -3.1581284   -2.4614299 0.0090999639   -3.1581284   0.69669845   439061 
 1931000    0.4644967   -3.1576231   -3.1576231   -2.4608797  0.010698898   -3.1576231   0.69674346   439061 
 1932000   0.46522219   -3.1587487   -3.1587487    -2.460917  0.011512472   -3.1587487   0.69783169   439061 
 1933000   0.46448008   -3.1585551   -3.1585551   -2.4618366  0.012567754   -3.1585551   0.69671854   439061 
 1934000   0.46602914   -3.1610176   -3.1610176   -2.4619755  0.010573106   -3.1610176   0.69904212   439061 
 1935000   0.46405247   -3.1590155   -3.1590155   -2.4629383  0.011938339   -3.1590155   0.69607711   439061 
 1936000   0.46504692   -3.1603112   -3.1603112   -2.4627424  0.014142354   -3.1603112    0.6975688   439061 
 1937000   0.46567805   -3.1614519   -3.1614519   -2.4629365 0.0095191144   -3.1614519   0.69851548   439061 
 1938000   0.46590317   -3.1620734   -3.1620734   -2.4632203 0.0081452263   -3.1620734   0.69885316   439061 
 1939000   0.46528255   -3.1610461   -3.1610461   -2.4631238  0.013075525   -3.1610461   0.69792224   439061 
 1940000    0.4647505   -3.1604958   -3.1604958   -2.4633716  0.010058488   -3.1604958   0.69712417   439061 
 1941000   0.46502765   -3.1604812   -3.1604812   -2.4629413  0.014500667   -3.1604812   0.69753988   439061 
 1942000   0.46461268   -3.1606537   -3.1606537   -2.4637363  0.013585084   -3.1606537   0.69691743   439061 
 1943000   0.46486644   -3.1609818   -3.1609818   -2.4636837   0.01099341   -3.1609818   0.69729808   439061 
 1944000   0.46416736   -3.1602347   -3.1602347   -2.4639852 0.0080038799   -3.1602347   0.69624946   439061 
 1945000   0.46466747   -3.1603243   -3.1603243   -2.4633247    0.0099666   -3.1603243   0.69699962   439061 
 1946000   0.46457246   -3.1598417   -3.1598417   -2.4629846  0.011070038   -3.1598417   0.69685711   439061 
 1947000   0.46502215   -3.1600032   -3.1600032   -2.4624716 0.0096959748   -3.1600032   0.69753164   439061 
 1948000   0.46469364   -3.1602295   -3.1602295   -2.4631907  0.010233326   -3.1602295   0.69703887   439061 
 1949000   0.46463959    -3.160124    -3.160124   -2.4631662 0.0069006964    -3.160124    0.6969578   439061 
 1950000   0.46424973   -3.1595311   -3.1595311   -2.4631581 0.0092876084   -3.1595311     0.696373   439061 
 1951000   0.46413165    -3.160365    -3.160365   -2.4641691 0.0042316149    -3.160365   0.69619589   439061 
 1952000   0.46444626   -3.1609963   -3.1609963   -2.4643285 0.0073167244   -3.1609963   0.69666781   439061 
 1953000   0.46461904   -3.1615162   -3.1615162   -2.4645893 0.0054972447   -3.1615162   0.69692698   439061 
 1954000   0.46423046   -3.1610695   -3.1610695   -2.4647254 0.0082608604   -3.1610695   0.69634411   439061 
 1955000   0.46526713    -3.162292    -3.162292   -2.4643929  0.011116228    -3.162292   0.69789911   439061 
 1956000   0.46480633   -3.1619177   -3.1619177   -2.4647098  0.011525184   -3.1619177   0.69720791   439061 
 1957000   0.46469476   -3.1621796   -3.1621796    -2.465139  0.011986111   -3.1621796   0.69704055   439061 
 1958000   0.46403247   -3.1626554   -3.1626554   -2.4666083  0.012300563   -3.1626554   0.69604712   439061 
 1959000   0.46451685   -3.1632871   -3.1632871   -2.4665134 0.0084636216   -3.1632871   0.69677368   439061 
 1960000   0.46456075   -3.1633483   -3.1633483   -2.4665088  0.011891831   -3.1633483   0.69683953   439061 
 1961000   0.46387214   -3.1632754   -3.1632754   -2.4674688   0.01099712   -3.1632754   0.69580662   439061 
 1962000   0.46416725   -3.1637306   -3.1637306   -2.4674813  0.011921274   -3.1637306   0.69624929   439061 
 1963000   0.46452151    -3.164917    -3.164917   -2.4681364 0.0058531512    -3.164917   0.69678068   439061 
 1964000   0.46369478   -3.1637765   -3.1637765   -2.4682359  0.011494534   -3.1637765   0.69554058   439061 
 1965000   0.46385688   -3.1641788   -3.1641788    -2.468395  0.010560651   -3.1641788   0.69578374   439061 
 1966000   0.46438685   -3.1639442   -3.1639442   -2.4673656 0.0073744868   -3.1639442   0.69657869   439061 
 1967000   0.46328337   -3.1638863   -3.1638863   -2.4689628  0.008956507   -3.1638863   0.69492347   439061 
 1968000   0.46385937   -3.1644878   -3.1644878   -2.4687003 0.0084377446   -3.1644878   0.69578747   439061 
 1969000   0.46446251   -3.1654383   -3.1654383   -2.4687461 0.0076993996   -3.1654383   0.69669218   439061 
 1970000   0.46367755   -3.1640751   -3.1640751   -2.4685604 0.0087222839   -3.1640751   0.69551474   439061 
 1971000   0.46465897   -3.1656556   -3.1656556   -2.4686687 0.0059597022   -3.1656556   0.69698687   439061 
 1972000   0.46383005   -3.1656206   -3.1656206   -2.4698771 0.0065973299   -3.1656206   0.69574349   439061 
 1973000   0.46313745    -3.165418    -3.165418   -2.4707134 0.0070690137    -3.165418   0.69470459   439061 
 1974000   0.46405953   -3.1662194   -3.1662194   -2.4701317 0.0045421644   -3.1662194   0.69608771   439061 
 1975000   0.46389693   -3.1657543   -3.1657543   -2.4699104  0.007410201   -3.1657543   0.69584381   439061 
 1976000   0.46342331   -3.1648522   -3.1648522   -2.4697188  0.010233259   -3.1648522   0.69513338   439061 
 1977000   0.46459982   -3.1669567   -3.1669567   -2.4700586 0.0094262891   -3.1669567   0.69689814   439061 
 1978000   0.46447136   -3.1667713   -3.1667713   -2.4700658  0.010734356   -3.1667713   0.69670546   439061 
 1979000    0.4636472   -3.1662957   -3.1662957   -2.4708264  0.010531154   -3.1662957   0.69546921   439061 
 1980000   0.46385411   -3.1667173   -3.1667173   -2.4709377 0.0087766545   -3.1667173   0.69577958   439061 
 1981000   0.46426309   -3.1666555   -3.1666555   -2.4702624 0.0091987963   -3.1666555   0.69639304   439061 
 1982000   0.46380427    -3.167109    -3.167109   -2.4714042  0.011726634    -3.167109   0.69570482   439061 
 1983000   0.46346677   -3.1664494   -3.1664494   -2.4712508 0.0095189967   -3.1664494   0.69519857   439061 
 1984000   0.46369861   -3.1664655   -3.1664655   -2.4709192  0.009399955   -3.1664655   0.69554633   439061 
 1985000   0.46362378   -3.1667426   -3.1667426   -2.4713085 0.0082096575   -3.1667426   0.69543409   439061 
 1986000   0.46399932   -3.1664934   -3.1664934    -2.470496 0.0079650708   -3.1664934   0.69599739   439061 
 1987000   0.46330644   -3.1666414   -3.1666414   -2.4716833 0.0053971544   -3.1666414   0.69495808   439061 
 1988000   0.46254861   -3.1665091   -3.1665091   -2.4726878 0.0053358505   -3.1665091   0.69382133   439061 
 1989000   0.46282136   -3.1666627   -3.1666627   -2.4724322  0.008719667   -3.1666627   0.69423046   439061 
 1990000   0.46279461   -3.1670521   -3.1670521   -2.4728618 0.0062606712   -3.1670521   0.69419033   439061 
 1991000   0.46298113   -3.1681812   -3.1681812   -2.4737111 0.0059237104   -3.1681812   0.69447012   439061 
 1992000   0.46331817   -3.1680918   -3.1680918   -2.4731161  0.006457326   -3.1680918   0.69497568   439061 
 1993000   0.46271656   -3.1682663   -3.1682663    -2.474193 0.0092822075   -3.1682663   0.69407327   439061 
 1994000   0.46331802   -3.1693117   -3.1693117   -2.4743362 0.0061069746   -3.1693117   0.69497545   439061 
 1995000   0.46412288   -3.1701183   -3.1701183   -2.4739356  0.010309961   -3.1701183   0.69618273   439061 
 1996000   0.46328635   -3.1696642   -3.1696642   -2.4747363  0.011796728   -3.1696642   0.69492794   439061 
 1997000    0.4632933   -3.1696952   -3.1696952   -2.4747568  0.010991473   -3.1696952   0.69493837   439061 
 1998000   0.46396096   -3.1704375   -3.1704375   -2.4744977  0.013240062   -3.1704375   0.69593986   439061 
 1999000   0.46389451   -3.1697919   -3.1697919   -2.4739517  0.011354399   -3.1697919   0.69584018   439061 
 2000000   0.46307415   -3.1692446   -3.1692446   -2.4746349  0.011221836   -3.1692446   0.69460965   439061 
 2001000   0.46274104   -3.1687014   -3.1687014   -2.4745914 0.0097566537   -3.1687014   0.69410998   439061 
 2002000   0.46255329   -3.1691925   -3.1691925   -2.4753641  0.010434502   -3.1691925   0.69382836   439061 
 2003000   0.46302726   -3.1699968   -3.1699968   -2.4754575 0.0064358368   -3.1699968   0.69453931   439061 
 2004000   0.46174621   -3.1681899   -3.1681899   -2.4755722 0.0090369435   -3.1681899   0.69261773   439061 
 2005000   0.46281469   -3.1692554   -3.1692554   -2.4750349  0.005857121   -3.1692554   0.69422045   439061 
 2006000   0.46253038   -3.1683811   -3.1683811   -2.4745871 0.0059577201   -3.1683811   0.69379398   439061 
 2007000   0.46305794     -3.16907     -3.16907   -2.4744847 0.0074665248     -3.16907   0.69458532   439061 
 2008000   0.46339588   -3.1701923   -3.1701923   -2.4751001 0.0088081109   -3.1701923   0.69509224   439061 
 2009000   0.46259962   -3.1690516   -3.1690516   -2.4751537 0.0093958579   -3.1690516   0.69389785   439061 
 2010000   0.46357127    -3.170483    -3.170483   -2.4751277 0.0075007564    -3.170483   0.69535532   439061 
 2011000   0.46311221   -3.1703619   -3.1703619   -2.4756952 0.0091491843   -3.1703619   0.69466673   439061 
 2012000   0.46200147   -3.1697359   -3.1697359   -2.4767353 0.0081012328   -3.1697359   0.69300063   439061 
 2013000   0.46288875   -3.1710896   -3.1710896    -2.476758 0.0051115717   -3.1710896   0.69433154   439061 
 2014000   0.46269887   -3.1710481   -3.1710481   -2.4770014  0.005350433   -3.1710481   0.69404673   439061 
 2015000   0.46356386   -3.1727016   -3.1727016   -2.4773574  0.010175425   -3.1727016   0.69534421   439061 
 2016000    0.4625559   -3.1712828   -3.1712828   -2.4774505  0.011439609   -3.1712828   0.69383226   439061 
 2017000    0.4626625   -3.1712444   -3.1712444   -2.4772522 0.0095256688   -3.1712444   0.69399216   439061 
 2018000   0.46351916   -3.1729705   -3.1729705   -2.4776934 0.0077280909   -3.1729705   0.69527715   439061 
 2019000    0.4632919   -3.1723523   -3.1723523    -2.477416  0.009153613   -3.1723523   0.69493626   439061 
 2020000   0.46256899    -3.171719    -3.171719   -2.4778671  0.011118645    -3.171719   0.69385191   439061 
 2021000   0.46185095   -3.1714485   -3.1714485   -2.4786737  0.010004072   -3.1714485   0.69277485   439061 
 2022000   0.46264884   -3.1716695   -3.1716695   -2.4776978     0.010118   -3.1716695   0.69397169   439061 
 2023000   0.46200758   -3.1709405   -3.1709405   -2.4779307  0.010554129   -3.1709405   0.69300979   439061 
 2024000   0.46254238   -3.1720459   -3.1720459   -2.4782339 0.0087326989   -3.1720459   0.69381199   439061 
 2025000   0.46245417   -3.1717135   -3.1717135   -2.4780338 0.0074673332   -3.1717135   0.69367967   439061 
 2026000   0.46255792   -3.1719916   -3.1719916   -2.4781563 0.0095103574   -3.1719916   0.69383531   439061 
 2027000   0.46261987   -3.1723227   -3.1723227   -2.4783944 0.0059172078   -3.1723227   0.69392823   439061 
 2028000   0.46252677   -3.1718328   -3.1718328   -2.4780442   0.01122154   -3.1718328   0.69378858   439061 
 2029000   0.46256219   -3.1724586   -3.1724586   -2.4786169 0.0092935905   -3.1724586   0.69384171   439061 
 2030000   0.46155843   -3.1719911   -3.1719911   -2.4796551  0.010045424   -3.1719911   0.69233608   439061 
 2031000   0.46207731   -3.1735703   -3.1735703   -2.4804559 0.0079282741   -3.1735703   0.69311439   439061 
 2032000    0.4616719   -3.1727602   -3.1727602    -2.480254 0.0075046059   -3.1727602   0.69250628   439061 
 2033000    0.4622969   -3.1736954   -3.1736954   -2.4802516 0.0064655749   -3.1736954   0.69344377   439061 
 2034000   0.46242963   -3.1747021   -3.1747021   -2.4810592 0.0092905338   -3.1747021   0.69364286   439061 
 2035000   0.46237423   -3.1741188   -3.1741188   -2.4805591   0.01377494   -3.1741188   0.69355977   439061 
 2036000   0.46264962   -3.1743764   -3.1743764   -2.4804036  0.013085931   -3.1743764   0.69397285   439061 
 2037000   0.46286555   -3.1744625   -3.1744625   -2.4801658  0.013190396   -3.1744625   0.69429674   439061 
 2038000   0.46304773   -3.1748677   -3.1748677   -2.4802977 0.0085183298   -3.1748677   0.69457001   439061 
 2039000   0.46256873   -3.1752157   -3.1752157   -2.4813642  0.010454455   -3.1752157   0.69385151   439061 
 2040000   0.46256606   -3.1751516   -3.1751516   -2.4813041 0.0074216632   -3.1751516   0.69384751   439061 
 2041000   0.46167635   -3.1747701   -3.1747701   -2.4822572 0.0094293183   -3.1747701   0.69251295   439061 
 2042000   0.46197681   -3.1749833   -3.1749833   -2.4820197 0.0056219604   -3.1749833   0.69296363   439061 
 2043000   0.46180743   -3.1743632   -3.1743632   -2.4816536 0.0079933491   -3.1743632   0.69270957   439061 
 2044000   0.46275626   -3.1757948   -3.1757948    -2.481662 0.0068421976   -3.1757948   0.69413281   439061 
 2045000   0.46246212   -3.1758777   -3.1758777   -2.4821861 0.0083906574   -3.1758777   0.69369159   439061 
 2046000   0.46153027   -3.1748756   -3.1748756   -2.4825817 0.0094683314   -3.1748756   0.69229383   439061 
 2047000   0.46255167   -3.1763143   -3.1763143   -2.4824884 0.0089137902   -3.1763143   0.69382593   439061 
 2048000   0.46242452   -3.1765165   -3.1765165   -2.4828813 0.0061568194   -3.1765165   0.69363521   439061 
 2049000    0.4622832   -3.1757242   -3.1757242    -2.482301 0.0077235789   -3.1757242   0.69342322   439061 
 2050000   0.46158385    -3.175812    -3.175812   -2.4834378  0.013908531    -3.175812    0.6923742   439061 
 2051000   0.46266638   -3.1775436   -3.1775436   -2.4835456  0.010052246   -3.1775436     0.693998   439061 
 2052000   0.46131575   -3.1753152   -3.1753152   -2.4833431  0.011101992   -3.1753152   0.69197205   439061 
 2053000   0.46158298   -3.1763079   -3.1763079    -2.483935 0.0095005708   -3.1763079   0.69237289   439061 
 2054000   0.46170611   -3.1762166   -3.1762166    -2.483659  0.009296196   -3.1762166   0.69255759   439061 
 2055000   0.46203046   -3.1764851   -3.1764851    -2.483441 0.0078222053   -3.1764851   0.69304412   439061 
 2056000   0.46132741   -3.1761556   -3.1761556    -2.484166      0.01016   -3.1761556   0.69198954   439061 
 2057000     0.461756   -3.1768048   -3.1768048   -2.4841724 0.0085995897   -3.1768048   0.69263242   439061 
 2058000   0.46142457   -3.1771485   -3.1771485   -2.4850132 0.0095235955   -3.1771485   0.69213528   439061 
 2059000   0.46202547   -3.1775869   -3.1775869   -2.4845503 0.0076703261   -3.1775869   0.69303663   439061 
 2060000   0.46226963    -3.178248    -3.178248   -2.4848452 0.0082787865    -3.178248   0.69340287   439061 
 2061000   0.46160961   -3.1775767   -3.1775767   -2.4851639 0.0095890554   -3.1775767   0.69241283   439061 
 2062000   0.46173648   -3.1787671   -3.1787671   -2.4861639 0.0082602498   -3.1787671   0.69260315   439061 
 2063000   0.46108866   -3.1768914   -3.1768914     -2.48526   0.01098484   -3.1768914   0.69163141   439061 
 2064000   0.46086427   -3.1764593   -3.1764593   -2.4851644 0.0080968654   -3.1764593   0.69129482   439061 
 2065000   0.46253798   -3.1779425   -3.1779425   -2.4841371 0.0063104997   -3.1779425   0.69380539   439061 
 2066000   0.46156169    -3.176663    -3.176663    -2.484322 0.0098241621    -3.176663   0.69234097   439061 
 2067000   0.46169157   -3.1779054   -3.1779054   -2.4853696 0.0077344727   -3.1779054   0.69253578   439061 
 2068000   0.46191352   -3.1780221   -3.1780221   -2.4851534  0.012615227   -3.1780221    0.6928687   439061 
 2069000   0.46144911   -3.1775852   -3.1775852   -2.4854132  0.013550405   -3.1775852   0.69217209   439061 
 2070000   0.46189518    -3.177922    -3.177922   -2.4850808 0.0093960034    -3.177922    0.6928412   439061 
 2071000   0.46119898   -3.1774108   -3.1774108   -2.4856139  0.010197185   -3.1774108    0.6917969   439061 
 2072000   0.46153147   -3.1775975   -3.1775975   -2.4853018 0.0090978776   -3.1775975   0.69229563   439061 
 2073000   0.46142558   -3.1775898   -3.1775898    -2.485453  0.011016599   -3.1775898    0.6921368   439061 
 2074000   0.46058132   -3.1765562   -3.1765562   -2.4856858 0.0076408708   -3.1765562   0.69087041   439061 
 2075000   0.46142775   -3.1772304   -3.1772304   -2.4850903 0.0066293782   -3.1772304   0.69214005   439061 
 2076000   0.46152326   -3.1775974   -3.1775974   -2.4853141 0.0049989172   -3.1775974   0.69228332   439061 
 2077000   0.46201984   -3.1786583   -3.1786583   -2.4856301 0.0045114699   -3.1786583   0.69302819   439061 
 2078000   0.46115333   -3.1775875   -3.1775875   -2.4858591 0.0079073991   -3.1775875   0.69172842   439061 
 2079000   0.46123546   -3.1781151   -3.1781151   -2.4862635  0.008533227   -3.1781151   0.69185162   439061 
 2080000   0.46171384   -3.1784732   -3.1784732   -2.4859041 0.0070690435   -3.1784732   0.69256919   439061 
 2081000   0.46051716   -3.1774278   -3.1774278   -2.4866536 0.0086250177   -3.1774278   0.69077417   439061 
 2082000   0.46103693    -3.178729    -3.178729   -2.4871751 0.0075958215    -3.178729   0.69155383   439061 
 2083000   0.46045795   -3.1786456   -3.1786456   -2.4879603  0.011595487   -3.1786456   0.69068536   439061 
 2084000   0.46080223   -3.1787704   -3.1787704   -2.4875686   0.01082419   -3.1787704   0.69120177   439061 
 2085000   0.46188625   -3.1804896   -3.1804896   -2.4876618  0.010745621   -3.1804896   0.69282779   439061 
 2086000   0.46145279   -3.1802753   -3.1802753   -2.4880977 0.0079035495   -3.1802753   0.69217761   439061 
 2087000   0.46171091    -3.180239    -3.180239   -2.4876742 0.0094216407    -3.180239   0.69256479   439061 
 2088000   0.46126355   -3.1803058   -3.1803058    -2.488412   0.01076646   -3.1803058   0.69189375   439061 
 2089000   0.46211172   -3.1816335   -3.1816335   -2.4884675  0.007500074   -3.1816335     0.693166   439061 
 2090000   0.46095234   -3.1806319   -3.1806319   -2.4892049  0.010928451   -3.1806319   0.69142694   439061 
 2091000    0.4602308   -3.1793928   -3.1793928   -2.4890482  0.010593059   -3.1793928   0.69034463   439061 
 2092000   0.46042579   -3.1797232   -3.1797232    -2.489086  0.013680252   -3.1797232   0.69063711   439061 
 2093000   0.46032162   -3.1788599   -3.1788599    -2.488379  0.010965639   -3.1788599   0.69048085   439061 
 2094000   0.46105218   -3.1804551   -3.1804551   -2.4888784 0.0067884173   -3.1804551    0.6915767   439061 
 2095000   0.46070505   -3.1804231   -3.1804231   -2.4893672 0.0062964754   -3.1804231     0.691056   439061 
 2096000   0.46078562    -3.180728    -3.180728   -2.4895512 0.0074885263    -3.180728   0.69117686   439061 
 2097000   0.46087154   -3.1806754   -3.1806754   -2.4893697 0.0076103193   -3.1806754   0.69130573   439061 
 2098000   0.46084565    -3.180126    -3.180126   -2.4888591 0.0089136054    -3.180126    0.6912669   439061 
 2099000   0.46098297   -3.1804984   -3.1804984   -2.4890256  0.008943638   -3.1804984   0.69147287   439061 
 2100000   0.46028399   -3.1801089   -3.1801089   -2.4896845  0.010584333   -3.1801089   0.69042441   439061 
 2101000   0.46083885   -3.1811135   -3.1811135   -2.4898568  0.010020397   -3.1811135    0.6912567   439061 
 2102000   0.46086516   -3.1810456   -3.1810456   -2.4897494  0.010885111   -3.1810456   0.69129617   439061 
 2103000   0.46236648   -3.1835504   -3.1835504   -2.4900023 0.0061751954   -3.1835504   0.69354814   439061 
 2104000   0.46115679    -3.181752    -3.181752   -2.4900184   0.01025849    -3.181752   0.69173361   439061 
 2105000   0.46100321   -3.1820143   -3.1820143   -2.4905111 0.0063496902   -3.1820143   0.69150324   439061 
 2106000   0.46065642   -3.1815957   -3.1815957   -2.4906126  0.011614048   -3.1815957   0.69098305   439061 
 2107000   0.46052171   -3.1817441   -3.1817441   -2.4909631 0.0073156672   -3.1817441   0.69078099   439061 
 2108000   0.46074072   -3.1819722   -3.1819722   -2.4908627 0.0076912286   -3.1819722    0.6911095   439061 
 2109000   0.46087807   -3.1822571   -3.1822571   -2.4909416  0.010638985   -3.1822571   0.69131553   439061 
 2110000   0.46088193   -3.1830479   -3.1830479   -2.4917266 0.0046802807   -3.1830479   0.69132132   439061 
 2111000   0.45989727   -3.1813055   -3.1813055   -2.4914611  0.010441106   -3.1813055   0.68984434   439061 
 2112000   0.46042892   -3.1827721   -3.1827721   -2.4921303 0.0078930404   -3.1827721    0.6906418   439061 
 2113000   0.45995081   -3.1820982   -3.1820982   -2.4921735  0.007230745   -3.1820982   0.68992465   439061 
 2114000   0.46014653   -3.1834539   -3.1834539   -2.4932356 0.0077844194   -3.1834539   0.69021823   439061 
 2115000   0.45975907   -3.1822047   -3.1822047   -2.4925677  0.011587203   -3.1822047   0.68963703   439061 
 2116000   0.46078184   -3.1831892   -3.1831892    -2.492018 0.0088851195   -3.1831892   0.69117119   439061 
 2117000   0.46094724   -3.1833377   -3.1833377   -2.4919184 0.0088998481   -3.1833377   0.69141928   439061 
 2118000   0.46141909   -3.1845376   -3.1845376   -2.4924106 0.0095016748   -3.1845376   0.69212707   439061 
 2119000    0.4617838   -3.1842704   -3.1842704   -2.4915963  0.011110762   -3.1842704   0.69267412   439061 
 2120000   0.46122372   -3.1838795   -3.1838795   -2.4920455 0.0063632998   -3.1838795   0.69183401   439061 
 2121000   0.46003471   -3.1828489   -3.1828489   -2.4927984  0.010115463   -3.1828489   0.69005049   439061 
 2122000   0.46023006   -3.1837818   -3.1837818   -2.4934383 0.0084388371   -3.1837818   0.69034352   439061 
 2123000   0.45962457   -3.1840491   -3.1840491   -2.4946139 0.0066986022   -3.1840491   0.68943529   439061 
 2124000   0.46006476   -3.1851292   -3.1851292   -2.4950336 0.0055473711   -3.1851292   0.69009557   439061 
 2125000    0.4602771   -3.1844883   -3.1844883   -2.4940742 0.0053515802   -3.1844883   0.69041408   439061 
 2126000   0.45980883   -3.1845298   -3.1845298   -2.4948182 0.0079260015   -3.1845298   0.68971168   439061 
 2127000   0.46102068   -3.1852942   -3.1852942   -2.4937648 0.0088732903   -3.1852942   0.69152944   439061 
 2128000   0.46042565   -3.1850334   -3.1850334   -2.4943965 0.0094539354   -3.1850334    0.6906369   439061 
 2129000    0.4596748    -3.184446    -3.184446   -2.4949353  0.013376221    -3.184446   0.68951063   439061 
 2130000   0.46006284   -3.1849487   -3.1849487    -2.494856  0.014340389   -3.1849487   0.69009269   439061 
 2131000   0.46074535   -3.1854215   -3.1854215   -2.4943051 0.0099210497   -3.1854215   0.69111645   439061 
 2132000   0.46132273   -3.1868793   -3.1868793   -2.4948968  0.009594902   -3.1868793   0.69198252   439061 
 2133000   0.46100338    -3.187183    -3.187183   -2.4956795 0.0059228931    -3.187183    0.6915035   439061 
 2134000   0.46022097   -3.1862113   -3.1862113   -2.4958814 0.0094184671   -3.1862113   0.69032988   439061 
 2135000   0.45968677   -3.1854467   -3.1854467   -2.4959181 0.0072876474   -3.1854467   0.68952859   439061 
 2136000   0.45981709   -3.1855004   -3.1855004   -2.4957764 0.0081692565   -3.1855004   0.68972406   439061 
 2137000   0.46089173   -3.1863233   -3.1863233   -2.4949873 0.0073311756   -3.1863233   0.69133602   439061 
 2138000   0.46031605    -3.185907    -3.185907   -2.4954345 0.0070128461    -3.185907    0.6904725   439061 
 2139000   0.45898453   -3.1840536   -3.1840536   -2.4955784 0.0061407626   -3.1840536   0.68847523   439061 
 2140000   0.45978381   -3.1853711   -3.1853711   -2.4956969 0.0076037249   -3.1853711   0.68967414   439061 
 2141000   0.45926019   -3.1843304   -3.1843304   -2.4954417 0.0072381656   -3.1843304   0.68888872   439061 
 2142000   0.45905977   -3.1843984   -3.1843984   -2.4958103 0.0073032176   -3.1843984   0.68858809   439061 
 2143000   0.45967022    -3.185574    -3.185574   -2.4960702 0.0075962063    -3.185574   0.68950375   439061 
 2144000   0.46042066   -3.1863528   -3.1863528   -2.4957234  0.006960555   -3.1863528   0.69062941   439061 
 2145000    0.4603785   -3.1866959   -3.1866959   -2.4961297 0.0076024313   -3.1866959   0.69056618   439061 
 2146000   0.46070813   -3.1872198   -3.1872198   -2.4961592 0.0070317432   -3.1872198   0.69106062   439061 
 2147000   0.46036135   -3.1875592   -3.1875592   -2.4970188 0.0064511097   -3.1875592   0.69054046   439061 
 2148000     0.459546   -3.1872476   -3.1872476   -2.4979302 0.0074060582   -3.1872476   0.68931744   439061 
 2149000   0.46013073   -3.1875314   -3.1875314   -2.4973369 0.0072499852   -3.1875314   0.69019452   439061 
 2150000   0.45973547   -3.1871928   -3.1871928   -2.4975912  0.012426006   -3.1871928   0.68960163   439061 
 2151000   0.46015862   -3.1880411   -3.1880411   -2.4978047 0.0097840038   -3.1880411   0.69023636   439061 
 2152000   0.46057942   -3.1889147   -3.1889147   -2.4980471 0.0076714472   -3.1889147   0.69086756   439061 
 2153000   0.45994485   -3.1883803   -3.1883803   -2.4984646  0.010094219   -3.1883803   0.68991571   439061 
 2154000   0.45920882   -3.1882128   -3.1882128   -2.4994011 0.0068008875   -3.1882128   0.68881166   439061 
 2155000    0.4594436   -3.1880963   -3.1880963   -2.4989325  0.010100555   -3.1880963   0.68916383   439061 
 2156000   0.46027106   -3.1892553   -3.1892553   -2.4988502 0.0041106563   -3.1892553   0.69040502   439061 
 2157000   0.45965401   -3.1884756   -3.1884756   -2.4989961  0.008082071   -3.1884756   0.68947944   439061 
 2158000   0.46025083   -3.1894307   -3.1894307    -2.499056 0.0058187168   -3.1894307   0.69037468   439061 
 2159000   0.45991315   -3.1897048   -3.1897048   -2.4998366 0.0052297082   -3.1897048   0.68986815   439061 
 2160000   0.45982388   -3.1890738   -3.1890738   -2.4993395 0.0090252274   -3.1890738   0.68973425   439061 
 2161000   0.45999355   -3.1897441   -3.1897441   -2.4997554 0.0062548405   -3.1897441   0.68998876   439061 
 2162000   0.45988866   -3.1896404   -3.1896404    -2.499809  0.010733591   -3.1896404   0.68983142   439061 
 2163000   0.46034821   -3.1910437   -3.1910437    -2.500523 0.0072033662   -3.1910437   0.69052074   439061 
 2164000    0.4594549   -3.1891264   -3.1891264   -2.4999456 0.0070825453   -3.1891264   0.68918078   439061 
 2165000   0.46017535   -3.1904327   -3.1904327   -2.5001712  0.005649593   -3.1904327   0.69026146   439061 
 2166000   0.46005839   -3.1900184   -3.1900184   -2.4999324 0.0099441957   -3.1900184   0.69008601   439061 
 2167000   0.45897436   -3.1890706   -3.1890706   -2.5006106  0.011855256   -3.1890706   0.68845997   439061 
 2168000   0.45990205   -3.1903368   -3.1903368   -2.5004853 0.0089341427   -3.1903368    0.6898515   439061 
 2169000    0.4594017   -3.1897504   -3.1897504   -2.5006494 0.0090159267   -3.1897504   0.68910097   439061 
 2170000   0.45953562   -3.1901701   -3.1901701   -2.5008682  0.011344834   -3.1901701   0.68930186   439061 
 2171000   0.45972893   -3.1900219   -3.1900219   -2.5004301 0.0079580585   -3.1900219   0.68959183   439061 
 2172000   0.45982658   -3.1904529   -3.1904529   -2.5007146 0.0086931557   -3.1904529   0.68973829   439061 
 2173000   0.45898518   -3.1894539   -3.1894539   -2.5009777 0.0054658942   -3.1894539    0.6884762   439061 
 2174000   0.45863697   -3.1892136   -3.1892136   -2.5012597 0.0077390792   -3.1892136   0.68795389   439061 
 2175000   0.45837966   -3.1891119   -3.1891119    -2.501544 0.0084405835   -3.1891119   0.68756792   439061 
 2176000   0.45951552   -3.1903939   -3.1903939   -2.5011222 0.0054238385   -3.1903939    0.6892717   439061 
 2177000   0.45827069   -3.1891352   -3.1891352   -2.5017308 0.0044640418   -3.1891352   0.68740447   439061 
 2178000   0.45879621   -3.1900122   -3.1900122   -2.5018194 0.0098648979   -3.1900122   0.68819275   439061 
 2179000   0.45924779   -3.1909952   -3.1909952   -2.5021251 0.0095997324   -3.1909952   0.68887011   439061 
 2180000   0.45852978   -3.1897737   -3.1897737   -2.5019806 0.0098689909   -3.1897737    0.6877931   439061 
 2181000   0.45925068   -3.1901683   -3.1901683   -2.5012939  0.012546163   -3.1901683   0.68887445   439061 
 2182000    0.4596801   -3.1915139   -3.1915139   -2.5019954 0.0095242876   -3.1915139   0.68951858   439061 
 2183000   0.45911898   -3.1906805   -3.1906805   -2.5020036  0.010542968   -3.1906805   0.68867691   439061 
 2184000   0.45923702   -3.1911296   -3.1911296   -2.5022756  0.013387945   -3.1911296   0.68885396   439061 
 2185000   0.46074163    -3.193243    -3.193243   -2.5021322  0.011381659    -3.193243   0.69111087   439061 
 2186000   0.45976704   -3.1920624   -3.1920624   -2.5024134  0.012205558   -3.1920624   0.68964899   439061 
 2187000   0.45977866   -3.1924722   -3.1924722   -2.5028058 0.0067983517   -3.1924722   0.68966641   439061 
 2188000   0.45888145   -3.1912874   -3.1912874   -2.5029668 0.0089784154   -3.1912874   0.68832061   439061 
 2189000    0.4587784   -3.1919591   -3.1919591    -2.503793  0.005814626   -3.1919591   0.68816603   439061 
 2190000   0.45936198   -3.1925129   -3.1925129   -2.5034715  0.003086934   -3.1925129    0.6890414   439061 
 2191000   0.45861449   -3.1909681   -3.1909681    -2.503048 0.0043567253   -3.1909681   0.68792017   439061 
 2192000    0.4589767   -3.1914355   -3.1914355    -2.502972 0.0090190278   -3.1914355   0.68846348   439061 
 2193000    0.4596032   -3.1927714   -3.1927714   -2.5033682  0.007239411   -3.1927714   0.68940323   439061 
 2194000    0.4589096   -3.1916921   -3.1916921   -2.5033293 0.0049709547   -3.1916921   0.68836283   439061 
 2195000   0.45975596   -3.1929163   -3.1929163   -2.5032839 0.0062348301   -3.1929163   0.68963238   439061 
 2196000    0.4590485   -3.1925333   -3.1925333   -2.5039621  0.010601632   -3.1925333   0.68857118   439061 
 2197000   0.45893573   -3.1932491   -3.1932491   -2.5048471  0.009259619   -3.1932491   0.68840202   439061 
 2198000   0.45977083   -3.1942369   -3.1942369   -2.5045823  0.006719439   -3.1942369   0.68965468   439061 
 2199000   0.45904316    -3.193371    -3.193371   -2.5048078 0.0091540151    -3.193371   0.68856318   439061 
 2200000   0.45898073   -3.1930926   -3.1930926   -2.5046231  0.011924459   -3.1930926   0.68846952   439061 
 2201000   0.45787663   -3.1927284   -3.1927284    -2.505915  0.012535411   -3.1927284   0.68681338   439061 
 2202000   0.45915869   -3.1941807   -3.1941807   -2.5054442 0.0083114779   -3.1941807   0.68873647   439061 
 2203000   0.45893075   -3.1940168   -3.1940168   -2.5056223 0.0083348101   -3.1940168   0.68839456   439061 
 2204000    0.4592358   -3.1939603   -3.1939603   -2.5051081 0.0071023856   -3.1939603   0.68885214   439061 
 2205000   0.45848781   -3.1928563   -3.1928563   -2.5051261 0.0074584908   -3.1928563   0.68773015   439061 
 2206000   0.45972504   -3.1941696   -3.1941696   -2.5045836 0.0085162964   -3.1941696   0.68958599   439061 
 2207000    0.4594775   -3.1941507   -3.1941507    -2.504936 0.0056379545   -3.1941507   0.68921468   439061 
 2208000   0.45944014   -3.1941104   -3.1941104   -2.5049518 0.0081057895   -3.1941104   0.68915864   439061 
 2209000   0.45940251   -3.1943155   -3.1943155   -2.5052133 0.0083158468   -3.1943155   0.68910219   439061 
 2210000   0.45910161   -3.1940485   -3.1940485   -2.5053977 0.0071650877   -3.1940485   0.68865084   439061 
 2211000   0.45867111    -3.193194    -3.193194   -2.5051889 0.0092972211    -3.193194    0.6880051   439061 
 2212000    0.4585293   -3.1930359   -3.1930359   -2.5052435  0.010625911   -3.1930359   0.68779239   439061 
 2213000   0.45911319   -3.1930142   -3.1930142    -2.504346 0.0067992138   -3.1930142   0.68866821   439061 
 2214000   0.45927663   -3.1934897   -3.1934897   -2.5045763  0.010998023   -3.1934897   0.68891337   439061 
 2215000    0.4595336   -3.1938814   -3.1938814   -2.5045826 0.0087093189   -3.1938814   0.68929883   439061 
 2216000   0.45932925   -3.1935139   -3.1935139   -2.5045216 0.0076615752   -3.1935139   0.68899231   439061 
 2217000   0.45838939   -3.1933119   -3.1933119   -2.5057294 0.0015712673   -3.1933119   0.68758252   439061 
 2218000   0.45771311   -3.1919484   -3.1919484   -2.5053803  0.005853451   -3.1919484    0.6865681   439061 
 2219000   0.45849467   -3.1933127   -3.1933127   -2.5055722 0.0054235669   -3.1933127   0.68774044   439061 
 2220000   0.45919258   -3.1929917   -3.1929917   -2.5042044  0.010617166   -3.1929917   0.68878729   439061 
 2221000   0.45858963   -3.1932613   -3.1932613   -2.5053784 0.0080591386   -3.1932613   0.68788288   439061 
 2222000   0.45895474   -3.1943764   -3.1943764   -2.5059459  0.011882261   -3.1943764   0.68843055   439061 
 2223000    0.4587667   -3.1939561   -3.1939561   -2.5058076  0.011327568   -3.1939561   0.68814848   439061 
 2224000   0.45830246    -3.194083    -3.194083   -2.5066309 0.0061644291    -3.194083   0.68745213   439061 
 2225000   0.45817859   -3.1945881   -3.1945881   -2.5073217 0.0040336067   -3.1945881   0.68726632   439061 
 2226000   0.45867687   -3.1952279   -3.1952279   -2.5072141 0.0052555735   -3.1952279   0.68801374   439061 
 2227000   0.45937216   -3.1960126   -3.1960126   -2.5069559 0.0057552212   -3.1960126   0.68905667   439061 
 2228000   0.45962188   -3.1960633   -3.1960633   -2.5066321 0.0096243809   -3.1960633   0.68943124   439061 
 2229000   0.45941806   -3.1959093   -3.1959093   -2.5067838 0.0089590362   -3.1959093   0.68912552   439061 
 2230000   0.45918788   -3.1960527   -3.1960527   -2.5072724 0.0069006463   -3.1960527   0.68878024   439061 
 2231000   0.45902034   -3.1954816   -3.1954816   -2.5069526 0.0084645784   -3.1954816   0.68852894   439061 
 2232000    0.4593445   -3.1963639   -3.1963639   -2.5073487 0.0037057296   -3.1963639   0.68901517   439061 
 2233000   0.45907894   -3.1954883   -3.1954883   -2.5068714 0.0099266567   -3.1954883   0.68861685   439061 
 2234000   0.45985826   -3.1967764   -3.1967764   -2.5069905  0.009462752   -3.1967764   0.68978581   439061 
 2235000   0.45913562   -3.1955305   -3.1955305   -2.5068287  0.011729918   -3.1955305   0.68870187   439061 
 2236000   0.45821647   -3.1948677   -3.1948677   -2.5075445 0.0084339107   -3.1948677   0.68732314   439061 
 2237000   0.45812357   -3.1945395   -3.1945395   -2.5073557  0.010324952   -3.1945395    0.6871838   439061 
 2238000   0.45802701     -3.19487     -3.19487    -2.507831 0.0080768265     -3.19487   0.68703895   439061 
 2239000   0.45859441   -3.1953881   -3.1953881   -2.5074981 0.0049337909   -3.1953881   0.68789005   439061 
 2240000   0.45892839   -3.1955913   -3.1955913   -2.5072003 0.0058705215   -3.1955913   0.68839101   439061 
 2241000   0.45945862    -3.196348    -3.196348   -2.5071617 0.0068875804    -3.196348   0.68918635   439061 
 2242000    0.4587135      -3.1952      -3.1952   -2.5071313 0.0096508778      -3.1952   0.68806868   439061 
 2243000    0.4586187   -3.1956659   -3.1956659   -2.5077394 0.0065087617   -3.1956659   0.68792648   439061 
 2244000   0.45816027   -3.1951799   -3.1951799   -2.5079411 0.0088648098   -3.1951799   0.68723884   439061 
 2245000   0.45823446    -3.195627    -3.195627   -2.5082769 0.0092632967    -3.195627   0.68735012   439061 
 2246000    0.4588082    -3.196655    -3.196655   -2.5084443 0.0056985494    -3.196655   0.68821073   439061 
 2247000   0.45844425   -3.1968945   -3.1968945   -2.5092297 0.0084253298   -3.1968945    0.6876648   439061 
 2248000   0.45887474   -3.1971351   -3.1971351   -2.5088245  0.010461354   -3.1971351   0.68831054   439061 
 2249000    0.4589162   -3.1969974   -3.1969974   -2.5086246  0.012505767   -3.1969974   0.68837273   439061 
 2250000   0.45888566   -3.1972066   -3.1972066   -2.5088796  0.010638498   -3.1972066   0.68832692   439061 
 2251000   0.45964151   -3.1973688   -3.1973688   -2.5079081  0.011892402   -3.1973688   0.68946069   439061 
 2252000   0.45902818    -3.196338    -3.196338   -2.5077973  0.011116429    -3.196338    0.6885407   439061 
 2253000   0.45843801   -3.1970222   -3.1970222   -2.5093667  0.009310772   -3.1970222   0.68765544   439061 
 2254000   0.45813272   -3.1973577   -3.1973577   -2.5101602 0.0099176844   -3.1973577   0.68719752   439061 
 2255000   0.45766936   -3.1960041   -3.1960041   -2.5095016 0.0051325009   -3.1960041   0.68650247   439061 
 2256000   0.45776737   -3.1959144   -3.1959144   -2.5092649 0.0059169952   -3.1959144   0.68664949   439061 
 2257000   0.45859848   -3.1972079   -3.1972079   -2.5093117 0.0029104938   -3.1972079   0.68789616   439061 
 2258000   0.45829767   -3.1964227   -3.1964227   -2.5089778 0.0055381736   -3.1964227   0.68744493   439061 
 2259000   0.45929201   -3.1970585   -3.1970585   -2.5081221  0.006866136   -3.1970585   0.68893644   439061 
 2260000   0.45893986   -3.1962356   -3.1962356   -2.5078273 0.0085311717   -3.1962356   0.68840822   439061 
 2261000   0.45913527   -3.1966845   -3.1966845   -2.5079832 0.0080334347   -3.1966845   0.68870133   439061 
 2262000   0.45822981   -3.1956174   -3.1956174   -2.5082742  0.010540015   -3.1956174   0.68734316   439061 
 2263000   0.45865464   -3.1969827   -3.1969827   -2.5090023 0.0090164415   -3.1969827   0.68798039   439061 
 2264000   0.45923837   -3.1975205   -3.1975205   -2.5086645 0.0070729545   -3.1975205   0.68885598   439061 
 2265000   0.45808125   -3.1965746   -3.1965746   -2.5094543 0.0077479895   -3.1965746   0.68712032   439061 
 2266000   0.45832719   -3.1969688   -3.1969688   -2.5094796 0.0098165385   -3.1969688   0.68748921   439061 
 2267000   0.45836486   -3.1970197   -3.1970197    -2.509474  0.010657891   -3.1970197   0.68754572   439061 
 2268000   0.45763448   -3.1969492   -3.1969492   -2.5104991 0.0071940832   -3.1969492   0.68645016   439061 
 2269000   0.45799021   -3.1969351   -3.1969351   -2.5099513 0.0050311568   -3.1969351   0.68698374   439061 
 2270000   0.45844282   -3.1974922   -3.1974922   -2.5098296 0.0074174383   -3.1974922   0.68766266   439061 
 2271000   0.45940196   -3.1981713   -3.1981713     -2.50907  0.008814326   -3.1981713   0.68910137   439061 
 2272000   0.45898294   -3.1974469   -3.1974469    -2.508974  0.010524258   -3.1974469   0.68847284   439061 
 2273000   0.45876842   -3.1973198   -3.1973198   -2.5091688  0.011756293   -3.1973198   0.68815107   439061 
 2274000   0.45836327   -3.1973786   -3.1973786   -2.5098353 0.0092994327   -3.1973786   0.68754334   439061 
 2275000   0.45775076    -3.197409    -3.197409   -2.5107844 0.0073657396    -3.197409   0.68662457   439061 
 2276000   0.45783421   -3.1975609   -3.1975609   -2.5108112 0.0076517006   -3.1975609   0.68674975   439061 
 2277000   0.45790851   -3.1981896   -3.1981896   -2.5113284 0.0078315367   -3.1981896    0.6868612   439061 
 2278000   0.45800734    -3.198237    -3.198237   -2.5112276 0.0062725862    -3.198237   0.68700945   439061 
 2279000   0.45830904   -3.1986011   -3.1986011   -2.5111391 0.0076828764   -3.1986011   0.68746199   439061 
 2280000   0.45772483   -3.1984634   -3.1984634   -2.5118777 0.0072270821   -3.1984634   0.68658568   439061 
 2281000   0.45785297    -3.198931    -3.198931   -2.5121531 0.0090617348    -3.198931   0.68677789   439061 
 2282000   0.45783274   -3.1985243   -3.1985243   -2.5117767  0.011602017   -3.1985243   0.68674754   439061 
 2283000    0.4581643   -3.1989292   -3.1989292   -2.5116843  0.010973622   -3.1989292   0.68724488   439061 
 2284000   0.45841774   -3.2001687   -3.2001687   -2.5125437 0.0092276943   -3.2001687   0.68762504   439061 
 2285000   0.45771893    -3.198878    -3.198878   -2.5123012  0.009958605    -3.198878   0.68657684   439061 
 2286000   0.45836286   -3.2000495   -3.2000495   -2.5125067 0.0096689549   -3.2000495   0.68754273   439061 
 2287000   0.45763032   -3.1990183   -3.1990183   -2.5125744  0.011520547   -3.1990183   0.68644392   439061 
 2288000   0.45878662   -3.2007245   -3.2007245   -2.5125461   0.00693737   -3.2007245   0.68817837   439061 
 2289000   0.45771397   -3.1995063   -3.1995063   -2.5129369 0.0096472443   -3.1995063    0.6865694   439061 
 2290000    0.4589063   -3.2005498   -3.2005498   -2.5121919 0.0042556421   -3.2005498   0.68835788   439061 
 2291000   0.45824847     -3.20007     -3.20007   -2.5126989 0.0071777157     -3.20007   0.68737114   439061 
 2292000   0.45805185   -3.1997814   -3.1997814   -2.5127052 0.0084807017   -3.1997814    0.6870762   439061 
 2293000    0.4573408   -3.1997932   -3.1997932   -2.5137835 0.0083567352   -3.1997932   0.68600963   439061 
 2294000   0.45747116   -3.2004253   -3.2004253   -2.5142201   0.00683171   -3.2004253   0.68620518   439061 
 2295000   0.45791407   -3.2010332   -3.2010332   -2.5141636 0.0084396748   -3.2010332   0.68686954   439061 
 2296000   0.45730263   -3.2006764   -3.2006764    -2.514724 0.0065956171   -3.2006764   0.68595238   439061 
 2297000   0.45778521   -3.2009522   -3.2009522    -2.514276 0.0095244083   -3.2009522   0.68667624   439061 
 2298000   0.45799104   -3.2012269   -3.2012269   -2.5142419 0.0094308919   -3.2012269     0.686985   439061 
 2299000   0.45827617   -3.2018222   -3.2018222   -2.5144095  0.012676171   -3.2018222   0.68741269   439061 
 2300000   0.45782964   -3.2013165   -3.2013165   -2.5145736  0.011649318   -3.2013165    0.6867429   439061 
 2301000   0.45861507   -3.2026578   -3.2026578   -2.5147368 0.0094422024   -3.2026578   0.68792103   439061 
 2302000   0.45834477   -3.2017987   -3.2017987   -2.5142832  0.011496068   -3.2017987   0.68751559   439061 
 2303000   0.45772643   -3.2012765   -3.2012765   -2.5146884 0.0082199996   -3.2012765   0.68658808   439061 
 2304000   0.45782599   -3.2015173   -3.2015173   -2.5147799 0.0082730725   -3.2015173   0.68673742   439061 
 2305000   0.45673397   -3.1993627   -3.1993627   -2.5142633 0.0088258055   -3.1993627   0.68509939   439061 
 2306000   0.45709849   -3.1993088   -3.1993088   -2.5136626 0.0083430554   -3.1993088   0.68564617   439061 
 2307000   0.45728999   -3.1996558   -3.1996558   -2.5137224 0.0063386288   -3.1996558   0.68593343   439061 
 2308000   0.45698035   -3.1996769   -3.1996769   -2.5142079 0.0074733107   -3.1996769   0.68546897   439061 
 2309000   0.45699904   -3.1993837   -3.1993837   -2.5138867 0.0040137216   -3.1993837   0.68549699   439061 
 2310000   0.45720463    -3.199212    -3.199212   -2.5134067 0.0076032212    -3.199212   0.68580538   439061 
 2311000   0.45717152   -3.1991439   -3.1991439   -2.5133882 0.0081107483   -3.1991439   0.68575572   439061 
 2312000   0.45833475   -3.2010904   -3.2010904   -2.5135898  0.002339838   -3.2010904   0.68750056   439061 
 2313000   0.45775596   -3.2004446   -3.2004446   -2.5138123 0.0039819106   -3.2004446   0.68663238   439061 
 2314000   0.45705612   -3.1997203   -3.1997203   -2.5141377 0.0063411654   -3.1997203   0.68558263   439061 
 2315000    0.4572042   -3.2005363   -3.2005363   -2.5147315 0.0047302648   -3.2005363   0.68580474   439061 
 2316000   0.45762681   -3.2013849   -3.2013849   -2.5149462  0.006582043   -3.2013849   0.68643865   439061 
 2317000   0.45777971   -3.2021336   -3.2021336   -2.5154656 0.0092776259   -3.2021336     0.686668   439061 
 2318000   0.45784303   -3.2027945   -3.2027945   -2.5160316 0.0074547771   -3.2027945   0.68676298   439061 
 2319000   0.45809457   -3.2022725   -3.2022725   -2.5151322  0.010821627   -3.2022725   0.68714029   439061 
 2320000   0.45736172   -3.2017382   -3.2017382   -2.5156972  0.011620248   -3.2017382   0.68604102   439061 
 2321000   0.45795927   -3.2021447   -3.2021447   -2.5152073  0.010415556   -3.2021447   0.68693733   439061 
 2322000   0.45844049   -3.2036122   -3.2036122    -2.515953 0.0066147766   -3.2036122   0.68765917   439061 
 2323000   0.45767551   -3.2029682   -3.2029682   -2.5164565 0.0079695101   -3.2029682    0.6865117   439061 
 2324000   0.45754965     -3.20219     -3.20219   -2.5158671  0.010897134     -3.20219   0.68632291   439061 
 2325000   0.45747749   -3.2023047   -3.2023047   -2.5160901 0.0087633398   -3.2023047   0.68621468   439061 
 2326000   0.45684598   -3.2016326   -3.2016326   -2.5163652 0.0087405643   -3.2016326    0.6852674   439061 
 2327000   0.45707953    -3.202113    -3.202113   -2.5164952  0.005627894    -3.202113   0.68561774   439061 
 2328000   0.45715243   -3.2028217   -3.2028217   -2.5170946  0.005732672   -3.2028217   0.68572708   439061 
 2329000   0.45713389   -3.2021421   -3.2021421   -2.5164428 0.0035778141   -3.2021421   0.68569927   439061 
 2330000    0.4574385   -3.2025163   -3.2025163   -2.5163601 0.0045344872   -3.2025163   0.68615619   439061 
 2331000   0.45713249   -3.2015336   -3.2015336   -2.5158364 0.0076197519   -3.2015336   0.68569717   439061 
 2332000   0.45722131    -3.202067    -3.202067   -2.5162366 0.0075947155    -3.202067   0.68583041   439061 
 2333000   0.45700658   -3.2014221   -3.2014221   -2.5159138 0.0096517087   -3.2014221    0.6855083   439061 
 2334000   0.45750623   -3.2021811   -3.2021811   -2.5159234  0.012346524   -3.2021811   0.68625778   439061 
 2335000   0.45722622   -3.2017676   -3.2017676   -2.5159299  0.010905638   -3.2017676   0.68583776   439061 
 2336000   0.45753806   -3.2034838   -3.2034838   -2.5171783 0.0078381371   -3.2034838   0.68630553   439061 
 2337000   0.45684362   -3.2030019   -3.2030019    -2.517738 0.0078990176   -3.2030019   0.68526387   439061 
 2338000   0.45729952   -3.2045913   -3.2045913   -2.5186435 0.0069685687   -3.2045913   0.68594772   439061 
 2339000   0.45668121   -3.2031529   -3.2031529   -2.5181326 0.0059533559   -3.2031529   0.68502026   439061 
 2340000    0.4578513   -3.2052122   -3.2052122   -2.5184368 0.0054711211   -3.2052122   0.68677539   439061 
 2341000   0.45731413   -3.2039798   -3.2039798   -2.5180102 0.0095480247   -3.2039798   0.68596963   439061 
 2342000   0.45731362   -3.2044924   -3.2044924   -2.5185235  0.011558847   -3.2044924   0.68596887   439061 
 2343000   0.45753925   -3.2042425   -3.2042425   -2.5179351 0.0090753051   -3.2042425   0.68630731   439061 
 2344000   0.45841528    -3.205081    -3.205081   -2.5174597  0.009704651    -3.205081   0.68762136   439061 
 2345000   0.45753088   -3.2043734   -3.2043734   -2.5180787  0.011681578   -3.2043734   0.68629476   439061 
 2346000   0.45757199    -3.204963    -3.204963   -2.5186066 0.0090218677    -3.204963   0.68635642   439061 
 2347000   0.45704349    -3.204226    -3.204226   -2.5186623  0.007360263    -3.204226   0.68556367   439061 
 2348000    0.4568093   -3.2041539   -3.2041539   -2.5189415  0.009894649   -3.2041539   0.68521239   439061 
 2349000   0.45652164   -3.2036428   -3.2036428   -2.5188619 0.0080585761   -3.2036428    0.6847809   439061 
 2350000   0.45694589   -3.2038304   -3.2038304   -2.5184131 0.0051066641   -3.2038304   0.68541728   439061 
 2351000   0.45733068   -3.2053272   -3.2053272   -2.5193327 0.0050096048   -3.2053272   0.68599445   439061 
 2352000   0.45680021   -3.2043291   -3.2043291   -2.5191304 0.0071579047   -3.2043291   0.68519875   439061 
 2353000    0.4565167   -3.2039445   -3.2039445    -2.519171 0.0071392604   -3.2039445   0.68477349   439061 
 2354000   0.45639987   -3.2041665   -3.2041665   -2.5195682 0.0052704495   -3.2041665   0.68459825   439061 
 2355000    0.4568836   -3.2052054   -3.2052054   -2.5198816 0.0047111822   -3.2052054   0.68532383   439061 
 2356000    0.4570941   -3.2052854   -3.2052854   -2.5196458  0.007737722   -3.2052854   0.68563959   439061 
 2357000    0.4570612   -3.2055986   -3.2055986   -2.5200084 0.0082304125   -3.2055986   0.68559024   439061 
 2358000   0.45714515   -3.2062287   -3.2062287   -2.5205126 0.0090666301   -3.2062287   0.68571617   439061 
 2359000   0.45721666   -3.2063634   -3.2063634   -2.5205399  0.011467748   -3.2063634   0.68582342   439061 
 2360000     0.457053   -3.2069617   -3.2069617   -2.5213838 0.0079668066   -3.2069617   0.68557794   439061 
 2361000   0.45711368    -3.207485    -3.207485    -2.521816 0.0067610504    -3.207485   0.68566896   439061 
 2362000   0.45761249   -3.2077378   -3.2077378   -2.5213207 0.0094775527   -3.2077378   0.68641717   439061 
 2363000   0.45723437   -3.2072213   -3.2072213   -2.5213713 0.0095471683   -3.2072213      0.68585   439061 
 2364000   0.45704526   -3.2069566   -3.2069566   -2.5213902  0.011129272   -3.2069566   0.68556633   439061 
 2365000   0.45783459   -3.2079077   -3.2079077   -2.5211574 0.0093763813   -3.2079077   0.68675031   439061 
 2366000    0.4567082   -3.2054746   -3.2054746   -2.5204138  0.010123011   -3.2054746   0.68506075   439061 
 2367000    0.4573609   -3.2063887   -3.2063887   -2.5203489 0.0072960607   -3.2063887   0.68603979   439061 
 2368000   0.45651396   -3.2050471   -3.2050471   -2.5202777 0.0073935944   -3.2050471   0.68476938   439061 
 2369000   0.45706362   -3.2055233   -3.2055233   -2.5199295  0.003439143   -3.2055233   0.68559386   439061 
 2370000   0.45592483   -3.2043835   -3.2043835   -2.5204978 0.0066771354   -3.2043835   0.68388568   439061 
 2371000   0.45605375   -3.2048822   -3.2048822   -2.5208032 0.0032560667   -3.2048822   0.68407907   439061 
 2372000   0.45634861    -3.204502    -3.204502   -2.5199806 0.0040869683    -3.204502   0.68452136   439061 
 2373000   0.45631823   -3.2051648   -3.2051648    -2.520689 0.0065202923   -3.2051648   0.68447578   439061 
 2374000   0.45615366   -3.2051569   -3.2051569    -2.520928 0.0061665446   -3.2051569   0.68422894   439061 
 2375000   0.45702717   -3.2060714   -3.2060714   -2.5205322 0.0085558368   -3.2060714    0.6855392   439061 
 2376000   0.45582091   -3.2049803   -3.2049803   -2.5212505  0.010688902   -3.2049803    0.6837298   439061 
 2377000     0.456745   -3.2067759   -3.2067759   -2.5216599 0.0070657295   -3.2067759   0.68511593   439061 
 2378000   0.45692599   -3.2073193   -3.2073193   -2.5219319 0.0028797474   -3.2073193   0.68538743   439061 
 2379000   0.45683223   -3.2079564   -3.2079564   -2.5227097 0.0043066488   -3.2079564   0.68524678   439061 
 2380000   0.45666957   -3.2081311   -3.2081311   -2.5231283 0.0086110333   -3.2081311    0.6850028   439061 
 2381000   0.45682061   -3.2082588   -3.2082588   -2.5230294  0.010612414   -3.2082588   0.68522935   439061 
 2382000   0.45670837    -3.208729    -3.208729    -2.523668  0.010105331    -3.208729   0.68506099   439061 
 2383000   0.45778833   -3.2101623   -3.2101623   -2.5234814  0.010294815   -3.2101623   0.68668093   439061 
 2384000   0.45628685    -3.208414    -3.208414   -2.5239853  0.011996359    -3.208414   0.68442871   439061 
 2385000   0.45661569   -3.2086228   -3.2086228   -2.5237008  0.011499925   -3.2086228   0.68492198   439061 
 2386000   0.45612179   -3.2081465   -3.2081465   -2.5239654  0.010011629   -3.2081465   0.68418113   439061 
 2387000   0.45661079   -3.2094406   -3.2094406    -2.524526 0.0071874376   -3.2094406   0.68491462   439061 
 2388000   0.45600281    -3.208593    -3.208593   -2.5245904 0.0079065397    -3.208593   0.68400266   439061 
 2389000   0.45723575   -3.2106306   -3.2106306   -2.5247785 0.0046534079   -3.2106306   0.68585207   439061 
 2390000   0.45611812    -3.208932    -3.208932   -2.5247564 0.0072850947    -3.208932   0.68417562   439061 
 2391000   0.45672035   -3.2097235   -3.2097235   -2.5246445 0.0060103665   -3.2097235   0.68507897   439061 
 2392000   0.45611391    -3.208381    -3.208381   -2.5242116 0.0080077841    -3.208381   0.68416931   439061 
 2393000   0.45582385   -3.2084452   -3.2084452    -2.524711  0.010588966   -3.2084452   0.68373422   439061 
 2394000   0.45718696   -3.2095119   -3.2095119    -2.523733  0.010230778   -3.2095119   0.68577888   439061 
 2395000   0.45644509   -3.2087262   -3.2087262   -2.5240601 0.0063466826   -3.2087262   0.68466607   439061 
 2396000   0.45683577   -3.2091476   -3.2091476   -2.5238955 0.0080427997   -3.2091476   0.68525209   439061 
 2397000    0.4563146   -3.2090245   -3.2090245   -2.5245542 0.0064511317   -3.2090245   0.68447033   439061 
 2398000   0.45568797   -3.2089801   -3.2089801   -2.5254498 0.0053019092   -3.2089801   0.68353039   439061 
 2399000   0.45619529   -3.2089121   -3.2089121   -2.5246208 0.0070873986   -3.2089121   0.68429138   439061 
 2400000   0.45593653   -3.2085236   -3.2085236   -2.5246204 0.0083397181   -3.2085236   0.68390323   439061 
 2401000   0.45621567   -3.2092448   -3.2092448   -2.5249229 0.0042000512   -3.2092448   0.68432195   439061 
 2402000   0.45695022   -3.2098451   -3.2098451   -2.5244213 0.0062905479   -3.2098451   0.68542378   439061 
 2403000   0.45658368   -3.2093456   -3.2093456   -2.5244717 0.0090915228   -3.2093456   0.68487396   439061 
 2404000   0.45642642   -3.2092267   -3.2092267   -2.5245886  0.008965616   -3.2092267   0.68463806   439061 
 2405000    0.4562012   -3.2095249   -3.2095249   -2.5252246 0.0080796352   -3.2095249   0.68430024   439061 
 2406000   0.45622069    -3.210108    -3.210108   -2.5257785 0.0063046937    -3.210108   0.68432947   439061 
 2407000   0.45641708   -3.2102845   -3.2102845   -2.5256605 0.0078579728   -3.2102845   0.68462406   439061 
 2408000   0.45624692   -3.2100781   -3.2100781   -2.5257093 0.0082092146   -3.2100781   0.68436882   439061 
 2409000   0.45608728   -3.2102986   -3.2102986   -2.5261693 0.0082819753   -3.2102986   0.68412936   439061 
 2410000   0.45539447   -3.2091455   -3.2091455   -2.5260554 0.0082824047   -3.2091455   0.68309015   439061 
 2411000     0.455801   -3.2092764   -3.2092764   -2.5255765  0.010338459   -3.2092764   0.68369994   439061 
 2412000   0.45601922   -3.2103857   -3.2103857   -2.5263584  0.010240692   -3.2103857   0.68402726   439061 
 2413000   0.45636875   -3.2107838   -3.2107838   -2.5262323 0.0093336131   -3.2107838   0.68455156   439061 
 2414000   0.45658796   -3.2107427   -3.2107427   -2.5258623  0.010185977   -3.2107427   0.68488038   439061 
 2415000   0.45660303    -3.211167    -3.211167    -2.526264 0.0078347437    -3.211167   0.68490298   439061 
 2416000    0.4562507   -3.2108922   -3.2108922   -2.5265177 0.0080328297   -3.2108922    0.6843745   439061 
 2417000   0.45602774   -3.2103958   -3.2103958   -2.5263557 0.0093840333   -3.2103958   0.68404004   439061 
 2418000   0.45652863   -3.2113761   -3.2113761   -2.5265847 0.0054409497   -3.2113761   0.68479138   439061 
 2419000   0.45657804   -3.2112254   -3.2112254   -2.5263599 0.0060166347   -3.2112254   0.68486549   439061 
 2420000   0.45582518   -3.2095081   -3.2095081   -2.5257719  0.011076725   -3.2095081   0.68373622   439061 
 2421000   0.45611267   -3.2096332   -3.2096332   -2.5254658 0.0068523755   -3.2096332   0.68416745   439061 
 2422000   0.45528321    -3.209385    -3.209385   -2.5264617 0.0056902282    -3.209385   0.68292325   439061 
 2423000   0.45597929    -3.210548    -3.210548   -2.5265806 0.0064906316    -3.210548   0.68396737   439061 
 2424000   0.45597832   -3.2107336   -3.2107336   -2.5267676 0.0058998144   -3.2107336   0.68396592   439061 
 2425000   0.45596521   -3.2103942   -3.2103942   -2.5264479 0.0064931518   -3.2103942   0.68394626   439061 
 2426000   0.45616137   -3.2110153   -3.2110153   -2.5267748 0.0097583153   -3.2110153   0.68424049   439061 
 2427000   0.45612692   -3.2109576   -3.2109576   -2.5267688 0.0089165272   -3.2109576   0.68418882   439061 
 2428000   0.45681329   -3.2127815   -3.2127815   -2.5275631 0.0065073064   -3.2127815   0.68521838   439061 
 2429000     0.456398   -3.2121455   -3.2121455   -2.5275501 0.0082361736   -3.2121455   0.68459544   439061 
 2430000   0.45591214     -3.21158     -3.21158   -2.5277133  0.009525097     -3.21158   0.68386665   439061 
 2431000   0.45643405   -3.2118894   -3.2118894   -2.5272398  0.010471687   -3.2118894   0.68464952   439061 
 2432000   0.45688693   -3.2135946   -3.2135946   -2.5282657 0.0079141121   -3.2135946   0.68532883   439061 
 2433000    0.4560058   -3.2128757   -3.2128757   -2.5288685 0.0090199362   -3.2128757   0.68400715   439061 
 2434000   0.45635677   -3.2135506   -3.2135506    -2.529017 0.0082137699   -3.2135506    0.6845336   439061 
 2435000   0.45646652   -3.2134568   -3.2134568   -2.5287586 0.0086390384   -3.2134568   0.68469822   439061 
 2436000   0.45611999   -3.2130424   -3.2130424   -2.5288639 0.0080498587   -3.2130424   0.68417843   439061 
 2437000   0.45589999   -3.2123189   -3.2123189   -2.5284704  0.009123551   -3.2123189   0.68384843   439061 
 2438000   0.45649422   -3.2134712   -3.2134712   -2.5287314 0.0084640687   -3.2134712   0.68473978   439061 
 2439000   0.45599699   -3.2127369   -3.2127369    -2.528743 0.0070724777   -3.2127369   0.68399393   439061 
 2440000   0.45635166   -3.2131916   -3.2131916   -2.5286657 0.0065483947   -3.2131916   0.68452594   439061 
 2441000   0.45626456   -3.2121755   -3.2121755   -2.5277802 0.0060463169   -3.2121755   0.68439529   439061 
 2442000   0.45634597   -3.2122951   -3.2122951   -2.5277778 0.0074969731   -3.2122951   0.68451739   439061 
 2443000   0.45540661   -3.2107782   -3.2107782   -2.5276698 0.0091688984   -3.2107782   0.68310836   439061 
 2444000   0.45553732   -3.2110425   -3.2110425    -2.527738  0.010322554   -3.2110425   0.68330443   439061 
 2445000   0.45535966   -3.2110658   -3.2110658   -2.5280278   0.00907728   -3.2110658   0.68303793   439061 
 2446000   0.45581613   -3.2124122   -3.2124122   -2.5286896 0.0052938252   -3.2124122   0.68372265   439061 
 2447000   0.45486099   -3.2107121   -3.2107121   -2.5284222 0.0047245024   -3.2107121   0.68228993   439061 
 2448000   0.45576322   -3.2118091   -3.2118091   -2.5281659 0.0031520629   -3.2118091   0.68364328   439061 
 2449000    0.4552663   -3.2111417   -3.2111417   -2.5282438 0.0070533171   -3.2111417    0.6828979   439061 
 2450000   0.45539288    -3.211919    -3.211919   -2.5288313 0.0072941199    -3.211919   0.68308777   439061 
 2451000   0.45617179   -3.2134668   -3.2134668   -2.5292107 0.0087505853   -3.2134668   0.68425612   439061 
 2452000   0.45592904   -3.2130283   -3.2130283   -2.5291363 0.0049780434   -3.2130283     0.683892   439061 
 2453000   0.45586035   -3.2123843   -3.2123843   -2.5285953 0.0091256101   -3.2123843   0.68378897   439061 
 2454000   0.45585625   -3.2126238   -3.2126238    -2.528841 0.0078159597   -3.2126238   0.68378282   439061 
 2455000   0.45578311   -3.2136828   -3.2136828   -2.5300097 0.0066790673   -3.2136828    0.6836731   439061 
 2456000   0.45563727   -3.2136583   -3.2136583   -2.5302039 0.0083634925   -3.2136583   0.68345435   439061 
 2457000   0.45560604   -3.2130102   -3.2130102   -2.5296027 0.0088815639   -3.2130102    0.6834075   439061 
 2458000   0.45534074   -3.2120164   -3.2120164   -2.5290068 0.0073619761   -3.2120164   0.68300956   439061 
 2459000   0.45592601   -3.2133466   -3.2133466   -2.5294592 0.0080577263   -3.2133466   0.68388746   439061 
 2460000   0.45624435   -3.2134745   -3.2134745   -2.5291095   0.00999516   -3.2134745   0.68436497   439061 
 2461000   0.45549164   -3.2120093   -3.2120093   -2.5287733  0.010754206   -3.2120093   0.68323591   439061 
 2462000   0.45597781   -3.2129658   -3.2129658   -2.5290006  0.009154135   -3.2129658   0.68396516   439061 
 2463000   0.45635656   -3.2126007   -3.2126007   -2.5280674 0.0089780043   -3.2126007   0.68453328   439061 
 2464000   0.45576917   -3.2121482   -3.2121482    -2.528496 0.0083723904   -3.2121482    0.6836522   439061 
 2465000   0.45570784   -3.2122706   -3.2122706   -2.5287104 0.0050053247   -3.2122706    0.6835602   439061 
 2466000   0.45553755   -3.2129362   -3.2129362   -2.5296314  0.006991582   -3.2129362   0.68330477   439061 
 2467000   0.45536661   -3.2120285   -3.2120285   -2.5289802 0.0076048597   -3.2120285   0.68304836   439061 
 2468000   0.45492546   -3.2110295   -3.2110295   -2.5286428 0.0036922383   -3.2110295   0.68238663   439061 
 2469000     0.455366   -3.2123364   -3.2123364   -2.5292889 0.0057440853   -3.2123364   0.68304744   439061 
 2470000   0.45568844   -3.2124483   -3.2124483   -2.5289172 0.0059436701   -3.2124483    0.6835311   439061 
 2471000   0.45578213   -3.2132309   -3.2132309   -2.5295593 0.0073274178   -3.2132309   0.68367164   439061 
 2472000   0.45575869   -3.2130348   -3.2130348   -2.5293984   0.01018416   -3.2130348   0.68363648   439061 
 2473000    0.4557141   -3.2131272   -3.2131272   -2.5295576   0.01016863   -3.2131272    0.6835696   439061 
 2474000   0.45603684   -3.2136457   -3.2136457    -2.529592  0.010820062   -3.2136457   0.68405371   439061 
 2475000   0.45556746   -3.2134702   -3.2134702   -2.5301206 0.0076104836   -3.2134702   0.68334963   439061 
 2476000   0.45574507   -3.2140936   -3.2140936   -2.5304776 0.0087207091   -3.2140936   0.68361604   439061 
 2477000   0.45627607   -3.2145726   -3.2145726     -2.53016  0.010340846   -3.2145726   0.68441255   439061 
 2478000   0.45582305   -3.2141951   -3.2141951   -2.5304621 0.0074697118   -3.2141951   0.68373301   439061 
 2479000   0.45595855   -3.2135926   -3.2135926   -2.5296563  0.008996367   -3.2135926   0.68393627   439061 
 2480000    0.4554597   -3.2129938   -3.2129938   -2.5298058  0.011380884   -3.2129938     0.683188   439061 
 2481000   0.45556322   -3.2134214   -3.2134214   -2.5300781 0.0095269422   -3.2134214   0.68334328   439061 
 2482000   0.45609259   -3.2139738   -3.2139738   -2.5298365 0.0057835707   -3.2139738   0.68413733   439061 
 2483000    0.4554808   -3.2135037   -3.2135037    -2.530284 0.0064534288   -3.2135037   0.68321964   439061 
 2484000   0.45513374   -3.2135218   -3.2135218   -2.5308228 0.0063695939   -3.2135218   0.68269906   439061 
 2485000   0.45500197   -3.2136084   -3.2136084    -2.531107 0.0049586076   -3.2136084    0.6825014   439061 
 2486000   0.45553973   -3.2135438   -3.2135438   -2.5302358 0.0048017769   -3.2135438   0.68330804   439061 
 2487000   0.45461107   -3.2128002   -3.2128002   -2.5308852 0.0041514387   -3.2128002   0.68191505   439061 
 2488000   0.45550083   -3.2142787   -3.2142787    -2.531029 0.0048533398   -3.2142787   0.68324969   439061 
 2489000    0.4551127   -3.2136474   -3.2136474   -2.5309799   0.01030246   -3.2136474   0.68266749   439061 
 2490000   0.45495956   -3.2135778   -3.2135778     -2.53114 0.0093437899   -3.2135778   0.68243779   439061 
 2491000   0.45544294   -3.2145456   -3.2145456   -2.5313827 0.0058771942   -3.2145456   0.68316286   439061 
 2492000   0.45570298   -3.2144251   -3.2144251   -2.5308722 0.0073449547   -3.2144251   0.68355292   439061 
 2493000   0.45553766   -3.2139857   -3.2139857   -2.5306808 0.0093203967   -3.2139857   0.68330494   439061 
 2494000    0.4555622   -3.2138424   -3.2138424   -2.5305007  0.012843555   -3.2138424   0.68334175   439061 
 2495000   0.45576365    -3.213608    -3.213608    -2.529964 0.0098737859    -3.213608   0.68364391   439061 
 2496000   0.45584423   -3.2141517   -3.2141517   -2.5303869 0.0070967027   -3.2141517   0.68376478   439061 
 2497000   0.45551762   -3.2134581   -3.2134581   -2.5301832  0.007604159   -3.2134581   0.68327488   439061 
 2498000   0.45569414   -3.2139756   -3.2139756   -2.5304359 0.0054977294   -3.2139756   0.68353966   439061 
 2499000    0.4555564   -3.2139322   -3.2139322   -2.5305991 0.0039029262   -3.2139322   0.68333305   439061 
 2500000   0.45491788   -3.2138719   -3.2138719   -2.5314966 0.0081212898   -3.2138719   0.68237526   439061 
 2501000   0.45515949   -3.2145695   -3.2145695   -2.5318318 0.0057361796   -3.2145695   0.68273768   439061 
 2502000   0.45470324   -3.2138797   -3.2138797   -2.5318264 0.0054555765   -3.2138797    0.6820533   439061 
 2503000   0.45499254   -3.2143942   -3.2143942   -2.5319069 0.0018398916   -3.2143942   0.68248726   439061 
 2504000   0.45502435    -3.214051    -3.214051    -2.531516 0.0059742166    -3.214051   0.68253498   439061 
 2505000   0.45570761   -3.2154973   -3.2154973   -2.5319374 0.0072062936   -3.2154973   0.68355986   439061 
 2506000   0.45433306   -3.2141868   -3.2141868   -2.5326887 0.0073525022   -3.2141868   0.68149803   439061 
 2507000   0.45525052   -3.2157598   -3.2157598   -2.5328856 0.0072833655   -3.2157598   0.68287423   439061 
 2508000   0.45514097   -3.2159192   -3.2159192   -2.5332093 0.0095589571   -3.2159192    0.6827099   439061 
 2509000   0.45518238   -3.2159037   -3.2159037   -2.5331317 0.0098507844   -3.2159037   0.68277202   439061 
 2510000   0.45558656   -3.2164944   -3.2164944   -2.5331161  0.010713906   -3.2164944   0.68337828   439061 
 2511000    0.4555152   -3.2166744   -3.2166744   -2.5334031  0.011072496   -3.2166744   0.68327124   439061 
 2512000   0.45511605    -3.215873    -3.215873   -2.5332004  0.010032069    -3.215873   0.68267252   439061 
 2513000   0.45517073   -3.2162141   -3.2162141   -2.5334595 0.0089169165   -3.2162141   0.68275453   439061 
 2514000   0.45562971   -3.2167179   -3.2167179   -2.5332749 0.0085033417   -3.2167179     0.683443   439061 
 2515000   0.45516804   -3.2166911   -3.2166911   -2.5339405 0.0059295266   -3.2166911    0.6827505   439061 
 2516000   0.45420974   -3.2145191   -3.2145191    -2.533206  0.011169171   -3.2145191   0.68131306   439061 
 2517000   0.45463517    -3.215378    -3.215378   -2.5334268 0.0068473689    -3.215378    0.6819512   439061 
 2518000   0.45572296   -3.2164016   -3.2164016   -2.5328187 0.0053278376   -3.2164016   0.68358289   439061 
 2519000   0.45429866   -3.2141216   -3.2141216   -2.5326751 0.0071284367   -3.2141216   0.68144644   439061 
 2520000   0.45532809   -3.2154077   -3.2154077   -2.5324172 0.0071261409   -3.2154077   0.68299057   439061 
 2521000   0.45442393   -3.2142506   -3.2142506   -2.5326162 0.0075970206   -3.2142506   0.68163434   439061 
 2522000   0.45522344   -3.2144335   -3.2144335   -2.5315999 0.0077767838   -3.2144335   0.68283361   439061 
 2523000   0.45571677   -3.2148106   -3.2148106    -2.531237 0.0098973472   -3.2148106    0.6835736   439061 
 2524000   0.45425815   -3.2133182   -3.2133182   -2.5319325 0.0073151017   -3.2133182   0.68138567   439061 
 2525000   0.45570075   -3.2149399   -3.2149399   -2.5313903 0.0064026788   -3.2149399   0.68354957   439061 
 2526000   0.45557874   -3.2150404   -3.2150404   -2.5316738 0.0072025251   -3.2150404   0.68336656   439061 
 2527000   0.45410875   -3.2125725   -3.2125725   -2.5314109 0.0086214482   -3.2125725   0.68116158   439061 
 2528000   0.45576227   -3.2156147   -3.2156147   -2.5319728 0.0037648196   -3.2156147   0.68364184   439061 
 2529000   0.45469505    -3.213687    -3.213687   -2.5316459 0.0098528187    -3.213687   0.68204102   439061 
 2530000   0.45522934    -3.214968    -3.214968   -2.5321255 0.0074488328    -3.214968   0.68284246   439061 
 2531000   0.45479507   -3.2142816   -3.2142816   -2.5320906 0.0083286847   -3.2142816   0.68219105   439061 
 2532000   0.45501123   -3.2152636   -3.2152636   -2.5327483 0.0080342382   -3.2152636   0.68251529   439061 
 2533000   0.45451482   -3.2149802   -3.2149802   -2.5332095 0.0090138357   -3.2149802   0.68177068   439061 
 2534000   0.45499363   -3.2158302   -3.2158302   -2.5333413 0.0069037755   -3.2158302   0.68248888   439061 
 2535000   0.45514286   -3.2157052   -3.2157052   -2.5329925 0.0086227003   -3.2157052   0.68271274   439061 
 2536000   0.45503238   -3.2157784   -3.2157784   -2.5332314 0.0071442669   -3.2157784   0.68254701   439061 
 2537000   0.45456968   -3.2149141   -3.2149141   -2.5330611  0.011501006   -3.2149141   0.68185297   439061 
 2538000   0.45520658   -3.2154943   -3.2154943    -2.532686   0.01016865   -3.2154943   0.68280832   439061 
 2539000   0.45577587   -3.2161215   -3.2161215   -2.5324593  0.010106795   -3.2161215   0.68366225   439061 
 2540000     0.455478   -3.2160177   -3.2160177   -2.5328022 0.0077669598   -3.2160177   0.68321544   439061 
 2541000   0.45451785   -3.2152835   -3.2152835   -2.5335083  0.011897204   -3.2152835   0.68177522   439061 
 2542000   0.45526536    -3.215732    -3.215732   -2.5328355  0.009628827    -3.215732   0.68289649   439061 
 2543000   0.45486522   -3.2156831   -3.2156831   -2.5333868 0.0076667468   -3.2156831   0.68229627   439061 
 2544000   0.45456226   -3.2160127   -3.2160127   -2.5341708 0.0055535478   -3.2160127   0.68184183   439061 
 2545000   0.45437768   -3.2154573   -3.2154573   -2.5338924 0.0068433321   -3.2154573   0.68156497   439061 
 2546000   0.45486303   -3.2167592   -3.2167592   -2.5344662 0.0056324772   -3.2167592   0.68229299   439061 
 2547000     0.455422   -3.2163705   -3.2163705   -2.5332391 0.0042076182   -3.2163705   0.68313144   439061 
 2548000   0.45484788   -3.2168106   -3.2168106   -2.5345403 0.0066698919   -3.2168106   0.68227027   439061 
 2549000    0.4549897   -3.2165363   -3.2165363   -2.5340533 0.0060627368   -3.2165363   0.68248299   439061 
 2550000   0.45453518     -3.21643     -3.21643   -2.5346288 0.0049227871     -3.21643   0.68180122   439061 
 2551000   0.45575417   -3.2171641   -3.2171641   -2.5335344 0.0064505494   -3.2171641    0.6836297   439061 
 2552000   0.45562008   -3.2176235   -3.2176235    -2.534195 0.0082040481   -3.2176235   0.68342857   439061 
 2553000   0.45558999    -3.217816    -3.217816   -2.5344326 0.0082833037    -3.217816   0.68338342   439061 
 2554000   0.45512243   -3.2171511   -3.2171511    -2.534469 0.0072124868   -3.2171511    0.6826821   439061 
 2555000    0.4548882   -3.2170577   -3.2170577    -2.534727 0.0099276791   -3.2170577   0.68233075   439061 
 2556000   0.45453525   -3.2168755   -3.2168755   -2.5350742 0.0091390204   -3.2168755   0.68180132   439061 
 2557000   0.45478554   -3.2169123   -3.2169123   -2.5347356 0.0080787038   -3.2169123   0.68217675   439061 
 2558000   0.45486799   -3.2161151   -3.2161151   -2.5338146 0.0078517226   -3.2161151   0.68230044   439061 
 2559000    0.4556012   -3.2173838   -3.2173838   -2.5339835 0.0076460077   -3.2173838   0.68340025   439061 
 2560000   0.45477436    -3.216578    -3.216578    -2.534418  0.008265374    -3.216578   0.68215999   439061 
 2561000   0.45488544   -3.2161147   -3.2161147   -2.5337881 0.0070185434   -3.2161147   0.68232661   439061 
 2562000   0.45467551   -3.2149585   -3.2149585   -2.5329468 0.0083038903   -3.2149585   0.68201171   439061 
 2563000   0.45526902   -3.2159424   -3.2159424   -2.5330404  0.010013016   -3.2159424   0.68290197   439061 
 2564000   0.45490151   -3.2155451   -3.2155451   -2.5331944 0.0081404659   -3.2155451   0.68235071   439061 
 2565000   0.45560711   -3.2169925   -3.2169925   -2.5335833 0.0047935755   -3.2169925   0.68340911   439061 
 2566000   0.45442295     -3.21521     -3.21521   -2.5335771 0.0064607471     -3.21521   0.68163287   439061 
 2567000   0.45445571   -3.2160095   -3.2160095   -2.5343275 0.0034710593   -3.2160095   0.68168201   439061 
 2568000   0.45424688   -3.2158268   -3.2158268    -2.534458 0.0063124139   -3.2158268   0.68136876   439061 
 2569000   0.45440369   -3.2164748   -3.2164748   -2.5348709 0.0073750362   -3.2164748   0.68160399   439061 
 2570000   0.45433159   -3.2167852   -3.2167852   -2.5352894 0.0064843816   -3.2167852   0.68149583   439061 
 2571000   0.45504119   -3.2172729   -3.2172729   -2.5347127 0.0057339114   -3.2172729   0.68256023   439061 
 2572000   0.45471548   -3.2166133   -3.2166133   -2.5345416 0.0067405008   -3.2166133   0.68207167   439061 
 2573000   0.45422555   -3.2165354   -3.2165354   -2.5351986  0.010943283   -3.2165354   0.68133677   439061 
 2574000   0.45519049   -3.2179737   -3.2179737   -2.5351895 0.0069124847   -3.2179737   0.68278418   439061 
 2575000   0.45503365   -3.2171145   -3.2171145   -2.5345656  0.010996323   -3.2171145   0.68254892   439061 
 2576000   0.45546862   -3.2179809   -3.2179809   -2.5347795  0.011114516   -3.2179809   0.68320137   439061 
 2577000   0.45610982   -3.2184841   -3.2184841   -2.5343209   0.01210265   -3.2184841   0.68416317   439061 
 2578000    0.4552516   -3.2174513   -3.2174513   -2.5345755  0.010684049   -3.2174513   0.68287584   439061 
 2579000   0.45508633   -3.2176406   -3.2176406   -2.5350126  0.008723771   -3.2176406   0.68262794   439061 
 2580000   0.45499393   -3.2173774   -3.2173774    -2.534888 0.0071677177   -3.2173774   0.68248934   439061 
 2581000   0.45386141   -3.2162974   -3.2162974   -2.5355068 0.0061268541   -3.2162974   0.68079056   439061 
 2582000   0.45378024   -3.2167969   -3.2167969   -2.5361281 0.0022252806   -3.2167969   0.68066882   439061 
 2583000   0.45312993   -3.2159411   -3.2159411   -2.5362478 0.0051787348   -3.2159411   0.67969335   439061 
 2584000   0.45357404   -3.2174776   -3.2174776   -2.5371181 -0.00060386293   -3.2174776   0.68035951   439061 
 2585000   0.45416901   -3.2174437   -3.2174437   -2.5361918 0.0023631042   -3.2174437   0.68125196   439061 
 2586000   0.45420625   -3.2165889   -3.2165889   -2.5352811 0.0087235641   -3.2165889   0.68130783   439061 
 2587000   0.45434328   -3.2168756   -3.2168756   -2.5353622 0.0096481795   -3.2168756   0.68151337   439061 
 2588000   0.45506984   -3.2182048   -3.2182048   -2.5356015  0.011852856   -3.2182048   0.68260321   439061 
 2589000   0.45514787   -3.2189476   -3.2189476   -2.5362273 0.0058576344   -3.2189476   0.68272025   439061 
 2590000   0.45526366   -3.2189291   -3.2189291   -2.5360352 0.0099675907   -3.2189291   0.68289394   439061 
 2591000   0.45495379   -3.2190361   -3.2190361    -2.536607 0.0081131107   -3.2190361   0.68242913   439061 
 2592000   0.45423955   -3.2184679   -3.2184679   -2.5371101 0.0089057221   -3.2184679   0.68135777   439061 
 2593000   0.45501412     -3.21932     -3.21932   -2.5368003 0.0067228591     -3.21932   0.68251963   439061 
 2594000   0.45480224    -3.219186    -3.219186   -2.5369842  0.010498763    -3.219186   0.68220181   439061 
 2595000   0.45436792   -3.2188803   -3.2188803     -2.53733  0.010449756   -3.2188803   0.68155032   439061 
 2596000   0.45427547   -3.2181141   -3.2181141   -2.5367024 0.0081490859   -3.2181141   0.68141166   439061 
 2597000   0.45474053   -3.2189078   -3.2189078   -2.5367986 0.0078577605   -3.2189078   0.68210923   439061 
 2598000   0.45444329   -3.2189513   -3.2189513    -2.537288 0.0041877222   -3.2189513   0.68166338   439061 
 2599000   0.45457963   -3.2189226   -3.2189226   -2.5370547 0.0062532689   -3.2189226   0.68186789   439061 
 2600000    0.4542581   -3.2182655   -3.2182655   -2.5368799 0.0061791409   -3.2182655    0.6813856   439061 
 2601000   0.45453195   -3.2188743   -3.2188743   -2.5370779 0.0072177277   -3.2188743   0.68179638   439061 
 2602000   0.45375613   -3.2179011   -3.2179011   -2.5372685 0.0081396013   -3.2179011   0.68063264   439061 
 2603000   0.45499963   -3.2188984   -3.2188984   -2.5364005 0.0090682318   -3.2188984    0.6824979   439061 
 2604000   0.45483073   -3.2189167   -3.2189167   -2.5366722 0.0059304984   -3.2189167   0.68224453   439061 
 2605000   0.45410098   -3.2183633   -3.2183633   -2.5372134 0.0049350613   -3.2183633   0.68114992   439061 
 2606000   0.45418457   -3.2179345   -3.2179345   -2.5366592 0.0072612761   -3.2179345    0.6812753   439061 
 2607000   0.45495887   -3.2196025   -3.2196025   -2.5371658  0.006865593   -3.2196025   0.68243675   439061 
 2608000   0.45426067   -3.2183066   -3.2183066   -2.5369171 0.0092439455   -3.2183066   0.68138945   439061 
 2609000   0.45459305   -3.2184098   -3.2184098   -2.5365218 0.0071266106   -3.2184098   0.68188802   439061 
 2610000   0.45403656    -3.217815    -3.217815   -2.5367617 0.0081034914    -3.217815   0.68105329   439061 
 2611000   0.45388888   -3.2180428   -3.2180428    -2.537211 0.0071570226   -3.2180428   0.68083177   439061 
 2612000     0.454528   -3.2184416   -3.2184416   -2.5366512 0.0059740992   -3.2184416   0.68179045   439061 
 2613000   0.45447136   -3.2185986   -3.2185986   -2.5368931 0.0059234541   -3.2185986   0.68170549   439061 
 2614000    0.4550248   -3.2190496   -3.2190496    -2.536514 0.0049950058   -3.2190496   0.68253565   439061 
 2615000    0.4550027   -3.2187276   -3.2187276   -2.5362251  0.007844459   -3.2187276    0.6825025   439061 
 2616000   0.45438023   -3.2182622   -3.2182622   -2.5366934 0.0065210859   -3.2182622    0.6815688   439061 
 2617000   0.45390412   -3.2179997   -3.2179997   -2.5371451 0.0079038051   -3.2179997   0.68085463   439061 
 2618000   0.45451336   -3.2190574   -3.2190574   -2.5372889 0.0050977807   -3.2190574   0.68176848   439061 
 2619000   0.45463063   -3.2198712   -3.2198712   -2.5379268 0.0072219409   -3.2198712   0.68194439   439061 
 2620000   0.45396867   -3.2190106   -3.2190106   -2.5380591 0.0060743781   -3.2190106   0.68095145   439061 
 2621000   0.45414441   -3.2198101   -3.2198101    -2.538595 0.0087530108   -3.2198101   0.68121506   439061 
 2622000    0.4537754   -3.2192294   -3.2192294   -2.5385678 0.0066633958   -3.2192294   0.68066155   439061 
 2623000   0.45434691   -3.2195588   -3.2195588     -2.53804  0.012209298   -3.2195588   0.68151881   439061 
 2624000   0.45463709   -3.2203755   -3.2203755   -2.5384214 0.0084364081   -3.2203755   0.68195407   439061 
 2625000   0.45473507   -3.2203811   -3.2203811   -2.5382801 0.0077163438   -3.2203811   0.68210105   439061 
 2626000   0.45528291   -3.2212018   -3.2212018    -2.538279 0.0056767505   -3.2212018    0.6829228   439061 
 2627000   0.45482332   -3.2205368   -3.2205368   -2.5383034 0.0070811997   -3.2205368   0.68223342   439061 
 2628000   0.45460452   -3.2208037   -3.2208037   -2.5388985 0.0093853846   -3.2208037   0.68190523   439061 
 2629000   0.45483432   -3.2211942   -3.2211942   -2.5389443 0.0082997402   -3.2211942   0.68224992   439061 
 2630000   0.45505737   -3.2215883   -3.2215883   -2.5390038 0.0058647921   -3.2215883    0.6825845   439061 
 2631000   0.45338393   -3.2196207   -3.2196207   -2.5395464 0.0081605177   -3.2196207   0.68007435   439061 
 2632000   0.45360694    -3.219441    -3.219441   -2.5390321 0.0075909632    -3.219441   0.68040886   439061 
 2633000   0.45361089   -3.2189627   -3.2189627    -2.538548  0.003826932   -3.2189627   0.68041479   439061 
 2634000   0.45351795      -3.2197      -3.2197   -2.5394246 0.0061576926      -3.2197   0.68027537   439061 
 2635000   0.45449294    -3.220892    -3.220892   -2.5391542 0.0049252159    -3.220892   0.68173785   439061 
 2636000   0.45443713    -3.220623    -3.220623   -2.5389689 0.0073231105    -3.220623   0.68165414   439061 
 2637000    0.4534941   -3.2191743   -3.2191743   -2.5389347 0.0097366128   -3.2191743   0.68023961   439061 
 2638000   0.45409108   -3.2200908   -3.2200908   -2.5389558 0.0094686919   -3.2200908   0.68113507   439061 
 2639000   0.45440178   -3.2207693   -3.2207693   -2.5391682 0.0097359382   -3.2207693   0.68160112   439061 
 2640000   0.45408927   -3.2206742   -3.2206742   -2.5395418  0.008659798   -3.2206742   0.68113236   439061 
 2641000   0.45317049   -3.2201647   -3.2201647   -2.5404105  0.006129139   -3.2201647   0.67975418   439061 
 2642000   0.45340887    -3.220344    -3.220344   -2.5402323 0.0066741746    -3.220344   0.68011176   439061 
 2643000   0.45396349   -3.2208062   -3.2208062   -2.5398625 0.0072772092   -3.2208062   0.68094368   439061 
 2644000   0.45398032   -3.2206424   -3.2206424   -2.5396735  0.008769402   -3.2206424   0.68096892   439061 
 2645000   0.45503111   -3.2222719   -3.2222719   -2.5397267 0.0061130351   -3.2222719    0.6825451   439061 
 2646000   0.45400652   -3.2206713   -3.2206713   -2.5396631 0.0069882573   -3.2206713   0.68100822   439061 
 2647000   0.45376952   -3.2205091   -3.2205091   -2.5398563 0.0086189768   -3.2205091   0.68065272   439061 
 2648000   0.45421961   -3.2216848   -3.2216848    -2.540357 0.0040289237   -3.2216848   0.68132786   439061 
 2649000   0.45375742   -3.2211315   -3.2211315   -2.5404969 0.0027396625   -3.2211315   0.68063458   439061 
 2650000   0.45358077   -3.2207956   -3.2207956    -2.540426  0.011245413   -3.2207956    0.6803696   439061 
 2651000    0.4541549   -3.2216254   -3.2216254   -2.5403946 0.0094418654   -3.2216254   0.68123079   439061 
 2652000   0.45358299   -3.2212117   -3.2212117   -2.5408387 0.0095231941   -3.2212117   0.68037294   439061 
 2653000   0.45397826   -3.2215893   -3.2215893   -2.5406234 0.0068250857   -3.2215893   0.68096584   439061 
 2654000   0.45327616   -3.2204117   -3.2204117    -2.540499  0.011923766   -3.2204117   0.67991269   439061 
 2655000   0.45413356   -3.2223626   -3.2223626   -2.5411638 0.0074073683   -3.2223626   0.68119879   439061 
 2656000   0.45372489    -3.221815    -3.221815   -2.5412292  0.011921173    -3.221815   0.68058579   439061 
 2657000   0.45474073   -3.2227345   -3.2227345    -2.540625  0.010668921   -3.2227345   0.68210954   439061 
 2658000   0.45437639   -3.2217373   -3.2217373   -2.5401743 0.0092141923   -3.2217373   0.68156303   439061 
 2659000   0.45436335   -3.2215518   -3.2215518   -2.5400084 0.0099516278   -3.2215518   0.68154348   439061 
 2660000   0.45452354   -3.2213859   -3.2213859   -2.5396021   0.00957707   -3.2213859   0.68178376   439061 
 2661000   0.45443086   -3.2209914   -3.2209914   -2.5393467 0.0095373918   -3.2209914   0.68164474   439061 
 2662000   0.45315382   -3.2191613   -3.2191613   -2.5394321 0.0087499323   -3.2191613   0.67972918   439061 
 2663000   0.45396581   -3.2205261   -3.2205261    -2.539579 0.00058598256   -3.2205261   0.68094717   439061 
 2664000   0.45327192   -3.2192038   -3.2192038   -2.5392975 0.0059861399   -3.2192038   0.67990633   439061 
 2665000   0.45383604   -3.2198427   -3.2198427   -2.5390902 0.0027726299   -3.2198427   0.68075251   439061 
 2666000   0.45370566   -3.2194492   -3.2194492   -2.5388923 0.0050531587   -3.2194492   0.68055694   439061 
 2667000   0.45333162   -3.2185996   -3.2185996   -2.5386038 0.0083831401   -3.2185996   0.67999588   439061 
 2668000    0.4535859   -3.2194199   -3.2194199   -2.5390426 0.0055367273   -3.2194199    0.6803773   439061 
 2669000   0.45395869   -3.2202861   -3.2202861   -2.5393496 0.0043485869   -3.2202861   0.68093648   439061 
 2670000   0.45365746   -3.2199615   -3.2199615   -2.5394768 0.0063395829   -3.2199615   0.68048464   439061 
 2671000   0.45379568   -3.2209962   -3.2209962   -2.5403043 0.0068106066   -3.2209962   0.68069196   439061 
 2672000   0.45438202   -3.2221418   -3.2221418   -2.5405703 0.0052904514   -3.2221418   0.68157148   439061 
 2673000   0.45398779   -3.2212623   -3.2212623   -2.5402822 0.0093850382   -3.2212623   0.68098013   439061 
 2674000   0.45455134   -3.2220098   -3.2220098   -2.5401843 0.0095398908   -3.2220098   0.68182546   439061 
 2675000   0.45369655   -3.2218595   -3.2218595   -2.5413162 0.0093283915   -3.2218595   0.68054328   439061 
 2676000   0.45383048   -3.2219593   -3.2219593   -2.5412151 0.0084082838   -3.2219593   0.68074418   439061 
 2677000   0.45311376   -3.2219691   -3.2219691      -2.5423 0.0036526819   -3.2219691   0.67966909   439061 
 2678000   0.45309343   -3.2222704   -3.2222704   -2.5426318 0.0065903532   -3.2222704    0.6796386   439061 
 2679000   0.45316664   -3.2225307   -3.2225307   -2.5427823 0.0051661294   -3.2225307   0.67974841   439061 
 2680000   0.45452226   -3.2240821   -3.2240821   -2.5423003 0.0064356345   -3.2240821   0.68178184   439061 
 2681000    0.4542575   -3.2230664   -3.2230664   -2.5416817 0.0091570817   -3.2230664    0.6813847   439061 
 2682000   0.45370442   -3.2224916   -3.2224916   -2.5419365 0.0096527107   -3.2224916   0.68055508   439061 
 2683000   0.45350135    -3.222636    -3.222636   -2.5423855 0.0078274288    -3.222636   0.68025048   439061 
 2684000   0.45376558    -3.223124    -3.223124   -2.5424772 0.0084487549    -3.223124   0.68064682   439061 
 2685000   0.45353237   -3.2231268   -3.2231268   -2.5428297 0.0055281724   -3.2231268   0.68029701   439061 
 2686000   0.45320807   -3.2228003   -3.2228003   -2.5429897 0.0039988773   -3.2228003   0.67981056   439061 
 2687000   0.45310533   -3.2228163   -3.2228163   -2.5431599 0.0063503159   -3.2228163   0.67965645   439061 
 2688000   0.45396629   -3.2229109   -3.2229109    -2.541963 0.0071680927   -3.2229109   0.68094789   439061 
 2689000   0.45311651   -3.2231642   -3.2231642    -2.543491  0.010187809   -3.2231642   0.67967322   439061 
 2690000   0.45418189    -3.224476    -3.224476   -2.5432047 0.0067867011    -3.224476   0.68127129   439061 
 2691000   0.45339275   -3.2235063   -3.2235063   -2.5434187 0.0075688517   -3.2235063   0.68008757   439061 
 2692000   0.45383211   -3.2237449   -3.2237449   -2.5429983 0.0079861615   -3.2237449   0.68074661   439061 
 2693000    0.4538331   -3.2241417   -3.2241417   -2.5433936 0.0030029649   -3.2241417    0.6807481   439061 
 2694000   0.45311175   -3.2234337   -3.2234337   -2.5437676 0.0057611957   -3.2234337   0.67966608   439061 
 2695000   0.45403248   -3.2248815   -3.2248815   -2.5438343 0.0057249171   -3.2248815   0.68104717   439061 
 2696000   0.45370197   -3.2237612   -3.2237612   -2.5432098 0.0057768628   -3.2237612    0.6805514   439061 
 2697000   0.45383417   -3.2238792   -3.2238792   -2.5431295 0.0092856676   -3.2238792   0.68074971   439061 
 2698000   0.45428994   -3.2239192   -3.2239192   -2.5424858  0.010208997   -3.2239192   0.68143335   439061 
 2699000   0.45348529   -3.2238454   -3.2238454    -2.543619 0.0078832288   -3.2238454   0.68022638   439061 
 2700000   0.45347088   -3.2238422   -3.2238422   -2.5436375 0.0061839619   -3.2238422   0.68020477   439061 
 2701000   0.45373119   -3.2246483   -3.2246483   -2.5440531 0.0062063239   -3.2246483   0.68059523   439061 
 2702000    0.4537775   -3.2243929   -3.2243929   -2.5437282  0.007255188   -3.2243929   0.68066469   439061 
 2703000   0.45382332   -3.2236558   -3.2236558   -2.5429224  0.010196649   -3.2236558   0.68073343   439061 
 2704000   0.45379642   -3.2243098   -3.2243098   -2.5436167 0.0048441475   -3.2243098   0.68069309   439061 
 2705000   0.45283107   -3.2231489   -3.2231489   -2.5439039 0.0057980341   -3.2231489   0.67924505   439061 
 2706000   0.45391805   -3.2242147   -3.2242147   -2.5433392 0.0047209535   -3.2242147   0.68087552   439061 
 2707000   0.45385258   -3.2244394   -3.2244394   -2.5436621 0.0054470971   -3.2244394   0.68077731   439061 
 2708000   0.45385445   -3.2241409   -3.2241409   -2.5433608 0.0058049592   -3.2241409   0.68078013   439061 
 2709000   0.45296834    -3.222798    -3.222798    -2.543347  0.010786983    -3.222798   0.67945096   439061 
 2710000   0.45283292   -3.2229328   -3.2229328    -2.543685 0.0055617597   -3.2229328   0.67924784   439061 
 2711000   0.45369886   -3.2243302   -3.2243302   -2.5437835 0.0050716811   -3.2243302   0.68054674   439061 
 2712000   0.45299047   -3.2229251   -3.2229251   -2.5434409 0.0059990258   -3.2229251   0.67948415   439061 
 2713000   0.45406888    -3.223567    -3.223567   -2.5424652 0.0043282758    -3.223567   0.68110177   439061 
 2714000   0.45404313   -3.2236496   -3.2236496   -2.5425864 0.0084251222   -3.2236496   0.68106315   439061 
 2715000   0.45386126   -3.2238439   -3.2238439   -2.5430536 0.0096399615   -3.2238439   0.68079034   439061 
 2716000   0.45303774    -3.221696    -3.221696   -2.5421409   0.01098735    -3.221696   0.67955506   439061 
 2717000   0.45400423   -3.2239286   -3.2239286   -2.5429238 0.0038367207   -3.2239286    0.6810048   439061 
 2718000   0.45301362    -3.223591    -3.223591   -2.5440722 0.0043207804    -3.223591   0.67951889   439061 
 2719000   0.45317072   -3.2239681   -3.2239681   -2.5442136 0.0037956941   -3.2239681   0.67975453   439061 
 2720000   0.45299566   -3.2243852   -3.2243852   -2.5448933 0.0027943354   -3.2243852   0.67949194   439061 
 2721000   0.45239271   -3.2229295   -3.2229295    -2.544342 0.0075248407   -3.2229295   0.67858753   439061 
 2722000   0.45246866   -3.2238985   -3.2238985   -2.5451971 0.0078560554   -3.2238985   0.67870144   439061 
 2723000   0.45279184   -3.2244421   -3.2244421   -2.5452559 0.0065909914   -3.2244421   0.67918621   439061 
 2724000   0.45351214   -3.2252719   -3.2252719   -2.5450052 0.0063458514   -3.2252719   0.68026667   439061 
 2725000    0.4528722    -3.224376    -3.224376   -2.5450692  0.011560635    -3.224376   0.67930675   439061 
 2726000   0.45414875   -3.2262422   -3.2262422   -2.5450206  0.012912532   -3.2262422   0.68122158   439061 
 2727000   0.45412047   -3.2270486   -3.2270486   -2.5458695 0.0085550933   -3.2270486   0.68117915   439061 
 2728000   0.45369289   -3.2260948   -3.2260948    -2.545557 0.0090674928   -3.2260948   0.68053779   439061 
 2729000   0.45380431   -3.2260201   -3.2260201   -2.5453152 0.0097195431   -3.2260201   0.68070491   439061 
 2730000   0.45355693   -3.2259383   -3.2259383   -2.5456045 0.0082407858   -3.2259383   0.68033385   439061 
 2731000   0.45328477   -3.2258194   -3.2258194   -2.5458938 0.0077747168   -3.2258194    0.6799256   439061 
 2732000   0.45399333   -3.2262827   -3.2262827   -2.5452942 0.0061443581   -3.2262827   0.68098845   439061 
 2733000   0.45300906   -3.2255224   -3.2255224   -2.5460103 0.0090056446   -3.2255224   0.67951204   439061 
 2734000   0.45208465   -3.2246208   -3.2246208   -2.5464954 0.0066000062   -3.2246208   0.67812543   439061 
 2735000   0.45241282   -3.2249086   -3.2249086   -2.5462909 0.0050554851   -3.2249086   0.67861769   439061 
 2736000   0.45264437    -3.224988    -3.224988    -2.546023  0.004188997    -3.224988     0.678965   439061 
 2737000   0.45307766   -3.2248441   -3.2248441   -2.5452292 0.0066233776   -3.2248441   0.67961494   439061 
 2738000   0.45346674   -3.2252181   -3.2252181   -2.5450195  0.010851158   -3.2252181   0.68019857   439061 
 2739000   0.45312792   -3.2249834   -3.2249834   -2.5452931 0.0087674545   -3.2249834   0.67969033   439061 
 2740000   0.45327535   -3.2258294   -3.2258294   -2.5459179 0.0053809851   -3.2258294   0.67991148   439061 
 2741000   0.45268858   -3.2248822   -3.2248822   -2.5458509 0.0060526331   -3.2248822   0.67903133   439061 
 2742000   0.45268236   -3.2255755   -3.2255755   -2.5465535 0.0079894214   -3.2255755     0.679022   439061 
 2743000   0.45282915    -3.225785    -3.225785   -2.5465428 0.0079249476    -3.225785   0.67924218   439061 
 2744000   0.45347907   -3.2258944   -3.2258944   -2.5456774 0.0093115535   -3.2258944   0.68021706   439061 
 2745000   0.45255772   -3.2256533   -3.2256533   -2.5468183 0.0098163868   -3.2256533   0.67883504   439061 
 2746000   0.45293766   -3.2262631   -3.2262631   -2.5468582  0.011083604   -3.2262631   0.67940494   439061 
 2747000   0.45289125   -3.2264735   -3.2264735   -2.5471382 0.0076439979   -3.2264735   0.67933532   439061 
 2748000   0.45273103   -3.2263035   -3.2263035   -2.5472085 0.0078689516   -3.2263035     0.679095   439061 
 2749000      0.45254   -3.2257537   -3.2257537   -2.5469452  0.010496081   -3.2257537   0.67880845   439061 
 2750000   0.45322055   -3.2275615   -3.2275615   -2.5477322 0.0035851009   -3.2275615   0.67982928   439061 
 2751000   0.45262115   -3.2266674   -3.2266674   -2.5477372 0.0052843368   -3.2266674   0.67893018   439061 
 2752000   0.45198148   -3.2253195   -3.2253195   -2.5473488  0.010327178   -3.2253195   0.67797068   439061 
 2753000   0.45272763   -3.2263569   -3.2263569    -2.547267  0.010827845   -3.2263569   0.67908991   439061 
 2754000   0.45371502   -3.2275755   -3.2275755   -2.5470045 0.0056913514   -3.2275755   0.68057098   439061 
 2755000   0.45332604   -3.2270427   -3.2270427   -2.5470552  0.010593741   -3.2270427   0.67998751   439061 
 2756000   0.45270733    -3.226381    -3.226381   -2.5473216  0.010031381    -3.226381   0.67905944   439061 
 2757000   0.45319843    -3.226914    -3.226914   -2.5471179 0.0063165824    -3.226914   0.67979609   439061 
 2758000    0.4538973   -3.2276975   -3.2276975   -2.5468531   0.00600343   -3.2276975    0.6808444   439061 
 2759000   0.45381519   -3.2273339   -3.2273339   -2.5466127 0.0042305773   -3.2273339   0.68072123   439061 
 2760000   0.45304692   -3.2250294   -3.2250294   -2.5454605 0.0093508403   -3.2250294   0.67956883   439061 
 2761000   0.45399273   -3.2260307   -3.2260307   -2.5450431 0.0073660181   -3.2260307   0.68098755   439061 
 2762000    0.4528439   -3.2253705   -3.2253705   -2.5461062 0.0059196305   -3.2253705    0.6792643   439061 
 2763000   0.45264161    -3.225916    -3.225916   -2.5469551 0.0041583002    -3.225916   0.67896087   439061 
 2764000   0.45237375    -3.224859    -3.224859   -2.5462999  0.003546694    -3.224859   0.67855909   439061 
 2765000   0.45284473   -3.2258221   -3.2258221   -2.5465566  0.003346197   -3.2258221   0.67926556   439061 
 2766000   0.45230564   -3.2247571   -3.2247571   -2.5463001 0.0055222174   -3.2247571   0.67845692   439061 
 2767000   0.45357518    -3.226211    -3.226211   -2.5458498  0.006428094    -3.226211   0.68036123   439061 
 2768000   0.45296626   -3.2257593   -3.2257593   -2.5463115 0.0082665827   -3.2257593   0.67944785   439061 
 2769000    0.4533623   -3.2258884   -3.2258884   -2.5458465 0.0071919909   -3.2258884    0.6800419   439061 
 2770000   0.45334067   -3.2258399   -3.2258399   -2.5458304 0.0082789526   -3.2258399   0.68000946   439061 
 2771000   0.45328759    -3.225911    -3.225911   -2.5459812  0.012956673    -3.225911   0.67992984   439061 
 2772000   0.45383553   -3.2267592   -3.2267592   -2.5460075 0.0085672303   -3.2267592   0.68075175   439061 
 2773000   0.45418839   -3.2273675   -3.2273675   -2.5460865  0.010748496   -3.2273675   0.68128103   439061 
 2774000   0.45341656   -3.2264677   -3.2264677   -2.5463444  0.011125119   -3.2264677    0.6801233   439061 
 2775000   0.45342601   -3.2265984   -3.2265984   -2.5464609 0.0058350259   -3.2265984   0.68013746   439061 
 2776000   0.45345829   -3.2263741   -3.2263741   -2.5461882 0.0067276184   -3.2263741   0.68018589   439061 
 2777000   0.45296269   -3.2263695   -3.2263695    -2.546927 0.0065553978   -3.2263695   0.67944248   439061 
 2778000   0.45250922   -3.2256116   -3.2256116   -2.5468493 0.0067393505   -3.2256116   0.67876229   439061 
 2779000   0.45261317   -3.2255287   -3.2255287   -2.5466105 0.0043995474   -3.2255287   0.67891821   439061 
 2780000    0.4528597   -3.2256028   -3.2256028   -2.5463148 0.0058046623   -3.2256028     0.679288   439061 
 2781000    0.4528348   -3.2257426   -3.2257426    -2.546492 0.0069515926   -3.2257426   0.67925066   439061 
 2782000   0.45327819   -3.2267916   -3.2267916   -2.5468759 0.0040008466   -3.2267916   0.67991573   439061 
 2783000   0.45354905   -3.2270743   -3.2270743   -2.5467522 0.0044923039   -3.2270743   0.68032203   439061 
 2784000   0.45279092    -3.225736    -3.225736   -2.5465512 0.0029068453    -3.225736   0.67918484   439061 
 2785000   0.45216277   -3.2249379   -3.2249379   -2.5466953  0.008297968   -3.2249379   0.67824261   439061 
 2786000   0.45283529   -3.2259312   -3.2259312   -2.5466798 0.0099196355   -3.2259312   0.67925138   439061 
 2787000    0.4532481   -3.2268356   -3.2268356    -2.546965  0.008459506   -3.2268356   0.67987061   439061 
 2788000   0.45296499   -3.2267704   -3.2267704   -2.5473245  0.011388372   -3.2267704   0.67944594   439061 
 2789000   0.45306835   -3.2271551   -3.2271551   -2.5475541  0.005720084   -3.2271551   0.67960098   439061 
 2790000   0.45388114   -3.2282378   -3.2282378   -2.5474176 0.0044457056   -3.2282378   0.68082015   439061 
 2791000   0.45279244   -3.2273432   -3.2273432    -2.548156 0.0056303938   -3.2273432   0.67918712   439061 
 2792000   0.45234119    -3.226326    -3.226326   -2.5478157 0.0092149121    -3.226326   0.67851024   439061 
 2793000   0.45317713   -3.2264492   -3.2264492   -2.5466851 0.0095032309   -3.2264492   0.67976414   439061 
 2794000   0.45309827   -3.2265785   -3.2265785   -2.5469326 0.0067776638   -3.2265785   0.67964585   439061 
 2795000   0.45278941   -3.2267515   -3.2267515    -2.547569  0.009511338   -3.2267515   0.67918258   439061 
 2796000   0.45281049   -3.2265923   -3.2265923   -2.5473781 0.0062418168   -3.2265923   0.67921418   439061 
 2797000   0.45347475   -3.2271578   -3.2271578   -2.5469472 0.0068063415   -3.2271578   0.68021058   439061 
 2798000   0.45297892    -3.226437    -3.226437   -2.5469702  0.007135755    -3.226437   0.67946683   439061 
 2799000   0.45287905   -3.2262286   -3.2262286   -2.5469115 0.0076554426   -3.2262286   0.67931703   439061 
 2800000   0.45277958   -3.2263255   -3.2263255   -2.5471577 0.0073586939   -3.2263255   0.67916782   439061 
 2801000   0.45225535   -3.2256639   -3.2256639   -2.5472824 0.0036555889   -3.2256639   0.67838148   439061 
 2802000   0.45288725    -3.226559    -3.226559   -2.5472297 0.0075586806    -3.226559   0.67932932   439061 
 2803000   0.45155429   -3.2248143   -3.2248143   -2.5474844  0.010201012   -3.2248143   0.67732989   439061 
 2804000   0.45250999    -3.226081    -3.226081   -2.5473176 0.0096667106    -3.226081   0.67876344   439061 
 2805000   0.45346406   -3.2279002   -3.2279002   -2.5477057 0.0072823155   -3.2279002   0.68019454   439061 
 2806000   0.45346281   -3.2280115   -3.2280115   -2.5478188 0.0041787929   -3.2280115   0.68019266   439061 
 2807000   0.45280185   -3.2270075   -3.2270075   -2.5478063 0.0082728532   -3.2270075   0.67920123   439061 
 2808000   0.45302975   -3.2273705   -3.2273705   -2.5478275 0.0064374977   -3.2273705   0.67954308   439061 
 2809000   0.45251587   -3.2267438   -3.2267438   -2.5479716 0.0089207216   -3.2267438   0.67877225   439061 
 2810000     0.453577   -3.2282801   -3.2282801   -2.5479161 0.0088768517   -3.2282801   0.68036395   439061 
 2811000   0.45311912   -3.2270926   -3.2270926   -2.5474154 0.0091762166   -3.2270926   0.67967714   439061 
 2812000   0.45230674   -3.2261989   -3.2261989   -2.5477403 0.0093102029   -3.2261989   0.67845856   439061 
 2813000   0.45258631   -3.2264651   -3.2264651   -2.5475872 0.0078443616   -3.2264651   0.67887792   439061 
 2814000   0.45275625    -3.227176    -3.227176   -2.5480432 0.0063774617    -3.227176   0.67913282   439061 
 2815000    0.4521419   -3.2264782   -3.2264782   -2.5482669 0.0078889832   -3.2264782    0.6782113   439061 
 2816000   0.45202137   -3.2259925   -3.2259925    -2.547962 0.0066039052   -3.2259925   0.67803051   439061 
 2817000   0.45229473   -3.2261767   -3.2261767   -2.5477362 0.0074413085   -3.2261767   0.67844054   439061 
 2818000   0.45210052   -3.2257224   -3.2257224   -2.5475732 0.0062207585   -3.2257224   0.67814923   439061 
 2819000   0.45290349   -3.2270657   -3.2270657    -2.547712 0.0044116167   -3.2270657   0.67935368   439061 
 2820000   0.45230531   -3.2265977   -3.2265977   -2.5481413 0.0051660566   -3.2265977   0.67845642   439061 
 2821000    0.4524178   -3.2277146   -3.2277146   -2.5490894 0.0059390599   -3.2277146   0.67862515   439061 
 2822000   0.45219295   -3.2274887   -3.2274887   -2.5492009 0.0089644657   -3.2274887   0.67828788   439061 
 2823000   0.45241865   -3.2275046   -3.2275046   -2.5488782 0.0087795286   -3.2275046   0.67862644   439061 
 2824000   0.45246714   -3.2277424   -3.2277424   -2.5490433 0.0094185633   -3.2277424   0.67869916   439061 
 2825000    0.4537706   -3.2289716   -3.2289716   -2.5483173 0.0065446802   -3.2289716   0.68065434   439061 
 2826000    0.4530436    -3.227763    -3.227763   -2.5481992  0.011917811    -3.227763   0.67956385   439061 
 2827000   0.45324779   -3.2286055   -3.2286055   -2.5487353  0.010630207   -3.2286055   0.67987013   439061 
 2828000   0.45232572   -3.2273807   -3.2273807   -2.5488937  0.010200995   -3.2273807   0.67848703   439061 
 2829000   0.45310317   -3.2289304   -3.2289304   -2.5492771 0.0057445954   -3.2289304   0.67965321   439061 
 2830000    0.4520518   -3.2277511   -3.2277511   -2.5496749 0.0062533885   -3.2277511   0.67807616   439061 
 2831000   0.45278276    -3.227653    -3.227653   -2.5484805 0.0063265606    -3.227653   0.67917259   439061 
 2832000   0.45298887   -3.2283976   -3.2283976   -2.5489159 0.0033651338   -3.2283976   0.67948176   439061 
 2833000   0.45237221   -3.2270413   -3.2270413   -2.5484845 0.0074514495   -3.2270413   0.67855677   439061 
 2834000   0.45369432   -3.2287676   -3.2287676   -2.5482277 0.0047595275   -3.2287676   0.68053993   439061 
 2835000   0.45296512   -3.2273056   -3.2273056   -2.5478595 0.0055779331   -3.2273056   0.67944614   439061 
 2836000   0.45233169   -3.2261661   -3.2261661   -2.5476701 0.0078029749   -3.2261661   0.67849599   439061 
 2837000   0.45260351   -3.2270275   -3.2270275   -2.5481237 0.0073595173   -3.2270275   0.67890372   439061 
 2838000   0.45237398   -3.2267785   -3.2267785   -2.5482191 0.0057260194   -3.2267785   0.67855943   439061 
 2839000   0.45274901   -3.2271835   -3.2271835   -2.5480616 0.0066594183   -3.2271835   0.67912197   439061 
 2840000   0.45285416   -3.2278383   -3.2278383   -2.5485586 0.0073272896   -3.2278383   0.67927969   439061 
 2841000   0.45264831   -3.2273929   -3.2273929    -2.548422 0.0061170667   -3.2273929   0.67897091   439061 
 2842000   0.45335058    -3.228104    -3.228104   -2.5480797 0.0076287954    -3.228104   0.68002432   439061 
 2843000   0.45269675    -3.227193    -3.227193   -2.5481495 0.0081116854    -3.227193   0.67904358   439061 
 2844000   0.45225019   -3.2280058   -3.2280058    -2.549632 0.0073141902   -3.2280058   0.67837374   439061 
 2845000   0.45309104   -3.2285751   -3.2285751   -2.5489401  0.009277467   -3.2285751   0.67963501   439061 
 2846000   0.45328365   -3.2285939   -3.2285939     -2.54867  0.009009358   -3.2285939   0.67992392   439061 
 2847000   0.45325175   -3.2288419   -3.2288419   -2.5489658 0.0073719099   -3.2288419   0.67987608   439061 
 2848000   0.45232897   -3.2281776   -3.2281776   -2.5496857 0.0068158111   -3.2281776   0.67849192   439061 
 2849000    0.4520842   -3.2280917   -3.2280917   -2.5499669 0.0079573776   -3.2280917   0.67812475   439061 
 2850000   0.45194531   -3.2281205   -3.2281205    -2.550204 0.0049255952   -3.2281205   0.67791642   439061 
 2851000   0.45256729    -3.229282    -3.229282   -2.5504326 0.0059160175    -3.229282   0.67884938   439061 
 2852000   0.45183797   -3.2283013   -3.2283013   -2.5505458 0.0099681475   -3.2283013   0.67775542   439061 
 2853000    0.4520314   -3.2282949   -3.2282949   -2.5502494 0.0073906461   -3.2282949   0.67804556   439061 
 2854000   0.45246228    -3.228698    -3.228698   -2.5500061 0.0057186153    -3.228698   0.67869187   439061 
 2855000   0.45227115   -3.2283027   -3.2283027   -2.5498975  0.008487141   -3.2283027   0.67840519   439061 
 2856000   0.45210908   -3.2275331   -3.2275331    -2.549371  0.011159385   -3.2275331   0.67816208   439061 
 2857000   0.45256008   -3.2290894   -3.2290894   -2.5502509 0.0077770478   -3.2290894   0.67883858   439061 
 2858000   0.45236325   -3.2284811   -3.2284811   -2.5499377 0.0049196926   -3.2284811   0.67854333   439061 
 2859000   0.45157713   -3.2274752   -3.2274752    -2.550111 0.0060010546   -3.2274752   0.67736415   439061 
 2860000   0.45190539   -3.2276263   -3.2276263   -2.5497697 0.0090224683   -3.2276263   0.67785654   439061 
 2861000   0.45186687   -3.2282676   -3.2282676   -2.5504688 0.0062050055   -3.2282676   0.67779876   439061 
 2862000   0.45290136   -3.2284984   -3.2284984   -2.5491479 0.0082100241   -3.2284984   0.67935049   439061 
 2863000   0.45274183   -3.2290683   -3.2290683   -2.5499571  0.004827622   -3.2290683    0.6791112   439061 
 2864000   0.45247949   -3.2283222   -3.2283222   -2.5496045 0.0071022167   -3.2283222   0.67871769   439061 
 2865000   0.45149247   -3.2271796   -3.2271796   -2.5499424 0.0076388064   -3.2271796   0.67723717   439061 
 2866000   0.45143599   -3.2279777   -3.2279777   -2.5508253 0.0087547259   -3.2279777   0.67715244   439061 
 2867000   0.45212861   -3.2292857   -3.2292857   -2.5510944 0.0076021898   -3.2292857   0.67819137   439061 
 2868000   0.45238845   -3.2295417   -3.2295417   -2.5509606 0.0071964106   -3.2295417   0.67858113   439061 
 2869000   0.45226679   -3.2289377   -3.2289377    -2.550539  0.011498682   -3.2289377   0.67839864   439061 
 2870000   0.45230606   -3.2286142   -3.2286142   -2.5501566 0.0077793365   -3.2286142   0.67845755   439061 
 2871000   0.45280988   -3.2288964   -3.2288964   -2.5496832 0.0082816429   -3.2288964   0.67921328   439061 
 2872000    0.4521003   -3.2276634   -3.2276634   -2.5495145  0.010752282   -3.2276634    0.6781489   439061 
 2873000   0.45310054   -3.2293166   -3.2293166   -2.5496673 0.0095881274   -3.2293166   0.67964927   439061 
 2874000   0.45290021   -3.2293851   -3.2293851   -2.5500364  0.005016997   -3.2293851   0.67934877   439061 
 2875000   0.45311953   -3.2298384   -3.2298384   -2.5501607 0.0063597211   -3.2298384   0.67967774   439061 
 2876000   0.45266873   -3.2283178   -3.2283178   -2.5493163 0.0090896559   -3.2283178   0.67900154   439061 
 2877000   0.45222248   -3.2278756   -3.2278756   -2.5495434 0.0058130347   -3.2278756   0.67833218   439061 
 2878000   0.45150255   -3.2275257   -3.2275257   -2.5502735 0.0052375629   -3.2275257   0.67725228   439061 
 2879000   0.45159867   -3.2280614   -3.2280614   -2.5506649 0.0037238325   -3.2280614   0.67739646   439061 
 2880000   0.45171332    -3.227827    -3.227827   -2.5502586 0.0032233881    -3.227827   0.67756843   439061 
 2881000   0.45249815   -3.2284657   -3.2284657     -2.54972 0.0047074822   -3.2284657   0.67874568   439061 
 2882000   0.45239898   -3.2283063   -3.2283063   -2.5497094 0.0072855918   -3.2283063   0.67859693   439061 
 2883000   0.45328527   -3.2289522   -3.2289522   -2.5490258 0.0076990153   -3.2289522   0.67992636   439061 
 2884000   0.45282926   -3.2280652   -3.2280652   -2.5488229 0.0075054099   -3.2280652   0.67924234   439061 
 2885000   0.45314822   -3.2291139   -3.2291139   -2.5493932  0.005921943   -3.2291139   0.67972078   439061 
 2886000   0.45271604   -3.2277638   -3.2277638   -2.5486913 0.0096345302   -3.2277638   0.67907252   439061 
 2887000   0.45363047   -3.2299962   -3.2299962    -2.549552 0.0057450129   -3.2299962   0.68044416   439061 
 2888000   0.45303862   -3.2291237   -3.2291237   -2.5495673 0.0073434386   -3.2291237   0.67955638   439061 
 2889000   0.45285197   -3.2288393   -3.2288393   -2.5495629 0.0047505644   -3.2288393    0.6792764   439061 
 2890000    0.4522431   -3.2285946   -3.2285946   -2.5502315 0.0049332786   -3.2285946   0.67836311   439061 
 2891000   0.45183154   -3.2280411   -3.2280411   -2.5502954  0.007578283   -3.2280411   0.67774577   439061 
 2892000   0.45228552   -3.2287234   -3.2287234   -2.5502967 0.0036207899   -3.2287234   0.67842674   439061 
 2893000   0.45203505   -3.2287635   -3.2287635   -2.5507124 0.0067894593   -3.2287635   0.67805103   439061 
 2894000   0.45233031   -3.2294302   -3.2294302   -2.5509363 0.0056283966   -3.2294302   0.67849391   439061 
 2895000   0.45269682   -3.2297797   -3.2297797    -2.550736 0.0058965214   -3.2297797   0.67904369   439061 
 2896000    0.4522296   -3.2293347   -3.2293347   -2.5509919 0.0073139776   -3.2293347   0.67834285   439061 
 2897000   0.45252285   -3.2293228   -3.2293228   -2.5505401 0.0074483177   -3.2293228   0.67878272   439061 
 2898000   0.45250439    -3.229934    -3.229934    -2.551179 0.0055469542    -3.229934   0.67875503   439061 
 2899000   0.45162124   -3.2288872   -3.2288872   -2.5514568 0.0082244435   -3.2288872   0.67743032   439061 
 2900000   0.45225195   -3.2295427   -3.2295427   -2.5511664 0.0084746115   -3.2295427   0.67837638   439061 
 2901000   0.45230588   -3.2298505   -3.2298505   -2.5513933 0.0088589612   -3.2298505   0.67845727   439061 
 2902000   0.45186065   -3.2292403   -3.2292403   -2.5514509 0.0096565903   -3.2292403   0.67778943   439061 
 2903000   0.45206526   -3.2296613   -3.2296613    -2.551565 0.0071098468   -3.2296613   0.67809634   439061 
 2904000   0.45221491   -3.2297792   -3.2297792   -2.5514584 0.0072110292   -3.2297792   0.67832082   439061 
 2905000   0.45233197   -3.2301496   -3.2301496   -2.5516532 0.0062325036   -3.2301496   0.67849641   439061 
 2906000   0.45231201   -3.2291206   -3.2291206   -2.5506542 0.0099879628   -3.2291206   0.67846647   439061 
 2907000   0.45331396   -3.2301829   -3.2301829   -2.5502135 0.0086556844   -3.2301829    0.6799694   439061 
 2908000   0.45280037   -3.2294105   -3.2294105   -2.5502114  0.010712724   -3.2294105   0.67919901   439061 
 2909000   0.45160553   -3.2279148   -3.2279148    -2.550508 0.0095081023   -3.2279148   0.67740675   439061 
 2910000   0.45202804   -3.2285305   -3.2285305     -2.55049 0.0074135424   -3.2285305   0.67804051   439061 
 2911000   0.45160763   -3.2288476   -3.2288476   -2.5514376 0.0040514888   -3.2288476   0.67740991   439061 
 2912000   0.45167821   -3.2286889   -3.2286889   -2.5511731 0.0032472276   -3.2286889   0.67751577   439061 
 2913000   0.45174714   -3.2290417   -3.2290417   -2.5514225 0.0047332269   -3.2290417   0.67761917   439061 
 2914000   0.45210404   -3.2294141   -3.2294141   -2.5512596 0.0038155248   -3.2294141   0.67815451   439061 
 2915000     0.451295   -3.2280729   -3.2280729    -2.551132 0.0031067052   -3.2280729   0.67694096   439061 
 2916000   0.45112036   -3.2278381   -3.2278381   -2.5511591 0.0084960033   -3.2278381   0.67667899   439061 
 2917000    0.4519377   -3.2283731   -3.2283731   -2.5504681 0.0071204364   -3.2283731     0.677905   439061 
 2918000   0.45288824   -3.2300654   -3.2300654   -2.5507346 0.0042400167   -3.2300654   0.67933082   439061 
 2919000   0.45317061   -3.2301434   -3.2301434    -2.550389 0.0077779569   -3.2301434   0.67975437   439061 
 2920000   0.45258151   -3.2300006   -3.2300006   -2.5511299 0.0094672185   -3.2300006   0.67887073   439061 
 2921000   0.45317498   -3.2308903   -3.2308903   -2.5511294 0.0069637985   -3.2308903   0.67976092   439061 
 2922000   0.45290009   -3.2305104   -3.2305104   -2.5511618 0.0097675794   -3.2305104   0.67934858   439061 
 2923000    0.4529708   -3.2311301   -3.2311301   -2.5516755 0.0091543142   -3.2311301   0.67945466   439061 
 2924000   0.45200812   -3.2295778   -3.2295778   -2.5515672  0.011382767   -3.2295778   0.67801063   439061 
 2925000   0.45281002   -3.2305019   -3.2305019   -2.5512884 0.0090246088   -3.2305019   0.67921348   439061 
 2926000    0.4515103   -3.2287092   -3.2287092   -2.5514453 0.0097709134   -3.2287092   0.67726391   439061 
 2927000   0.45194064   -3.2294927   -3.2294927   -2.5515833 0.0074096578   -3.2294927   0.67790942   439061 
 2928000   0.45225067   -3.2303777   -3.2303777   -2.5520032 0.0053028372   -3.2303777   0.67837447   439061 
 2929000   0.45270498   -3.2304379   -3.2304379    -2.551382 0.0058396566   -3.2304379   0.67905592   439061 
 2930000   0.45204617   -3.2301148   -3.2301148   -2.5520471 0.0067569752   -3.2301148   0.67806771   439061 
 2931000   0.45235158   -3.2298576   -3.2298576   -2.5513317 0.0073685677   -3.2298576   0.67852583   439061 
 2932000   0.45270589   -3.2307082   -3.2307082   -2.5516509 0.0037603537   -3.2307082   0.67905728   439061 
 2933000   0.45225704   -3.2295527   -3.2295527   -2.5511686 0.0051970784   -3.2295527   0.67838402   439061 
 2934000   0.45267103   -3.2300496   -3.2300496   -2.5510446  0.011264839   -3.2300496     0.679005   439061 
 2935000   0.45288626   -3.2302478   -3.2302478     -2.55092 0.0040129556   -3.2302478   0.67932785   439061 
 2936000   0.45305711   -3.2306687   -3.2306687   -2.5510846 0.0076841442   -3.2306687   0.67958412   439061 
 2937000   0.45221765   -3.2299745   -3.2299745   -2.5516496 0.0098307846   -3.2299745   0.67832493   439061 
 2938000   0.45245281   -3.2305679   -3.2305679   -2.5518902 0.0088420646   -3.2305679   0.67867768   439061 
 2939000    0.4524959   -3.2304386   -3.2304386   -2.5516963  0.008561954   -3.2304386   0.67874231   439061 
 2940000   0.45267269   -3.2313914   -3.2313914    -2.552384 0.0018689078   -3.2313914   0.67900748   439061 
 2941000   0.45167977   -3.2301131   -3.2301131    -2.552595 0.0056143552   -3.2301131   0.67751811   439061 
 2942000   0.45206221   -3.2300155   -3.2300155   -2.5519238  0.007103467   -3.2300155   0.67809177   439061 
 2943000   0.45213417   -3.2312431   -3.2312431   -2.5530434 0.0028407919   -3.2312431   0.67819972   439061 
 2944000   0.45283212   -3.2319336   -3.2319336    -2.552687 0.0050919832   -3.2319336   0.67924664   439061 
 2945000   0.45255714   -3.2313673   -3.2313673   -2.5525331 0.0073972437   -3.2313673   0.67883417   439061 
 2946000    0.4516917   -3.2305993   -3.2305993   -2.5530633  0.011488354   -3.2305993     0.677536   439061 
 2947000   0.45205139   -3.2313715   -3.2313715   -2.5532959 0.0091667901   -3.2313715   0.67807554   439061 
 2948000    0.4523439   -3.2314116   -3.2314116   -2.5528973 0.0047283764   -3.2314116    0.6785143   439061 
 2949000   0.45220837   -3.2317803   -3.2317803   -2.5534693 0.0057616194   -3.2317803   0.67831101   439061 
 2950000   0.45245609   -3.2314119   -3.2314119   -2.5527294 0.0068325053   -3.2314119   0.67868259   439061 
 2951000   0.45267744   -3.2314117   -3.2314117   -2.5523971 0.0079818833   -3.2314117   0.67901461   439061 
 2952000    0.4527536    -3.231886    -3.231886   -2.5527572 0.0058966573    -3.231886   0.67912885   439061 
 2953000   0.45270841   -3.2321611   -3.2321611      -2.5531 0.0070197925   -3.2321611   0.67906107   439061 
 2954000   0.45174822   -3.2307142   -3.2307142   -2.5530934 0.0030053883   -3.2307142   0.67762079   439061 
 2955000   0.45137964   -3.2305524   -3.2305524   -2.5534845 0.0045442814   -3.2305524   0.67706791   439061 
 2956000   0.45195445   -3.2313239   -3.2313239   -2.5533937 0.0035969771   -3.2313239   0.67793013   439061 
 2957000   0.45183502   -3.2310723   -3.2310723   -2.5533213 0.0073726226   -3.2310723   0.67775098   439061 
 2958000   0.45147908   -3.2298883   -3.2298883   -2.5526712  0.011147077   -3.2298883   0.67721707   439061 
 2959000   0.45299293   -3.2318708   -3.2318708    -2.552383 0.0062315819   -3.2318708   0.67948785   439061 
 2960000   0.45227931   -3.2312283   -3.2312283   -2.5528109 0.0050261708   -3.2312283   0.67841741   439061 
 2961000    0.4524677   -3.2314108   -3.2314108   -2.5527108  0.001939664   -3.2314108       0.6787   439061 
 2962000    0.4518967   -3.2304081   -3.2304081   -2.5525646  0.007608643   -3.2304081   0.67784351   439061 
 2963000   0.45205655   -3.2310267   -3.2310267   -2.5529434 0.0054711127   -3.2310267   0.67808329   439061 
 2964000   0.45261276   -3.2315368   -3.2315368   -2.5526192 0.0066786908   -3.2315368   0.67891759   439061 
 2965000   0.45298489    -3.232623    -3.232623   -2.5531472 0.0053146572    -3.232623   0.67947579   439061 
 2966000   0.45188691   -3.2318567   -3.2318567   -2.5540279 0.0044590202   -3.2318567   0.67782883   439061 
 2967000   0.45240921   -3.2322459   -3.2322459   -2.5536337 0.0073885354   -3.2322459   0.67861228   439061 
 2968000   0.45232963    -3.231761    -3.231761   -2.5532681 0.0057987118    -3.231761    0.6784929   439061 
 2969000   0.45212021   -3.2329474   -3.2329474   -2.5547686 0.0078832197   -3.2329474   0.67817877   439061 
 2970000   0.45135579   -3.2312808   -3.2312808   -2.5542487 0.0098013619   -3.2312808   0.67703214   439061 
 2971000   0.45231012   -3.2326258   -3.2326258   -2.5541621 0.0077033736   -3.2326258   0.67846364   439061 
 2972000   0.45228871   -3.2326441   -3.2326441   -2.5542126 0.0067278909   -3.2326441   0.67843152   439061 
 2973000   0.45202414   -3.2318666   -3.2318666   -2.5538319  0.013690561   -3.2318666   0.67803467   439061 
 2974000   0.45321054   -3.2323921   -3.2323921   -2.5525778 0.0081012504   -3.2323921   0.67981427   439061 
 2975000   0.45263741   -3.2323645   -3.2323645     -2.55341 0.0080298178   -3.2323645   0.67895457   439061 
 2976000   0.45232459   -3.2319453   -3.2319453   -2.5534599 0.0062341797   -3.2319453   0.67848534   439061 
 2977000   0.45182985    -3.231086    -3.231086   -2.5533428 0.0061100071    -3.231086   0.67774323   439061 
 2978000    0.4514468   -3.2307898   -3.2307898   -2.5536212  0.010091457   -3.2307898   0.67716865   439061 
 2979000    0.4518194   -3.2310785   -3.2310785   -2.5533509 0.0079220877   -3.2310785   0.67772755   439061 
 2980000   0.45181671     -3.23147     -3.23147   -2.5537465 0.0046273181     -3.23147   0.67772352   439061 
 2981000   0.45171952   -3.2310898   -3.2310898   -2.5535121  0.003809894   -3.2310898   0.67757774   439061 
 2982000    0.4521093   -3.2318016   -3.2318016   -2.5536392 0.0034767549   -3.2318016   0.67816241   439061 
 2983000   0.45180664   -3.2317262   -3.2317262   -2.5540178 0.0051586123   -3.2317262   0.67770842   439061 
 2984000   0.45193165   -3.2316145   -3.2316145   -2.5537185 0.0059590379   -3.2316145   0.67789593   439061 
 2985000   0.45248601   -3.2318555   -3.2318555    -2.553128 0.0097530334   -3.2318555   0.67872747   439061 
 2986000   0.45206002   -3.2311846   -3.2311846   -2.5530961  0.011671322   -3.2311846   0.67808848   439061 
 2987000   0.45329183   -3.2332932   -3.2332932   -2.5533569 0.0098472757   -3.2332932    0.6799362   439061 
 2988000   0.45182071   -3.2313419   -3.2313419   -2.5536124  0.010346321   -3.2313419   0.67772953   439061 
 2989000   0.45227391   -3.2322172   -3.2322172   -2.5538079 0.0067550007   -3.2322172   0.67840931   439061 
 2990000   0.45244518    -3.232842    -3.232842   -2.5541758 0.0073070872    -3.232842   0.67866623   439061 
 2991000   0.45269007    -3.232977    -3.232977   -2.5539434 0.0048602886    -3.232977   0.67903356   439061 
 2992000   0.45235357   -3.2320637   -3.2320637   -2.5535349  0.007206916   -3.2320637   0.67852881   439061 
 2993000   0.45136334   -3.2309177   -3.2309177   -2.5538742 0.0081754893   -3.2309177   0.67704347   439061 
 2994000   0.45216662   -3.2322362   -3.2322362   -2.5539878  0.004284783   -3.2322362   0.67824839   439061 
 2995000   0.45200913   -3.2322627   -3.2322627   -2.5542506 0.0051983318   -3.2322627   0.67801215   439061 
 2996000   0.45206586   -3.2320221   -3.2320221   -2.5539249 0.0076958171   -3.2320221   0.67809725   439061 
 2997000   0.45226365    -3.231997    -3.231997   -2.5536031 0.0077787322    -3.231997   0.67839392   439061 
 2998000   0.45185773   -3.2320847   -3.2320847   -2.5542996 0.0051101919   -3.2320847   0.67778505   439061 
 2999000   0.45221562   -3.2333143   -3.2333143   -2.5549925 0.0048821169   -3.2333143   0.67832189   439061 
 3000000   0.45145032   -3.2319141   -3.2319141   -2.5547402   0.01018077   -3.2319141   0.67717394   439061 
 3001000   0.45171814   -3.2321301   -3.2321301   -2.5545544 0.0070248659   -3.2321301   0.67757566   439061 
 3002000   0.45175084   -3.2326394   -3.2326394   -2.5550147 0.0058888404   -3.2326394   0.67762472   439061 
 3003000   0.45108582   -3.2324103   -3.2324103   -2.5557831 0.0079108596   -3.2324103   0.67662719   439061 
 3004000   0.45123915   -3.2332102   -3.2332102    -2.556353 0.0039423665   -3.2332102   0.67685718   439061 
 3005000   0.45155222   -3.2332037   -3.2332037   -2.5558769 0.0075549259   -3.2332037   0.67732679   439061 
 3006000   0.45188888   -3.2337339   -3.2337339   -2.5559021 0.0050785137   -3.2337339   0.67783178   439061 
 3007000   0.45179898   -3.2337519   -3.2337519   -2.5560549 0.0082539323   -3.2337519   0.67769692   439061 
 3008000   0.45237463   -3.2344897   -3.2344897   -2.5559293 0.0079999546   -3.2344897    0.6785604   439061 
 3009000   0.45251648   -3.2343622   -3.2343622    -2.555589 0.0087429266   -3.2343622   0.67877318   439061 
 3010000    0.4522646   -3.2333463   -3.2333463   -2.5549509  0.011576272   -3.2333463   0.67839536   439061 
 3011000   0.45139099   -3.2331603   -3.2331603   -2.5560754 0.0096821235   -3.2331603   0.67708495   439061 
 3012000   0.45250596   -3.2346094   -3.2346094    -2.555852 0.0073357581   -3.2346094   0.67875739   439061 
 3013000   0.45150968   -3.2331675   -3.2331675   -2.5559045 0.0087051117   -3.2331675   0.67726298   439061 
 3014000   0.45183384   -3.2334115   -3.2334115   -2.5556623 0.0081814379   -3.2334115   0.67774921   439061 
 3015000   0.45133666   -3.2329542   -3.2329542   -2.5559507 0.0056930487   -3.2329542   0.67700345   439061 
 3016000   0.45145194   -3.2329907   -3.2329907   -2.5558143  0.001026785   -3.2329907   0.67717637   439061 
 3017000   0.45076913   -3.2319212   -3.2319212    -2.555769 0.0092109515   -3.2319212   0.67615216   439061 
 3018000   0.45115519   -3.2324642   -3.2324642   -2.5557329 0.0055710196   -3.2324642   0.67673124   439061 
 3019000   0.45153566   -3.2332614   -3.2332614   -2.5559595 0.0011689504   -3.2332614   0.67730194   439061 
 3020000   0.45163218   -3.2330034   -3.2330034   -2.5555567 0.0052388199   -3.2330034   0.67744673   439061 
 3021000   0.45180056   -3.2331517   -3.2331517   -2.5554524 0.0083574675   -3.2331517    0.6776993   439061 
 3022000   0.45170396   -3.2329895   -3.2329895   -2.5554351 0.0076747324   -3.2329895    0.6775544   439061 
 3023000   0.45232261   -3.2343904   -3.2343904    -2.555908 0.0051043008   -3.2343904   0.67848237   439061 
 3024000   0.45173959   -3.2334783   -3.2334783   -2.5558705 0.0085470036   -3.2334783   0.67760785   439061 
 3025000   0.45180434   -3.2335128   -3.2335128   -2.5558079  0.011717641   -3.2335128   0.67770497   439061 
 3026000    0.4515454   -3.2340801   -3.2340801   -2.5567636 0.0081425499   -3.2340801   0.67731655   439061 
 3027000   0.45133381   -3.2336773   -3.2336773   -2.5566781 0.0098106803   -3.2336773   0.67699918   439061 
 3028000   0.45161175   -3.2343902   -3.2343902   -2.5569742 0.0068157805   -3.2343902   0.67741609   439061 
 3029000   0.45203799   -3.2351622   -3.2351622   -2.5571068 0.0045222374   -3.2351622   0.67805544   439061 
 3030000   0.45184211    -3.234223    -3.234223   -2.5564614 0.0061263528    -3.234223   0.67776162   439061 
 3031000   0.45191272   -3.2340812   -3.2340812   -2.5562137 0.0061700409   -3.2340812   0.67786754   439061 
 3032000   0.45167484   -3.2333481   -3.2333481   -2.5558373 0.0070557942   -3.2333481   0.67751072   439061 
 3033000   0.45152272   -3.2328838   -3.2328838   -2.5556012 0.0075392449   -3.2328838   0.67728254   439061 
 3034000   0.45122193   -3.2320987   -3.2320987   -2.5552674 0.0091940523   -3.2320987   0.67683135   439061 
 3035000   0.45155784   -3.2330004   -3.2330004   -2.5556651 0.0057778202   -3.2330004   0.67733521   439061 
 3036000   0.45199354   -3.2342444   -3.2342444   -2.5562556 0.0072845928   -3.2342444   0.67798876   439061 
 3037000   0.45143781   -3.2327066   -3.2327066   -2.5555514 0.0076952209   -3.2327066   0.67715517   439061 
 3038000   0.45185302   -3.2330824   -3.2330824   -2.5553044 0.0074748604   -3.2330824   0.67777799   439061 
 3039000   0.45221509   -3.2336569   -3.2336569   -2.5553358 0.0063310387   -3.2336569    0.6783211   439061 
 3040000   0.45114934   -3.2323734   -3.2323734   -2.5556509 0.0091090984   -3.2323734   0.67672247   439061 
 3041000   0.45187324   -3.2324956   -3.2324956   -2.5546873 0.0069034064   -3.2324956   0.67780832   439061 
 3042000   0.45163785   -3.2315763   -3.2315763   -2.5541211 0.0091173478   -3.2315763   0.67745523   439061 
 3043000   0.45258831    -3.233106    -3.233106   -2.5542251 0.0061904783    -3.233106   0.67888091   439061 
 3044000   0.45221449   -3.2332454   -3.2332454   -2.5549252 0.0063575037   -3.2332454    0.6783202   439061 
 3045000   0.45199849   -3.2328667   -3.2328667   -2.5548705  0.006807461   -3.2328667   0.67799619   439061 
 3046000    0.4517539   -3.2324203   -3.2324203    -2.554791 0.0048044408   -3.2324203   0.67762931   439061 
 3047000   0.45157169   -3.2324155   -3.2324155   -2.5550595 0.0033273431   -3.2324155   0.67735599   439061 
 3048000   0.45098078   -3.2322352   -3.2322352   -2.5557655 0.0030206902   -3.2322352   0.67646962   439061 
 3049000   0.45164564   -3.2336646   -3.2336646   -2.5561977  0.003800288   -3.2336646   0.67746692   439061 
 3050000    0.4515012   -3.2334462   -3.2334462   -2.5561959 0.0060252793   -3.2334462   0.67725025   439061 
 3051000   0.45217046   -3.2341592   -3.2341592    -2.555905 0.0062548459   -3.2341592   0.67825414   439061 
 3052000    0.4528162   -3.2344785   -3.2344785   -2.5552558 0.0051604204   -3.2344785   0.67922276   439061 
 3053000   0.45251981   -3.2335803   -3.2335803   -2.5548021 0.0087786612   -3.2335803   0.67877817   439061 
 3054000   0.45186654   -3.2330247   -3.2330247   -2.5552264  0.010603589   -3.2330247   0.67779827   439061 
 3055000   0.45176237   -3.2333186   -3.2333186   -2.5556766  0.014875992   -3.2333186   0.67764201   439061 
 3056000   0.45200231   -3.2339901   -3.2339901   -2.5559882 0.0056390629   -3.2339901   0.67800192   439061 
 3057000    0.4524008   -3.2340945   -3.2340945   -2.5554949 0.0071454253   -3.2340945   0.67859965   439061 
 3058000   0.45176617   -3.2343759   -3.2343759   -2.5567282 0.0036412618   -3.2343759   0.67764771   439061 
 3059000   0.45113176   -3.2328487   -3.2328487   -2.5561526 0.0070125225   -3.2328487    0.6766961   439061 
 3060000   0.45157181     -3.23295     -3.23295   -2.5555939 0.0072832735     -3.23295   0.67735617   439061 
 3061000   0.45266957   -3.2339248   -3.2339248    -2.554922 0.0066832985   -3.2339248   0.67900281   439061 
 3062000    0.4519933   -3.2324552   -3.2324552   -2.5544667  0.007856053   -3.2324552   0.67798841   439061 
 3063000   0.45133676   -3.2315672   -3.2315672   -2.5545636  0.010172104   -3.2315672    0.6770036   439061 
 3064000   0.45151029   -3.2318968   -3.2318968   -2.5546329 0.0077576173   -3.2318968   0.67726389   439061 
 3065000   0.45233631   -3.2332533   -3.2332533   -2.5547503 0.0045742847   -3.2332533   0.67850292   439061 
 3066000   0.45099951   -3.2315689   -3.2315689   -2.5550712 0.0078673508   -3.2315689   0.67649773   439061 
 3067000   0.45165969   -3.2320614   -3.2320614   -2.5545735 0.0077472885   -3.2320614   0.67748799   439061 
 3068000   0.45187777   -3.2324199   -3.2324199   -2.5546048 0.0058991172   -3.2324199   0.67781511   439061 
 3069000   0.45184257   -3.2321298   -3.2321298   -2.5543675  0.006510694   -3.2321298   0.67776231   439061 
 3070000   0.45184858   -3.2318116   -3.2318116   -2.5540403   0.00766194   -3.2318116   0.67777132   439061 
 3071000   0.45236585   -3.2321988   -3.2321988   -2.5536516 0.0076542133   -3.2321988   0.67854724   439061 
 3072000   0.45264918   -3.2330217   -3.2330217   -2.5540495  0.010657987   -3.2330217   0.67897222   439061 
 3073000   0.45268523   -3.2332724   -3.2332724   -2.5542461 0.0094434043   -3.2332724    0.6790263   439061 
 3074000   0.45257142   -3.2338307   -3.2338307   -2.5549751   0.00679622   -3.2338307   0.67885558   439061 
 3075000   0.45168976   -3.2321958   -3.2321958   -2.5546627  0.010231842   -3.2321958    0.6775331   439061 
 3076000   0.45216629   -3.2334203   -3.2334203   -2.5551724 0.0035422846   -3.2334203   0.67824789   439061 
 3077000   0.45201959   -3.2330292   -3.2330292   -2.5550014 0.0071887152   -3.2330292   0.67802784   439061 
 3078000   0.45189399   -3.2333708   -3.2333708   -2.5555314 0.0070924544   -3.2333708   0.67783944   439061 
 3079000   0.45225848   -3.2335024   -3.2335024   -2.5551163 0.0047887446   -3.2335024   0.67838617   439061 
 3080000   0.45191606   -3.2329222   -3.2329222   -2.5550497 0.0026718587   -3.2329222   0.67787255   439061 
 3081000   0.45151997   -3.2332213   -3.2332213   -2.5559429 0.0033911773   -3.2332213   0.67727841   439061 
 3082000   0.45170223   -3.2331506   -3.2331506   -2.5555988 0.0043095815   -3.2331506   0.67755181   439061 
 3083000   0.45181242   -3.2333975   -3.2333975   -2.5556804  0.004485793   -3.2333975   0.67771709   439061 
 3084000   0.45220853   -3.2337942   -3.2337942   -2.5554829 0.0055593667   -3.2337942   0.67831125   439061 
 3085000   0.45150911   -3.2330251   -3.2330251    -2.555763 0.0063243144   -3.2330251   0.67726212   439061 
 3086000   0.45127851    -3.232979    -3.232979   -2.5560628 0.0074093571    -3.232979   0.67691622   439061 
 3087000   0.45184084   -3.2345791   -3.2345791   -2.5568194 0.0014973975   -3.2345791   0.67775971   439061 
 3088000   0.45132015   -3.2333071   -3.2333071   -2.5563284 0.0075981856   -3.2333071   0.67697868   439061 
 3089000   0.45097036   -3.2339122   -3.2339122   -2.5574582  0.008791455   -3.2339122     0.676454   439061 
 3090000   0.45213575   -3.2357476   -3.2357476   -2.5575455 0.0047780917   -3.2357476   0.67820207   439061 
 3091000    0.4514145   -3.2343731   -3.2343731   -2.5572529  0.011515777   -3.2343731   0.67712021   439061 
 3092000   0.45146091   -3.2347173   -3.2347173   -2.5575275  0.010173411   -3.2347173   0.67718983   439061 
 3093000   0.45337789   -3.2371429   -3.2371429   -2.5570776 0.0078333881   -3.2371429   0.68006529   439061 
 3094000   0.45181804    -3.234941    -3.234941   -2.5572155  0.011687568    -3.234941   0.67772552   439061 
 3095000   0.45154361   -3.2350428   -3.2350428    -2.557729  0.010354489   -3.2350428   0.67731387   439061 
 3096000   0.45208619   -3.2354188   -3.2354188   -2.5572911 0.0073411773   -3.2354188   0.67812774   439061 
 3097000   0.45151037   -3.2344568   -3.2344568   -2.5571928 0.0068495962   -3.2344568   0.67726401   439061 
 3098000   0.45237093   -3.2353948   -3.2353948   -2.5568399  0.005855343   -3.2353948   0.67855484   439061 
 3099000   0.45190691   -3.2346904   -3.2346904   -2.5568316 0.0058998634   -3.2346904   0.67785882   439061 
 3100000    0.4516929   -3.2341292   -3.2341292   -2.5565914 0.0031984637   -3.2341292    0.6775378   439061 
 3101000   0.45181209    -3.233986    -3.233986   -2.5562694 0.0043521822    -3.233986   0.67771659   439061 
 3102000   0.45206476   -3.2337539   -3.2337539   -2.5556583  0.005337034   -3.2337539    0.6780956   439061 
 3103000   0.45150768   -3.2328336   -3.2328336   -2.5555736 0.0057093951   -3.2328336   0.67725998   439061 
 3104000    0.4518349   -3.2329923   -3.2329923   -2.5552415 0.0062968164   -3.2329923   0.67775081   439061 
 3105000   0.45145733    -3.231821    -3.231821   -2.5546365 0.0041014069    -3.231821   0.67718446   439061 
 3106000   0.45212086   -3.2326227   -3.2326227    -2.554443 0.0035682517   -3.2326227   0.67817975   439061 
 3107000   0.45177709   -3.2325035   -3.2325035   -2.5548394 0.0071100482   -3.2325035    0.6776641   439061 
 3108000   0.45148132   -3.2325509   -3.2325509   -2.5553304 0.0083348932   -3.2325509   0.67722044   439061 
 3109000   0.45201962   -3.2329627   -3.2329627   -2.5549348 0.0078296353   -3.2329627   0.67802788   439061 
 3110000   0.45225543   -3.2331338   -3.2331338   -2.5547522 0.0062096556   -3.2331338    0.6783816   439061 
 3111000   0.45137744   -3.2326285   -3.2326285   -2.5555639 0.0083322779   -3.2326285   0.67706462   439061 
 3112000   0.45181162    -3.233481    -3.233481   -2.5557651  0.010116191    -3.233481   0.67771589   439061 
 3113000   0.45186516   -3.2337729   -3.2337729   -2.5559767 0.0065543363   -3.2337729    0.6777962   439061 
 3114000   0.45217907   -3.2339588   -3.2339588   -2.5556917 0.0063678501   -3.2339588   0.67826705   439061 
 3115000   0.45201923   -3.2340973   -3.2340973     -2.55607 0.0078315279   -3.2340973    0.6780273   439061 
 3116000   0.45217492   -3.2343611   -3.2343611   -2.5561003 0.0077182851   -3.2343611   0.67826083   439061 
 3117000   0.45214599   -3.2343435   -3.2343435   -2.5561261  0.010150393   -3.2343435   0.67821744   439061 
 3118000   0.45223185   -3.2346442   -3.2346442    -2.556298 0.0056772392   -3.2346442   0.67834623   439061 
 3119000   0.45137946   -3.2336635   -3.2336635   -2.5565959 0.0090516269   -3.2336635   0.67706764   439061 
 3120000   0.45190264   -3.2342752   -3.2342752   -2.5564227 0.0060390993   -3.2342752   0.67785241   439061 
 3121000   0.45061963   -3.2328559   -3.2328559    -2.556928 0.0060868734   -3.2328559   0.67592791   439061 
 3122000   0.45161703   -3.2345905   -3.2345905   -2.5571665 0.0056139748   -3.2345905     0.677424   439061 
 3123000   0.45144975   -3.2337693   -3.2337693   -2.5565962  0.010284676   -3.2337693   0.67717308   439061 
 3124000   0.45227244   -3.2347693   -3.2347693   -2.5563622 0.0069799532   -3.2347693   0.67840711   439061 
 3125000    0.4524536   -3.2354427   -3.2354427   -2.5567638 0.0043306939   -3.2354427   0.67867885   439061 
 3126000   0.45161105   -3.2347291   -3.2347291   -2.5573141 0.0065246798   -3.2347291   0.67741503   439061 
 3127000   0.45220566   -3.2347253   -3.2347253   -2.5564183 0.0054047658   -3.2347253   0.67830694   439061 
 3128000    0.4518188   -3.2343656   -3.2343656    -2.556639 0.0071515014   -3.2343656   0.67772666   439061 
 3129000   0.45184741   -3.2336413   -3.2336413   -2.5558717 0.0084140865   -3.2336413   0.67776957   439061 
 3130000   0.45176665    -3.233977    -3.233977   -2.5563285 0.0095844641    -3.233977   0.67764842   439061 
 3131000   0.45109618   -3.2338461   -3.2338461   -2.5572034 0.0059205622   -3.2338461   0.67664272   439061 
 3132000   0.45069362   -3.2329144   -3.2329144   -2.5568755 0.0080358414   -3.2329144   0.67603889   439061 
 3133000   0.45147343   -3.2338128   -3.2338128   -2.5566042 0.0076338686   -3.2338128   0.67720861   439061 
 3134000   0.45174312    -3.233925    -3.233925   -2.5563119 0.0086915064    -3.233925   0.67761314   439061 
 3135000   0.45219354   -3.2351027   -3.2351027   -2.5568139 0.0053640401   -3.2351027   0.67828876   439061 
 3136000   0.45122869   -3.2336044   -3.2336044   -2.5567629 0.0068898813   -3.2336044   0.67684149   439061 
 3137000   0.45157373   -3.2340411   -3.2340411    -2.556682 0.0069051266   -3.2340411   0.67735906   439061 
 3138000    0.4514417   -3.2332239   -3.2332239   -2.5560629 0.0056076291   -3.2332239     0.677161   439061 
 3139000   0.45205322   -3.2347278   -3.2347278   -2.5566495 0.0068232171   -3.2347278   0.67807828   439061 
 3140000   0.45161482   -3.2346562   -3.2346562   -2.5572356 0.0034395421   -3.2346562   0.67742068   439061 
 3141000   0.45133513   -3.2350544   -3.2350544   -2.5580532 0.0074730131   -3.2350544   0.67700116   439061 
 3142000   0.45139903   -3.2347858   -3.2347858   -2.5576888 0.0064572487   -3.2347858   0.67709701   439061 
 3143000   0.45136806   -3.2346173   -3.2346173   -2.5575668  0.010367146   -3.2346173   0.67705055   439061 
 3144000   0.45244322   -3.2362562   -3.2362562    -2.557593  0.005059207   -3.2362562   0.67866328   439061 
 3145000   0.45192875   -3.2352618   -3.2352618   -2.5573702  0.008299995   -3.2352618   0.67789158   439061 
 3146000   0.45184756   -3.2350474   -3.2350474   -2.5572776  0.011026975   -3.2350474   0.67776979   439061 
 3147000   0.45126897   -3.2350319   -3.2350319     -2.55813 0.0090967673   -3.2350319   0.67690191   439061 
 3148000   0.45158485   -3.2350466   -3.2350466   -2.5576709 0.0081191652   -3.2350466   0.67737573   439061 
 3149000   0.45120353   -3.2348628   -3.2348628    -2.558059 0.0043252087   -3.2348628   0.67680376   439061 
 3150000   0.45137029   -3.2344491   -3.2344491   -2.5573952 0.0065839842   -3.2344491   0.67705389   439061 
 3151000   0.45145359   -3.2334401   -3.2334401   -2.5562613 0.0076568006   -3.2334401   0.67717884   439061 
 3152000   0.45210618   -3.2342416   -3.2342416   -2.5560839  0.007141478   -3.2342416   0.67815773   439061 
 3153000   0.45151369   -3.2338702   -3.2338702   -2.5566012 0.0070528308   -3.2338702   0.67726899   439061 
 3154000    0.4511629   -3.2332854   -3.2332854   -2.5565426  0.006254635   -3.2332854   0.67674281   439061 
 3155000   0.45157999   -3.2334572   -3.2334572   -2.5560887 0.0050999397   -3.2334572   0.67736845   439061 
 3156000   0.45121152   -3.2329718   -3.2329718    -2.556156 0.0045856295   -3.2329718   0.67681574   439061 
 3157000   0.45157934   -3.2339525   -3.2339525   -2.5565851 0.0024067841   -3.2339525   0.67736747   439061 
 3158000   0.45163957   -3.2346632   -3.2346632   -2.5572054 0.0029364505   -3.2346632   0.67745781   439061 
 3159000   0.45061733   -3.2345123   -3.2345123   -2.5585878 0.0033888871   -3.2345123   0.67592446   439061 
 3160000    0.4503005   -3.2336624   -3.2336624   -2.5582132 0.0062540162   -3.2336624   0.67544922   439061 
 3161000   0.45122516   -3.2346562   -3.2346562     -2.55782 0.0062025678   -3.2346562   0.67683619   439061 
 3162000   0.45162525   -3.2349471   -3.2349471   -2.5575108 0.0098665414   -3.2349471   0.67743633   439061 
 3163000   0.45231939   -3.2360079   -3.2360079   -2.5575304  0.010067873   -3.2360079   0.67847753   439061 
 3164000   0.45191138   -3.2359118   -3.2359118   -2.5580463  0.012163929   -3.2359118   0.67786552   439061 
 3165000   0.45265009   -3.2368948   -3.2368948   -2.5579212  0.005791804   -3.2368948   0.67897359   439061 
 3166000   0.45170324   -3.2357538   -3.2357538   -2.5582005  0.011562125   -3.2357538   0.67755332   439061 
 3167000   0.45144559   -3.2355221   -3.2355221   -2.5583553  0.010822192   -3.2355221   0.67716684   439061 
 3168000   0.45186815   -3.2359079   -3.2359079   -2.5581072 0.0087612795   -3.2359079   0.67780068   439061 
 3169000   0.45162614   -3.2355648   -3.2355648   -2.5581271 0.0066282584   -3.2355648   0.67743767   439061 
 3170000   0.45076904   -3.2345476   -3.2345476   -2.5583955 0.0067666228   -3.2345476   0.67615202   439061 
 3171000   0.45035671   -3.2346033   -3.2346033   -2.5590698 0.0027603938   -3.2346033   0.67553353   439061 
 3172000   0.45050206   -3.2356847   -3.2356847   -2.5599331 0.0014174986   -3.2356847   0.67575155   439061 
 3173000   0.44982829   -3.2336879   -3.2336879    -2.558947 0.0052883018   -3.2336879   0.67474089   439061 
 3174000   0.45158295   -3.2361329   -3.2361329   -2.5587601 0.0037961105   -3.2361329   0.67737289   439061 
 3175000   0.45110337   -3.2348686   -3.2348686   -2.5582151 0.0093222759   -3.2348686   0.67665352   439061 
 3176000   0.45118068   -3.2346455   -3.2346455   -2.5578761 0.0077441737   -3.2346455   0.67676947   439061 
 3177000   0.45138837   -3.2341911   -3.2341911   -2.5571101  0.011242621   -3.2341911   0.67708101   439061 
 3178000   0.45161387   -3.2349322   -3.2349322    -2.557513  0.010699932   -3.2349322   0.67741926   439061 
 3179000   0.45265885   -3.2358907   -3.2358907    -2.556904 0.0090761686   -3.2358907   0.67898673   439061 
 3180000   0.45197898   -3.2352472   -3.2352472   -2.5572802 0.0071073557   -3.2352472   0.67796692   439061 
 3181000   0.45144436   -3.2345965   -3.2345965   -2.5574315 0.0084207883   -3.2345965     0.677165   439061 
 3182000   0.45117117   -3.2347377   -3.2347377   -2.5579825 0.0058724517   -3.2347377   0.67675522   439061 
 3183000   0.45172624   -3.2345607   -3.2345607   -2.5569729 0.0060632782   -3.2345607   0.67758781   439061 
 3184000   0.45111199   -3.2338719   -3.2338719   -2.5572055 0.0050470123   -3.2338719   0.67666644   439061 
 3185000   0.45169162   -3.2343109   -3.2343109    -2.556775 0.0052136277   -3.2343109   0.67753589   439061 
 3186000   0.45129861   -3.2335488   -3.2335488   -2.5566024 0.0036517235   -3.2335488   0.67694637   439061 
 3187000   0.45129232   -3.2334191   -3.2334191   -2.5564822 0.0023181306   -3.2334191   0.67693694   439061 
 3188000    0.4513143   -3.2337861   -3.2337861   -2.5568162 0.0067338372   -3.2337861   0.67696991   439061 
 3189000   0.45105581   -3.2336246   -3.2336246   -2.5570424 0.0037495158   -3.2336246   0.67658218   439061 
 3190000   0.45131059   -3.2335183   -3.2335183   -2.5565539 0.0046940211   -3.2335183   0.67696434   439061 
 3191000   0.45200174   -3.2341853   -3.2341853   -2.5561843 0.0094516432   -3.2341853   0.67800106   439061 
 3192000   0.45111417   -3.2332566   -3.2332566   -2.5565869 0.0075791588   -3.2332566   0.67666971   439061 
 3193000    0.4522836   -3.2353855   -3.2353855   -2.5569617 0.0047501118   -3.2353855   0.67842386   439061 
 3194000   0.45140878   -3.2342763   -3.2342763   -2.5571646 0.0065966891   -3.2342763   0.67711163   439061 
 3195000   0.45091869   -3.2341689   -3.2341689   -2.5577924 0.0056346642   -3.2341689   0.67637649   439061 
 3196000   0.45172043   -3.2351736   -3.2351736   -2.5575945 0.0073903475   -3.2351736    0.6775791   439061 
 3197000   0.45123443   -3.2343301   -3.2343301     -2.55748 0.0070481276   -3.2343301    0.6768501   439061 
 3198000    0.4512127   -3.2341778   -3.2341778   -2.5573603 0.0097386077   -3.2341778    0.6768175   439061 
 3199000    0.4513976   -3.2348701   -3.2348701   -2.5577753 0.0078751407   -3.2348701   0.67709486   439061 
 3200000   0.45261894   -3.2363468   -3.2363468     -2.55742  0.006156923   -3.2363468   0.67892687   439061 
 3201000   0.45125543   -3.2345119   -3.2345119   -2.5576303 0.0050178229   -3.2345119    0.6768816   439061 
 3202000   0.45207482   -3.2350383   -3.2350383   -2.5569276 0.0047267716   -3.2350383   0.67811069   439061 
 3203000     0.450934   -3.2333515   -3.2333515    -2.556952  0.011392311   -3.2333515   0.67639946   439061 
 3204000   0.45091428   -3.2340707   -3.2340707   -2.5577009 0.0077683692   -3.2340707   0.67636988   439061 
 3205000   0.45153314   -3.2350046   -3.2350046   -2.5577064 0.0077974032   -3.2350046   0.67729816   439061 
 3206000   0.45130204    -3.234271    -3.234271   -2.5573194 0.0070468347    -3.234271   0.67695152   439061 
 3207000   0.45175545   -3.2346208   -3.2346208   -2.5569891 0.0041620765   -3.2346208   0.67763163   439061 
 3208000   0.45208296   -3.2346468   -3.2346468    -2.556524 0.0053209763   -3.2346468   0.67812289   439061 
 3209000   0.45171353   -3.2339044   -3.2339044   -2.5563357 0.0047082076   -3.2339044   0.67756875   439061 
 3210000   0.45164253   -3.2342317   -3.2342317   -2.5567694 0.0063230788   -3.2342317   0.67746226   439061 
 3211000   0.45196107   -3.2347098   -3.2347098   -2.5567697 0.0059758812   -3.2347098   0.67794006   439061 
 3212000   0.45216059   -3.2350224   -3.2350224    -2.556783 0.0024733385   -3.2350224   0.67823934   439061 
 3213000   0.45045604   -3.2325149   -3.2325149   -2.5568323 0.0042428571   -3.2325149   0.67568252   439061 
 3214000   0.45161727   -3.2354582   -3.2354582   -2.5580338  0.001872304   -3.2354582   0.67742436   439061 
 3215000   0.45093238   -3.2337888   -3.2337888   -2.5573918  0.010753253   -3.2337888   0.67639703   439061 
 3216000   0.45129392   -3.2339952   -3.2339952   -2.5570559 0.0095132026   -3.2339952   0.67693934   439061 
 3217000   0.45219787   -3.2351477   -3.2351477   -2.5568524  0.010242995   -3.2351477   0.67829527   439061 
 3218000   0.45172679   -3.2352108   -3.2352108   -2.5576222  0.008958788   -3.2352108   0.67758864   439061 
 3219000   0.45182455   -3.2348114   -3.2348114   -2.5570761 0.0096188668   -3.2348114   0.67773528   439061 
 3220000   0.45162889   -3.2350648   -3.2350648    -2.557623 0.0060248085   -3.2350648   0.67744179   439061 
 3221000    0.4510605   -3.2351183   -3.2351183   -2.5585291 0.0041134886   -3.2351183   0.67658921   439061 
 3222000   0.45092738   -3.2346371   -3.2346371   -2.5582476  0.007079996   -3.2346371   0.67638952   439061 
 3223000   0.45073225   -3.2345208   -3.2345208    -2.558424 0.0042859553   -3.2345208   0.67609684   439061 
 3224000   0.45041962   -3.2332237   -3.2332237   -2.5575958 0.0080231344   -3.2332237   0.67562789   439061 
 3225000   0.45190298   -3.2348767   -3.2348767   -2.5570238 0.0017136307   -3.2348767   0.67785292   439061 
 3226000    0.4524136   -3.2352037   -3.2352037   -2.5565848  0.006369414   -3.2352037   0.67861886   439061 
 3227000   0.45165097   -3.2343484   -3.2343484   -2.5568735 0.0073457569   -3.2343484   0.67747492   439061 
 3228000    0.4511808   -3.2339237   -3.2339237   -2.5571541 0.0083643328   -3.2339237   0.67676965   439061 
 3229000   0.45229979   -3.2355573   -3.2355573   -2.5571092 0.0045273581   -3.2355573   0.67844813   439061 
 3230000   0.45149431   -3.2334425   -3.2334425   -2.5562026 0.0038423355   -3.2334425   0.67723993   439061 
 3231000   0.45214364   -3.2345957   -3.2345957   -2.5563818 0.0085615188   -3.2345957   0.67821391   439061 
 3232000   0.45172098   -3.2339561   -3.2339561   -2.5563762  0.007141086   -3.2339561   0.67757993   439061 
 3233000   0.45270407   -3.2350562   -3.2350562   -2.5560016  0.006423327   -3.2350562   0.67905456   439061 
 3234000   0.45205432   -3.2343044   -3.2343044   -2.5562245 0.0058124267   -3.2343044   0.67807994   439061 
 3235000   0.45207083   -3.2342354   -3.2342354   -2.5561307 0.0057511388   -3.2342354    0.6781047   439061 
 3236000   0.45125877   -3.2329701   -3.2329701   -2.5560835 0.0094120054   -3.2329701   0.67688661   439061 
 3237000   0.45137902   -3.2332881   -3.2332881   -2.5562211 0.0087674011   -3.2332881   0.67706699   439061 
 3238000   0.45219169   -3.2342837   -3.2342837   -2.5559977 0.0077831754   -3.2342837   0.67828599   439061 
 3239000   0.45151297   -3.2336241   -3.2336241   -2.5563562 0.0070957995   -3.2336241   0.67726791   439061 
 3240000   0.45112164   -3.2328351   -3.2328351   -2.5561542 0.0083607919   -3.2328351   0.67668092   439061 
 3241000   0.45185935   -3.2343047   -3.2343047   -2.5565172 0.0067734216   -3.2343047   0.67778748   439061 
 3242000   0.45112879   -3.2334527   -3.2334527   -2.5567611 0.0087369921   -3.2334527   0.67669165   439061 
 3243000     0.450803   -3.2330608   -3.2330608   -2.5568579 0.0017800022   -3.2330608   0.67620295   439061 
 3244000   0.45174126    -3.233464    -3.233464   -2.5558536 0.0071509066    -3.233464   0.67761035   439061 
 3245000    0.4525517   -3.2336629   -3.2336629   -2.5548369 0.0077375593   -3.2336629     0.678826   439061 
 3246000   0.45186171   -3.2334391   -3.2334391   -2.5556481 0.0055368292   -3.2334391   0.67779101   439061 
 3247000   0.45163725    -3.233805    -3.233805   -2.5563507 0.0064198052    -3.233805   0.67745432   439061 
 3248000   0.45198272   -3.2338954   -3.2338954   -2.5559229  0.008055106   -3.2338954   0.67797253   439061 
 3249000   0.45125389   -3.2339115   -3.2339115   -2.5570322 0.0066061609   -3.2339115   0.67687929   439061 
 3250000   0.45131863   -3.2342511   -3.2342511   -2.5572747  0.003964433   -3.2342511   0.67697641   439061 
 3251000   0.45097917   -3.2335762   -3.2335762    -2.557109 0.0087056482   -3.2335762   0.67646722   439061 
 3252000   0.45212735    -3.235193    -3.235193   -2.5570035 0.0067222735    -3.235193   0.67818948   439061 
 3253000   0.45137616   -3.2337174   -3.2337174   -2.5566547  0.008694916   -3.2337174   0.67706269   439061 
 3254000   0.45277982   -3.2354871   -3.2354871    -2.556319 0.0069176539   -3.2354871   0.67916819   439061 
 3255000   0.45232488   -3.2354359   -3.2354359   -2.5569501 0.0058442476   -3.2354359   0.67848577   439061 
 3256000   0.45159441   -3.2344735   -3.2344735   -2.5570835 0.0077778718   -3.2344735   0.67739007   439061 
 3257000   0.45171737   -3.2351527   -3.2351527   -2.5575782 0.0053361363   -3.2351527   0.67757451   439061 
 3258000   0.45126042   -3.2342837   -3.2342837   -2.5573947 0.0057950276   -3.2342837   0.67688908   439061 
 3259000   0.45135919   -3.2347653   -3.2347653   -2.5577281 0.0055327326   -3.2347653   0.67703724   439061 
 3260000   0.45159388   -3.2354169   -3.2354169   -2.5580276 0.0063416238   -3.2354169   0.67738927   439061 
 3261000    0.4510703   -3.2345589   -3.2345589    -2.557955 0.0086562134   -3.2345589   0.67660391   439061 
 3262000   0.45197999   -3.2353847   -3.2353847   -2.5574163 0.0030400822   -3.2353847   0.67796845   439061 
 3263000   0.45079439   -3.2336171   -3.2336171   -2.5574271 0.0074938357   -3.2336171   0.67619004   439061 
 3264000   0.45162666   -3.2342444   -3.2342444   -2.5568059 0.0068382152   -3.2342444   0.67743845   439061 
 3265000   0.45128225   -3.2339765   -3.2339765   -2.5570547  0.011130772   -3.2339765   0.67692184   439061 
 3266000   0.45176808   -3.2343842   -3.2343842   -2.5567337 0.0099252526   -3.2343842   0.67765058   439061 
 3267000   0.45138243   -3.2336883   -3.2336883   -2.5566162 0.0066287997   -3.2336883    0.6770721   439061 
 3268000   0.45125154    -3.233124    -3.233124   -2.5562482 0.0064651668    -3.233124   0.67687577   439061 
 3269000   0.45171195   -3.2336189   -3.2336189   -2.5560525 0.0094852294   -3.2336189   0.67756638   439061 
 3270000   0.45197942    -3.234321    -3.234321   -2.5563534  0.004481615    -3.234321   0.67796758   439061 
 3271000   0.45117158    -3.233628    -3.233628   -2.5568722 0.0079409451    -3.233628   0.67675583   439061 
 3272000   0.45108399   -3.2336393   -3.2336393   -2.5570148 0.0034546868   -3.2336393   0.67662445   439061 
 3273000   0.45063111   -3.2337405   -3.2337405   -2.5577954 0.0063433136   -3.2337405   0.67594512   439061 
 3274000   0.45109771   -3.2344959   -3.2344959   -2.5578509 0.0048469673   -3.2344959   0.67664502   439061 
 3275000   0.45089776   -3.2351753   -3.2351753   -2.5588302 0.0033202233   -3.2351753    0.6763451   439061 
 3276000   0.45120346   -3.2350849   -3.2350849   -2.5582812 0.0066330275   -3.2350849   0.67680366   439061 
 3277000   0.45097689   -3.2350958   -3.2350958    -2.558632 0.0081732753   -3.2350958    0.6764638   439061 
 3278000   0.45179172    -3.236169    -3.236169    -2.558483  0.010886509    -3.236169   0.67768604   439061 
 3279000   0.45195116   -3.2368228   -3.2368228   -2.5588976 0.0091733996   -3.2368228   0.67792519   439061 
 3280000   0.45200164   -3.2366035   -3.2366035   -2.5586026 0.0081364509   -3.2366035   0.67800092   439061 
 3281000   0.45174898   -3.2360701   -3.2360701   -2.5584482  0.011179299   -3.2360701   0.67762193   439061 
 3282000   0.45131236   -3.2362763   -3.2362763   -2.5593093 0.0068973473   -3.2362763     0.676967   439061 
 3283000   0.45091475   -3.2352465   -3.2352465   -2.5588759 0.0091471803   -3.2352465   0.67637059   439061 
 3284000   0.45062044   -3.2349926   -3.2349926   -2.5590635  0.011378571   -3.2349926   0.67592912   439061 
 3285000     0.451403   -3.2357851   -3.2357851   -2.5586822  0.010951717   -3.2357851   0.67710296   439061 
 3286000   0.45070068   -3.2355394   -3.2355394     -2.55949 0.0079804979   -3.2355394   0.67604949   439061 
 3287000   0.45135062   -3.2350603   -3.2350603   -2.5580359 0.0057674239   -3.2350603   0.67702439   439061 
 3288000   0.45079737   -3.2343402   -3.2343402   -2.5581456 0.0077693445   -3.2343402   0.67619452   439061 
 3289000   0.45139718   -3.2346291   -3.2346291   -2.5575349 0.0070824976   -3.2346291   0.67709423   439061 
 3290000   0.45190639   -3.2350112   -3.2350112   -2.5571531 0.0072705103   -3.2350112   0.67785803   439061 
 3291000   0.45173908   -3.2353044   -3.2353044   -2.5576973 0.0040485022   -3.2353044   0.67760707   439061 
 3292000   0.45164256   -3.2347054   -3.2347054   -2.5572431 0.0032734092   -3.2347054    0.6774623   439061 
 3293000    0.4503911   -3.2328612   -3.2328612   -2.5572761 0.0051288644   -3.2328612   0.67558511   439061 
 3294000   0.45077589   -3.2338455   -3.2338455   -2.5576832 0.0054875756   -3.2338455   0.67616229   439061 
 3295000   0.45130511   -3.2340319   -3.2340319   -2.5570758 0.0042594808   -3.2340319   0.67695612   439061 
 3296000   0.45023944   -3.2340323   -3.2340323   -2.5586746 0.0057746883   -3.2340323   0.67535762   439061 
 3297000   0.45189242   -3.2362737   -3.2362737   -2.5584366 0.0022642095   -3.2362737   0.67783709   439061 
 3298000   0.45147307   -3.2353937   -3.2353937   -2.5581856 0.0032336825   -3.2353937   0.67720806   439061 
 3299000   0.45114824   -3.2355733   -3.2355733   -2.5588525 0.0074112037   -3.2355733   0.67672082   439061 
 3300000    0.4513901   -3.2362425   -3.2362425   -2.5591589 0.0079831023   -3.2362425   0.67708361   439061 
 3301000   0.45063673   -3.2353584   -3.2353584   -2.5594048  0.011833652   -3.2353584   0.67595356   439061 
 3302000   0.45250384   -3.2376581   -3.2376581   -2.5589039 0.0062798813   -3.2376581   0.67875421   439061 
 3303000     0.452073    -3.237365    -3.237365   -2.5592571 0.0099236892    -3.237365   0.67810796   439061 
 3304000   0.45203911   -3.2377902   -3.2377902    -2.559733 0.0086822547   -3.2377902   0.67805712   439061 
 3305000   0.45131464   -3.2359548   -3.2359548   -2.5589844   0.01382714   -3.2359548   0.67697041   439061 
 3306000   0.45221491   -3.2372586   -3.2372586   -2.5589378  0.010839853   -3.2372586   0.67832082   439061 
 3307000   0.45158742   -3.2362943   -3.2362943   -2.5589147 0.0086617557   -3.2362943   0.67737959   439061 
 3308000   0.45104552   -3.2358186   -3.2358186   -2.5592518 0.0084402759   -3.2358186   0.67656675   439061 
 3309000   0.45063038   -3.2347435   -3.2347435   -2.5587994  0.005808785   -3.2347435   0.67594403   439061 
 3310000   0.45120713   -3.2353192   -3.2353192     -2.55851 0.0037309089   -3.2353192   0.67680915   439061 
 3311000   0.45024628   -3.2341622   -3.2341622   -2.5587943 0.0058023292   -3.2341622   0.67536788   439061 
 3312000   0.45069392    -3.235125    -3.235125   -2.5590856 0.0028148298    -3.235125   0.67603934   439061 
 3313000   0.45098001   -3.2343979   -3.2343979   -2.5579294 0.0033505627   -3.2343979   0.67646847   439061 
 3314000   0.45138416   -3.2350613   -3.2350613   -2.5579866 0.0071801057   -3.2350613   0.67707469   439061 
 3315000   0.45173987   -3.2353474   -3.2353474   -2.5577392 0.0046104485   -3.2353474   0.67760826   439061 
 3316000     0.452312   -3.2358652   -3.2358652   -2.5573987 0.0046306533   -3.2358652   0.67846646   439061 
 3317000   0.45157122   -3.2347427   -3.2347427   -2.5573874 0.0086239608   -3.2347427   0.67735528   439061 
 3318000    0.4519808   -3.2364676   -3.2364676    -2.558498 0.0025728656   -3.2364676   0.67796966   439061 
 3319000    0.4510209   -3.2354218   -3.2354218    -2.558892 0.0067941155   -3.2354218   0.67652981   439061 
 3320000    0.4512864   -3.2354148   -3.2354148   -2.5584867 0.0095431386   -3.2354148   0.67692806   439061 
 3321000   0.45131023   -3.2361225   -3.2361225   -2.5591587 0.0094901131   -3.2361225    0.6769638   439061 
 3322000   0.45252214   -3.2371817   -3.2371817      -2.5584 0.0081098841   -3.2371817   0.67878166   439061 
 3323000   0.45123433   -3.2365577   -3.2365577   -2.5597078 0.0053841325   -3.2365577   0.67684996   439061 
 3324000   0.45130748   -3.2357874   -3.2357874   -2.5588278   0.01107088   -3.2357874   0.67695967   439061 
 3325000   0.45156188   -3.2355773   -3.2355773    -2.558236 0.0092114213   -3.2355773   0.67734127   439061 
 3326000   0.45049402   -3.2352052   -3.2352052   -2.5594658 0.0069234952   -3.2352052   0.67573948   439061 
 3327000   0.45111887   -3.2352611   -3.2352611   -2.5585843 0.0088768966   -3.2352611   0.67667677   439061 
 3328000   0.45117596   -3.2357217   -3.2357217   -2.5589593 0.0049955512   -3.2357217   0.67676241   439061 
 3329000   0.45107323    -3.235056    -3.235056   -2.5584477 0.0050231325    -3.235056    0.6766083   439061 
 3330000   0.45054656   -3.2341525   -3.2341525   -2.5583342 0.0084504427   -3.2341525    0.6758183   439061 
 3331000   0.45137606   -3.2351041   -3.2351041   -2.5580416 0.0082900869   -3.2351041   0.67706255   439061 
 3332000   0.45123778   -3.2355948   -3.2355948   -2.5587397 0.0035441395   -3.2355948   0.67685513   439061 
 3333000   0.45114684   -3.2348418   -3.2348418    -2.558123  0.004589766   -3.2348418   0.67671872   439061 
 3334000   0.45070904    -3.234938    -3.234938    -2.558876 0.0049476898    -3.234938   0.67606202   439061 
 3335000   0.45107304   -3.2356935   -3.2356935   -2.5590855 0.0053327875   -3.2356935   0.67660802   439061 
 3336000   0.45029285   -3.2346131   -3.2346131   -2.5591753 0.0077788875   -3.2346131   0.67543774   439061 
 3337000   0.45019826    -3.233894    -3.233894   -2.5585982 0.0062296444    -3.233894   0.67529585   439061 
 3338000   0.45126719   -3.2353642   -3.2353642    -2.558465 0.0065626544   -3.2353642   0.67689924   439061 
 3339000   0.45205771   -3.2367618   -3.2367618   -2.5586768 0.0068069843   -3.2367618   0.67808503   439061 
 3340000   0.45196422   -3.2363435   -3.2363435   -2.5583988  0.010154469   -3.2363435   0.67794479   439061 
 3341000   0.45134694   -3.2357238   -3.2357238    -2.558705 0.0074732767   -3.2357238   0.67701886   439061 
 3342000   0.45136942   -3.2362577   -3.2362577   -2.5592051 0.0052384335   -3.2362577   0.67705259   439061 
 3343000   0.45125215   -3.2358196   -3.2358196   -2.5589429 0.0073242029   -3.2358196   0.67687669   439061 
 3344000     0.451437    -3.235434    -3.235434   -2.5582801 0.0063634589    -3.235434   0.67715396   439061 
 3345000    0.4512483   -3.2356886   -3.2356886   -2.5588177 0.0076978451   -3.2356886    0.6768709   439061 
 3346000   0.45089437   -3.2359366   -3.2359366   -2.5595966 0.0051174906   -3.2359366   0.67634002   439061 
 3347000   0.45052604   -3.2359961   -3.2359961   -2.5602086  0.005789708   -3.2359961   0.67578753   439061 
 3348000   0.45115543   -3.2363027   -3.2363027   -2.5595711 0.0042061552   -3.2363027    0.6767316   439061 
 3349000   0.45048805   -3.2351214   -3.2351214   -2.5593908  0.007182675   -3.2351214   0.67573054   439061 
 3350000   0.45055391   -3.2353431   -3.2353431   -2.5595138 0.0024018065   -3.2353431   0.67582932   439061 
 3351000   0.45101566   -3.2350801   -3.2350801   -2.5585582 0.0087213596   -3.2350801   0.67652194   439061 
 3352000   0.45071955   -3.2345865   -3.2345865   -2.5585087 0.0098653633   -3.2345865   0.67607778   439061 
 3353000   0.45133785   -3.2351012   -3.2351012    -2.558096  0.013426951   -3.2351012   0.67700523   439061 
 3354000   0.45099646   -3.2355592   -3.2355592    -2.559066 0.0086625227   -3.2355592   0.67649314   439061 
 3355000   0.45120333   -3.2359443   -3.2359443   -2.5591409 0.0049035154   -3.2359443   0.67680345   439061 
 3356000    0.4508331   -3.2364731   -3.2364731    -2.560225 0.0061170632   -3.2364731   0.67624811   439061 
 3357000   0.45089599   -3.2365713   -3.2365713   -2.5602288 0.0061504928   -3.2365713   0.67634245   439061 
 3358000    0.4502624   -3.2359939   -3.2359939   -2.5606018 0.0068162091   -3.2359939   0.67539206   439061 
 3359000   0.45127603   -3.2367251   -3.2367251   -2.5598126 0.0062509549   -3.2367251    0.6769125   439061 
 3360000   0.45032684    -3.235918    -3.235918   -2.5604293 0.0092985803    -3.235918   0.67548872   439061 
 3361000   0.44957436   -3.2357251   -3.2357251   -2.5613651 0.0088136332   -3.2357251   0.67436001   439061 
 3362000   0.45007241   -3.2362716   -3.2362716   -2.5611646 0.0085560653   -3.2362716   0.67510707   439061 
 3363000   0.45008406   -3.2369076   -3.2369076    -2.561783 0.0046971859   -3.2369076   0.67512456   439061 
 3364000   0.45024753    -3.236657    -3.236657   -2.5612873 0.0040764905    -3.236657   0.67536976   439061 
 3365000   0.45011451   -3.2372984   -3.2372984   -2.5621281 0.0035950921   -3.2372984   0.67517023   439061 
 3366000   0.45115266   -3.2384743   -3.2384743   -2.5617468 0.0052019489   -3.2384743   0.67672744   439061 
 3367000   0.45117655   -3.2378168   -3.2378168   -2.5610535  0.011083364   -3.2378168   0.67676328   439061 
 3368000    0.4507389   -3.2375476   -3.2375476   -2.5614408  0.012936271   -3.2375476    0.6761068   439061 
 3369000    0.4517457   -3.2387926   -3.2387926   -2.5611756 0.0089451726   -3.2387926   0.67761701   439061 
 3370000   0.45159463   -3.2384248   -3.2384248   -2.5610344  0.011946381   -3.2384248    0.6773904   439061 
 3371000   0.45146807   -3.2382623   -3.2382623   -2.5610617 0.0094106906   -3.2382623   0.67720056   439061 
 3372000   0.45156816   -3.2380264   -3.2380264   -2.5606757 0.0088904593   -3.2380264   0.67735069   439061 
 3373000   0.45057936   -3.2372592   -3.2372592   -2.5613917 0.0079050864   -3.2372592   0.67586751   439061 
 3374000   0.45129651   -3.2379768   -3.2379768   -2.5610336 0.0089814182   -3.2379768   0.67694322   439061 
 3375000   0.44986223    -3.236579    -3.236579   -2.5617871 0.0062783305    -3.236579   0.67479181   439061 
 3376000   0.45073745   -3.2374541   -3.2374541   -2.5613495 0.0027281748   -3.2374541   0.67610464   439061 
 3377000   0.44981408   -3.2358193   -3.2358193   -2.5610997 0.0016385815   -3.2358193   0.67471958   439061 
 3378000   0.45048058   -3.2360269   -3.2360269   -2.5603076 0.0035227203   -3.2360269   0.67571933   439061 
 3379000   0.45059718   -3.2359276   -3.2359276   -2.5600334 0.0069334697   -3.2359276   0.67589423   439061 
 3380000   0.45172687    -3.236648    -3.236648   -2.5590593 0.0064416496    -3.236648   0.67758876   439061 
 3381000   0.45064633   -3.2351811   -3.2351811   -2.5592131 0.0098245349   -3.2351811   0.67596796   439061 
 3382000   0.45194068   -3.2369574   -3.2369574   -2.5590479 0.0052660523   -3.2369574   0.67790948   439061 
 3383000   0.45184879   -3.2370416   -3.2370416     -2.55927 0.0046026557   -3.2370416   0.67777164   439061 
 3384000   0.45056901   -3.2355986   -3.2355986   -2.5597466 0.0075558395   -3.2355986   0.67585197   439061 
 3385000   0.45104345   -3.2367005   -3.2367005   -2.5601368 0.0047996158   -3.2367005   0.67656363   439061 
 3386000   0.45115753   -3.2373021   -3.2373021   -2.5605674 0.0042689023   -3.2373021   0.67673475   439061 
 3387000   0.45105319   -3.2368875   -3.2368875   -2.5603092 0.0066915455   -3.2368875   0.67657825   439061 
 3388000   0.45158746   -3.2369708   -3.2369708   -2.5595911 0.0084336836   -3.2369708   0.67737965   439061 
 3389000   0.45152362   -3.2373479   -3.2373479    -2.560064 0.0056216683   -3.2373479   0.67728388   439061 
 3390000   0.45136996   -3.2376776   -3.2376776   -2.5606242 0.0083439408   -3.2376776    0.6770534   439061 
 3391000   0.45146897   -3.2379329   -3.2379329    -2.560731 0.0055820596   -3.2379329   0.67720191   439061 
 3392000   0.45136922   -3.2382466   -3.2382466   -2.5611943 0.0062913689   -3.2382466   0.67705229   439061 
 3393000   0.45111258   -3.2376121   -3.2376121   -2.5609447 0.0039645253   -3.2376121   0.67666733   439061 
 3394000   0.45070937   -3.2376201   -3.2376201   -2.5615575 0.0049484252   -3.2376201   0.67606252   439061 
 3395000   0.45075875   -3.2374111   -3.2374111   -2.5612745 0.0076963207   -3.2374111   0.67613658   439061 
 3396000   0.45105723   -3.2384649   -3.2384649   -2.5618806 0.0083488074   -3.2384649    0.6765843   439061 
 3397000   0.45086472   -3.2381331   -3.2381331   -2.5618376 0.0076751934   -3.2381331   0.67629554   439061 
 3398000   0.45113718   -3.2378724   -3.2378724   -2.5611682 0.0088413722   -3.2378724   0.67670423   439061 
 3399000   0.45132762   -3.2378947   -3.2378947   -2.5609048  0.012671996   -3.2378947   0.67698989   439061 
 3400000   0.45159728   -3.2378213   -3.2378213   -2.5604269 0.0084432837   -3.2378213   0.67739437   439061 
 3401000   0.45195851   -3.2381728   -3.2381728   -2.5602365  0.010573436   -3.2381728   0.67793622   439061 
 3402000   0.45097478   -3.2370237   -3.2370237   -2.5605631 0.0081716983   -3.2370237   0.67646062   439061 
 3403000   0.45125537   -3.2378089   -3.2378089   -2.5609274 0.0062782292   -3.2378089   0.67688151   439061 
 3404000   0.45082525    -3.236007    -3.236007   -2.5597707 0.0065737975    -3.236007   0.67623634   439061 
 3405000   0.45091796   -3.2368803   -3.2368803   -2.5605049 0.0059220758   -3.2368803    0.6763754   439061 
 3406000   0.45084723   -3.2364833   -3.2364833    -2.560214 0.0057645304   -3.2364833    0.6762693   439061 
 3407000    0.4508017   -3.2364405   -3.2364405   -2.5602395 0.0049541235   -3.2364405   0.67620101   439061 
 3408000   0.45116046   -3.2366504   -3.2366504   -2.5599112 0.0023107476   -3.2366504   0.67673915   439061 
 3409000   0.45064612   -3.2354102   -3.2354102   -2.5594426 0.0082227653   -3.2354102   0.67596764   439061 
 3410000   0.45098799   -3.2357709   -3.2357709   -2.5592904  0.006808179   -3.2357709   0.67648045   439061 
 3411000   0.45152446   -3.2369171   -3.2369171   -2.5596319 0.0028828724   -3.2369171   0.67728515   439061 
 3412000    0.4511961    -3.236683    -3.236683   -2.5598903 0.0069542276    -3.236683    0.6767926   439061 
 3413000   0.45052646   -3.2360977   -3.2360977   -2.5603096 0.0042348344   -3.2360977   0.67578815   439061 
 3414000   0.45094862   -3.2367484   -3.2367484    -2.560327 0.0083903064   -3.2367484   0.67642139   439061 
 3415000   0.45118191   -3.2373557   -3.2373557   -2.5605844 0.0081550953   -3.2373557   0.67677132   439061 
 3416000   0.45169397   -3.2378135   -3.2378135   -2.5602741 0.0092686912   -3.2378135   0.67753941   439061 
 3417000   0.45204858   -3.2380248   -3.2380248   -2.5599535 0.0046648991   -3.2380248   0.67807132   439061 
 3418000     0.451844   -3.2383239   -3.2383239   -2.5605594 0.0039968491   -3.2383239   0.67776445   439061 
 3419000   0.45137675   -3.2375441   -3.2375441   -2.5604805 0.0062196472   -3.2375441   0.67706358   439061 
 3420000   0.45120719   -3.2376519   -3.2376519   -2.5608427 0.0073340973   -3.2376519   0.67680924   439061 
 3421000   0.45119534   -3.2372046   -3.2372046   -2.5604131 0.0075749964   -3.2372046   0.67679147   439061 
 3422000   0.45109368   -3.2376279   -3.2376279   -2.5609889 0.0078056838   -3.2376279   0.67663898   439061 
 3423000   0.45053415   -3.2371765   -3.2371765   -2.5613768 0.0070950913   -3.2371765   0.67579969   439061 
 3424000   0.45060216   -3.2375812   -3.2375812   -2.5616795 0.0050705824   -3.2375812    0.6759017   439061 
 3425000   0.45017316    -3.236855    -3.236855   -2.5615968 0.0073633453    -3.236855    0.6752582   439061 
 3426000   0.45054834    -3.237737    -3.237737   -2.5619161 0.0022329306    -3.237737   0.67582098   439061 
 3427000   0.45056843   -3.2374387   -3.2374387   -2.5615876 0.0052004454   -3.2374387    0.6758511   439061 
 3428000   0.45128372   -3.2384425   -3.2384425   -2.5615185 0.0048491244   -3.2384425   0.67692404   439061 
 3429000   0.45081546   -3.2378619   -3.2378619   -2.5616402  0.010651831   -3.2378619   0.67622165   439061 
 3430000   0.45105964    -3.238363    -3.238363   -2.5617751 0.0046799743    -3.238363   0.67658792   439061 
 3431000   0.45148447   -3.2383055   -3.2383055   -2.5610803 0.0075133906   -3.2383055   0.67722516   439061 
 3432000   0.45099846   -3.2381935   -3.2381935   -2.5616974 0.0078911509   -3.2381935   0.67649615   439061 
 3433000   0.45115981   -3.2390236   -3.2390236   -2.5622854 0.0082284133   -3.2390236   0.67673818   439061 
 3434000   0.45110578   -3.2388439   -3.2388439   -2.5621868 0.0090163741   -3.2388439   0.67665713   439061 
 3435000   0.45024003   -3.2379616   -3.2379616   -2.5626031 0.0080255201   -3.2379616    0.6753585   439061 
 3436000    0.4511433   -3.2387697   -3.2387697   -2.5620563 0.0085673154   -3.2387697   0.67671341   439061 
 3437000   0.45054772   -3.2376488   -3.2376488   -2.5618288   0.01030907   -3.2376488   0.67582003   439061 
 3438000   0.45079351   -3.2380632   -3.2380632   -2.5618745 0.0083242476   -3.2380632   0.67618873   439061 
 3439000   0.45120819   -3.2385265   -3.2385265   -2.5617158 0.0054850576   -3.2385265   0.67681074   439061 
 3440000   0.45062112    -3.238145    -3.238145   -2.5622148 0.0081720786    -3.238145   0.67593014   439061 
 3441000   0.45043936   -3.2375591   -3.2375591   -2.5619016 0.0079226764   -3.2375591   0.67565751   439061 
 3442000   0.45079788   -3.2378345   -3.2378345   -2.5616392 0.0057249284   -3.2378345   0.67619528   439061 
 3443000   0.45134796    -3.238833    -3.238833   -2.5618126 0.0052923976    -3.238833    0.6770204   439061 
 3444000   0.45063676   -3.2374088   -3.2374088   -2.5614552 0.0099806754   -3.2374088   0.67595361   439061 
 3445000   0.45161537   -3.2390421   -3.2390421   -2.5616205 0.0053399846   -3.2390421   0.67742151   439061 
 3446000   0.45124158   -3.2381995   -3.2381995   -2.5613386 0.0060327315   -3.2381995   0.67686083   439061 
 3447000    0.4511307   -3.2375716   -3.2375716   -2.5608771 0.0095695599   -3.2375716   0.67669451   439061 
 3448000   0.45100454    -3.238513    -3.238513   -2.5620078 0.0078510719    -3.238513   0.67650528   439061 
 3449000   0.45132598   -3.2383066   -3.2383066   -2.5613191 0.0081737947   -3.2383066   0.67698742   439061 
 3450000   0.45081009   -3.2382356   -3.2382356    -2.562022 0.0079575894   -3.2382356   0.67621359   439061 
 3451000   0.45045449   -3.2384446   -3.2384446   -2.5627644 0.0067540959   -3.2384446   0.67568019   439061 
 3452000   0.45036162   -3.2381869   -3.2381869    -2.562646 0.0053578354   -3.2381869   0.67554089   439061 
 3453000    0.4506568   -3.2381006   -3.2381006   -2.5621169 0.0085939908   -3.2381006   0.67598365   439061 
 3454000   0.45077411   -3.2379711   -3.2379711   -2.5618114 0.0066855691   -3.2379711   0.67615962   439061 
 3455000   0.45061037   -3.2385356   -3.2385356   -2.5626216 0.0039960758   -3.2385356   0.67591402   439061 
 3456000   0.44979301   -3.2374698   -3.2374698   -2.5627818 0.0082028747   -3.2374698   0.67468797   439061 
 3457000   0.45106377    -3.239221    -3.239221   -2.5626269 0.0055159816    -3.239221   0.67659411   439061 
 3458000   0.45075698   -3.2383335   -3.2383335   -2.5621995 0.0044711728   -3.2383335   0.67613394   439061 
 3459000   0.45095982   -3.2380661   -3.2380661   -2.5616279 0.0060701191   -3.2380661   0.67643819   439061 
 3460000   0.45061393   -3.2379389   -3.2379389   -2.5620196  0.010925717   -3.2379389   0.67591936   439061 
 3461000   0.45149661   -3.2389281   -3.2389281   -2.5616847 0.0087799307   -3.2389281   0.67724337   439061 
 3462000      0.45103   -3.2385801   -3.2385801   -2.5620367 0.0056573786   -3.2385801   0.67654346   439061 
 3463000   0.45100998   -3.2387856   -3.2387856   -2.5622721 0.0054206109   -3.2387856   0.67651344   439061 
 3464000   0.45101925   -3.2390635   -3.2390635   -2.5625362  0.002576712   -3.2390635   0.67652734   439061 
 3465000   0.44974834   -3.2373359   -3.2373359   -2.5627149 0.0054725409   -3.2373359   0.67462098   439061 
 3466000   0.45022063   -3.2380113   -3.2380113   -2.5626819 0.0047669617   -3.2380113   0.67532941   439061 
 3467000   0.45028709   -3.2376762   -3.2376762   -2.5622471 0.0079935777   -3.2376762    0.6754291   439061 
 3468000   0.45118304   -3.2386666   -3.2386666   -2.5618936 0.0076493713   -3.2386666   0.67677302   439061 
 3469000   0.45140472   -3.2392055   -3.2392055      -2.5621 0.0047794968   -3.2392055   0.67710553   439061 
 3470000   0.45073298    -3.238651    -3.238651    -2.562553 0.0049822617    -3.238651   0.67609793   439061 
 3471000   0.45014028   -3.2382666   -3.2382666   -2.5630577 0.0071563128   -3.2382666   0.67520888   439061 
 3472000   0.45060904   -3.2388548   -3.2388548   -2.5629427 0.0089949433   -3.2388548   0.67591202   439061 
 3473000   0.45085162   -3.2390671   -3.2390671   -2.5627912 0.0091058943   -3.2390671   0.67627589   439061 
 3474000   0.45092161   -3.2391177   -3.2391177   -2.5627368 0.0075401898   -3.2391177   0.67638087   439061 
 3475000   0.45164422   -3.2400663   -3.2400663   -2.5626015 0.0064951509   -3.2400663   0.67746478   439061 
 3476000   0.45105192   -3.2389323   -3.2389323   -2.5623559 0.0093531048   -3.2389323   0.67657634   439061 
 3477000   0.45180202   -3.2397229   -3.2397229   -2.5620214 0.0095970378   -3.2397229   0.67770149   439061 
 3478000   0.45120456   -3.2394104   -3.2394104   -2.5626051  0.011367181   -3.2394104    0.6768053   439061 
 3479000   0.45123123   -3.2398274   -3.2398274   -2.5629821 0.0084704161   -3.2398274    0.6768453   439061 
 3480000   0.45068269   -3.2388854   -3.2388854   -2.5628629  0.009110752   -3.2388854   0.67602249   439061 
 3481000   0.45129351   -3.2393126   -3.2393126   -2.5623739 0.0040129099   -3.2393126   0.67693873   439061 
 3482000   0.45043399   -3.2379198   -3.2379198   -2.5622703  0.003452579   -3.2379198   0.67564945   439061 
 3483000   0.45020784   -3.2379172   -3.2379172    -2.562607 0.0083916137   -3.2379172   0.67531022   439061 
 3484000   0.45013478   -3.2378708   -3.2378708   -2.5626702 0.0056653451   -3.2378708   0.67520064   439061 
 3485000   0.44992257   -3.2369214   -3.2369214   -2.5620391 0.0049241126   -3.2369214   0.67488232   439061 
 3486000   0.45055011   -3.2372366   -3.2372366    -2.561413 0.0061963547   -3.2372366   0.67582362   439061 
 3487000   0.45098541   -3.2382556   -3.2382556    -2.561779 0.0050555229   -3.2382556   0.67647657   439061 
 3488000   0.45131648    -3.238791    -3.238791   -2.5618178 0.0060094726    -3.238791   0.67697318   439061 
 3489000   0.45175639   -3.2394359   -3.2394359   -2.5618029 0.0022744253   -3.2394359   0.67763304   439061 
 3490000   0.45070547   -3.2374545   -3.2374545   -2.5613978 0.0071219259   -3.2374545   0.67605667   439061 
 3491000   0.45087189   -3.2375239   -3.2375239   -2.5612176 0.0080899268   -3.2375239   0.67630629   439061 
 3492000   0.45023726   -3.2369254   -3.2369254    -2.561571 0.0082119842   -3.2369254   0.67535436   439061 
 3493000   0.45116112    -3.238603    -3.238603   -2.5618628  0.008097121    -3.238603   0.67674013   439061 
 3494000   0.45066862   -3.2381604   -3.2381604    -2.562159  0.007554571   -3.2381604    0.6760014   439061 
 3495000   0.45102729   -3.2380352   -3.2380352   -2.5614958 0.0071047161   -3.2380352    0.6765394   439061 
 3496000   0.45027079   -3.2373575   -3.2373575   -2.5619529 0.0074322903   -3.2373575   0.67540465   439061 
 3497000   0.45094162   -3.2383725   -3.2383725   -2.5619616 0.0045413364   -3.2383725    0.6764109   439061 
 3498000   0.45127507   -3.2389665   -3.2389665   -2.5620555 0.0047226127   -3.2389665   0.67691106   439061 
 3499000   0.45112999   -3.2391067   -3.2391067   -2.5624132 0.0040476025   -3.2391067   0.67669345   439061 
 3500000   0.45062756   -3.2383646   -3.2383646   -2.5624248 0.0086497755   -3.2383646    0.6759398   439061 
 3501000   0.45162987   -3.2397262   -3.2397262   -2.5622829 0.0060375838   -3.2397262   0.67744326   439061 
 3502000   0.45124248    -3.238961    -3.238961   -2.5620988 0.0074058707    -3.238961   0.67686218   439061 
 3503000   0.45075294   -3.2384783   -3.2384783   -2.5623504   0.00885641   -3.2384783   0.67612787   439061 
 3504000   0.45110027   -3.2396192   -3.2396192   -2.5629704 0.0035583859   -3.2396192   0.67664887   439061 
 3505000   0.45066411   -3.2394233   -3.2394233   -2.5634287 0.0061213653   -3.2394233   0.67599462   439061 
 3506000   0.45031655   -3.2387131   -3.2387131   -2.5632398 0.0040586232   -3.2387131   0.67547328   439061 
 3507000    0.4509486   -3.2392749   -3.2392749   -2.5628536 0.0086301421   -3.2392749   0.67642136   439061 
 3508000   0.45044692   -3.2390025   -3.2390025   -2.5633337  0.010426318   -3.2390025   0.67566884   439061 
 3509000   0.45048941   -3.2393027   -3.2393027   -2.5635701 0.0086037644   -3.2393027   0.67573258   439061 
 3510000   0.45050529   -3.2391849   -3.2391849   -2.5634285 0.0062602603   -3.2391849   0.67575639   439061 
 3511000   0.44999747   -3.2384947   -3.2384947      -2.5635 0.0098000541   -3.2384947   0.67499467   439061 
 3512000   0.44998051   -3.2385427   -3.2385427   -2.5635735 0.0089518695   -3.2385427   0.67496922   439061 
 3513000   0.45098103   -3.2397203   -3.2397203   -2.5632503 0.0080537707   -3.2397203   0.67647001   439061 
 3514000   0.45081348   -3.2394496   -3.2394496   -2.5632309 0.0086286113   -3.2394496   0.67621868   439061 
 3515000   0.45092252   -3.2395276   -3.2395276   -2.5631453 0.0081537523   -3.2395276   0.67638225   439061 
 3516000   0.45078994   -3.2392772   -3.2392772   -2.5630938  0.004804049   -3.2392772   0.67618336   439061 
 3517000   0.45005241   -3.2383336   -3.2383336   -2.5632565 0.0086946947   -3.2383336   0.67507708   439061 
 3518000   0.45089234    -3.238423    -3.238423    -2.562086 0.0052640598    -3.238423   0.67633697   439061 
 3519000   0.45055172   -3.2391845   -3.2391845   -2.5633584 0.0038831495   -3.2391845   0.67582604   439061 
 3520000   0.45028421   -3.2385515   -3.2385515   -2.5631268 0.0061895215   -3.2385515   0.67542477   439061 
 3521000   0.45102277   -3.2388754   -3.2388754   -2.5623428 0.0064823881   -3.2388754   0.67653261   439061 
 3522000   0.45053725   -3.2393022   -3.2393022   -2.5634979 0.0038477126   -3.2393022   0.67580433   439061 
 3523000   0.45079713   -3.2398231   -3.2398231    -2.563629  0.003289955   -3.2398231   0.67619416   439061 
 3524000    0.4504372   -3.2390076   -3.2390076   -2.5633533 0.0015637117   -3.2390076   0.67565426   439061 
 3525000   0.45058544   -3.2393471   -3.2393471   -2.5634705 0.0056005023   -3.2393471   0.67587662   439061 
 3526000   0.45133312   -3.2400825   -3.2400825   -2.5630843 0.0064298397   -3.2400825   0.67699814   439061 
 3527000   0.45004606   -3.2385078   -3.2385078   -2.5634403  0.010147967   -3.2385078   0.67506756   439061 
 3528000   0.45118825   -3.2405017   -3.2405017   -2.5637208 0.0074117533   -3.2405017   0.67678083   439061 
 3529000   0.45064927    -3.239782    -3.239782   -2.5638096   0.01029921    -3.239782   0.67597237   439061 
 3530000   0.45106947    -3.240992    -3.240992   -2.5643893 0.0075569451    -3.240992   0.67660266   439061 
 3531000   0.45070035   -3.2403321   -3.2403321   -2.5642831 0.0095995338   -3.2403321   0.67604899   439061 
 3532000    0.4503433   -3.2396368   -3.2396368   -2.5641234 0.0094260723   -3.2396368   0.67551341   439061 
 3533000   0.45107749   -3.2410762   -3.2410762   -2.5644615 0.0056570192   -3.2410762    0.6766147   439061 
 3534000   0.45124998   -3.2414903   -3.2414903   -2.5646168 0.0083246526   -3.2414903   0.67687342   439061 
 3535000   0.45035735    -3.240966    -3.240966   -2.5654316 0.0062599819    -3.240966   0.67553449   439061 
 3536000   0.45012107   -3.2410788   -3.2410788   -2.5658987 0.0059121068   -3.2410788   0.67518007   439061 
 3537000   0.44970509   -3.2401418   -3.2401418   -2.5655857 0.0020718702   -3.2401418    0.6745561   439061 
 3538000   0.44999996    -3.240499    -3.240499   -2.5655006  0.004248269    -3.240499    0.6749984   439061 
 3539000   0.45003048   -3.2407259   -3.2407259   -2.5656817 0.0052555022   -3.2407259   0.67504418   439061 
 3540000   0.44926726   -3.2397865   -3.2397865   -2.5658872 0.0088033755   -3.2397865   0.67389936   439061 
 3541000   0.45062159   -3.2413163   -3.2413163   -2.5653855 0.0092558966   -3.2413163   0.67593084   439061 
 3542000   0.45065513   -3.2403207   -3.2403207   -2.5643395 0.0089118448   -3.2403207   0.67598116   439061 
 3543000   0.45086039   -3.2401699   -3.2401699   -2.5638808 0.0098009948   -3.2401699   0.67628904   439061 
 3544000   0.45092982   -3.2403513   -3.2403513   -2.5639581 0.0081544158   -3.2403513   0.67639319   439061 
 3545000    0.4513025    -3.240724    -3.240724   -2.5637718 0.0073361461    -3.240724   0.67695221   439061 
 3546000   0.45072393   -3.2402982   -3.2402982   -2.5642138 0.0082675246   -3.2402982   0.67608435   439061 
 3547000   0.45093024   -3.2403352   -3.2403352   -2.5639414  0.007349057   -3.2403352   0.67639382   439061 
 3548000   0.45007151   -3.2384852   -3.2384852   -2.5633795 0.0073341389   -3.2384852   0.67510572   439061 
 3549000    0.4506895    -3.239366    -3.239366   -2.5633333 0.0052677248    -3.239366   0.67603271   439061 
 3550000   0.45087409   -3.2396763   -3.2396763   -2.5633667 0.00072010006   -3.2396763    0.6763096   439061 
 3551000   0.44986356   -3.2382611   -3.2382611   -2.5634673 0.0049145068   -3.2382611   0.67479381   439061 
 3552000   0.44938024    -3.237967    -3.237967   -2.5638982 0.0071927012    -3.237967   0.67406883   439061 
 3553000   0.45071776   -3.2397517   -3.2397517   -2.5636766 0.0037132513   -3.2397517   0.67607511   439061 
 3554000   0.45002262   -3.2382163   -3.2382163   -2.5631839  0.003897863   -3.2382163   0.67503239   439061 
 3555000   0.45047324   -3.2393394   -3.2393394   -2.5636311 0.0030038218   -3.2393394   0.67570832   439061 
 3556000   0.44966098   -3.2379925   -3.2379925   -2.5635026 0.0077375919   -3.2379925   0.67448994   439061 
 3557000   0.44998617   -3.2382279   -3.2382279   -2.5632502  0.010891334   -3.2382279   0.67497772   439061 
 3558000   0.45085443   -3.2393973   -3.2393973   -2.5631172 0.0087747814   -3.2393973   0.67628011   439061 
 3559000   0.45014899   -3.2392995   -3.2392995   -2.5640775 0.0081430818   -3.2392995   0.67522195   439061 
 3560000   0.45074038   -3.2398413   -3.2398413   -2.5637323 0.0059965203   -3.2398413   0.67610902   439061 
 3561000   0.45148572   -3.2414742   -3.2414742   -2.5642472 0.0068048609   -3.2414742   0.67722704   439061 
 3562000   0.45105214   -3.2407524   -3.2407524   -2.5641757 0.0069905699   -3.2407524   0.67657667   439061 
 3563000   0.45090426   -3.2400968   -3.2400968    -2.563742  0.011637472   -3.2400968   0.67635485   439061 
 3564000   0.45051366   -3.2396794   -3.2396794   -2.5639104  0.009779101   -3.2396794   0.67576895   439061 
 3565000   0.45048756   -3.2402338   -3.2402338    -2.564504  0.005799794   -3.2402338    0.6757298   439061 
 3566000   0.45017253   -3.2396051   -3.2396051   -2.5643478 0.0047282672   -3.2396051   0.67525726   439061 
 3567000   0.45030628   -3.2392506   -3.2392506   -2.5637927 0.0081901452   -3.2392506   0.67545789   439061 
 3568000   0.45036132    -3.238963    -3.238963   -2.5634225 0.0074260675    -3.238963   0.67554045   439061 
 3569000   0.45056953    -3.238959    -3.238959   -2.5631062 0.0050634451    -3.238959   0.67585275   439061 
 3570000   0.45004873   -3.2383174   -3.2383174   -2.5632458 0.0030685524   -3.2383174   0.67507156   439061 
 3571000   0.44997608   -3.2395876   -3.2395876   -2.5646251 -0.00035824273   -3.2395876   0.67496258   439061 
 3572000   0.45035616   -3.2397277   -3.2397277    -2.564195 0.0028860677   -3.2397277    0.6755327   439061 
 3573000   0.44973474   -3.2388362   -3.2388362   -2.5642357 0.0090639135   -3.2388362   0.67460057   439061 
 3574000   0.45001418   -3.2392889   -3.2392889   -2.5642691 0.0066000313   -3.2392889   0.67501973   439061 
 3575000   0.45041998   -3.2394963   -3.2394963   -2.5638678 0.0039531786   -3.2394963   0.67562844   439061 
 3576000   0.45088279   -3.2400666   -3.2400666    -2.563744 0.0060976681   -3.2400666   0.67632264   439061 
 3577000   0.45069364   -3.2401239   -3.2401239    -2.564085 0.0084240817   -3.2401239   0.67603892   439061 
 3578000   0.45133527   -3.2405424   -3.2405424    -2.563541 0.0058262889   -3.2405424   0.67700137   439061 
 3579000   0.45074489   -3.2412043   -3.2412043   -2.5650885 0.0078071475   -3.2412043    0.6761158   439061 
 3580000   0.45034679   -3.2401949   -3.2401949   -2.5646763 0.0069808091   -3.2401949   0.67551865   439061 
 3581000    0.4503092   -3.2408883   -3.2408883   -2.5654261 0.0062608077   -3.2408883   0.67546226   439061 
 3582000   0.45013398   -3.2412582   -3.2412582   -2.5660588 0.0054504637   -3.2412582   0.67519943   439061 
 3583000   0.45083021    -3.241725    -3.241725   -2.5654812 0.0049014982    -3.241725   0.67624377   439061 
 3584000   0.45050269   -3.2408902   -3.2408902   -2.5651377 0.0069376271   -3.2408902   0.67575249   439061 
 3585000   0.45057195   -3.2401619   -3.2401619   -2.5643056 0.0089179461   -3.2401619   0.67585638   439061 
 3586000   0.45068323   -3.2411158   -3.2411158   -2.5650925 0.0067350217   -3.2411158   0.67602331   439061 
 3587000   0.45079587   -3.2415532   -3.2415532    -2.565361    0.0081061   -3.2415532   0.67619227   439061 
 3588000   0.44991172   -3.2395681   -3.2395681    -2.564702  0.010402173   -3.2395681   0.67486604   439061 
 3589000   0.45084495   -3.2403508   -3.2403508   -2.5640849 0.0071186596   -3.2403508   0.67626589   439061 
 3590000   0.45029035   -3.2399648   -3.2399648   -2.5645308 0.0074372773   -3.2399648   0.67543398   439061 
 3591000   0.45054112   -3.2399461   -3.2399461    -2.564136 0.0047230888   -3.2399461   0.67581014   439061 
 3592000   0.45086054   -3.2398323   -3.2398323    -2.563543 0.0050975815   -3.2398323   0.67628927   439061 
 3593000   0.45124275   -3.2400079   -3.2400079   -2.5631453 0.0043050584   -3.2400079   0.67686259   439061 
 3594000   0.45009194    -3.238566    -3.238566   -2.5634297 0.0031490218    -3.238566   0.67513637   439061 
 3595000    0.4499023   -3.2379442   -3.2379442   -2.5630923 0.0037939965   -3.2379442   0.67485192   439061 
 3596000   0.45091335   -3.2397374   -3.2397374   -2.5633689 0.00067958841   -3.2397374   0.67636848   439061 
 3597000   0.45101565   -3.2394091   -3.2394091   -2.5628872 0.0033097703   -3.2394091   0.67652193   439061 
 3598000   0.45060909   -3.2389079   -3.2389079   -2.5629958  0.004079398   -3.2389079   0.67591209   439061 
 3599000   0.45125041    -3.239485    -3.239485   -2.5626109 0.0057142958    -3.239485   0.67687407   439061 
 3600000   0.45081333   -3.2384923   -3.2384923   -2.5622738 0.0087840419   -3.2384923   0.67621845   439061 
 3601000   0.44987063   -3.2372468   -3.2372468   -2.5624424 0.0095117949   -3.2372468    0.6748044   439061 
 3602000   0.45125004   -3.2393933   -3.2393933   -2.5625198 0.0039484314   -3.2393933   0.67687352   439061 
 3603000   0.44986534   -3.2377564   -3.2377564   -2.5629599  0.011372135   -3.2377564   0.67479647   439061 
 3604000   0.45004778   -3.2381042   -3.2381042   -2.5630341  0.010507902   -3.2381042   0.67507014   439061 
 3605000   0.45061557   -3.2385137   -3.2385137   -2.5625918 0.0063694007   -3.2385137   0.67592182   439061 
 3606000    0.4510149   -3.2396337   -3.2396337   -2.5631129 0.0038229306   -3.2396337   0.67652081   439061 
 3607000   0.45016506   -3.2387217   -3.2387217   -2.5634756 0.0047524655   -3.2387217   0.67524605   439061 
 3608000   0.45040533   -3.2386549   -3.2386549   -2.5630484 0.0057344953   -3.2386549   0.67560645   439061 
 3609000   0.45023747   -3.2384186   -3.2384186    -2.563064 0.0072062049   -3.2384186   0.67535467   439061 
 3610000   0.45145815   -3.2393528   -3.2393528   -2.5621671 0.0046792169   -3.2393528   0.67718569   439061 
 3611000   0.45050765   -3.2377143   -3.2377143   -2.5619544 0.0086284208   -3.2377143   0.67575993   439061 
 3612000   0.45104124   -3.2389407   -3.2389407   -2.5623804 0.0086824888   -3.2389407   0.67656031   439061 
 3613000   0.45120166   -3.2386305   -3.2386305   -2.5618296 0.0059217389   -3.2386305   0.67680095   439061 
 3614000   0.45076244   -3.2379703   -3.2379703   -2.5618282 0.0050392082   -3.2379703   0.67614212   439061 
 3615000   0.45048382   -3.2383891   -3.2383891   -2.5626649 0.0061173038   -3.2383891   0.67572419   439061 
 3616000   0.45105603   -3.2395194   -3.2395194   -2.5629369 0.0029140118   -3.2395194    0.6765825   439061 
 3617000   0.44984666   -3.2374813   -3.2374813   -2.5627129 0.0082775761   -3.2374813   0.67476845   439061 
 3618000   0.45041077   -3.2381214   -3.2381214   -2.5625067 0.0067378568   -3.2381214   0.67561462   439061 
 3619000   0.45082812   -3.2387159   -3.2387159   -2.5624753 0.0055672534   -3.2387159   0.67624064   439061 
 3620000   0.45032648   -3.2381031   -3.2381031   -2.5626149 0.0073722589   -3.2381031   0.67548818   439061 
 3621000   0.45029316   -3.2384305   -3.2384305   -2.5629923  0.005940221   -3.2384305    0.6754382   439061 
 3622000   0.45050882   -3.2391123   -3.2391123   -2.5633506 0.0061003767   -3.2391123   0.67576169   439061 
 3623000   0.45133833   -3.2405939   -3.2405939    -2.563588 0.0015043824   -3.2405939   0.67700595   439061 
 3624000   0.45065189   -3.2396746   -3.2396746   -2.5636984 0.0053236203   -3.2396746   0.67597629   439061 
 3625000   0.45047972   -3.2393389   -3.2393389   -2.5636209 0.0072315613   -3.2393389   0.67571803   439061 
 3626000   0.45040309    -3.239217    -3.239217   -2.5636139  0.011579317    -3.239217    0.6756031   439061 
 3627000   0.45085468   -3.2397312   -3.2397312   -2.5634507 0.0088179148   -3.2397312   0.67628049   439061 
 3628000   0.45115849   -3.2396655   -3.2396655   -2.5629293 0.0069851588   -3.2396655   0.67673619   439061 
 3629000   0.45120923   -3.2398228   -3.2398228   -2.5630105  0.007552143   -3.2398228    0.6768123   439061 
 3630000   0.45073782   -3.2393634   -3.2393634   -2.5632582  0.010510172   -3.2393634   0.67610519   439061 
 3631000   0.45058498   -3.2397443   -3.2397443   -2.5638684 0.0082254186   -3.2397443   0.67587593   439061 
 3632000   0.45103701   -3.2402758   -3.2402758   -2.5637219 0.0070028168   -3.2402758   0.67655397   439061 
 3633000   0.45021388   -3.2386389   -3.2386389   -2.5633196 0.0068490402   -3.2386389   0.67531929   439061 
 3634000   0.45047136   -3.2392283   -3.2392283   -2.5635228 0.0072692071   -3.2392283    0.6757055   439061 
 3635000   0.45067139   -3.2393995   -3.2393995    -2.563394 0.0053287904   -3.2393995   0.67600555   439061 
 3636000   0.45086566   -3.2400203   -3.2400203   -2.5637233 0.0037322374   -3.2400203   0.67629695   439061 
 3637000   0.45014559   -3.2392338   -3.2392338    -2.564017 0.0079259332   -3.2392338   0.67521685   439061 
 3638000   0.44989614   -3.2385066   -3.2385066   -2.5636639 0.0038329676   -3.2385066   0.67484267   439061 
 3639000   0.44988909   -3.2392373   -3.2392373   -2.5644052 0.0060509153   -3.2392373    0.6748321   439061 
 3640000   0.45028141   -3.2398434   -3.2398434   -2.5644229 0.0052955294   -3.2398434   0.67542057   439061 
 3641000   0.45105182   -3.2415611   -3.2415611   -2.5649849  0.005359453   -3.2415611   0.67657618   439061 
 3642000     0.449765   -3.2400977   -3.2400977   -2.5654518 0.0081174706   -3.2400977   0.67464596   439061 
 3643000   0.45085609   -3.2406275   -3.2406275   -2.5643449 0.0063888309   -3.2406275    0.6762826   439061 
 3644000   0.45037928   -3.2399942   -3.2399942   -2.5644268 0.0087998354   -3.2399942   0.67556739   439061 
 3645000   0.45134777   -3.2411741   -3.2411741    -2.564154  0.010858651   -3.2411741   0.67702012   439061 
 3646000   0.45059616   -3.2395359   -3.2395359   -2.5636432  0.010165634   -3.2395359    0.6758927   439061 
 3647000   0.45106415   -3.2401727   -3.2401727   -2.5635781 0.0063814318   -3.2401727   0.67659468   439061 
 3648000   0.45112023   -3.2402584   -3.2402584   -2.5635796 0.0066411043   -3.2402584    0.6766788   439061 
 3649000   0.45060265   -3.2390841   -3.2390841   -2.5631817 0.0072908322   -3.2390841   0.67590243   439061 
 3650000   0.45101863   -3.2396561   -3.2396561   -2.5631297 0.0062791889   -3.2396561   0.67652641   439061 
 3651000   0.45001711   -3.2383087   -3.2383087   -2.5632846 0.0066582551   -3.2383087   0.67502413   439061 
 3652000   0.45045146   -3.2389642   -3.2389642   -2.5632886 0.0070599812   -3.2389642   0.67567564   439061 
 3653000   0.45006996   -3.2388691   -3.2388691   -2.5637657 0.0059786332   -3.2388691    0.6751034   439061 
 3654000   0.44997423   -3.2384652   -3.2384652   -2.5635054 0.0038933159   -3.2384652   0.67495981   439061 
 3655000   0.45005851   -3.2380223   -3.2380223   -2.5629361 0.0053852251   -3.2380223   0.67508622   439061 
 3656000   0.45052141    -3.238446    -3.238446   -2.5626654 0.0095676868    -3.238446   0.67578058   439061 
 3657000   0.45059511    -3.238932    -3.238932   -2.5630409 0.0065085876    -3.238932   0.67589113   439061 
 3658000   0.45161948   -3.2397477   -3.2397477     -2.56232   0.01020608   -3.2397477   0.67742767   439061 
 3659000   0.45096395   -3.2397686   -3.2397686   -2.5633242 0.0086156037   -3.2397686   0.67644438   439061 
 3660000   0.45030598   -3.2388542   -3.2388542   -2.5633967 0.0084931938   -3.2388542   0.67545743   439061 
 3661000   0.45110873   -3.2396054   -3.2396054   -2.5629439 0.0059492624   -3.2396054   0.67666156   439061 
 3662000   0.45138368   -3.2401591   -3.2401591   -2.5630852 0.0042320048   -3.2401591   0.67707399   439061 
 3663000   0.45059235   -3.2392481   -3.2392481   -2.5633611 0.0045865667   -3.2392481   0.67588698   439061 
 3664000   0.45052909   -3.2389981   -3.2389981    -2.563206 0.0086418055   -3.2389981    0.6757921   439061 
 3665000   0.45008573   -3.2382344   -3.2382344   -2.5631073 0.0065268294   -3.2382344   0.67512706   439061 
 3666000   0.44982724   -3.2384718   -3.2384718   -2.5637325 0.0042230471   -3.2384718   0.67473933   439061 
 3667000   0.45056201   -3.2399805   -3.2399805    -2.564139 0.0041719421   -3.2399805   0.67584148   439061 
 3668000   0.45049259    -3.239851    -3.239851   -2.5641136 0.0055397983    -3.239851   0.67573735   439061 
 3669000    0.4503017   -3.2398012   -3.2398012   -2.5643502 0.0055676705   -3.2398012   0.67545101   439061 
 3670000   0.45072772   -3.2397878   -3.2397878   -2.5636977 0.0076509426   -3.2397878   0.67609004   439061 
 3671000    0.4505305   -3.2400227   -3.2400227   -2.5642285 0.0033116072   -3.2400227    0.6757942   439061 
 3672000   0.45067891   -3.2403708   -3.2403708    -2.564354 0.0089492682   -3.2403708   0.67601682   439061 
 3673000   0.45055492   -3.2412021   -3.2412021   -2.5653713 0.0069447145   -3.2412021   0.67583085   439061 
 3674000   0.45036762   -3.2406947   -3.2406947   -2.5651448 0.0066061068   -3.2406947    0.6755499   439061 
 3675000   0.45043636   -3.2399383   -3.2399383   -2.5642853 0.0089973838   -3.2399383     0.675653   439061 
 3676000   0.45034677   -3.2404786   -3.2404786     -2.56496 0.0079604135   -3.2404786   0.67551862   439061 
 3677000   0.45018454   -3.2395369   -3.2395369   -2.5642616 0.0083454666   -3.2395369   0.67527528   439061 
 3678000   0.45080717   -3.2400873   -3.2400873   -2.5638781  0.010278431   -3.2400873   0.67620922   439061 
 3679000    0.4506805   -3.2406714   -3.2406714   -2.5646522  0.011068511   -3.2406714   0.67601921   439061 
 3680000   0.45066852   -3.2404332   -3.2404332    -2.564432 0.0094045454   -3.2404332   0.67600124   439061 
 3681000   0.44987441   -3.2389139   -3.2389139   -2.5641038 0.0082381218   -3.2389139   0.67481008   439061 
 3682000   0.45028598   -3.2393163   -3.2393163   -2.5638888 0.0042015068   -3.2393163   0.67542743   439061 
 3683000   0.44971225   -3.2388454   -3.2388454   -2.5642786 0.0059682796   -3.2388454   0.67456683   439061 
 3684000   0.45030106   -3.2387328   -3.2387328   -2.5632827 0.0076007399   -3.2387328   0.67545005   439061 
 3685000   0.45063915   -3.2396609   -3.2396609   -2.5637037 0.0045791339   -3.2396609   0.67595718   439061 
 3686000   0.45057242   -3.2396425   -3.2396425   -2.5637854 0.0034427156   -3.2396425   0.67585709   439061 
 3687000   0.45005511   -3.2384867   -3.2384867   -2.5634056  0.006579135   -3.2384867   0.67508112   439061 
 3688000   0.45051825   -3.2393759   -3.2393759   -2.5636001 0.0049782269   -3.2393759   0.67577583   439061 
 3689000    0.4515937    -3.240542    -3.240542    -2.563153 0.0056883019    -3.240542     0.677389   439061 
 3690000   0.45055947   -3.2394893   -3.2394893   -2.5636516 0.0082134585   -3.2394893   0.67583766   439061 
 3691000   0.45126779   -3.2404256   -3.2404256   -2.5635255 0.0084840881   -3.2404256   0.67690014   439061 
 3692000   0.45151617     -3.24041     -3.24041   -2.5631373  0.007770272     -3.24041   0.67727272   439061 
 3693000   0.45080755    -3.239858    -3.239858   -2.5636482 0.0077814398    -3.239858   0.67620979   439061 
 3694000   0.45093235     -3.24021     -3.24021    -2.563813 0.0069044388     -3.24021   0.67639699   439061 
 3695000   0.45120518   -3.2407404   -3.2407404   -2.5639341 0.0066898489   -3.2407404   0.67680623   439061 
 3696000   0.45079179   -3.2397917   -3.2397917   -2.5636055 0.0070678335   -3.2397917   0.67618615   439061 
 3697000   0.45101241   -3.2390383   -3.2390383   -2.5625212 0.0077357061   -3.2390383   0.67651707   439061 
 3698000   0.45027586   -3.2385209   -3.2385209   -2.5631087 0.0061029728   -3.2385209   0.67541225   439061 
 3699000   0.44951394   -3.2373482   -3.2373482   -2.5630788 0.0070271352   -3.2373482   0.67426937   439061 
 3700000   0.45059794   -3.2386426   -3.2386426   -2.5627472 0.0050630038   -3.2386426   0.67589538   439061 
 3701000   0.45042806    -3.239145    -3.239145   -2.5635044 0.0056245439    -3.239145   0.67564055   439061 
 3702000    0.4505916   -3.2388783   -3.2388783   -2.5629925  0.010814318   -3.2388783   0.67588586   439061 
 3703000   0.44990186   -3.2384009   -3.2384009   -2.5635497 0.0062544919   -3.2384009   0.67485125   439061 
 3704000   0.45064671    -3.239335    -3.239335   -2.5633665 0.0043255517    -3.239335   0.67596852   439061 
 3705000   0.44985487   -3.2386788   -3.2386788   -2.5638981 0.0071026821   -3.2386788   0.67478077   439061 
 3706000   0.45016635   -3.2395013   -3.2395013   -2.5642533 0.0021718386   -3.2395013   0.67524799   439061 
 3707000   0.45149979   -3.2418286   -3.2418286   -2.5645804 0.0053473915   -3.2418286   0.67724814   439061 
 3708000   0.45087647   -3.2398506   -3.2398506   -2.5635375 0.0040464061   -3.2398506   0.67631316   439061 
 3709000   0.45102663   -3.2402553   -3.2402553   -2.5637169 0.0072633539   -3.2402553    0.6765384   439061 
 3710000   0.45147373   -3.2403117   -3.2403117   -2.5631026 0.0070792327   -3.2403117   0.67720905   439061 
 3711000   0.45067399   -3.2396974   -3.2396974    -2.563688 0.0087047806   -3.2396974   0.67600945   439061 
 3712000   0.45105491   -3.2406964   -3.2406964   -2.5641155  0.010257374   -3.2406964   0.67658082   439061 
 3713000   0.45083163    -3.240313    -3.240313   -2.5640671 0.0079720501    -3.240313    0.6762459   439061 
 3714000   0.45135155   -3.2413991   -3.2413991   -2.5643733 0.0057392892   -3.2413991   0.67702578   439061 
 3715000   0.45098267   -3.2411678   -3.2411678   -2.5646954 0.0030548389   -3.2411678   0.67647246   439061 
 3716000    0.4511018   -3.2407994   -3.2407994   -2.5641483 0.0055604337   -3.2407994   0.67665117   439061 
 3717000    0.4504367   -3.2396392   -3.2396392   -2.5639857  0.008583788   -3.2396392   0.67565352   439061 
 3718000   0.45107859   -3.2404761   -3.2404761   -2.5638597 0.0052775051   -3.2404761   0.67661634   439061 
 3719000   0.45066823    -3.239277    -3.239277   -2.5632762 0.0068371452    -3.239277    0.6760008   439061 
 3720000   0.45112966    -3.239324    -3.239324    -2.562631 0.0054682597    -3.239324   0.67669295   439061 
 3721000   0.45042488   -3.2384808   -3.2384808   -2.5628451 0.0053255887   -3.2384808   0.67563579   439061 
 3722000   0.45045979   -3.2387276   -3.2387276   -2.5630394  0.007952245   -3.2387276   0.67568815   439061 
 3723000   0.45018194   -3.2380274   -3.2380274   -2.5627561  0.004349234   -3.2380274   0.67527138   439061 
 3724000   0.45054316   -3.2381681   -3.2381681   -2.5623549 0.0050575664   -3.2381681    0.6758132   439061 
 3725000   0.45097313   -3.2386572   -3.2386572   -2.5621991 0.0051066896   -3.2386572   0.67645816   439061 
 3726000   0.45047038   -3.2379489   -3.2379489   -2.5622449 0.0077526103   -3.2379489   0.67570403   439061 
 3727000   0.45060748   -3.2376879   -3.2376879   -2.5617782 0.0079631433   -3.2376879   0.67590968   439061 
 3728000   0.45138637   -3.2389376   -3.2389376   -2.5618596 0.0047935057   -3.2389376   0.67707801   439061 
 3729000   0.45103254    -3.238774    -3.238774   -2.5622267  0.010133169    -3.238774   0.67654727   439061 
 3730000   0.45098824   -3.2385263   -3.2385263   -2.5620455  0.011020454   -3.2385263   0.67648082   439061 
 3731000    0.4508629    -3.238732    -3.238732   -2.5624392 0.0094929586    -3.238732   0.67629282   439061 
 3732000   0.45076123   -3.2388834   -3.2388834   -2.5627431  0.010030315   -3.2388834   0.67614031   439061 
 3733000   0.45039684   -3.2385213   -3.2385213   -2.5629276 0.0078719387   -3.2385213   0.67559371   439061 
 3734000   0.45010062   -3.2383457   -3.2383457   -2.5631963  0.006588867   -3.2383457   0.67514939   439061 
 3735000    0.4498223   -3.2377417   -3.2377417   -2.5630098 0.0080558343   -3.2377417   0.67473191   439061 
 3736000   0.44979386   -3.2383701   -3.2383701   -2.5636808 0.0084505745   -3.2383701   0.67468925   439061 
 3737000   0.45066618   -3.2389923   -3.2389923   -2.5629946 0.0053847622   -3.2389923   0.67599774   439061 
 3738000   0.45096516    -3.237798    -3.237798   -2.5613518 0.0089833655    -3.237798    0.6764462   439061 
 3739000   0.45110418   -3.2385489   -3.2385489   -2.5618942 0.0062927978   -3.2385489   0.67665472   439061 
 3740000   0.45092853   -3.2391636   -3.2391636   -2.5627723 0.0099099829   -3.2391636   0.67639126   439061 
 3741000   0.45131724   -3.2393928   -3.2393928   -2.5624185 0.0043339451   -3.2393928   0.67697431   439061 
 3742000   0.45079985    -3.239487    -3.239487   -2.5632888 0.0065277946    -3.239487   0.67619823   439061 
 3743000   0.45090785    -3.239556    -3.239556   -2.5631958 0.0034705105    -3.239556   0.67636023   439061 
 3744000   0.45083001   -3.2393605   -3.2393605   -2.5631171 0.0050431949   -3.2393605   0.67624347   439061 
 3745000   0.45067569   -3.2385998   -3.2385998   -2.5625878 0.0091049647   -3.2385998   0.67601199   439061 
 3746000   0.45034525   -3.2381429   -3.2381429   -2.5626266 0.0071352343   -3.2381429   0.67551633   439061 
 3747000   0.45052118   -3.2391879   -3.2391879   -2.5634077  0.005947853   -3.2391879   0.67578023   439061 
 3748000   0.45109155   -3.2396078   -3.2396078    -2.562972 0.0087767388   -3.2396078   0.67663578   439061 
 3749000   0.45090043   -3.2391716   -3.2391716   -2.5628225 0.0060792876   -3.2391716   0.67634911   439061 
 3750000   0.45095363   -3.2401473   -3.2401473   -2.5637184 0.0079691021   -3.2401473   0.67642891   439061 
 3751000   0.45105472   -3.2400429   -3.2400429   -2.5634624  0.007778856   -3.2400429   0.67658054   439061 
 3752000    0.4506728   -3.2406357   -3.2406357    -2.564628 0.0065429646   -3.2406357   0.67600766   439061 
 3753000   0.45039749   -3.2396443   -3.2396443   -2.5640496 0.0062833553   -3.2396443    0.6755947   439061 
 3754000   0.45088311   -3.2400131   -3.2400131     -2.56369 0.0082874951   -3.2400131   0.67632313   439061 
 3755000   0.45134933   -3.2406753   -3.2406753   -2.5636528 0.0062125857   -3.2406753   0.67702245   439061 
 3756000   0.45017042   -3.2386774   -3.2386774   -2.5634233 0.0057659463   -3.2386774    0.6752541   439061 
 3757000   0.45036123   -3.2393757   -3.2393757   -2.5638354 0.0091959404   -3.2393757    0.6755403   439061 
 3758000   0.45085717   -3.2402951   -3.2402951   -2.5640109 0.0095116496   -3.2402951   0.67628421   439061 
 3759000    0.4510994   -3.2405332   -3.2405332   -2.5638857  0.008361132   -3.2405332   0.67664756   439061 
 3760000   0.45019256   -3.2396217   -3.2396217   -2.5643344  0.006822566   -3.2396217   0.67528731   439061 
 3761000   0.45037097   -3.2392957   -3.2392957   -2.5637408   0.00913658   -3.2392957   0.67555492   439061 
 3762000   0.45065313   -3.2403073   -3.2403073   -2.5643292 0.0040861137   -3.2403073   0.67597815   439061 
 3763000   0.44964709   -3.2393476   -3.2393476   -2.5648785 0.0051143818   -3.2393476    0.6744691   439061 
 3764000   0.45048178   -3.2397072   -3.2397072    -2.563986 0.0042902081   -3.2397072   0.67572114   439061 
 3765000   0.45082046   -3.2400952   -3.2400952    -2.563866 0.0049911178   -3.2400952   0.67622915   439061 
 3766000   0.45007493   -3.2383898   -3.2383898   -2.5632789  0.012154917   -3.2383898   0.67511086   439061 
 3767000   0.45082734   -3.2395488   -3.2395488   -2.5633093  0.010126736   -3.2395488   0.67623948   439061 
 3768000   0.45088439   -3.2390573   -3.2390573   -2.5627323 0.0092754196   -3.2390573   0.67632505   439061 
 3769000    0.4507908   -3.2392209   -3.2392209   -2.5630362 0.0069684562   -3.2392209   0.67618466   439061 
 3770000   0.45029193   -3.2387678   -3.2387678   -2.5633314 0.0071419021   -3.2387678   0.67543636   439061 
 3771000   0.45011726    -3.238843    -3.238843   -2.5636687 0.0054566129    -3.238843   0.67517435   439061 
 3772000   0.44966676   -3.2384302   -3.2384302   -2.5639316 0.0053213586   -3.2384302   0.67449861   439061 
 3773000   0.45001323   -3.2388752   -3.2388752   -2.5638569 0.0036608801   -3.2388752    0.6750183   439061 
 3774000   0.45119041   -3.2401575   -3.2401575   -2.5633734 0.0033753384   -3.2401575   0.67678407   439061 
 3775000   0.45053544   -3.2388741   -3.2388741   -2.5630724 0.0064668968   -3.2388741   0.67580162   439061 
 3776000   0.45081565   -3.2397756   -3.2397756   -2.5635537 0.0029936357   -3.2397756   0.67622194   439061 
 3777000   0.44995366   -3.2388692   -3.2388692   -2.5639402 0.0077940388   -3.2388692   0.67492895   439061 
 3778000   0.45042515   -3.2395213   -3.2395213   -2.5638851 0.0088652724   -3.2395213   0.67563619   439061 
 3779000   0.45077736   -3.2399394   -3.2399394   -2.5637749 0.0066318065   -3.2399394    0.6761645   439061 
 3780000   0.45108576   -3.2397935   -3.2397935   -2.5631664 0.0082884058   -3.2397935    0.6766271   439061 
 3781000   0.45165993    -3.241164    -3.241164   -2.5636757 0.0053270598    -3.241164   0.67748836   439061 
 3782000   0.45077911   -3.2406199   -3.2406199   -2.5644528 0.0079840526   -3.2406199   0.67616712   439061 
 3783000   0.45055753   -3.2400003   -3.2400003   -2.5641656   0.00770169   -3.2400003   0.67583476   439061 
 3784000    0.4515691   -3.2416331   -3.2416331    -2.564281 0.0027558931   -3.2416331   0.67735211   439061 
 3785000    0.4505325   -3.2395967   -3.2395967   -2.5637995 0.0081649118   -3.2395967   0.67579721   439061 
 3786000   0.45053262   -3.2396664   -3.2396664    -2.563869  0.010361237   -3.2396664   0.67579739   439061 
 3787000   0.44978382   -3.2390044   -3.2390044   -2.5643303  0.011258683   -3.2390044   0.67467419   439061 
 3788000   0.44989277   -3.2388376   -3.2388376       -2.564 0.0083132415   -3.2388376   0.67483762   439061 
 3789000   0.45039381   -3.2394287   -3.2394287   -2.5638395 0.0048401579   -3.2394287   0.67558918   439061 
 3790000   0.45040666   -3.2395204   -3.2395204   -2.5639119 0.0028543843   -3.2395204   0.67560845   439061 
 3791000    0.4502154   -3.2387924   -3.2387924   -2.5634708  0.011006203   -3.2387924   0.67532156   439061 
 3792000   0.45019791   -3.2391922   -3.2391922   -2.5638969 0.0060065355   -3.2391922   0.67529532   439061 
 3793000   0.45098478   -3.2403335   -3.2403335   -2.5638579 0.0035849874   -3.2403335   0.67647564   439061 
 3794000   0.45106027   -3.2397942   -3.2397942   -2.5632053 0.0051682893   -3.2397942   0.67658887   439061 
 3795000   0.44992179   -3.2387023   -3.2387023   -2.5638211 0.0082874256   -3.2387023   0.67488115   439061 
 3796000   0.45069997   -3.2400048   -3.2400048   -2.5639564  0.005896976   -3.2400048   0.67604841   439061 
 3797000   0.45116137   -3.2405138   -3.2405138   -2.5637733 0.0091270871   -3.2405138   0.67674052   439061 
 3798000   0.45138698    -3.240353    -3.240353   -2.5632741 0.0099347459    -3.240353   0.67707893   439061 
 3799000   0.45130829   -3.2405621   -3.2405621   -2.5636012 0.0058738486   -3.2405621   0.67696089   439061 
 3800000   0.45023942   -3.2393386   -3.2393386    -2.563981 0.0083846958   -3.2393386    0.6753576   439061 
 3801000    0.4503595   -3.2402599   -3.2402599   -2.5647222 0.0034779711   -3.2402599   0.67553771   439061 
 3802000   0.45053026   -3.2399845   -3.2399845   -2.5641907 0.0082805079   -3.2399845   0.67579385   439061 
 3803000   0.45073207   -3.2406565   -3.2406565   -2.5645599 0.0051982366   -3.2406565   0.67609657   439061 
 3804000   0.45057206    -3.239846    -3.239846   -2.5639895 0.0073232868    -3.239846   0.67585654   439061 
 3805000   0.45132627   -3.2402993   -3.2402993   -2.5633114  0.010518564   -3.2402993   0.67698787   439061 
 3806000   0.44983111    -3.239011    -3.239011   -2.5642658  0.010917493    -3.239011   0.67474513   439061 
 3807000   0.45096811   -3.2411781   -3.2411781   -2.5647274 0.0034951265   -3.2411781   0.67645063   439061 
 3808000    0.4505294   -3.2398969   -3.2398969   -2.5641043 0.0067903686   -3.2398969   0.67579256   439061 
 3809000   0.45039875   -3.2405701   -3.2405701   -2.5649736 0.0013459174   -3.2405701   0.67559658   439061 
 3810000    0.4500009   -3.2402212   -3.2402212   -2.5652214  0.005122869   -3.2402212   0.67499982   439061 
 3811000   0.45057206   -3.2411562   -3.2411562   -2.5652997 0.0038627847   -3.2411562   0.67585655   439061 
 3812000   0.45121415   -3.2410418   -3.2410418   -2.5642221 0.0065302828   -3.2410418   0.67681968   439061 
 3813000   0.45138056   -3.2406159   -3.2406159   -2.5635466 0.0096003659   -3.2406159   0.67706929   439061 
 3814000   0.45123041   -3.2408887   -3.2408887   -2.5640446 0.0077624982   -3.2408887   0.67684408   439061 
 3815000   0.45151314   -3.2411451   -3.2411451    -2.563877  0.009307333   -3.2411451   0.67726817   439061 
 3816000   0.45044027   -3.2403008   -3.2403008   -2.5646419 0.0054336179   -3.2403008   0.67565886   439061 
 3817000   0.44970666   -3.2390754   -3.2390754   -2.5645169 0.0098025833   -3.2390754   0.67455845   439061 
 3818000   0.45021582   -3.2403986   -3.2403986   -2.5650764 0.0042660623   -3.2403986   0.67532219   439061 
 3819000   0.45101744   -3.2412728   -3.2412728   -2.5647482 0.0033175121   -3.2412728   0.67652462   439061 
 3820000   0.45054028   -3.2399481   -3.2399481   -2.5641392 0.0031680341   -3.2399481   0.67580888   439061 
 3821000    0.4511074    -3.240609    -3.240609   -2.5639494  0.004192131    -3.240609   0.67665956   439061 
 3822000    0.4500939   -3.2389037   -3.2389037   -2.5637644 0.0080032906   -3.2389037   0.67513931   439061 
 3823000   0.45063173   -3.2394407   -3.2394407   -2.5634947 0.0051388268   -3.2394407   0.67594606   439061 
 3824000   0.45033645   -3.2390364   -3.2390364   -2.5635333 0.0040051656   -3.2390364   0.67550313   439061 
 3825000   0.44996694    -3.239032    -3.239032   -2.5640831 0.0037031929    -3.239032   0.67494887   439061 
 3826000   0.45044849   -3.2393571   -3.2393571   -2.5636859 0.0066447727   -3.2393571    0.6756712   439061 
 3827000   0.45059096   -3.2396436   -3.2396436   -2.5637587 0.0051132795   -3.2396436    0.6758849   439061 
 3828000   0.45115977   -3.2396633   -3.2396633   -2.5629252 0.0066159382   -3.2396633   0.67673812   439061 
 3829000   0.45101835   -3.2397301   -3.2397301   -2.5632041 0.0083389286   -3.2397301   0.67652598   439061 
 3830000    0.4512115   -3.2397157   -3.2397157      -2.5629 0.0076759025   -3.2397157   0.67681571   439061 
 3831000   0.45119884   -3.2396389   -3.2396389   -2.5628422 0.0067868662   -3.2396389   0.67679672   439061 
 3832000   0.45074343   -3.2391282   -3.2391282   -2.5630146 0.0067065956   -3.2391282   0.67611361   439061 
 3833000   0.45090049   -3.2394132   -3.2394132    -2.563064 0.0060707133   -3.2394132    0.6763492   439061 
 3834000   0.45040596   -3.2395203   -3.2395203   -2.5639129 0.0063401017   -3.2395203    0.6756074   439061 
 3835000   0.45005213    -3.238821    -3.238821   -2.5637444  0.002971677    -3.238821   0.67507666   439061 
 3836000   0.45020462   -3.2381599   -3.2381599   -2.5628546 0.0046505866   -3.2381599   0.67530539   439061 
 3837000   0.45001867   -3.2388998   -3.2388998   -2.5638733 0.0034976685   -3.2388998   0.67502647   439061 
 3838000    0.4505879   -3.2395657   -3.2395657   -2.5636854 0.0074230997   -3.2395657   0.67588031   439061 
 3839000   0.45139542   -3.2394397   -3.2394397   -2.5623481  0.004802458   -3.2394397   0.67709159   439061 
 3840000   0.45055152   -3.2380456   -3.2380456   -2.5622198 0.0065101586   -3.2380456   0.67582574   439061 
 3841000    0.4512405   -3.2394925   -3.2394925   -2.5626333 0.0050996588   -3.2394925    0.6768592   439061 
 3842000   0.45079484   -3.2386475   -3.2386475   -2.5624568 0.0079928546   -3.2386475   0.67619071   439061 
 3843000   0.45099575   -3.2392362   -3.2392362   -2.5627441 0.0076952352   -3.2392362   0.67649208   439061 
 3844000    0.4511249   -3.2390344   -3.2390344   -2.5623485 0.0075176587   -3.2390344   0.67668581   439061 
 3845000   0.45139673   -3.2394165   -3.2394165    -2.562323 0.0072431942   -3.2394165   0.67709356   439061 
 3846000   0.45084245   -3.2388031   -3.2388031    -2.562541 0.0050199332   -3.2388031   0.67626213   439061 
 3847000   0.45055224   -3.2383062   -3.2383062   -2.5624794 0.0086494912   -3.2383062   0.67582681   439061 
 3848000   0.45101097   -3.2394631   -3.2394631   -2.5629482  0.003161115   -3.2394631   0.67651491   439061 
 3849000   0.45099937     -3.23847     -3.23847   -2.5619725 0.0062206863     -3.23847   0.67649751   439061 
 3850000   0.45014308   -3.2380495   -3.2380495   -2.5628364 0.0052239249   -3.2380495   0.67521309   439061 
 3851000   0.45029785   -3.2377972   -3.2377972   -2.5623519  0.004934951   -3.2377972   0.67544524   439061 
 3852000   0.44963513   -3.2369016   -3.2369016   -2.5624505 0.0082038388   -3.2369016   0.67445115   439061 
 3853000   0.45095403   -3.2385744   -3.2385744   -2.5621449 0.0035862147   -3.2385744    0.6764295   439061 
 3854000   0.45026301   -3.2381266   -3.2381266   -2.5627336 0.0099037162   -3.2381266   0.67539298   439061 
 3855000   0.45116085   -3.2392797   -3.2392797   -2.5625399 0.0013918601   -3.2392797   0.67673974   439061 
 3856000   0.45096332   -3.2383636   -3.2383636   -2.5619201 0.0079345049   -3.2383636   0.67644343   439061 
 3857000   0.45083571   -3.2386365   -3.2386365   -2.5623845 0.0041955922   -3.2386365   0.67625202   439061 
 3858000    0.4515209   -3.2393815   -3.2393815   -2.5621016 0.0057288039   -3.2393815    0.6772798   439061 
 3859000   0.45097064   -3.2384562   -3.2384562   -2.5620018  0.010246667   -3.2384562   0.67645442   439061 
 3860000   0.45143032   -3.2395336   -3.2395336   -2.5623896 0.0078129101   -3.2395336   0.67714394   439061 
 3861000   0.45086939   -3.2383531   -3.2383531   -2.5620505   0.00582065   -3.2383531   0.67630255   439061 
 3862000   0.45092134   -3.2390641   -3.2390641   -2.5626836 0.0052433414   -3.2390641   0.67638046   439061 
 3863000   0.45047087   -3.2386319   -3.2386319   -2.5629272 0.0069701044   -3.2386319   0.67570477   439061 
 3864000   0.45094322   -3.2382405   -3.2382405   -2.5618272 0.0078215246   -3.2382405   0.67641328   439061 
 3865000   0.45084624     -3.23745     -3.23745   -2.5611822 0.0093828289     -3.23745   0.67626782   439061 
 3866000   0.45102154   -3.2382437   -3.2382437   -2.5617129 0.0066905253   -3.2382437   0.67653076   439061 
 3867000   0.45080341   -3.2381467   -3.2381467   -2.5619431 0.0057325745   -3.2381467   0.67620358   439061 
 3868000   0.45021222   -3.2378385   -3.2378385   -2.5625217 0.0068235677   -3.2378385   0.67531679   439061 
 3869000   0.45086849   -3.2389874   -3.2389874   -2.5626862 0.0044830877   -3.2389874    0.6763012   439061 
 3870000    0.4508872   -3.2388141   -3.2388141   -2.5624848 0.0035514003   -3.2388141   0.67632926   439061 
 3871000   0.45102002   -3.2383903   -3.2383903   -2.5618618 0.0038068329   -3.2383903   0.67652849   439061 
 3872000   0.45173967   -3.2395597   -3.2395597   -2.5619517 0.0068731876   -3.2395597   0.67760796   439061 
 3873000   0.45086399   -3.2375094   -3.2375094   -2.5612149  0.010995468   -3.2375094   0.67629445   439061 
 3874000   0.45138769   -3.2384274   -3.2384274   -2.5613474 0.0083037558   -3.2384274   0.67707999   439061 
 3875000   0.45086553   -3.2382298   -3.2382298    -2.561933 0.0068584482   -3.2382298   0.67629675   439061 
 3876000   0.44992122   -3.2376196   -3.2376196   -2.5627393 0.0069811446   -3.2376196   0.67488029   439061 
 3877000   0.44956722   -3.2381523   -3.2381523    -2.563803 0.0029114184   -3.2381523   0.67434929   439061 
 3878000   0.44904326   -3.2370577   -3.2370577   -2.5634943 0.0048463394   -3.2370577   0.67356335   439061 
 3879000   0.44992046   -3.2384181   -3.2384181   -2.5635389 0.0063355603   -3.2384181   0.67487915   439061 
 3880000   0.45008628   -3.2390242   -3.2390242   -2.5638964 0.0081231633   -3.2390242   0.67512788   439061 
 3881000   0.45048832   -3.2392919   -3.2392919    -2.563561 0.0076643363   -3.2392919   0.67573094   439061 
 3882000   0.44991219   -3.2384092   -3.2384092   -2.5635425 0.0085498442   -3.2384092   0.67486674   439061 
 3883000   0.45049972   -3.2399886   -3.2399886   -2.5642406 0.0073586251   -3.2399886   0.67574805   439061 
 3884000    0.4507769   -3.2398233   -3.2398233   -2.5636595  0.011495504   -3.2398233    0.6761638   439061 
 3885000   0.45129598   -3.2411649   -3.2411649   -2.5642225   0.01250058   -3.2411649   0.67694243   439061 
 3886000   0.45133021   -3.2407449   -3.2407449   -2.5637511   0.01045692   -3.2407449   0.67699378   439061 
 3887000   0.45186278    -3.241084    -3.241084   -2.5632913   0.01017961    -3.241084   0.67779263   439061 
 3888000   0.45082813   -3.2390605   -3.2390605   -2.5628199 0.0082834739   -3.2390605   0.67624065   439061 
 3889000   0.45024732   -3.2388129   -3.2388129   -2.5634434 0.0072567158   -3.2388129   0.67536944   439061 
 3890000   0.45070861   -3.2396823   -3.2396823   -2.5636209 0.0042674732   -3.2396823   0.67606137   439061 
 3891000   0.45038837   -3.2387376   -3.2387376   -2.5631565 0.0063610783   -3.2387376   0.67558102   439061 
 3892000   0.44993917   -3.2383082   -3.2383082    -2.563401 0.0051683928   -3.2383082   0.67490722   439061 
 3893000   0.44964838    -3.237663    -3.237663   -2.5631919  0.002223489    -3.237663   0.67447103   439061 
 3894000    0.4497033   -3.2375139   -3.2375139   -2.5629604 0.0048586217   -3.2375139   0.67455341   439061 
 3895000   0.45084668    -3.239351    -3.239351   -2.5630826 0.0031523205    -3.239351   0.67626847   439061 
 3896000   0.45128146   -3.2398652   -3.2398652   -2.5629446 0.0037512947   -3.2398652   0.67692064   439061 
 3897000   0.45020517   -3.2373933   -3.2373933   -2.5620871 0.0092147769   -3.2373933   0.67530622   439061 
 3898000   0.45087436   -3.2386934   -3.2386934   -2.5623834 0.0077700378   -3.2386934      0.67631   439061 
 3899000   0.45064722   -3.2388507   -3.2388507   -2.5628814 0.0060646958   -3.2388507   0.67596929   439061 
 3900000   0.45057742   -3.2391424   -3.2391424   -2.5632779 0.0076076836   -3.2391424   0.67586459   439061 
 3901000   0.45165047   -3.2409526   -3.2409526   -2.5634784 0.0079332554   -3.2409526   0.67747416   439061 
 3902000   0.45153642   -3.2399962   -3.2399962   -2.5626931 0.0072803673   -3.2399962   0.67730309   439061 
 3903000   0.45092589   -3.2393417   -3.2393417   -2.5629544 0.0098141791   -3.2393417    0.6763873   439061 
 3904000   0.45077052   -3.2397222   -3.2397222    -2.563568 0.0064315462   -3.2397222   0.67615425   439061 
 3905000   0.45039309    -3.239166    -3.239166   -2.5635779 0.0047692609    -3.239166    0.6755881   439061 
 3906000   0.45088301   -3.2402731   -3.2402731   -2.5639501 0.0066738029   -3.2402731   0.67632297   439061 
 3907000   0.44974696   -3.2382645   -3.2382645   -2.5636456 0.0053125707   -3.2382645   0.67461891   439061 
 3908000   0.45060559   -3.2381353   -3.2381353   -2.5622284 0.0078553981   -3.2381353   0.67590685   439061 
 3909000   0.45008844   -3.2376316   -3.2376316   -2.5625005 0.0058034824   -3.2376316   0.67513112   439061 
 3910000   0.45050199   -3.2383953   -3.2383953   -2.5626439  0.010224885   -3.2383953   0.67575144   439061 
 3911000   0.45025683   -3.2378107   -3.2378107    -2.562427 0.0087020202   -3.2378107   0.67538371   439061 
 3912000   0.45060621   -3.2384192   -3.2384192   -2.5625114 0.0034347871   -3.2384192   0.67590778   439061 
 3913000   0.45050233   -3.2376606   -3.2376606   -2.5619087 0.0072132052   -3.2376606   0.67575195   439061 
 3914000   0.45039222   -3.2382205   -3.2382205   -2.5626337 0.0096624492   -3.2382205   0.67558679   439061 
 3915000   0.45095327   -3.2381483   -3.2381483   -2.5617199 0.0090085732   -3.2381483   0.67642836   439061 
 3916000   0.45090801   -3.2385511   -3.2385511   -2.5621907   0.01114276   -3.2385511   0.67636048   439061 
 3917000   0.45075717   -3.2383793   -3.2383793   -2.5622451 0.0088574824   -3.2383793   0.67613421   439061 
 3918000   0.45079895   -3.2390448   -3.2390448   -2.5628479 0.0040841701   -3.2390448   0.67619688   439061 
 3919000   0.45021916   -3.2388144   -3.2388144   -2.5634872 0.0028818577   -3.2388144    0.6753272   439061 
 3920000   0.45060889   -3.2394325   -3.2394325   -2.5635207 0.0056538753   -3.2394325   0.67591179   439061 
 3921000   0.45050754   -3.2389357   -3.2389357   -2.5631759 0.0088842995   -3.2389357   0.67575977   439061 
 3922000   0.45102943   -3.2399514   -3.2399514   -2.5634088 0.0078148161   -3.2399514    0.6765426   439061 
 3923000   0.45054232   -3.2391802   -3.2391802   -2.5633682  0.008591883   -3.2391802   0.67581194   439061 
 3924000   0.45062693   -3.2403863   -3.2403863   -2.5644475  0.007074627   -3.2403863   0.67593885   439061 
 3925000   0.45025724   -3.2398994   -3.2398994    -2.564515 0.0063498233   -3.2398994   0.67538432   439061 
 3926000   0.45014511   -3.2393302   -3.2393302   -2.5641141 0.0089504454   -3.2393302   0.67521612   439061 
 3927000   0.45082418   -3.2400442   -3.2400442   -2.5638095  0.008674281   -3.2400442   0.67623474   439061 
 3928000   0.45039955    -3.239686    -3.239686   -2.5640882 0.0078247635    -3.239686   0.67559779   439061 
 3929000   0.45015705   -3.2395338   -3.2395338   -2.5642997 0.0054371147   -3.2395338   0.67523404   439061 
 3930000   0.45048949   -3.2397262   -3.2397262   -2.5639935 0.0046029921   -3.2397262    0.6757327   439061 
 3931000   0.45047693   -3.2403688   -3.2403688   -2.5646549 0.0039674557   -3.2403688   0.67571386   439061 
 3932000   0.44987433   -3.2391871   -3.2391871   -2.5643772 0.0088380567   -3.2391871   0.67480996   439061 
 3933000   0.45093461     -3.24068     -3.24068   -2.5642797 0.0032586291     -3.24068   0.67640038   439061 
 3934000   0.45040451   -3.2394262   -3.2394262   -2.5638209 0.0090629284   -3.2394262   0.67560523   439061 
 3935000   0.45033685   -3.2391468   -3.2391468   -2.5636431  0.010171966   -3.2391468   0.67550373   439061 
 3936000    0.4502899   -3.2395901   -3.2395901   -2.5641568 0.0073798866   -3.2395901   0.67543331   439061 
 3937000   0.45136956     -3.24111     -3.24111   -2.5640572 0.0072477517     -3.24111    0.6770528   439061 
 3938000   0.45059435   -3.2403211   -3.2403211   -2.5644311 0.0051474731   -3.2403211   0.67588998   439061 
 3939000   0.44987482   -3.2395292   -3.2395292   -2.5647185 0.0066911802   -3.2395292    0.6748107   439061 
 3940000   0.45027386   -3.2398434   -3.2398434   -2.5644341 0.0041278432   -3.2398434   0.67540926   439061 
 3941000   0.44991747   -3.2399099   -3.2399099   -2.5650352  0.004450739   -3.2399099   0.67487467   439061 
 3942000   0.44997927   -3.2404696   -3.2404696   -2.5655023 0.0043322606   -3.2404696   0.67496737   439061 
 3943000   0.45032971   -3.2405052   -3.2405052   -2.5650122 0.0083541346   -3.2405052   0.67549302   439061 
 3944000   0.45062422   -3.2406354   -3.2406354   -2.5647006 0.0076133713   -3.2406354   0.67593479   439061 
 3945000   0.45026936   -3.2407583   -3.2407583   -2.5653558 0.0057658567   -3.2407583   0.67540251   439061 
 3946000   0.45037284   -3.2406063   -3.2406063   -2.5650486 0.0068555179   -3.2406063   0.67555772   439061 
 3947000   0.45096282   -3.2410899   -3.2410899   -2.5646472 0.0063853994   -3.2410899   0.67644269   439061 
 3948000   0.45075254   -3.2405475   -3.2405475   -2.5644202  0.012318421   -3.2405475   0.67612727   439061 
 3949000   0.45047216   -3.2402607   -3.2402607    -2.564554 0.0082966115   -3.2402607    0.6757067   439061 
 3950000   0.45100244   -3.2411723   -3.2411723   -2.5646702  0.006541668   -3.2411723   0.67650212   439061 
 3951000   0.45027237    -3.240899    -3.240899   -2.5654919 0.0057004193    -3.240899   0.67540701   439061 
 3952000   0.44847015   -3.2385068   -3.2385068   -2.5658031 0.0081843684   -3.2385068    0.6727037   439061 
 3953000   0.44938897   -3.2399043   -3.2399043   -2.5658224 0.0064211758   -3.2399043   0.67408192   439061 
 3954000   0.45057115   -3.2417615   -3.2417615   -2.5659063 0.0044021117   -3.2417615   0.67585519   439061 
 3955000   0.45056915   -3.2409781   -3.2409781    -2.565126 0.0070032784   -3.2409781   0.67585219   439061 
 3956000   0.44986032   -3.2406784   -3.2406784   -2.5658895 0.0068839898   -3.2406784   0.67478894   439061 
 3957000   0.45010766   -3.2412048   -3.2412048   -2.5660448 0.0029036703   -3.2412048   0.67515995   439061 
 3958000   0.44962875   -3.2405256   -3.2405256    -2.566084 0.0060460097   -3.2405256   0.67444159   439061 
 3959000   0.44921484   -3.2403481   -3.2403481   -2.5665274 0.0094825138   -3.2403481   0.67382073   439061 
 3960000    0.4508035   -3.2424823   -3.2424823   -2.5662786  0.007922822   -3.2424823   0.67620371   439061 
 3961000   0.44995317   -3.2413743   -3.2413743   -2.5664461 0.0099691567   -3.2413743   0.67492822   439061 
 3962000   0.45096694   -3.2420052   -3.2420052   -2.5655563 0.0073290571   -3.2420052   0.67644888   439061 
 3963000   0.45045377   -3.2415513   -3.2415513   -2.5658722 0.0088951908   -3.2415513   0.67567912   439061 
 3964000   0.45026283   -3.2415774   -3.2415774   -2.5661847 0.0073659212   -3.2415774   0.67539271   439061 
 3965000    0.4500781   -3.2417177   -3.2417177   -2.5666021 0.0062876256   -3.2417177   0.67511562   439061 
 3966000   0.45010275   -3.2418489   -3.2418489   -2.5666963 0.0052146163   -3.2418489   0.67515259   439061 
 3967000   0.45056392   -3.2424418   -3.2424418   -2.5665974  0.002964791   -3.2424418   0.67584434   439061 
 3968000   0.44946126   -3.2404247   -3.2404247   -2.5662344  0.010152998   -3.2404247   0.67419035   439061 
 3969000   0.45004579    -3.241217    -3.241217   -2.5661498   0.01004799    -3.241217   0.67506715   439061 
 3970000   0.45001804   -3.2404669   -3.2404669   -2.5654414 0.0093409096   -3.2404669   0.67502552   439061 
 3971000   0.45007221   -3.2404048   -3.2404048    -2.565298  0.011741832   -3.2404048   0.67510678   439061 
 3972000    0.4507397   -3.2408538   -3.2408538   -2.5647458  0.011772333   -3.2408538   0.67610801   439061 
 3973000   0.45038075   -3.2404933   -3.2404933   -2.5649237 0.0048112951   -3.2404933   0.67556959   439061 
 3974000   0.45180596   -3.2420721   -3.2420721   -2.5643647 0.0024460189   -3.2420721    0.6777074   439061 
 3975000   0.45074165    -3.241034    -3.241034   -2.5649231 0.0043540458    -3.241034   0.67611093   439061 
 3976000   0.45066771   -3.2409606   -3.2409606   -2.5649606 0.0048636257   -3.2409606   0.67600002   439061 
 3977000   0.45059706   -3.2408385   -3.2408385   -2.5649444 0.0059703201   -3.2408385   0.67589405   439061 
 3978000   0.45089802   -3.2411366   -3.2411366   -2.5647911  0.001610811   -3.2411366   0.67634548   439061 
 3979000   0.45088752   -3.2402294   -3.2402294   -2.5638997 0.0035968851   -3.2402294   0.67632974   439061 
 3980000   0.45017527   -3.2390444   -3.2390444    -2.563783 0.0058274892   -3.2390444   0.67526137   439061 
 3981000   0.45025883   -3.2395971   -3.2395971   -2.5642104 0.0049523716   -3.2395971   0.67538671   439061 
 3982000   0.45008796   -3.2389611   -3.2389611   -2.5638307 0.0085813986   -3.2389611   0.67513041   439061 
 3983000    0.4511454   -3.2395227   -3.2395227   -2.5628062 0.0072245188   -3.2395227   0.67671656   439061 
 3984000   0.44969442   -3.2382177   -3.2382177   -2.5636776  0.011734211   -3.2382177   0.67454009   439061 
 3985000   0.45020716   -3.2399648   -3.2399648   -2.5646556 0.0090702134   -3.2399648    0.6753092   439061 
 3986000    0.4497768   -3.2391123   -3.2391123   -2.5644487 0.0064150884   -3.2391123   0.67466366   439061 
 3987000   0.45060659   -3.2406358   -3.2406358   -2.5647275  0.006650489   -3.2406358   0.67590834   439061 
 3988000    0.4502595   -3.2402672   -3.2402672   -2.5648795 0.0058460389   -3.2402672   0.67538771   439061 
 3989000   0.45070235   -3.2403379   -3.2403379   -2.5642859 0.0096312228   -3.2403379   0.67605199   439061 
 3990000   0.45098597   -3.2406509   -3.2406509   -2.5641735 0.0090017391   -3.2406509   0.67647741   439061 
 3991000   0.45155636   -3.2417574   -3.2417574   -2.5644244 0.0067062507   -3.2417574     0.677333   439061 
 3992000   0.45010471   -3.2392678   -3.2392678   -2.5641123 0.0086792566   -3.2392678   0.67515553   439061 
 3993000   0.45075896   -3.2397842   -3.2397842   -2.5636473 0.0040487683   -3.2397842    0.6761369   439061 
 3994000   0.45076409   -3.2404074   -3.2404074   -2.5642628 0.0084297254   -3.2404074    0.6761446   439061 
 3995000   0.44948974   -3.2387584   -3.2387584   -2.5645253 0.0075725141   -3.2387584   0.67423308   439061 
 3996000   0.45062453   -3.2399413   -3.2399413    -2.564006 0.0055539128   -3.2399413   0.67593526   439061 
 3997000   0.45106112   -3.2412223   -3.2412223   -2.5646322 0.0050276488   -3.2412223   0.67659014   439061 
 3998000   0.45039784   -3.2409689   -3.2409689   -2.5653736 0.0028085699   -3.2409689   0.67559522   439061 
 3999000   0.45096571   -3.2407006   -3.2407006   -2.5642536 0.0038595816   -3.2407006   0.67644702   439061 
 4000000   0.45082112   -3.2408485   -3.2408485   -2.5646184  0.002806207   -3.2408485   0.67623014   439061 
 4001000   0.44997591   -3.2398447   -3.2398447   -2.5648824 0.0050669294   -3.2398447   0.67496233   439061 
 4002000   0.45051097   -3.2412406   -3.2412406   -2.5654757 0.0069415171   -3.2412406   0.67576492   439061 
 4003000    0.4516314   -3.2424908   -3.2424908   -2.5650452 0.0053783345   -3.2424908   0.67744556   439061 
 4004000   0.45002072   -3.2403752   -3.2403752   -2.5653456 0.0097212197   -3.2403752   0.67502955   439061 
 4005000   0.45092892   -3.2418359   -3.2418359   -2.5654441 0.0047607379   -3.2418359   0.67639184   439061 
 4006000   0.45078688   -3.2420306   -3.2420306   -2.5658518  0.010931513   -3.2420306   0.67617878   439061 
 4007000   0.45083317   -3.2421356   -3.2421356   -2.5658874 0.0065772755   -3.2421356   0.67624822   439061 
 4008000   0.45054174   -3.2418431   -3.2418431   -2.5660321 0.0073820495   -3.2418431   0.67581106   439061 
 4009000   0.45106995   -3.2426639   -3.2426639   -2.5660605 0.0088565069   -3.2426639   0.67660338   439061 
 4010000   0.45066341   -3.2421359   -3.2421359   -2.5661423 0.0073689088   -3.2421359   0.67599358   439061 
 4011000   0.45056541   -3.2412991   -3.2412991   -2.5654525 0.0097447833   -3.2412991   0.67584657   439061 
 4012000    0.4504221   -3.2415307   -3.2415307   -2.5658991 0.0089121468   -3.2415307   0.67563161   439061 
 4013000    0.4499491   -3.2404757   -3.2404757   -2.5655536 0.0072428479   -3.2404757   0.67492211   439061 
 4014000   0.45034674   -3.2417122   -3.2417122   -2.5661936 0.0025784481   -3.2417122   0.67551857   439061 
 4015000   0.44997386   -3.2411711   -3.2411711   -2.5662118 0.0073930124   -3.2411711   0.67495926   439061 
 4016000   0.44915954   -3.2399513   -3.2399513   -2.5662135  0.004047358   -3.2399513   0.67373778   439061 
 4017000   0.44980545   -3.2397618   -3.2397618   -2.5650552 0.0068463762   -3.2397618   0.67470663   439061 
 4018000    0.4504715   -3.2408315   -3.2408315   -2.5651258 0.0097442622   -3.2408315   0.67570571   439061 
 4019000   0.45030217   -3.2404555   -3.2404555   -2.5650038 0.0070897777   -3.2404555   0.67545171   439061 
 4020000   0.45143638   -3.2415985   -3.2415985   -2.5644455 0.0089569654   -3.2415985   0.67715303   439061 
 4021000   0.45029919   -3.2404045   -3.2404045   -2.5649573  0.010685439   -3.2404045   0.67544725   439061 
 4022000   0.45077715   -3.2411736   -3.2411736   -2.5650094  0.008405088   -3.2411736   0.67616418   439061 
 4023000   0.45027029   -3.2401146   -3.2401146   -2.5647107 0.0075513179   -3.2401146   0.67540389   439061 
 4024000   0.45059562   -3.2408141   -3.2408141   -2.5649223 0.0076995352   -3.2408141   0.67589189   439061 
 4025000   0.45007337   -3.2404973   -3.2404973   -2.5653888 0.0073821193   -3.2404973   0.67510852   439061 
 4026000   0.45087575   -3.2414082   -3.2414082   -2.5650961 0.0054734474   -3.2414082   0.67631209   439061 
 4027000   0.44974766   -3.2407356   -3.2407356   -2.5661156  0.007068602   -3.2407356   0.67461995   439061 
 4028000    0.4502449   -3.2416306   -3.2416306   -2.5662648 0.0011912508   -3.2416306   0.67536582   439061 
 4029000   0.45052459   -3.2415649   -3.2415649   -2.5657796 0.0016859663   -3.2415649   0.67578535   439061 
 4030000   0.44985209   -3.2411713   -3.2411713   -2.5663947 0.0071871795   -3.2411713    0.6747766   439061 
 4031000   0.45063586   -3.2409658   -3.2409658   -2.5650136 0.0048340064   -3.2409658   0.67595225   439061 
 4032000   0.45023165   -3.2415908   -3.2415908   -2.5662449  0.010585423   -3.2415908   0.67534594   439061 
 4033000   0.45094761   -3.2424815   -3.2424815   -2.5660616 0.0093908439   -3.2424815   0.67641987   439061 
 4034000   0.45132778   -3.2423189   -3.2423189   -2.5653288 0.0092681984   -3.2423189   0.67699012   439061 
 4035000   0.45022147   -3.2405455   -3.2405455   -2.5652148  0.012802005   -3.2405455   0.67533067   439061 
 4036000   0.45027159   -3.2417753   -3.2417753   -2.5663695 0.0066008498   -3.2417753   0.67540584   439061 
 4037000   0.45077737   -3.2417418   -3.2417418   -2.5655773 0.0094012711   -3.2417418   0.67616452   439061 
 4038000   0.45012922   -3.2412866   -3.2412866   -2.5660943 0.0067826921   -3.2412866    0.6751923   439061 
 4039000   0.45039997    -3.241789    -3.241789   -2.5661906 0.0055258713    -3.241789   0.67559842   439061 
 4040000   0.45050918   -3.2424103   -3.2424103   -2.5666481 0.0046971811   -3.2424103   0.67576223   439061 
 4041000   0.44989147    -3.240788    -3.240788   -2.5659523 0.0062259075    -3.240788   0.67483567   439061 
 4042000   0.45037824   -3.2416306   -3.2416306   -2.5660648 0.0030325689   -3.2416306   0.67556582   439061 
 4043000   0.45011801   -3.2414901   -3.2414901   -2.5663146  0.004523809   -3.2414901   0.67517548   439061 
 4044000   0.45003681   -3.2410606   -3.2410606   -2.5660069  0.005092649   -3.2410606   0.67505367   439061 
 4045000   0.45014603   -3.2415214   -3.2415214   -2.5663039  0.006671763   -3.2415214    0.6752175   439061 
 4046000   0.44905663   -3.2402503   -3.2402503   -2.5666669  0.005066684   -3.2402503   0.67358341   439061 
 4047000   0.44964401    -3.241732    -3.241732   -2.5672675 0.0063412565    -3.241732   0.67446448   439061 
 4048000    0.4501136   -3.2416584   -3.2416584   -2.5664896 0.0075879853   -3.2416584   0.67516886   439061 
 4049000   0.45046384    -3.242122    -3.242122   -2.5664278 0.0074419956    -3.242122   0.67569421   439061 
 4050000   0.45098449   -3.2427206   -3.2427206   -2.5662454 0.0081568738   -3.2427206   0.67647519   439061 
 4051000   0.45010134   -3.2412987   -3.2412987   -2.5661483  0.012315166   -3.2412987   0.67515047   439061 
 4052000   0.45120573   -3.2428312   -3.2428312   -2.5660241 0.0073017302   -3.2428312   0.67680706   439061 
 4053000   0.45062429   -3.2424981   -3.2424981   -2.5665632 0.0064836478   -3.2424981   0.67593489   439061 
 4054000    0.4509921   -3.2434101   -3.2434101   -2.5669235 0.0065696222   -3.2434101   0.67648661   439061 
 4055000   0.45060586   -3.2431172   -3.2431172   -2.5672099 0.0044800907   -3.2431172   0.67590726   439061 
 4056000   0.44955942   -3.2407243   -3.2407243   -2.5663867  0.010600674   -3.2407243   0.67433759   439061 
 4057000   0.45064069   -3.2425358   -3.2425358   -2.5665763 0.0079937425   -3.2425358   0.67595949   439061 
 4058000   0.44970303   -3.2412418   -3.2412418   -2.5666888  0.007244467   -3.2412418   0.67455302   439061 
 4059000   0.45008594   -3.2420173   -3.2420173     -2.56689 0.0054025062   -3.2420173   0.67512737   439061 
 4060000   0.44989986   -3.2412182   -3.2412182   -2.5663699 0.0058863964   -3.2412182   0.67484825   439061 
 4061000   0.45065878   -3.2423362   -3.2423362   -2.5663496 0.0048325922   -3.2423362   0.67598662   439061 
 4062000   0.44993806    -3.241014    -3.241014   -2.5661084 0.0049365978    -3.241014   0.67490555   439061 
 4063000   0.45050807   -3.2413911   -3.2413911   -2.5656305 0.0064648538   -3.2413911   0.67576057   439061 
 4064000   0.45090828   -3.2421304   -3.2421304   -2.5657695  0.006912296   -3.2421304   0.67636087   439061 
 4065000   0.45116104   -3.2418667   -3.2418667   -2.5651267 0.0066610688   -3.2418667   0.67674002   439061 
 4066000   0.45097173   -3.2414646   -3.2414646   -2.5650085 0.0064463217   -3.2414646   0.67645605   439061 
 4067000   0.45063905   -3.2410733   -3.2410733   -2.5651163 0.0071022899   -3.2410733   0.67595703   439061 
 4068000   0.45045134    -3.240962    -3.240962   -2.5652865 0.0093651395    -3.240962   0.67567546   439061 
 4069000   0.45108163   -3.2421487   -3.2421487   -2.5655278 0.0045028757   -3.2421487    0.6766209   439061 
 4070000   0.45011612    -3.240809    -3.240809   -2.5656363 0.0017366869    -3.240809   0.67517264   439061 
 4071000   0.44923287   -3.2397619   -3.2397619   -2.5659142 0.0039618335   -3.2397619   0.67384777   439061 
 4072000   0.44999739   -3.2400735   -3.2400735   -2.5650789 0.0057894979   -3.2400735   0.67499455   439061 
 4073000   0.45076369   -3.2416578   -3.2416578   -2.5655138  0.007879867   -3.2416578     0.676144   439061 
 4074000   0.44997478   -3.2405241   -3.2405241   -2.5655635 0.0090538467   -3.2405241   0.67496063   439061 
 4075000   0.45120437   -3.2413875   -3.2413875   -2.5645825 0.0074420553   -3.2413875   0.67680501   439061 
 4076000   0.45138337   -3.2417115   -3.2417115    -2.564638  0.006559135   -3.2417115   0.67707352   439061 
 4077000   0.45072432   -3.2404599   -3.2404599    -2.564375  0.011459496   -3.2404599   0.67608494   439061 
 4078000   0.44997701   -3.2402087   -3.2402087   -2.5652448 0.0077614741   -3.2402087   0.67496398   439061 
 4079000   0.45025017   -3.2404593   -3.2404593   -2.5650856  0.009070395   -3.2404593   0.67537372   439061 
 4080000   0.45059885   -3.2408132   -3.2408132   -2.5649165 0.0062360253   -3.2408132   0.67589673   439061 
 4081000   0.44944017   -3.2402239   -3.2402239   -2.5660652 0.0054349768   -3.2402239   0.67415873   439061 
 4082000   0.45008992   -3.2407292   -3.2407292   -2.5655958 0.0056028422   -3.2407292   0.67513334   439061 
 4083000   0.45053465   -3.2413561   -3.2413561   -2.5655556   0.00360205   -3.2413561   0.67580043   439061 
 4084000   0.45036444   -3.2407546   -3.2407546   -2.5652095 0.0064031354   -3.2407546   0.67554512   439061 
 4085000   0.45022358   -3.2413346   -3.2413346   -2.5660007 0.0029287667   -3.2413346   0.67533384   439061 
 4086000   0.44999396   -3.2412943   -3.2412943   -2.5663049 0.0037919683   -3.2412943   0.67498941   439061 
 4087000   0.45012631   -3.2417186   -3.2417186   -2.5665307 0.0058580514   -3.2417186   0.67518792   439061 
 4088000   0.45096997   -3.2422415   -3.2422415   -2.5657881 0.0070268487   -3.2422415   0.67645342   439061 
 4089000   0.45015222   -3.2414399   -3.2414399   -2.5662131 0.0074388298   -3.2414399    0.6752268   439061 
 4090000   0.45007002   -3.2418584   -3.2418584   -2.5667549  0.011305444   -3.2418584   0.67510349   439061 
 4091000   0.45046013   -3.2426262   -3.2426262   -2.5669376 0.0055472704   -3.2426262   0.67568866   439061 
 4092000   0.44976976   -3.2423237   -3.2423237   -2.5676706 0.0096639462   -3.2423237    0.6746531   439061 
 4093000   0.44972469   -3.2424323   -3.2424323   -2.5678468  0.007346207   -3.2424323    0.6745855   439061 
 4094000    0.4498467   -3.2421923   -3.2421923   -2.5674238  0.011830103   -3.2421923   0.67476851   439061 
 4095000   0.45130128   -3.2438238   -3.2438238   -2.5668734  0.010118605   -3.2438238   0.67695038   439061 
 4096000    0.4510873   -3.2431353   -3.2431353   -2.5665059  0.011335079   -3.2431353    0.6766294   439061 
 4097000   0.45054744   -3.2419672   -3.2419672   -2.5661476 0.0098268378   -3.2419672   0.67581962   439061 
 4098000   0.44983296   -3.2410897   -3.2410897   -2.5663418  0.010683876   -3.2410897    0.6747479   439061 
 4099000   0.45016584   -3.2417117   -3.2417117   -2.5664645 0.0035253674   -3.2417117   0.67524723   439061 
 4100000    0.4492714   -3.2400655   -3.2400655     -2.56616  0.009710282   -3.2400655   0.67390556   439061 
 4101000   0.45099998   -3.2422934   -3.2422934   -2.5657949  0.001194819   -3.2422934   0.67649843   439061 
 4102000   0.44937308   -3.2407336   -3.2407336   -2.5666756 0.0027347484   -3.2407336   0.67405809   439061 
 4103000   0.44994968   -3.2401237   -3.2401237   -2.5652007 0.0065289575   -3.2401237   0.67492298   439061 
 4104000   0.45069904   -3.2414254   -3.2414254   -2.5653784 0.0012697962   -3.2414254   0.67604702   439061 
 4105000   0.45083764   -3.2413596   -3.2413596   -2.5651047 0.0044517834   -3.2413596   0.67625492   439061 
 4106000   0.44975186   -3.2395114   -3.2395114   -2.5648852  0.004079379   -3.2395114   0.67462625   439061 
 4107000   0.45063274   -3.2418589   -3.2418589   -2.5659114 0.0015705517   -3.2418589   0.67594757   439061 
 4108000   0.44984251   -3.2410086   -3.2410086   -2.5662464 0.0061676848   -3.2410086   0.67476223   439061 
 4109000   0.45025911   -3.2418997   -3.2418997   -2.5665126 0.0015929387   -3.2418997   0.67538713   439061 
 4110000    0.4496684   -3.2408585   -3.2408585   -2.5663574 0.0082767884   -3.2408585   0.67450107   439061 
 4111000    0.4502596   -3.2415788   -3.2415788    -2.566191  0.010367973   -3.2415788   0.67538786   439061 
 4112000   0.45045879   -3.2417022   -3.2417022   -2.5660156 0.0086449661   -3.2417022   0.67568664   439061 
 4113000   0.45027056   -3.2416136   -3.2416136   -2.5662093  0.007976987   -3.2416136    0.6754043   439061 
 4114000   0.45051486   -3.2419353   -3.2419353   -2.5661646  0.010415829   -3.2419353   0.67577075   439061 
 4115000   0.45028437   -3.2420431   -3.2420431   -2.5666181  0.010969322   -3.2420431   0.67542502   439061 
 4116000   0.45012867   -3.2416594   -3.2416594   -2.5664679 0.0062703655   -3.2416594   0.67519146   439061 
 4117000   0.45012238   -3.2422899   -3.2422899   -2.5671078 0.0063045272   -3.2422899   0.67518204   439061 
 4118000   0.44979778   -3.2412185   -3.2412185   -2.5665234 0.0069040365   -3.2412185   0.67469513   439061 
 4119000   0.45100808   -3.2426603   -3.2426603   -2.5661498 0.0083852283   -3.2426603   0.67651058   439061 
 4120000   0.45043835   -3.2419651   -3.2419651   -2.5663091 0.0083826094   -3.2419651   0.67565599   439061 
 4121000   0.44996457   -3.2415083   -3.2415083    -2.566563 0.0061619985   -3.2415083   0.67494532   439061 
 4122000    0.4499818    -3.240963    -3.240963   -2.5659918 0.0068346171    -3.240963   0.67497116   439061 
 4123000   0.44973666   -3.2405922   -3.2405922   -2.5659888 0.0033730489   -3.2405922   0.67460345   439061 
 4124000   0.45013004   -3.2417138   -3.2417138   -2.5665203 0.0036913389   -3.2417138   0.67519352   439061 
 4125000   0.44930931   -3.2413973   -3.2413973   -2.5674349 0.0085825842   -3.2413973   0.67396243   439061 
 4126000   0.44955029   -3.2414006   -3.2414006   -2.5670767 0.0081217534   -3.2414006    0.6743239   439061 
 4127000   0.45009724   -3.2427011   -3.2427011   -2.5675568  0.001128494   -3.2427011   0.67514432   439061 
 4128000   0.45001036   -3.2413535   -3.2413535   -2.5663395 0.0067261072   -3.2413535   0.67501401   439061 
 4129000    0.4506444   -3.2422602   -3.2422602   -2.5662952  0.005223769   -3.2422602   0.67596506   439061 
 4130000    0.4502529   -3.2420047   -3.2420047   -2.5666269 0.0073650744   -3.2420047   0.67537782   439061 
 4131000   0.45015677   -3.2422049   -3.2422049   -2.5669712  0.007983688   -3.2422049   0.67523362   439061 
 4132000   0.44921367   -3.2417707   -3.2417707   -2.5679517  0.005308682   -3.2417707   0.67381896   439061 
 4133000    0.4508185   -3.2439855   -3.2439855   -2.5677593 0.0023802029   -3.2439855   0.67622622   439061 
 4134000   0.44986478   -3.2422495   -3.2422495   -2.5674538 0.0065619616   -3.2422495   0.67479563   439061 
 4135000   0.44988559   -3.2427179   -3.2427179    -2.567891  0.006201559   -3.2427179   0.67482685   439061 
 4136000   0.45016221     -3.24313     -3.24313   -2.5678883  0.008891379     -3.24313   0.67524178   439061 
 4137000   0.44984032   -3.2421397   -3.2421397   -2.5673808  0.011285799   -3.2421397   0.67475894   439061 
 4138000   0.45094194   -3.2431372   -3.2431372   -2.5667259  0.010239708   -3.2431372   0.67641136   439061 
 4139000   0.45064752    -3.243217    -3.243217   -2.5672472  0.009380867    -3.243217   0.67596975   439061 
 4140000   0.45111769   -3.2439172   -3.2439172   -2.5672422 0.0063982814   -3.2439172   0.67667499   439061 
 4141000   0.45134181   -3.2440614   -3.2440614   -2.5670502 0.0064042501   -3.2440614   0.67701117   439061 
 4142000   0.45029961   -3.2422236   -3.2422236   -2.5667757  0.007584356   -3.2422236   0.67544788   439061 
 4143000   0.45022752   -3.2422573   -3.2422573   -2.5669175 0.0049552229   -3.2422573   0.67533974   439061 
 4144000   0.44943485   -3.2406198   -3.2406198    -2.566469 0.0074756605   -3.2406198   0.67415074   439061 
 4145000    0.4500388   -3.2424864   -3.2424864   -2.5674297 -0.0011389336   -3.2424864   0.67505666   439061 
 4146000   0.44959804   -3.2407952   -3.2407952   -2.5663997 0.0026670692   -3.2407952   0.67439552   439061 
 4147000   0.44958321   -3.2411066   -3.2411066   -2.5667333  0.001118078   -3.2411066   0.67437329   439061 
 4148000   0.44931708   -3.2409007   -3.2409007   -2.5669266 0.0033363046   -3.2409007   0.67397408   439061 
 4149000   0.44944368   -3.2404178   -3.2404178   -2.5662538   0.00492452   -3.2404178   0.67416399   439061 
 4150000   0.44970504   -3.2408402   -3.2408402   -2.5662842 0.0068963394   -3.2408402   0.67455602   439061 
 4151000   0.45014872   -3.2415977   -3.2415977   -2.5663761 0.0082114428   -3.2415977   0.67522154   439061 
 4152000   0.44938445   -3.2409558   -3.2409558   -2.5668806  0.010937697   -3.2409558   0.67407514   439061 
 4153000    0.4502032   -3.2421015   -3.2421015   -2.5667982 0.0080365432   -3.2421015   0.67530326   439061 
 4154000    0.4506829   -3.2432879   -3.2432879   -2.5672651 0.0096228399   -3.2432879    0.6760228   439061 
 4155000   0.45116666   -3.2442432   -3.2442432   -2.5674948  0.008796803   -3.2442432   0.67674844   439061 
 4156000   0.44998961   -3.2424361   -3.2424361   -2.5674532  0.011039586   -3.2424361   0.67498287   439061 
 4157000   0.45025511   -3.2427636   -3.2427636   -2.5673825 0.0095731363   -3.2427636   0.67538113   439061 
 4158000   0.45098637   -3.2443489   -3.2443489   -2.5678709 0.0087406262   -3.2443489   0.67647801   439061 
 4159000   0.45011137   -3.2430462   -3.2430462   -2.5678807  0.011539968   -3.2430462   0.67516551   439061 
 4160000   0.44917789   -3.2418673   -3.2418673    -2.568102 0.0074435046   -3.2418673   0.67376529   439061 
 4161000   0.44947388   -3.2421873   -3.2421873    -2.567978 0.0074638177   -3.2421873   0.67420928   439061 
 4162000   0.44924667   -3.2419997   -3.2419997   -2.5681312  0.005742059   -3.2419997   0.67386847   439061 
 4163000   0.44965035   -3.2423584   -3.2423584   -2.5678844 0.0058871497   -3.2423584   0.67447399   439061 
 4164000   0.45073365   -3.2437595   -3.2437595   -2.5676606 0.0059439131   -3.2437595   0.67609894   439061 
 4165000   0.44954175   -3.2418305   -3.2418305   -2.5675194 0.0063118661   -3.2418305   0.67431108   439061 
 4166000   0.44958222   -3.2421925   -3.2421925   -2.5678207 0.0018599718   -3.2421925    0.6743718   439061 
 4167000   0.44905427   -3.2412675   -3.2412675   -2.5676877 0.0097340724   -3.2412675   0.67357988   439061 
 4168000   0.45042772   -3.2423675   -3.2423675   -2.5667275 0.0084574717   -3.2423675   0.67564004   439061 
 4169000   0.45010988   -3.2421996   -3.2421996   -2.5670364 0.0074010626   -3.2421996   0.67516329   439061 
 4170000   0.45023968    -3.242371    -3.242371    -2.567013 0.0096541817    -3.242371   0.67535799   439061 
 4171000   0.45071026   -3.2424067   -3.2424067   -2.5663428 0.0057270308   -3.2424067   0.67606385   439061 
 4172000   0.44982264   -3.2419858   -3.2419858   -2.5672534 0.0063587853   -3.2419858   0.67473242   439061 
 4173000    0.4500729   -3.2416023   -3.2416023   -2.5664945  0.007118023   -3.2416023   0.67510781   439061 
 4174000   0.44970589   -3.2407108   -3.2407108   -2.5661535 0.0071756465   -3.2407108    0.6745573   439061 
 4175000   0.45104096   -3.2425314   -3.2425314   -2.5659715 0.0038532036   -3.2425314    0.6765599   439061 
 4176000   0.45028652   -3.2414884   -3.2414884   -2.5660601 0.0068494266   -3.2414884   0.67542825   439061 
 4177000   0.45057127   -3.2416764   -3.2416764   -2.5658211 0.0064144607   -3.2416764   0.67585536   439061 
 4178000   0.45034185   -3.2408778   -3.2408778   -2.5653666 0.0071420045   -3.2408778   0.67551123   439061 
 4179000   0.45033368   -3.2410257   -3.2410257   -2.5655267 0.0076523065   -3.2410257   0.67549898   439061 
 4180000   0.45046863   -3.2410765   -3.2410765   -2.5653751 0.0073216746   -3.2410765    0.6757014   439061 
 4181000   0.45056859   -3.2411885   -3.2411885   -2.5653372 0.0051877573   -3.2411885   0.67585135   439061 
 4182000   0.45028131   -3.2415761   -3.2415761   -2.5661556 0.0039268474   -3.2415761   0.67542042   439061 
 4183000   0.44993117   -3.2417392   -3.2417392    -2.566844 0.0060290651   -3.2417392   0.67489521   439061 
 4184000    0.4495081   -3.2409821   -3.2409821   -2.5667215  0.005796406   -3.2409821   0.67426061   439061 
 4185000   0.45030256   -3.2414978   -3.2414978   -2.5660455 0.0044874935   -3.2414978   0.67545231   439061 
 4186000    0.4498629   -3.2410337   -3.2410337   -2.5662409 0.0099200454   -3.2410337   0.67479281   439061 
 4187000   0.44987036   -3.2419089   -3.2419089   -2.5671049  0.009117739   -3.2419089     0.674804   439061 
 4188000   0.44951543   -3.2412891   -3.2412891   -2.5670175 0.0088142389   -3.2412891   0.67427162   439061 
 4189000   0.44985281   -3.2413962   -3.2413962   -2.5666185 0.0088595864   -3.2413962   0.67477768   439061 
 4190000    0.4508399   -3.2428548   -3.2428548   -2.5665965 0.0064656622   -3.2428548   0.67625831   439061 
 4191000   0.44996754   -3.2415696   -3.2415696   -2.5666199 0.0086319611   -3.2415696   0.67494977   439061 
 4192000   0.45007141   -3.2418476   -3.2418476    -2.566742 0.0093682165   -3.2418476   0.67510557   439061 
 4193000   0.44965158   -3.2418411   -3.2418411   -2.5673653 0.0075322184   -3.2418411   0.67447584   439061 
 4194000    0.4506533   -3.2428182   -3.2428182   -2.5668398 0.0048967955   -3.2428182   0.67597841   439061 
 4195000   0.45003528     -3.24289     -3.24289   -2.5678386 0.0054326236     -3.24289   0.67505138   439061 
 4196000   0.45102875   -3.2428343   -3.2428343   -2.5662927 0.0053434693   -3.2428343   0.67654159   439061 
 4197000   0.45068334     -3.24214     -3.24214   -2.5661165  0.007024219     -3.24214   0.67602347   439061 
 4198000   0.45054691   -3.2420224   -3.2420224   -2.5662035 0.0067724234   -3.2420224   0.67581883   439061 
 4199000   0.45051003    -3.241894    -3.241894   -2.5661305 0.0067233266    -3.241894   0.67576351   439061 
 4200000   0.45074712    -3.241868    -3.241868   -2.5657489 0.0063394923    -3.241868   0.67611913   439061 
 4201000   0.45107876   -3.2414932   -3.2414932   -2.5648766 0.0083644856   -3.2414932    0.6766166   439061 
 4202000   0.45120521    -3.241396    -3.241396   -2.5645897 0.0076330877    -3.241396   0.67680627   439061 
 4203000   0.45093712   -3.2420783   -3.2420783   -2.5656742  0.004978433   -3.2420783   0.67640414   439061 
 4204000   0.45010278    -3.240391    -3.240391   -2.5652384 0.0028304764    -3.240391   0.67515263   439061 
 4205000   0.45004794   -3.2405763   -3.2405763    -2.565506 0.0022796881   -3.2405763   0.67507037   439061 
 4206000   0.44968476    -3.239598    -3.239598   -2.5650724  0.004793378    -3.239598    0.6745256   439061 
 4207000   0.45043693   -3.2400659   -3.2400659   -2.5644121 0.0039506248   -3.2400659   0.67565386   439061 
 4208000   0.45016291   -3.2393184   -3.2393184   -2.5640756 0.0053847964   -3.2393184   0.67524283   439061 
 4209000   0.45096223   -3.2405234   -3.2405234   -2.5640816 0.0058607542   -3.2405234   0.67644181   439061 
 4210000   0.44964292   -3.2396034   -3.2396034   -2.5651405 0.0034064316   -3.2396034   0.67446284   439061 
 4211000   0.45086359   -3.2416432   -3.2416432   -2.5653493 0.0044709795   -3.2416432   0.67629384   439061 
 4212000   0.45087271   -3.2411508   -3.2411508   -2.5648432  0.004685623   -3.2411508   0.67630752   439061 
 4213000   0.45031197   -3.2400874   -3.2400874    -2.564621  0.008051009   -3.2400874   0.67546642   439061 
 4214000   0.45140764   -3.2415161   -3.2415161   -2.5644062  0.010658486   -3.2415161   0.67710992   439061 
 4215000   0.45244976   -3.2422651   -3.2422651    -2.563592 0.0089250714   -3.2422651   0.67867309   439061 
 4216000   0.45141223   -3.2413388   -3.2413388    -2.564222  0.011453027   -3.2413388    0.6771168   439061 
 4217000   0.45029678   -3.2402795   -3.2402795   -2.5648358 0.0093112302   -3.2402795   0.67544363   439061 
 4218000   0.45010861   -3.2406281   -3.2406281   -2.5654667  0.006067675   -3.2406281   0.67516137   439061 
 4219000   0.45047428   -3.2417135   -3.2417135   -2.5660037 0.0050708595   -3.2417135   0.67570988   439061 
 4220000   0.45053122   -3.2412787   -3.2412787   -2.5654834 0.0059251028   -3.2412787    0.6757953   439061 
 4221000   0.44988986   -3.2397443   -3.2397443    -2.564911 0.0086096174   -3.2397443   0.67483325   439061 
 4222000   0.45004986   -3.2405682   -3.2405682    -2.565495  0.002613092   -3.2405682   0.67507326   439061 
 4223000   0.44991127   -3.2402547   -3.2402547   -2.5653893 0.0038678554   -3.2402547   0.67486537   439061 
 4224000    0.4499271   -3.2402341   -3.2402341    -2.565345  0.007213935   -3.2402341   0.67488912   439061 
 4225000   0.45108535   -3.2412959   -3.2412959   -2.5646694 0.0013279339   -3.2412959   0.67662648   439061 
 4226000   0.45115529   -3.2408091   -3.2408091   -2.5640777  0.009104364   -3.2408091    0.6767314   439061 
 4227000   0.45168131   -3.2425858   -3.2425858   -2.5650654   0.00480522   -3.2425858   0.67752041   439061 
 4228000   0.45090804   -3.2412673   -3.2412673   -2.5649067 0.0095121754   -3.2412673   0.67636052   439061 
 4229000   0.45114173   -3.2418976   -3.2418976   -2.5651865 0.0063184866   -3.2418976   0.67671106   439061 
 4230000   0.45028241   -3.2406609   -3.2406609   -2.5652388 0.0067468766   -3.2406609   0.67542207   439061 
 4231000   0.45057599   -3.2410623   -3.2410623   -2.5651999 0.0088423208   -3.2410623   0.67586245   439061 
 4232000   0.45029792   -3.2407938   -3.2407938   -2.5653485 0.0061664321   -3.2407938   0.67544533   439061 
 4233000   0.45031906     -3.24142     -3.24142    -2.565943 0.0053617132     -3.24142   0.67547706   439061 
 4234000   0.44950988   -3.2402684   -3.2402684   -2.5660051  0.007914711   -3.2402684   0.67426328   439061 
 4235000   0.44926133   -3.2398747   -3.2398747   -2.5659842 0.0062563253   -3.2398747   0.67389045   439061 
 4236000   0.45014628   -3.2415026   -3.2415026   -2.5662847 0.0023566702   -3.2415026   0.67521788   439061 
 4237000   0.45012717   -3.2408194   -3.2408194   -2.5656302 0.0045111719   -3.2408194   0.67518921   439061 
 4238000   0.45088001   -3.2417104   -3.2417104    -2.565392 0.0046843074   -3.2417104   0.67631847   439061 
 4239000   0.45025207   -3.2408359   -3.2408359   -2.5654593 0.0085485923   -3.2408359   0.67537657   439061 
 4240000   0.45146503   -3.2423444   -3.2423444   -2.5651484 0.0068304862   -3.2423444     0.677196   439061 
 4241000   0.45046029   -3.2410041   -3.2410041   -2.5653152   0.01099584   -3.2410041    0.6756889   439061 
 4242000   0.45095209   -3.2418135   -3.2418135   -2.5653869 0.0053920437   -3.2418135    0.6764266   439061 
 4243000   0.45000125   -3.2404346   -3.2404346   -2.5654343 0.0087077971   -3.2404346   0.67500033   439061 
 4244000   0.45038428   -3.2410232   -3.2410232   -2.5654484  0.010718406   -3.2410232   0.67557487   439061 
 4245000      0.45056   -3.2411571   -3.2411571   -2.5653186 0.0062200424   -3.2411571   0.67583847   439061 
 4246000   0.44988074   -3.2399566   -3.2399566    -2.565137 0.0081890318   -3.2399566   0.67481957   439061 
 4247000   0.45066849   -3.2407548   -3.2407548   -2.5647536 0.0076156933   -3.2407548    0.6760012   439061 
 4248000   0.44999639   -3.2401446   -3.2401446   -2.5651516 0.0023122313   -3.2401446   0.67499304   439061 
 4249000   0.45041215   -3.2407784   -3.2407784   -2.5651617 0.0046967469   -3.2407784   0.67561668   439061 
 4250000   0.45041452   -3.2402838   -3.2402838   -2.5646635 0.0078644367   -3.2402838   0.67562023   439061 
 4251000   0.44985157   -3.2392125   -3.2392125   -2.5644367 0.0039633304   -3.2392125   0.67477583   439061 
 4252000   0.45015944   -3.2395862   -3.2395862   -2.5643486 0.0062737701   -3.2395862   0.67523762   439061 
 4253000   0.45060487   -3.2409356   -3.2409356   -2.5650298  0.007763119   -3.2409356   0.67590577   439061 
 4254000    0.4501045   -3.2406803   -3.2406803   -2.5655251 0.0037847486   -3.2406803   0.67515522   439061 
 4255000   0.45035437   -3.2407979   -3.2407979   -2.5652679 0.0058573651   -3.2407979   0.67553001   439061 
 4256000    0.4507675   -3.2411279   -3.2411279   -2.5649782 0.0056820481   -3.2411279    0.6761497   439061 
 4257000   0.44989782   -3.2404896   -3.2404896   -2.5656444 0.0081273321   -3.2404896   0.67484519   439061 
 4258000   0.44954415   -3.2408551   -3.2408551   -2.5665404  0.006194342   -3.2408551   0.67431468   439061 
 4259000   0.45031452   -3.2420932   -3.2420932   -2.5666229 0.0052544053   -3.2420932   0.67547025   439061 
 4260000   0.44977704   -3.2412766   -3.2412766   -2.5666126 0.0096625983   -3.2412766   0.67466402   439061 
 4261000   0.45050369    -3.241657    -3.241657    -2.565903 0.0089188641    -3.241657     0.675754   439061 
 4262000   0.45008197   -3.2406097   -3.2406097   -2.5654883  0.013504873   -3.2406097   0.67512141   439061 
 4263000   0.45112782   -3.2425238   -3.2425238   -2.5658336  0.010261121   -3.2425238   0.67669019   439061 
 4264000   0.45085878   -3.2420444   -3.2420444   -2.5657578 0.0077882943   -3.2420444   0.67628663   439061 
 4265000   0.45089061   -3.2418351   -3.2418351   -2.5655007 0.0075799718   -3.2418351   0.67633438   439061 
 4266000   0.45034227   -3.2403761   -3.2403761   -2.5648642 0.0094424546   -3.2403761   0.67551187   439061 
 4267000   0.45035463   -3.2406067   -3.2406067   -2.5650763 0.0091017914   -3.2406067    0.6755304   439061 
 4268000   0.45117457   -3.2407707   -3.2407707   -2.5640104 0.0069001531   -3.2407707   0.67676031   439061 
 4269000   0.45068461   -3.2409848   -3.2409848   -2.5649594 0.0038077312   -3.2409848   0.67602538   439061 
 4270000   0.44946286   -3.2397527   -3.2397527     -2.56556 0.0052796941   -3.2397527   0.67419275   439061 
 4271000   0.45005468   -3.2407446   -3.2407446   -2.5656641 0.00089608555   -3.2407446   0.67508048   439061 
 4272000   0.45010555   -3.2403558   -3.2403558    -2.565199 0.0053031986   -3.2403558   0.67515678   439061 
 4273000   0.45018794    -3.240438    -3.240438   -2.5651576 0.0017394198    -3.240438   0.67528038   439061 
 4274000   0.45041776   -3.2406356   -3.2406356   -2.5650105 0.0046903322   -3.2406356   0.67562511   439061 
 4275000   0.45003475   -3.2404765   -3.2404765   -2.5654259 0.0060015029   -3.2404765   0.67505059   439061 
 4276000   0.45023287   -3.2409254   -3.2409254   -2.5655777 0.0072567259   -3.2409254   0.67534776   439061 
 4277000   0.45019339    -3.240454    -3.240454   -2.5651654  0.012090933    -3.240454   0.67528855   439061 
 4278000   0.45039753   -3.2412935   -3.2412935   -2.5656987 0.0083806261   -3.2412935   0.67559475   439061 
 4279000   0.45059689    -3.241094    -3.241094   -2.5652002  0.009595254    -3.241094    0.6758938   439061 
 4280000   0.45081273   -3.2417332   -3.2417332   -2.5655156  0.010090223   -3.2417332   0.67621756   439061 
 4281000   0.45093438   -3.2420407   -3.2420407   -2.5656406 0.0093148739   -3.2420407   0.67640004   439061 
 4282000   0.45069318   -3.2415076   -3.2415076   -2.5654694 0.0086612119   -3.2415076   0.67603823   439061 
 4283000   0.45027876   -3.2408383   -3.2408383   -2.5654217  0.012704295   -3.2408383    0.6754166   439061 
 4284000   0.45059067   -3.2407538   -3.2407538   -2.5648693  0.011845356   -3.2407538   0.67588446   439061 
 4285000   0.45058807   -3.2406928   -3.2406928   -2.5648123 0.0059763487   -3.2406928   0.67588057   439061 
 4286000   0.44996607   -3.2406641   -3.2406641   -2.5657165 0.0058551489   -3.2406641   0.67494756   439061 
 4287000   0.44959043   -3.2400302   -3.2400302   -2.5656461 0.0022504383   -3.2400302    0.6743841   439061 
 4288000   0.45056929   -3.2409746   -3.2409746   -2.5651223 0.0037705434   -3.2409746   0.67585239   439061 
 4289000   0.44982269   -3.2392012   -3.2392012   -2.5644687 0.0046204702   -3.2392012    0.6747325   439061 
 4290000   0.44976703   -3.2395178   -3.2395178   -2.5648688 0.0059587437   -3.2395178   0.67464901   439061 
 4291000    0.4506871   -3.2416498   -3.2416498   -2.5656207 -0.00018219032   -3.2416498    0.6760291   439061 
 4292000   0.45003584   -3.2400973   -3.2400973   -2.5650451 0.0049043962   -3.2400973   0.67505222   439061 
 4293000   0.45071786   -3.2412945   -3.2412945   -2.5652193 0.0040882995   -3.2412945   0.67607525   439061 
 4294000   0.45074321   -3.2410997   -3.2410997   -2.5649864 0.0064706775   -3.2410997   0.67611327   439061 
 4295000   0.45050042   -3.2404632   -3.2404632   -2.5647141  0.009716168   -3.2404632   0.67574909   439061 
 4296000   0.45048986   -3.2414881   -3.2414881   -2.5657548 0.0089419672   -3.2414881   0.67573325   439061 
 4297000   0.45101322   -3.2415314   -3.2415314   -2.5650131  0.013935902   -3.2415314   0.67651829   439061 
 4298000   0.45057774   -3.2411364   -3.2411364   -2.5652714 0.0099770332   -3.2411364   0.67586507   439061 
 4299000   0.45075816   -3.2415312   -3.2415312   -2.5653955  0.010098984   -3.2415312   0.67613571   439061 
 4300000   0.45047584   -3.2410336   -3.2410336   -2.5653213 0.0090302502   -3.2410336   0.67571222   439061 
 4301000   0.45053078   -3.2411252   -3.2411252   -2.5653306 0.0055087562   -3.2411252   0.67579463   439061 
 4302000   0.45029641    -3.241054    -3.241054   -2.5656109 0.0034030785    -3.241054   0.67544308   439061 
 4303000   0.44981451   -3.2401903   -3.2401903   -2.5654701  0.001069962   -3.2401903   0.67472022   439061 
 4304000   0.44998607   -3.2402651   -3.2402651   -2.5652875 0.0031139549   -3.2402651   0.67497757   439061 
 4305000   0.44939622   -3.2388874   -3.2388874   -2.5647945  0.004976425   -3.2388874    0.6740928   439061 
 4306000   0.44991373   -3.2394371   -3.2394371    -2.564568 0.0052591436   -3.2394371   0.67486906   439061 
 4307000   0.45025921   -3.2400892   -3.2400892    -2.564702 0.0082658618   -3.2400892   0.67538728   439061 
 4308000   0.45060186   -3.2407784   -3.2407784   -2.5648771 0.0019291474   -3.2407784   0.67590125   439061 
 4309000   0.44970711   -3.2398442   -3.2398442    -2.565285 0.0099842791   -3.2398442   0.67455913   439061 
 4310000   0.45069852   -3.2408531   -3.2408531   -2.5648069 0.0060760671   -3.2408531   0.67604624   439061 
 4311000   0.45118093   -3.2416548   -3.2416548   -2.5648849 0.0074765879   -3.2416548   0.67676986   439061 
 4312000   0.45081729    -3.240984    -3.240984   -2.5647596 0.0066975826    -3.240984    0.6762244   439061 
 4313000   0.45065915    -3.240174    -3.240174   -2.5641868  0.010986586    -3.240174   0.67598719   439061 
 4314000   0.45051694    -3.240328    -3.240328   -2.5645541 0.0099686998    -3.240328   0.67577387   439061 
 4315000   0.45104834   -3.2404453   -3.2404453   -2.5638743 0.0097923201   -3.2404453   0.67657097   439061 
 4316000   0.44976913   -3.2400238   -3.2400238   -2.5653717 0.0056842071   -3.2400238   0.67465215   439061 
 4317000   0.44951268   -3.2397964   -3.2397964   -2.5655289 0.0069151687   -3.2397964   0.67426749   439061 
 4318000   0.45022308   -3.2405353   -3.2405353   -2.5652023 0.0056897814   -3.2405353   0.67533308   439061 
 4319000   0.45061071   -3.2411466   -3.2411466   -2.5652321 0.0071868494   -3.2411466   0.67591453   439061 
 4320000   0.45075764   -3.2413238   -3.2413238   -2.5651889  0.003912133   -3.2413238   0.67613492   439061 
 4321000    0.4497152   -3.2405666   -3.2405666   -2.5659953 0.0058281927   -3.2405666   0.67457126   439061 
 4322000   0.45024699   -3.2404014   -3.2404014   -2.5650324 0.0068673416   -3.2404014   0.67536894   439061 
 4323000   0.45064557   -3.2412138   -3.2412138    -2.565247 0.0069083418   -3.2412138   0.67596681   439061 
 4324000   0.45167193   -3.2417409   -3.2417409   -2.5642345 0.0090371977   -3.2417409   0.67750635   439061 
 4325000   0.45159921   -3.2417389   -3.2417389   -2.5643416 0.0097913398   -3.2417389   0.67739728   439061 
 4326000   0.45032984   -3.2401044   -3.2401044   -2.5646112  0.010351151   -3.2401044   0.67549323   439061 
 4327000   0.45046253   -3.2407532   -3.2407532    -2.565061  0.010622734   -3.2407532   0.67569225   439061 
 4328000   0.45026196   -3.2403052   -3.2403052   -2.5649138 0.0087692885   -3.2403052    0.6753914   439061 
 4329000   0.45054178    -3.240783    -3.240783   -2.5649719   0.00314834    -3.240783   0.67581113   439061 
 4330000   0.44979378   -3.2398811   -3.2398811   -2.5651919 0.0054562143   -3.2398811   0.67468913   439061 
 4331000   0.44976702   -3.2393853   -3.2393853   -2.5647363 0.0062918863   -3.2393853   0.67464899   439061 
 4332000   0.44989449   -3.2397251   -3.2397251   -2.5648849  0.004359954   -3.2397251    0.6748402   439061 
 4333000   0.44983712   -3.2403968   -3.2403968   -2.5656427 0.0015015479   -3.2403968   0.67475414   439061 
 4334000    0.4503326   -3.2406107   -3.2406107   -2.5651133 0.0024193765   -3.2406107   0.67549736   439061 
 4335000   0.44941825   -3.2394817   -3.2394817   -2.5653558 0.0080844793   -3.2394817   0.67412583   439061 
 4336000   0.44974283   -3.2397442   -3.2397442   -2.5651315 0.0066760416   -3.2397442   0.67461271   439061 
 4337000   0.45025554    -3.239801    -3.239801   -2.5644192 0.0075967328    -3.239801   0.67538177   439061 
 4338000    0.4505375   -3.2399118   -3.2399118   -2.5641071  0.010505273   -3.2399118   0.67580471   439061 
 4339000   0.45142097   -3.2419324   -3.2419324   -2.5648025 0.0059043225   -3.2419324   0.67712992   439061 
 4340000   0.45183008   -3.2410901   -3.2410901   -2.5633466 0.0091382542   -3.2410901   0.67774357   439061 
 4341000   0.45052568   -3.2398739   -3.2398739   -2.5640869  0.011242503   -3.2398739   0.67578698   439061 
 4342000    0.4513948   -3.2413995   -3.2413995   -2.5643088 0.0056501821   -3.2413995   0.67709066   439061 
 4343000   0.45104438   -3.2408044   -3.2408044   -2.5642393 0.0086906974   -3.2408044   0.67656503   439061 
 4344000   0.45099322   -3.2409385   -3.2409385   -2.5644502 0.0045759502   -3.2409385   0.67648829   439061 
 4345000    0.4505935   -3.2406874   -3.2406874   -2.5647987  0.004435401   -3.2406874   0.67588872   439061 
 4346000   0.45072679   -3.2404389   -3.2404389   -2.5643502 0.0028923133   -3.2404389   0.67608865   439061 
 4347000   0.45029501   -3.2399636   -3.2399636   -2.5645226 0.0066220386   -3.2399636   0.67544098   439061 
 4348000     0.450442   -3.2397879   -3.2397879   -2.5641264 0.0030070813   -3.2397879   0.67566146   439061 
 4349000    0.4505388   -3.2397564   -3.2397564   -2.5639498 0.0077750722   -3.2397564   0.67580665   439061 
 4350000   0.45015974   -3.2397972   -3.2397972   -2.5645591 0.0058584861   -3.2397972   0.67523808   439061 
 4351000   0.44995641   -3.2392517   -3.2392517   -2.5643186 0.0058949094   -3.2392517   0.67493308   439061 
 4352000     0.450273    -3.240645    -3.240645    -2.565237 0.0036388888    -3.240645   0.67540796   439061 
 4353000   0.44968558   -3.2404441   -3.2404441   -2.5659173 0.0052245283   -3.2404441   0.67452684   439061 
 4354000   0.44987965   -3.2397341   -3.2397341   -2.5649162  0.007955569   -3.2397341   0.67481794   439061 
 4355000   0.45029033   -3.2401229   -3.2401229    -2.564689  0.011288397   -3.2401229   0.67543396   439061 
 4356000   0.45062259   -3.2409072   -3.2409072   -2.5649748 0.0091151546   -3.2409072   0.67593234   439061 
 4357000   0.45047756   -3.2416647   -3.2416647   -2.5659499 0.0068688093   -3.2416647    0.6757148   439061 
 4358000   0.45082971   -3.2424732   -3.2424732   -2.5662302 0.0077716283   -3.2424732   0.67624302   439061 
 4359000   0.45040709   -3.2423337   -3.2423337   -2.5667246 0.0082534829   -3.2423337    0.6756091   439061 
 4360000    0.4503197    -3.242345    -3.242345    -2.566867 0.0057395221    -3.242345   0.67547801   439061 
 4361000   0.45026538   -3.2427912   -3.2427912   -2.5673947 0.0038523929   -3.2427912   0.67539653   439061 
 4362000   0.45026651   -3.2427321   -3.2427321   -2.5673339 0.0076647923   -3.2427321   0.67539822   439061 
 4363000   0.45005733   -3.2426312   -3.2426312   -2.5675467 0.0078057171   -3.2426312   0.67508445   439061 
 4364000   0.44972571   -3.2418726   -3.2418726   -2.5672856 0.0099496305   -3.2418726   0.67458703   439061 
 4365000   0.45049578   -3.2418028   -3.2418028   -2.5660606   0.01056921   -3.2418028   0.67574213   439061 
 4366000   0.45130993   -3.2429077   -3.2429077   -2.5659444 0.0058901116   -3.2429077   0.67696336   439061 
 4367000   0.45112157   -3.2417197   -3.2417197   -2.5650389 0.0059542161   -3.2417197   0.67668082   439061 
 4368000   0.45122349   -3.2415599   -3.2415599   -2.5647262 0.0059888406   -3.2415599   0.67683369   439061 
 4369000   0.45104132   -3.2410157   -3.2410157   -2.5644553 0.0086996295   -3.2410157   0.67656044   439061 
 4370000   0.45089085   -3.2402695   -3.2402695   -2.5639347 0.0083678129   -3.2402695   0.67633474   439061 
 4371000   0.45094002   -3.2399413   -3.2399413   -2.5635328  0.004560927   -3.2399413   0.67640848   439061 
 4372000   0.45018472   -3.2393851   -3.2393851   -2.5641096 0.0044395534   -3.2393851   0.67527554   439061 
 4373000   0.44987062   -3.2391396   -3.2391396   -2.5643352 -0.0019363419   -3.2391396   0.67480439   439061 
 4374000   0.44898671   -3.2378454   -3.2378454   -2.5643669 0.00057321248   -3.2378454   0.67347853   439061 
 4375000    0.4497097   -3.2389856   -3.2389856   -2.5644226 -0.00042199444   -3.2389856   0.67456302   439061 
 4376000   0.44971166   -3.2390216   -3.2390216   -2.5644556 0.0042844639   -3.2390216   0.67456596   439061 
 4377000   0.45059726   -3.2402864   -3.2402864   -2.5643921 0.0069668846   -3.2402864   0.67589434   439061 
 4378000   0.45075926   -3.2400711   -3.2400711   -2.5639337 0.0079591466   -3.2400711   0.67613735   439061 
 4379000   0.45076214   -3.2399921   -3.2399921   -2.5638505  0.012468028   -3.2399921   0.67614167   439061 
 4380000   0.45138968   -3.2415628   -3.2415628   -2.5644799  0.011389527   -3.2415628   0.67708298   439061 
 4381000   0.45108858   -3.2413968   -3.2413968   -2.5647655  0.012668307   -3.2413968   0.67663133   439061 
 4382000   0.45169757   -3.2432486   -3.2432486   -2.5657038 0.0061024557   -3.2432486   0.67754481   439061 
 4383000   0.45091455   -3.2418137   -3.2418137   -2.5654434  0.010267228   -3.2418137   0.67637029   439061 
 4384000   0.44972013   -3.2400267   -3.2400267    -2.565448  0.010392507   -3.2400267   0.67457865   439061 
 4385000   0.45023541    -3.240607    -3.240607   -2.5652554   0.00814211    -3.240607   0.67535158   439061 
 4386000   0.45086771   -3.2417832   -3.2417832   -2.5654831 0.0068403934   -3.2417832   0.67630002   439061 
 4387000   0.45112172   -3.2417975   -3.2417975   -2.5651165   0.00517733   -3.2417975   0.67668105   439061 
 4388000   0.44996049    -3.239866    -3.239866   -2.5649268 0.0067104866    -3.239866    0.6749392   439061 
 4389000   0.45033475   -3.2402501   -3.2402501   -2.5647496 0.0050725151   -3.2402501   0.67550059   439061 
 4390000   0.45035329   -3.2410267   -3.2410267   -2.5654983 0.0028436452   -3.2410267    0.6755284   439061 
 4391000   0.45034838    -3.239999    -3.239999    -2.564478 0.0039351964    -3.239999   0.67552103   439061 
 4392000   0.45067725   -3.2404833   -3.2404833   -2.5644689 0.0058511144   -3.2404833   0.67601433   439061 
 4393000   0.45117623   -3.2407587   -3.2407587   -2.5639959 0.0056482313   -3.2407587   0.67676281   439061 
 4394000   0.45115071    -3.241055    -3.241055   -2.5643305 0.0094183544    -3.241055   0.67672452   439061 
 4395000    0.4511027   -3.2399704   -3.2399704   -2.5633179  0.010420073   -3.2399704   0.67665251   439061 
 4396000    0.4513145    -3.240294    -3.240294   -2.5633238 0.0071864902    -3.240294    0.6769702   439061 
 4397000   0.45124013   -3.2400691   -3.2400691   -2.5632105 0.0060152516   -3.2400691   0.67685866   439061 
 4398000   0.45002163   -3.2392924   -3.2392924   -2.5642615 0.0072491671   -3.2392924   0.67503091   439061 
 4399000   0.44991841   -3.2387702   -3.2387702   -2.5638941 0.0050648094   -3.2387702   0.67487608   439061 
 4400000   0.45063252   -3.2400213   -3.2400213    -2.564074 0.0036924004   -3.2400213   0.67594724   439061 
 4401000   0.45044955   -3.2394228   -3.2394228     -2.56375 0.0038969161   -3.2394228   0.67567278   439061 
 4402000   0.45037209   -3.2386641   -3.2386641   -2.5631075 0.0054224883   -3.2386641   0.67555659   439061 
 4403000   0.45157592   -3.2397961   -3.2397961   -2.5624338 0.0041395282   -3.2397961   0.67736234   439061 
 4404000   0.45053835   -3.2382624   -3.2382624   -2.5624564 0.0065667654   -3.2382624   0.67580599   439061 
 4405000   0.44989396    -3.238798    -3.238798   -2.5639586 0.0024626966    -3.238798    0.6748394   439061 
 4406000   0.45013167   -3.2390927   -3.2390927   -2.5638968 0.0046819666   -3.2390927   0.67519597   439061 
 4407000    0.4504304   -3.2401283   -3.2401283   -2.5644842 -0.00076076458   -3.2401283   0.67564406   439061 
 4408000   0.44996086   -3.2391582   -3.2391582   -2.5642185 0.0064879678   -3.2391582   0.67493975   439061 
 4409000   0.45043342   -3.2390527   -3.2390527   -2.5634041 0.0069554148   -3.2390527   0.67564859   439061 
 4410000   0.45180554   -3.2410585   -3.2410585   -2.5633517 0.0069357204   -3.2410585   0.67770676   439061 
 4411000   0.45063523   -3.2401531   -3.2401531   -2.5642018 0.0067143746   -3.2401531    0.6759513   439061 
 4412000    0.4507615    -3.241168    -3.241168   -2.5650272 0.0053652449    -3.241168   0.67614072   439061 
 4413000   0.45073057   -3.2416341   -3.2416341   -2.5655398  0.009335193   -3.2416341   0.67609432   439061 
 4414000   0.44999148   -3.2403492   -3.2403492   -2.5653635 0.0055626936   -3.2403492   0.67498568   439061 
 4415000   0.45045384   -3.2405049   -3.2405049   -2.5648257 0.0086070762   -3.2405049   0.67567922   439061 
 4416000   0.45048765   -3.2410327   -3.2410327   -2.5653027 0.0074368412   -3.2410327   0.67572993   439061 
 4417000   0.45098469   -3.2421174   -3.2421174   -2.5656419 0.0050738017   -3.2421174   0.67647549   439061 
 4418000   0.45038686   -3.2404521   -3.2404521   -2.5648734 0.0071327511   -3.2404521   0.67557876   439061 
 4419000   0.44969413   -3.2399347   -3.2399347    -2.565395 0.0054813582   -3.2399347   0.67453966   439061 
 4420000   0.45037533   -3.2410081   -3.2410081   -2.5654466 0.0034480705   -3.2410081   0.67556145   439061 
 4421000   0.45014378   -3.2407878   -3.2407878   -2.5655737 0.0044695829   -3.2407878   0.67521413   439061 
 4422000   0.45064479    -3.241262    -3.241262   -2.5652963 0.0048331453    -3.241262   0.67596564   439061 
 4423000   0.45135152   -3.2422675   -3.2422675   -2.5652418 0.0042892547   -3.2422675   0.67702574   439061 
 4424000   0.45015967   -3.2400763   -3.2400763   -2.5648383 0.0083741493   -3.2400763   0.67523796   439061 
 4425000   0.45120018    -3.241664    -3.241664   -2.5648653 0.0050737045    -3.241664   0.67679873   439061 
 4426000   0.45030364   -3.2407987   -3.2407987   -2.5653447 0.0094913827   -3.2407987   0.67545391   439061 
 4427000   0.45010472   -3.2407517   -3.2407517   -2.5655962 0.0084371536   -3.2407517   0.67515554   439061 
 4428000   0.45043174   -3.2407448   -3.2407448   -2.5650987 0.0097886774   -3.2407448   0.67564607   439061 
 4429000   0.45054155   -3.2411521   -3.2411521   -2.5653414 0.0066380276   -3.2411521   0.67581079   439061 
 4430000   0.45034534   -3.2401528   -3.2401528   -2.5646363 0.0090273953   -3.2401528   0.67551647   439061 
 4431000   0.45069241   -3.2412361   -3.2412361    -2.565199 0.0059137464   -3.2412361   0.67603708   439061 
 4432000    0.4506718    -3.241236    -3.241236   -2.5652299 0.0077414534    -3.241236   0.67600616   439061 
 4433000   0.45042394    -3.240731    -3.240731   -2.5650966 0.0082204084    -3.240731   0.67563437   439061 
 4434000   0.44980294   -3.2400458   -3.2400458    -2.565343 0.0094024762   -3.2400458   0.67470287   439061 
 4435000   0.45027035   -3.2405887   -3.2405887   -2.5651847 0.0020800383   -3.2405887   0.67540399   439061 
 4436000   0.45043096   -3.2405486   -3.2405486   -2.5649037 0.0049998954   -3.2405486    0.6756449   439061 
 4437000   0.45058946   -3.2402594   -3.2402594   -2.5643768 0.0040834282   -3.2402594   0.67588265   439061 
 4438000   0.45112685   -3.2409112   -3.2409112   -2.5642225 0.0043674043   -3.2409112   0.67668874   439061 
 4439000   0.45021526   -3.2399658   -3.2399658   -2.5646445 0.0063642292   -3.2399658   0.67532135   439061 
 4440000   0.45131481   -3.2407414   -3.2407414   -2.5637707 0.0057965127   -3.2407414   0.67697068   439061 
 4441000   0.45063264   -3.2393492   -3.2393492   -2.5634018 0.0047226413   -3.2393492   0.67594741   439061 
 4442000   0.45052491   -3.2389942   -3.2389942   -2.5632083 0.0089908846   -3.2389942   0.67578583   439061 
 4443000   0.45085525   -3.2392681   -3.2392681   -2.5629868 0.0087593697   -3.2392681   0.67628134   439061 
 4444000   0.45030086   -3.2389551   -3.2389551   -2.5635053 0.0059518575   -3.2389551   0.67544976   439061 
 4445000   0.45075783    -3.240552    -3.240552   -2.5644168 0.0062379163    -3.240552   0.67613521   439061 
 4446000   0.45053485   -3.2397674   -3.2397674   -2.5639667 0.0068214291   -3.2397674   0.67580074   439061 
 4447000   0.45093254   -3.2405526   -3.2405526   -2.5641553 0.0042800239   -3.2405526   0.67639727   439061 
 4448000   0.45120746   -3.2403055   -3.2403055   -2.5634959 0.0038086872   -3.2403055   0.67680964   439061 
 4449000   0.45078107   -3.2409008   -3.2409008   -2.5647307 0.0056050208   -3.2409008   0.67617007   439061 
 4450000   0.45137023   -3.2410922   -3.2410922   -2.5640384 0.0062851343   -3.2410922   0.67705381   439061 
 4451000   0.45125456   -3.2407554   -3.2407554   -2.5638751 0.0044203813   -3.2407554    0.6768803   439061 
 4452000   0.45086934     -3.24064     -3.24064   -2.5643376 0.0058842368     -3.24064   0.67630247   439061 
 4453000   0.45033792   -3.2401015   -3.2401015   -2.5645962 0.0079770465   -3.2401015   0.67550534   439061 
 4454000   0.45106993   -3.2417944   -3.2417944    -2.565191 0.0041052816   -3.2417944   0.67660335   439061 
 4455000   0.45052174   -3.2415071   -3.2415071    -2.565726 0.0068789807   -3.2415071   0.67578107   439061 
 4456000   0.44969589   -3.2401139   -3.2401139   -2.5655716 0.0095067218   -3.2401139    0.6745423   439061 
 4457000   0.45025095   -3.2407923   -3.2407923   -2.5654174 0.0087023971   -3.2407923   0.67537489   439061 
 4458000   0.45104932   -3.2418344   -3.2418344   -2.5652619 0.0069263367   -3.2418344   0.67657244   439061 
 4459000   0.45047221   -3.2411973   -3.2411973   -2.5654906 0.0074499614   -3.2411973   0.67570677   439061 
 4460000   0.45096417   -3.2413606   -3.2413606   -2.5649159  0.011557903   -3.2413606   0.67644471   439061 
 4461000   0.45103102   -3.2420422   -3.2420422   -2.5654973 0.0078353426   -3.2420422   0.67654499   439061 
 4462000   0.45131617   -3.2416319   -3.2416319   -2.5646592  0.010818533   -3.2416319   0.67697271   439061 
 4463000   0.45090495   -3.2413504   -3.2413504   -2.5649945 0.0095542101   -3.2413504   0.67635588   439061 
 4464000   0.45082568   -3.2418996   -3.2418996   -2.5656626 0.0074029576   -3.2418996   0.67623697   439061 
 4465000   0.44980377   -3.2402006   -3.2402006   -2.5654965 0.0054523756   -3.2402006   0.67470412   439061 
 4466000   0.44939946   -3.2398581   -3.2398581   -2.5657604 0.0055837512   -3.2398581   0.67409765   439061 
 4467000   0.45016769   -3.2402649   -3.2402649   -2.5650149 0.0031454743   -3.2402649      0.67525   439061 
 4468000   0.45058684   -3.2407103   -3.2407103   -2.5648316 0.0041830047   -3.2407103   0.67587872   439061 
 4469000   0.45047656   -3.2405988   -3.2405988   -2.5648855 0.0049807976   -3.2405988    0.6757133   439061 
 4470000    0.4493449   -3.2393767   -3.2393767   -2.5653609 0.0047109149   -3.2393767   0.67401582   439061 
 4471000   0.45044057   -3.2406375   -3.2406375   -2.5649781 0.0024892159   -3.2406375   0.67565932   439061 
 4472000   0.45019516    -3.239647    -3.239647   -2.5643558 0.0083665511    -3.239647    0.6752912   439061 
 4473000   0.45000373   -3.2401848   -3.2401848   -2.5651808 0.0081960914   -3.2401848   0.67500406   439061 
 4474000   0.45055796   -3.2409871   -3.2409871   -2.5651517   0.00829563   -3.2409871   0.67583541   439061 
 4475000   0.45088794   -3.2412685   -3.2412685   -2.5649381 0.0086757005   -3.2412685   0.67633036   439061 
 4476000   0.45032499   -3.2407162   -3.2407162   -2.5652303   0.01210787   -3.2407162   0.67548595   439061 
 4477000   0.45024055   -3.2408262   -3.2408262   -2.5654669 0.0093585796   -3.2408262   0.67535929   439061 
 4478000   0.45083958   -3.2418946   -3.2418946   -2.5656367 0.0067995034   -3.2418946   0.67625783   439061 
 4479000    0.4502971   -3.2409514   -3.2409514   -2.5655073 0.0085870771   -3.2409514   0.67544412   439061 
 4480000   0.45084845   -3.2413624   -3.2413624   -2.5650912 0.0068172612   -3.2413624   0.67627114   439061 
 4481000   0.45020692   -3.2407518   -3.2407518    -2.565443 0.0068076382   -3.2407518   0.67530884   439061 
 4482000   0.45032327   -3.2409076   -3.2409076   -2.5654243 0.0054431233   -3.2409076   0.67548336   439061 
 4483000   0.44971864   -3.2402347   -3.2402347   -2.5656583 0.0065283413   -3.2402347   0.67457642   439061 
 4484000   0.44988063    -3.240089    -3.240089   -2.5652696 0.0040488104    -3.240089   0.67481941   439061 
 4485000   0.45041874   -3.2412407   -3.2412407   -2.5656141  0.003404871   -3.2412407   0.67562657   439061 
 4486000   0.44907544   -3.2396302   -3.2396302   -2.5660185 0.0054656416   -3.2396302   0.67361163   439061 
 4487000   0.44982288   -3.2407886   -3.2407886   -2.5660559  0.006595692   -3.2407886   0.67473278   439061 
 4488000   0.44952992   -3.2406215   -3.2406215   -2.5663281 0.0070323154   -3.2406215   0.67429334   439061 
 4489000    0.4507795    -3.242923    -3.242923   -2.5667553 0.0040458409    -3.242923   0.67616771   439061 
 4490000   0.45037355   -3.2419814   -3.2419814   -2.5664226 0.0080829333   -3.2419814   0.67555879   439061 
 4491000   0.45021191   -3.2424136   -3.2424136   -2.5670972 0.0079310337   -3.2424136   0.67531633   439061 
 4492000   0.45076169    -3.243777    -3.243777    -2.567636 0.0033603185    -3.243777   0.67614099   439061 
 4493000   0.45012308   -3.2427767   -3.2427767   -2.5675937 0.0085132692   -3.2427767   0.67518308   439061 
 4494000   0.45136212   -3.2440702   -3.2440702   -2.5670286  0.008585431   -3.2440702   0.67704164   439061 
 4495000   0.44996567   -3.2425547   -3.2425547   -2.5676078  0.013396614   -3.2425547   0.67494696   439061 
 4496000   0.45071981   -3.2436384   -3.2436384   -2.5675602  0.012306347   -3.2436384   0.67607817   439061 
 4497000   0.45157713   -3.2447463   -3.2447463   -2.5673822 0.0096884578   -3.2447463   0.67736415   439061 
 4498000   0.45062165   -3.2421187   -3.2421187   -2.5661878  0.010044515   -3.2421187   0.67593094   439061 
 4499000   0.44988178   -3.2419482   -3.2419482   -2.5671271  0.010813337   -3.2419482   0.67482114   439061 
 4500000   0.45037677   -3.2422746   -3.2422746   -2.5667109 0.0046134427   -3.2422746   0.67556362   439061 
 4501000   0.45006527   -3.2418391   -3.2418391   -2.5667428 0.0079224305   -3.2418391   0.67509637   439061 
 4502000   0.45004839   -3.2406429   -3.2406429   -2.5655719 0.0093273571   -3.2406429   0.67507105   439061 
 4503000   0.45045839   -3.2416886   -3.2416886   -2.5660026 0.0032021742   -3.2416886   0.67568605   439061 
 4504000   0.44978895   -3.2404352   -3.2404352   -2.5657533 0.0026176751   -3.2404352   0.67468189   439061 
 4505000   0.45021215   -3.2411711   -3.2411711   -2.5658544 0.0027366709   -3.2411711   0.67531668   439061 
 4506000   0.44980197   -3.2402304   -3.2402304    -2.565529 0.0032582578   -3.2402304   0.67470142   439061 
 4507000   0.45039074   -3.2411287   -3.2411287   -2.5655441  0.004882901   -3.2411287   0.67558457   439061 
 4508000   0.44981201     -3.24011     -3.24011   -2.5653936  0.007454653     -3.24011   0.67471648   439061 
 4509000   0.45049845   -3.2408359   -3.2408359   -2.5650898 0.0059868652   -3.2408359   0.67574613   439061 
 4510000   0.45037607   -3.2412638   -3.2412638   -2.5657012 0.0062868207   -3.2412638   0.67556257   439061 
 4511000   0.45053952   -3.2416808   -3.2416808   -2.5658731   0.00561077   -3.2416808   0.67580774   439061 
 4512000   0.45033024   -3.2416989   -3.2416989   -2.5662051 0.0074988596   -3.2416989   0.67549383   439061 
 4513000   0.45026673   -3.2419109   -3.2419109   -2.5665123 0.0069107827   -3.2419109   0.67539856   439061 
 4514000   0.45037385   -3.2417982   -3.2417982    -2.566239 0.0086677904   -3.2417982   0.67555924   439061 
 4515000   0.45107258   -3.2424377   -3.2424377   -2.5658304 0.0079129804   -3.2424377   0.67660733   439061 
 4516000   0.45154305   -3.2431221   -3.2431221    -2.565809 0.0089873124   -3.2431221   0.67731304   439061 
 4517000   0.45069933    -3.242633    -3.242633   -2.5665856 0.0085533704    -3.242633   0.67604745   439061 
 4518000    0.4508427   -3.2431465   -3.2431465    -2.566884 0.0083024805   -3.2431465   0.67626251   439061 
 4519000   0.45033343   -3.2417858   -3.2417858   -2.5662872  0.013783744   -3.2417858    0.6754986   439061 
 4520000   0.45005534   -3.2411603   -3.2411603   -2.5660789 0.0070715892   -3.2411603   0.67508147   439061 
 4521000   0.44980935   -3.2408433   -3.2408433   -2.5661308 0.0076722114   -3.2408433   0.67471249   439061 
 4522000   0.45008801   -3.2407392   -3.2407392   -2.5656087 0.0041116541   -3.2407392   0.67513048   439061 
 4523000   0.45086623   -3.2415723   -3.2415723   -2.5652745 0.0028043659   -3.2415723    0.6762978   439061 
 4524000    0.4501632   -3.2404692   -3.2404692    -2.565226 0.0071507074   -3.2404692   0.67524326   439061 
 4525000   0.45025607   -3.2410572   -3.2410572   -2.5656746 0.00085866057   -3.2410572   0.67538256   439061 
 4526000    0.4498616   -3.2410095   -3.2410095   -2.5662186  0.002892618   -3.2410095   0.67479086   439061 
 4527000   0.44950811   -3.2408301   -3.2408301   -2.5665695 0.0036774371   -3.2408301   0.67426063   439061 
 4528000   0.44961856    -3.240421    -3.240421   -2.5659947 0.0045477778    -3.240421   0.67442631   439061 
 4529000   0.44974089   -3.2411483   -3.2411483   -2.5665385 0.0050589231   -3.2411483    0.6746098   439061 
 4530000   0.45016697   -3.2422021   -3.2422021   -2.5669532 0.0085985311   -3.2422021   0.67524892   439061 
 4531000   0.45025546   -3.2428418   -3.2428418   -2.5674602   0.00851454   -3.2428418   0.67538165   439061 
 4532000   0.45009346   -3.2431298   -3.2431298   -2.5679912 0.0082150796   -3.2431298   0.67513865   439061 
 4533000   0.45034687   -3.2439259   -3.2439259   -2.5684072 0.0097665542   -3.2439259   0.67551876   439061 
 4534000   0.45032447   -3.2440827   -3.2440827   -2.5685975  0.011242541   -3.2440827   0.67548517   439061 
 4535000   0.45077473   -3.2446243   -3.2446243   -2.5684638 0.0069209734   -3.2446243   0.67616055   439061 
 4536000   0.45050093   -3.2440632   -3.2440632   -2.5683133   0.01174746   -3.2440632   0.67574986   439061 
 4537000   0.45035709   -3.2441586   -3.2441586   -2.5686245 0.0090624301   -3.2441586    0.6755341   439061 
 4538000   0.45024791    -3.243487    -3.243487   -2.5681166  0.010291781    -3.243487   0.67537033   439061 
 4539000   0.45012525   -3.2435104   -3.2435104    -2.568324  0.005933811   -3.2435104   0.67518634   439061 
 4540000   0.44867086    -3.241692    -3.241692   -2.5686873 0.0082995661    -3.241692   0.67300476   439061 
 4541000   0.44953021   -3.2430253   -3.2430253   -2.5687315  0.004293704   -3.2430253   0.67429378   439061 
 4542000   0.44924247   -3.2425165   -3.2425165   -2.5686543 0.0040717317   -3.2425165   0.67386217   439061 
 4543000   0.44940459   -3.2421824   -3.2421824   -2.5680771 0.0061285982   -3.2421824   0.67410535   439061 
 4544000    0.4489458   -3.2416181   -3.2416181   -2.5682009 0.0079760386   -3.2416181   0.67341717   439061 
 4545000   0.44953117   -3.2424967   -3.2424967   -2.5682015 0.0066622309   -3.2424967   0.67429522   439061 
 4546000   0.44948657   -3.2425396   -3.2425396   -2.5683113  0.006121105   -3.2425396   0.67422832   439061 
 4547000   0.44926472   -3.2421107   -3.2421107   -2.5682151  0.011301905   -3.2421107   0.67389554   439061 
 4548000   0.45044125   -3.2435924   -3.2435924   -2.5679321 0.0063690461   -3.2435924   0.67566034   439061 
 4549000   0.45013107   -3.2424845   -3.2424845   -2.5672894  0.010553469   -3.2424845   0.67519507   439061 
 4550000   0.45082374   -3.2432637   -3.2432637   -2.5670296  0.007945242   -3.2432637   0.67623406   439061 
 4551000     0.450629   -3.2434171   -3.2434171   -2.5674751 0.0067513575   -3.2434171   0.67594196   439061 
 4552000   0.45007081    -3.242955    -3.242955   -2.5678504  0.010033813    -3.242955   0.67510467   439061 
 4553000   0.45035695   -3.2439281   -3.2439281   -2.5683942 0.0042668501   -3.2439281   0.67553388   439061 
 4554000   0.44957653   -3.2423418   -3.2423418   -2.5679786 0.0080467437   -3.2423418   0.67436327   439061 
 4555000   0.45002642   -3.2431228   -3.2431228   -2.5680847 0.0057038533   -3.2431228   0.67503809   439061 
 4556000   0.45003796   -3.2421476   -3.2421476   -2.5670922 0.0060499765   -3.2421476    0.6750554   439061 
 4557000   0.44966361   -3.2427399   -3.2427399    -2.568246 0.0089298438   -3.2427399   0.67449387   439061 
 4558000   0.44973823   -3.2421572   -3.2421572   -2.5675514 0.0082697536   -3.2421572   0.67460581   439061 
 4559000   0.45041991   -3.2421531   -3.2421531   -2.5665248 0.0076771045   -3.2421531   0.67562833   439061 
 4560000   0.45014698   -3.2418701   -3.2418701   -2.5666512 0.0064380834   -3.2418701   0.67521893   439061 
 4561000   0.44995255   -3.2419841   -3.2419841   -2.5670568 0.0045050382   -3.2419841   0.67492729   439061 
 4562000   0.44957891   -3.2413408   -3.2413408   -2.5669739 0.0078984444   -3.2413408   0.67436682   439061 
 4563000   0.44996832   -3.2420394   -3.2420394   -2.5670885   0.00274767   -3.2420394   0.67495095   439061 
 4564000   0.44985259   -3.2413931   -3.2413931   -2.5666158 0.0053765244   -3.2413931   0.67477734   439061 
 4565000   0.45071669   -3.2423008   -3.2423008   -2.5662273 0.0063621076   -3.2423008   0.67607349   439061 
 4566000   0.45076503   -3.2419595   -3.2419595   -2.5658135 0.0080961472   -3.2419595     0.676146   439061 
 4567000   0.45018716   -3.2409211   -3.2409211   -2.5656419  0.008856676   -3.2409211   0.67527921   439061 
 4568000   0.45019182   -3.2418921   -3.2418921    -2.566606 0.0043341437   -3.2418921   0.67528619   439061 
 4569000   0.45043221   -3.2415195   -3.2415195   -2.5658727 0.0087745071   -3.2415195   0.67564678   439061 
 4570000   0.45002067   -3.2410536   -3.2410536   -2.5660242 0.0065858165   -3.2410536   0.67502946   439061 
 4571000   0.45079695   -3.2418996   -3.2418996   -2.5657057 0.0041400348   -3.2418996   0.67619389   439061 
 4572000   0.45026601   -3.2415052   -3.2415052   -2.5661077 0.0060344709   -3.2415052   0.67539748   439061 
 4573000   0.44975413   -3.2405094   -3.2405094   -2.5658797 0.0064470293   -3.2405094   0.67462965   439061 
 4574000   0.44959198   -3.2402331   -3.2402331   -2.5658466 0.0056037148   -3.2402331   0.67438644   439061 
 4575000   0.45027716   -3.2413228   -3.2413228   -2.5659086 0.0056239892   -3.2413228    0.6754142   439061 
 4576000     0.450874   -3.2417504   -3.2417504    -2.565441 0.0069710431   -3.2417504   0.67630946   439061 
 4577000    0.4506635   -3.2416874   -3.2416874   -2.5656937 0.0045080679   -3.2416874   0.67599371   439061 
 4578000   0.44996398    -3.241255    -3.241255   -2.5663105 0.0047205025    -3.241255   0.67494444   439061 
 4579000   0.45036422    -3.240961    -3.240961   -2.5654162 0.0046852002    -3.240961   0.67554479   439061 
 4580000    0.4504659   -3.2419742   -3.2419742   -2.5662769 0.00096878477   -3.2419742   0.67569731   439061 
 4581000   0.45023461    -3.241732    -3.241732   -2.5663816 0.0047023505    -3.241732   0.67535038   439061 
 4582000   0.45129752   -3.2427052   -3.2427052   -2.5657605 0.0065898784   -3.2427052   0.67694474   439061 
 4583000   0.45026268   -3.2410039   -3.2410039   -2.5656114 0.0085701937   -3.2410039   0.67539248   439061 
 4584000   0.45071883   -3.2418083   -3.2418083   -2.5657316 0.0059953095   -3.2418083   0.67607671   439061 
 4585000   0.45006007    -3.240727    -3.240727   -2.5656384 0.0073061696    -3.240727   0.67508857   439061 
 4586000   0.44965922   -3.2406809   -3.2406809   -2.5661937 0.0084481518   -3.2406809    0.6744873   439061 
 4587000   0.45060497   -3.2413513   -3.2413513   -2.5654454 0.0074470157   -3.2413513   0.67590591   439061 
 4588000   0.45081565   -3.2421428   -3.2421428   -2.5659209 0.0063772048   -3.2421428   0.67622193   439061 
 4589000   0.44998791   -3.2411049   -3.2411049   -2.5661246 0.0066948708   -3.2411049   0.67498033   439061 
 4590000   0.44958335    -3.240962    -3.240962   -2.5665885 0.0056294632    -3.240962   0.67437349   439061 
 4591000   0.45053753   -3.2419533   -3.2419533   -2.5661486 0.0042163351   -3.2419533   0.67580475   439061 
 4592000    0.4495258   -3.2406113   -3.2406113   -2.5663242 0.0063215304   -3.2406113   0.67428717   439061 
 4593000   0.45066335    -3.242074    -3.242074   -2.5660805 0.0016019116    -3.242074   0.67599349   439061 
 4594000   0.45074229   -3.2420821   -3.2420821   -2.5659702 0.0077322356   -3.2420821   0.67611189   439061 
 4595000   0.45035813   -3.2415745   -3.2415745   -2.5660389 0.0060891307   -3.2415745   0.67553565   439061 
 4596000   0.45039125   -3.2420041   -3.2420041   -2.5664187  0.007151014   -3.2420041   0.67558534   439061 
 4597000    0.4505238   -3.2420383   -3.2420383   -2.5662541 0.0066393267   -3.2420383   0.67578416   439061 
 4598000   0.44956725   -3.2411549   -3.2411549   -2.5668056 0.0090040419   -3.2411549   0.67434933   439061 
 4599000   0.44982555   -3.2417396   -3.2417396   -2.5670028 0.0072425459   -3.2417396   0.67473678   439061 
 4600000   0.44998726   -3.2414656   -3.2414656   -2.5664863 0.0035406361   -3.2414656   0.67497935   439061 
 4601000   0.45038494    -3.241708    -3.241708   -2.5661321 0.0092483684    -3.241708   0.67557587   439061 
 4602000   0.45059869   -3.2420563   -3.2420563   -2.5661598  0.011303362   -3.2420563    0.6758965   439061 
 4603000   0.45094908   -3.2423013   -3.2423013   -2.5658792  0.006071846   -3.2423013   0.67642207   439061 
 4604000   0.45108998   -3.2429181   -3.2429181   -2.5662846 0.0045238446   -3.2429181   0.67663343   439061 
 4605000   0.44977191   -3.2418497   -3.2418497   -2.5671933 0.0064499592   -3.2418497   0.67465633   439061 
 4606000   0.45027979   -3.2424995   -3.2424995   -2.5670813  0.005938953   -3.2424995   0.67541815   439061 
 4607000   0.45013888   -3.2424895   -3.2424895   -2.5672827 0.0055185215   -3.2424895   0.67520677   439061 
 4608000   0.44983917   -3.2416894   -3.2416894   -2.5669322   0.01070083   -3.2416894   0.67475721   439061 
 4609000   0.45074085    -3.242469    -3.242469   -2.5663593 0.0064693156    -3.242469   0.67610974   439061 
 4610000   0.45062463   -3.2427853   -3.2427853   -2.5668499  0.007401566   -3.2427853   0.67593541   439061 
 4611000    0.4502924   -3.2427531   -3.2427531    -2.567316 0.0065643742   -3.2427531   0.67543706   439061 
 4612000   0.45044127     -3.24308     -3.24308   -2.5674197 0.0038758795     -3.24308   0.67566036   439061 
 4613000   0.44939283   -3.2402717   -3.2402717    -2.566184  0.009628799   -3.2402717    0.6740877   439061 
 4614000   0.45034177    -3.241316    -3.241316   -2.5658048 0.0070464596    -3.241316   0.67551112   439061 
 4615000    0.4497706   -3.2410497   -3.2410497   -2.5663954 0.0068432321   -3.2410497   0.67465436   439061 
 4616000   0.45085129   -3.2431076   -3.2431076   -2.5668322 0.00081819987   -3.2431076    0.6762754   439061 
 4617000   0.45014892   -3.2425611   -3.2425611   -2.5673392 0.0043689202   -3.2425611   0.67522184   439061 
 4618000   0.45013469   -3.2416883   -3.2416883   -2.5664878 0.0032355164   -3.2416883    0.6752005   439061 
 4619000   0.44999082   -3.2417539   -3.2417539   -2.5667692 0.0063620626   -3.2417539    0.6749847   439061 
 4620000   0.45010775   -3.2417529   -3.2417529   -2.5665929 0.0050572418   -3.2417529   0.67516009   439061 
 4621000   0.45092668   -3.2423299   -3.2423299   -2.5659414 0.0061957819   -3.2423299   0.67638848   439061 
 4622000   0.44985837   -3.2416027   -3.2416027   -2.5668167 0.0079991846   -3.2416027   0.67478602   439061 
 4623000   0.45026729   -3.2419436   -3.2419436   -2.5665442 0.0082562967   -3.2419436    0.6753994   439061 
 4624000   0.44983183   -3.2424381   -3.2424381   -2.5676918 0.0023218314   -3.2424381   0.67474621   439061 
 4625000   0.44967242   -3.2417713   -3.2417713   -2.5672642 0.0053767956   -3.2417713   0.67450709   439061 
 4626000   0.45013288   -3.2433347   -3.2433347    -2.568137 0.0051857689   -3.2433347   0.67519778   439061 
 4627000   0.45013483   -3.2432213   -3.2432213   -2.5680206 0.0052565968   -3.2432213    0.6752007   439061 
 4628000   0.44989168   -3.2425654   -3.2425654   -2.5677294 0.0065237981   -3.2425654   0.67483598   439061 
 4629000   0.45036408   -3.2431581   -3.2431581   -2.5676135 0.0094072291   -3.2431581   0.67554458   439061 
 4630000   0.45025132   -3.2428301   -3.2428301   -2.5674547 0.0085594129   -3.2428301   0.67537545   439061 
 4631000   0.45004788   -3.2427336   -3.2427336   -2.5676633  0.009079206   -3.2427336   0.67507028   439061 
 4632000   0.45038685   -3.2428155   -3.2428155   -2.5672368 0.0092874883   -3.2428155   0.67557874   439061 
 4633000    0.4497656   -3.2425926   -3.2425926   -2.5679457 0.0083866484   -3.2425926   0.67464686   439061 
 4634000   0.45009203   -3.2429626   -3.2429626   -2.5678261 0.0063226625   -3.2429626    0.6751365   439061 
 4635000   0.44944098   -3.2424039   -3.2424039   -2.5682439 0.0041920482   -3.2424039   0.67415994   439061 
 4636000   0.44956361   -3.2420078   -3.2420078   -2.5676639  0.008074329   -3.2420078   0.67434388   439061 
 4637000   0.45014463   -3.2426225   -3.2426225   -2.5674071   0.00605762   -3.2426225   0.67521541   439061 
 4638000   0.45072661   -3.2429663   -3.2429663   -2.5668779 0.0045554104   -3.2429663   0.67608837   439061 
 4639000    0.4499817   -3.2422909   -3.2422909   -2.5673199 0.0026859964   -3.2422909   0.67497102   439061 
 4640000     0.449653   -3.2411853   -3.2411853   -2.5667073 0.0091636563   -3.2411853   0.67447797   439061 
 4641000   0.44972277   -3.2414062   -3.2414062   -2.5668236 0.0071516603   -3.2414062   0.67458262   439061 
 4642000   0.45004553   -3.2415521   -3.2415521   -2.5664853 0.0065339411   -3.2415521   0.67506676   439061 
 4643000    0.4501519   -3.2420099   -3.2420099   -2.5667836 0.0056772487   -3.2420099   0.67522631   439061 
 4644000   0.44931993   -3.2412285   -3.2412285   -2.5672502 0.0084440298   -3.2412285   0.67397837   439061 
 4645000   0.44943335    -3.242129    -3.242129   -2.5679805 0.0021082743    -3.242129   0.67414848   439061 
 4646000   0.44986361     -3.24232     -3.24232   -2.5675261 0.0060672367     -3.24232   0.67479387   439061 
 4647000   0.44959506   -3.2424842   -3.2424842   -2.5680931 0.0030134721   -3.2424842   0.67439105   439061 
 4648000   0.44948812   -3.2424879   -3.2424879   -2.5682573 0.0032653922   -3.2424879   0.67423065   439061 
 4649000   0.45035357     -3.24369     -3.24369   -2.5681612 0.0029906313     -3.24369   0.67552882   439061 
 4650000   0.44942469   -3.2427459   -3.2427459   -2.5686104 0.0034836605   -3.2427459    0.6741355   439061 
 4651000   0.45010002   -3.2432811   -3.2432811   -2.5681326 0.0058719926   -3.2432811   0.67514849   439061 
 4652000   0.45003317   -3.2433033   -3.2433033   -2.5682551 0.0070989791   -3.2433033   0.67504821   439061 
 4653000   0.45090338   -3.2443544   -3.2443544   -2.5680008 0.0087232696   -3.2443544   0.67635352   439061 
 4654000   0.45128054   -3.2448656   -3.2448656   -2.5679463  0.011316917   -3.2448656   0.67691927   439061 
 4655000   0.45034211   -3.2429969   -3.2429969   -2.5674852  0.015134673   -3.2429969   0.67551163   439061 
 4656000    0.4508302   -3.2434612   -3.2434612   -2.5672175  0.012364335   -3.2434612   0.67624376   439061 
 4657000   0.45127976   -3.2433975   -3.2433975   -2.5664794 0.0099586512   -3.2433975    0.6769181   439061 
 4658000   0.45005248   -3.2420565   -3.2420565   -2.5669793  0.011324555   -3.2420565   0.67507718   439061 
 4659000   0.45088625   -3.2431948   -3.2431948    -2.566867 0.0082855631   -3.2431948   0.67632784   439061 
 4660000   0.44941607   -3.2415311   -3.2415311   -2.5674085 0.0035705008   -3.2415311   0.67412256   439061 
 4661000   0.44836044   -3.2394378   -3.2394378   -2.5668987 0.0041841567   -3.2394378   0.67253912   439061 
 4662000   0.44899388   -3.2406141   -3.2406141   -2.5671248 0.00092967827   -3.2406141   0.67348928   439061 
 4663000   0.44952856   -3.2407793   -3.2407793    -2.566488 0.00033749422   -3.2407793    0.6742913   439061 
 4664000   0.44927047   -3.2409224   -3.2409224   -2.5670182 0.00062176687   -3.2409224   0.67390417   439061 
 4665000   0.44920452    -3.240546    -3.240546   -2.5667408 0.0032165195    -3.240546   0.67380524   439061 
 4666000    0.4501053    -3.241737    -3.241737   -2.5665806   0.00371887    -3.241737   0.67515642   439061 
 4667000    0.4509363     -3.24227     -3.24227    -2.565867 0.0069616372     -3.24227   0.67640291   439061 
 4668000   0.45004455   -3.2413914   -3.2413914   -2.5663261  0.010944058   -3.2413914   0.67506528   439061 
 4669000    0.4505211   -3.2425401   -3.2425401     -2.56676 0.0082296564   -3.2425401   0.67578011   439061 
 4670000   0.45060236   -3.2427377   -3.2427377   -2.5668357 0.0083848776   -3.2427377   0.67590201   439061 
 4671000   0.45129638   -3.2438476   -3.2438476   -2.5669046 0.0071018006   -3.2438476   0.67694303   439061 
 4672000   0.45014878   -3.2431854   -3.2431854   -2.5679637 0.0098558175   -3.2431854   0.67522163   439061 
 4673000   0.45033058   -3.2433842   -3.2433842   -2.5678898 0.0073607194   -3.2433842   0.67549433   439061 
 4674000   0.44961995   -3.2417332   -3.2417332   -2.5673048    0.0074362   -3.2417332   0.67442839   439061 
 4675000   0.45048024   -3.2432179   -3.2432179   -2.5674991 0.0080116255   -3.2432179   0.67571882   439061 
 4676000   0.45008127   -3.2427859   -3.2427859   -2.5676655 0.0092527245   -3.2427859   0.67512037   439061 
 4677000   0.44999594   -3.2422637   -3.2422637   -2.5672714 0.0054906764   -3.2422637   0.67499237   439061 
 4678000   0.44959805   -3.2415493   -3.2415493   -2.5671537  0.007281193   -3.2415493   0.67439554   439061 
 4679000   0.44987266   -3.2418996   -3.2418996   -2.5670921 0.0064324613   -3.2418996   0.67480746   439061 
 4680000    0.4492802    -3.241254    -3.241254   -2.5673353 0.0025031872    -3.241254   0.67391876   439061 
 4681000   0.44948653   -3.2418512   -3.2418512    -2.567623  0.002705046   -3.2418512   0.67422825   439061 
 4682000   0.44961715   -3.2417266   -3.2417266   -2.5673024 0.0040228609   -3.2417266   0.67442419   439061 
 4683000   0.44984361   -3.2420513   -3.2420513   -2.5672874 0.0050168647   -3.2420513   0.67476388   439061 
 4684000   0.45025686   -3.2424175   -3.2424175   -2.5670337 0.0044369712   -3.2424175   0.67538376   439061 
 4685000   0.45000523   -3.2414922   -3.2414922   -2.5664859 0.0050044167   -3.2414922    0.6750063   439061 
 4686000   0.45009105   -3.2421866   -3.2421866   -2.5670515  0.003868147   -3.2421866   0.67513504   439061 
 4687000   0.45002483   -3.2421055   -3.2421055   -2.5670698 0.0084143269   -3.2421055   0.67503571   439061 
 4688000   0.44978125   -3.2419007   -3.2419007   -2.5672303 0.0094574398   -3.2419007   0.67467034   439061 
 4689000   0.44982599   -3.2421229   -3.2421229   -2.5673854  0.010297185   -3.2421229   0.67473745   439061 
 4690000   0.45006296   -3.2417372   -3.2417372   -2.5666443  0.010787034   -3.2417372   0.67509291   439061 
 4691000   0.45026204   -3.2426341   -3.2426341   -2.5672425 0.0085587234   -3.2426341   0.67539153   439061 
 4692000   0.44994856   -3.2427452   -3.2427452   -2.5678239 0.0064016628   -3.2427452    0.6749213   439061 
 4693000   0.45019821     -3.24178     -3.24178   -2.5664842  0.011008217     -3.24178   0.67529577   439061 
 4694000   0.44980197    -3.240934    -3.240934   -2.5662326  0.010299766    -3.240934   0.67470141   439061 
 4695000   0.44993521   -3.2404776   -3.2404776   -2.5655763  0.011811974   -3.2404776   0.67490128   439061 
 4696000   0.45055243   -3.2413652   -3.2413652   -2.5655381 0.0056622227   -3.2413652    0.6758271   439061 
 4697000   0.44961488   -3.2405144   -3.2405144   -2.5660936 0.0048545144   -3.2405144   0.67442078   439061 
 4698000   0.44976115   -3.2397289   -3.2397289   -2.5650887 0.0089559457   -3.2397289    0.6746402   439061 
 4699000   0.44958927    -3.239725    -3.239725   -2.5653427 0.0066281949    -3.239725   0.67438237   439061 
 4700000   0.44910323   -3.2390789   -3.2390789   -2.5654255 0.0065108219   -3.2390789   0.67365331   439061 
 4701000    0.4498419   -3.2397657   -3.2397657   -2.5650044 0.0051264834   -3.2397657   0.67476131   439061 
 4702000    0.4497767   -3.2395436   -3.2395436   -2.5648801 0.0032085129   -3.2395436   0.67466351   439061 
 4703000    0.4492807   -3.2395325   -3.2395325    -2.565613 0.0059264234   -3.2395325   0.67391952   439061 
 4704000   0.44931628   -3.2398427   -3.2398427   -2.5658698 0.0041052774   -3.2398427   0.67397288   439061 
 4705000   0.44991482   -3.2405244   -3.2405244   -2.5656537  0.005781638   -3.2405244   0.67487069   439061 
 4706000   0.45086303    -3.242922    -3.242922    -2.566629 0.0045486708    -3.242922     0.676293   439061 
 4707000   0.45011866   -3.2424777   -3.2424777   -2.5673013 0.0065024666   -3.2424777   0.67517646   439061 
 4708000   0.44989082   -3.2419012   -3.2419012   -2.5670665  0.006832092   -3.2419012   0.67483469   439061 
 4709000   0.45075442   -3.2435239   -3.2435239   -2.5673938  0.006013779   -3.2435239   0.67613009   439061 
 4710000   0.45057284   -3.2428545   -3.2428545   -2.5669968   0.01119278   -3.2428545   0.67585772   439061 
 4711000   0.45030368   -3.2432686   -3.2432686   -2.5678146 0.0083550376   -3.2432686   0.67545399   439061 
 4712000   0.45032096    -3.243365    -3.243365   -2.5678851 0.0080595042    -3.243365    0.6754799   439061 
 4713000   0.45007006   -3.2433031   -3.2433031   -2.5681995 0.0066323694   -3.2433031   0.67510356   439061 
 4714000   0.45051102    -3.243988    -3.243988   -2.5682231 0.0095358751    -3.243988   0.67576499   439061 
 4715000   0.45039259   -3.2445554   -3.2445554   -2.5689681 0.0037357082   -3.2445554   0.67558734   439061 
 4716000   0.44989401   -3.2429627   -3.2429627   -2.5681232 0.0086315864   -3.2429627   0.67483948   439061 
 4717000    0.4501912   -3.2431559   -3.2431559   -2.5678706 0.0069430173   -3.2431559   0.67528527   439061 
 4718000   0.45040756   -3.2429023   -3.2429023   -2.5672925 0.0086591984   -3.2429023    0.6756098   439061 
 4719000   0.45001472   -3.2424626   -3.2424626   -2.5674421 0.0078178023   -3.2424626   0.67502055   439061 
 4720000   0.45034341   -3.2433086   -3.2433086    -2.567795 0.0084638267   -3.2433086   0.67551357   439061 
 4721000    0.4499076   -3.2427054   -3.2427054   -2.5678456 0.0063107831   -3.2427054   0.67485987   439061 
 4722000   0.44904896   -3.2419806   -3.2419806   -2.5684087 0.0065606197   -3.2419806    0.6735719   439061 
 4723000   0.44974378   -3.2435704   -3.2435704   -2.5689563 0.00031519965   -3.2435704   0.67461413   439061 
 4724000   0.44997223   -3.2430576   -3.2430576   -2.5681008 0.0012148763   -3.2430576    0.6749568   439061 
 4725000   0.44935811   -3.2424811   -3.2424811   -2.5684454 0.0066517807   -3.2424811   0.67403562   439061 
 4726000    0.4499415   -3.2424625   -3.2424625   -2.5675518 0.0048461031   -3.2424625   0.67491071   439061 
 4727000   0.45003552   -3.2418743   -3.2418743   -2.5668226  0.010597222   -3.2418743   0.67505174   439061 
 4728000   0.45024423   -3.2419187   -3.2419187   -2.5665539  0.010115983   -3.2419187   0.67536481   439061 
 4729000    0.4505905   -3.2425474   -3.2425474   -2.5666632 0.0087097253   -3.2425474   0.67588421   439061 
 4730000   0.45015986   -3.2422525   -3.2422525   -2.5670142 0.0088470012   -3.2422525   0.67523825   439061 
 4731000   0.45016912   -3.2415903   -3.2415903   -2.5663381  0.010165981   -3.2415903   0.67525214   439061 
 4732000   0.45093272   -3.2425282   -3.2425282   -2.5661306 0.0060319553   -3.2425282   0.67639754   439061 
 4733000   0.44982082   -3.2404876   -3.2404876   -2.5657579 0.0064582717   -3.2404876   0.67472969   439061 
 4734000   0.44906577   -3.2403294   -3.2403294   -2.5667322 0.0084899666   -3.2403294   0.67359712   439061 
 4735000   0.45082509   -3.2422834   -3.2422834   -2.5660473 0.0041641567   -3.2422834    0.6762361   439061 
 4736000   0.44985342   -3.2410545   -3.2410545   -2.5662759 0.0037714553   -3.2410545   0.67477859   439061 
 4737000   0.45066529   -3.2416491   -3.2416491   -2.5656527 0.0057409731   -3.2416491   0.67599639   439061 
 4738000   0.44939049   -3.2404938   -3.2404938   -2.5664096 0.0046701757   -3.2404938    0.6740842   439061 
 4739000   0.44913785   -3.2403458   -3.2403458   -2.5666405 0.0042867331   -3.2403458   0.67370524   439061 
 4740000   0.44936151    -3.240183    -3.240183   -2.5661423 0.0066626096    -3.240183   0.67404072   439061 
 4741000   0.44986928   -3.2406432   -3.2406432   -2.5658408  0.010128838   -3.2406432   0.67480238   439061 
 4742000   0.45052157   -3.2419582   -3.2419582   -2.5661773  0.010251743   -3.2419582   0.67578082   439061 
 4743000   0.45105606   -3.2433638   -3.2433638   -2.5667812 0.0031846092   -3.2433638   0.67658256   439061 
 4744000   0.45067973   -3.2419508   -3.2419508   -2.5659328 0.0095506446   -3.2419508   0.67601806   439061 
 4745000   0.45081173   -3.2425067   -3.2425067   -2.5662906 0.0057810649   -3.2425067   0.67621606   439061 
 4746000   0.44963843   -3.2410413   -3.2410413   -2.5665852 0.0070959654   -3.2410413    0.6744561   439061 
 4747000   0.45098151    -3.243347    -3.243347   -2.5668763 0.0046821497    -3.243347   0.67647073   439061 
 4748000   0.45034867   -3.2427881   -3.2427881   -2.5672666 0.0090733688   -3.2427881   0.67552147   439061 
 4749000   0.45017496   -3.2426033   -3.2426033   -2.5673424  0.010180857   -3.2426033   0.67526091   439061 
 4750000   0.44991931   -3.2417948   -3.2417948   -2.5669173  0.010773025   -3.2417948   0.67487743   439061 
 4751000   0.44951827   -3.2414321   -3.2414321   -2.5671563 0.0086192055   -3.2414321   0.67427587   439061 
 4752000   0.44988006    -3.241705    -3.241705   -2.5668864 0.0059659106    -3.241705   0.67481856   439061 
 4753000   0.45040677   -3.2431481   -3.2431481   -2.5675395 0.0098571684   -3.2431481   0.67560862   439061 
 4754000   0.45074523   -3.2433693   -3.2433693    -2.567253 0.0072671768   -3.2433693   0.67611631   439061 
 4755000   0.45007358   -3.2425855   -3.2425855   -2.5674767 0.0072383069   -3.2425855   0.67510883   439061 
 4756000   0.44953398   -3.2409051   -3.2409051   -2.5666057 0.0073933861   -3.2409051   0.67429944   439061 
 4757000   0.44977236   -3.2418981   -3.2418981   -2.5672411 0.0059667937   -3.2418981   0.67465701   439061 
 4758000   0.44945679   -3.2418367   -3.2418367    -2.567653 0.0039912048   -3.2418367   0.67418365   439061 
 4759000   0.44970754   -3.2421955   -3.2421955   -2.5676357  0.005936559   -3.2421955   0.67455977   439061 
 4760000   0.45078897   -3.2436872   -3.2436872   -2.5675053  0.002223948   -3.2436872   0.67618191   439061 
 4761000   0.45133378   -3.2434283   -3.2434283   -2.5664292 0.0020451184   -3.2434283   0.67699913   439061 
 4762000   0.45015117   -3.2418887   -3.2418887   -2.5666634 0.0043587824   -3.2418887   0.67522522   439061 
 4763000   0.44987712   -3.2410938   -3.2410938   -2.5662796  0.010519603   -3.2410938   0.67481415   439061 
 4764000   0.45044853    -3.242321    -3.242321   -2.5666497 0.0083858163    -3.242321   0.67567126   439061 
 4765000   0.45033653   -3.2425627   -3.2425627   -2.5670595 0.0095129831   -3.2425627   0.67550326   439061 
 4766000   0.45105282   -3.2429353   -3.2429353   -2.5663576 0.0049328741   -3.2429353   0.67657769   439061 
 4767000   0.45001123   -3.2414507   -3.2414507   -2.5664354  0.010426688   -3.2414507    0.6750153   439061 
 4768000   0.45033722   -3.2418261   -3.2418261   -2.5663218 0.0054302499   -3.2418261   0.67550429   439061 
 4769000   0.45010363   -3.2415077   -3.2415077   -2.5663538  0.010962113   -3.2415077    0.6751539   439061 
 4770000   0.44982639   -3.2411764   -3.2411764   -2.5664383 0.0089367604   -3.2411764   0.67473806   439061 
 4771000   0.45011711   -3.2414346   -3.2414346   -2.5662605 0.0069430028   -3.2414346   0.67517412   439061 
 4772000   0.45028334    -3.242023    -3.242023   -2.5665995 0.0067009106    -3.242023   0.67542346   439061 
 4773000   0.44927172   -3.2408974   -3.2408974   -2.5669914 0.0041071297   -3.2408974   0.67390605   439061 
 4774000   0.44927055   -3.2415382   -3.2415382   -2.5676339 0.00060835595   -3.2415382   0.67390429   439061 
 4775000   0.44970451   -3.2422624   -3.2422624   -2.5677072 -0.0025094269   -3.2422624   0.67455522   439061 
 4776000   0.45028718    -3.242061    -3.242061   -2.5666317 0.0036127858    -3.242061   0.67542924   439061 
 4777000   0.45004343   -3.2417058   -3.2417058   -2.5666422   0.01039874   -3.2417058    0.6750636   439061 
 4778000   0.45041866   -3.2417538   -3.2417538   -2.5661273 0.0093504861   -3.2417538   0.67562645   439061 
 4779000   0.45022797   -3.2418362   -3.2418362   -2.5664957 0.0089277395   -3.2418362   0.67534042   439061 
 4780000   0.45121373   -3.2436598   -3.2436598   -2.5668407 0.0046312366   -3.2436598   0.67681905   439061 
 4781000   0.45019131   -3.2416468   -3.2416468   -2.5663614  0.012102114   -3.2416468   0.67528542   439061 
 4782000   0.45087786   -3.2428716   -3.2428716   -2.5665564  0.010917637   -3.2428716   0.67631524   439061 
 4783000    0.4503541   -3.2427445   -3.2427445   -2.5672149 0.0088348326   -3.2427445   0.67552961   439061 
 4784000   0.45023123    -3.243345    -3.243345   -2.5679997  0.003974726    -3.243345    0.6753453   439061 
 4785000   0.44962182   -3.2422682   -3.2422682    -2.567837 0.0054044011   -3.2422682    0.6744312   439061 
 4786000   0.45025367   -3.2427997   -3.2427997   -2.5674207 0.0044368898   -3.2427997   0.67537896   439061 
 4787000   0.45030935   -3.2426821   -3.2426821   -2.5672197  0.004377456   -3.2426821   0.67546248   439061 
 4788000   0.44954933   -3.2410563   -3.2410563   -2.5667338 0.0080582879   -3.2410563   0.67432246   439061 
 4789000   0.44982108   -3.2418041   -3.2418041   -2.5670741 0.0070663369   -3.2418041   0.67473008   439061 
 4790000   0.45001457   -3.2412844   -3.2412844    -2.566264 0.0086015888   -3.2412844   0.67502032   439061 
 4791000   0.44999857   -3.2416819   -3.2416819   -2.5666856 0.0084252062   -3.2416819   0.67499631   439061 
 4792000   0.44968544   -3.2419693   -3.2419693   -2.5674427 0.0065555067   -3.2419693   0.67452662   439061 
 4793000   0.45026446   -3.2420015   -3.2420015   -2.5666064    0.0096814   -3.2420015   0.67539515   439061 
 4794000   0.45017991    -3.241455    -3.241455   -2.5661867  0.010530432    -3.241455   0.67526832   439061 
 4795000   0.45061545   -3.2425644   -3.2425644   -2.5666427 0.0088516846   -3.2425644   0.67592164   439061 
 4796000   0.45028654   -3.2420576   -3.2420576   -2.5666293 0.0091619054   -3.2420576   0.67542827   439061 
 4797000   0.45008967   -3.2416487   -3.2416487   -2.5665157 0.0088437526   -3.2416487   0.67513297   439061 
 4798000   0.44909594   -3.2406618   -3.2406618   -2.5670194 0.0099923386   -3.2406618   0.67364237   439061 
 4799000   0.45127258   -3.2438805   -3.2438805   -2.5669732 0.0033066236   -3.2438805   0.67690733   439061 
 4800000   0.44921015   -3.2417399   -3.2417399   -2.5679262 0.0065943459   -3.2417399   0.67381369   439061 
 4801000   0.44987037   -3.2422489   -3.2422489   -2.5674449 0.0058735637   -3.2422489   0.67480402   439061 
 4802000   0.44961938   -3.2417305   -3.2417305    -2.567303 0.0025534233   -3.2417305   0.67442753   439061 
 4803000   0.44951984   -3.2415011   -3.2415011   -2.5672229 0.0068643748   -3.2415011   0.67427822   439061 
 4804000   0.45010176   -3.2421789   -3.2421789   -2.5670278 0.0088639663   -3.2421789    0.6751511   439061 
 4805000   0.45047487   -3.2426597   -3.2426597   -2.5669489 0.0058256947   -3.2426597   0.67571076   439061 
 4806000   0.44992832   -3.2431842   -3.2431842   -2.5682932 0.0029418288   -3.2431842   0.67489095   439061 
 4807000      0.45008   -3.2431586   -3.2431586   -2.5680402 0.0056469786   -3.2431586   0.67511846   439061 
 4808000   0.44975844   -3.2431347   -3.2431347   -2.5684986 0.0053532334   -3.2431347   0.67463613   439061 
 4809000   0.45029264   -3.2431043   -3.2431043   -2.5676669 0.0045285981   -3.2431043   0.67543743   439061 
 4810000   0.44982021    -3.242174    -3.242174   -2.5674452 0.0086590224    -3.242174   0.67472878   439061 
 4811000   0.45070744   -3.2437253   -3.2437253   -2.5676657 0.0064708084   -3.2437253   0.67605962   439061 
 4812000   0.45066966   -3.2438682   -3.2438682   -2.5678653  0.011034505   -3.2438682   0.67600296   439061 
 4813000   0.45054279   -3.2428943   -3.2428943   -2.5670817  0.011530875   -3.2428943   0.67581264   439061 
 4814000    0.4498403    -3.242312    -3.242312   -2.5675531  0.008235998    -3.242312   0.67475892   439061 
 4815000   0.44969227   -3.2431832   -3.2431832   -2.5686464 0.0080002363   -3.2431832   0.67453686   439061 
 4816000   0.44929905   -3.2420013   -3.2420013   -2.5680543 0.0068017572   -3.2420013   0.67394704   439061 
 4817000    0.4502825   -3.2435487   -3.2435487   -2.5681265 0.0019461438   -3.2435487   0.67542221   439061 
 4818000   0.45000305   -3.2425609   -3.2425609   -2.5675579    0.0079195   -3.2425609   0.67500304   439061 
 4819000    0.4501047    -3.242438    -3.242438   -2.5672825 0.0090962667    -3.242438   0.67515551   439061 
 4820000    0.4495616   -3.2420222   -3.2420222   -2.5676813 0.0079925819   -3.2420222   0.67434087   439061 
 4821000   0.44983922   -3.2421229   -3.2421229   -2.5673656 0.0056270283   -3.2421229   0.67475729   439061 
 4822000   0.45000648   -3.2423692   -3.2423692    -2.567361 -2.0805634e-05   -3.2423692   0.67500819   439061 
 4823000   0.44941336   -3.2417704   -3.2417704   -2.5676519 0.0090296037   -3.2417704   0.67411851   439061 
 4824000   0.45039943   -3.2427278   -3.2427278   -2.5671302 0.0078111963   -3.2427278    0.6755976   439061 
 4825000   0.45078147   -3.2426217   -3.2426217    -2.566451 0.0092957468   -3.2426217   0.67617067   439061 
 4826000   0.45043659   -3.2418396   -3.2418396   -2.5661862 0.0045000261   -3.2418396   0.67565335   439061 
 4827000   0.44969117    -3.241308    -3.241308   -2.5667727 0.0068052655    -3.241308   0.67453521   439061 
 4828000   0.44966062   -3.2417983   -3.2417983   -2.5673089 0.0057710179   -3.2417983   0.67448939   439061 
 4829000   0.44990297   -3.2422565   -3.2422565   -2.5674035 0.0085580269   -3.2422565   0.67485292   439061 
 4830000   0.45006365   -3.2427667   -3.2427667   -2.5676728 0.0060239067   -3.2427667   0.67509394   439061 
 4831000   0.45016058   -3.2426348   -3.2426348   -2.5673955 0.0078295759   -3.2426348   0.67523933   439061 
 4832000    0.4505828    -3.243287    -3.243287   -2.5674144 0.0089148593    -3.243287   0.67587267   439061 
 4833000   0.45026711   -3.2431766   -3.2431766   -2.5677775 0.0056141162   -3.2431766   0.67539912   439061 
 4834000   0.44962571    -3.241765    -3.241765   -2.5673279     0.008287    -3.241765   0.67443703   439061 
 4835000   0.45098639   -3.2435686   -3.2435686   -2.5670905 0.0044958814   -3.2435686   0.67647805   439061 
 4836000   0.45036395   -3.2425536   -3.2425536   -2.5670093 0.0087375017   -3.2425536   0.67554439   439061 
 4837000   0.45114242   -3.2430632   -3.2430632   -2.5663511 0.0068198564   -3.2430632   0.67671208   439061 
 4838000   0.45063805   -3.2426015   -3.2426015    -2.566646 0.0087271361   -3.2426015   0.67595554   439061 
 4839000   0.45015461   -3.2418586   -3.2418586   -2.5666283  0.010843138   -3.2418586   0.67523038   439061 
 4840000   0.45019228   -3.2420827   -3.2420827   -2.5667959 0.0021090022   -3.2420827   0.67528688   439061 
 4841000   0.45012693   -3.2421799   -3.2421799   -2.5669911 0.0022489478   -3.2421799   0.67518885   439061 
 4842000   0.44942172   -3.2411712   -3.2411712   -2.5670402 0.0044866286   -3.2411712   0.67413104   439061 
 4843000   0.45021287   -3.2420094   -3.2420094   -2.5666917 0.0016989662   -3.2420094   0.67531777   439061 
 4844000    0.4493387   -3.2408666   -3.2408666     -2.56686 0.0063684806   -3.2408666   0.67400652   439061 
 4845000   0.45003076    -3.241842    -3.241842   -2.5667974 0.0051774938    -3.241842   0.67504461   439061 
 4846000   0.44951417   -3.2414645   -3.2414645   -2.5671948 0.0056667181   -3.2414645   0.67426973   439061 
 4847000   0.44966832   -3.2419867   -3.2419867   -2.5674857 0.0016651685   -3.2419867   0.67450095   439061 
 4848000    0.4498507   -3.2419807   -3.2419807   -2.5672062 0.0052471171   -3.2419807   0.67477451   439061 
 4849000   0.45069734   -3.2429725   -3.2429725    -2.566928 0.0080532266   -3.2429725   0.67604447   439061 
 4850000   0.45058466   -3.2427308   -3.2427308   -2.5668553  0.011461055   -3.2427308   0.67587545   439061 
 4851000   0.45064298   -3.2431288   -3.2431288   -2.5671658  0.011603155   -3.2431288   0.67596292   439061 
 4852000    0.4499114   -3.2424941   -3.2424941   -2.5676286  0.012038761   -3.2424941   0.67486557   439061 
 4853000   0.45003054   -3.2429417   -3.2429417   -2.5678974 0.0079848098   -3.2429417   0.67504428   439061 
 4854000   0.44999462    -3.243194    -3.243194   -2.5682037  0.013024014    -3.243194   0.67499039   439061 
 4855000   0.44997816   -3.2426608   -3.2426608   -2.5676951  0.012421586   -3.2426608   0.67496571   439061 
 4856000   0.45109373   -3.2443915   -3.2443915   -2.5677525 0.0077095632   -3.2443915   0.67663905   439061 
 4857000   0.45046674    -3.242562    -3.242562   -2.5668634  0.011645869    -3.242562   0.67569858   439061 
 4858000   0.45053066   -3.2420923   -3.2420923   -2.5662978 0.0072252034   -3.2420923   0.67579445   439061 
 4859000   0.45014436    -3.241481    -3.241481    -2.566266  0.005693852    -3.241481     0.675215   439061 
 4860000   0.44973371    -3.240878    -3.240878    -2.566279 0.0041879118    -3.240878   0.67459902   439061 
 4861000   0.44928486   -3.2411428   -3.2411428   -2.5672171 0.0031703325   -3.2411428   0.67392576   439061 
 4862000   0.44995744   -3.2408722   -3.2408722   -2.5659376 0.0022612504   -3.2408722   0.67493462   439061 
 4863000   0.44947308   -3.2407443   -3.2407443   -2.5665362 0.0049634305   -3.2407443   0.67420808   439061 
 4864000    0.4490952   -3.2406166   -3.2406166   -2.5669753 0.0014796155   -3.2406166   0.67364127   439061 
 4865000   0.44973215   -3.2416704   -3.2416704   -2.5670737 0.0035039806   -3.2416704   0.67459669   439061 
 4866000   0.44942401   -3.2413691   -3.2413691   -2.5672347 0.0087558441   -3.2413691   0.67413449   439061 
 4867000   0.45041939   -3.2428606   -3.2428606   -2.5672331 0.0045383133   -3.2428606   0.67562754   439061 
 4868000   0.45010085   -3.2423972   -3.2423972   -2.5672475  0.011170412   -3.2423972   0.67514974   439061 
 4869000   0.45079797   -3.2440188   -3.2440188   -2.5678234 0.0072330633   -3.2440188   0.67619542   439061 
 4870000   0.45050127     -3.24377     -3.24377   -2.5680196 0.0077383359     -3.24377   0.67575037   439061 
 4871000    0.4503477   -3.2429268   -3.2429268   -2.5674068  0.013903282   -3.2429268      0.67552   439061 
 4872000   0.45090942   -3.2444075   -3.2444075   -2.5680449 0.0069356202   -3.2444075   0.67636259   439061 
 4873000   0.45023292   -3.2432965   -3.2432965   -2.5679487  0.012293719   -3.2432965   0.67534784   439061 
 4874000    0.4494557   -3.2425695   -3.2425695   -2.5683875 0.0096108621   -3.2425695   0.67418201   439061 
 4875000    0.4504021   -3.2436502   -3.2436502   -2.5680486 0.0064849727   -3.2436502   0.67560161   439061 
 4876000   0.44977776   -3.2433002   -3.2433002   -2.5686351 0.0058922593   -3.2433002    0.6746651   439061 
 4877000   0.44935223   -3.2428589   -3.2428589   -2.5688321 0.0082129053   -3.2428589   0.67402681   439061 
 4878000   0.44931621   -3.2423466   -3.2423466   -2.5683738 0.0045972502   -3.2423466   0.67397278   439061 
 4879000   0.45029743   -3.2423742   -3.2423742   -2.5669296 0.0063503622   -3.2423742   0.67544461   439061 
 4880000   0.44937934   -3.2411583   -3.2411583   -2.5670908 0.0076495609   -3.2411583   0.67406747   439061 
 4881000   0.44987703    -3.241414    -3.241414   -2.5665999 0.0039687048    -3.241414   0.67481401   439061 
 4882000    0.4503411   -3.2418377   -3.2418377   -2.5663276 0.0053981806   -3.2418377   0.67551011   439061 
 4883000   0.45014551   -3.2413543   -3.2413543   -2.5661375 0.0073918501   -3.2413543   0.67521673   439061 
 4884000   0.45048986   -3.2416221   -3.2416221   -2.5658889  0.006129179   -3.2416221   0.67573324   439061 
 4885000   0.45040399   -3.2416777   -3.2416777   -2.5660733 0.0040116761   -3.2416777   0.67560445   439061 
 4886000   0.45046372   -3.2418914   -3.2418914   -2.5661974 0.0069164756   -3.2418914   0.67569404   439061 
 4887000   0.44987342   -3.2411623   -3.2411623   -2.5663537 0.0048120375   -3.2411623   0.67480859   439061 
 4888000   0.44985395   -3.2403056   -3.2403056   -2.5655263 0.0067449471   -3.2403056   0.67477939   439061 
 4889000   0.45058732   -3.2409986   -3.2409986   -2.5651191  0.010435253   -3.2409986   0.67587944   439061 
 4890000   0.45088799   -3.2415073   -3.2415073   -2.5651769  0.010695607   -3.2415073   0.67633045   439061 
 4891000   0.45077825   -3.2412433   -3.2412433   -2.5650774 0.0090438481   -3.2412433   0.67616583   439061 
 4892000   0.44996093   -3.2409414   -3.2409414   -2.5660016 0.0071311955   -3.2409414   0.67493986   439061 
 4893000   0.45024681   -3.2408199   -3.2408199   -2.5654512 0.0063296403   -3.2408199   0.67536867   439061 
 4894000   0.44993273   -3.2402677   -3.2402677   -2.5653701 0.0054599045   -3.2402677   0.67489755   439061 
 4895000   0.44974092   -3.2396999   -3.2396999   -2.5650901 0.0069342047   -3.2396999   0.67460984   439061 
 4896000   0.45091256   -3.2406815   -3.2406815   -2.5643142 0.0075758647   -3.2406815    0.6763673   439061 
 4897000   0.44997994   -3.2399727   -3.2399727   -2.5650043 0.0066041537   -3.2399727   0.67496837   439061 
 4898000   0.44963983    -3.239378    -3.239378   -2.5649198 0.0058875092    -3.239378    0.6744582   439061 
 4899000   0.44998892   -3.2400205   -3.2400205   -2.5650387   0.00329183   -3.2400205   0.67498184   439061 
 4900000   0.45049687   -3.2403733   -3.2403733   -2.5646296 0.0033476029   -3.2403733   0.67574376   439061 
 4901000   0.45065103   -3.2403609   -3.2403609   -2.5643859 0.0055910094   -3.2403609     0.675975   439061 
 4902000   0.45039852   -3.2400202   -3.2400202   -2.5644239 0.0090711163   -3.2400202   0.67559624   439061 
 4903000   0.45086358    -3.240576    -3.240576   -2.5642821 0.0087291509    -3.240576   0.67629384   439061 
 4904000   0.45100039   -3.2409755   -3.2409755   -2.5644764 0.0054977358   -3.2409755   0.67649905   439061 
 4905000   0.45072361   -3.2412679   -3.2412679    -2.565184 0.0046243674   -3.2412679   0.67608387   439061 
 4906000    0.4498157    -3.240344    -3.240344    -2.565622 0.0099884697    -3.240344   0.67472201   439061 
 4907000   0.45073566    -3.241657    -3.241657    -2.565555 0.0043302686    -3.241657   0.67610195   439061 
 4908000   0.44991716   -3.2390315   -3.2390315   -2.5641573   0.01182569   -3.2390315   0.67487421   439061 
 4909000   0.45056843   -3.2399066   -3.2399066   -2.5640555  0.010700577   -3.2399066   0.67585111   439061 
 4910000   0.44999197   -3.2402105   -3.2402105   -2.5652241 0.0079416791   -3.2402105   0.67498642   439061 
 4911000   0.45035028   -3.2413733   -3.2413733   -2.5658494 -0.00025850322   -3.2413733   0.67552388   439061 
 4912000   0.44936882   -3.2396586   -3.2396586   -2.5656069 0.0054117911   -3.2396586    0.6740517   439061 
 4913000   0.44909503   -3.2392571   -3.2392571   -2.5656161 0.0047723188   -3.2392571   0.67364101   439061 
 4914000   0.44984589   -3.2403576   -3.2403576   -2.5655903 0.0072343527   -3.2403576   0.67476729   439061 
 4915000   0.45041761    -3.240756    -3.240756   -2.5651311 0.0074314451    -3.240756   0.67562488   439061 
 4916000   0.44978637   -3.2401985   -3.2401985   -2.5655205 0.0073642799   -3.2401985   0.67467801   439061 
 4917000   0.45036571   -3.2411429   -3.2411429   -2.5655959 0.0080262757   -3.2411429   0.67554703   439061 
 4918000    0.4500845   -3.2408807   -3.2408807   -2.5657554 0.0062801543   -3.2408807   0.67512522   439061 
 4919000   0.45038308     -3.24027     -3.24027   -2.5646969 0.0080627096     -3.24027   0.67557308   439061 
 4920000   0.44997333   -3.2400653   -3.2400653   -2.5651068 0.0079064441   -3.2400653   0.67495846   439061 
 4921000   0.45010917   -3.2410459   -3.2410459   -2.5658837 0.0082467416   -3.2410459   0.67516222   439061 
 4922000   0.45038573   -3.2409592   -3.2409592   -2.5653822 0.0078208996   -3.2409592   0.67557705   439061 
 4923000   0.44998807   -3.2411851   -3.2411851   -2.5662046 0.0091855857   -3.2411851   0.67498056   439061 
 4924000    0.4507681    -3.242014    -3.242014   -2.5658634 0.0072154641    -3.242014   0.67615062   439061 
 4925000   0.45017466   -3.2413671   -3.2413671   -2.5661067 0.0068217168   -3.2413671   0.67526045   439061 
 4926000   0.45064867   -3.2424265   -3.2424265    -2.566455 0.0041026653   -3.2424265   0.67597147   439061 
 4927000    0.4507889   -3.2420546   -3.2420546   -2.5658728 0.0071372419   -3.2420546   0.67618181   439061 
 4928000   0.45057512   -3.2418484   -3.2418484   -2.5659873 0.0088470154   -3.2418484   0.67586113   439061 
 4929000   0.45067961   -3.2419855   -3.2419855   -2.5659677 0.0043956391   -3.2419855   0.67601788   439061 
 4930000   0.45023963   -3.2411163   -3.2411163   -2.5657584  0.013375278   -3.2411163   0.67535791   439061 
 4931000   0.45109014   -3.2417962   -3.2417962   -2.5651625 0.0093078895   -3.2417962   0.67663366   439061 
 4932000    0.4502044   -3.2410152   -3.2410152   -2.5657102 0.0092221388   -3.2410152   0.67530507   439061 
 4933000   0.44994203   -3.2409433   -3.2409433   -2.5660318 0.0072226743   -3.2409433    0.6749115   439061 
 4934000    0.4498656   -3.2414037   -3.2414037   -2.5666069 0.0062413474   -3.2414037   0.67479686   439061 
 4935000   0.44928649    -3.240917    -3.240917   -2.5669888 0.0049631876    -3.240917   0.67392819   439061 
 4936000   0.44976287    -3.241039    -3.241039   -2.5663963 0.0061137312    -3.241039   0.67464277   439061 
 4937000   0.45073854   -3.2421614   -3.2421614   -2.5660551  0.002906324   -3.2421614   0.67610627   439061 
 4938000   0.45074594   -3.2415671   -3.2415671   -2.5654497 0.0053198873   -3.2415671   0.67611737   439061 
 4939000   0.45135956   -3.2419048   -3.2419048    -2.564867 0.0061494944   -3.2419048   0.67703779   439061 
 4940000   0.45134572   -3.2412687   -3.2412687   -2.5642517  0.011098253   -3.2412687   0.67701703   439061 
 4941000   0.45072993   -3.2409882   -3.2409882   -2.5648948 0.0099597672   -3.2409882   0.67609335   439061 
 4942000   0.45082938   -3.2404359   -3.2404359   -2.5641934 0.0073934559   -3.2404359   0.67624253   439061 
 4943000   0.45083306   -3.2402092   -3.2402092   -2.5639611 0.0085324267   -3.2402092   0.67624805   439061 
 4944000   0.45067342   -3.2396515   -3.2396515   -2.5636429 0.0048448279   -3.2396515   0.67600859   439061 
 4945000    0.4503538   -3.2402683   -3.2402683   -2.5647391 0.0021124979   -3.2402683   0.67552917   439061 
 4946000   0.45002959    -3.240581    -3.240581   -2.5655382 0.0046616394    -3.240581   0.67504284   439061 
 4947000   0.44986906   -3.2399993   -3.2399993   -2.5651972 0.00098703641   -3.2399993   0.67480205   439061 
 4948000   0.44965403   -3.2391718   -3.2391718   -2.5646923 0.0026434836   -3.2391718   0.67447952   439061 
 4949000   0.44921094   -3.2391133   -3.2391133   -2.5652984 0.0053977386   -3.2391133   0.67381488   439061 
 4950000   0.44946999   -3.2393586   -3.2393586   -2.5651552 0.0061925297   -3.2393586   0.67420345   439061 
 4951000   0.45067631   -3.2405936   -3.2405936   -2.5645807 0.0069118729   -3.2405936   0.67601292   439061 
 4952000   0.45095561   -3.2409102   -3.2409102   -2.5644783 0.0068674857   -3.2409102   0.67643188   439061 
 4953000   0.45087571   -3.2408863   -3.2408863   -2.5645743 0.0083803689   -3.2408863   0.67631202   439061 
 4954000   0.45120084     -3.24163     -3.24163   -2.5648303 0.0072249559     -3.24163   0.67679972   439061 
 4955000   0.45019083   -3.2411193   -3.2411193   -2.5658346 0.0091920322   -3.2411193    0.6752847   439061 
 4956000    0.4505029   -3.2418658   -3.2418658    -2.566113 0.0059256644   -3.2418658    0.6757528   439061 
 4957000   0.45050684   -3.2410714   -3.2410714   -2.5653126 0.0066993674   -3.2410714   0.67575872   439061 
 4958000   0.45096852   -3.2420033   -3.2420033   -2.5655521   0.00614852   -3.2420033   0.67645124   439061 
 4959000   0.45006249   -3.2408264   -3.2408264   -2.5657342 0.0059455981   -3.2408264    0.6750922   439061 
 4960000   0.45093257   -3.2418446   -3.2418446   -2.5654473 0.0079787313   -3.2418446   0.67639731   439061 
 4961000   0.45097034   -3.2412646   -3.2412646   -2.5648107  0.011256394   -3.2412646   0.67645396   439061 
 4962000    0.4505048   -3.2407976   -3.2407976    -2.565042 0.0086172577   -3.2407976   0.67575567   439061 
 4963000   0.45018057   -3.2402577   -3.2402577   -2.5649884 0.0078778422   -3.2402577   0.67526932   439061 
 4964000   0.45023285   -3.2406238   -3.2406238    -2.565276 0.0066513902   -3.2406238   0.67534774   439061 
 4965000   0.44965976   -3.2399872   -3.2399872   -2.5654991 0.0037267403   -3.2399872   0.67448811   439061 
 4966000   0.45013254   -3.2406283   -3.2406283    -2.565431 0.0071300077   -3.2406283   0.67519727   439061 
 4967000   0.44997714   -3.2397217   -3.2397217   -2.5647576   0.00925299   -3.2397217   0.67496417   439061 
 4968000   0.45079582   -3.2400679   -3.2400679   -2.5638757 0.0073869544   -3.2400679    0.6761922   439061 
 4969000    0.4496931   -3.2391227   -3.2391227   -2.5645845 0.0024722148   -3.2391227   0.67453812   439061 
 4970000   0.45035417   -3.2402744   -3.2402744   -2.5647447 0.0039537343   -3.2402744   0.67552972   439061 
 4971000   0.45031348   -3.2402145   -3.2402145   -2.5647459 0.0044430479   -3.2402145   0.67546869   439061 
 4972000   0.45004028   -3.2403985   -3.2403985   -2.5653396 0.0066881082   -3.2403985   0.67505889   439061 
 4973000   0.45100039   -3.2425168   -3.2425168   -2.5660178 0.0031434195   -3.2425168   0.67649905   439061 
 4974000   0.45045779   -3.2412092   -3.2412092   -2.5655241 0.0040446581   -3.2412092   0.67568514   439061 
 4975000    0.4499551   -3.2405056   -3.2405056   -2.5655745 0.0059231543   -3.2405056   0.67493111   439061 
 4976000   0.45055338   -3.2411012   -3.2411012   -2.5652727 0.0082785092   -3.2411012   0.67582853   439061 
 4977000   0.45074067   -3.2413249   -3.2413249   -2.5652155 0.0093762414   -3.2413249   0.67610947   439061 
 4978000   0.45076781   -3.2404271   -3.2404271   -2.5642769  0.012189168   -3.2404271   0.67615018   439061 
 4979000   0.45146358   -3.2426683   -3.2426683   -2.5654745 0.0045271301   -3.2426683   0.67719384   439061 
 4980000    0.4501349   -3.2412176   -3.2412176   -2.5660168 0.0065261931   -3.2412176   0.67520081   439061 
 4981000   0.44999429   -3.2405252   -3.2405252   -2.5655353 0.0047376066   -3.2405252   0.67498989   439061 
 4982000   0.45072742   -3.2413576   -3.2413576    -2.565268 0.0047745279   -3.2413576    0.6760896   439061 
 4983000   0.45047563   -3.2414875   -3.2414875   -2.5657756 0.0065479179   -3.2414875   0.67571191   439061 
 4984000   0.45112578   -3.2415352   -3.2415352   -2.5648481 0.0089018498   -3.2415352   0.67668713   439061 
 4985000   0.45093159   -3.2414664   -3.2414664   -2.5650706 0.0052546866   -3.2414664   0.67639585   439061 
 4986000   0.45031494   -3.2409852   -3.2409852   -2.5655144  0.004202557   -3.2409852   0.67547087   439061 
 4987000   0.45030314   -3.2402115   -3.2402115   -2.5647583 0.0042600231   -3.2402115   0.67545317   439061 
 4988000   0.45007566   -3.2397036   -3.2397036   -2.5645916 0.0071936295   -3.2397036   0.67511195   439061 
 4989000   0.45109674   -3.2402697   -3.2402697   -2.5636261  0.010511831   -3.2402697   0.67664357   439061 
 4990000   0.45003131   -3.2400147   -3.2400147   -2.5649693  0.010171775   -3.2400147   0.67504543   439061 
 4991000   0.45057797   -3.2415473   -3.2415473   -2.5656819 0.0079817329   -3.2415473   0.67586542   439061 
 4992000   0.44990273   -3.2408091   -3.2408091   -2.5659565 0.0045360834   -3.2408091   0.67485255   439061 
 4993000   0.44981286    -3.241098    -3.241098   -2.5663803 0.0050099245    -3.241098   0.67471775   439061 
 4994000   0.44927188   -3.2407893   -3.2407893    -2.566883 0.0074865668   -3.2407893   0.67390629   439061 
 4995000   0.45005271   -3.2415133   -3.2415133   -2.5664357 0.0092291771   -3.2415133   0.67507752   439061 
 4996000   0.45013529   -3.2405548   -3.2405548   -2.5653534  0.011857945   -3.2405548    0.6752014   439061 
 4997000   0.45069666     -3.24084     -3.24084   -2.5647966 0.0085242361     -3.24084   0.67604345   439061 
 4998000   0.45150295   -3.2416281   -3.2416281   -2.5643752 0.0084372175   -3.2416281   0.67725288   439061 
 4999000   0.45167184   -3.2418716   -3.2418716   -2.5643653 0.0053450247   -3.2418716   0.67750621   439061 
 5000000   0.45091758   -3.2409269   -3.2409269   -2.5645521 0.0077976474   -3.2409269   0.67637483   439061 
Loop time of 6567.9 on 192 procs for 5000000 steps with 439061 atoms

Performance: 328872.075 tau/day, 761.278 timesteps/s
90.4% CPU use with 192 MPI tasks x 1 OpenMP threads

MPI task timing breakdown:
Section |  min time  |  avg time  |  max time  |%varavg|  %CPU | %total
-----------------------------------------------------------------------
Pair    | 2200.8     | 3044.2     | 3365.2     | 560.2 |  92.2 | 46.35
Bond    | 3.138      | 3.3383     | 3.5458     |   4.8 | 100.0 |  0.05
Neigh   | 823.25     | 1066.3     | 1144.3     | 260.7 |  97.9 | 16.23
Comm    | 1038.5     | 1743.5     | 2840.5     |1057.4 |  87.4 | 26.55
Output  | 275.49     | 275.89     | 275.91     |   0.2 |  67.2 |  4.20
Modify  | 131.48     | 243.55     | 641.78     |1182.2 |  90.8 |  3.71
Other   |            | 191.1      |            |       |       |  2.91

Nlocal:        2286.78 ave        2501 max        1952 min
Histogram: 1 0 0 2 4 63 116 3 1 2
Nghost:        3032.95 ave        3284 max        2332 min
Histogram: 40 8 0 0 0 0 0 0 0 144
Neighs:        51211.9 ave       53581 max       36137 min
Histogram: 1 0 2 5 4 8 3 1 40 128

Total # of neighbors = 9832685
Ave neighs/atom = 22.394804
Ave special neighs/atom = 0.0000000
Neighbor list builds = 449606
Dangerous builds = 97262
write_data	data.lj
System init for write_data ...


## Evaporation
#region          regevap block EDGE EDGE EDGE EDGE 140 EDGE units box
#fix             4 solvent evaporate ${evap} 1 regevap 156415

#run 		20000000
Total wall time: 1:49:31
