LAMMPS (24 Dec 2020)
OMP_NUM_THREADS environment is not set. Defaulting to 1 thread. (src/comm.cpp:94)
  using 1 OpenMP thread(s) per MPI task
#Read the equilibrated lj fluid and add nanocubes

units           lj
atom_style      full
atom_modify     map array first cubes
dimension       3
boundary        p p f
pair_style      lj/cut/opt 2.5

variable        sigma           equal 1.0
variable        epsilon         equal 1.0
read_restart	restart.dat.2000000
Reading restart file ...
  restart file = 24 Dec 2020, LAMMPS = 24 Dec 2020
  restoring atom style full from restart
  orthogonal box = (0.0000000 0.0000000 0.0000000) to (80.000000 80.000000 160.00000)
  4 by 4 by 9 MPI processor grid
  restoring pair style lj/cut/opt from restart
  528085 atoms
Finding 1-2 1-3 1-4 neighbors ...
  special bond factors lj:    0        0        0       
  special bond factors coul:  0        0        0       
     0 = max # of 1-2 neighbors
     0 = max # of 1-3 neighbors
     0 = max # of 1-4 neighbors
     1 = max # of special neighbors
  special bonds CPU = 0.927 seconds
  read_restart CPU = 1.269 seconds

group		solvent type 1
240049 atoms in group solvent


group 		hull  type 2
112392 atoms in group hull
group 		dummy type 3
175644 atoms in group dummy

neighbor      0.4 bin
neigh_modify  exclude molecule/intra cubes


pair_modify   shift yes

pair_coeff    1 1 1.0 1.0 #solvent
pair_coeff    2 2 1.0 1.0 1.12 #np
pair_coeff    3 3 0.0 0.0 0.0 #dummy
pair_coeff    2 3 0.0 0.0 0.0 #np dummy
pair_coeff    1 2 ${sol} 1.0 #np solvent
pair_coeff    1 2 1.0 1.0 
pair_coeff    1 3 0.0 0.0 2.5 #dummy solvent

# delete solvent where the cubes are
delete_atoms  overlap 1.0 solvent cubes
System init for delete_atoms ...
Unused restart file global fix info:
  fix style: STORE, fix ID: msd_COMPUTE_STORE
Unused restart file peratom fix info:
  fix style: STORE, fix ID: bin1_COMPUTE_STORE
Neighbor list info ...
  update every 1 steps, delay 10 steps, check yes
  max neighbors/atom: 2000, page size: 100000
  master list distance cutoff = 2.9
  ghost atom cutoff = 7.21
  binsize = 1.45, bins = 56 56 111
  2 neighbor lists, perpetual/occasional/extra = 1 1 0
  (1) command delete_atoms, occasional
      attributes: full, newton on
      pair build: full/bin
      stencil: full/bin/3d
      bin: standard
  (2) pair lj/cut/opt, perpetual
      attributes: half, newton on
      pair build: half/bin/newton
      stencil: half/bin/3d/newton
      bin: standard
WARNING: Delete_atoms cutoff > minimum neighbor cutoff (src/delete_atoms.cpp:307)
WARNING: Ignoring 'compress yes' for molecular system (src/delete_atoms.cpp:125)
Deleted 6150 atoms, new total = 521935



pair_coeff    1 1 1.0 1.0 #solvent
pair_coeff    2 2 1.0 1.0 1.12 #np
pair_coeff    3 3 0.0 0.0 0.0 #dummy
pair_coeff    2 3 0.0 0.0 0.0 #np dummy
pair_coeff    1 2 ${sol} 1.0 #np solvent
pair_coeff    1 2 1.0 1.0 
pair_coeff    1 3 0.0 0.0 0.0 #dummy solvent


comm_modify   mode multi cutoff/multi 1 2.5 cutoff/multi 2 2.5 cutoff/multi 3 7.21

reset_timestep 	0

balance 	1.05 shift z 10 1.05
Balancing ...
Neighbor list info ...
  update every 1 steps, delay 10 steps, check yes
  max neighbors/atom: 2000, page size: 100000
  master list distance cutoff = 2.9
  ghost atom cutoff = 7.21
  binsize = 1.45, bins = 56 56 111
  1 neighbor lists, perpetual/occasional/extra = 1 0 0
  (1) pair lj/cut/opt, perpetual
      attributes: half, newton on
      pair build: half/bin/newton
      stencil: half/bin/3d/newton
      bin: standard
 rebalancing time: 0.012 seconds
  iteration count = 6
  initial/final maximal load/proc = 5926.0000 4618.0000
  initial/final imbalance factor  = 1.6349622 1.2740897
  x cuts: 0.0000000 0.25000000 0.50000000 0.75000000 1.0000000
  y cuts: 0.0000000 0.25000000 0.50000000 0.75000000 1.0000000
  z cuts: 0.0000000 0.074652778 0.14756944 0.21875000 0.29513889 0.36458333 0.44270833 0.51215278 0.60243056 1.0000000

####################### WALLS ###########################

variable       epsilonWall equal 2*${epsilon}
variable       epsilonWall equal 2*1
variable       repulsive   equal   0.7147*${sigma}
variable       repulsive   equal   0.7147*1
variable       full	   equal   3*${sigma}
variable       full	   equal   3*1
region         lowWall block EDGE EDGE EDGE EDGE EDGE 2

fix            topWall all wall/lj93 zhi EDGE 	       ${epsilonWall} ${sigma} ${repulsive} units box
fix            topWall all wall/lj93 zhi EDGE 	       2 ${sigma} ${repulsive} units box
fix            topWall all wall/lj93 zhi EDGE 	       2 1 ${repulsive} units box
fix            topWall all wall/lj93 zhi EDGE 	       2 1 0.7147 units box
fix            lowSol solvent wall/lj93 zlo EDGE                ${epsilonWall} ${sigma} ${full} units box
fix            lowSol solvent wall/lj93 zlo EDGE                2 ${sigma} ${full} units box
fix            lowSol solvent wall/lj93 zlo EDGE                2 1 ${full} units box
fix            lowSol solvent wall/lj93 zlo EDGE                2 1 3 units box
fix 	       lowCub cubes wall/lj93 zlo EDGE                ${epsilonWall} ${sigma} ${repulsive} units box
fix 	       lowCub cubes wall/lj93 zlo EDGE                2 ${sigma} ${repulsive} units box
fix 	       lowCub cubes wall/lj93 zlo EDGE                2 1 ${repulsive} units box
fix 	       lowCub cubes wall/lj93 zlo EDGE                2 1 0.7147 units box


###################### COMPUTES ##########################

compute        bin1 solvent chunk/atom bin/1d z lower 1.0 units box


######################  FIXES ############################


fix             peclet solvent ave/chunk 10 10 10000 bin1 density/number norm                  none ave one file density.profile

fix              temp solvent ave/chunk 10 10 10000 bin1 temp norm                  none ave one file temp.profile

fix             1 cubes rigid/nve/small molecule
  create bodies CPU = 0.003 seconds
  252 rigid bodies with 288036 atoms
  7.2033327 = max distance from body owner to body atom

fix             2 solvent nve# temp ${temp} ${temp} 10


## Thermostat
region          regthermo block EDGE EDGE EDGE EDGE 0 15
group           thermo dynamic solvent region regthermo every 1000
dynamic group thermo defined
fix             3 thermo langevin ${temp} ${temp} 10 156453
fix             3 thermo langevin 1.0 ${temp} 10 156453
fix             3 thermo langevin 1.0 1.0 10 156453


#### Load balancing

fix             bal all balance 1000 1.05 shift z 10 1.05

############### Diagnostics and computes ###################

compute        	com cubes          rigid/local   1 mol x y z
compute        	quat cubes         rigid/local   1 mol quatw quati quatj quatk

compute 	cc2 cubes 	   chunk/atom 	 molecule
compute 	msd cubes 	   msd/chunk 	 cc2

fix 		msd all ave/time  1 1 10000 c_msd[*] file dump.msd ave one mode vector

dump            1 all custom 500000 dump.lammpstrj id mol type x y z
dump		cubetrj hull custom 500000 cubes.lammpstrj id mol type x y z
dump            com cubes local 10000 dump.*.xyz c_com[*]
dump	        xyz hull xyz 100000 cubes.xyz
dump            quat cubes      local 10000 dump.*.quat c_quat[*]
#dump		mol cubes molfile 10000 mol.xyz xyz


dump            2 all image 10000 image.*.png type type
dump_modify     2 pad 8
dump		image cubes image 10000 image_cubes.*.png type type
dump_modify	image pad 8
dump            3 all movie 5000 movie.avi type type
dump		4 cubes movie 5000 movie_cubes.avi type type


thermo          1000
thermo_style    custom step temp epair evdwl etotal press pe ke atoms

restart         1000000 restart.dat
timestep        0.005
timer           full
New timer settings: style=full  mode=nosync  timeout=off

run 		4000000
Per MPI rank memory allocation (min/avg/max) = 15.80 | 24.93 | 26.18 Mbytes
Step Temp E_pair E_vdwl TotEng Press PotEng KinEng Atoms 
       0    1.0433111   -1.6357224   -1.6357224  -0.93289292  -0.34280299   -1.6357224   0.70282946   521935 
    1000    1.0434259   -1.6363959   -1.6363959   -0.9334891  0.060532486   -1.6363959   0.70290685   521935 
    2000    1.0464765   -1.6382188   -1.6382188  -0.93325695  0.060279386   -1.6382188   0.70496188   521935 
    3000    1.0478528   -1.6389596   -1.6389596  -0.93307054   0.07733268   -1.6389596   0.70588904   521935 
    4000    1.0489259   -1.6403398   -1.6403398  -0.93372786  0.079903945   -1.6403398    0.7066119   521935 
    5000    1.0498001   -1.6410911   -1.6410911  -0.93389029  0.071795639   -1.6410911   0.70720085   521935 
    6000    1.0498133   -1.6421885   -1.6421885  -0.93497878  0.076589368   -1.6421885   0.70720972   521935 
    7000    1.0508788   -1.6435558   -1.6435558   -0.9356283  0.080124503   -1.6435558   0.70792752   521935 
    8000    1.0510052   -1.6442282   -1.6442282  -0.93621556  0.077431349   -1.6442282   0.70801265   521935 
    9000    1.0508062   -1.6451798   -1.6451798  -0.93730125   0.10369849   -1.6451798   0.70787859   521935 
   10000    1.0492306   -1.6453291   -1.6453291  -0.93851189  0.081755675   -1.6453291   0.70681717   521935 
   11000    1.0503395   -1.6462122   -1.6462122  -0.93864797  0.082066626   -1.6462122   0.70756422   521935 
   12000    1.0520533   -1.6485819   -1.6485819  -0.93986327  0.081031154   -1.6485819   0.70871867   521935 
   13000    1.0494237   -1.6472968   -1.6472968  -0.94034957  0.088094247   -1.6472968   0.70694723   521935 
   14000    1.0496621   -1.6473261   -1.6473261  -0.94021823  0.083582285   -1.6473261   0.70710785   521935 
   15000    1.0484174   -1.6460985   -1.6460985  -0.93982914  0.077384794   -1.6460985   0.70626937   521935 
   16000    1.0488922   -1.6476359   -1.6476359  -0.94104663  0.088465915   -1.6476359   0.70658923   521935 
   17000    1.0521655   -1.6492963   -1.6492963  -0.94050205  0.083896586   -1.6492963   0.70879427   521935 
   18000    1.0522757   -1.6491376   -1.6491376  -0.94026913  0.081109151   -1.6491376   0.70886851   521935 
   19000    1.0492068   -1.6473163   -1.6473163  -0.94051512  0.091048197   -1.6473163   0.70680118   521935 
   20000     1.049732   -1.6481629   -1.6481629  -0.94100796  0.060271295   -1.6481629   0.70715492   521935 
   21000    1.0497766   -1.6479367   -1.6479367  -0.94075176  0.084088436   -1.6479367   0.70718497   521935 
   22000    1.0498675    -1.647865    -1.647865  -0.94061879  0.073769503    -1.647865   0.70724624   521935 
   23000    1.0505988   -1.6482595   -1.6482595  -0.94052068  0.083689351   -1.6482595   0.70773885   521935 
   24000    1.0487665   -1.6460032   -1.6460032  -0.93949869  0.090931324   -1.6460032   0.70650454   521935 
   25000    1.0466971    -1.645301    -1.645301  -0.94019058  0.087801411    -1.645301   0.70511046   521935 
   26000    1.0512096   -1.6487083   -1.6487083  -0.94055801  0.090329549   -1.6487083   0.70815031   521935 
   27000    1.0478541   -1.6472738   -1.6472738  -0.94138383  0.077925017   -1.6472738   0.70588993   521935 
   28000    1.0500767    -1.648886    -1.648886  -0.94149887  0.080385619    -1.648886   0.70738716   521935 
   29000    1.0490545   -1.6482892   -1.6482892  -0.94159065  0.089011247   -1.6482892   0.70669858   521935 
   30000     1.050644   -1.6487713   -1.6487713  -0.94100199  0.063780937   -1.6487713   0.70776934   521935 
   31000     1.049035   -1.6474403   -1.6474403  -0.94075485  0.079408248   -1.6474403   0.70668543   521935 
   32000    1.0501004   -1.6489637   -1.6489637  -0.94156064  0.088314562   -1.6489637    0.7074031   521935 
   33000    1.0491536   -1.6497952   -1.6497952  -0.94302985  0.087336644   -1.6497952   0.70676533   521935 
   34000    1.0465644   -1.6480471   -1.6480471  -0.94302599  0.077815458   -1.6480471   0.70502108   521935 
   35000    1.0474052   -1.6483323   -1.6483323   -0.9427448  0.074626969   -1.6483323   0.70558752   521935 
   36000    1.0483249   -1.6482115   -1.6482115  -0.94200447  0.069075011   -1.6482115   0.70620705   521935 
   37000    1.0495413   -1.6487269   -1.6487269  -0.94170049  0.094655911   -1.6487269   0.70702645   521935 
   38000    1.0508611   -1.6496087   -1.6496087  -0.94169318  0.090795925   -1.6496087   0.70791556   521935 
   39000    1.0506614   -1.6493491   -1.6493491  -0.94156805  0.080543188   -1.6493491   0.70778104   521935 
   40000    1.0483292   -1.6479253   -1.6479253  -0.94171536  0.084522402   -1.6479253   0.70620992   521935 
   41000    1.0485433   -1.6484053   -1.6484053  -0.94205105  0.072801535   -1.6484053    0.7063542   521935 
   42000    1.0489469   -1.6489313   -1.6489313   -0.9423052  0.069338377   -1.6489313   0.70662609   521935 
   43000    1.0471582   -1.6478022   -1.6478022  -0.94238108  0.090385747   -1.6478022   0.70542113   521935 
   44000    1.0484633   -1.6493879   -1.6493879  -0.94308757  0.069784867   -1.6493879   0.70630032   521935 
   45000    1.0467082   -1.6481239   -1.6481239  -0.94300595  0.088039808   -1.6481239   0.70511795   521935 
   46000    1.0489949   -1.6492722   -1.6492722  -0.94261378  0.078242522   -1.6492722   0.70665838   521935 
   47000    1.0512395   -1.6507125   -1.6507125  -0.94254196  0.077992077   -1.6507125    0.7081705   521935 
   48000     1.050407   -1.6503158   -1.6503158  -0.94270619  0.081830485   -1.6503158   0.70760966   521935 
   49000    1.0477413   -1.6490708   -1.6490708   -0.9432569  0.077163361   -1.6490708    0.7058139   521935 
   50000    1.0464884   -1.6476857   -1.6476857  -0.94271583  0.079791345   -1.6476857   0.70496987   521935 
   51000    1.0490257   -1.6502136   -1.6502136  -0.94353438  0.090403659   -1.6502136   0.70667918   521935 
   52000     1.048297   -1.6498297   -1.6498297  -0.94364147   0.07757302   -1.6498297   0.70618828   521935 
   53000    1.0483759    -1.650138    -1.650138  -0.94389663  0.070712837    -1.650138   0.70624142   521935 
   54000    1.0484896     -1.65078     -1.65078  -0.94446197  0.077083839     -1.65078     0.706318   521935 
   55000    1.0475122   -1.6504453   -1.6504453  -0.94478576  0.075467118   -1.6504453   0.70565955   521935 
   56000    1.0486548   -1.6516143   -1.6516143  -0.94518498  0.090607459   -1.6516143   0.70642932   521935 
   57000    1.0484648   -1.6515327   -1.6515327  -0.94523139  0.084788982   -1.6515327    0.7063013   521935 
   58000    1.0475814   -1.6512644   -1.6512644  -0.94555823  0.089931103   -1.6512644   0.70570616   521935 
   59000    1.0485393   -1.6518575   -1.6518575  -0.94550603  0.072131748   -1.6518575   0.70635147   521935 
   60000    1.0488678   -1.6524841   -1.6524841  -0.94591135  0.075460716   -1.6524841   0.70657277   521935 
   61000    1.0489244   -1.6522802   -1.6522802  -0.94566931  0.071654233   -1.6522802    0.7066109   521935 
   62000    1.0470771    -1.651708    -1.651708  -0.94634149  0.088120198    -1.651708   0.70536648   521935 
   63000    1.0470225   -1.6513771   -1.6513771   -0.9460474  0.079479082   -1.6513771   0.70532969   521935 
   64000    1.0495246   -1.6520335   -1.6520335  -0.94501831  0.076521784   -1.6520335   0.70701523   521935 
   65000    1.0490147   -1.6519966   -1.6519966  -0.94532484  0.068413653   -1.6519966   0.70667172   521935 
   66000    1.0487856   -1.6523401   -1.6523401  -0.94582276  0.078193899   -1.6523401   0.70651739   521935 
   67000    1.0483044   -1.6520638   -1.6520638   -0.9458706  0.081603681   -1.6520638   0.70619322   521935 
   68000    1.0474519   -1.6510013   -1.6510013  -0.94538233  0.079806226   -1.6510013   0.70561896   521935 
   69000    1.0467448    -1.650655    -1.650655  -0.94551231  0.072345255    -1.650655   0.70514265   521935 
   70000    1.0472029   -1.6514044   -1.6514044  -0.94595315  0.071031828   -1.6514044   0.70545121   521935 
   71000     1.045713   -1.6505986   -1.6505986  -0.94615103  0.085777824   -1.6505986   0.70444756   521935 
   72000    1.0483229   -1.6531179   -1.6531179  -0.94691221  0.064156329   -1.6531179    0.7062057   521935 
   73000    1.0490265   -1.6537927   -1.6537927  -0.94711301  0.078844933   -1.6537927   0.70667971   521935 
   74000    1.0482313   -1.6535272   -1.6535272  -0.94738322  0.072066248   -1.6535272   0.70614398   521935 
   75000    1.0487061   -1.6535071   -1.6535071  -0.94704324  0.075116421   -1.6535071   0.70646388   521935 
   76000    1.0478473   -1.6535387   -1.6535387  -0.94765341  0.060867767   -1.6535387   0.70588531   521935 
   77000    1.0463553   -1.6521042   -1.6521042  -0.94722399  0.082288483   -1.6521042   0.70488023   521935 
   78000    1.0458264   -1.6518558   -1.6518558  -0.94733181  0.089196466   -1.6518558   0.70452395   521935 
   79000    1.0482776   -1.6535888   -1.6535888  -0.94741365  0.081819613   -1.6535888   0.70617518   521935 
   80000    1.0476112   -1.6530339   -1.6530339  -0.94730765  0.088871191   -1.6530339   0.70572627   521935 
   81000    1.0479617   -1.6535349   -1.6535349   -0.9475725  0.084625192   -1.6535349   0.70596237   521935 
   82000    1.0485403   -1.6544248   -1.6544248  -0.94807262  0.083382893   -1.6544248   0.70635213   521935 
   83000    1.0459167   -1.6526956   -1.6526956  -0.94811084  0.073688042   -1.6526956   0.70458476   521935 
   84000    1.0459133   -1.6533066   -1.6533066  -0.94872416  0.089901343   -1.6533066   0.70458249   521935 
   85000    1.0470715   -1.6533103   -1.6533103  -0.94794757  0.075228461   -1.6533103   0.70536273   521935 
   86000    1.0467051   -1.6540816   -1.6540816  -0.94896578  0.092185652   -1.6540816   0.70511585   521935 
   87000    1.0440467   -1.6527173   -1.6527173  -0.94939225  0.076611384   -1.6527173   0.70332506   521935 
   88000    1.0476083    -1.655893    -1.655893  -0.95016876  0.057988166    -1.655893   0.70572429   521935 
   89000    1.0470431   -1.6557687   -1.6557687  -0.95042512  0.083317018   -1.6557687   0.70534354   521935 
   90000    1.0468242   -1.6547723   -1.6547723   -0.9495762  0.082439004   -1.6547723   0.70519613   521935 
   91000     1.047978   -1.6548643   -1.6548643  -0.94889092  0.071731422   -1.6548643   0.70597337   521935 
   92000    1.0475987   -1.6545583   -1.6545583  -0.94884045  0.079055793   -1.6545583   0.70571783   521935 
   93000    1.0472832   -1.6540194   -1.6540194  -0.94851409  0.089691079   -1.6540194   0.70550535   521935 
   94000    1.0484697   -1.6548212   -1.6548212  -0.94851654  0.096490841   -1.6548212   0.70630462   521935 
   95000       1.0482   -1.6546794   -1.6546794   -0.9485565  0.071980779   -1.6546794   0.70612288   521935 
   96000    1.0487014   -1.6550236   -1.6550236   -0.9485629  0.091889452   -1.6550236   0.70646066   521935 
   97000    1.0488566   -1.6553584   -1.6553584  -0.94879314   0.08040849   -1.6553584   0.70656524   521935 
   98000    1.0474318   -1.6549691   -1.6549691  -0.94936374  0.063487262   -1.6549691    0.7056054   521935 
   99000    1.0474628   -1.6550287   -1.6550287  -0.94940239  0.092308993   -1.6550287   0.70562633   521935 
  100000     1.047206   -1.6548361   -1.6548361  -0.94938283  0.081757352   -1.6548361   0.70545332   521935 
  101000    1.0500654   -1.6564726   -1.6564726   -0.9490931  0.093611732   -1.6564726   0.70737953   521935 
  102000    1.0469399   -1.6548163   -1.6548163  -0.94954227  0.070127742   -1.6548163   0.70527401   521935 
  103000    1.0468573    -1.655091    -1.655091  -0.94987257  0.074392097    -1.655091   0.70521839   521935 
  104000    1.0466221   -1.6544863   -1.6544863   -0.9494264  0.087346354   -1.6544863   0.70505994   521935 
  105000    1.0491897   -1.6560102   -1.6560102  -0.94922052  0.075672291   -1.6560102   0.70678963   521935 
  106000    1.0449553   -1.6530125   -1.6530125  -0.94907542  0.079697446   -1.6530125    0.7039371   521935 
  107000    1.0467308   -1.6543706   -1.6543706  -0.94923737  0.082162626   -1.6543706    0.7051332   521935 
  108000    1.0460169   -1.6536073   -1.6536073  -0.94895506   0.08381627   -1.6536073   0.70465227   521935 
  109000    1.0472151   -1.6550554   -1.6550554  -0.94959601  0.081133466   -1.6550554   0.70545943   521935 
  110000     1.046729   -1.6550569   -1.6550569  -0.94992499  0.085614313   -1.6550569   0.70513195   521935 
  111000    1.0480486   -1.6555099   -1.6555099  -0.94948896  0.087158105   -1.6555099   0.70602094   521935 
  112000    1.0488072   -1.6560963   -1.6560963  -0.94956437  0.079838109   -1.6560963   0.70653196   521935 
  113000    1.0466233   -1.6544159   -1.6544159  -0.94935509   0.09269741   -1.6544159    0.7050608   521935 
  114000    1.0493171    -1.656592    -1.656592  -0.94971657  0.079680573    -1.656592   0.70687546   521935 
  115000     1.046757   -1.6554964   -1.6554964  -0.95034555  0.076488083   -1.6554964   0.70515083   521935 
  116000     1.048493   -1.6561186   -1.6561186   -0.9497983  0.080121238   -1.6561186   0.70632031   521935 
  117000    1.0502929   -1.6563257   -1.6563257  -0.94879294  0.086597828   -1.6563257   0.70753281   521935 
  118000     1.049315    -1.657307    -1.657307  -0.95043303  0.085669789    -1.657307   0.70687401   521935 
  119000    1.0483312   -1.6571239   -1.6571239  -0.95091256   0.06956272   -1.6571239   0.70621133   521935 
  120000     1.047731   -1.6560972   -1.6560972   -0.9502902  0.076781174   -1.6560972   0.70580697   521935 
  121000    1.0452183   -1.6549504   -1.6549504  -0.95083608  0.080476701   -1.6549504   0.70411431   521935 
  122000    1.0458463   -1.6550149   -1.6550149  -0.95047754  0.084752821   -1.6550149   0.70453731   521935 
  123000    1.0466094   -1.6563102   -1.6563102  -0.95125879  0.088711509   -1.6563102    0.7050514   521935 
  124000     1.046749   -1.6566039   -1.6566039  -0.95145847  0.080536614   -1.6566039   0.70514547   521935 
  125000    1.0454184   -1.6565717   -1.6565717  -0.95232264  0.082605704   -1.6565717   0.70424905   521935 
  126000    1.0474258   -1.6566804   -1.6566804  -0.95107906   0.08282408   -1.6566804   0.70560135   521935 
  127000    1.0484809   -1.6575467   -1.6575467   -0.9512346   0.08173029   -1.6575467   0.70631214   521935 
  128000    1.0439258    -1.655693    -1.655693  -0.95244943  0.085108875    -1.655693    0.7032436   521935 
  129000    1.0457789   -1.6569648   -1.6569648  -0.95247283  0.076861539   -1.6569648   0.70449196   521935 
  130000    1.0482836   -1.6596344   -1.6596344  -0.95345518  0.093350129   -1.6596344   0.70617923   521935 
  131000     1.047134   -1.6582448   -1.6582448  -0.95284002   0.07323297   -1.6582448   0.70540479   521935 
  132000    1.0466832   -1.6589149   -1.6589149   -0.9538138  0.080833235   -1.6589149   0.70510111   521935 
  133000    1.0453715   -1.6576609   -1.6576609  -0.95344337  0.089809427   -1.6576609   0.70421751   521935 
  134000    1.0433016   -1.6569202   -1.6569202  -0.95409711  0.075302202   -1.6569202   0.70282313   521935 
  135000    1.0462069   -1.6580473   -1.6580473  -0.95326704  0.074888012   -1.6580473   0.70478027   521935 
  136000    1.0461512   -1.6584569   -1.6584569  -0.95371417  0.067401865   -1.6584569   0.70474271   521935 
  137000    1.0462595   -1.6579209   -1.6579209   -0.9531052  0.091511175   -1.6579209   0.70481569   521935 
  138000    1.0465333   -1.6576785   -1.6576785  -0.95267839  0.080257478   -1.6576785   0.70500016   521935 
  139000    1.0462917   -1.6572773   -1.6572773  -0.95243984  0.086763807   -1.6572773   0.70483741   521935 
  140000    1.0468388   -1.6577719   -1.6577719    -0.952566   0.08098562   -1.6577719   0.70520592   521935 
  141000    1.0467119   -1.6586203   -1.6586203  -0.95349979   0.06963634   -1.6586203   0.70512048   521935 
  142000    1.0478772   -1.6584352   -1.6584352  -0.95252972  0.077920738   -1.6584352   0.70590545   521935 
  143000    1.0495514   -1.6594688   -1.6594688  -0.95243551  0.067774138   -1.6594688    0.7070333   521935 
  144000    1.0474921   -1.6583244   -1.6583244  -0.95267836  0.072084683   -1.6583244   0.70564601   521935 
  145000     1.045358   -1.6570892   -1.6570892  -0.95288076  0.074155805   -1.6570892    0.7042084   521935 
  146000    1.0484061   -1.6586299   -1.6586299  -0.95236818  0.089817771   -1.6586299   0.70626173   521935 
  147000    1.0477521   -1.6588647   -1.6588647  -0.95304351  0.080956673   -1.6588647   0.70582116   521935 
  148000     1.045348   -1.6575658   -1.6575658  -0.95336417  0.084731699   -1.6575658   0.70420164   521935 
  149000    1.0470946    -1.658399    -1.658399  -0.95302079  0.089775132    -1.658399   0.70537826   521935 
  150000    1.0473752   -1.6590251   -1.6590251  -0.95345785  0.093388653   -1.6590251   0.70556726   521935 
  151000    1.0481578   -1.6588273   -1.6588273  -0.95273281  0.075002249   -1.6588273   0.70609447   521935 
  152000    1.0489966   -1.6602093   -1.6602093  -0.95354981  0.068136866   -1.6602093   0.70665953   521935 
  153000    1.0469482     -1.65907     -1.65907  -0.95379034  0.082083617     -1.65907   0.70527962   521935 
  154000    1.0465887   -1.6593109   -1.6593109  -0.95427344  0.074134778   -1.6593109   0.70503746   521935 
  155000    1.0454564    -1.659151    -1.659151  -0.95487635  0.071007886    -1.659151   0.70427467   521935 
  156000    1.0478072   -1.6600065   -1.6600065  -0.95414824  0.077448865   -1.6600065    0.7058583   521935 
  157000    1.0459304   -1.6586563   -1.6586563  -0.95406234   0.08674452   -1.6586563   0.70459398   521935 
  158000    1.0470282   -1.6591311   -1.6591311   -0.9537975  0.084033648   -1.6591311   0.70533355   521935 
  159000    1.0490764   -1.6596607   -1.6596607  -0.95294739  0.084678395   -1.6596607   0.70671329   521935 
  160000    1.0477643   -1.6595311   -1.6595311  -0.95370175  0.075477175   -1.6595311   0.70582939   521935 
  161000    1.0477009    -1.658829    -1.658829  -0.95304234  0.077314545    -1.658829   0.70578669   521935 
  162000    1.0488491   -1.6595951   -1.6595951  -0.95303488   0.08230823   -1.6595951   0.70656017   521935 
  163000    1.0485717   -1.6592796   -1.6592796  -0.95290626  0.080797235   -1.6592796   0.70637334   521935 
  164000    1.0478303   -1.6597762   -1.6597762  -0.95390229  0.090546404   -1.6597762   0.70587389   521935 
  165000    1.0466017   -1.6592638   -1.6592638  -0.95421752   0.10143033   -1.6592638   0.70504624   521935 
  166000    1.0479407   -1.6594789   -1.6594789  -0.95353063  0.094595836   -1.6594789   0.70594826   521935 
  167000    1.0479253   -1.6597826   -1.6597826  -0.95384467  0.078484883   -1.6597826    0.7059379   521935 
  168000    1.0466949   -1.6582035   -1.6582035   -0.9530945  0.078540862   -1.6582035   0.70510899   521935 
  169000    1.0474518   -1.6596446   -1.6596446  -0.95402574  0.072581814   -1.6596446   0.70561889   521935 
  170000    1.0495326   -1.6608365   -1.6608365  -0.95381587  0.090445903   -1.6608365   0.70702062   521935 
  171000    1.0475624   -1.6599933   -1.6599933  -0.95429993  0.073087262   -1.6599933   0.70569339   521935 
  172000    1.0461287   -1.6594666   -1.6594666  -0.95473903  0.069872572   -1.6594666   0.70472759   521935 
  173000    1.0466243    -1.660477    -1.660477  -0.95541554  0.081952146    -1.660477   0.70506146   521935 
  174000    1.0483054   -1.6608498   -1.6608498  -0.95465589  0.077276027   -1.6608498   0.70619394   521935 
  175000    1.0465272   -1.6598476   -1.6598476  -0.95485161  0.087070544   -1.6598476     0.704996   521935 
  176000    1.0480081   -1.6610941   -1.6610941  -0.95510043  0.092188293   -1.6610941   0.70599365   521935 
  177000    1.0455891   -1.6598528   -1.6598528  -0.95548874  0.079339272   -1.6598528    0.7043641   521935 
  178000    1.0474478   -1.6619431   -1.6619431  -0.95632692  0.072546332   -1.6619431   0.70561622   521935 
  179000    1.0468003   -1.6608589   -1.6608589  -0.95567892  0.077605525   -1.6608589   0.70517999   521935 
  180000    1.0474483   -1.6616473   -1.6616473  -0.95603075  0.083260532   -1.6616473   0.70561654   521935 
  181000    1.0482971   -1.6613676   -1.6613676  -0.95517921   0.07202496   -1.6613676   0.70618834   521935 
  182000    1.0464928   -1.6599833   -1.6599833  -0.95501042  0.071635847   -1.6599833   0.70497285   521935 
  183000    1.0449677   -1.6594532   -1.6594532  -0.95550773  0.086060548   -1.6594532   0.70394548   521935 
  184000    1.0459857   -1.6596118   -1.6596118  -0.95498061  0.079411768   -1.6596118   0.70463122   521935 
  185000    1.0477099   -1.6607266   -1.6607266  -0.95493385  0.067696738   -1.6607266   0.70579274   521935 
  186000    1.0476263    -1.661184    -1.661184  -0.95544759  0.078703489    -1.661184   0.70573642   521935 
  187000    1.0458361   -1.6597369   -1.6597369  -0.95520642  0.082317531   -1.6597369    0.7045305   521935 
  188000    1.0479989   -1.6610995   -1.6610995  -0.95511205  0.078379242   -1.6610995   0.70598745   521935 
  189000    1.0470164   -1.6604456   -1.6604456  -0.95512006  0.074638498   -1.6604456   0.70532559   521935 
  190000    1.0477506   -1.6612634   -1.6612634  -0.95544325  0.072211543   -1.6612634   0.70582016   521935 
  191000    1.0464111   -1.6604695   -1.6604695  -0.95555174  0.078936453   -1.6604695    0.7049178   521935 
  192000    1.0476107   -1.6608571   -1.6608571  -0.95513117  0.066483524   -1.6608571   0.70572594   521935 
  193000    1.0472258   -1.6606746   -1.6606746  -0.95520793  0.088252742   -1.6606746   0.70546665   521935 
  194000    1.0458788   -1.6596021   -1.6596021  -0.95504287  0.084819032   -1.6596021   0.70455924   521935 
  195000    1.0470895   -1.6606456   -1.6606456  -0.95527079  0.085692144   -1.6606456   0.70537481   521935 
  196000    1.0476035   -1.6613422   -1.6613422   -0.9556211  0.072726624   -1.6613422   0.70572107   521935 
  197000    1.0483322   -1.6611783   -1.6611783  -0.95496635  0.082798309   -1.6611783   0.70621198   521935 
  198000    1.0494983   -1.6623987   -1.6623987  -0.95540123  0.086180518   -1.6623987   0.70699749   521935 
  199000    1.0470347   -1.6606542   -1.6606542  -0.95531627  0.077103548   -1.6606542   0.70533791   521935 
  200000    1.0497422   -1.6625352   -1.6625352  -0.95537333  0.081924605   -1.6625352   0.70716183   521935 
  201000    1.0479739   -1.6614986   -1.6614986  -0.95552796  0.081625218   -1.6614986   0.70597061   521935 
  202000    1.0486368   -1.6624476   -1.6624476  -0.95603046  0.080717314   -1.6624476   0.70641716   521935 
  203000    1.0456576   -1.6610618   -1.6610618  -0.95665159  0.098709187   -1.6610618   0.70441022   521935 
  204000    1.0468624   -1.6619722   -1.6619722  -0.95675036  0.073435022   -1.6619722   0.70522185   521935 
  205000    1.0467895   -1.6622378   -1.6622378  -0.95706507  0.081807704   -1.6622378    0.7051727   521935 
  206000    1.0456078   -1.6611927   -1.6611927  -0.95681602   0.07404174   -1.6611927   0.70437671   521935 
  207000    1.0470586    -1.662135    -1.662135  -0.95678092  0.073703911    -1.662135   0.70535404   521935 
  208000     1.047933   -1.6623992   -1.6623992  -0.95645617  0.081942028   -1.6623992   0.70594303   521935 
  209000     1.045595   -1.6614955   -1.6614955  -0.95712751  0.086905864   -1.6614955   0.70436802   521935 
  210000    1.0470707   -1.6628713   -1.6628713  -0.95750911  0.084056633   -1.6628713   0.70536217   521935 
  211000    1.0439329   -1.6614182   -1.6614182  -0.95816979  0.071542709   -1.6614182   0.70324836   521935 
  212000    1.0448773    -1.662117    -1.662117  -0.95823239  0.077220285    -1.662117   0.70388457   521935 
  213000    1.0474324   -1.6635624   -1.6635624  -0.95795656  0.073501867   -1.6635624    0.7056058   521935 
  214000    1.0468383    -1.663624    -1.663624  -0.95841839  0.079427459    -1.663624   0.70520558   521935 
  215000    1.0461148    -1.663406    -1.663406  -0.95868774  0.083852619    -1.663406   0.70471824   521935 
  216000    1.0440362   -1.6618526   -1.6618526  -0.95853457  0.083358502   -1.6618526   0.70331799   521935 
  217000    1.0491061   -1.6652918   -1.6652918  -0.95855856  0.067230241   -1.6652918   0.70673328   521935 
  218000    1.0452834   -1.6634228   -1.6634228  -0.95926468  0.090610444   -1.6634228   0.70415812   521935 
  219000    1.0459576   -1.6635332   -1.6635332  -0.95892092  0.069200256   -1.6635332   0.70461229   521935 
  220000    1.0460387   -1.6634204   -1.6634204  -0.95875347  0.085323586   -1.6634204   0.70466697   521935 
  221000    1.0450122   -1.6633431   -1.6633431  -0.95936768  0.086693535   -1.6633431   0.70397544   521935 
  222000    1.0456849   -1.6634194   -1.6634194   -0.9589908  0.078785447   -1.6634194   0.70442859   521935 
  223000    1.0478218   -1.6654668   -1.6654668  -0.95959864  0.087074965   -1.6654668   0.70586817   521935 
  224000    1.0476509   -1.6652897   -1.6652897  -0.95953665  0.085172166   -1.6652897     0.705753   521935 
  225000    1.0476511   -1.6646908   -1.6646908  -0.95893766   0.06888741   -1.6646908   0.70575313   521935 
  226000    1.0458691   -1.6635338   -1.6635338  -0.95898102  0.086012284   -1.6635338   0.70455273   521935 
  227000    1.0463085   -1.6638489   -1.6638489  -0.95900024  0.091926137   -1.6638489   0.70484871   521935 
  228000    1.0454429   -1.6635301   -1.6635301  -0.95926448  0.073505086   -1.6635301   0.70426558   521935 
  229000    1.0441069   -1.6631212   -1.6631212  -0.95975558  0.071593209   -1.6631212   0.70336558   521935 
  230000     1.044157   -1.6629895   -1.6629895  -0.95959013   0.07613868   -1.6629895   0.70339935   521935 
  231000    1.0429799   -1.6625697   -1.6625697  -0.95996335  0.077651585   -1.6625697   0.70260639   521935 
  232000    1.0433597   -1.6618939   -1.6618939  -0.95903162  0.078217079   -1.6618939   0.70286225   521935 
  233000    1.0456739   -1.6632528   -1.6632528  -0.95883158  0.086099201   -1.6632528   0.70442118   521935 
  234000    1.0466154   -1.6631907   -1.6631907  -0.95813522  0.083560458   -1.6631907   0.70505546   521935 
  235000    1.0442344    -1.661985    -1.661985  -0.95853346   0.08143607    -1.661985   0.70345149   521935 
  236000    1.0470007   -1.6638322   -1.6638322  -0.95851716  0.068441485   -1.6638322   0.70531501   521935 
  237000    1.0469933   -1.6635154   -1.6635154  -0.95820541  0.072941225   -1.6635154   0.70531001   521935 
  238000    1.0437188   -1.6621957   -1.6621957  -0.95909153  0.075385972   -1.6621957   0.70310417   521935 
  239000    1.0461543   -1.6644232   -1.6644232   -0.9596784  0.074126341   -1.6644232    0.7047448   521935 
  240000    1.0438524    -1.662737    -1.662737  -0.95954287  0.085202135    -1.662737   0.70319414   521935 
  241000    1.0469411    -1.665414    -1.665414  -0.96013908  0.084417474    -1.665414   0.70527489   521935 
  242000    1.0494112   -1.6667731   -1.6667731  -0.95983425  0.084223911   -1.6667731   0.70693884   521935 
  243000    1.0476808   -1.6652421   -1.6652421  -0.95946899  0.087449258   -1.6652421   0.70577313   521935 
  244000    1.0457774   -1.6637889   -1.6637889  -0.95929797  0.091113459   -1.6637889   0.70449095   521935 
  245000    1.0472821   -1.6646993   -1.6646993   -0.9591947  0.072177969   -1.6646993   0.70550458   521935 
  246000    1.0457862   -1.6643595   -1.6643595  -0.95986267  0.082845662   -1.6643595   0.70449683   521935 
  247000    1.0465252    -1.664883    -1.664883  -0.95988829  0.082340717    -1.664883   0.70499467   521935 
  248000    1.0473676   -1.6656711   -1.6656711  -0.96010897   0.07308199   -1.6656711   0.70556218   521935 
  249000    1.0458348   -1.6653838   -1.6653838  -0.96085421  0.086502541   -1.6653838   0.70452959   521935 
  250000    1.0480978   -1.6672644   -1.6672644  -0.96121032  0.069915608   -1.6672644   0.70605406   521935 
  251000    1.0464053   -1.6651662   -1.6651662  -0.96025231  0.083938375   -1.6651662   0.70491389   521935 
  252000    1.0463349   -1.6647738   -1.6647738  -0.95990729  0.074296795   -1.6647738   0.70486651   521935 
  253000    1.0465212   -1.6648766   -1.6648766  -0.95988464  0.084486547   -1.6648766   0.70499196   521935 
  254000    1.0452643   -1.6633741   -1.6633741  -0.95922883  0.086035546   -1.6633741   0.70414529   521935 
  255000    1.0483238   -1.6648266   -1.6648266  -0.95862024  0.084099472   -1.6648266   0.70620633   521935 
  256000    1.0464257   -1.6647183   -1.6647183   -0.9597907  0.075237838   -1.6647183   0.70492763   521935 
  257000    1.0466595   -1.6651415   -1.6651415  -0.96005629  0.076979518   -1.6651415   0.70508518   521935 
  258000    1.0490095   -1.6658726   -1.6658726  -0.95920441  0.084309883   -1.6658726   0.70666823   521935 
  259000    1.0483179   -1.6646174   -1.6646174  -0.95841505  0.078980534   -1.6646174   0.70620233   521935 
  260000    1.0472765   -1.6650775   -1.6650775  -0.95957673  0.083875205   -1.6650775   0.70550079   521935 
  261000    1.0493143   -1.6656437   -1.6656437  -0.95877015  0.084667083   -1.6656437   0.70687358   521935 
  262000    1.0484984   -1.6652951   -1.6652951  -0.95897115  0.081054363   -1.6652951   0.70632391   521935 
  263000    1.0473537   -1.6648069   -1.6648069   -0.9592541  0.086352082   -1.6648069   0.70555278   521935 
  264000    1.0447755   -1.6633815   -1.6633815  -0.95956544   0.07183352   -1.6633815   0.70381602   521935 
  265000    1.0452687      -1.6648      -1.6648  -0.96065173  0.064421727      -1.6648   0.70414826   521935 
  266000    1.0453566   -1.6652819   -1.6652819   -0.9610745  0.074765439   -1.6652819   0.70420745   521935 
  267000    1.0453345   -1.6649128   -1.6649128  -0.96072025  0.084134104   -1.6649128   0.70419254   521935 
  268000    1.0444166   -1.6651226   -1.6651226  -0.96154833   0.06934538   -1.6651226   0.70357424   521935 
  269000    1.0452408   -1.6648614   -1.6648614  -0.96073195  0.085719296   -1.6648614   0.70412947   521935 
  270000     1.048133   -1.6668672   -1.6668672  -0.96078941  0.070322409   -1.6668672   0.70607781   521935 
  271000    1.0453086   -1.6646655   -1.6646655  -0.96049036  0.083357802   -1.6646655   0.70417514   521935 
  272000    1.0447498   -1.6643861   -1.6643861   -0.9605874   0.07654285   -1.6643861   0.70379867   521935 
  273000     1.045653   -1.6650481   -1.6650481  -0.96064096   0.06500786   -1.6650481   0.70440711   521935 
  274000    1.0433027   -1.6636275   -1.6636275  -0.96080361  0.080236701   -1.6636275   0.70282387   521935 
  275000    1.0442795   -1.6650793   -1.6650793  -0.96159747   0.08289461   -1.6650793   0.70348185   521935 
  276000    1.0444461    -1.664896    -1.664896  -0.96130189  0.089833309    -1.664896    0.7035941   521935 
  277000    1.0467818   -1.6665388   -1.6665388  -0.96137123  0.073788061   -1.6665388   0.70516755   521935 
  278000    1.0438465   -1.6645049   -1.6645049  -0.96131471  0.076813127   -1.6645049   0.70319014   521935 
  279000    1.0475752   -1.6670136   -1.6670136   -0.9613116   0.08528542   -1.6670136   0.70570202   521935 
  280000     1.044471   -1.6643543   -1.6643543  -0.96074347  0.092673742   -1.6643543   0.70361087   521935 
  281000    1.0466363   -1.6657313   -1.6657313  -0.96066182  0.082521337   -1.6657313   0.70506953   521935 
  282000    1.0453215   -1.6662611   -1.6662611   -0.9620773  0.072012137   -1.6662611   0.70418382   521935 
  283000    1.0437519   -1.6655317   -1.6655317   -0.9624052  0.081834983   -1.6655317   0.70312647   521935 
  284000    1.0452816   -1.6662954   -1.6662954  -0.96213847  0.075077626   -1.6662954    0.7041569   521935 
  285000    1.0435844   -1.6653768   -1.6653768   -0.9623632  0.079393185   -1.6653768   0.70301363   521935 
  286000    1.0436478    -1.665121    -1.665121  -0.96206468  0.072114575    -1.665121   0.70305629   521935 
  287000    1.0438242   -1.6647678   -1.6647678  -0.96159268  0.085123128   -1.6647678   0.70317514   521935 
  288000    1.0445251   -1.6651178   -1.6651178  -0.96147054  0.077709909   -1.6651178   0.70364729   521935 
  289000    1.0456427   -1.6659662   -1.6659662  -0.96156599  0.085978977   -1.6659662   0.70440018   521935 
  290000    1.0454611   -1.6653273   -1.6653273  -0.96104947  0.085412139   -1.6653273   0.70427786   521935 
  291000    1.0430741    -1.664098    -1.664098  -0.96142818  0.063614917    -1.664098   0.70266982   521935 
  292000    1.0445389   -1.6648576   -1.6648576  -0.96120099  0.066253859   -1.6648576   0.70365661   521935 
  293000    1.0439074   -1.6647152   -1.6647152  -0.96148398  0.070411924   -1.6647152   0.70323122   521935 
  294000    1.0458905   -1.6656715   -1.6656715  -0.96110444  0.081683489   -1.6656715   0.70456711   521935 
  295000     1.043275   -1.6638645   -1.6638645  -0.96105935  0.089210115   -1.6638645   0.70280517   521935 
  296000    1.0445245   -1.6648511   -1.6648511  -0.96120419  0.081850387   -1.6648511   0.70364692   521935 
  297000     1.046004   -1.6656498   -1.6656498  -0.96100622  0.087371313   -1.6656498   0.70464358   521935 
  298000    1.0448361   -1.6649583   -1.6649583  -0.96110151  0.075420042   -1.6649583    0.7038568   521935 
  299000     1.046081   -1.6652089   -1.6652089  -0.96051349  0.081089724   -1.6652089   0.70469543   521935 
  300000    1.0456571   -1.6658639   -1.6658639  -0.96145398  0.094094051   -1.6658639   0.70440991   521935 
  301000    1.0491711   -1.6672999   -1.6672999  -0.96052281  0.086191989   -1.6672999    0.7067771   521935 
  302000    1.0473334   -1.6669407   -1.6669407  -0.96140158   0.08732989   -1.6669407   0.70553914   521935 
  303000    1.0474969   -1.6663363   -1.6663363  -0.96068704  0.083194793   -1.6663363   0.70564925   521935 
  304000    1.0480776   -1.6662859   -1.6662859  -0.96024548  0.083620334   -1.6662859   0.70604044   521935 
  305000    1.0485984   -1.6658844   -1.6658844  -0.95949303  0.071315033   -1.6658844   0.70639133   521935 
  306000    1.0465871   -1.6652665   -1.6652665  -0.96023012   0.07141716   -1.6652665   0.70503639   521935 
  307000     1.045481   -1.6647555   -1.6647555  -0.96046426  0.080707452   -1.6647555   0.70429125   521935 
  308000    1.0460437   -1.6654207   -1.6654207  -0.96075041  0.069525019   -1.6654207   0.70467031   521935 
  309000    1.0447414   -1.6654166   -1.6654166  -0.96162352  0.077006797   -1.6654166   0.70379304   521935 
  310000    1.0442584   -1.6651127   -1.6651127  -0.96164499  0.069478697   -1.6651127   0.70346766   521935 
  311000    1.0438405   -1.6655097   -1.6655097  -0.96232359  0.084995787   -1.6655097    0.7031861   521935 
  312000    1.0451436   -1.6668426   -1.6668426  -0.96277865  0.069028378   -1.6668426   0.70406394   521935 
  313000    1.0465916   -1.6675368   -1.6675368  -0.96249741  0.075935798   -1.6675368   0.70503942   521935 
  314000    1.0469867   -1.6674153   -1.6674153   -0.9621097  0.067858597   -1.6674153   0.70530559   521935 
  315000       1.0489   -1.6693351   -1.6693351  -0.96274065  0.073745372   -1.6693351   0.70659445   521935 
  316000    1.0459447    -1.666428    -1.666428  -0.96182435  0.086510716    -1.666428   0.70460361   521935 
  317000    1.0443322   -1.6660502   -1.6660502  -0.96253286  0.088690384   -1.6660502   0.70351735   521935 
  318000    1.0461152   -1.6668389   -1.6668389  -0.96212041  0.075454291   -1.6668389   0.70471851   521935 
  319000    1.0458304   -1.6661745   -1.6661745  -0.96164785  0.080592004   -1.6661745   0.70452664   521935 
  320000    1.0460465   -1.6667749   -1.6667749  -0.96210272  0.092099072   -1.6667749   0.70467219   521935 
  321000    1.0475122   -1.6682444   -1.6682444  -0.96258478  0.079673122   -1.6682444   0.70565961   521935 
  322000    1.0440259    -1.666232    -1.666232   -0.9629209   0.10161787    -1.666232   0.70331105   521935 
  323000    1.0474572   -1.6682447   -1.6682447  -0.96262218  0.075530333   -1.6682447   0.70562253   521935 
  324000    1.0451939   -1.6662657   -1.6662657  -0.96216783   0.07252724   -1.6662657   0.70409788   521935 
  325000    1.0469443     -1.66689     -1.66689  -0.96161301  0.069673255     -1.66689   0.70527704   521935 
  326000     1.047003   -1.6673521   -1.6673521   -0.9620355  0.085765345   -1.6673521   0.70531658   521935 
  327000    1.0448787   -1.6670209   -1.6670209  -0.96313539   0.07613426   -1.6670209   0.70388554   521935 
  328000    1.0431127   -1.6660713   -1.6660713  -0.96337543  0.080844555   -1.6660713   0.70269586   521935 
  329000    1.0425928   -1.6661395   -1.6661395  -0.96379391  0.080864228   -1.6661395    0.7023456   521935 
  330000    1.0436817   -1.6674841   -1.6674841  -0.96440499  0.078128526   -1.6674841   0.70307913   521935 
  331000    1.0443196   -1.6672855   -1.6672855  -0.96377662  0.067268786   -1.6672855   0.70350889   521935 
  332000    1.0455497   -1.6679197   -1.6679197  -0.96358222  0.085753486   -1.6679197   0.70433752   521935 
  333000    1.0438751   -1.6672751   -1.6672751  -0.96406569  0.090086083   -1.6672751   0.70320941   521935 
  334000    1.0474063   -1.6694956   -1.6694956  -0.96390735  0.066603141   -1.6694956   0.70558824   521935 
  335000    1.0449139   -1.6686055   -1.6686055  -0.96469632  0.082966551   -1.6686055   0.70390922   521935 
  336000    1.0432431   -1.6677544   -1.6677544   -0.9649707  0.076089636   -1.6677544   0.70278371   521935 
  337000    1.0430404   -1.6678236   -1.6678236  -0.96517644  0.093425042   -1.6678236   0.70264711   521935 
  338000    1.0462891   -1.6700691   -1.6700691  -0.96523344  0.077299705   -1.6700691   0.70483566   521935 
  339000    1.0449352   -1.6684643   -1.6684643  -0.96454075  0.088688685   -1.6684643   0.70392359   521935 
  340000    1.0464172   -1.6696677   -1.6696677  -0.96474578  0.083591723   -1.6696677    0.7049219   521935 
  341000    1.0449665    -1.668308    -1.668308  -0.96436336  0.070919665    -1.668308   0.70394467   521935 
  342000    1.0465677   -1.6697002   -1.6697002  -0.96467687  0.090840958   -1.6697002    0.7050233   521935 
  343000    1.0460031   -1.6696796   -1.6696796  -0.96503667  0.068450558   -1.6696796   0.70464295   521935 
  344000     1.043915    -1.668209    -1.668209  -0.96497261  0.095115888    -1.668209   0.70323635   521935 
  345000    1.0437992   -1.6672235   -1.6672235  -0.96406521  0.078213781   -1.6672235    0.7031583   521935 
  346000    1.0428545   -1.6673698   -1.6673698  -0.96484794  0.078250388   -1.6673698   0.70252187   521935 
  347000     1.042818   -1.6675378   -1.6675378  -0.96504049  0.087375553   -1.6675378   0.70249731   521935 
  348000    1.0441358   -1.6693254   -1.6693254   -0.9659403  0.075087852   -1.6693254   0.70338505   521935 
  349000    1.0429732   -1.6686293   -1.6686293  -0.96602747  0.080221385   -1.6686293   0.70260187   521935 
  350000    1.0440444   -1.6692069   -1.6692069  -0.96588347  0.077083025   -1.6692069   0.70332346   521935 
  351000    1.0440484   -1.6695494   -1.6695494  -0.96622324  0.077464847   -1.6695494   0.70332616   521935 
  352000    1.0440792   -1.6697804   -1.6697804   -0.9664335  0.085083372   -1.6697804   0.70334692   521935 
  353000    1.0436241    -1.668776    -1.668776  -0.96573568  0.076010636    -1.668776   0.70304033   521935 
  354000    1.0453423    -1.670485    -1.670485  -0.96628714  0.087459106    -1.670485   0.70419783   521935 
  355000    1.0437455   -1.6686688   -1.6686688  -0.96554665  0.075182413   -1.6686688   0.70312215   521935 
  356000    1.0445132   -1.6690843   -1.6690843  -0.96544497  0.082542714   -1.6690843   0.70363929   521935 
  357000    1.0436373   -1.6684458   -1.6684458  -0.96539658  0.099702909   -1.6684458   0.70304921   521935 
  358000    1.0467785   -1.6707754   -1.6707754  -0.96561013  0.083414661   -1.6707754   0.70516529   521935 
  359000    1.0457426   -1.6700046   -1.6700046  -0.96553713  0.091330112   -1.6700046   0.70446747   521935 
  360000    1.0458651   -1.6706735   -1.6706735  -0.96612352  0.080794677   -1.6706735   0.70454997   521935 
  361000    1.0438306   -1.6688549   -1.6688549  -0.96567537  0.088829131   -1.6688549   0.70317948   521935 
  362000    1.0464993   -1.6700428   -1.6700428  -0.96506557  0.092214145   -1.6700428   0.70497726   521935 
  363000    1.0432101   -1.6687962   -1.6687962  -0.96603471  0.082765497   -1.6687962   0.70276146   521935 
  364000    1.0438462   -1.6690544   -1.6690544  -0.96586449  0.075172974   -1.6690544   0.70318995   521935 
  365000    1.0450678    -1.670059    -1.670059  -0.96604607  0.072240136    -1.670059   0.70401293   521935 
  366000    1.0424259   -1.6680858   -1.6680858  -0.96585254  0.072715845   -1.6680858   0.70223321   521935 
  367000    1.0453879   -1.6700055   -1.6700055  -0.96577696  0.076905237   -1.6700055   0.70422856   521935 
  368000    1.0441219   -1.6697025   -1.6697025  -0.96632675  0.079653569   -1.6697025   0.70337572   521935 
  369000    1.0447748   -1.6700298   -1.6700298  -0.96621425  0.078898644   -1.6700298   0.70381555   521935 
  370000    1.0426674   -1.6691503   -1.6691503  -0.96675443  0.095627588   -1.6691503   0.70239589   521935 
  371000    1.0457112   -1.6707556   -1.6707556  -0.96630926  0.080114267   -1.6707556   0.70444633   521935 
  372000    1.0473764   -1.6713814   -1.6713814  -0.96581329  0.077352489   -1.6713814    0.7055681   521935 
  373000    1.0457581   -1.6706747   -1.6706747  -0.96619684  0.087783515   -1.6706747   0.70447789   521935 
  374000    1.0470065   -1.6710927   -1.6710927  -0.96577383  0.081628049   -1.6710927   0.70531891   521935 
  375000     1.044467    -1.670026    -1.670026  -0.96641781  0.081512696    -1.670026   0.70360816   521935 
  376000    1.0442695   -1.6705378   -1.6705378   -0.9670627  0.078474351   -1.6705378   0.70347515   521935 
  377000    1.0456913   -1.6716514   -1.6716514   -0.9672185  0.077801641   -1.6716514   0.70443292   521935 
  378000    1.0426853   -1.6703161   -1.6703161   -0.9679082  0.071588486   -1.6703161    0.7024079   521935 
  379000    1.0421615   -1.6697283   -1.6697283  -0.96767322  0.085606479   -1.6697283   0.70205508   521935 
  380000    1.0450735   -1.6715635   -1.6715635  -0.96754675  0.079720785   -1.6715635   0.70401675   521935 
  381000    1.0429206   -1.6700408   -1.6700408  -0.96747443  0.069350023   -1.6700408   0.70256641   521935 
  382000    1.0432135   -1.6703177   -1.6703177  -0.96755403  0.078740181   -1.6703177   0.70276372   521935 
  383000    1.0441537   -1.6706535   -1.6706535  -0.96725639  0.081573728   -1.6706535    0.7033971   521935 
  384000    1.0424688   -1.6693423   -1.6693423  -0.96708024  0.075832465   -1.6693423   0.70226207   521935 
  385000    1.0430444   -1.6704782   -1.6704782  -0.96782833  0.076860119   -1.6704782   0.70264983   521935 
  386000    1.0452522   -1.6716979   -1.6716979  -0.96756078  0.075986218   -1.6716979   0.70413716   521935 
  387000    1.0429301   -1.6717949   -1.6717949  -0.96922205  0.075562372   -1.6717949   0.70257283   521935 
  388000    1.0454287   -1.6732337   -1.6732337  -0.96897763   0.08079124   -1.6732337   0.70425603   521935 
  389000    1.0460031   -1.6730173   -1.6730173  -0.96837426  0.069152552   -1.6730173     0.704643   521935 
  390000    1.0438979   -1.6721995   -1.6721995  -0.96897474  0.098923503   -1.6721995   0.70322478   521935 
  391000    1.0449997   -1.6731425   -1.6731425  -0.96917549   0.09334582   -1.6731425   0.70396703   521935 
  392000    1.0475525   -1.6741463   -1.6741463  -0.96845957  0.077291077   -1.6741463   0.70568673   521935 
  393000    1.0462392   -1.6735501   -1.6735501   -0.9687481  0.096559489   -1.6735501   0.70480204   521935 
  394000    1.0435708   -1.6718692   -1.6718692  -0.96886482  0.083785054   -1.6718692   0.70300441   521935 
  395000    1.0424611   -1.6716501   -1.6716501  -0.96939319  0.094199014   -1.6716501    0.7022569   521935 
  396000      1.04617   -1.6737543   -1.6737543  -0.96899886  0.079040154   -1.6737543    0.7047554   521935 
  397000    1.0458168   -1.6734151   -1.6734151  -0.96889758  0.086691382   -1.6734151   0.70451748   521935 
  398000     1.046425   -1.6735445   -1.6735445  -0.96861736  0.081169836   -1.6735445   0.70492717   521935 
  399000    1.0434838   -1.6721297   -1.6721297   -0.9691838  0.079548295   -1.6721297   0.70294587   521935 
  400000    1.0459344   -1.6737206   -1.6737206  -0.96912392   0.05839566   -1.6737206   0.70459667   521935 
  401000    1.0417038   -1.6715659   -1.6715659  -0.96981916  0.071313004   -1.6715659   0.70174675   521935 
  402000    1.0425892   -1.6729709   -1.6729709  -0.97062768  0.075397236   -1.6729709   0.70234318   521935 
  403000    1.0410871   -1.6716654   -1.6716654  -0.97033412  0.074177254   -1.6716654   0.70133126   521935 
  404000    1.0413411   -1.6721462   -1.6721462  -0.97064384  0.088961143   -1.6721462   0.70150239   521935 
  405000    1.0435091   -1.6732498   -1.6732498  -0.97028696  0.087749405   -1.6732498   0.70296288   521935 
  406000     1.044777   -1.6736621   -1.6736621  -0.96984505  0.077498416   -1.6736621   0.70381702   521935 
  407000    1.0434429   -1.6723604   -1.6723604  -0.96944211  0.076628278   -1.6723604   0.70291831   521935 
  408000    1.0410073   -1.6706168   -1.6706168  -0.96933921  0.085381632   -1.6706168   0.70127756   521935 
  409000    1.0437556   -1.6719868   -1.6719868  -0.96885787  0.074410687   -1.6719868   0.70312893   521935 
  410000    1.0428478   -1.6718071   -1.6718071  -0.96928976  0.072579662   -1.6718071   0.70251738   521935 
  411000    1.0452321   -1.6734656   -1.6734656  -0.96934198  0.081581257   -1.6734656   0.70412361   521935 
  412000    1.0427787   -1.6724566   -1.6724566  -0.96998578  0.085138206   -1.6724566   0.70247083   521935 
  413000    1.0421073   -1.6722422   -1.6722422  -0.97022364  0.097996992   -1.6722422   0.70201857   521935 
  414000    1.0435381   -1.6731197   -1.6731197  -0.97013734  0.073314637   -1.6731197   0.70298238   521935 
  415000    1.0435702   -1.6739746   -1.6739746  -0.97097052  0.074195761   -1.6739746   0.70300406   521935 
  416000     1.046497   -1.6748267   -1.6748267  -0.96985098   0.07189755   -1.6748267    0.7049757   521935 
  417000    1.0434944   -1.6727075   -1.6727075  -0.96975456  0.092926155   -1.6727075   0.70295297   521935 
  418000    1.0445755   -1.6738294   -1.6738294  -0.97014816  0.079849024   -1.6738294   0.70368128   521935 
  419000    1.0432193   -1.6740148   -1.6740148  -0.97124717  0.072257656   -1.6740148   0.70276768   521935 
  420000    1.0429836   -1.6742311   -1.6742311  -0.97162225  0.083442802   -1.6742311   0.70260886   521935 
  421000     1.042999   -1.6738338   -1.6738338  -0.97121455  0.069119933   -1.6738338   0.70261924   521935 
  422000    1.0456931   -1.6755437   -1.6755437   -0.9711096  0.072219909   -1.6755437   0.70443411   521935 
  423000    1.0443152   -1.6738212   -1.6738212  -0.97031527   0.08233386   -1.6738212   0.70350588   521935 
  424000    1.0419477   -1.6724568   -1.6724568  -0.97054571  0.077144218   -1.6724568   0.70191106   521935 
  425000    1.0448378   -1.6745593   -1.6745593  -0.97070131   0.07785427   -1.6745593   0.70385798   521935 
  426000    1.0446082   -1.6752056   -1.6752056  -0.97150237  0.072020252   -1.6752056   0.70370327   521935 
  427000    1.0431017   -1.6742769   -1.6742769  -0.97158852  0.077508641   -1.6742769   0.70268842   521935 
  428000     1.043205   -1.6737553   -1.6737553  -0.97099723  0.087754892   -1.6737553   0.70275803   521935 
  429000    1.0475084   -1.6767014   -1.6767014  -0.97104436  0.071522207   -1.6767014   0.70565705   521935 
  430000    1.0431069   -1.6737351   -1.6737351  -0.97104317  0.079267712   -1.6737351   0.70269192   521935 
  431000      1.04534   -1.6751608   -1.6751608   -0.9709645   0.08081291   -1.6751608   0.70419629   521935 
  432000    1.0448436   -1.6749821   -1.6749821   -0.9711202  0.066675763   -1.6749821   0.70386186   521935 
  433000    1.0423997    -1.673538    -1.673538  -0.97132249  0.077403061    -1.673538   0.70221555   521935 
  434000    1.0426365   -1.6741487   -1.6741487  -0.97177367  0.057906063   -1.6741487   0.70237507   521935 
  435000    1.0429539   -1.6735531   -1.6735531  -0.97096424  0.070384471   -1.6735531   0.70258884   521935 
  436000    1.0433527   -1.6729689   -1.6729689  -0.97011137  0.082193008   -1.6729689   0.70285754   521935 
  437000    1.0431101   -1.6728822   -1.6728822  -0.97018811  0.077383337   -1.6728822   0.70269406   521935 
  438000    1.0418409   -1.6725087   -1.6725087  -0.97066967  0.085527542   -1.6725087   0.70183908   521935 
  439000    1.0397647   -1.6725174   -1.6725174  -0.97207688  0.058826695   -1.6725174   0.70044049   521935 
  440000    1.0407937   -1.6724231   -1.6724231  -0.97128949   0.08291282   -1.6724231   0.70113366   521935 
  441000    1.0435701   -1.6740283   -1.6740283   -0.9710244   0.07744241   -1.6740283   0.70300394   521935 
  442000    1.0422993   -1.6723941   -1.6723941  -0.97024623  0.086063378   -1.6723941   0.70214788   521935 
  443000    1.0428256    -1.673597    -1.673597  -0.97109458  0.084262853    -1.673597   0.70250242   521935 
  444000    1.0434597   -1.6739811   -1.6739811  -0.97105147   0.07307631   -1.6739811   0.70292962   521935 
  445000     1.041885   -1.6738772   -1.6738772   -0.9720084  0.086193747   -1.6738772   0.70186881   521935 
  446000     1.041278   -1.6739041   -1.6739041  -0.97244414  0.089061725   -1.6739041   0.70145991   521935 
  447000    1.0402536   -1.6725331   -1.6725331  -0.97176331  0.083588503   -1.6725331    0.7007698   521935 
  448000    1.0437405   -1.6749181   -1.6749181  -0.97179932   0.06825025   -1.6749181   0.70311876   521935 
  449000     1.044719   -1.6745124   -1.6745124   -0.9707345  0.080094258   -1.6745124   0.70377793   521935 
  450000    1.0426231   -1.6739015   -1.6739015  -0.97153549  0.077016177   -1.6739015   0.70236603   521935 
  451000    1.0451808   -1.6751349   -1.6751349  -0.97104585  0.079379589   -1.6751349   0.70408905   521935 
  452000    1.0427739   -1.6742021   -1.6742021   -0.9717345  0.081231837   -1.6742021   0.70246758   521935 
  453000    1.0416407   -1.6724277   -1.6724277  -0.97072346    0.0692487   -1.6724277    0.7017042   521935 
  454000    1.0431146   -1.6736682   -1.6736682   -0.9709711  0.081100177   -1.6736682   0.70269715   521935 
  455000    1.0422473   -1.6736536   -1.6736536  -0.97154077  0.077347806   -1.6736536   0.70211283   521935 
  456000    1.0427328   -1.6736632   -1.6736632  -0.97122326  0.070057577   -1.6736632   0.70243992   521935 
  457000    1.0414349    -1.672942    -1.672942  -0.97137641  0.078219246    -1.672942   0.70156559   521935 
  458000    1.0417006   -1.6727853   -1.6727853  -0.97104067  0.074230871   -1.6727853   0.70174461   521935 
  459000    1.0421322   -1.6739555   -1.6739555  -0.97192023  0.073211861   -1.6739555   0.70203531   521935 
  460000    1.0412827    -1.673111    -1.673111  -0.97164798  0.067867546    -1.673111   0.70146305   521935 
  461000    1.0442084   -1.6745656   -1.6745656  -0.97113164  0.080597368   -1.6745656   0.70343398   521935 
  462000    1.0439653   -1.6748989   -1.6748989  -0.97162869  0.074467634   -1.6748989   0.70327023   521935 
  463000    1.0450875   -1.6751681   -1.6751681  -0.97114189  0.080599948   -1.6751681   0.70402618   521935 
  464000    1.0466676   -1.6767361   -1.6767361  -0.97164549  0.076318851   -1.6767361   0.70509063   521935 
  465000    1.0412551   -1.6737674   -1.6737674  -0.97232299  0.088538814   -1.6737674   0.70144443   521935 
  466000    1.0422221   -1.6749915   -1.6749915   -0.9728956  0.077752963   -1.6749915   0.70209586   521935 
  467000    1.0423218   -1.6748404   -1.6748404  -0.97267735  0.075451294   -1.6748404   0.70216305   521935 
  468000    1.0403297   -1.6741266   -1.6741266   -0.9733056   0.08804275   -1.6741266   0.70082104   521935 
  469000    1.0415232   -1.6740153   -1.6740153  -0.97239022  0.083997021   -1.6740153   0.70162507   521935 
  470000    1.0413483   -1.6741172   -1.6741172  -0.97260989  0.090336917   -1.6741172   0.70150727   521935 
  471000    1.0413632    -1.674713    -1.674713  -0.97319573  0.072897482    -1.674713   0.70151729   521935 
  472000    1.0411566   -1.6748113   -1.6748113  -0.97343316  0.077010244   -1.6748113    0.7013781   521935 
  473000    1.0440375   -1.6759839   -1.6759839  -0.97266505  0.075231606   -1.6759839   0.70331881   521935 
  474000    1.0428489   -1.6748899   -1.6748899  -0.97237177  0.058823034   -1.6748899   0.70251811   521935 
  475000    1.0421874   -1.6749033   -1.6749033  -0.97283077  0.076547887   -1.6749033   0.70207253   521935 
  476000    1.0444838   -1.6759037   -1.6759037  -0.97228418  0.076337488   -1.6759037   0.70361948   521935 
  477000    1.0451742   -1.6766168   -1.6766168  -0.97253219  0.078262876   -1.6766168   0.70408457   521935 
  478000    1.0455172   -1.6764263   -1.6764263  -0.97211067   0.07789762   -1.6764263   0.70431565   521935 
  479000    1.0437515   -1.6756989   -1.6756989  -0.97257276  0.064173885   -1.6756989   0.70312619   521935 
  480000    1.0423409   -1.6753291   -1.6753291   -0.9731532  0.086010758   -1.6753291   0.70217594   521935 
  481000    1.0434952   -1.6759042   -1.6759042   -0.9729507  0.077074358   -1.6759042   0.70295352   521935 
  482000    1.0450633   -1.6773691   -1.6773691  -0.97335925  0.080071898   -1.6773691   0.70400987   521935 
  483000     1.041272   -1.6749164   -1.6749164  -0.97346062  0.070809928   -1.6749164   0.70145583   521935 
  484000    1.0429291   -1.6764974   -1.6764974  -0.97392526  0.077547134   -1.6764974   0.70257214   521935 
  485000    1.0414389    -1.675039    -1.675039  -0.97347072  0.084229679    -1.675039   0.70156831   521935 
  486000    1.0433175   -1.6756437   -1.6756437  -0.97280991  0.083928988   -1.6756437   0.70283382   521935 
  487000    1.0454508   -1.6771798   -1.6771798  -0.97290889  0.082172849   -1.6771798    0.7042709   521935 
  488000    1.0437159   -1.6765491   -1.6765491  -0.97344688  0.076074422   -1.6765491   0.70310221   521935 
  489000    1.0442177   -1.6763317   -1.6763317  -0.97289143  0.084999059   -1.6763317   0.70344026   521935 
  490000    1.0449399   -1.6770534   -1.6770534  -0.97312668  0.089432197   -1.6770534   0.70392675   521935 
  491000    1.0440989   -1.6770478   -1.6770478  -0.97368762  0.099401476   -1.6770478   0.70336022   521935 
  492000    1.0442379   -1.6771354   -1.6771354  -0.97368158   0.08494107   -1.6771354   0.70345386   521935 
  493000    1.0441699   -1.6773314   -1.6773314  -0.97392332   0.08004962   -1.6773314   0.70340804   521935 
  494000    1.0430639    -1.676883    -1.676883  -0.97422006  0.072480403    -1.676883   0.70266297   521935 
  495000    1.0413719   -1.6752209   -1.6752209  -0.97369771  0.076946196   -1.6752209   0.70152316   521935 
  496000    1.0443745   -1.6768565   -1.6768565  -0.97331065  0.076801096   -1.6768565   0.70354587   521935 
  497000    1.0415669   -1.6758485   -1.6758485  -0.97419396  0.070721037   -1.6758485   0.70165454   521935 
  498000    1.0437269   -1.6769903   -1.6769903  -0.97388063  0.080885465   -1.6769903   0.70310962   521935 
  499000    1.0405268   -1.6758209   -1.6758209  -0.97486709  0.084332168   -1.6758209   0.70095382   521935 
  500000     1.040259   -1.6752405   -1.6752405    -0.974467  0.073588031   -1.6752405   0.70077346   521935 
  501000    1.0426723   -1.6770334   -1.6770334  -0.97463417  0.070986416   -1.6770334   0.70239919   521935 
  502000    1.0411963   -1.6766354   -1.6766354  -0.97523051  0.063276869   -1.6766354   0.70140488   521935 
  503000     1.042511   -1.6772176   -1.6772176  -0.97492709  0.077934406   -1.6772176   0.70229048   521935 
  504000    1.0412323   -1.6759677   -1.6759677  -0.97453859  0.090430639   -1.6759677   0.70142911   521935 
  505000    1.0420789   -1.6760392   -1.6760392  -0.97403976  0.089137829   -1.6760392   0.70199945   521935 
  506000    1.0426283   -1.6770924   -1.6770924  -0.97472287  0.097261394   -1.6770924   0.70236953   521935 
  507000    1.0423502   -1.6765971   -1.6765971   -0.9744149  0.081609627   -1.6765971   0.70218217   521935 
  508000      1.04194   -1.6765628   -1.6765628  -0.97465696  0.072751987   -1.6765628   0.70190582   521935 
  509000    1.0434559   -1.6778533   -1.6778533  -0.97492627  0.070383703   -1.6778533   0.70292706   521935 
  510000    1.0429105   -1.6776977   -1.6776977  -0.97513809  0.092171174   -1.6776977   0.70255962   521935 
  511000     1.043053   -1.6778519   -1.6778519  -0.97519625  0.077119285   -1.6778519   0.70265565   521935 
  512000    1.0417123   -1.6760729   -1.6760729   -0.9743204  0.083843619   -1.6760729   0.70175247   521935 
  513000    1.0419306   -1.6762881   -1.6762881   -0.9743886  0.074409516   -1.6762881   0.70189953   521935 
  514000    1.0423267   -1.6770595   -1.6770595  -0.97489315  0.092478386   -1.6770595   0.70216638   521935 
  515000      1.04182   -1.6770252   -1.6770252   -0.9752002  0.077643991   -1.6770252   0.70182501   521935 
  516000    1.0396532   -1.6753119   -1.6753119   -0.9749466  0.081271866   -1.6753119   0.70036532   521935 
  517000     1.038878   -1.6750898   -1.6750898  -0.97524662  0.082543563   -1.6750898   0.69984315   521935 
  518000    1.0418378   -1.6769752   -1.6769752  -0.97513816  0.076517747   -1.6769752   0.70183701   521935 
  519000    1.0415379   -1.6773763   -1.6773763  -0.97574134  0.058375909   -1.6773763     0.701635   521935 
  520000    1.0385923   -1.6754335   -1.6754335  -0.97578278  0.078698764   -1.6754335   0.69965069   521935 
  521000    1.0389841    -1.676203    -1.676203  -0.97628841  0.070931032    -1.676203    0.6999146   521935 
  522000    1.0393711   -1.6766687   -1.6766687  -0.97649335  0.080011186   -1.6766687    0.7001753   521935 
  523000    1.0392748   -1.6769319   -1.6769319  -0.97682152  0.069002609   -1.6769319   0.70011042   521935 
  524000    1.0413138   -1.6778101   -1.6778101  -0.97632608  0.090665149   -1.6778101     0.701484   521935 
  525000    1.0415295    -1.677856    -1.677856  -0.97622667  0.081665505    -1.677856   0.70162929   521935 
  526000    1.0436439   -1.6786717   -1.6786717    -0.975618  0.074523878   -1.6786717   0.70305372   521935 
  527000    1.0435355   -1.6780996   -1.6780996  -0.97511898  0.080176377   -1.6780996   0.70298065   521935 
  528000    1.0435183   -1.6781207   -1.6781207  -0.97515164    0.0828373   -1.6781207   0.70296906   521935 
  529000    1.0424003   -1.6776794   -1.6776794  -0.97546348  0.075082889   -1.6776794   0.70221591   521935 
  530000    1.0437863   -1.6782397   -1.6782397  -0.97509002  0.081343984   -1.6782397   0.70314964   521935 
  531000    1.0454083   -1.6796172   -1.6796172  -0.97537488  0.076759484   -1.6796172   0.70424227   521935 
  532000    1.0434401    -1.678228    -1.678228  -0.97531164   0.08451242    -1.678228   0.70291636   521935 
  533000    1.0432853   -1.6783503   -1.6783503  -0.97553822  0.071460157   -1.6783503   0.70281211   521935 
  534000    1.0415154   -1.6770706   -1.6770706  -0.97545078  0.078028329   -1.6770706   0.70161985   521935 
  535000    1.0407059    -1.676852    -1.676852  -0.97577744  0.077445767    -1.676852   0.70107452   521935 
  536000    1.0450989   -1.6804133   -1.6804133   -0.9763794   0.08681089   -1.6804133   0.70403388   521935 
  537000     1.041861   -1.6776257   -1.6776257  -0.97577309   0.09586504   -1.6776257   0.70185266   521935 
  538000    1.0421615   -1.6774568   -1.6774568  -0.97540175  0.083112492   -1.6774568   0.70205507   521935 
  539000    1.0399239   -1.6767078   -1.6767078  -0.97616013  0.088950497   -1.6767078   0.70054771   521935 
  540000    1.0409328   -1.6766814   -1.6766814  -0.97545405  0.073681806   -1.6766814   0.70122731   521935 
  541000    1.0422052   -1.6777213   -1.6777213  -0.97563674  0.077487211   -1.6777213   0.70208453   521935 
  542000    1.0407122   -1.6772294   -1.6772294  -0.97615069  0.076434748   -1.6772294   0.70107873   521935 
  543000    1.0404143   -1.6774129   -1.6774129  -0.97653491  0.083418554   -1.6774129   0.70087804   521935 
  544000    1.0413006   -1.6776386   -1.6776386  -0.97616348  0.078759098   -1.6776386   0.70147509   521935 
  545000    1.0408273    -1.676662    -1.676662  -0.97550573  0.068524761    -1.676662   0.70115629   521935 
  546000    1.0379623   -1.6752224   -1.6752224  -0.97599612     0.084642   -1.6752224   0.69922627   521935 
  547000     1.042452    -1.678256    -1.678256   -0.9760053  0.070892756    -1.678256   0.70225073   521935 
  548000    1.0406653   -1.6773385   -1.6773385  -0.97629129   0.08370469   -1.6773385   0.70104717   521935 
  549000     1.042814    -1.678093    -1.678093  -0.97559838  0.084076618    -1.678093   0.70249461   521935 
  550000    1.0416823   -1.6779614   -1.6779614  -0.97622917  0.079160223   -1.6779614   0.70173222   521935 
  551000    1.0443958    -1.678428    -1.678428  -0.97486778  0.080481756    -1.678428   0.70356019   521935 
  552000    1.0446403   -1.6780732   -1.6780732  -0.97434829  0.098931342   -1.6780732    0.7037249   521935 
  553000    1.0404876   -1.6766631   -1.6766631  -0.97573567  0.096199945   -1.6766631   0.70092746   521935 
  554000    1.0429858   -1.6782765   -1.6782765  -0.97566611  0.077940285   -1.6782765   0.70261034   521935 
  555000    1.0429409   -1.6783178   -1.6783178  -0.97573772  0.071656613   -1.6783178   0.70258013   521935 
  556000    1.0426299     -1.67729     -1.67729  -0.97491943  0.091425469     -1.67729   0.70237061   521935 
  557000    1.0435691   -1.6773208   -1.6773208  -0.97431749  0.073164589   -1.6773208   0.70300327   521935 
  558000    1.0466706   -1.6798595   -1.6798595  -0.97476687  0.066147322   -1.6798595   0.70509263   521935 
  559000    1.0403179   -1.6772855   -1.6772855  -0.97647241  0.076320828   -1.6772855    0.7008131   521935 
  560000    1.0417395   -1.6788622   -1.6788622  -0.97709142  0.080631454   -1.6788622   0.70177076   521935 
  561000    1.0414173   -1.6778176   -1.6778176  -0.97626388  0.080254919   -1.6778176   0.70155371   521935 
  562000    1.0417717   -1.6786766   -1.6786766  -0.97688414  0.064390379   -1.6786766    0.7017925   521935 
  563000    1.0414586   -1.6782256   -1.6782256    -0.976644  0.082167445   -1.6782256   0.70158158   521935 
  564000    1.0426803   -1.6792215   -1.6792215  -0.97681695  0.076003269   -1.6792215   0.70240453   521935 
  565000    1.0419085   -1.6784081   -1.6784081  -0.97652345  0.074749256   -1.6784081   0.70188466   521935 
  566000    1.0419018   -1.6789423   -1.6789423  -0.97706213   0.06209713   -1.6789423   0.70188012   521935 
  567000    1.0430299   -1.6798331   -1.6798331  -0.97719297  0.079906812   -1.6798331   0.70264008   521935 
  568000    1.0414597    -1.679025    -1.679025  -0.97744271  0.077260254    -1.679025   0.70158227   521935 
  569000    1.0431996   -1.6810418   -1.6810418  -0.97828743  0.080872669   -1.6810418   0.70275438   521935 
  570000       1.0396   -1.6788721   -1.6788721  -0.97854256  0.085153674   -1.6788721   0.70032952   521935 
  571000    1.0390127   -1.6791748   -1.6791748  -0.97924095   0.07004958   -1.6791748   0.69993384   521935 
  572000    1.0377904   -1.6785404   -1.6785404  -0.97942997  0.085248102   -1.6785404   0.69911043   521935 
  573000    1.0396544   -1.6797396   -1.6797396  -0.97937342  0.084149518   -1.6797396   0.70036614   521935 
  574000    1.0415782   -1.6804124   -1.6804124  -0.97875027  0.079251171   -1.6804124   0.70166214   521935 
  575000    1.0393468   -1.6791878   -1.6791878  -0.97902885  0.083758885   -1.6791878   0.70015895   521935 
  576000    1.0411455   -1.6803216   -1.6803216  -0.97895099  0.070424972   -1.6803216   0.70137065   521935 
  577000    1.0408095   -1.6803193   -1.6803193  -0.97917505  0.074577323   -1.6803193   0.70114428   521935 
  578000    1.0395282   -1.6801052   -1.6801052  -0.97982412  0.086661704   -1.6801052   0.70028112   521935 
  579000     1.041398   -1.6805233   -1.6805233   -0.9789826   0.07250759   -1.6805233   0.70154072   521935 
  580000    1.0418002   -1.6811214   -1.6811214  -0.97930965  0.079259759   -1.6811214    0.7018117   521935 
  581000    1.0392568   -1.6803877   -1.6803877  -0.98028942   0.08145166   -1.6803877   0.70009832   521935 
  582000    1.0382607   -1.6803513   -1.6803513  -0.98092403  0.080825102   -1.6803513    0.6994273   521935 
  583000    1.0405651   -1.6821105   -1.6821105   -0.9811308  0.075987885   -1.6821105   0.70097968   521935 
  584000    1.0377154   -1.6803977   -1.6803977  -0.98133771   0.07978207   -1.6803977   0.69905995   521935 
  585000    1.0405911    -1.681809    -1.681809  -0.98081178  0.088676081    -1.681809   0.70099719   521935 
  586000    1.0385871   -1.6796445   -1.6796445  -0.97999731  0.090875596   -1.6796445   0.69964717   521935 
  587000    1.0407519   -1.6810603   -1.6810603  -0.97995488  0.085174579   -1.6810603   0.70110546   521935 
  588000    1.0385734   -1.6807076   -1.6807076  -0.98106972  0.079151612   -1.6807076    0.6996379   521935 
  589000    1.0403522    -1.681868    -1.681868  -0.98103181  0.082781321    -1.681868   0.70083619   521935 
  590000    1.0411991   -1.6827529   -1.6827529  -0.98134616  0.086180087   -1.6827529   0.70140676   521935 
  591000    1.0417462   -1.6825913   -1.6825913    -0.980816  0.079981257   -1.6825913   0.70177532   521935 
  592000    1.0416264   -1.6825276   -1.6825276  -0.98083298  0.073927097   -1.6825276   0.70169457   521935 
  593000    1.0430208   -1.6838571   -1.6838571   -0.9812232  0.077030874   -1.6838571   0.70263395   521935 
  594000    1.0423652    -1.683116    -1.683116  -0.98092377  0.077567358    -1.683116   0.70219227   521935 
  595000    1.0403594   -1.6822968   -1.6822968  -0.98145573  0.073967642   -1.6822968   0.70084109   521935 
  596000    1.0411413   -1.6822035   -1.6822035  -0.98083573  0.083101887   -1.6822035    0.7013678   521935 
  597000    1.0405117   -1.6820914   -1.6820914  -0.98114773  0.077515717   -1.6820914   0.70094369   521935 
  598000    1.0423143   -1.6824744   -1.6824744  -0.98031641  0.084520366   -1.6824744   0.70215801   521935 
  599000    1.0411801   -1.6818407   -1.6818407  -0.98044675  0.086472388   -1.6818407   0.70139396   521935 
  600000    1.0422111   -1.6829572   -1.6829572  -0.98086875  0.079201195   -1.6829572   0.70208848   521935 
  601000    1.0419043   -1.6831118   -1.6831118  -0.98123002  0.082001265   -1.6831118   0.70188183   521935 
  602000     1.042578   -1.6821062   -1.6821062  -0.97977054  0.089407532   -1.6821062   0.70233561   521935 
  603000    1.0438853   -1.6819043   -1.6819043  -0.97868796  0.076856254   -1.6819043   0.70321633   521935 
  604000    1.0418961   -1.6820768   -1.6820768  -0.98020054  0.075318746   -1.6820768   0.70187625   521935 
  605000    1.0425496   -1.6821067   -1.6821067  -0.97979013  0.065042572   -1.6821067   0.70231653   521935 
  606000    1.0413172   -1.6812254   -1.6812254   -0.9797391  0.066514186   -1.6812254   0.70148632   521935 
  607000    1.0406314   -1.6816577   -1.6816577  -0.98063345  0.085730235   -1.6816577   0.70102428   521935 
  608000    1.0413938   -1.6821642   -1.6821642  -0.98062627  0.064337098   -1.6821642   0.70153792   521935 
  609000    1.0403328   -1.6805379   -1.6805379  -0.97971468   0.06873149   -1.6805379   0.70082318   521935 
  610000    1.0418158   -1.6816588   -1.6816588  -0.97983668  0.085419356   -1.6816588   0.70182216   521935 
  611000     1.042338   -1.6820953   -1.6820953  -0.97992136  0.073064793   -1.6820953   0.70217394   521935 
  612000    1.0424591   -1.6822906   -1.6822906  -0.98003501  0.085140976   -1.6822906   0.70225557   521935 
  613000    1.0452395   -1.6839067   -1.6839067  -0.97977808   0.07658835   -1.6839067   0.70412859   521935 
  614000    1.0408558   -1.6821293   -1.6821293  -0.98095379  0.082106876   -1.6821293    0.7011755   521935 
  615000    1.0440904   -1.6846856   -1.6846856  -0.98133114  0.091176938   -1.6846856   0.70335448   521935 
  616000    1.0435099   -1.6840655   -1.6840655  -0.98110207  0.085458485   -1.6840655   0.70296339   521935 
  617000    1.0386812   -1.6816741   -1.6816741  -0.98196352  0.080265795   -1.6816741   0.69971056   521935 
  618000    1.0394897   -1.6823069   -1.6823069  -0.98205176  0.076388958   -1.6823069   0.70025517   521935 
  619000    1.0409157   -1.6824494   -1.6824494  -0.98123357  0.077920396   -1.6824494   0.70121582   521935 
  620000    1.0372912   -1.6808638   -1.6808638  -0.98208968  0.064009844   -1.6808638   0.69877416   521935 
  621000    1.0394687   -1.6813265   -1.6813265  -0.98108546  0.081145118   -1.6813265   0.70024103   521935 
  622000    1.0412118   -1.6827799   -1.6827799  -0.98136456  0.084818534   -1.6827799   0.70141531   521935 
  623000    1.0424115   -1.6835288   -1.6835288   -0.9813053  0.063818555   -1.6835288   0.70222346   521935 
  624000    1.0404262   -1.6828799   -1.6828799  -0.98199382  0.078073878   -1.6828799   0.70088609   521935 
  625000    1.0403835   -1.6827405   -1.6827405  -0.98188321  0.071076906   -1.6827405    0.7008573   521935 
  626000     1.041657   -1.6836848   -1.6836848  -0.98196956  0.072723592   -1.6836848   0.70171521   521935 
  627000    1.0411516   -1.6829183   -1.6829183  -0.98154361  0.078535649   -1.6829183   0.70137473   521935 
  628000    1.0372529    -1.681201    -1.681201  -0.98245258  0.085996809    -1.681201   0.69874837   521935 
  629000    1.0385128   -1.6822629   -1.6822629  -0.98266582  0.083109626   -1.6822629    0.6995971   521935 
  630000    1.0408967   -1.6846946   -1.6846946  -0.98349159  0.079983065   -1.6846946   0.70120303   521935 
  631000    1.0399126    -1.684328    -1.684328  -0.98378789  0.083617561    -1.684328   0.70054007   521935 
  632000    1.0384989   -1.6829318   -1.6829318  -0.98334406  0.067230758   -1.6829318   0.69958777   521935 
  633000    1.0374617   -1.6822977   -1.6822977  -0.98340869  0.088621996   -1.6822977   0.69888905   521935 
  634000    1.0396649   -1.6830881   -1.6830881  -0.98271484  0.083578787   -1.6830881   0.70037321   521935 
  635000     1.041099   -1.6842141   -1.6842141  -0.98287486  0.076260146   -1.6842141   0.70133929   521935 
  636000    1.0407829   -1.6846571   -1.6846571  -0.98353068   0.08452963   -1.6846571   0.70112639   521935 
  637000    1.0389246   -1.6835796   -1.6835796  -0.98370512  0.087268136   -1.6835796   0.69987451   521935 
  638000    1.0386434   -1.6833447   -1.6833447  -0.98365956  0.077308677   -1.6833447   0.69968509   521935 
  639000    1.0415431   -1.6853757   -1.6853757  -0.98373723  0.079140859   -1.6853757   0.70163848   521935 
  640000    1.0391356    -1.684024    -1.684024  -0.98400734   0.07382147    -1.684024   0.70001668   521935 
  641000    1.0400668   -1.6846255   -1.6846255  -0.98398154  0.088315052   -1.6846255   0.70064396   521935 
  642000     1.040151     -1.68432     -1.68432  -0.98361924  0.072527123     -1.68432   0.70070072   521935 
  643000     1.039896    -1.684138    -1.684138  -0.98360911  0.093691778    -1.684138   0.70052887   521935 
  644000    1.0393865    -1.684418    -1.684418  -0.98423232   0.09005742    -1.684418   0.70018565   521935 
  645000     1.040045   -1.6846564   -1.6846564  -0.98402705  0.084219453   -1.6846564    0.7006293   521935 
  646000    1.0396153   -1.6842763   -1.6842763   -0.9839365  0.084630912   -1.6842763   0.70033981   521935 
  647000     1.040197   -1.6846323   -1.6846323  -0.98390069  0.073820203   -1.6846323   0.70073166   521935 
  648000    1.0406711   -1.6840691   -1.6840691  -0.98301806  0.081546008   -1.6840691   0.70105107   521935 
  649000    1.0417667   -1.6842048   -1.6842048  -0.98241567  0.085996889   -1.6842048   0.70178908   521935 
  650000    1.0410176   -1.6847937   -1.6847937  -0.98350929  0.072984346   -1.6847937   0.70128446   521935 
  651000    1.0378675   -1.6829235   -1.6829235  -0.98376115  0.073115138   -1.6829235    0.6991624   521935 
  652000    1.0378018   -1.6833267   -1.6833267  -0.98420856  0.076081507   -1.6833267   0.69911813   521935 
  653000    1.0397276   -1.6839405   -1.6839405  -0.98352503  0.073727097   -1.6839405   0.70041547   521935 
  654000    1.0413049   -1.6849891   -1.6849891  -0.98351106  0.076951657   -1.6849891   0.70147801   521935 
  655000    1.0396044   -1.6846593   -1.6846593  -0.98432683  0.072238399   -1.6846593   0.70033247   521935 
  656000    1.0397338    -1.684432    -1.684432  -0.98401242  0.086010781    -1.684432    0.7004196   521935 
  657000    1.0397302   -1.6856584   -1.6856584  -0.98524117  0.078899693   -1.6856584   0.70041721   521935 
  658000    1.0382146    -1.684388    -1.684388  -0.98499178  0.087151522    -1.684388   0.69939619   521935 
  659000    1.0378797   -1.6837951   -1.6837951  -0.98462442  0.086297644   -1.6837951   0.69917064   521935 
  660000    1.0395063   -1.6859557   -1.6859557  -0.98568925   0.08476913   -1.6859557   0.70026641   521935 
  661000    1.0391969   -1.6847535   -1.6847535  -0.98469549  0.077198054   -1.6847535   0.70005798   521935 
  662000    1.0400651   -1.6845379   -1.6845379  -0.98389501  0.088978375   -1.6845379   0.70064284   521935 
  663000    1.0393176   -1.6841562   -1.6841562    -0.984017  0.081534517   -1.6841562   0.70013925   521935 
  664000     1.040414   -1.6849299   -1.6849299  -0.98405207  0.081485874   -1.6849299   0.70087783   521935 
  665000    1.0371415   -1.6839481   -1.6839481  -0.98527476  0.072578406   -1.6839481   0.69867331   521935 
  666000    1.0384139   -1.6851966   -1.6851966   -0.9856661  0.063677488   -1.6851966   0.69953049   521935 
  667000    1.0371124   -1.6847867   -1.6847867  -0.98613303  0.069222345   -1.6847867   0.69865372   521935 
  668000    1.0383706   -1.6851525   -1.6851525   -0.9856512  0.092327767   -1.6851525   0.69950132   521935 
  669000    1.0405245   -1.6866773   -1.6866773  -0.98572504  0.076581571   -1.6866773   0.70095228   521935 
  670000    1.0404062   -1.6862092   -1.6862092  -0.98533653  0.074963709   -1.6862092   0.70087262   521935 
  671000    1.0397219   -1.6858698   -1.6858698  -0.98545817  0.072350183   -1.6858698   0.70041161   521935 
  672000    1.0406273   -1.6864853   -1.6864853  -0.98546379  0.079964366   -1.6864853   0.70102155   521935 
  673000    1.0394767   -1.6848964   -1.6848964  -0.98464994  0.076783026   -1.6848964   0.70024645   521935 
  674000    1.0407153   -1.6860572   -1.6860572  -0.98497635   0.07938714   -1.6860572    0.7010808   521935 
  675000    1.0383434   -1.6838026   -1.6838026  -0.98431957  0.057821854   -1.6838026   0.69948302   521935 
  676000    1.0413574   -1.6854895   -1.6854895  -0.98397616  0.088800272   -1.6854895   0.70151338   521935 
  677000    1.0398003   -1.6847217   -1.6847217  -0.98425725  0.081286794   -1.6847217   0.70046442   521935 
  678000     1.040233   -1.6851052   -1.6851052  -0.98434934  0.080266776   -1.6851052    0.7007559   521935 
  679000    1.0397546   -1.6839734   -1.6839734  -0.98353976   0.07012339   -1.6839734   0.70043362   521935 
  680000    1.0402882   -1.6836704   -1.6836704  -0.98287727  0.077238326   -1.6836704    0.7007931   521935 
  681000    1.0382142   -1.6831451   -1.6831451  -0.98374914  0.063639983   -1.6831451   0.69939592   521935 
  682000    1.0379324   -1.6824419   -1.6824419   -0.9832358  0.071010554   -1.6824419   0.69920613   521935 
  683000    1.0358838   -1.6817751   -1.6817751  -0.98394897   0.07386224   -1.6817751    0.6978261   521935 
  684000    1.0383135   -1.6829216   -1.6829216  -0.98345876  0.065037096   -1.6829216   0.69946284   521935 
  685000    1.0377009   -1.6839501   -1.6839501  -0.98489995  0.084763264   -1.6839501   0.69905018   521935 
  686000    1.0380563   -1.6839947   -1.6839947  -0.98470507  0.088327499   -1.6839947   0.69928961   521935 
  687000    1.0407566   -1.6852927   -1.6852927  -0.98418409  0.087508505   -1.6852927   0.70110863   521935 
  688000    1.0393169   -1.6849447   -1.6849447  -0.98480585   0.07832595   -1.6849447    0.7001388   521935 
  689000    1.0364797   -1.6832263   -1.6832263  -0.98499877  0.071739583   -1.6832263    0.6982275   521935 
  690000    1.0359746   -1.6836285   -1.6836285  -0.98574123  0.085229768   -1.6836285   0.69788724   521935 
  691000    1.0379551   -1.6846001   -1.6846001  -0.98537862  0.077191573   -1.6846001   0.69922144   521935 
  692000    1.0405725   -1.6870802   -1.6870802  -0.98609559   0.09780216   -1.6870802   0.70098464   521935 
  693000       1.0388   -1.6864915   -1.6864915  -0.98670089  0.063760302   -1.6864915   0.69979058   521935 
  694000    1.0387092   -1.6862249   -1.6862249  -0.98649551  0.056750224   -1.6862249   0.69972941   521935 
  695000    1.0383975   -1.6858395   -1.6858395  -0.98632009  0.079957543   -1.6858395   0.69951945   521935 
  696000    1.0392758   -1.6867124   -1.6867124  -0.98660124  0.071522934   -1.6867124   0.70011113   521935 
  697000    1.0350388   -1.6839423   -1.6839423   -0.9866855  0.072633033   -1.6839423   0.69725685   521935 
  698000    1.0374829   -1.6853854   -1.6853854  -0.98648211  0.087677971   -1.6853854   0.69890328   521935 
  699000    1.0381309   -1.6859517   -1.6859517  -0.98661184  0.069346433   -1.6859517   0.69933982   521935 
  700000    1.0370501   -1.6849919   -1.6849919  -0.98638015  0.080692163   -1.6849919   0.69861174   521935 
  701000    1.0363138   -1.6849597   -1.6849597  -0.98684403  0.069219401   -1.6849597   0.69811571   521935 
  702000    1.0353787     -1.68346     -1.68346  -0.98597418  0.077760064     -1.68346   0.69748582   521935 
  703000    1.0385067   -1.6857661   -1.6857661   -0.9861731   0.08133134   -1.6857661   0.69959299   521935 
  704000    1.0369398   -1.6852843   -1.6852843  -0.98674687  0.081767005   -1.6852843   0.69853748   521935 
  705000    1.0383495   -1.6861822   -1.6861822  -0.98669506  0.069477666   -1.6861822    0.6994871   521935 
  706000    1.0367784   -1.6856787   -1.6856787  -0.98724996  0.077176573   -1.6856787   0.69842872   521935 
  707000    1.0386931   -1.6864284   -1.6864284  -0.98670988  0.085639844   -1.6864284   0.69971855   521935 
  708000    1.0372984   -1.6859036   -1.6859036  -0.98712463  0.092186983   -1.6859036     0.698779   521935 
  709000    1.0376115   -1.6853788   -1.6853788  -0.98638881  0.075598321   -1.6853788   0.69898997   521935 
  710000    1.0378015   -1.6855723   -1.6855723  -0.98645433  0.082400462   -1.6855723   0.69911796   521935 
  711000    1.0399153   -1.6866078   -1.6866078  -0.98606589  0.077402304   -1.6866078   0.70054188   521935 
  712000    1.0378523   -1.6859016   -1.6859016  -0.98674951  0.078701093   -1.6859016   0.69915213   521935 
  713000    1.0355223   -1.6848399   -1.6848399  -0.98725734  0.070233794   -1.6848399   0.69758254   521935 
  714000    1.0371606   -1.6865128   -1.6865128  -0.98782661  0.071190611   -1.6865128   0.69868622   521935 
  715000    1.0371039   -1.6863661   -1.6863661   -0.9877181  0.071300348   -1.6863661   0.69864801   521935 
  716000    1.0353719   -1.6856013   -1.6856013   -0.9881201   0.06903966   -1.6856013    0.6974812   521935 
  717000    1.0372123   -1.6864175   -1.6864175  -0.98769642  0.068889251   -1.6864175   0.69872103   521935 
  718000    1.0372641   -1.6868766   -1.6868766   -0.9881207  0.077570206   -1.6868766    0.6987559   521935 
  719000    1.0377825   -1.6872563   -1.6872563  -0.98815121  0.073126835   -1.6872563   0.69910513   521935 
  720000    1.0381808   -1.6874032   -1.6874032  -0.98802975  0.075193717   -1.6874032   0.69937345   521935 
  721000    1.0370917   -1.6870233   -1.6870233  -0.98838357  0.082291429   -1.6870233   0.69863977   521935 
  722000    1.0378718   -1.6868582   -1.6868582  -0.98769295  0.076242386   -1.6868582   0.69916527   521935 
  723000     1.038886     -1.68678     -1.68678  -0.98693153  0.072537676     -1.68678   0.69984849   521935 
  724000    1.0395325   -1.6869092   -1.6869092   -0.9866252  0.089634228   -1.6869092   0.70028403   521935 
  725000    1.0432838    -1.688896    -1.688896  -0.98608497  0.071050264    -1.688896   0.70281107   521935 
  726000    1.0366087   -1.6838753   -1.6838753   -0.9855609  0.094798489   -1.6838753   0.69831442   521935 
  727000    1.0408773   -1.6869163   -1.6869163   -0.9857264  0.072396509   -1.6869163   0.70118994   521935 
  728000    1.0359229   -1.6839294   -1.6839294    -0.986077  0.088717216   -1.6839294   0.69785241   521935 
  729000     1.037146   -1.6840463   -1.6840463  -0.98536996  0.076405698   -1.6840463   0.69867635   521935 
  730000    1.0388178   -1.6854766   -1.6854766  -0.98567405  0.073461015   -1.6854766   0.69980259   521935 
  731000    1.0378818   -1.6853136   -1.6853136  -0.98614159  0.075206476   -1.6853136     0.699172   521935 
  732000    1.0381255   -1.6860748   -1.6860748  -0.98673863  0.063894384   -1.6860748   0.69933617   521935 
  733000     1.038388   -1.6864796   -1.6864796  -0.98696653  0.074223229   -1.6864796   0.69951306   521935 
  734000     1.038728    -1.686703    -1.686703  -0.98696091  0.064659616    -1.686703   0.69974211   521935 
  735000    1.0394491   -1.6864602   -1.6864602  -0.98623237  0.082054775   -1.6864602   0.70022786   521935 
  736000    1.0363043   -1.6846509   -1.6846509  -0.98654151  0.086086729   -1.6846509   0.69810935   521935 
  737000    1.0348954   -1.6839917   -1.6839917  -0.98683147  0.079444712   -1.6839917   0.69716027   521935 
  738000    1.0378559   -1.6868957   -1.6868957   -0.9877411  0.069552186   -1.6868957   0.69915456   521935 
  739000    1.0376015   -1.6863582   -1.6863582  -0.98737498  0.075484224   -1.6863582   0.69898324   521935 
  740000    1.0388434   -1.6872827   -1.6872827   -0.9874629  0.073173184   -1.6872827    0.6998198   521935 
  741000    1.0386746   -1.6868884   -1.6868884  -0.98718227  0.090451149   -1.6868884   0.69970609   521935 
  742000    1.0416676   -1.6888502   -1.6888502  -0.98712788    0.1025231   -1.6888502   0.70172233   521935 
  743000    1.0417179   -1.6889416   -1.6889416  -0.98718538  0.082858905   -1.6889416   0.70175626   521935 
  744000    1.0397583   -1.6880894   -1.6880894  -0.98765326   0.07959168   -1.6880894   0.70043614   521935 
  745000    1.0373683   -1.6861841   -1.6861841  -0.98735801  0.083135752   -1.6861841   0.69882612   521935 
  746000    1.0370233   -1.6863092   -1.6863092  -0.98771548  0.083922503   -1.6863092   0.69859371   521935 
  747000    1.0387265   -1.6883181   -1.6883181  -0.98857703  0.069574324   -1.6883181   0.69974106   521935 
  748000    1.0385343   -1.6876586   -1.6876586  -0.98804704  0.092727044   -1.6876586    0.6996116   521935 
  749000    1.0391696   -1.6873952   -1.6873952  -0.98735567  0.080093255   -1.6873952   0.70003953   521935 
  750000    1.0386247   -1.6875641   -1.6875641  -0.98789169  0.068069077   -1.6875641   0.69967246   521935 
  751000     1.037134    -1.687006    -1.687006  -0.98833775  0.082900903    -1.687006   0.69866829   521935 
  752000    1.0385704   -1.6870786   -1.6870786  -0.98744268  0.069254303   -1.6870786   0.69963594   521935 
  753000    1.0382834    -1.687717    -1.687717  -0.98827441  0.064874691    -1.687717   0.69944255   521935 
  754000    1.0370984   -1.6868661   -1.6868661  -0.98822178  0.079941489   -1.6868661   0.69864429   521935 
  755000    1.0362033   -1.6866745   -1.6866745  -0.98863318  0.088515501   -1.6866745   0.69804133   521935 
  756000    1.0359656   -1.6858833   -1.6858833  -0.98800208  0.072116637   -1.6858833   0.69788117   521935 
  757000    1.0349755   -1.6859737   -1.6859737  -0.98875949  0.084602718   -1.6859737   0.69721419   521935 
  758000    1.0368461   -1.6865591   -1.6865591  -0.98808477  0.080930562   -1.6865591    0.6984743   521935 
  759000    1.0349676   -1.6848772   -1.6848772  -0.98766828  0.080704433   -1.6848772   0.69720888   521935 
  760000    1.0359713   -1.6853482   -1.6853482  -0.98746314  0.075617474   -1.6853482   0.69788502   521935 
  761000    1.0386796   -1.6867616   -1.6867616  -0.98705217  0.068515148   -1.6867616   0.69970948   521935 
  762000    1.0365634   -1.6863783   -1.6863783  -0.98809448  0.087873255   -1.6863783   0.69828386   521935 
  763000     1.038276   -1.6877429   -1.6877429  -0.98830529  0.077781617   -1.6877429    0.6994376   521935 
  764000    1.0386572   -1.6882404   -1.6882404    -0.988546  0.088245106   -1.6882404   0.69969437   521935 
  765000    1.0384599   -1.6881736   -1.6881736  -0.98861216   0.08156658   -1.6881736   0.69956145   521935 
  766000    1.0384889   -1.6877724   -1.6877724  -0.98819141  0.094290233   -1.6877724   0.69958103   521935 
  767000    1.0382951   -1.6874156   -1.6874156  -0.98796512  0.062943284   -1.6874156   0.69945046   521935 
  768000    1.0386515   -1.6879781   -1.6879781  -0.98828759  0.087783784   -1.6879781   0.69969054   521935 
  769000    1.0395624   -1.6884465   -1.6884465  -0.98814233  0.064095279   -1.6884465   0.70030417   521935 
  770000    1.0370032   -1.6870135   -1.6870135  -0.98843335  0.075112055   -1.6870135   0.69858014   521935 
  771000    1.0391433   -1.6882713   -1.6882713  -0.98824943  0.072411543   -1.6882713   0.70002188   521935 
  772000    1.0373914   -1.6869041   -1.6869041  -0.98806239  0.070512316   -1.6869041   0.69884168   521935 
  773000    1.0377243   -1.6872165   -1.6872165  -0.98815062  0.066630826   -1.6872165   0.69906591   521935 
  774000    1.0378171   -1.6875812   -1.6875812  -0.98845276  0.084398869   -1.6875812   0.69912845   521935 
  775000    1.0402158   -1.6887274   -1.6887274  -0.98798299  0.083566704   -1.6887274   0.70074437   521935 
  776000    1.0375307   -1.6868722   -1.6868722  -0.98793672  0.075267049   -1.6868722   0.69893548   521935 
  777000    1.0381659   -1.6874479   -1.6874479  -0.98808446  0.062174916   -1.6874479   0.69936343   521935 
  778000    1.0355658   -1.6868986   -1.6868986  -0.98928677  0.085967364   -1.6868986   0.69761182   521935 
  779000    1.0380674   -1.6879104   -1.6879104  -0.98861331  0.071636501   -1.6879104   0.69929708   521935 
  780000    1.0405392    -1.688304    -1.688304  -0.98734183  0.071094407    -1.688304    0.7009622   521935 
  781000    1.0381071   -1.6873905   -1.6873905  -0.98806674    0.0687034   -1.6873905   0.69932378   521935 
  782000    1.0387599   -1.6887797   -1.6887797  -0.98901617  0.065132087   -1.6887797   0.69976358   521935 
  783000    1.0373467   -1.6879862   -1.6879862  -0.98917463  0.062803057   -1.6879862   0.69881158   521935 
  784000    1.0373014   -1.6886394   -1.6886394   -0.9898584  0.073610428   -1.6886394   0.69878105   521935 
  785000      1.03668     -1.68803     -1.68803  -0.98966751  0.089850782     -1.68803   0.69836245   521935 
  786000    1.0386592   -1.6888858   -1.6888858  -0.98919011  0.070765213   -1.6888858   0.69969574   521935 
  787000    1.0404001   -1.6902418   -1.6902418  -0.98937328   0.08081411   -1.6902418   0.70086852   521935 
  788000    1.0383168    -1.690327    -1.690327    -0.990862  0.079566571    -1.690327   0.69946505   521935 
  789000    1.0383681   -1.6902062   -1.6902062  -0.99070657  0.064678959   -1.6902062   0.69949962   521935 
  790000    1.0366129   -1.6891053   -1.6891053  -0.99078806  0.077788072   -1.6891053   0.69831721   521935 
  791000    1.0383465   -1.6895963   -1.6895963  -0.99011118  0.083767514   -1.6895963   0.69948507   521935 
  792000    1.0395181   -1.6904167   -1.6904167  -0.99014239  0.083170519   -1.6904167   0.70027432   521935 
  793000    1.0375869   -1.6896438   -1.6896438  -0.99067042   0.06950731   -1.6896438   0.69897335   521935 
  794000    1.0387186   -1.6902349   -1.6902349  -0.99049922  0.079817983   -1.6902349   0.69973571   521935 
  795000    1.0374762   -1.6903744   -1.6903744   -0.9914756  0.076385528   -1.6903744   0.69889877   521935 
  796000    1.0367384   -1.6900119   -1.6900119  -0.99161014  0.073322565   -1.6900119    0.6984018   521935 
  797000     1.036254   -1.6896902   -1.6896902   -0.9916147  0.071405349   -1.6896902   0.69807547   521935 
  798000    1.0366557   -1.6894463   -1.6894463  -0.99110026  0.083997859   -1.6894463   0.69834607   521935 
  799000    1.0358527   -1.6890747   -1.6890747  -0.99126959  0.076646857   -1.6890747   0.69780515   521935 
  800000    1.0359298   -1.6892452   -1.6892452  -0.99138815  0.065519195   -1.6892452   0.69785707   521935 
  801000     1.035734   -1.6885493   -1.6885493  -0.99082412  0.093555891   -1.6885493   0.69772515   521935 
  802000    1.0385563    -1.690598    -1.690598  -0.99097163  0.083465141    -1.690598   0.69962641   521935 
  803000    1.0388727   -1.6908743   -1.6908743  -0.99103478  0.067720856   -1.6908743   0.69983953   521935 
  804000    1.0374464   -1.6905515   -1.6905515  -0.99167278  0.067997789   -1.6905515   0.69887875   521935 
  805000    1.0375814   -1.6912615   -1.6912615  -0.99229178  0.067300573   -1.6912615    0.6989697   521935 
  806000    1.0373712   -1.6901853   -1.6901853  -0.99135719  0.070523075   -1.6901853   0.69882809   521935 
  807000    1.0396427    -1.690666    -1.690666  -0.99030778  0.073796189    -1.690666   0.70035825   521935 
  808000     1.038758   -1.6897457   -1.6897457  -0.98998341  0.088728289   -1.6897457   0.69976232   521935 
  809000    1.0369483   -1.6889325   -1.6889325  -0.99038931  0.075321963   -1.6889325    0.6985432   521935 
  810000    1.0369484   -1.6899338   -1.6899338  -0.99139053  0.083102907   -1.6899338   0.69854324   521935 
  811000    1.0363719   -1.6893715   -1.6893715  -0.99121659  0.065841937   -1.6893715   0.69815488   521935 
  812000    1.0378571   -1.6905246   -1.6905246  -0.99136918  0.069444379   -1.6905246   0.69915539   521935 
  813000    1.0370092   -1.6901527   -1.6901527  -0.99156846  0.078138391   -1.6901527   0.69858422   521935 
  814000    1.0367531   -1.6901847   -1.6901847  -0.99177307  0.077812032   -1.6901847   0.69841166   521935 
  815000    1.0363027   -1.6896111   -1.6896111  -0.99150285  0.073579734   -1.6896111   0.69810826   521935 
  816000    1.0352941   -1.6887274   -1.6887274  -0.99129862  0.069519078   -1.6887274    0.6974288   521935 
  817000    1.0404476    -1.691625    -1.691625  -0.99072448  0.087667141    -1.691625    0.7009005   521935 
  818000    1.0388612   -1.6914187   -1.6914187  -0.99158689  0.079309184   -1.6914187    0.6998318   521935 
  819000    1.0373921   -1.6908762   -1.6908762  -0.99203409  0.077639804   -1.6908762   0.69884212   521935 
  820000    1.0386183   -1.6918816   -1.6918816  -0.99221338  0.082496298   -1.6918816   0.69966821   521935 
  821000    1.0365514    -1.690567    -1.690567  -0.99229119  0.084828692    -1.690567   0.69827578   521935 
  822000    1.0357495    -1.689865    -1.689865  -0.99212939  0.069223576    -1.689865   0.69773559   521935 
  823000    1.0371607    -1.690796    -1.690796  -0.99210977  0.082414542    -1.690796   0.69868625   521935 
  824000    1.0368868   -1.6904299   -1.6904299  -0.99192819     0.076981   -1.6904299   0.69850174   521935 
  825000    1.0385865    -1.690853    -1.690853  -0.99120625  0.069406881    -1.690853   0.69964674   521935 
  826000    1.0372984   -1.6906025   -1.6906025  -0.99182346   0.07979269   -1.6906025   0.69877901   521935 
  827000    1.0370912   -1.6906465   -1.6906465  -0.99200705  0.077617643   -1.6906465   0.69863944   521935 
  828000    1.0365769    -1.691005    -1.691005  -0.99271194  0.065021844    -1.691005   0.69829302   521935 
  829000    1.0377137   -1.6917763   -1.6917763  -0.99271747  0.075040529   -1.6917763   0.69905881   521935 
  830000    1.0359801   -1.6899323   -1.6899323  -0.99204128  0.076518071   -1.6899323   0.69789097   521935 
  831000    1.0361625   -1.6896846   -1.6896846  -0.99167079  0.075274361   -1.6896846    0.6980138   521935 
  832000    1.0398434   -1.6920473   -1.6920473  -0.99155382  0.084800227   -1.6920473    0.7004935   521935 
  833000    1.0382759   -1.6909129   -1.6909129  -0.99147537   0.07386414   -1.6909129   0.69943755   521935 
  834000    1.0385563   -1.6917547   -1.6917547  -0.99212831  0.079312554   -1.6917547   0.69962641   521935 
  835000    1.0367925   -1.6892332   -1.6892332  -0.99079499  0.087023846   -1.6892332   0.69843824   521935 
  836000    1.0386104   -1.6911407   -1.6911407  -0.99147788  0.077758115   -1.6911407   0.69966285   521935 
  837000    1.0379781   -1.6903741   -1.6903741  -0.99113718  0.065114907   -1.6903741   0.69923693   521935 
  838000    1.0375779    -1.690371    -1.690371  -0.99140365  0.083576177    -1.690371    0.6989673   521935 
  839000    1.0403256   -1.6917617   -1.6917617  -0.99094339  0.070867907   -1.6917617    0.7008183   521935 
  840000     1.037972   -1.6907917   -1.6907917  -0.99155886  0.085554162   -1.6907917   0.69923281   521935 
  841000    1.0377358    -1.690245    -1.690245  -0.99117128  0.077224819    -1.690245   0.69907371   521935 
  842000    1.0395836   -1.6907896   -1.6907896  -0.99047117  0.095435423   -1.6907896   0.70031845   521935 
  843000    1.0371363   -1.6894869   -1.6894869  -0.99081704   0.07449471   -1.6894869   0.69866984   521935 
  844000     1.038037   -1.6892885   -1.6892885  -0.99001188  0.087043896   -1.6892885   0.69927658   521935 
  845000    1.0371814   -1.6894457   -1.6894457  -0.99074554  0.071070793   -1.6894457    0.6987002   521935 
  846000     1.036563   -1.6889876   -1.6889876  -0.99070399  0.078380113   -1.6889876   0.69828359   521935 
  847000    1.0386185   -1.6907424   -1.6907424  -0.99107414  0.077398702   -1.6907424   0.69966831   521935 
  848000    1.0396962   -1.6915864   -1.6915864  -0.99119207  0.078389702   -1.6915864    0.7003943   521935 
  849000    1.0358622   -1.6889568   -1.6889568  -0.99114525  0.089141671   -1.6889568   0.69781151   521935 
  850000     1.038206    -1.691238    -1.691238  -0.99184757  0.078376989    -1.691238   0.69939041   521935 
  851000    1.0375923   -1.6907764   -1.6907764  -0.99179936  0.080455902   -1.6907764   0.69897702   521935 
  852000    1.0402118   -1.6929939   -1.6929939  -0.99225222  0.081422161   -1.6929939   0.70074166   521935 
  853000    1.0365441   -1.6902008   -1.6902008  -0.99192994  0.074639427   -1.6902008    0.6982709   521935 
  854000    1.0386171   -1.6915061   -1.6915061  -0.99183875  0.069529999   -1.6915061   0.69966734   521935 
  855000    1.0376872    -1.690716    -1.690716  -0.99167498   0.07479219    -1.690716   0.69904097   521935 
  856000    1.0403127   -1.6927957   -1.6927957  -0.99198609  0.072572533   -1.6927957    0.7008096   521935 
  857000    1.0361954   -1.6901396   -1.6901396  -0.99210365  0.069964394   -1.6901396   0.69803596   521935 
  858000    1.0376874   -1.6911028   -1.6911028   -0.9920618  0.070829959   -1.6911028   0.69904105   521935 
  859000    1.0366582   -1.6901929   -1.6901929  -0.99184507  0.065714523   -1.6901929   0.69834778   521935 
  860000    1.0355836   -1.6897518   -1.6897518  -0.99212798  0.084036913   -1.6897518   0.69762382   521935 
  861000    1.0341753   -1.6901408   -1.6901408  -0.99346568  0.067358669   -1.6901408   0.69667517   521935 
  862000    1.0350439   -1.6901536   -1.6901536  -0.99289336  0.079337662   -1.6901536   0.69726024   521935 
  863000    1.0371559    -1.690748    -1.690748  -0.99206504  0.084886606    -1.690748   0.69868301   521935 
  864000    1.0381403   -1.6921703   -1.6921703  -0.99282412  0.082919168   -1.6921703   0.69934615   521935 
  865000    1.0377855   -1.6918848   -1.6918848  -0.99277764  0.082791318   -1.6918848   0.69910716   521935 
  866000    1.0376289   -1.6911968   -1.6911968  -0.99219514  0.089321937   -1.6911968   0.69900166   521935 
  867000    1.0406623   -1.6927773   -1.6927773  -0.99173219  0.076124033   -1.6927773   0.70104515   521935 
  868000    1.0382583   -1.6907972   -1.6907972  -0.99137152  0.077230832   -1.6907972   0.69942565   521935 
  869000    1.0382046   -1.6911483   -1.6911483  -0.99175878  0.086214764   -1.6911483   0.69938949   521935 
  870000    1.0391383   -1.6917695   -1.6917695  -0.99175104  0.077857443   -1.6917695   0.70001846   521935 
  871000    1.0385206   -1.6921857   -1.6921857  -0.99258335  0.067575798   -1.6921857   0.69960239   521935 
  872000    1.0370662   -1.6910841   -1.6910841  -0.99246151  0.084452406   -1.6910841   0.69862257   521935 
  873000    1.0378225   -1.6905763   -1.6905763  -0.99144422   0.08301418   -1.6905763   0.69913212   521935 
  874000    1.0366472   -1.6905013   -1.6905013  -0.99216093  0.073114456   -1.6905013   0.69834035   521935 
  875000     1.036916   -1.6907186   -1.6907186  -0.99219714  0.064627083   -1.6907186   0.69852145   521935 
  876000    1.0371436   -1.6905625   -1.6905625  -0.99188771  0.066700181   -1.6905625   0.69867475   521935 
  877000    1.0375851   -1.6910624   -1.6910624  -0.99209029  0.074749595   -1.6910624   0.69897214   521935 
  878000    1.0362777   -1.6910128   -1.6910128  -0.99292137  0.084408641   -1.6910128   0.69809144   521935 
  879000    1.0358468   -1.6914453   -1.6914453  -0.99364412  0.067871824   -1.6914453   0.69780114   521935 
  880000    1.0376055   -1.6922571   -1.6922571   -0.9932712  0.074252643   -1.6922571   0.69898593   521935 
  881000    1.0385166   -1.6927146   -1.6927146  -0.99311494  0.068357834   -1.6927146   0.69959964   521935 
  882000    1.0385719   -1.6932717   -1.6932717  -0.99363479  0.074723227   -1.6932717    0.6996369   521935 
  883000    1.0379923   -1.6932563   -1.6932563  -0.99400989  0.071458879   -1.6932563   0.69924645   521935 
  884000    1.0342143   -1.6908613   -1.6908613  -0.99415988  0.079221272   -1.6908613    0.6967014   521935 
  885000    1.0369032   -1.6920596   -1.6920596  -0.99354676    0.0832311   -1.6920596    0.6985128   521935 
  886000    1.0364422   -1.6918448   -1.6918448  -0.99364256   0.07746277   -1.6918448   0.69820226   521935 
  887000    1.0382251   -1.6926736   -1.6926736   -0.9932703  0.074290979   -1.6926736   0.69940328   521935 
  888000    1.0341069     -1.69062     -1.69062  -0.99399096  0.090100108     -1.69062   0.69662908   521935 
  889000    1.0371029   -1.6922874   -1.6922874  -0.99364013  0.080147461   -1.6922874   0.69864731   521935 
  890000    1.0372304   -1.6930229   -1.6930229  -0.99428969  0.073865599   -1.6930229   0.69873321   521935 
  891000    1.0369602   -1.6931065   -1.6931065  -0.99455534  0.089976938   -1.6931065   0.69855118   521935 
  892000    1.0346664    -1.691778    -1.691778  -0.99477204  0.077402088    -1.691778     0.697006   521935 
  893000    1.0354882   -1.6926744   -1.6926744  -0.99511476  0.085158523   -1.6926744   0.69755959   521935 
  894000    1.0365489   -1.6939402   -1.6939402  -0.99566602  0.070276139   -1.6939402   0.69827415   521935 
  895000    1.0385565   -1.6950566   -1.6950566   -0.9954301  0.082765184   -1.6950566   0.69962653   521935 
  896000    1.0373131   -1.6941066   -1.6941066  -0.99531768  0.081060065   -1.6941066    0.6987889   521935 
  897000    1.0363401    -1.693874    -1.693874  -0.99574055  0.067463143    -1.693874   0.69813344   521935 
  898000    1.0360701   -1.6929589   -1.6929589  -0.99500732   0.07327647   -1.6929589   0.69795155   521935 
  899000    1.0370494   -1.6944338   -1.6944338  -0.99582248  0.062726247   -1.6944338   0.69861128   521935 
  900000    1.0356608   -1.6941547   -1.6941547  -0.99647884  0.071157749   -1.6941547   0.69767586   521935 
  901000     1.037975   -1.6950569   -1.6950569  -0.99582205  0.078527941   -1.6950569   0.69923481   521935 
  902000    1.0364608   -1.6946206   -1.6946206  -0.99640584  0.062968763   -1.6946206   0.69821476   521935 
  903000    1.0346505    -1.693681    -1.693681  -0.99668568  0.072546901    -1.693681   0.69699529   521935 
  904000    1.0350278   -1.6938236   -1.6938236  -0.99657411  0.078348759   -1.6938236   0.69724945   521935 
  905000     1.035908   -1.6948641   -1.6948641  -0.99702167  0.058834891   -1.6948641    0.6978424   521935 
  906000    1.0358559   -1.6945114   -1.6945114  -0.99670412  0.085420308   -1.6945114   0.69780731   521935 
  907000    1.0365977   -1.6951479   -1.6951479  -0.99684092   0.08716708   -1.6951479   0.69830696   521935 
  908000    1.0361412   -1.6951654   -1.6951654  -0.99716598  0.089830283   -1.6951654   0.69799944   521935 
  909000    1.0376923   -1.6967593   -1.6967593  -0.99771486  0.076430845   -1.6967593   0.69904441   521935 
  910000    1.0341965   -1.6946325   -1.6946325  -0.99794307  0.067872244   -1.6946325   0.69668942   521935 
  911000      1.03567   -1.6945478   -1.6945478  -0.99686573  0.083157302   -1.6945478   0.69768206   521935 
  912000     1.035774   -1.6948352   -1.6948352  -0.99708311  0.072625215   -1.6948352   0.69775208   521935 
  913000    1.0379395   -1.6968979   -1.6968979  -0.99768701  0.073536526   -1.6968979   0.69921089   521935 
  914000    1.0371153   -1.6961497   -1.6961497    -0.997494  0.075051526   -1.6961497   0.69865566   521935 
  915000    1.0344059   -1.6943987   -1.6943987  -0.99756815  0.085615658   -1.6943987   0.69683051   521935 
  916000    1.0348849   -1.6937461   -1.6937461  -0.99659289  0.077354455   -1.6937461   0.69715316   521935 
  917000    1.0374166    -1.695249    -1.695249  -0.99639037  0.075628049    -1.695249   0.69885862   521935 
  918000    1.0362964   -1.6948637   -1.6948637  -0.99675969  0.069760462   -1.6948637   0.69810402   521935 
  919000    1.0351479    -1.694017    -1.694017   -0.9966867  0.067451046    -1.694017   0.69733032   521935 
  920000    1.0385448   -1.6960531   -1.6960531   -0.9964344  0.077594949   -1.6960531   0.69961869   521935 
  921000    1.0372357   -1.6944514   -1.6944514  -0.99571457  0.081835101   -1.6944514   0.69873681   521935 
  922000     1.038267   -1.6944636   -1.6944636  -0.99503214  0.081486043   -1.6944636    0.6994315   521935 
  923000    1.0372797   -1.6944263   -1.6944263  -0.99565994  0.072496611   -1.6944263   0.69876641   521935 
  924000    1.0388252   -1.6957372   -1.6957372   -0.9959296  0.078243633   -1.6957372   0.69980758   521935 
  925000    1.0375348   -1.6945793   -1.6945793    -0.995641  0.084236964   -1.6945793   0.69893826   521935 
  926000    1.0367515   -1.6941029   -1.6941029  -0.99569232  0.084563408   -1.6941029   0.69841057   521935 
  927000     1.037125   -1.6949769   -1.6949769  -0.99631467  0.066045117   -1.6949769    0.6986622   521935 
  928000    1.0362951   -1.6943101   -1.6943101  -0.99620689  0.079901989   -1.6943101   0.69810317   521935 
  929000    1.0367711   -1.6953862   -1.6953862  -0.99696243  0.079506757   -1.6953862   0.69842381   521935 
  930000    1.0339621   -1.6929209   -1.6929209  -0.99638939  0.067434053   -1.6929209   0.69653152   521935 
  931000     1.035043   -1.6926011   -1.6926011  -0.99534149  0.076933222   -1.6926011   0.69725965   521935 
  932000    1.0370351   -1.6938963   -1.6938963  -0.99529468  0.077421798   -1.6938963   0.69860166   521935 
  933000    1.0359569   -1.6934932   -1.6934932  -0.99561792  0.065466172   -1.6934932   0.69787529   521935 
  934000    1.0359168    -1.693876    -1.693876  -0.99602772  0.063444181    -1.693876   0.69784833   521935 
  935000    1.0367726   -1.6941156   -1.6941156   -0.9956908  0.073534103   -1.6941156   0.69842479   521935 
  936000    1.0351246   -1.6928354   -1.6928354  -0.99552076   0.08019616   -1.6928354   0.69731462   521935 
  937000    1.0381333   -1.6942725   -1.6942725  -0.99493107  0.084104558   -1.6942725   0.69934144   521935 
  938000    1.0375816   -1.6937016   -1.6937016  -0.99473178  0.086286375   -1.6937016   0.69896978   521935 
  939000    1.0387101   -1.6948479   -1.6948479  -0.99511791  0.086174878   -1.6948479   0.69972999   521935 
  940000    1.0397903   -1.6957335   -1.6957335  -0.99527583   0.06793117   -1.6957335    0.7004577   521935 
  941000    1.0393449   -1.6944996   -1.6944996  -0.99434196  0.075617112   -1.6944996   0.70015768   521935 
  942000    1.0377929   -1.6936639   -1.6936639  -0.99455179  0.076411043   -1.6936639   0.69911212   521935 
  943000    1.0397164   -1.6947319   -1.6947319  -0.99432402  0.083497212   -1.6947319   0.70040789   521935 
  944000     1.036484   -1.6932211   -1.6932211  -0.99499068  0.070797721   -1.6932211   0.69823039   521935 
  945000    1.0366969   -1.6932839   -1.6932839  -0.99491008  0.067813395   -1.6932839   0.69837383   521935 
  946000    1.0392514   -1.6943671   -1.6943671  -0.99427242  0.071544037   -1.6943671    0.7000947   521935 
  947000    1.0347945   -1.6917878   -1.6917878  -0.99469551  0.071062915   -1.6917878   0.69709227   521935 
  948000    1.0385009   -1.6942606   -1.6942606   -0.9946715  0.077005013   -1.6942606   0.69958911   521935 
  949000    1.0386145    -1.694398    -1.694398  -0.99473232  0.072180344    -1.694398   0.69966565   521935 
  950000    1.0397634   -1.6953108   -1.6953108  -0.99487122  0.085641605   -1.6953108   0.70043959   521935 
  951000    1.0348176   -1.6924679   -1.6924679  -0.99536011  0.086070944   -1.6924679    0.6971078   521935 
  952000    1.0370801   -1.6949548   -1.6949548  -0.99632285  0.073469851   -1.6949548   0.69863195   521935 
  953000    1.0351604   -1.6939761   -1.6939761   -0.9966373  0.071084028   -1.6939761   0.69733875   521935 
  954000    1.0379925   -1.6954973   -1.6954973  -0.99625075  0.078232723   -1.6954973    0.6992466   521935 
  955000    1.0377556   -1.6954613   -1.6954613  -0.99637424  0.057782664   -1.6954613   0.69908705   521935 
  956000    1.0383881   -1.6962148   -1.6962148  -0.99670167  0.082962054   -1.6962148   0.69951313   521935 
  957000    1.0331447   -1.6926401   -1.6926401  -0.99665925  0.083111746   -1.6926401   0.69598089   521935 
  958000    1.0355883   -1.6940298   -1.6940298  -0.99640276  0.076407508   -1.6940298   0.69762704   521935 
  959000    1.0356373   -1.6948619   -1.6948619  -0.99720186  0.079874883   -1.6948619   0.69766001   521935 
  960000    1.0337383    -1.693221    -1.693221  -0.99684023  0.083114508    -1.693221   0.69638077   521935 
  961000    1.0348998   -1.6944682   -1.6944682  -0.99730494  0.079936188   -1.6944682   0.69716322   521935 
  962000     1.034208   -1.6932754   -1.6932754  -0.99657827   0.08255823   -1.6932754   0.69669714   521935 
  963000      1.03574   -1.6945763   -1.6945763  -0.99684712  0.084916248   -1.6945763   0.69772921   521935 
  964000    1.0357754   -1.6941057   -1.6941057  -0.99635259  0.074675178   -1.6941057   0.69775306   521935 
  965000    1.0334685   -1.6924596   -1.6924596  -0.99626067  0.077808342   -1.6924596   0.69619897   521935 
  966000    1.0363534     -1.69365     -1.69365  -0.99550761  0.068678685     -1.69365   0.69814243   521935 
  967000    1.0374475   -1.6947462   -1.6947462  -0.99586672  0.084887847   -1.6947462   0.69887946   521935 
  968000    1.0346353   -1.6933569   -1.6933569  -0.99637194  0.076774339   -1.6933569   0.69698501   521935 
  969000    1.0339221   -1.6926805   -1.6926805  -0.99617593  0.073245764   -1.6926805   0.69650459   521935 
  970000    1.0335724    -1.692353    -1.692353  -0.99608394  0.072378214    -1.692353   0.69626902   521935 
  971000    1.0360372   -1.6937772   -1.6937772  -0.99584779  0.071054836   -1.6937772   0.69792943   521935 
  972000      1.03406   -1.6932385   -1.6932385  -0.99664099  0.063954805   -1.6932385   0.69659747   521935 
  973000    1.0348676   -1.6939307   -1.6939307  -0.99678915  0.067934554   -1.6939307   0.69714152   521935 
  974000    1.0345388   -1.6944359   -1.6944359   -0.9975159  0.058950632   -1.6944359   0.69691999   521935 
  975000    1.0341737   -1.6940063   -1.6940063  -0.99733222  0.088203625   -1.6940063   0.69667407   521935 
  976000    1.0345971    -1.694291    -1.694291  -0.99733168  0.082515926    -1.694291   0.69695932   521935 
  977000    1.0346348    -1.694096    -1.694096  -0.99711126  0.074154306    -1.694096    0.6969847   521935 
  978000    1.0360024   -1.6950838   -1.6950838  -0.99717785  0.083287612   -1.6950838   0.69790594   521935 
  979000    1.0369819   -1.6959946   -1.6959946  -0.99742883  0.072351087   -1.6959946   0.69856578   521935 
  980000    1.0344069   -1.6952059   -1.6952059  -0.99837481  0.071637767   -1.6952059   0.69683113   521935 
  981000    1.0352855   -1.6955171   -1.6955171  -0.99809403  0.075911085   -1.6955171   0.69742302   521935 
  982000    1.0358069   -1.6966502   -1.6966502  -0.99887589  0.083220206   -1.6966502   0.69777429   521935 
  983000     1.038114   -1.6983627   -1.6983627  -0.99903419  0.068111705   -1.6983627   0.69932846   521935 
  984000    1.0348454   -1.6964495   -1.6964495  -0.99932293  0.070991853   -1.6964495   0.69712657   521935 
  985000    1.0341013   -1.6959362   -1.6959362  -0.99931088  0.087174325   -1.6959362   0.69662531   521935 
  986000    1.0360154   -1.6968972   -1.6968972  -0.99898243  0.086979871   -1.6968972   0.69791473   521935 
  987000    1.0356911   -1.6962139   -1.6962139  -0.99851765  0.091303332   -1.6962139   0.69769626   521935 
  988000     1.034322   -1.6963836   -1.6963836  -0.99960958   0.08023444   -1.6963836   0.69677399   521935 
  989000    1.0344612   -1.6972673   -1.6972673   -1.0003995  0.073301559   -1.6972673   0.69686777   521935 
  990000    1.0360778   -1.6977095   -1.6977095  -0.99975266  0.084425012   -1.6977095   0.69795679   521935 
  991000    1.0333669   -1.6963212   -1.6963212   -1.0001906  0.077993598   -1.6963212   0.69613056   521935 
  992000    1.0353982   -1.6973848   -1.6973848  -0.99988589  0.081428821   -1.6973848   0.69749894   521935 
  993000    1.0352214   -1.6972717   -1.6972717  -0.99989183   0.06460819   -1.6972717   0.69737987   521935 
  994000    1.0308085   -1.6953803   -1.6953803   -1.0009732  0.071632557   -1.6953803    0.6944071   521935 
  995000    1.0337862   -1.6969212   -1.6969212   -1.0005082  0.066292404   -1.6969212     0.696413   521935 
  996000      1.03418   -1.6974623   -1.6974623    -1.000784  0.066551821   -1.6974623    0.6966783   521935 
  997000     1.033158   -1.6968854   -1.6968854   -1.0008956  0.075434625   -1.6968854   0.69598983   521935 
  998000    1.0320639    -1.696127    -1.696127   -1.0008742  0.068767573    -1.696127   0.69525282   521935 
  999000    1.0348665   -1.6971365   -1.6971365  -0.99999573  0.079124306   -1.6971365   0.69714079   521935 
 1000000    1.0341927   -1.6965867   -1.6965867  -0.99989987   0.08074487   -1.6965867   0.69668688   521935 
 1001000    1.0346659     -1.69644     -1.69644   -0.9994344  0.081306001     -1.69644    0.6970056   521935 
 1002000    1.0357912   -1.6972802   -1.6972802  -0.99951645   0.09443769   -1.6972802    0.6977637   521935 
 1003000    1.0360843   -1.6974071   -1.6974071  -0.99944595  0.083791941   -1.6974071   0.69796113   521935 
 1004000    1.0365597    -1.697801    -1.697801  -0.99951961  0.079393896    -1.697801   0.69828141   521935 
 1005000    1.0362573   -1.6980764   -1.6980764  -0.99999874  0.075536336   -1.6980764    0.6980777   521935 
 1006000    1.0322473   -1.6964213   -1.6964213    -1.001045  0.087291493   -1.6964213   0.69537634   521935 
 1007000    1.0350047     -1.69777     -1.69777   -1.0005361  0.068437161     -1.69777    0.6972339   521935 
 1008000    1.0357393   -1.6980235   -1.6980235   -1.0002947  0.077773857   -1.6980235   0.69772873   521935 
 1009000    1.0346041   -1.6976984   -1.6976984   -1.0007344  0.073609494   -1.6976984   0.69696397   521935 
 1010000    1.0356701   -1.6985549   -1.6985549   -1.0008727  0.078498243   -1.6985549   0.69768213   521935 
 1011000    1.0321594   -1.6965312   -1.6965312   -1.0012141  0.069309855   -1.6965312   0.69531711   521935 
 1012000    1.0323922   -1.6964772   -1.6964772   -1.0010033  0.081139865   -1.6964772   0.69547394   521935 
 1013000    1.0352036   -1.6979397   -1.6979397   -1.0005719    0.0800132   -1.6979397   0.69736789   521935 
 1014000    1.0330284   -1.6970017   -1.6970017   -1.0010991  0.087444374   -1.6970017   0.69590256   521935 
 1015000    1.0343404   -1.6982793   -1.6982793   -1.0014929  0.066841727   -1.6982793   0.69678638   521935 
 1016000    1.0345071   -1.6974955   -1.6974955   -1.0005969  0.075009805   -1.6974955   0.69689865   521935 
 1017000    1.0353544   -1.6983261   -1.6983261   -1.0008567  0.070812078   -1.6983261   0.69746944   521935 
 1018000    1.0342607   -1.6978339   -1.6978339   -1.0011012  0.087622493   -1.6978339   0.69673267   521935 
 1019000    1.0344221   -1.6979878   -1.6979878   -1.0011464  0.078965611   -1.6979878   0.69684138   521935 
 1020000    1.0358155   -1.6980045   -1.6980045   -1.0002244   0.08265208   -1.6980045   0.69778004   521935 
 1021000    1.0364501   -1.6988861   -1.6988861   -1.0006786  0.074419564   -1.6988861   0.69820756   521935 
 1022000    1.0349522   -1.6980736   -1.6980736   -1.0008751  0.095322196   -1.6980736   0.69719847   521935 
 1023000    1.0337231   -1.6968663   -1.6968663   -1.0004958  0.086515844   -1.6968663    0.6963705   521935 
 1024000    1.0340782   -1.6973847   -1.6973847    -1.000775  0.070886188   -1.6973847   0.69660973   521935 
 1025000    1.0332128   -1.6978187   -1.6978187    -1.001792  0.068599849   -1.6978187   0.69602672   521935 
 1026000    1.0344293   -1.6982207   -1.6982207   -1.0013744  0.081465253   -1.6982207   0.69684627   521935 
 1027000    1.0345243   -1.6975134   -1.6975134   -1.0006032  0.078486487   -1.6975134   0.69691024   521935 
 1028000    1.0337509   -1.6965115   -1.6965115   -1.0001223  0.085500894   -1.6965115   0.69638924   521935 
 1029000    1.0328779   -1.6965978   -1.6965978   -1.0007967  0.077350584   -1.6965978   0.69580117   521935 
 1030000    1.0341776   -1.6975013   -1.6975013   -1.0008246   0.07644908   -1.6975013   0.69667671   521935 
 1031000    1.0329123   -1.6972904   -1.6972904   -1.0014661  0.074984159   -1.6972904   0.69582432   521935 
 1032000    1.0336322   -1.6975326   -1.6975326   -1.0012234  0.067700788   -1.6975326   0.69630925   521935 
 1033000    1.0320095   -1.6973104   -1.6973104   -1.0020942  0.076827016   -1.6973104   0.69521611   521935 
 1034000    1.0328702   -1.6972069   -1.6972069    -1.001411  0.077493598   -1.6972069   0.69579596   521935 
 1035000    1.0310425   -1.6959796   -1.6959796   -1.0014149   0.07781673   -1.6959796   0.69456469   521935 
 1036000    1.0332341   -1.6973652   -1.6973652    -1.001324   0.08135623   -1.6973652   0.69604112   521935 
 1037000     1.032877   -1.6968086   -1.6968086   -1.0010081  0.076969901   -1.6968086   0.69580055   521935 
 1038000    1.0339409   -1.6972789   -1.6972789   -1.0007617  0.075102142   -1.6972789   0.69651723   521935 
 1039000    1.0340384   -1.6980537   -1.6980537   -1.0014708  0.079771625   -1.6980537   0.69658294   521935 
 1040000    1.0337599   -1.6969782   -1.6969782   -1.0005829  0.074989739   -1.6969782   0.69639534   521935 
 1041000    1.0354358   -1.6984669   -1.6984669   -1.0009426    0.0902449   -1.6984669   0.69752429   521935 
 1042000    1.0336442   -1.6968872   -1.6968872   -1.0005698  0.085186933   -1.6968872   0.69631733   521935 
 1043000    1.0339317   -1.6966221   -1.6966221   -1.0001111  0.073530154   -1.6966221     0.696511   521935 
 1044000    1.0323634   -1.6959005   -1.6959005   -1.0004459  0.065885794   -1.6959005   0.69545453   521935 
 1045000    1.0333462   -1.6972481   -1.6972481   -1.0011315  0.067499011   -1.6972481    0.6961166   521935 
 1046000    1.0322813   -1.6968667   -1.6968667   -1.0014674  0.075638775   -1.6968667   0.69539925   521935 
 1047000    1.0351814   -1.6981875   -1.6981875   -1.0008345  0.081975784   -1.6981875   0.69735291   521935 
 1048000    1.0345202    -1.697319    -1.697319   -1.0004115  0.085025071    -1.697319    0.6969075   521935 
 1049000    1.0348679   -1.6978183   -1.6978183   -1.0006766  0.092151964   -1.6978183   0.69714169   521935 
 1050000    1.0321084   -1.6966174   -1.6966174   -1.0013346  0.085971791   -1.6966174   0.69528279   521935 
 1051000    1.0320651   -1.6971281   -1.6971281   -1.0018745  0.070681369   -1.6971281   0.69525363   521935 
 1052000    1.0320588   -1.6967354   -1.6967354   -1.0014861  0.079579187   -1.6967354   0.69524935   521935 
 1053000    1.0338087   -1.6986853   -1.6986853   -1.0022571  0.068843085   -1.6986853    0.6964282   521935 
 1054000    1.0320099   -1.6967039   -1.6967039   -1.0014875  0.088379435   -1.6967039   0.69521643   521935 
 1055000    1.0332939   -1.6974531   -1.6974531   -1.0013717  0.064828452   -1.6974531   0.69608138   521935 
 1056000    1.0355361   -1.6980629   -1.6980629   -1.0004711  0.065246784   -1.6980629   0.69759187   521935 
 1057000    1.0355033   -1.6978257   -1.6978257   -1.0002559  0.076737477   -1.6978257   0.69756977   521935 
 1058000    1.0354749   -1.6987172   -1.6987172   -1.0011666  0.072822939   -1.6987172   0.69755059   521935 
 1059000    1.0355069   -1.6987203   -1.6987203   -1.0011481  0.084710039   -1.6987203   0.69757219   521935 
 1060000    1.0346593   -1.6985301   -1.6985301   -1.0015289  0.089762041   -1.6985301   0.69700118   521935 
 1061000    1.0371351   -1.7001786   -1.7001786   -1.0015095  0.084744591   -1.7001786   0.69866902   521935 
 1062000    1.0352395    -1.698631    -1.698631   -1.0012389  0.069607682    -1.698631   0.69739207   521935 
 1063000    1.0317324   -1.6970622   -1.6970622   -1.0020328  0.087070708   -1.6970622   0.69502947   521935 
 1064000    1.0318548   -1.6979897   -1.6979897   -1.0028777  0.074141735   -1.6979897   0.69511194   521935 
 1065000    1.0313048   -1.6969607   -1.6969607   -1.0022193  0.077449315   -1.6969607   0.69474141   521935 
 1066000     1.031069   -1.6971467   -1.6971467   -1.0025641  0.081942247   -1.6971467   0.69458257   521935 
 1067000    1.0320103   -1.6972843   -1.6972843   -1.0020676  0.085470398   -1.6972843   0.69521667   521935 
 1068000     1.032351   -1.6973277   -1.6973277   -1.0018815  0.064090555   -1.6973277   0.69544619   521935 
 1069000    1.0346878    -1.698307    -1.698307   -1.0012867  0.076059169    -1.698307   0.69702038   521935 
 1070000     1.034376   -1.6984049   -1.6984049   -1.0015946  0.074575397   -1.6984049   0.69681036   521935 
 1071000    1.0333816   -1.6984052   -1.6984052   -1.0022648  0.065225243   -1.6984052   0.69614043   521935 
 1072000    1.0357792   -1.7000959   -1.7000959   -1.0023403  0.080220035   -1.7000959   0.69775562   521935 
 1073000    1.0344759   -1.6995321   -1.6995321   -1.0026545   0.06863346   -1.6995321   0.69687764   521935 
 1074000    1.0341475   -1.6985367   -1.6985367   -1.0018803  0.075153664   -1.6985367   0.69665641   521935 
 1075000    1.0335325   -1.6982545   -1.6982545   -1.0020124  0.075148234   -1.6982545   0.69624212   521935 
 1076000    1.0343177   -1.6989511   -1.6989511     -1.00218   0.08675344   -1.6989511   0.69677109   521935 
 1077000    1.0346007   -1.6984747   -1.6984747    -1.001513  0.064400082   -1.6984747   0.69696171   521935 
 1078000    1.0364899   -1.7005257   -1.7005257   -1.0022913  0.089640249   -1.7005257   0.69823434   521935 
 1079000    1.0347562   -1.6995288   -1.6995288   -1.0024623  0.080263125   -1.6995288   0.69706647   521935 
 1080000    1.0366018   -1.7003197   -1.7003197   -1.0020099  0.080890917   -1.7003197   0.69830979   521935 
 1081000    1.0357658   -1.7000174   -1.7000174   -1.0022709  0.073565711   -1.7000174   0.69774655   521935 
 1082000     1.034127   -1.6994867   -1.6994867   -1.0028441  0.087142652   -1.6994867   0.69664263   521935 
 1083000    1.0335184   -1.6992511   -1.6992511   -1.0030185  0.081876474   -1.6992511   0.69623262   521935 
 1084000     1.034546   -1.6993996   -1.6993996   -1.0024748  0.081054024   -1.6993996   0.69692487   521935 
 1085000    1.0337989   -1.6981239   -1.6981239   -1.0017023   0.07107144   -1.6981239   0.69642156   521935 
 1086000    1.0338548   -1.6986349   -1.6986349   -1.0021756  0.061775834   -1.6986349   0.69645926   521935 
 1087000    1.0332879   -1.6982098   -1.6982098   -1.0021324  0.079634283   -1.6982098   0.69607735   521935 
 1088000    1.0343287   -1.6995484   -1.6995484     -1.00277  0.080816191   -1.6995484   0.69677846   521935 
 1089000      1.03373   -1.6999977   -1.6999977   -1.0036225  0.065101966   -1.6999977   0.69637515   521935 
 1090000    1.0332413   -1.6987651   -1.6987651   -1.0027192  0.069122653   -1.6987651   0.69604592   521935 
 1091000    1.0336036   -1.6992682   -1.6992682   -1.0029782  0.071090981   -1.6992682      0.69629   521935 
 1092000    1.0359608   -1.6999363   -1.6999363   -1.0020583  0.076651977   -1.6999363   0.69787798   521935 
 1093000    1.0362168   -1.6998561   -1.6998561   -1.0018057   0.07769827   -1.6998561   0.69805039   521935 
 1094000    1.0360666   -1.7004867   -1.7004867   -1.0025375  0.073380123   -1.7004867    0.6979492   521935 
 1095000    1.0355269    -1.700095    -1.700095   -1.0025094  0.078177307    -1.700095   0.69758561   521935 
 1096000    1.0359255   -1.7004939   -1.7004939   -1.0026398  0.076623314   -1.7004939   0.69785416   521935 
 1097000    1.0350682    -1.700277    -1.700277   -1.0030003  0.087488024    -1.700277   0.69727667   521935 
 1098000    1.0349098    -1.700326    -1.700326   -1.0031561  0.075484027    -1.700326    0.6971699   521935 
 1099000    1.0338318   -1.6990895   -1.6990895   -1.0026457    0.0818644   -1.6990895   0.69644377   521935 
 1100000    1.0363295   -1.7004449   -1.7004449   -1.0023187   0.10325731   -1.7004449   0.69812629   521935 
 1101000    1.0364291   -1.7005806   -1.7005806   -1.0023872  0.087435259   -1.7005806   0.69819343   521935 
 1102000    1.0352112   -1.7000459   -1.7000459   -1.0026729  0.082310898   -1.7000459   0.69737295   521935 
 1103000    1.0326024   -1.6992636   -1.6992636    -1.003648  0.077201106   -1.6992636   0.69561556   521935 
 1104000    1.0333968   -1.7000891   -1.7000891   -1.0039384  0.062284834   -1.7000891   0.69615069   521935 
 1105000    1.0318513   -1.6972673   -1.6972673   -1.0021577  0.072069134   -1.6972673   0.69510954   521935 
 1106000    1.0356165   -1.6995676   -1.6995676   -1.0019216  0.068316412   -1.6995676   0.69764603   521935 
 1107000    1.0343531   -1.6988763   -1.6988763   -1.0020813  0.080907172   -1.6988763   0.69679492   521935 
 1108000     1.034417   -1.6991611   -1.6991611   -1.0023232  0.079822225   -1.6991611   0.69683795   521935 
 1109000    1.0353319   -1.6994777   -1.6994777   -1.0020234  0.091205661   -1.6994777   0.69745426   521935 
 1110000    1.0349812   -1.6986149   -1.6986149   -1.0013968  0.084456829   -1.6986149   0.69721806   521935 
 1111000    1.0343362   -1.6986903   -1.6986903   -1.0019068  0.086170713   -1.6986903    0.6967835   521935 
 1112000    1.0365912   -1.7009261   -1.7009261   -1.0026235  0.069785433   -1.7009261   0.69830265   521935 
 1113000    1.0337653   -1.6993159   -1.6993159   -1.0029169  0.065535687   -1.6993159   0.69639896   521935 
 1114000    1.0333521   -1.6991834   -1.6991834   -1.0030628   0.08688889   -1.6991834    0.6961206   521935 
 1115000    1.0336183   -1.6988274   -1.6988274   -1.0025275  0.085508613   -1.6988274   0.69629991   521935 
 1116000    1.0367782   -1.7014677   -1.7014677   -1.0030391  0.085096035   -1.7014677   0.69842858   521935 
 1117000    1.0321588    -1.698561    -1.698561   -1.0032442  0.080416107    -1.698561   0.69531674   521935 
 1118000    1.0351403   -1.7004172   -1.7004172   -1.0030921  0.077185133   -1.7004172   0.69732518   521935 
 1119000    1.0365247   -1.7016952   -1.7016952   -1.0034374  0.091559409   -1.7016952   0.69825779   521935 
 1120000    1.0335826   -1.7000268   -1.7000268    -1.003751  0.084652358   -1.7000268   0.69627584   521935 
 1121000    1.0340622   -1.7010635   -1.7010635   -1.0044646  0.077582005   -1.7010635   0.69659898   521935 
 1122000    1.0325347   -1.6996407   -1.6996407   -1.0040708  0.073967105   -1.6996407   0.69556995   521935 
 1123000    1.0314068   -1.6994958   -1.6994958   -1.0046857  0.078660791   -1.6994958    0.6948101   521935 
 1124000    1.0326898   -1.7006184   -1.7006184    -1.004944  0.069129746   -1.7006184   0.69567443   521935 
 1125000    1.0304657    -1.699358    -1.699358   -1.0051819  0.072067545    -1.699358   0.69417614   521935 
 1126000    1.0309024   -1.6992005   -1.6992005   -1.0047302  0.085856367   -1.6992005   0.69447033   521935 
 1127000    1.0308347   -1.6994576   -1.6994576   -1.0050329  0.073551814   -1.6994576   0.69442473   521935 
 1128000    1.0320069   -1.7005216   -1.7005216   -1.0053073  0.062488059   -1.7005216   0.69521437   521935 
 1129000    1.0315332   -1.7009959   -1.7009959   -1.0061006  0.073423553   -1.7009959    0.6948953   521935 
 1130000    1.0315624   -1.7005433   -1.7005433   -1.0056284  0.080096395   -1.7005433   0.69491494   521935 
 1131000    1.0319281   -1.7004719   -1.7004719   -1.0053106  0.085760036   -1.7004719   0.69516129   521935 
 1132000    1.0326531   -1.7008182   -1.7008182   -1.0051685  0.074717105   -1.7008182   0.69564967   521935 
 1133000    1.0353384   -1.7020029   -1.7020029   -1.0045442  0.059413285   -1.7020029   0.69745869   521935 
 1134000    1.0348528   -1.7015628   -1.7015628   -1.0044313  0.074938083   -1.7015628   0.69713151   521935 
 1135000    1.0347423    -1.702027    -1.702027   -1.0049699  0.081402346    -1.702027   0.69705708   521935 
 1136000    1.0334881    -1.701458    -1.701458   -1.0052458  0.076715294    -1.701458   0.69621222   521935 
 1137000    1.0349409    -1.701709    -1.701709   -1.0045182  0.075255381    -1.701709   0.69719086   521935 
 1138000    1.0365782   -1.7023642   -1.7023642   -1.0040703  0.092103141   -1.7023642   0.69829387   521935 
 1139000    1.0345362   -1.7024827   -1.7024827   -1.0055644  0.076950872   -1.7024827   0.69691825   521935 
 1140000    1.0329281   -1.7012183   -1.7012183   -1.0053834  0.084225327   -1.7012183   0.69583499   521935 
 1141000    1.0351697   -1.7020846   -1.7020846   -1.0047396  0.080399571   -1.7020846   0.69734499   521935 
 1142000    1.0329724   -1.7012907   -1.7012907   -1.0054259      0.08553   -1.7012907   0.69586483   521935 
 1143000    1.0322472    -1.700751    -1.700751   -1.0053748  0.076898028    -1.700751   0.69537627   521935 
 1144000    1.0334069   -1.7006591   -1.7006591   -1.0045016  0.085380416   -1.7006591   0.69615754   521935 
 1145000    1.0301008   -1.6989453   -1.6989453   -1.0050149  0.071627359   -1.6989453   0.69393032   521935 
 1146000    1.0319627   -1.6993697   -1.6993697   -1.0041851  0.070700748   -1.6993697    0.6951846   521935 
 1147000    1.0317114   -1.6998191   -1.6998191   -1.0048038  0.060908533   -1.6998191    0.6950153   521935 
 1148000    1.0305181   -1.6998914   -1.6998914     -1.00568  0.068374605   -1.6998914   0.69421146   521935 
 1149000    1.0309529   -1.7009676   -1.7009676   -1.0064633  0.077659824   -1.7009676   0.69450439   521935 
 1150000    1.0310955   -1.7018663   -1.7018663   -1.0072659  0.081711646   -1.7018663   0.69460044   521935 
 1151000    1.0305776   -1.7017213   -1.7017213   -1.0074698  0.082791923   -1.7017213   0.69425151   521935 
 1152000    1.0317985   -1.7027226   -1.7027226   -1.0076485  0.063032271   -1.7027226   0.69507402   521935 
 1153000    1.0322834   -1.7031577   -1.7031577    -1.007757  0.073693728   -1.7031577   0.69540068   521935 
 1154000    1.0330189   -1.7030972   -1.7030972   -1.0072011  0.086501956   -1.7030972   0.69589613   521935 
 1155000    1.0337441   -1.7037974   -1.7037974   -1.0074127  0.089088044   -1.7037974   0.69638469   521935 
 1156000    1.0331662    -1.703186    -1.703186   -1.0071907  0.079896759    -1.703186   0.69599536   521935 
 1157000    1.0341874   -1.7034529   -1.7034529   -1.0067697  0.080683397   -1.7034529   0.69668326   521935 
 1158000    1.0330086    -1.702655    -1.702655   -1.0067658  0.075856861    -1.702655   0.69588917   521935 
 1159000    1.0318152   -1.7030532   -1.7030532   -1.0079679    0.0750895   -1.7030532   0.69508522   521935 
 1160000     1.034329   -1.7048609   -1.7048609   -1.0080822   0.08877149   -1.7048609   0.69677871   521935 
 1161000     1.030053   -1.7018608   -1.7018608   -1.0079627  0.077515464   -1.7018608   0.69389811   521935 
 1162000    1.0317264   -1.7019888   -1.7019888   -1.0069633  0.083903444   -1.7019888   0.69502543   521935 
 1163000    1.0316072   -1.7022124   -1.7022124   -1.0072673  0.060764794   -1.7022124   0.69494512   521935 
 1164000    1.0334097   -1.7034625   -1.7034625   -1.0073031  0.079281746   -1.7034625   0.69615941   521935 
 1165000     1.032059   -1.7020174   -1.7020174   -1.0067679   0.07265168   -1.7020174    0.6952495   521935 
 1166000    1.0322591   -1.7023628   -1.7023628   -1.0069785  0.084216311   -1.7023628   0.69538428   521935 
 1167000    1.0333488   -1.7025934   -1.7025934    -1.006475  0.073972306   -1.7025934   0.69611839   521935 
 1168000    1.0328079   -1.7021934   -1.7021934   -1.0064394  0.073508541   -1.7021934   0.69575397   521935 
 1169000    1.0318465   -1.7024749   -1.7024749   -1.0073686  0.058043407   -1.7024749   0.69510631   521935 
 1170000    1.0317131   -1.7022082   -1.7022082   -1.0071917  0.069922148   -1.7022082    0.6950165   521935 
 1171000    1.0306053   -1.7011657   -1.7011657   -1.0068956  0.076298893   -1.7011657   0.69427017   521935 
 1172000    1.0331228   -1.7025993   -1.7025993   -1.0066332   0.07178773   -1.7025993   0.69596611   521935 
 1173000    1.0326093    -1.702327    -1.702327   -1.0067068  0.076689838    -1.702327   0.69562021   521935 
 1174000    1.0316685   -1.7018873   -1.7018873   -1.0069009  0.075707504   -1.7018873   0.69498639   521935 
 1175000    1.0297745   -1.7006991   -1.7006991   -1.0069885   0.10426718   -1.7006991   0.69371056   521935 
 1176000    1.0325656   -1.7020787   -1.7020787   -1.0064879  0.069621063   -1.7020787   0.69559077   521935 
 1177000    1.0340527    -1.702545    -1.702545   -1.0059524  0.087525568    -1.702545   0.69659256   521935 
 1178000    1.0330804   -1.7026884   -1.7026884   -1.0067509  0.068630722   -1.7026884   0.69593754   521935 
 1179000    1.0328699   -1.7025887   -1.7025887    -1.006793  0.081819997   -1.7025887   0.69579575   521935 
 1180000    1.0311625   -1.7016936   -1.7016936   -1.0070481  0.072774369   -1.7016936   0.69464556   521935 
 1181000    1.0331891   -1.7027282   -1.7027282   -1.0067174  0.078059967   -1.7027282   0.69601079   521935 
 1182000    1.0329291   -1.7026574   -1.7026574   -1.0068218  0.069849634   -1.7026574   0.69583562   521935 
 1183000     1.032406   -1.7025844   -1.7025844   -1.0071011  0.060756126   -1.7025844   0.69548322   521935 
 1184000    1.0309322   -1.7012108   -1.7012108   -1.0067204  0.066132316   -1.7012108   0.69449044   521935 
 1185000    1.0306283   -1.7009093   -1.7009093   -1.0066236  0.083859992   -1.7009093   0.69428571   521935 
 1186000    1.0318615   -1.7007554   -1.7007554   -1.0056389  0.077178736   -1.7007554   0.69511642   521935 
 1187000     1.032496    -1.701287    -1.701287   -1.0057432  0.074294838    -1.701287   0.69554386   521935 
 1188000    1.0341991   -1.7028134   -1.7028134   -1.0061222  0.093085268   -1.7028134   0.69669118   521935 
 1189000    1.0333976   -1.7018667   -1.7018667   -1.0057155  0.080120937   -1.7018667   0.69615125   521935 
 1190000    1.0341534    -1.702088    -1.702088   -1.0054276  0.079534981    -1.702088    0.6966604   521935 
 1191000     1.034295   -1.7024099   -1.7024099   -1.0056541  0.082346909   -1.7024099   0.69675578   521935 
 1192000    1.0340882   -1.7027705   -1.7027705   -1.0061541  0.084036266   -1.7027705   0.69661646   521935 
 1193000    1.0323828   -1.7016652   -1.7016652   -1.0061976  0.073937392   -1.7016652   0.69546764   521935 
 1194000    1.0332043   -1.7027966   -1.7027966   -1.0067755  0.072839239   -1.7027966   0.69602105   521935 
 1195000    1.0332379   -1.7029589   -1.7029589   -1.0069153  0.074420131   -1.7029589   0.69604363   521935 
 1196000     1.032689   -1.7024776   -1.7024776   -1.0068037  0.081721105   -1.7024776   0.69567389   521935 
 1197000    1.0323937   -1.7024023   -1.7024023   -1.0069273   0.07797208   -1.7024023   0.69547495   521935 
 1198000    1.0334082   -1.7042273   -1.7042273    -1.008069  0.078650231   -1.7042273   0.69615836   521935 
 1199000    1.0334903   -1.7043633   -1.7043633   -1.0081496  0.066506209   -1.7043633   0.69621367   521935 
 1200000    1.0330232   -1.7039687   -1.7039687   -1.0080697  0.079598413   -1.7039687   0.69589902   521935 
 1201000    1.0326389   -1.7028585   -1.7028585   -1.0072184   0.08753719   -1.7028585   0.69564015   521935 
 1202000    1.0330958    -1.702838    -1.702838   -1.0068901  0.090619286    -1.702838   0.69594795   521935 
 1203000    1.0336701   -1.7026044   -1.7026044   -1.0062696   0.10447688   -1.7026044   0.69633479   521935 
 1204000    1.0351676   -1.7037705   -1.7037705   -1.0064269  0.087261244   -1.7037705   0.69734363   521935 
 1205000    1.0348847   -1.7046626   -1.7046626   -1.0075096   0.08706141   -1.7046626   0.69715302   521935 
 1206000    1.0337092   -1.7026959   -1.7026959   -1.0063348  0.081979724   -1.7026959   0.69636114   521935 
 1207000    1.0303164   -1.7014715   -1.7014715    -1.007396   0.07109473   -1.7014715   0.69407556   521935 
 1208000    1.0321473   -1.7029275   -1.7029275   -1.0076186  0.074974342   -1.7029275   0.69530897   521935 
 1209000    1.0307233   -1.7018354   -1.7018354   -1.0074857  0.060607768   -1.7018354   0.69434969   521935 
 1210000    1.0333695   -1.7040651   -1.7040651   -1.0079327  0.077252941   -1.7040651   0.69613232   521935 
 1211000    1.0284485   -1.7018072   -1.7018072   -1.0089899  0.071878727   -1.7018072   0.69281725   521935 
 1212000    1.0302828   -1.7017351   -1.7017351   -1.0076822  0.074425935   -1.7017351   0.69405295   521935 
 1213000     1.031456   -1.7026473   -1.7026473    -1.007804  0.068878412   -1.7026473    0.6948433   521935 
 1214000    1.0295733   -1.7018282   -1.7018282   -1.0082532  0.072923033   -1.7018282   0.69357499   521935 
 1215000     1.031698   -1.7033319   -1.7033319   -1.0083256  0.077081821   -1.7033319   0.69500632   521935 
 1216000    1.0313003   -1.7035116   -1.7035116   -1.0087732  0.061468803   -1.7035116   0.69473836   521935 
 1217000    1.0330901   -1.7045773   -1.7045773   -1.0086332  0.063387268   -1.7045773   0.69594408   521935 
 1218000    1.0327678   -1.7039383   -1.7039383   -1.0082113  0.077046166   -1.7039383   0.69572697   521935 
 1219000    1.0326456    -1.703939    -1.703939   -1.0082944  0.065578699    -1.703939   0.69564464   521935 
 1220000    1.0329925   -1.7043094   -1.7043094    -1.008431  0.075337839   -1.7043094   0.69587837   521935 
 1221000    1.0331099   -1.7039432   -1.7039432   -1.0079858  0.087048339   -1.7039432    0.6959574   521935 
 1222000    1.0328813   -1.7039159   -1.7039159   -1.0081125  0.081106813   -1.7039159   0.69580343   521935 
 1223000    1.0332564   -1.7047458   -1.7047458   -1.0086897  0.072127251   -1.7047458   0.69605612   521935 
 1224000    1.0322592   -1.7047018   -1.7047018   -1.0093174  0.077040641   -1.7047018   0.69538433   521935 
 1225000     1.032766   -1.7053543   -1.7053543   -1.0096286  0.077878293   -1.7053543   0.69572575   521935 
 1226000    1.0317317   -1.7047543   -1.7047543   -1.0097253  0.069091769   -1.7047543   0.69502897   521935 
 1227000    1.0311937   -1.7038048   -1.7038048   -1.0091383  0.068451361   -1.7038048   0.69466655   521935 
 1228000    1.0305897   -1.7031756   -1.7031756    -1.008916  0.084862409   -1.7031756   0.69425967   521935 
 1229000    1.0303756   -1.7034185   -1.7034185    -1.009303  0.074226301   -1.7034185   0.69411547   521935 
 1230000    1.0310589   -1.7044842   -1.7044842   -1.0099085  0.074142273   -1.7044842   0.69457574   521935 
 1231000    1.0322331   -1.7047679   -1.7047679   -1.0094012  0.072543608   -1.7047679   0.69536674   521935 
 1232000    1.0318185   -1.7045752   -1.7045752   -1.0094877  0.078657015   -1.7045752   0.69508745   521935 
 1233000    1.0308224   -1.7049171   -1.7049171   -1.0105006  0.077345378   -1.7049171   0.69441647   521935 
 1234000    1.0301501   -1.7044854   -1.7044854   -1.0105218  0.061859896   -1.7044854   0.69396355   521935 
 1235000     1.032859   -1.7061315   -1.7061315   -1.0103431  0.078207783   -1.7061315   0.69578839   521935 
 1236000    1.0313484   -1.7046927   -1.7046927   -1.0099219  0.060800959   -1.7046927    0.6947708   521935 
 1237000    1.0333586   -1.7059304   -1.7059304   -1.0098055  0.067214431   -1.7059304   0.69612495   521935 
 1238000    1.0335681     -1.70651     -1.70651   -1.0102439   0.07026216     -1.70651   0.69626612   521935 
 1239000    1.0326621    -1.705609    -1.705609   -1.0099532  0.084055208    -1.705609   0.69565576   521935 
 1240000    1.0322539   -1.7063248   -1.7063248    -1.010944  0.076487703   -1.7063248   0.69538077   521935 
 1241000    1.0337279   -1.7067869   -1.7067869   -1.0104132  0.088709946   -1.7067869   0.69637372   521935 
 1242000    1.0334724   -1.7071537   -1.7071537   -1.0109521   0.05939862   -1.7071537   0.69620164   521935 
 1243000    1.0318407   -1.7056411   -1.7056411   -1.0105386  0.085562333   -1.7056411   0.69510243   521935 
 1244000    1.0336383    -1.706612    -1.706612   -1.0102986  0.080066086    -1.706612   0.69631341   521935 
 1245000    1.0312239   -1.7053965   -1.7053965   -1.0107096  0.071687101   -1.7053965   0.69468692   521935 
 1246000    1.0309169   -1.7047625   -1.7047625   -1.0102824  0.074790959   -1.7047625   0.69448009   521935 
 1247000    1.0325617   -1.7056781   -1.7056781     -1.01009  0.077270258   -1.7056781   0.69558814   521935 
 1248000    1.0313142   -1.7052464   -1.7052464   -1.0104986  0.077996096   -1.7052464   0.69474774   521935 
 1249000    1.0321629   -1.7062658   -1.7062658   -1.0109463  0.086295573   -1.7062658   0.69531951   521935 
 1250000    1.0314326   -1.7059636   -1.7059636   -1.0111361  0.069743216   -1.7059636   0.69482749   521935 
 1251000    1.0314414   -1.7060148   -1.7060148   -1.0111814  0.071390085   -1.7060148   0.69483343   521935 
 1252000    1.0329572   -1.7068113   -1.7068113   -1.0109567  0.071887722   -1.7068113   0.69585453   521935 
 1253000    1.0309485   -1.7053703   -1.7053703   -1.0108689  0.079076138   -1.7053703   0.69450138   521935 
 1254000    1.0313066   -1.7058772   -1.7058772   -1.0111345  0.065738132   -1.7058772   0.69474263   521935 
 1255000    1.0316327   -1.7063808   -1.7063808   -1.0114185  0.076721076   -1.7063808   0.69496229   521935 
 1256000    1.0345584   -1.7074477   -1.7074477   -1.0105145  0.079890027   -1.7074477   0.69693322   521935 
 1257000    1.0329264    -1.707277    -1.707277   -1.0114432  0.071637748    -1.707277   0.69583382   521935 
 1258000    1.0317116   -1.7053476   -1.7053476   -1.0103321  0.091276416   -1.7053476   0.69501545   521935 
 1259000    1.0330818   -1.7072796   -1.7072796    -1.011341  0.071848299   -1.7072796   0.69593852   521935 
 1260000    1.0306013   -1.7050642   -1.7050642   -1.0107967  0.075255429   -1.7050642   0.69426751   521935 
 1261000     1.031701   -1.7059847   -1.7059847   -1.0109764  0.082493235   -1.7059847   0.69500834   521935 
 1262000    1.0332862   -1.7066183   -1.7066183   -1.0105421  0.069913834   -1.7066183   0.69607621   521935 
 1263000    1.0295575   -1.7043969   -1.7043969   -1.0108326  0.071656724   -1.7043969   0.69356437   521935 
 1264000    1.0317803   -1.7062711   -1.7062711   -1.0112093  0.085240929   -1.7062711   0.69506176   521935 
 1265000    1.0304597   -1.7050876   -1.7050876   -1.0109155  0.075450047   -1.7050876   0.69417211   521935 
 1266000    1.0326512   -1.7064508   -1.7064508   -1.0108024  0.079936477   -1.7064508    0.6956484   521935 
 1267000    1.0339105   -1.7066234   -1.7066234   -1.0101266  0.081502673   -1.7066234   0.69649678   521935 
 1268000    1.0344687   -1.7070542   -1.7070542   -1.0101814  0.082896565   -1.7070542   0.69687278   521935 
 1269000    1.0329429   -1.7062178   -1.7062178   -1.0103729  0.075550866   -1.7062178   0.69584494   521935 
 1270000    1.0327727   -1.7065829   -1.7065829   -1.0108526  0.069566587   -1.7065829   0.69573025   521935 
 1271000    1.0292034   -1.7044364   -1.7044364   -1.0111107  0.085320012   -1.7044364   0.69332578   521935 
 1272000     1.031031   -1.7067984   -1.7067984   -1.0122414  0.079285735   -1.7067984   0.69455696   521935 
 1273000     1.032109   -1.7067355   -1.7067355   -1.0114523  0.066706259   -1.7067355   0.69528317   521935 
 1274000    1.0323733   -1.7068713   -1.7068713     -1.01141  0.054572002   -1.7068713   0.69546124   521935 
 1275000    1.0305934   -1.7059377   -1.7059377   -1.0116755  0.076785061   -1.7059377    0.6942622   521935 
 1276000    1.0293143    -1.705178    -1.705178   -1.0117775  0.085739033    -1.705178   0.69340053   521935 
 1277000    1.0314076   -1.7059149   -1.7059149   -1.0111042  0.086621249   -1.7059149    0.6948107   521935 
 1278000    1.0296197   -1.7052699   -1.7052699   -1.0116636  0.088054446   -1.7052699   0.69360624   521935 
 1279000    1.0295769   -1.7054545   -1.7054545   -1.0118771  0.073934206   -1.7054545    0.6935774   521935 
 1280000    1.0328883   -1.7073221   -1.7073221    -1.011514  0.063531211   -1.7073221   0.69580816   521935 
 1281000    1.0332854   -1.7072561   -1.7072561   -1.0111805  0.088685234   -1.7072561   0.69607568   521935 
 1282000    1.0334919   -1.7086189   -1.7086189   -1.0124041  0.078975557   -1.7086189   0.69621479   521935 
 1283000    1.0330677   -1.7080166   -1.7080166   -1.0120875  0.080425477   -1.7080166   0.69592903   521935 
 1284000    1.0314821   -1.7074932   -1.7074932   -1.0126323  0.081743561   -1.7074932   0.69486087   521935 
 1285000    1.0330243   -1.7076838   -1.7076838   -1.0117841   0.06886094   -1.7076838   0.69589977   521935 
 1286000    1.0311157   -1.7066785   -1.7066785   -1.0120645   0.08489997   -1.7066785   0.69461403   521935 
 1287000     1.031014   -1.7061645   -1.7061645   -1.0116189  0.087196969   -1.7061645   0.69454554   521935 
 1288000     1.029878   -1.7055983   -1.7055983   -1.0118181  0.076600052   -1.7055983   0.69378028   521935 
 1289000    1.0294758   -1.7059773   -1.7059773   -1.0124679  0.071085366   -1.7059773   0.69350934   521935 
 1290000    1.0314662   -1.7069936   -1.7069936   -1.0121434  0.082963087   -1.7069936   0.69485015   521935 
 1291000    1.0306004   -1.7058396   -1.7058396   -1.0115727   0.07625843   -1.7058396   0.69426687   521935 
 1292000    1.0320825   -1.7069436   -1.7069436   -1.0116783  0.071042995   -1.7069436    0.6952653   521935 
 1293000    1.0315775   -1.7067235   -1.7067235   -1.0117984  0.071393481   -1.7067235    0.6949251   521935 
 1294000    1.0310442   -1.7060034   -1.7060034   -1.0114376  0.079674108   -1.7060034   0.69456589   521935 
 1295000    1.0335867   -1.7074168   -1.7074168   -1.0111382  0.062698322   -1.7074168   0.69627863   521935 
 1296000    1.0290715   -1.7049582   -1.7049582   -1.0117213  0.070151664   -1.7049582   0.69323693   521935 
 1297000    1.0313376   -1.7060402   -1.7060402   -1.0112767  0.080072406   -1.7060402    0.6947635   521935 
 1298000    1.0329705   -1.7076662   -1.7076662   -1.0118027  0.079122379   -1.7076662   0.69586349   521935 
 1299000    1.0322519   -1.7079822   -1.7079822   -1.0126028  0.082752433   -1.7079822   0.69537942   521935 
 1300000    1.0317234     -1.70693     -1.70693   -1.0119065   0.06573737     -1.70693   0.69502342   521935 
 1301000    1.0313222   -1.7068439   -1.7068439   -1.0120908  0.067162664   -1.7068439   0.69475315   521935 
 1302000    1.0287396   -1.7056263   -1.7056263    -1.012613  0.069284989   -1.7056263   0.69301337   521935 
 1303000    1.0325208   -1.7076057   -1.7076057   -1.0120452   0.06657196   -1.7076057   0.69556059   521935 
 1304000    1.0284703   -1.7052833   -1.7052833   -1.0124514   0.07153099   -1.7052833   0.69283193   521935 
 1305000    1.0298706   -1.7058779   -1.7058779   -1.0121026  0.078568168   -1.7058779    0.6937753   521935 
 1306000    1.0297658   -1.7055467   -1.7055467    -1.011842  0.077396418   -1.7055467   0.69370467   521935 
 1307000    1.0317048   -1.7067194   -1.7067194   -1.0117085  0.076698278   -1.7067194    0.6950109   521935 
 1308000     1.030903   -1.7065135   -1.7065135   -1.0120427  0.057819232   -1.7065135   0.69447077   521935 
 1309000    1.0304468   -1.7059036   -1.7059036   -1.0117402  0.071450152   -1.7059036   0.69416343   521935 
 1310000    1.0280049   -1.7047074   -1.7047074    -1.012189  0.074245565   -1.7047074   0.69251843   521935 
 1311000     1.031927   -1.7068332   -1.7068332   -1.0116727  0.083682344   -1.7068332   0.69516059   521935 
 1312000     1.031077   -1.7072635   -1.7072635   -1.0126756  0.081008672   -1.7072635   0.69458794   521935 
 1313000    1.0301256   -1.7070702   -1.7070702   -1.0131231  0.076228204   -1.7070702   0.69394706   521935 
 1314000    1.0281449   -1.7062466   -1.7062466   -1.0136338  0.068178089   -1.7062466   0.69261275   521935 
 1315000    1.0308014   -1.7083637   -1.7083637   -1.0139614  0.081431828   -1.7083637   0.69440232   521935 
 1316000    1.0309827    -1.708615    -1.708615   -1.0140906  0.066131611    -1.708615   0.69452443   521935 
 1317000    1.0311184   -1.7086195   -1.7086195   -1.0140037  0.081290737   -1.7086195   0.69461583   521935 
 1318000    1.0307873   -1.7094436   -1.7094436   -1.0150508  0.071858089   -1.7094436   0.69439283   521935 
 1319000    1.0303429   -1.7096246   -1.7096246   -1.0155312  0.065234721   -1.7096246   0.69409342   521935 
 1320000    1.0325179   -1.7107989   -1.7107989   -1.0152402  0.064069449   -1.7107989   0.69555865   521935 
 1321000    1.0322668   -1.7101101   -1.7101101   -1.0147206  0.074618175   -1.7101101   0.69538948   521935 
 1322000    1.0312103   -1.7092346   -1.7092346   -1.0145568  0.083800979   -1.7092346   0.69467778   521935 
 1323000    1.0313718   -1.7104749   -1.7104749   -1.0156883   0.07498318   -1.7104749   0.69478658   521935 
 1324000    1.0291733    -1.708203    -1.708203   -1.0148975  0.068039023    -1.708203   0.69330552   521935 
 1325000    1.0303545   -1.7092054   -1.7092054   -1.0151042  0.072994615   -1.7092054   0.69410124   521935 
 1326000    1.0284747   -1.7085667   -1.7085667   -1.0157318  0.078136162   -1.7085667   0.69283491   521935 
 1327000    1.0289628   -1.7088196   -1.7088196   -1.0156559  0.072634523   -1.7088196    0.6931637   521935 
 1328000    1.0305519   -1.7099688   -1.7099688   -1.0157346  0.078131006   -1.7099688   0.69423425   521935 
 1329000    1.0300186   -1.7090968   -1.7090968   -1.0152219  0.077888206   -1.7090968   0.69387495   521935 
 1330000    1.0303368   -1.7095737   -1.7095737   -1.0154844  0.066430894   -1.7095737   0.69408932   521935 
 1331000    1.0305718   -1.7106082   -1.7106082   -1.0163606  0.065737852   -1.7106082   0.69424763   521935 
 1332000    1.0277691   -1.7079204   -1.7079204   -1.0155608  0.079837703   -1.7079204   0.69235959   521935 
 1333000    1.0309925   -1.7105869   -1.7105869   -1.0160558  0.069545928   -1.7105869   0.69453104   521935 
 1334000    1.0292772   -1.7092878   -1.7092878   -1.0159123  0.073741624   -1.7092878   0.69337552   521935 
 1335000    1.0308395   -1.7096002   -1.7096002   -1.0151723  0.072707999   -1.7096002   0.69442794   521935 
 1336000    1.0306586   -1.7097747   -1.7097747   -1.0154685  0.075623298   -1.7097747   0.69430612   521935 
 1337000    1.0330118   -1.7110751   -1.7110751   -1.0151838  0.069381188   -1.7110751   0.69589131   521935 
 1338000    1.0320568   -1.7100974   -1.7100974   -1.0148493  0.072534782   -1.7100974   0.69524804   521935 
 1339000    1.0309496   -1.7088878   -1.7088878   -1.0143857  0.082426077   -1.7088878   0.69450216   521935 
 1340000    1.0327421   -1.7098454   -1.7098454   -1.0141358  0.081603688   -1.7098454   0.69570967   521935 
 1341000    1.0315182   -1.7085522   -1.7085522    -1.013667  0.090377242   -1.7085522   0.69488517   521935 
 1342000    1.0324137   -1.7091528   -1.7091528   -1.0136644  0.080530905   -1.7091528    0.6954884   521935 
 1343000    1.0301587   -1.7076848   -1.7076848   -1.0137155  0.072176538   -1.7076848   0.69396933   521935 
 1344000    1.0293985   -1.7076081   -1.7076081   -1.0141509  0.063464817   -1.7076081   0.69345726   521935 
 1345000    1.0305767   -1.7090544   -1.7090544   -1.0148035  0.072335587   -1.7090544    0.6942509   521935 
 1346000    1.0278853   -1.7068023   -1.7068023   -1.0143645  0.064996299   -1.7068023   0.69243785   521935 
 1347000     1.027207   -1.7066756   -1.7066756   -1.0146947  0.070762958   -1.7066756    0.6919809   521935 
 1348000    1.0312745   -1.7090556   -1.7090556   -1.0143345  0.060519923   -1.7090556   0.69472101   521935 
 1349000    1.0283545   -1.7072105   -1.7072105   -1.0144566  0.069942431   -1.7072105   0.69275391   521935 
 1350000    1.0268672   -1.7063148   -1.7063148   -1.0145628   0.07907928   -1.7063148   0.69175203   521935 
 1351000    1.0300912   -1.7081304   -1.7081304   -1.0142065  0.069860656   -1.7081304    0.6939239   521935 
 1352000    1.0296857   -1.7072695   -1.7072695   -1.0136188  0.068657518   -1.7072695   0.69365069   521935 
 1353000    1.0291612   -1.7066669   -1.7066669   -1.0133695  0.072519823   -1.7066669   0.69329738   521935 
 1354000    1.0317968   -1.7096425   -1.7096425   -1.0145696  0.074179763   -1.7096425   0.69507287   521935 
 1355000    1.0302912   -1.7082395   -1.7082395   -1.0141809  0.072705368   -1.7082395   0.69405857   521935 
 1356000    1.0319908   -1.7098906   -1.7098906   -1.0146871  0.068458182   -1.7098906   0.69520352   521935 
 1357000    1.0318894   -1.7092461   -1.7092461   -1.0141108  0.077198939   -1.7092461   0.69513526   521935 
 1358000    1.0302859   -1.7089442   -1.7089442   -1.0148892  0.077385587   -1.7089442   0.69405506   521935 
 1359000    1.0315249   -1.7097223   -1.7097223   -1.0148326  0.093642509   -1.7097223   0.69488971   521935 
 1360000    1.0298433   -1.7087864   -1.7087864   -1.0150295  0.078706383   -1.7087864    0.6937569   521935 
 1361000    1.0311107   -1.7100555   -1.7100555   -1.0154448  0.083489341   -1.7100555   0.69461064   521935 
 1362000    1.0298272   -1.7098701   -1.7098701   -1.0161241  0.074026471   -1.7098701   0.69374603   521935 
 1363000    1.0296668   -1.7099503   -1.7099503   -1.0163123  0.075578187   -1.7099503   0.69363797   521935 
 1364000    1.0301085   -1.7104355   -1.7104355      -1.0165  0.080852809   -1.7104355   0.69393552   521935 
 1365000    1.0298939   -1.7094117   -1.7094117   -1.0156207  0.073367153   -1.7094117   0.69379093   521935 
 1366000    1.0306566   -1.7091823   -1.7091823   -1.0148776  0.077981053   -1.7091823   0.69430477   521935 
 1367000    1.0299216   -1.7088325   -1.7088325   -1.0150228  0.072416525   -1.7088325   0.69380962   521935 
 1368000    1.0300621   -1.7094641   -1.7094641   -1.0155598   0.09142987   -1.7094641   0.69390425   521935 
 1369000    1.0309202   -1.7097641   -1.7097641   -1.0152818  0.060410769   -1.7097641   0.69448235   521935 
 1370000    1.0305785   -1.7091233   -1.7091233   -1.0148711  0.076766574   -1.7091233   0.69425218   521935 
 1371000    1.0288662   -1.7079673   -1.7079673   -1.0148686  0.076331151   -1.7079673   0.69309862   521935 
 1372000     1.028366   -1.7078481   -1.7078481   -1.0150864  0.077193676   -1.7078481   0.69276172   521935 
 1373000    1.0302289   -1.7096498   -1.7096498   -1.0156332  0.075262911   -1.7096498   0.69401664   521935 
 1374000    1.0311418   -1.7098173   -1.7098173   -1.0151856  0.065869301   -1.7098173   0.69463163   521935 
 1375000    1.0321796   -1.7098895   -1.7098895   -1.0145588  0.065684823   -1.7098895    0.6953307   521935 
 1376000    1.0303699     -1.70838     -1.70838   -1.0142684  0.076885875     -1.70838    0.6941116   521935 
 1377000     1.031468   -1.7089649   -1.7089649   -1.0141136  0.078392011   -1.7089649   0.69485134   521935 
 1378000    1.0341991   -1.7106052   -1.7106052   -1.0139141  0.080714665   -1.7106052   0.69669116   521935 
 1379000    1.0339765   -1.7109657   -1.7109657   -1.0144245   0.08520913   -1.7109657   0.69654119   521935 
 1380000    1.0323435   -1.7106629   -1.7106629   -1.0152217  0.082206441   -1.7106629   0.69544114   521935 
 1381000    1.0295714   -1.7090893   -1.7090893   -1.0155156   0.07450086   -1.7090893   0.69357373   521935 
 1382000     1.029033   -1.7085767   -1.7085767   -1.0153657  0.072722106   -1.7085767   0.69321103   521935 
 1383000    1.0310924   -1.7095761   -1.7095761   -1.0149777  0.073747592   -1.7095761   0.69459834   521935 
 1384000    1.0296746    -1.709659    -1.709659   -1.0160158   0.08022801    -1.709659   0.69364325   521935 
 1385000    1.0299397   -1.7095485   -1.7095485   -1.0157267   0.07921003   -1.7095485   0.69382179   521935 
 1386000     1.029844   -1.7095716   -1.7095716   -1.0158143  0.081506312   -1.7095716   0.69375734   521935 
 1387000    1.0295634   -1.7093095   -1.7093095   -1.0157412  0.071901858   -1.7093095   0.69356829   521935 
 1388000    1.0321798   -1.7117676   -1.7117676   -1.0164367  0.069760699   -1.7117676   0.69533086   521935 
 1389000    1.0308058   -1.7103947   -1.7103947   -1.0159894  0.074901446   -1.7103947   0.69440524   521935 
 1390000    1.0292666   -1.7090753   -1.7090753   -1.0157069   0.07553412   -1.7090753   0.69336838   521935 
 1391000    1.0300742   -1.7101735   -1.7101735   -1.0162611  0.077720281   -1.7101735   0.69391241   521935 
 1392000    1.0342043   -1.7121874   -1.7121874   -1.0154927  0.074466754   -1.7121874    0.6966947   521935 
 1393000    1.0295122   -1.7095836   -1.7095836   -1.0160498  0.082833102   -1.7095836   0.69353381   521935 
 1394000    1.0303575   -1.7101015   -1.7101015   -1.0159982  0.078629095   -1.7101015   0.69410328   521935 
 1395000    1.0313199   -1.7114336   -1.7114336    -1.016682  0.075772893   -1.7114336    0.6947516   521935 
 1396000    1.0326861   -1.7115321   -1.7115321   -1.0158602  0.079373468   -1.7115321   0.69567192   521935 
 1397000    1.0322222    -1.712142    -1.712142   -1.0167826  0.089294717    -1.712142    0.6953594   521935 
 1398000     1.030228   -1.7111949   -1.7111949   -1.0171789  0.067797793   -1.7111949   0.69401605   521935 
 1399000     1.031335   -1.7119976   -1.7119976   -1.0172358  0.076017177   -1.7119976   0.69476176   521935 
 1400000    1.0301305   -1.7105204   -1.7105204   -1.0165701  0.074959176   -1.7105204   0.69395037   521935 
 1401000     1.029923    -1.710441    -1.710441   -1.0166304  0.070239482    -1.710441   0.69381059   521935 
 1402000    1.0305282   -1.7106657   -1.7106657   -1.0164475  0.074976316   -1.7106657   0.69421827   521935 
 1403000    1.0310972   -1.7106509   -1.7106509   -1.0160493  0.078464898   -1.7106509   0.69460157   521935 
 1404000     1.031832   -1.7110469   -1.7110469   -1.0159504  0.067598335   -1.7110469   0.69509655   521935 
 1405000     1.030436   -1.7112045   -1.7112045   -1.0170484  0.074698295   -1.7112045   0.69415615   521935 
 1406000    1.0292113   -1.7104085   -1.7104085   -1.0170774  0.070460361   -1.7104085   0.69333113   521935 
 1407000    1.0282332   -1.7102154   -1.7102154   -1.0175432  0.077741765   -1.7102154   0.69267224   521935 
 1408000    1.0292808   -1.7104319   -1.7104319    -1.017054  0.064157408   -1.7104319   0.69337794   521935 
 1409000    1.0283958    -1.709508    -1.709508   -1.0167263  0.082729788    -1.709508   0.69278174   521935 
 1410000    1.0299359   -1.7112891   -1.7112891   -1.0174699  0.075413078   -1.7112891   0.69381926   521935 
 1411000     1.029046     -1.71053     -1.71053   -1.0173102  0.078275484     -1.71053   0.69321976   521935 
 1412000    1.0303352   -1.7118161   -1.7118161   -1.0177278  0.066161194   -1.7118161   0.69408826   521935 
 1413000    1.0313378   -1.7123821   -1.7123821   -1.0176184  0.070193726   -1.7123821   0.69476362   521935 
 1414000    1.0323249   -1.7127469   -1.7127469   -1.0173182  0.078392601   -1.7127469   0.69542861   521935 
 1415000    1.0318613   -1.7128937   -1.7128937   -1.0177774  0.078770146   -1.7128937   0.69511632   521935 
 1416000    1.0306514   -1.7118454   -1.7118454   -1.0175441  0.070864913   -1.7118454   0.69430123   521935 
 1417000    1.0321681   -1.7126375   -1.7126375   -1.0173146  0.086999374   -1.7126375   0.69532299   521935 
 1418000    1.0314681   -1.7122026   -1.7122026   -1.0173512  0.070904708   -1.7122026   0.69485146   521935 
 1419000    1.0297862   -1.7109315   -1.7109315   -1.0172131  0.072809675   -1.7109315   0.69371838   521935 
 1420000    1.0324825   -1.7121809   -1.7121809   -1.0166461  0.081114826   -1.7121809   0.69553481   521935 
 1421000    1.0289725   -1.7097516   -1.7097516   -1.0165813  0.076411197   -1.7097516   0.69317025   521935 
 1422000    1.0295775   -1.7105734   -1.7105734   -1.0169956  0.069338035   -1.7105734   0.69357782   521935 
 1423000    1.0278589   -1.7106006   -1.7106006   -1.0181805  0.085905143   -1.7106006   0.69242006   521935 
 1424000    1.0307342   -1.7125425   -1.7125425   -1.0181855  0.067380427   -1.7125425   0.69435704   521935 
 1425000    1.0314528   -1.7130552   -1.7130552   -1.0182141  0.074390469   -1.7130552   0.69484109   521935 
 1426000    1.0316002   -1.7132683   -1.7132683    -1.018328  0.078088254   -1.7132683   0.69494038   521935 
 1427000    1.0338284   -1.7133888   -1.7133888   -1.0169474  0.076921079   -1.7133888   0.69644142   521935 
 1428000    1.0316126   -1.7120306   -1.7120306   -1.0170818  0.081499662   -1.7120306   0.69494873   521935 
 1429000     1.032098   -1.7126303   -1.7126303   -1.0173546  0.073756377   -1.7126303   0.69527578   521935 
 1430000    1.0315118   -1.7122213   -1.7122213   -1.0173405  0.061494751   -1.7122213   0.69488088   521935 
 1431000    1.0300333   -1.7118177   -1.7118177   -1.0179328  0.077560846   -1.7118177   0.69388489   521935 
 1432000     1.028971   -1.7119615   -1.7119615   -1.0187922  0.072969502   -1.7119615   0.69316927   521935 
 1433000    1.0299112    -1.712717    -1.712717   -1.0189144  0.066590757    -1.712717   0.69380264   521935 
 1434000    1.0285272   -1.7113913   -1.7113913    -1.018521  0.079811136   -1.7113913   0.69287028   521935 
 1435000    1.0286169   -1.7117897   -1.7117897    -1.018859  0.072468658   -1.7117897   0.69293069   521935 
 1436000    1.0296487    -1.712235    -1.712235   -1.0186093  0.081614378    -1.712235   0.69362577   521935 
 1437000    1.0295345   -1.7119953   -1.7119953   -1.0184465  0.066448457   -1.7119953   0.69354882   521935 
 1438000    1.0296788   -1.7122762   -1.7122762   -1.0186301  0.074506433   -1.7122762   0.69364607   521935 
 1439000    1.0285471   -1.7118562   -1.7118562   -1.0189726  0.081327082   -1.7118562   0.69288366   521935 
 1440000    1.0306738    -1.712484    -1.712484   -1.0181677  0.084346827    -1.712484   0.69431632   521935 
 1441000    1.0325605    -1.713939    -1.713939   -1.0183517  0.081726928    -1.713939   0.69558735   521935 
 1442000    1.0321625   -1.7131593   -1.7131593   -1.0178401    0.0776223   -1.7131593   0.69531922   521935 
 1443000    1.0301249   -1.7121683   -1.7121683   -1.0182218  0.081606409   -1.7121683   0.69394659   521935 
 1444000    1.0290444   -1.7124766   -1.7124766   -1.0192579  0.069339641   -1.7124766    0.6932187   521935 
 1445000    1.0282447   -1.7116049   -1.7116049    -1.018925  0.066881505   -1.7116049   0.69267996   521935 
 1446000    1.0294846   -1.7121756   -1.7121756   -1.0186604  0.087867806   -1.7121756   0.69351523   521935 
 1447000    1.0285506   -1.7111242   -1.7111242   -1.0182382  0.066805193   -1.7111242   0.69288604   521935 
 1448000    1.0290626   -1.7123159   -1.7123159    -1.019085  0.066052223   -1.7123159   0.69323096   521935 
 1449000    1.0320796   -1.7134209   -1.7134209   -1.0181575  0.070523287   -1.7134209   0.69526337   521935 
 1450000    1.0283267   -1.7111613   -1.7111613   -1.0184261   0.07970003   -1.7111613   0.69273519   521935 
 1451000    1.0312377   -1.7122397   -1.7122397   -1.0175435  0.068433344   -1.7122397   0.69469622   521935 
 1452000    1.0293955   -1.7101824   -1.7101824   -1.0167272   0.07242296   -1.7101824   0.69345519   521935 
 1453000    1.0314657   -1.7114213   -1.7114213   -1.0165715  0.067098757   -1.7114213   0.69484981   521935 
 1454000     1.029493    -1.710639    -1.710639   -1.0171181  0.083185433    -1.710639    0.6935209   521935 
 1455000    1.0315274   -1.7113935   -1.7113935   -1.0165021  0.076321509   -1.7113935   0.69489138   521935 
 1456000    1.0354263   -1.7132412   -1.7132412   -1.0157233  0.071704516   -1.7132412   0.69751785   521935 
 1457000    1.0326373   -1.7111192   -1.7111192   -1.0154801   0.08428538   -1.7111192   0.69563909   521935 
 1458000     1.033015   -1.7115521   -1.7115521   -1.0156586  0.085734801   -1.7115521   0.69589348   521935 
 1459000    1.0324893   -1.7109083   -1.7109083   -1.0153689  0.071815352   -1.7109083   0.69553935   521935 
 1460000    1.0327911   -1.7112425   -1.7112425   -1.0154999  0.082959991   -1.7112425   0.69574266   521935 
 1461000    1.0312223   -1.7106003   -1.7106003   -1.0159144  0.081312298   -1.7106003   0.69468584   521935 
 1462000      1.03106    -1.711195    -1.711195   -1.0166185  0.061586216    -1.711195   0.69457649   521935 
 1463000    1.0291165   -1.7095675   -1.7095675   -1.0163002  0.067295565   -1.7095675   0.69326727   521935 
 1464000    1.0291172   -1.7101109   -1.7101109   -1.0168432  0.074926496   -1.7101109   0.69326771   521935 
 1465000    1.0305889   -1.7107326   -1.7107326   -1.0164734  0.061421268   -1.7107326   0.69425912   521935 
 1466000    1.0281835   -1.7090225   -1.7090225   -1.0163838  0.070362527   -1.7090225   0.69263871   521935 
 1467000    1.0308836   -1.7112767   -1.7112767    -1.016819  0.076482177   -1.7112767   0.69445768   521935 
 1468000    1.0297499   -1.7100222   -1.7100222   -1.0163282  0.069072722   -1.7100222   0.69369397   521935 
 1469000      1.02934   -1.7100947   -1.7100947   -1.0166769  0.069370068   -1.7100947    0.6934178   521935 
 1470000     1.028904   -1.7100459   -1.7100459   -1.0169218  0.081898014   -1.7100459   0.69312411   521935 
 1471000    1.0296036   -1.7100399   -1.7100399   -1.0164444  0.081647805   -1.7100399   0.69359542   521935 
 1472000    1.0308297   -1.7107662   -1.7107662   -1.0163448  0.074101557   -1.7107662   0.69442137   521935 
 1473000    1.0292432   -1.7105706   -1.7105706    -1.017218  0.072559068   -1.7105706    0.6933526   521935 
 1474000    1.0325303    -1.712209    -1.712209    -1.016642  0.079449476    -1.712209   0.69556699   521935 
 1475000    1.0307932   -1.7118936   -1.7118936   -1.0174969  0.086310633   -1.7118936   0.69439675   521935 
 1476000    1.0311945   -1.7112662   -1.7112662    -1.016599  0.074019011   -1.7112662   0.69466714   521935 
 1477000    1.0325705   -1.7115676   -1.7115676   -1.0159736   0.08704527   -1.7115676   0.69559403   521935 
 1478000    1.0343277   -1.7134111   -1.7134111   -1.0166333  0.081299905   -1.7134111    0.6967778   521935 
 1479000     1.033572   -1.7129942   -1.7129942   -1.0167255  0.070120417   -1.7129942   0.69626873   521935 
 1480000     1.030542   -1.7112162   -1.7112162   -1.0169887  0.073987123   -1.7112162   0.69422752   521935 
 1481000    1.0292379   -1.7109403   -1.7109403   -1.0175913  0.080957204   -1.7109403   0.69334901   521935 
 1482000    1.0289941   -1.7111981   -1.7111981   -1.0180133  0.065495298   -1.7111981   0.69318482   521935 
 1483000    1.0278745   -1.7102685   -1.7102685   -1.0178379  0.080312819   -1.7102685   0.69243061   521935 
 1484000    1.0307115   -1.7114628   -1.7114628    -1.017121  0.080560675   -1.7114628   0.69434176   521935 
 1485000     1.030025   -1.7113636   -1.7113636   -1.0174843  0.078707854   -1.7113636    0.6938793   521935 
 1486000    1.0310198   -1.7125625   -1.7125625    -1.018013  0.080765997   -1.7125625   0.69454944   521935 
 1487000    1.0309535   -1.7129008   -1.7129008   -1.0183961  0.084169323   -1.7129008   0.69450479   521935 
 1488000    1.0295628   -1.7115312   -1.7115312   -1.0179633  0.073908112   -1.7115312   0.69356789   521935 
 1489000    1.0296462   -1.7116617   -1.7116617   -1.0180376  0.080690967   -1.7116617   0.69362413   521935 
 1490000    1.0302839   -1.7115214   -1.7115214   -1.0174678  0.072733207   -1.7115214   0.69405366   521935 
 1491000    1.0314714   -1.7124704   -1.7124704   -1.0176168  0.079854975   -1.7124704   0.69485363   521935 
 1492000     1.033596   -1.7135557   -1.7135557   -1.0172708  0.064379897   -1.7135557   0.69628487   521935 
 1493000    1.0317273   -1.7122882   -1.7122882   -1.0172621  0.083362971   -1.7122882   0.69502602   521935 
 1494000    1.0315505   -1.7128721   -1.7128721   -1.0179651  0.077147258   -1.7128721   0.69490695   521935 
 1495000    1.0340192   -1.7136951   -1.7136951   -1.0171251  0.079340571   -1.7136951   0.69656997   521935 
 1496000    1.0310629   -1.7118749   -1.7118749   -1.0172965  0.075339015   -1.7118749   0.69457846   521935 
 1497000     1.032197   -1.7118724   -1.7118724     -1.01653  0.080046763   -1.7118724   0.69534245   521935 
 1498000    1.0309162   -1.7118414   -1.7118414   -1.0173618  0.074363945   -1.7118414   0.69447961   521935 
 1499000    1.0312057   -1.7118103   -1.7118103   -1.0171356  0.082002426   -1.7118103   0.69467468   521935 
 1500000    1.0278725   -1.7098775   -1.7098775   -1.0174483  0.077298538   -1.7098775   0.69242924   521935 
 1501000    1.0295345   -1.7113359   -1.7113359   -1.0177871  0.070202838   -1.7113359   0.69354882   521935 
 1502000    1.0293203   -1.7108636   -1.7108636    -1.017459  0.064201622   -1.7108636   0.69340458   521935 
 1503000    1.0296372   -1.7102728   -1.7102728   -1.0166548  0.066989471   -1.7102728   0.69361804   521935 
 1504000    1.0313406   -1.7112887   -1.7112887   -1.0165231  0.077698859   -1.7112887   0.69476553   521935 
 1505000    1.0297286   -1.7106626   -1.7106626    -1.016983  0.062074214   -1.7106626    0.6936796   521935 
 1506000    1.0316612   -1.7117844   -1.7117844   -1.0168029  0.066053189   -1.7117844    0.6949815   521935 
 1507000    1.0282922   -1.7101289   -1.7101289   -1.0174169  0.078997658   -1.7101289   0.69271197   521935 
 1508000    1.0293005   -1.7103125   -1.7103125   -1.0169213  0.073792146   -1.7103125   0.69339124   521935 
 1509000    1.0335988   -1.7128601   -1.7128601   -1.0165733  0.057741085   -1.7128601   0.69628675   521935 
 1510000    1.0297853   -1.7111845   -1.7111845   -1.0174667  0.071766378   -1.7111845   0.69371782   521935 
 1511000    1.0293365   -1.7116185   -1.7116185    -1.018203  0.079623037   -1.7116185   0.69341548   521935 
 1512000    1.0312036   -1.7134586   -1.7134586   -1.0187853  0.076019056   -1.7134586   0.69467325   521935 
 1513000    1.0309553    -1.712868    -1.712868   -1.0183619  0.065644562    -1.712868   0.69450601   521935 
 1514000    1.0297894   -1.7132809   -1.7132809   -1.0195603  0.072840792   -1.7132809   0.69372055   521935 
 1515000    1.0308325   -1.7140889   -1.7140889   -1.0196656  0.070986001   -1.7140889   0.69442326   521935 
 1516000    1.0297667   -1.7137608   -1.7137608   -1.0200555   0.07439401   -1.7137608    0.6937053   521935 
 1517000    1.0318046   -1.7152597   -1.7152597   -1.0201816  0.090861398   -1.7152597    0.6950781   521935 
 1518000    1.0320497   -1.7148409   -1.7148409   -1.0195977  0.064505111   -1.7148409    0.6952432   521935 
 1519000    1.0297918   -1.7148854   -1.7148854   -1.0211632  0.082230497   -1.7148854   0.69372216   521935 
 1520000    1.0316875   -1.7166306   -1.7166306   -1.0216314  0.079871631   -1.7166306    0.6949992   521935 
 1521000     1.031326   -1.7158764   -1.7158764   -1.0211207  0.071251538   -1.7158764    0.6947557   521935 
 1522000    1.0311414   -1.7161291   -1.7161291   -1.0214978  0.076200157   -1.7161291   0.69463138   521935 
 1523000    1.0302968   -1.7150545   -1.7150545   -1.0209921  0.072085537   -1.7150545   0.69406239   521935 
 1524000    1.0309132   -1.7166112   -1.7166112   -1.0221336   0.07435798   -1.7166112   0.69447761   521935 
 1525000    1.0272868   -1.7135769   -1.7135769   -1.0215422   0.08100796   -1.7135769   0.69203467   521935 
 1526000    1.0285541   -1.7148594   -1.7148594    -1.021971  0.082947986   -1.7148594    0.6928884   521935 
 1527000    1.0289682   -1.7145956   -1.7145956   -1.0214282  0.071331749   -1.7145956   0.69316735   521935 
 1528000    1.0312331    -1.715942    -1.715942   -1.0212489  0.081007448    -1.715942    0.6946931   521935 
 1529000     1.030289   -1.7154317   -1.7154317   -1.0213746  0.071376292   -1.7154317   0.69405713   521935 
 1530000    1.0278873   -1.7140151   -1.7140151   -1.0215759  0.077925464   -1.7140151   0.69243922   521935 
 1531000    1.0299785   -1.7158454   -1.7158454   -1.0219974  0.075346374   -1.7158454   0.69384794   521935 
 1532000    1.0305824   -1.7153713   -1.7153713   -1.0211165  0.076810704   -1.7153713   0.69425477   521935 
 1533000    1.0325127   -1.7162187   -1.7162187   -1.0206635   0.08340574   -1.7162187   0.69555515   521935 
 1534000    1.0302598   -1.7144477   -1.7144477   -1.0204103  0.093418863   -1.7144477   0.69403744   521935 
 1535000    1.0304731   -1.7146742   -1.7146742   -1.0204931  0.086789889   -1.7146742   0.69418117   521935 
 1536000    1.0299916   -1.7145311   -1.7145311   -1.0206744  0.067305658   -1.7145311   0.69385676   521935 
 1537000     1.030704   -1.7148572   -1.7148572   -1.0205205  0.070851845   -1.7148572   0.69433671   521935 
 1538000    1.0314981   -1.7155702   -1.7155702   -1.0206986   0.07685566   -1.7155702   0.69487163   521935 
 1539000    1.0316562   -1.7151611   -1.7151611   -1.0201829   0.07237029   -1.7151611   0.69497814   521935 
 1540000    1.0310507   -1.7138737   -1.7138737   -1.0193034  0.057407204   -1.7138737   0.69457026   521935 
 1541000    1.0312161   -1.7144841   -1.7144841   -1.0198024  0.069999152   -1.7144841   0.69468168   521935 
 1542000    1.0309394   -1.7143356   -1.7143356   -1.0198403  0.083620483   -1.7143356   0.69449528   521935 
 1543000    1.0312253   -1.7145372   -1.7145372   -1.0198493  0.074557504   -1.7145372   0.69468787   521935 
 1544000    1.0297746   -1.7149805   -1.7149805   -1.0212699  0.076551559   -1.7149805    0.6937106   521935 
 1545000    1.0316174   -1.7160817   -1.7160817   -1.0211298  0.062083603   -1.7160817   0.69495198   521935 
 1546000    1.0305368   -1.7142808   -1.7142808   -1.0200568  0.086663094   -1.7142808   0.69422403   521935 
 1547000    1.0324091   -1.7156671   -1.7156671   -1.0201817  0.068847014   -1.7156671   0.69548533   521935 
 1548000    1.0287112   -1.7138222   -1.7138222    -1.020828  0.069663018   -1.7138222   0.69299423   521935 
 1549000    1.0290821   -1.7135077   -1.7135077   -1.0202636  0.087148106   -1.7135077    0.6932441   521935 
 1550000    1.0303192   -1.7151351   -1.7151351   -1.0210577  0.063522442   -1.7151351   0.69407743   521935 
 1551000    1.0292433   -1.7150477   -1.7150477    -1.021695  0.071944516   -1.7150477   0.69335268   521935 
 1552000    1.0304108   -1.7153497   -1.7153497   -1.0212105  0.075172561   -1.7153497   0.69413919   521935 
 1553000    1.0300334   -1.7154177   -1.7154177   -1.0215328  0.081810217   -1.7154177   0.69388491   521935 
 1554000    1.0296581   -1.7156502   -1.7156502   -1.0220181  0.095852514   -1.7156502   0.69363213   521935 
 1555000    1.0311494   -1.7170477   -1.7170477    -1.022411   0.07126157   -1.7170477   0.69463675   521935 
 1556000    1.0293265   -1.7148448   -1.7148448   -1.0214361  0.091447038   -1.7148448   0.69340872   521935 
 1557000     1.031362   -1.7158903   -1.7158903   -1.0211103  0.082941143   -1.7158903   0.69477997   521935 
 1558000    1.0333042   -1.7173928   -1.7173928   -1.0213045  0.063600887   -1.7173928   0.69608833   521935 
 1559000    1.0305601   -1.7154927   -1.7154927    -1.021253   0.07442331   -1.7154927   0.69423977   521935 
 1560000    1.0292958   -1.7149323   -1.7149323   -1.0215443  0.076172892   -1.7149323   0.69338803   521935 
 1561000    1.0308849   -1.7164512   -1.7164512   -1.0219927   0.06405656   -1.7164512   0.69445852   521935 
 1562000    1.0286227   -1.7149314   -1.7149314   -1.0219968  0.069049922   -1.7149314   0.69293462   521935 
 1563000    1.0305723   -1.7163671   -1.7163671   -1.0221191  0.075267134   -1.7163671   0.69424793   521935 
 1564000    1.0280551   -1.7143565   -1.7143565   -1.0218043   0.07778349   -1.7143565   0.69255226   521935 
 1565000    1.0296561   -1.7154189   -1.7154189   -1.0217881  0.064297233   -1.7154189   0.69363079   521935 
 1566000    1.0289026    -1.714513    -1.714513   -1.0213898  0.075378975    -1.714513   0.69312318   521935 
 1567000    1.0325084   -1.7169691   -1.7169691   -1.0214169   0.06959577   -1.7169691    0.6955522   521935 
 1568000    1.0298871   -1.7155545   -1.7155545   -1.0217681  0.077688998   -1.7155545   0.69378638   521935 
 1569000    1.0302238   -1.7160671   -1.7160671   -1.0220539  0.080504457   -1.7160671   0.69401318   521935 
 1570000    1.0302042   -1.7164335   -1.7164335   -1.0224335   0.07061336   -1.7164335        0.694   521935 
 1571000    1.0279687   -1.7148862   -1.7148862   -1.0223921   0.08039658   -1.7148862   0.69249407   521935 
 1572000     1.028365    -1.715586    -1.715586    -1.022825  0.068300673    -1.715586   0.69276102   521935 
 1573000    1.0310136   -1.7169696   -1.7169696   -1.0224243  0.088505415   -1.7169696   0.69454525   521935 
 1574000    1.0313283    -1.717703    -1.717703   -1.0229457  0.086051473    -1.717703   0.69475728   521935 
 1575000    1.0280151   -1.7154186   -1.7154186   -1.0228933  0.078440853   -1.7154186   0.69252532   521935 
 1576000    1.0289236   -1.7163395   -1.7163395   -1.0232022  0.082341966   -1.7163395   0.69313732   521935 
 1577000    1.0293715   -1.7162359   -1.7162359   -1.0227968  0.079839468   -1.7162359   0.69343907   521935 
 1578000    1.0275337   -1.7148846   -1.7148846   -1.0226836  0.078596345   -1.7148846   0.69220101   521935 
 1579000    1.0312018   -1.7168223   -1.7168223   -1.0221502   0.08598606   -1.7168223   0.69467205   521935 
 1580000    1.0327553   -1.7177398   -1.7177398   -1.0220212  0.077249861   -1.7177398   0.69571858   521935 
 1581000    1.0300908   -1.7157827   -1.7157827   -1.0218591  0.063170706   -1.7157827   0.69392361   521935 
 1582000     1.028761   -1.7156137   -1.7156137   -1.0225859  0.061630678   -1.7156137   0.69302777   521935 
 1583000    1.0269926   -1.7140853   -1.7140853   -1.0222488  0.088921071   -1.7140853   0.69183648   521935 
 1584000    1.0307604   -1.7156763   -1.7156763   -1.0213016   0.07408127   -1.7156763   0.69437465   521935 
 1585000    1.0278013   -1.7142175   -1.7142175   -1.0218362  0.063718732   -1.7142175   0.69238129   521935 
 1586000    1.0294373   -1.7156096   -1.7156096   -1.0221263  0.083298915   -1.7156096   0.69348334   521935 
 1587000    1.0283711   -1.7150119   -1.7150119   -1.0222468  0.075773281   -1.7150119   0.69276511   521935 
 1588000    1.0285642   -1.7154089   -1.7154089   -1.0225137  0.065175862   -1.7154089   0.69289519   521935 
 1589000    1.0283591    -1.714747    -1.714747     -1.02199  0.084846426    -1.714747   0.69275701   521935 
 1590000    1.0296432   -1.7152884   -1.7152884   -1.0216663  0.069787502   -1.7152884   0.69362209   521935 
 1591000    1.0301439   -1.7157648   -1.7157648   -1.0218054   0.07903384   -1.7157648   0.69395937   521935 
 1592000    1.0292326   -1.7160441   -1.7160441   -1.0226986  0.069556815   -1.7160441   0.69334549   521935 
 1593000    1.0301581      -1.7166      -1.7166   -1.0226311  0.076009541      -1.7166   0.69396894   521935 
 1594000    1.0305078   -1.7163048   -1.7163048   -1.0221003  0.080971792   -1.7163048   0.69420455   521935 
 1595000    1.0315973   -1.7179107   -1.7179107   -1.0229723  0.073537271   -1.7179107   0.69493846   521935 
 1596000    1.0302525   -1.7166768   -1.7166768   -1.0226442  0.080875112   -1.7166768   0.69403254   521935 
 1597000    1.0291902   -1.7160308   -1.7160308   -1.0227139  0.082651326   -1.7160308   0.69331693   521935 
 1598000    1.0294509   -1.7165322   -1.7165322   -1.0230397   0.07111454   -1.7165322   0.69349252   521935 
 1599000    1.0274493   -1.7154192   -1.7154192    -1.023275   0.07810413   -1.7154192   0.69214415   521935 
 1600000    1.0330867   -1.7188238   -1.7188238    -1.022882  0.076489088   -1.7188238    0.6959418   521935 
 1601000    1.0294732   -1.7172978   -1.7172978   -1.0237903  0.074555271   -1.7172978   0.69350757   521935 
 1602000    1.0296451   -1.7170133   -1.7170133   -1.0233899  0.069121194   -1.7170133   0.69362338   521935 
 1603000     1.028867   -1.7173248   -1.7173248   -1.0242256  0.085359782   -1.7173248   0.69309917   521935 
 1604000    1.0299817   -1.7175807   -1.7175807   -1.0237306  0.072676285   -1.7175807   0.69385012   521935 
 1605000    1.0285353   -1.7161879   -1.7161879   -1.0233121  0.073584709   -1.7161879   0.69287574   521935 
 1606000    1.0286217   -1.7162099   -1.7162099    -1.023276  0.074675486   -1.7162099   0.69293392   521935 
 1607000    1.0320934   -1.7181294   -1.7181294   -1.0228568  0.084745159   -1.7181294   0.69527264   521935 
 1608000    1.0325082   -1.7185638   -1.7185638   -1.0230117  0.072539713   -1.7185638   0.69555208   521935 
 1609000    1.0286308   -1.7162027   -1.7162027   -1.0232627  0.081583117   -1.7162027   0.69294004   521935 
 1610000    1.0286781   -1.7172637   -1.7172637   -1.0242918  0.081607898   -1.7172637   0.69297195   521935 
 1611000    1.0307255    -1.718311    -1.718311   -1.0239598  0.075471778    -1.718311   0.69435114   521935 
 1612000    1.0275323   -1.7162001   -1.7162001       -1.024  0.069351093   -1.7162001   0.69220009   521935 
 1613000    1.0280535   -1.7170046   -1.7170046   -1.0244534  0.069741723   -1.7170046   0.69255117   521935 
 1614000    1.0304769   -1.7183336   -1.7183336   -1.0241499  0.086374121   -1.7183336   0.69418373   521935 
 1615000    1.0293703    -1.717603    -1.717603   -1.0241647  0.077253027    -1.717603   0.69343823   521935 
 1616000    1.0299937   -1.7176017   -1.7176017   -1.0237435   0.07087146   -1.7176017   0.69385819   521935 
 1617000      1.03138   -1.7177081   -1.7177081    -1.022916  0.079399787   -1.7177081   0.69479206   521935 
 1618000    1.0289479   -1.7162723   -1.7162723   -1.0231187  0.091279884   -1.7162723   0.69315365   521935 
 1619000    1.0273687    -1.715864    -1.715864   -1.0237742  0.064641797    -1.715864   0.69208984   521935 
 1620000    1.0283227   -1.7166768   -1.7166768   -1.0239443  0.084152626   -1.7166768   0.69273254   521935 
 1621000    1.0279612   -1.7168236   -1.7168236   -1.0243346  0.066282049   -1.7168236   0.69248899   521935 
 1622000    1.0280133   -1.7165062   -1.7165062   -1.0239822  0.081353996   -1.7165062   0.69252407   521935 
 1623000    1.0301484   -1.7179318   -1.7179318   -1.0239693  0.079480514   -1.7179318   0.69396243   521935 
 1624000    1.0283808   -1.7173606   -1.7173606    -1.024589  0.074403658   -1.7173606   0.69277165   521935 
 1625000    1.0305363   -1.7191276   -1.7191276   -1.0249039  0.060745586   -1.7191276   0.69422371   521935 
 1626000    1.0297297   -1.7182581   -1.7182581   -1.0245778  0.074222767   -1.7182581   0.69368036   521935 
 1627000    1.0296534   -1.7180974   -1.7180974   -1.0244685  0.073495774   -1.7180974   0.69362898   521935 
 1628000    1.0308887   -1.7188383   -1.7188383   -1.0243771  0.071393145   -1.7188383    0.6944611   521935 
 1629000    1.0270867   -1.7167729   -1.7167729    -1.024873   0.08071895   -1.7167729    0.6918999   521935 
 1630000    1.0299449     -1.71771     -1.71771   -1.0238847  0.072504611     -1.71771   0.69382533   521935 
 1631000     1.031483   -1.7188758   -1.7188758   -1.0240144   0.06313648   -1.7188758   0.69486144   521935 
 1632000    1.0273565   -1.7164244   -1.7164244   -1.0243427  0.068349579   -1.7164244   0.69208164   521935 
 1633000    1.0298582   -1.7184604   -1.7184604   -1.0246935  0.075551714   -1.7184604   0.69376691   521935 
 1634000    1.0273635   -1.7161753   -1.7161753   -1.0240889  0.081715737   -1.7161753   0.69208635   521935 
 1635000    1.0290707   -1.7170149   -1.7170149   -1.0237785  0.077813762   -1.7170149   0.69323644   521935 
 1636000    1.0279852    -1.716399    -1.716399   -1.0238938   0.07615424    -1.716399   0.69250513   521935 
 1637000    1.0291031   -1.7166001   -1.7166001   -1.0233418  0.071927789   -1.7166001   0.69325827   521935 
 1638000    1.0268773   -1.7167797   -1.7167797   -1.0250209  0.079762221   -1.7167797   0.69175879   521935 
 1639000    1.0315214   -1.7192286   -1.7192286   -1.0243413  0.072062347   -1.7192286   0.69488734   521935 
 1640000    1.0319072   -1.7188173   -1.7188173   -1.0236701  0.071489105   -1.7188173   0.69514725   521935 
 1641000    1.0311267   -1.7183691   -1.7183691   -1.0237477  0.076847162   -1.7183691   0.69462146   521935 
 1642000    1.0321117   -1.7193596   -1.7193596   -1.0240746  0.075060203   -1.7193596   0.69528499   521935 
 1643000     1.031276   -1.7198284   -1.7198284   -1.0251064  0.071953123   -1.7198284   0.69472199   521935 
 1644000    1.0299618   -1.7187519   -1.7187519   -1.0249152   0.06337052   -1.7187519   0.69383671   521935 
 1645000    1.0263802   -1.7165564   -1.7165564   -1.0251324  0.079409429   -1.7165564   0.69142396   521935 
 1646000    1.0296891   -1.7188477   -1.7188477   -1.0251947  0.078892523   -1.7188477   0.69365303   521935 
 1647000    1.0291501   -1.7180489   -1.7180489    -1.024759  0.077913966   -1.7180489   0.69328989   521935 
 1648000     1.027505   -1.7168925   -1.7168925   -1.0247108   0.06334509   -1.7168925    0.6921817   521935 
 1649000    1.0278994    -1.716859    -1.716859   -1.0244117  0.069600636    -1.716859   0.69244733   521935 
 1650000    1.0252044   -1.7151338   -1.7151338   -1.0245019    0.0629006   -1.7151338   0.69063186   521935 
 1651000    1.0284798   -1.7173523   -1.7173523    -1.024514  0.071204456   -1.7173523   0.69283832   521935 
 1652000    1.0285195   -1.7170546   -1.7170546   -1.0241895  0.066459521   -1.7170546    0.6928651   521935 
 1653000    1.0290804   -1.7169494   -1.7169494   -1.0237065  0.075472689   -1.7169494   0.69324296   521935 
 1654000    1.0288385   -1.7174133   -1.7174133   -1.0243333  0.081424958   -1.7174133   0.69307999   521935 
 1655000    1.0305182   -1.7176744   -1.7176744   -1.0234629   0.07640447   -1.7176744   0.69421152   521935 
 1656000    1.0300704   -1.7184725   -1.7184725   -1.0245626  0.072840972   -1.7184725   0.69390987   521935 
 1657000     1.028129   -1.7178603   -1.7178603   -1.0252582  0.073393331   -1.7178603   0.69260205   521935 
 1658000    1.0299181   -1.7195939   -1.7195939   -1.0257866  0.073584427   -1.7195939   0.69380729   521935 
 1659000    1.0284557   -1.7186722   -1.7186722     -1.02585  0.067433067   -1.7186722   0.69282213   521935 
 1660000    1.0257672   -1.7162159   -1.7162159   -1.0252049  0.078694661   -1.7162159   0.69101096   521935 
 1661000    1.0302127   -1.7194703   -1.7194703   -1.0254646  0.067370658   -1.7194703   0.69400572   521935 
 1662000    1.0305038   -1.7194919   -1.7194919     -1.02529  0.066693465   -1.7194919   0.69420185   521935 
 1663000    1.0278514   -1.7182359   -1.7182359   -1.0258209  0.080122396   -1.7182359     0.692415   521935 
 1664000    1.0265109   -1.7177446   -1.7177446   -1.0262326  0.070428144   -1.7177446   0.69151201   521935 
 1665000    1.0266668   -1.7176846   -1.7176846   -1.0260676  0.069262802   -1.7176846   0.69161701   521935 
 1666000    1.0287068   -1.7180025   -1.7180025   -1.0250113  0.077236826   -1.7180025   0.69299125   521935 
 1667000    1.0293249   -1.7181252   -1.7181252   -1.0247175  0.076720101   -1.7181252   0.69340766   521935 
 1668000    1.0288867   -1.7172265   -1.7172265    -1.024114  0.072491697   -1.7172265   0.69311245   521935 
 1669000    1.0310098   -1.7177227   -1.7177227     -1.02318  0.082687599   -1.7177227    0.6945427   521935 
 1670000    1.0297383   -1.7167868   -1.7167868   -1.0231007  0.085434053   -1.7167868   0.69368611   521935 
 1671000    1.0329189   -1.7196106   -1.7196106   -1.0237819  0.062568474   -1.7196106   0.69582875   521935 
 1672000    1.0300113   -1.7176832   -1.7176832   -1.0238132  0.076722386   -1.7176832   0.69387005   521935 
 1673000    1.0307103   -1.7176354   -1.7176354   -1.0232944  0.066040486   -1.7176354   0.69434092   521935 
 1674000    1.0308353   -1.7177088   -1.7177088   -1.0232837  0.076155487   -1.7177088   0.69442515   521935 
 1675000    1.0306668   -1.7174679   -1.7174679   -1.0231563  0.078328288   -1.7174679    0.6943116   521935 
 1676000     1.030111   -1.7174018   -1.7174018   -1.0234647  0.067565396   -1.7174018   0.69393719   521935 
 1677000    1.0305507   -1.7186988   -1.7186988   -1.0244653  0.078188215   -1.7186988   0.69423342   521935 
 1678000    1.0284703   -1.7174172   -1.7174172   -1.0245853  0.067819815   -1.7174172   0.69283198   521935 
 1679000    1.0298951   -1.7185847   -1.7185847   -1.0247929  0.077864341   -1.7185847   0.69379177   521935 
 1680000    1.0292757   -1.7177587   -1.7177587   -1.0243841  0.066174685   -1.7177587   0.69337451   521935 
 1681000    1.0286138    -1.717746    -1.717746   -1.0248174  0.077729624    -1.717746   0.69292859   521935 
 1682000    1.0288756   -1.7174926   -1.7174926   -1.0243876  0.077617588   -1.7174926   0.69310496   521935 
 1683000    1.0301971   -1.7189087   -1.7189087   -1.0249135  0.066269824   -1.7189087   0.69399521   521935 
 1684000     1.029832   -1.7192489   -1.7192489   -1.0254997  0.075132669   -1.7192489   0.69374927   521935 
 1685000    1.0270822   -1.7171785   -1.7171785   -1.0252816  0.070115679   -1.7171785   0.69189683   521935 
 1686000    1.0271864   -1.7169212   -1.7169212   -1.0249541  0.074027854   -1.7169212   0.69196705   521935 
 1687000    1.0262409   -1.7165907   -1.7165907   -1.0252605  0.069660341   -1.7165907   0.69133013   521935 
 1688000    1.0250462   -1.7160973   -1.7160973    -1.025572  0.092102335   -1.7160973   0.69052533   521935 
 1689000    1.0277135   -1.7174658   -1.7174658   -1.0251437  0.074384025   -1.7174658    0.6923221   521935 
 1690000    1.0284319   -1.7172592   -1.7172592   -1.0244531  0.070790796   -1.7172592   0.69280608   521935 
 1691000    1.0306252   -1.7187004   -1.7187004   -1.0244168  0.083658932   -1.7187004   0.69428359   521935 
 1692000    1.0295893   -1.7178878   -1.7178878    -1.024302  0.078713052   -1.7178878   0.69358578   521935 
 1693000    1.0295282   -1.7185709   -1.7185709   -1.0250263  0.081070231   -1.7185709   0.69354458   521935 
 1694000    1.0296504   -1.7178256   -1.7178256   -1.0241986  0.079776047   -1.7178256   0.69362695   521935 
 1695000    1.0280762   -1.7174535   -1.7174535    -1.024887  0.073697211   -1.7174535   0.69256649   521935 
 1696000    1.0299691   -1.7183961   -1.7183961   -1.0245544  0.071126073   -1.7183961   0.69384163   521935 
 1697000    1.0298655    -1.717934    -1.717934   -1.0241622  0.069775412    -1.717934    0.6937718   521935 
 1698000    1.0279034   -1.7162724   -1.7162724   -1.0238224  0.073621154   -1.7162724   0.69245003   521935 
 1699000    1.0278714    -1.716376    -1.716376   -1.0239475  0.077961142    -1.716376   0.69242849   521935 
 1700000    1.0299238    -1.717512    -1.717512   -1.0237009  0.068137582    -1.717512   0.69381109   521935 
 1701000    1.0308321   -1.7182538   -1.7182538   -1.0238308  0.086727323   -1.7182538   0.69442298   521935 
 1702000    1.0311676   -1.7184596   -1.7184596   -1.0238106  0.081904607   -1.7184596   0.69464897   521935 
 1703000    1.0301827   -1.7183555   -1.7183555     -1.02437  0.067926186   -1.7183555   0.69398548   521935 
 1704000    1.0302437    -1.719507    -1.719507   -1.0254804  0.076622211    -1.719507   0.69402663   521935 
 1705000    1.0304673   -1.7188592   -1.7188592    -1.024682  0.066305704   -1.7188592   0.69417726   521935 
 1706000    1.0294119   -1.7185014   -1.7185014   -1.0250351  0.072213567   -1.7185014   0.69346626   521935 
 1707000    1.0288268   -1.7179588   -1.7179588   -1.0248866   0.08203369   -1.7179588   0.69307212   521935 
 1708000     1.030967   -1.7194061   -1.7194061   -1.0248922  0.081158176   -1.7194061   0.69451389   521935 
 1709000    1.0303814   -1.7183461   -1.7183461   -1.0242268  0.072743679   -1.7183461   0.69411934   521935 
 1710000    1.0288815   -1.7178784   -1.7178784   -1.0247695  0.072366332   -1.7178784   0.69310896   521935 
 1711000    1.0313309   -1.7192942   -1.7192942   -1.0245352  0.077647654   -1.7192942   0.69475903   521935 
 1712000    1.0264589   -1.7179726   -1.7179726   -1.0264957  0.077195711   -1.7179726   0.69147696   521935 
 1713000    1.0277554   -1.7200242   -1.7200242   -1.0276738  0.063359653   -1.7200242   0.69235038   521935 
 1714000    1.0276466   -1.7191183   -1.7191183   -1.0268413  0.074962734   -1.7191183   0.69227704   521935 
 1715000    1.0283968   -1.7196611   -1.7196611   -1.0268787  0.071220902   -1.7196611   0.69278244   521935 
 1716000    1.0278678    -1.719438    -1.719438   -1.0270119  0.074618543    -1.719438   0.69242611   521935 
 1717000    1.0294568   -1.7203156   -1.7203156   -1.0268191  0.073265063   -1.7203156    0.6934965   521935 
 1718000    1.0288971   -1.7196195   -1.7196195      -1.0265  0.068250325   -1.7196195   0.69311947   521935 
 1719000    1.0291747    -1.719563    -1.719563   -1.0262565  0.091950888    -1.719563   0.69330644   521935 
 1720000    1.0295756   -1.7204431   -1.7204431   -1.0268666  0.072511007   -1.7204431   0.69357656   521935 
 1721000    1.0287034    -1.720776    -1.720776    -1.027787  0.072769573    -1.720776   0.69298897   521935 
 1722000    1.0288209   -1.7215721   -1.7215721    -1.028504  0.080009205   -1.7215721   0.69306812   521935 
 1723000    1.0281183   -1.7202534   -1.7202534   -1.0276586  0.081337989   -1.7202534   0.69259484   521935 
 1724000    1.0281522   -1.7205958   -1.7205958   -1.0279782  0.058830701   -1.7205958   0.69261766   521935 
 1725000    1.0269655   -1.7192523   -1.7192523   -1.0274341  0.089555579   -1.7192523   0.69181824   521935 
 1726000    1.0309886   -1.7221188   -1.7221188   -1.0275904  0.078948823   -1.7221188   0.69452839   521935 
 1727000    1.0284537   -1.7204551   -1.7204551   -1.0276343  0.074661964   -1.7204551   0.69282078   521935 
 1728000    1.0288785   -1.7212415   -1.7212415   -1.0281346  0.073418754   -1.7212415   0.69310695   521935 
 1729000    1.0268986   -1.7199304   -1.7199304   -1.0281573  0.069950424   -1.7199304   0.69177315   521935 
 1730000      1.02869   -1.7203113   -1.7203113   -1.0273313  0.079159988   -1.7203113   0.69297993   521935 
 1731000    1.0264446   -1.7189315   -1.7189315   -1.0274642  0.088248545   -1.7189315   0.69146734   521935 
 1732000    1.0281419   -1.7201703   -1.7201703   -1.0275596  0.088610674   -1.7201703   0.69261072   521935 
 1733000     1.028231   -1.7203782   -1.7203782   -1.0277075  0.075763397   -1.7203782   0.69267074   521935 
 1734000    1.0272068   -1.7196596   -1.7196596   -1.0276788  0.062297297   -1.7196596    0.6919808   521935 
 1735000     1.025032   -1.7192926   -1.7192926   -1.0287769  0.078910521   -1.7192926   0.69051572   521935 
 1736000    1.0251861   -1.7199497   -1.7199497   -1.0293302   0.05504558   -1.7199497   0.69061954   521935 
 1737000    1.0253486   -1.7195458   -1.7195458   -1.0288168  0.074304792   -1.7195458   0.69072903   521935 
 1738000    1.0251756    -1.719424    -1.719424   -1.0288115  0.074764233    -1.719424   0.69061245   521935 
 1739000    1.0279628   -1.7208695   -1.7208695   -1.0283794  0.062956468   -1.7208695   0.69249008   521935 
 1740000    1.0268185   -1.7201393   -1.7201393   -1.0284201  0.076130095   -1.7201393   0.69171923   521935 
 1741000    1.0276233   -1.7203765   -1.7203765   -1.0281151  0.064355797   -1.7203765   0.69226137   521935 
 1742000    1.0279023   -1.7212648   -1.7212648   -1.0288155  0.067342603   -1.7212648   0.69244933   521935 
 1743000    1.0295706   -1.7232169   -1.7232169   -1.0296438  0.062197357   -1.7232169   0.69357316   521935 
 1744000     1.029821   -1.7229712   -1.7229712   -1.0292294  0.080735779   -1.7229712   0.69374187   521935 
 1745000    1.0258779   -1.7196029   -1.7196029   -1.0285173  0.085778402   -1.7196029    0.6910856   521935 
 1746000    1.0291049    -1.721773    -1.721773   -1.0285135  0.082902913    -1.721773   0.69325948   521935 
 1747000     1.027877   -1.7212889   -1.7212889   -1.0288567  0.086847243   -1.7212889   0.69243226   521935 
 1748000    1.0269953   -1.7201581   -1.7201581   -1.0283198  0.088394348   -1.7201581    0.6918383   521935 
 1749000    1.0268602   -1.7202463   -1.7202463    -1.028499  0.072591206   -1.7202463   0.69174731   521935 
 1750000    1.0270661   -1.7210252   -1.7210252   -1.0291393  0.076031574   -1.7210252   0.69188598   521935 
 1751000    1.0279886   -1.7215024   -1.7215024    -1.028995  0.063505789   -1.7215024   0.69250742   521935 
 1752000    1.0271207   -1.7208092   -1.7208092   -1.0288864  0.082010245   -1.7208092   0.69192277   521935 
 1753000    1.0261375   -1.7209546   -1.7209546   -1.0296942  0.076168156   -1.7209546   0.69126047   521935 
 1754000    1.0285041   -1.7224022   -1.7224022   -1.0295475  0.073441928   -1.7224022   0.69285472   521935 
 1755000    1.0257671   -1.7211044   -1.7211044   -1.0300934  0.073982108   -1.7211044   0.69101093   521935 
 1756000    1.0282576   -1.7221663   -1.7221663   -1.0294776  0.076553273   -1.7221663   0.69268869   521935 
 1757000     1.028099   -1.7216613   -1.7216613   -1.0290795  0.081730151   -1.7216613   0.69258182   521935 
 1758000    1.0266613   -1.7205284   -1.7205284   -1.0289151  0.081134016   -1.7205284   0.69161332   521935 
 1759000     1.026957    -1.721432    -1.721432   -1.0296195  0.082876419    -1.721432   0.69181249   521935 
 1760000    1.0268894   -1.7218252   -1.7218252   -1.0300582   0.07198113   -1.7218252   0.69176699   521935 
 1761000    1.0277508    -1.722461    -1.722461   -1.0301138  0.076347459    -1.722461   0.69234724   521935 
 1762000    1.0264534   -1.7223379   -1.7223379   -1.0308647  0.077811664   -1.7223379   0.69147327   521935 
 1763000    1.0277921   -1.7231986   -1.7231986   -1.0308236  0.081017749   -1.7231986   0.69237505   521935 
 1764000     1.027553   -1.7219224   -1.7219224   -1.0297083   0.08418925   -1.7219224   0.69221403   521935 
 1765000    1.0284444   -1.7218475   -1.7218475    -1.029033   0.07881667   -1.7218475   0.69281452   521935 
 1766000    1.0289628   -1.7228559   -1.7228559   -1.0296922  0.072415861   -1.7228559   0.69316375   521935 
 1767000    1.0257623   -1.7204795   -1.7204795   -1.0294718   0.08032197   -1.7204795   0.69100769   521935 
 1768000    1.0269769    -1.721838    -1.721838   -1.0300121  0.078430519    -1.721838   0.69182595   521935 
 1769000    1.0287085   -1.7235483   -1.7235483   -1.0305559  0.073394326   -1.7235483   0.69299243   521935 
 1770000    1.0297206   -1.7233603   -1.7233603    -1.029686  0.072328492   -1.7233603   0.69367423   521935 
 1771000    1.0290583   -1.7227461   -1.7227461   -1.0295181  0.070850861   -1.7227461   0.69322804   521935 
 1772000    1.0271869    -1.721318    -1.721318   -1.0293506  0.075125503    -1.721318   0.69196739   521935 
 1773000    1.0269095   -1.7222981   -1.7222981   -1.0305176  0.072907217   -1.7222981    0.6917805   521935 
 1774000    1.0258452   -1.7208903   -1.7208903   -1.0298268  0.072016575   -1.7208903   0.69106352   521935 
 1775000    1.0283091   -1.7224632   -1.7224632   -1.0297399  0.062702834   -1.7224632   0.69272333   521935 
 1776000    1.0291042   -1.7233349   -1.7233349   -1.0300759   0.07413781   -1.7233349   0.69325899   521935 
 1777000     1.028403   -1.7223294   -1.7223294   -1.0295428   0.07328072   -1.7223294   0.69278659   521935 
 1778000    1.0255887    -1.720421    -1.720421   -1.0295302  0.075052057    -1.720421   0.69089078   521935 
 1779000    1.0256541   -1.7209094   -1.7209094   -1.0299745  0.077391916   -1.7209094   0.69093484   521935 
 1780000    1.0263899   -1.7204285   -1.7204285    -1.028998   0.06437197   -1.7204285    0.6914305   521935 
 1781000    1.0273219   -1.7209742   -1.7209742   -1.0289159   0.07413608   -1.7209742    0.6920583   521935 
 1782000    1.0270251   -1.7202897   -1.7202897   -1.0284313  0.077767365   -1.7202897   0.69185839   521935 
 1783000    1.0273202   -1.7207377   -1.7207377   -1.0286805  0.078753663   -1.7207377    0.6920572   521935 
 1784000    1.0285231   -1.7212437   -1.7212437   -1.0283761  0.071746491   -1.7212437   0.69286752   521935 
 1785000    1.0288858   -1.7219144   -1.7219144   -1.0288025  0.087940654   -1.7219144   0.69311188   521935 
 1786000    1.0288017   -1.7233016   -1.7233016   -1.0302464  0.069966197   -1.7233016   0.69305522   521935 
 1787000     1.029317   -1.7234628   -1.7234628   -1.0300604  0.078970562   -1.7234628   0.69340234   521935 
 1788000    1.0279576   -1.7229282   -1.7229282   -1.0304416  0.075903532   -1.7229282   0.69248659   521935 
 1789000    1.0299308    -1.724099    -1.724099   -1.0302832  0.068641436    -1.724099   0.69381581   521935 
 1790000    1.0264604   -1.7216571   -1.7216571   -1.0301791  0.074459073   -1.7216571   0.69147799   521935 
 1791000    1.0284666   -1.7229807   -1.7229807   -1.0301512  0.077220941   -1.7229807   0.69282944   521935 
 1792000    1.0296981   -1.7237907   -1.7237907   -1.0301317  0.086595757   -1.7237907   0.69365906   521935 
 1793000    1.0282442   -1.7217644   -1.7217644   -1.0290848  0.078316266   -1.7217644   0.69267963   521935 
 1794000    1.0284932   -1.7226362   -1.7226362   -1.0297888  0.074158582   -1.7226362   0.69284741   521935 
 1795000    1.0276812    -1.722087    -1.722087   -1.0297867  0.076394562    -1.722087   0.69230035   521935 
 1796000    1.0267253   -1.7218041   -1.7218041   -1.0301477  0.073464578   -1.7218041   0.69165641   521935 
 1797000     1.028784   -1.7232517   -1.7232517   -1.0302084  0.069002241   -1.7232517   0.69304326   521935 
 1798000    1.0284774   -1.7230974   -1.7230974   -1.0302607  0.063989813   -1.7230974    0.6928367   521935 
 1799000    1.0277158   -1.7217457   -1.7217457    -1.029422  0.086397712   -1.7217457    0.6923237   521935 
 1800000    1.0295993   -1.7226824   -1.7226824   -1.0290899  0.079485827   -1.7226824   0.69359249   521935 
 1801000    1.0286685   -1.7217035   -1.7217035    -1.028738  0.079014388   -1.7217035   0.69296547   521935 
 1802000    1.0283935   -1.7221244   -1.7221244   -1.0293442  0.068389152   -1.7221244    0.6927802   521935 
 1803000    1.0287402   -1.7225512   -1.7225512   -1.0295374  0.081646776   -1.7225512   0.69301378   521935 
 1804000    1.0295873   -1.7238309   -1.7238309   -1.0302465  0.073640101   -1.7238309   0.69358444   521935 
 1805000    1.0314195   -1.7257619   -1.7257619   -1.0309432  0.072298579   -1.7257619   0.69481871   521935 
 1806000    1.0312396   -1.7256794   -1.7256794   -1.0309819  0.083356648   -1.7256794    0.6946975   521935 
 1807000    1.0319308   -1.7265584   -1.7265584   -1.0313953  0.084054954   -1.7265584   0.69516311   521935 
 1808000    1.0309324   -1.7255718   -1.7255718   -1.0310813  0.087002994   -1.7255718   0.69449052   521935 
 1809000    1.0310931   -1.7256834   -1.7256834   -1.0310846  0.077082655   -1.7256834   0.69459877   521935 
 1810000    1.0312002   -1.7253445   -1.7253445   -1.0306735  0.078641368   -1.7253445   0.69467098   521935 
 1811000    1.0293142   -1.7245454   -1.7245454    -1.031145  0.075524754   -1.7245454   0.69340042   521935 
 1812000    1.0309871   -1.7251273   -1.7251273   -1.0305999  0.068082818   -1.7251273   0.69452739   521935 
 1813000    1.0309603   -1.7255596   -1.7255596   -1.0310502  0.064363397   -1.7255596   0.69450933   521935 
 1814000    1.0284924   -1.7237012   -1.7237012   -1.0308543  0.077813444   -1.7237012   0.69284684   521935 
 1815000    1.0283275   -1.7225393   -1.7225393   -1.0298035  0.073491704   -1.7225393   0.69273577   521935 
 1816000    1.0287025   -1.7225461   -1.7225461   -1.0295578  0.064973764   -1.7225461   0.69298834   521935 
 1817000    1.0283712   -1.7216349   -1.7216349   -1.0288697  0.087465674   -1.7216349   0.69276521   521935 
 1818000    1.0295833   -1.7223474   -1.7223474   -1.0287657  0.078685624   -1.7223474   0.69358173   521935 
 1819000    1.0281146   -1.7224804   -1.7224804   -1.0298881  0.075417787   -1.7224804   0.69259233   521935 
 1820000    1.0272073   -1.7216878   -1.7216878   -1.0297067   0.07449014   -1.7216878    0.6919811   521935 
 1821000    1.0280529   -1.7223507   -1.7223507   -1.0297999  0.060840864   -1.7223507   0.69255078   521935 
 1822000    1.0288095   -1.7224414   -1.7224414    -1.029381  0.059743576   -1.7224414   0.69306048   521935 
 1823000    1.0290304   -1.7227436   -1.7227436   -1.0295343  0.067853055   -1.7227436   0.69320925   521935 
 1824000    1.0277455    -1.720942    -1.720942   -1.0285983  0.077827658    -1.720942   0.69234368   521935 
 1825000    1.0289719    -1.722346    -1.722346   -1.0291762  0.078420122    -1.722346   0.69316984   521935 
 1826000    1.0296189   -1.7228805   -1.7228805   -1.0292747  0.086592137   -1.7228805   0.69360573   521935 
 1827000    1.0291849   -1.7223678   -1.7223678   -1.0290545  0.074485401   -1.7223678   0.69331334   521935 
 1828000    1.0288822   -1.7225228   -1.7225228   -1.0294133   0.07306676   -1.7225228   0.69310943   521935 
 1829000    1.0267086   -1.7220063   -1.7220063   -1.0303611  0.062449364   -1.7220063    0.6916452   521935 
 1830000    1.0253696   -1.7220133   -1.7220133   -1.0312702  0.066271097   -1.7220133   0.69074317   521935 
 1831000    1.0251562   -1.7219255   -1.7219255   -1.0313262  0.076263565   -1.7219255   0.69059936   521935 
 1832000    1.0287032   -1.7234451   -1.7234451   -1.0304563  0.081466092   -1.7234451   0.69298886   521935 
 1833000    1.0279603   -1.7233369   -1.7233369   -1.0308486  0.076975843   -1.7233369   0.69248838   521935 
 1834000    1.0294898   -1.7241846   -1.7241846   -1.0306658  0.064694205   -1.7241846   0.69351876   521935 
 1835000    1.0262819   -1.7219627   -1.7219627    -1.030605  0.071544018   -1.7219627   0.69135773   521935 
 1836000    1.0281768   -1.7231177   -1.7231177   -1.0304835  0.071711642   -1.7231177   0.69263421   521935 
 1837000    1.0264673     -1.72206     -1.72206   -1.0305774  0.070671265     -1.72206    0.6914826   521935 
 1838000    1.0299814   -1.7241981   -1.7241981   -1.0303482  0.077383827   -1.7241981   0.69384988   521935 
 1839000    1.0296029   -1.7235668   -1.7235668   -1.0299719  0.067729992   -1.7235668   0.69359493   521935 
 1840000    1.0293257   -1.7236823   -1.7236823   -1.0302741  0.077560526   -1.7236823   0.69340821   521935 
 1841000    1.0297855   -1.7237153   -1.7237153   -1.0299973  0.070071232   -1.7237153   0.69371793   521935 
 1842000     1.029291   -1.7241446   -1.7241446   -1.0307597  0.078570391   -1.7241446   0.69338482   521935 
 1843000     1.027124   -1.7223535   -1.7223535   -1.0304285  0.075169507   -1.7223535     0.691925   521935 
 1844000    1.0289288   -1.7225842   -1.7225842   -1.0294434  0.069965192   -1.7225842   0.69314082   521935 
 1845000    1.0278899   -1.7227948   -1.7227948   -1.0303538  0.072717935   -1.7227948   0.69244095   521935 
 1846000    1.0273655    -1.722141    -1.722141   -1.0300533  0.093310723    -1.722141    0.6920877   521935 
 1847000    1.0318985   -1.7242962   -1.7242962   -1.0291549  0.055311941   -1.7242962   0.69514139   521935 
 1848000    1.0276321   -1.7223425   -1.7223425   -1.0300753  0.069960612   -1.7223425   0.69226727   521935 
 1849000    1.0267947   -1.7218275   -1.7218275   -1.0301243  0.077111986   -1.7218275   0.69170315   521935 
 1850000    1.0280349   -1.7217151   -1.7217151   -1.0291765  0.077719343   -1.7217151   0.69253861   521935 
 1851000    1.0295257   -1.7231919   -1.7231919    -1.029649   0.06631502   -1.7231919   0.69354292   521935 
 1852000     1.028749   -1.7217416   -1.7217416    -1.028722  0.086478081   -1.7217416   0.69301967   521935 
 1853000    1.0300308   -1.7238851   -1.7238851   -1.0300018  0.081772769   -1.7238851   0.69388322   521935 
 1854000    1.0292235   -1.7226669   -1.7226669   -1.0293275  0.090866101   -1.7226669   0.69333934   521935 
 1855000    1.0298147   -1.7229941   -1.7229941   -1.0292565  0.085113238   -1.7229941   0.69373762   521935 
 1856000    1.0291841   -1.7221914   -1.7221914   -1.0288786  0.074704401   -1.7221914   0.69331279   521935 
 1857000    1.0294487     -1.72187     -1.72187   -1.0283789  0.078691423     -1.72187   0.69349107   521935 
 1858000    1.0296941    -1.722394    -1.722394   -1.0287376  0.086327954    -1.722394   0.69365639   521935 
 1859000    1.0283088   -1.7216595   -1.7216595   -1.0289364  0.074588147   -1.7216595   0.69272316   521935 
 1860000    1.0308415   -1.7236794   -1.7236794   -1.0292501  0.072741346   -1.7236794   0.69442933   521935 
 1861000    1.0285924   -1.7219185   -1.7219185   -1.0290043  0.076893877   -1.7219185    0.6929142   521935 
 1862000    1.0300446   -1.7220758   -1.7220758   -1.0281833  0.069627141   -1.7220758   0.69389247   521935 
 1863000    1.0301636   -1.7220267   -1.7220267   -1.0280541  0.075000202   -1.7220267   0.69397261   521935 
 1864000    1.0290131   -1.7207878   -1.7207878   -1.0275901  0.072266519   -1.7207878   0.69319763   521935 
 1865000    1.0279296   -1.7201599   -1.7201599   -1.0276922  0.069623748   -1.7201599   0.69246771   521935 
 1866000    1.0288231   -1.7216448   -1.7216448   -1.0285752  0.063295375   -1.7216448    0.6930696   521935 
 1867000    1.0284591   -1.7218678   -1.7218678   -1.0290434  0.073580497   -1.7218678    0.6928244   521935 
 1868000    1.0295448   -1.7213839   -1.7213839   -1.0278281  0.080887424   -1.7213839    0.6935558   521935 
 1869000    1.0292771   -1.7212336   -1.7212336   -1.0278582  0.064851281   -1.7212336   0.69337548   521935 
 1870000    1.0309612   -1.7230446   -1.7230446   -1.0285347  0.064565493   -1.7230446   0.69450994   521935 
 1871000    1.0295547   -1.7212981   -1.7212981   -1.0277356  0.071484466   -1.7212981   0.69356246   521935 
 1872000    1.0289745   -1.7209453   -1.7209453   -1.0277737  0.072197868   -1.7209453   0.69317157   521935 
 1873000    1.0302264   -1.7223287   -1.7223287   -1.0283138  0.071032812   -1.7223287   0.69401495   521935 
 1874000    1.0295828   -1.7222272   -1.7222272   -1.0286458  0.071244606   -1.7222272   0.69358137   521935 
 1875000    1.0304721   -1.7224717   -1.7224717   -1.0282912  0.081159902   -1.7224717   0.69418044   521935 
 1876000     1.029728   -1.7220274   -1.7220274   -1.0283482  0.060311234   -1.7220274   0.69367918   521935 
 1877000    1.0296266   -1.7219829   -1.7219829    -1.028372  0.070900689   -1.7219829   0.69361091   521935 
 1878000    1.0278358   -1.7207718   -1.7207718   -1.0283672  0.078122199   -1.7207718   0.69240451   521935 
 1879000    1.0283446   -1.7221432   -1.7221432   -1.0293959   0.06826519   -1.7221432   0.69274724   521935 
 1880000     1.026793   -1.7211426   -1.7211426   -1.0294406  0.077334688   -1.7211426   0.69170206   521935 
 1881000    1.0294598   -1.7229234   -1.7229234   -1.0294249  0.071412649   -1.7229234   0.69349852   521935 
 1882000    1.0272829   -1.7220893   -1.7220893   -1.0300572  0.082661089   -1.7220893   0.69203202   521935 
 1883000    1.0278207   -1.7228565   -1.7228565   -1.0304622  0.074515512   -1.7228565   0.69239436   521935 
 1884000     1.027788   -1.7220757   -1.7220757   -1.0297034  0.072901846   -1.7220757   0.69237228   521935 
 1885000    1.0293445   -1.7225562   -1.7225562   -1.0291353  0.078707165   -1.7225562   0.69342086   521935 
 1886000    1.0295417   -1.7225212   -1.7225212   -1.0289675  0.071580831   -1.7225212   0.69355371   521935 
 1887000    1.0291365   -1.7220953   -1.7220953   -1.0288145  0.075228578   -1.7220953   0.69328076   521935 
 1888000    1.0276634   -1.7216622   -1.7216622   -1.0293738  0.076233115   -1.7216622    0.6922884   521935 
 1889000    1.0269928   -1.7216837   -1.7216837   -1.0298471  0.078346356   -1.7216837    0.6918366   521935 
 1890000    1.0268335   -1.7212071   -1.7212071   -1.0294778  0.071939647   -1.7212071   0.69172929   521935 
 1891000     1.026842   -1.7208682   -1.7208682   -1.0291332  0.080089511   -1.7208682   0.69173505   521935 
 1892000    1.0276308   -1.7205933   -1.7205933   -1.0283269  0.064682397   -1.7205933    0.6922664   521935 
 1893000    1.0288053   -1.7217951   -1.7217951   -1.0287375  0.066490215   -1.7217951   0.69305759   521935 
 1894000    1.0245809   -1.7190189   -1.7190189   -1.0288071  0.076432093   -1.7190189   0.69021182   521935 
 1895000    1.0257782   -1.7201527   -1.7201527   -1.0291343  0.069374766   -1.7201527   0.69101841   521935 
 1896000    1.0262657   -1.7200872   -1.7200872   -1.0287404  0.072416989   -1.7200872   0.69134681   521935 
 1897000    1.0274658   -1.7212429   -1.7212429   -1.0290877  0.078541466   -1.7212429   0.69215525   521935 
 1898000    1.0255596   -1.7200244   -1.7200244   -1.0291533  0.082153951   -1.7200244   0.69087114   521935 
 1899000    1.0278509   -1.7215068   -1.7215068   -1.0290921  0.074722367   -1.7215068   0.69241466   521935 
 1900000     1.025896   -1.7211297   -1.7211297   -1.0300319  0.071797007   -1.7211297   0.69109778   521935 
 1901000    1.0285885   -1.7222327   -1.7222327   -1.0293211  0.071578582   -1.7222327   0.69291157   521935 
 1902000    1.0316403   -1.7242085   -1.7242085   -1.0292411  0.079646809   -1.7242085   0.69496743   521935 
 1903000    1.0301298   -1.7224061   -1.7224061   -1.0284562  0.083409762   -1.7224061    0.6939499   521935 
 1904000    1.0302073   -1.7224505   -1.7224505   -1.0284484  0.069508929   -1.7224505    0.6940021   521935 
 1905000    1.0291884   -1.7220778   -1.7220778   -1.0287621  0.077676978   -1.7220778   0.69331568   521935 
 1906000    1.0275588   -1.7218919   -1.7218919   -1.0296739  0.069282051   -1.7218919   0.69221793   521935 
 1907000    1.0258598    -1.720432    -1.720432   -1.0293586  0.079542962    -1.720432    0.6910734   521935 
 1908000    1.0272949   -1.7222336   -1.7222336   -1.0301935  0.070278148   -1.7222336   0.69204016   521935 
 1909000    1.0274385   -1.7224122   -1.7224122   -1.0302753  0.081132987   -1.7224122   0.69213689   521935 
 1910000    1.0269836   -1.7225901   -1.7225901   -1.0307597  0.072219094   -1.7225901    0.6918304   521935 
 1911000    1.0283825   -1.7236012   -1.7236012   -1.0308284  0.061127047   -1.7236012   0.69277279   521935 
 1912000    1.0289377   -1.7244275   -1.7244275   -1.0312807  0.068500882   -1.7244275   0.69314679   521935 
 1913000    1.0259575   -1.7230227   -1.7230227   -1.0318835  0.085010149   -1.7230227   0.69113922   521935 
 1914000    1.0250949   -1.7223238   -1.7223238   -1.0317657  0.087395759   -1.7223238   0.69055808   521935 
 1915000    1.0280405   -1.7237743   -1.7237743   -1.0312319  0.076651189   -1.7237743   0.69254243   521935 
 1916000    1.0279723   -1.7241791   -1.7241791   -1.0316826  0.087824662   -1.7241791   0.69249649   521935 
 1917000    1.0300341   -1.7258089   -1.7258089   -1.0319235  0.075712253   -1.7258089   0.69388543   521935 
 1918000    1.0295751   -1.7260284   -1.7260284   -1.0324522  0.068660321   -1.7260284   0.69357622   521935 
 1919000    1.0272875   -1.7239452   -1.7239452   -1.0319101  0.062035232   -1.7239452   0.69203514   521935 
 1920000     1.028169   -1.7246894   -1.7246894   -1.0320605  0.070977162   -1.7246894   0.69262895   521935 
 1921000    1.0265428    -1.724109    -1.724109   -1.0325755  0.061350087    -1.724109   0.69153348   521935 
 1922000    1.0285307   -1.7244656   -1.7244656    -1.031593  0.064617729   -1.7244656   0.69287265   521935 
 1923000    1.0252628   -1.7220076   -1.7220076   -1.0313364  0.062774547   -1.7220076   0.69067118   521935 
 1924000    1.0275251   -1.7225228   -1.7225228   -1.0303276  0.080147052   -1.7225228   0.69219522   521935 
 1925000    1.0253101   -1.7216709   -1.7216709   -1.0309678  0.080861982   -1.7216709    0.6907031   521935 
 1926000    1.0262691   -1.7228503   -1.7228503   -1.0315012  0.075601952   -1.7228503   0.69134912   521935 
 1927000    1.0267006   -1.7240707   -1.7240707   -1.0324309   0.07337688   -1.7240707   0.69163979   521935 
 1928000    1.0276164   -1.7249901   -1.7249901   -1.0327334  0.059671213   -1.7249901   0.69225669   521935 
 1929000    1.0247188   -1.7230612   -1.7230612   -1.0327565  0.088676216   -1.7230612   0.69030473   521935 
 1930000    1.0289048   -1.7257028   -1.7257028   -1.0325782  0.076999116   -1.7257028   0.69312467   521935 
 1931000    1.0284153   -1.7256853   -1.7256853   -1.0328904  0.067884121   -1.7256853   0.69279492   521935 
 1932000     1.028724   -1.7262228   -1.7262228   -1.0332199  0.062237899   -1.7262228   0.69300287   521935 
 1933000    1.0256202   -1.7243957   -1.7243957   -1.0334838  0.084074842   -1.7243957   0.69091196   521935 
 1934000    1.0261149   -1.7259564   -1.7259564   -1.0347112   0.07804382   -1.7259564   0.69124523   521935 
 1935000     1.027981   -1.7274782   -1.7274782   -1.0349759  0.076030917   -1.7274782   0.69250234   521935 
 1936000     1.027791   -1.7266131   -1.7266131   -1.0342388  0.074449788   -1.7266131   0.69237432   521935 
 1937000    1.0268249   -1.7268898   -1.7268898   -1.0351662  0.084967985   -1.7268898   0.69172352   521935 
 1938000    1.0275631   -1.7270103   -1.7270103   -1.0347895  0.078656493   -1.7270103   0.69222078   521935 
 1939000    1.0268923   -1.7269097   -1.7269097   -1.0351408  0.076105857   -1.7269097   0.69176893   521935 
 1940000    1.0263833   -1.7265197   -1.7265197   -1.0350936  0.076980406   -1.7265197   0.69142603   521935 
 1941000    1.0283394   -1.7274576   -1.7274576   -1.0347138  0.067571481   -1.7274576   0.69274379   521935 
 1942000    1.0288712   -1.7274317   -1.7274317   -1.0343297  0.073368677   -1.7274317   0.69310202   521935 
 1943000     1.027839   -1.7270549   -1.7270549   -1.0346482  0.082768391   -1.7270549   0.69240665   521935 
 1944000    1.0273999   -1.7268173   -1.7268173   -1.0347065  0.064693614   -1.7268173   0.69211087   521935 
 1945000    1.0282174   -1.7270183   -1.7270183   -1.0343567  0.060450098   -1.7270183   0.69266157   521935 
 1946000    1.0263904   -1.7252416   -1.7252416   -1.0338108  0.076714662   -1.7252416   0.69143085   521935 
 1947000    1.0263331   -1.7260471   -1.7260471   -1.0346549  0.077042945   -1.7260471   0.69139219   521935 
 1948000    1.0259855    -1.725062    -1.725062    -1.033904  0.066548695    -1.725062   0.69115802   521935 
 1949000    1.0268904   -1.7257756   -1.7257756   -1.0340079   0.06074107   -1.7257756   0.69176762   521935 
 1950000    1.0251168   -1.7246319   -1.7246319    -1.034059  0.075221461   -1.7246319   0.69057285   521935 
 1951000    1.0256739   -1.7258518   -1.7258518   -1.0349037   0.05883494   -1.7258518   0.69094816   521935 
 1952000    1.0260467   -1.7252807   -1.7252807   -1.0340814  0.054060779   -1.7252807   0.69119929   521935 
 1953000    1.0258381   -1.7246961   -1.7246961   -1.0336373  0.073129763   -1.7246961   0.69105877   521935 
 1954000    1.0283578   -1.7257914   -1.7257914   -1.0330352  0.062038828   -1.7257914   0.69275615   521935 
 1955000    1.0262771   -1.7246951   -1.7246951   -1.0333406  0.073736675   -1.7246951   0.69135451   521935 
 1956000    1.0265004   -1.7251076   -1.7251076   -1.0336027  0.081180517   -1.7251076   0.69150492   521935 
 1957000    1.0276398    -1.725869    -1.725869   -1.0335965  0.075517579    -1.725869    0.6922725   521935 
 1958000    1.0282982   -1.7267839   -1.7267839   -1.0340679  0.084492216   -1.7267839   0.69271601   521935 
 1959000    1.0286526   -1.7269622   -1.7269622   -1.0340074  0.066080972   -1.7269622   0.69295477   521935 
 1960000    1.0270079   -1.7262959   -1.7262959   -1.0344491  0.070309632   -1.7262959   0.69184678   521935 
 1961000    1.0284777   -1.7266885   -1.7266885   -1.0338515  0.069760474   -1.7266885   0.69283692   521935 
 1962000    1.0272819   -1.7260663   -1.7260663   -1.0340349   0.07129295   -1.7260663   0.69203136   521935 
 1963000     1.028105    -1.726018    -1.726018   -1.0334322  0.081379609    -1.726018   0.69258588   521935 
 1964000    1.0274075    -1.726541    -1.726541    -1.034425  0.074719369    -1.726541   0.69211601   521935 
 1965000    1.0275987   -1.7264791   -1.7264791   -1.0342343    0.0714983   -1.7264791   0.69224479   521935 
 1966000     1.026948   -1.7267084   -1.7267084   -1.0349019  0.070669452   -1.7267084   0.69180646   521935 
 1967000    1.0286558   -1.7279887   -1.7279887   -1.0350318  0.072391895   -1.7279887   0.69295691   521935 
 1968000    1.0260108   -1.7264221   -1.7264221    -1.035247  0.065552208   -1.7264221   0.69117513   521935 
 1969000    1.0260901   -1.7263063   -1.7263063   -1.0350777  0.075246133   -1.7263063   0.69122854   521935 
 1970000     1.029025   -1.7276765   -1.7276765   -1.0344708  0.050006561   -1.7276765   0.69320561   521935 
 1971000    1.0287293   -1.7275731   -1.7275731   -1.0345667   0.07434094   -1.7275731   0.69300641   521935 
 1972000    1.0300208   -1.7292762   -1.7292762   -1.0353997  0.061943961   -1.7292762   0.69387646   521935 
 1973000    1.0292546    -1.728394    -1.728394   -1.0350337  0.079031207    -1.728394   0.69336029   521935 
 1974000    1.0296283   -1.7278836   -1.7278836   -1.0342715   0.07620867   -1.7278836   0.69361204   521935 
 1975000    1.0286696   -1.7277791   -1.7277791   -1.0348128  0.071146222   -1.7277791   0.69296623   521935 
 1976000    1.0298226   -1.7282669   -1.7282669   -1.0345239  0.069932313   -1.7282669   0.69374295   521935 
 1977000    1.0258423   -1.7265948   -1.7265948   -1.0355332  0.077732851   -1.7265948   0.69106156   521935 
 1978000    1.0252544    -1.726177    -1.726177   -1.0355115  0.066419447    -1.726177   0.69066553   521935 
 1979000    1.0251684   -1.7264377   -1.7264377   -1.0358301  0.071463137   -1.7264377   0.69060759   521935 
 1980000    1.0265267   -1.7268719   -1.7268719   -1.0353493  0.069370845   -1.7268719   0.69152262   521935 
 1981000    1.0256463   -1.7261711   -1.7261711   -1.0352415  0.073818785   -1.7261711   0.69092959   521935 
 1982000    1.0279564   -1.7280172   -1.7280172   -1.0355314  0.068804904   -1.7280172   0.69248574   521935 
 1983000    1.0280679   -1.7276249   -1.7276249   -1.0350641  0.068747247   -1.7276249   0.69256089   521935 
 1984000    1.0275615   -1.7279915   -1.7279915   -1.0357718  0.076405604   -1.7279915   0.69221971   521935 
 1985000    1.0271858   -1.7281084   -1.7281084   -1.0361417  0.068468688   -1.7281084   0.69196667   521935 
 1986000    1.0268035   -1.7276796   -1.7276796   -1.0359705  0.086396837   -1.7276796   0.69170908   521935 
 1987000    1.0265005   -1.7269665   -1.7269665   -1.0354615  0.063625679   -1.7269665   0.69150497   521935 
 1988000    1.0257418   -1.7262157   -1.7262157   -1.0352218  0.064233242   -1.7262157   0.69099388   521935 
 1989000    1.0259597   -1.7269507   -1.7269507   -1.0358101  0.085122034   -1.7269507   0.69114066   521935 
 1990000    1.0255794   -1.7264968   -1.7264968   -1.0356122  0.060837281   -1.7264968   0.69088451   521935 
 1991000    1.0249649   -1.7264707   -1.7264707   -1.0360002  0.074814414   -1.7264707   0.69047051   521935 
 1992000    1.0285994   -1.7283242   -1.7283242   -1.0354053  0.077134453   -1.7283242   0.69291895   521935 
 1993000    1.0266803   -1.7272846   -1.7272846   -1.0356585  0.063669914   -1.7272846   0.69162608   521935 
 1994000    1.0260481   -1.7268886   -1.7268886   -1.0356883  0.064797726   -1.7268886   0.69120025   521935 
 1995000     1.025698   -1.7267919   -1.7267919   -1.0358276  0.061028945   -1.7267919   0.69096437   521935 
 1996000    1.0266052    -1.726523    -1.726523   -1.0349475   0.07769623    -1.726523   0.69157552   521935 
 1997000    1.0271167   -1.7274382   -1.7274382   -1.0355181   0.06835162   -1.7274382   0.69192007   521935 
 1998000    1.0281643   -1.7283663   -1.7283663   -1.0357405  0.079497151   -1.7283663   0.69262578   521935 
 1999000    1.0282736   -1.7278448   -1.7278448   -1.0351454  0.066240468   -1.7278448   0.69269942   521935 
 2000000    1.0253431   -1.7257372   -1.7257372   -1.0350119  0.099536801   -1.7257372    0.6907253   521935 
 2001000     1.025722   -1.7256341   -1.7256341   -1.0346536  0.079032398   -1.7256341   0.69098054   521935 
 2002000    1.0268911    -1.728094    -1.728094   -1.0363259  0.066428418    -1.728094    0.6917681   521935 
 2003000    1.0252051   -1.7269501   -1.7269501   -1.0363178  0.072583946   -1.7269501   0.69063235   521935 
 2004000    1.0245755   -1.7273781   -1.7273781   -1.0371699  0.069944819   -1.7273781   0.69020821   521935 
 2005000    1.0262286   -1.7279787   -1.7279787   -1.0366569  0.073137834   -1.7279787   0.69132179   521935 
 2006000    1.0260744   -1.7278692   -1.7278692   -1.0366512  0.069382849   -1.7278692   0.69121796   521935 
 2007000    1.0240728   -1.7268161   -1.7268161   -1.0369465  0.060741667   -1.7268161   0.68986956   521935 
 2008000    1.0259236   -1.7274927   -1.7274927   -1.0363763    0.0778944   -1.7274927   0.69111638   521935 
 2009000    1.0227946   -1.7253987   -1.7253987   -1.0363902  0.074296921   -1.7253987    0.6890085   521935 
 2010000    1.0270038   -1.7276135   -1.7276135   -1.0357695  0.068747655   -1.7276135   0.69184406   521935 
 2011000    1.0233737     -1.72486     -1.72486   -1.0354613  0.072464327     -1.72486   0.68939863   521935 
 2012000    1.0267391   -1.7281808   -1.7281808   -1.0365152  0.076731961   -1.7281808   0.69166569   521935 
 2013000    1.0246381   -1.7263882   -1.7263882   -1.0361379  0.068503792   -1.7263882   0.69025035   521935 
 2014000    1.0300136   -1.7290565   -1.7290565   -1.0351849  0.079117369   -1.7290565    0.6938716   521935 
 2015000    1.0287976   -1.7285262   -1.7285262   -1.0354738  0.076281765   -1.7285262   0.69305245   521935 
 2016000    1.0264915   -1.7264037   -1.7264037   -1.0349048  0.069166906   -1.7264037   0.69149893   521935 
 2017000    1.0271195   -1.7270172   -1.7270172   -1.0350953  0.074182862   -1.7270172   0.69192194   521935 
 2018000    1.0262542   -1.7274738   -1.7274738   -1.0361348  0.068132203   -1.7274738   0.69133905   521935 
 2019000    1.0236786   -1.7264974   -1.7264974   -1.0368934  0.079609074   -1.7264974   0.68960399   521935 
 2020000    1.0238191   -1.7277108   -1.7277108   -1.0380122  0.062020024   -1.7277108   0.68969863   521935 
 2021000    1.0267327   -1.7294439   -1.7294439   -1.0377825   0.06899604   -1.7294439   0.69166141   521935 
 2022000     1.024531   -1.7276639   -1.7276639   -1.0374856  0.078198114   -1.7276639   0.69017825   521935 
 2023000    1.0255957   -1.7278497   -1.7278497   -1.0369542  0.084620675   -1.7278497   0.69089544   521935 
 2024000    1.0263145   -1.7284166   -1.7284166    -1.037037  0.073028728   -1.7284166   0.69137967   521935 
 2025000     1.024225   -1.7278444   -1.7278444   -1.0378723  0.058361404   -1.7278444   0.68997211   521935 
 2026000    1.0218559   -1.7267042   -1.7267042    -1.038328  0.073242344   -1.7267042   0.68837616   521935 
 2027000    1.0239611   -1.7271839   -1.7271839   -1.0373896  0.074573351   -1.7271839   0.68979432   521935 
 2028000    1.0231499   -1.7276548   -1.7276548   -1.0384069  0.064157485   -1.7276548   0.68924786   521935 
 2029000     1.025115   -1.7284038   -1.7284038   -1.0378322  0.066185587   -1.7284038   0.69057162   521935 
 2030000    1.0254661   -1.7291247   -1.7291247   -1.0383165  0.076751927   -1.7291247   0.69080818   521935 
 2031000    1.0237434   -1.7275668   -1.7275668   -1.0379191  0.072868874   -1.7275668   0.68964767   521935 
 2032000    1.0254864   -1.7292298   -1.7292298    -1.038408  0.074939729   -1.7292298   0.69082183   521935 
 2033000    1.0269433    -1.730443    -1.730443   -1.0386397  0.074036036    -1.730443   0.69180329   521935 
 2034000    1.0234244   -1.7279734   -1.7279734   -1.0385407  0.079368395   -1.7279734   0.68943273   521935 
 2035000    1.0265034   -1.7297188   -1.7297188   -1.0382118  0.079847489   -1.7297188   0.69150697   521935 
 2036000     1.027624   -1.7302478   -1.7302478   -1.0379859  0.068170409   -1.7302478   0.69226183   521935 
 2037000    1.0273404   -1.7299946   -1.7299946   -1.0379238  0.069790521   -1.7299946    0.6920708   521935 
 2038000    1.0268758   -1.7298323   -1.7298323   -1.0380745  0.082538358   -1.7298323   0.69175779   521935 
 2039000    1.0275967   -1.7303088   -1.7303088   -1.0380654  0.070922879   -1.7303088   0.69224344   521935 
 2040000    1.0257937    -1.729222    -1.729222   -1.0381931  0.071199257    -1.729222   0.69102887   521935 
 2041000    1.0263716   -1.7291367   -1.7291367   -1.0377186   0.07930598   -1.7291367   0.69141812   521935 
 2042000    1.0269201   -1.7292993   -1.7292993   -1.0375116  0.072709751   -1.7292993   0.69178765   521935 
 2043000    1.0232514   -1.7275554   -1.7275554   -1.0382392   0.06373285   -1.7275554   0.68931623   521935 
 2044000    1.0252818   -1.7295042   -1.7295042   -1.0388202  0.064376878   -1.7295042   0.69068399   521935 
 2045000    1.0243112    -1.728638    -1.728638   -1.0386078  0.073942355    -1.728638   0.69003018   521935 
 2046000    1.0259922   -1.7294402   -1.7294402   -1.0382776   0.07396248   -1.7294402   0.69116258   521935 
 2047000    1.0251491   -1.7279049   -1.7279049   -1.0373103  0.068261128   -1.7279049   0.69059459   521935 
 2048000    1.0252902   -1.7280725   -1.7280725   -1.0373828  0.069471903   -1.7280725   0.69068967   521935 
 2049000    1.0292695   -1.7309234   -1.7309234   -1.0375531  0.064843115   -1.7309234   0.69337032   521935 
 2050000    1.0266861   -1.7287545   -1.7287545   -1.0371245  0.085813376   -1.7287545   0.69162999   521935 
 2051000    1.0289716   -1.7299381   -1.7299381   -1.0367684  0.067976423   -1.7299381   0.69316964   521935 
 2052000    1.0277025   -1.7292921   -1.7292921   -1.0369774   0.07158919   -1.7292921   0.69231472   521935 
 2053000    1.0263485   -1.7283218   -1.7283218   -1.0369192  0.067403519   -1.7283218   0.69140262   521935 
 2054000    1.0279741   -1.7287971   -1.7287971   -1.0362995  0.061563403   -1.7287971   0.69249767   521935 
 2055000    1.0254182   -1.7278579   -1.7278579    -1.037082  0.075875093   -1.7278579   0.69077592   521935 
 2056000    1.0239462   -1.7274938   -1.7274938   -1.0377095  0.071191621   -1.7274938   0.68978426   521935 
 2057000    1.0219133   -1.7255485   -1.7255485   -1.0371337  0.071603987   -1.7255485   0.68841484   521935 
 2058000    1.0240721   -1.7264855   -1.7264855   -1.0366164  0.073771153   -1.7264855   0.68986911   521935 
 2059000     1.025521   -1.7270729   -1.7270729   -1.0362277  0.065970063   -1.7270729   0.69084516   521935 
 2060000    1.0254575   -1.7265024   -1.7265024      -1.0357  0.072667095   -1.7265024   0.69080236   521935 
 2061000     1.025394   -1.7264605   -1.7264605   -1.0357009  0.073892453   -1.7264605   0.69075957   521935 
 2062000    1.0271503   -1.7276058   -1.7276058    -1.035663  0.079169918   -1.7276058   0.69194275   521935 
 2063000    1.0278653   -1.7286955   -1.7286955   -1.0362711  0.072081137   -1.7286955   0.69242439   521935 
 2064000    1.0254708   -1.7273103   -1.7273103    -1.036499  0.070833197   -1.7273103   0.69081136   521935 
 2065000    1.0264068   -1.7274498   -1.7274498    -1.036008  0.067157071   -1.7274498   0.69144187   521935 
 2066000    1.0242294   -1.7262876   -1.7262876   -1.0363126  0.071871313   -1.7262876   0.68997504   521935 
 2067000    1.0264757    -1.726996    -1.726996   -1.0355077  0.085088059    -1.726996    0.6914883   521935 
 2068000    1.0267137   -1.7276614   -1.7276614   -1.0360128  0.063373161   -1.7276614    0.6916486   521935 
 2069000    1.0257192   -1.7277908   -1.7277908   -1.0368121  0.082408528   -1.7277908   0.69097868   521935 
 2070000    1.0236274   -1.7274682   -1.7274682   -1.0378987  0.086281968   -1.7274682   0.68956948   521935 
 2071000    1.0264009    -1.729382    -1.729382   -1.0379441  0.073471259    -1.729382   0.69143791   521935 
 2072000    1.0259765   -1.7281833   -1.7281833   -1.0370313  0.082783006   -1.7281833     0.691152   521935 
 2073000     1.027892   -1.7294002   -1.7294002   -1.0369579  0.080526759   -1.7294002   0.69244235   521935 
 2074000    1.0308064   -1.7312386   -1.7312386   -1.0368329  0.075974814   -1.7312386   0.69440565   521935 
 2075000    1.0291246   -1.7301241   -1.7301241   -1.0368514  0.085196976   -1.7301241   0.69327272   521935 
 2076000     1.028379    -1.730029    -1.730029   -1.0372585  0.064653243    -1.730029   0.69277047   521935 
 2077000    1.0269091   -1.7292539   -1.7292539   -1.0374737   0.07348327   -1.7292539   0.69178024   521935 
 2078000    1.0236415   -1.7269495   -1.7269495   -1.0373704  0.082898214   -1.7269495   0.68957902   521935 
 2079000    1.0246056   -1.7277228   -1.7277228   -1.0374943  0.069992599   -1.7277228    0.6902285   521935 
 2080000    1.0263465   -1.7297447   -1.7297447   -1.0383435  0.078844489   -1.7297447   0.69140124   521935 
 2081000    1.0235506    -1.728663    -1.728663   -1.0391452  0.065117188    -1.728663   0.68951781   521935 
 2082000    1.0272937   -1.7303493   -1.7303493     -1.03831  0.065506736   -1.7303493   0.69203933   521935 
 2083000    1.0278748   -1.7295861   -1.7295861   -1.0371553   0.07426081   -1.7295861    0.6924308   521935 
 2084000    1.0288035    -1.730208    -1.730208   -1.0371516  0.077704163    -1.730208   0.69305641   521935 
 2085000    1.0261696   -1.7285482   -1.7285482   -1.0372662  0.072908863   -1.7285482   0.69128206   521935 
 2086000    1.0258619   -1.7288097   -1.7288097   -1.0377349  0.064456936   -1.7288097   0.69107483   521935 
 2087000    1.0260521   -1.7287156   -1.7287156   -1.0375127  0.074965031   -1.7287156   0.69120289   521935 
 2088000     1.029082   -1.7309036   -1.7309036   -1.0376596  0.075119106   -1.7309036   0.69324405   521935 
 2089000    1.0274588   -1.7301703   -1.7301703   -1.0380198  0.065512488   -1.7301703   0.69215057   521935 
 2090000    1.0270706   -1.7290273   -1.7290273   -1.0371383  0.071839156   -1.7290273   0.69188903   521935 
 2091000    1.0273289    -1.729274    -1.729274    -1.037211  0.070387287    -1.729274   0.69206302   521935 
 2092000    1.0268707   -1.7284745   -1.7284745   -1.0367201  0.077284294   -1.7284745    0.6917544   521935 
 2093000    1.0254601   -1.7285003   -1.7285003   -1.0376962  0.070813108   -1.7285003    0.6908041   521935 
 2094000    1.0247168    -1.728296    -1.728296   -1.0379926  0.076168366    -1.728296   0.69030342   521935 
 2095000    1.0254236   -1.7286537   -1.7286537   -1.0378741  0.061205605   -1.7286537   0.69077953   521935 
 2096000    1.0260522   -1.7293716   -1.7293716   -1.0381686   0.07934284   -1.7293716   0.69120302   521935 
 2097000    1.0271836    -1.730443    -1.730443   -1.0384778  0.069903547    -1.730443   0.69196516   521935 
 2098000    1.0259433   -1.7293716   -1.7293716    -1.038242  0.083224576   -1.7293716    0.6911296   521935 
 2099000    1.0263988   -1.7293118   -1.7293118   -1.0378753  0.071059057   -1.7293118   0.69143649   521935 
 2100000    1.0274699   -1.7304846   -1.7304846   -1.0383265  0.059435049   -1.7304846   0.69215805   521935 
 2101000    1.0246462   -1.7286741   -1.7286741   -1.0384183  0.079733149   -1.7286741    0.6902558   521935 
 2102000    1.0275376    -1.730907    -1.730907   -1.0387033  0.074351254    -1.730907   0.69220363   521935 
 2103000    1.0271824   -1.7308679   -1.7308679   -1.0389035  0.060812381   -1.7308679   0.69196434   521935 
 2104000    1.0281463   -1.7312256   -1.7312256   -1.0386119  0.080769002   -1.7312256    0.6926137   521935 
 2105000    1.0262167   -1.7296245   -1.7296245   -1.0383107  0.064173582   -1.7296245   0.69131383   521935 
 2106000    1.0244426   -1.7294074   -1.7294074   -1.0392887  0.080909012   -1.7294074   0.69011868   521935 
 2107000    1.0252283   -1.7297987   -1.7297987   -1.0391507  0.077937452   -1.7297987     0.690648   521935 
 2108000    1.0262572   -1.7305208   -1.7305208   -1.0391797  0.071185704   -1.7305208   0.69134111   521935 
 2109000    1.0260962   -1.7302846   -1.7302846    -1.039052  0.076908377   -1.7302846   0.69123262   521935 
 2110000    1.0286811   -1.7313351   -1.7313351   -1.0383611  0.079035693   -1.7313351   0.69297398   521935 
 2111000    1.0272367   -1.7299221   -1.7299221   -1.0379212  0.087952103   -1.7299221    0.6920009   521935 
 2112000    1.0270167   -1.7299391   -1.7299391   -1.0380863  0.068238275   -1.7299391   0.69185271   521935 
 2113000    1.0240312    -1.727673    -1.727673   -1.0378315  0.072448862    -1.727673   0.68984152   521935 
 2114000    1.0245173    -1.728965    -1.728965    -1.038796  0.076269259    -1.728965   0.69016899   521935 
 2115000    1.0256531   -1.7297596   -1.7297596   -1.0388255  0.084056021   -1.7297596   0.69093415   521935 
 2116000    1.0242061   -1.7283984   -1.7283984    -1.038439  0.068675717   -1.7283984   0.68995939   521935 
 2117000    1.0261054   -1.7294652   -1.7294652   -1.0382264  0.068397754   -1.7294652   0.69123884   521935 
 2118000    1.0254264   -1.7290388   -1.7290388   -1.0382574  0.065823633   -1.7290388   0.69078144   521935 
 2119000    1.0268794   -1.7297691   -1.7297691   -1.0380089  0.077763799   -1.7297691   0.69176021   521935 
 2120000    1.0241519   -1.7281437   -1.7281437   -1.0382209   0.07961168   -1.7281437   0.68992287   521935 
 2121000    1.0277796   -1.7293259   -1.7293259   -1.0369593  0.071492833   -1.7293259   0.69236662   521935 
 2122000    1.0283485   -1.7289765   -1.7289765   -1.0362266  0.082924955   -1.7289765   0.69274991   521935 
 2123000    1.0263682    -1.728046    -1.728046   -1.0366302  0.074634643    -1.728046   0.69141584   521935 
 2124000     1.027729   -1.7291001   -1.7291001   -1.0367676  0.072441059   -1.7291001   0.69233255   521935 
 2125000    1.0268809   -1.7288156   -1.7288156   -1.0370543  0.085703705   -1.7288156   0.69176128   521935 
 2126000    1.0288935   -1.7304018   -1.7304018   -1.0372847  0.074467501   -1.7304018   0.69311704   521935 
 2127000    1.0272751   -1.7284002   -1.7284002   -1.0363734  0.088129105   -1.7284002   0.69202678   521935 
 2128000    1.0272187   -1.7289966   -1.7289966   -1.0370078  0.080631296   -1.7289966   0.69198879   521935 
 2129000    1.0279438   -1.7284912   -1.7284912   -1.0360139  0.065517407   -1.7284912    0.6924773   521935 
 2130000    1.0291306   -1.7290388   -1.7290388    -1.035762  0.070143961   -1.7290388   0.69327678   521935 
 2131000    1.0244791   -1.7265963   -1.7265963    -1.036453  0.072722401   -1.7265963   0.69014326   521935 
 2132000    1.0251968   -1.7275544   -1.7275544   -1.0369276   0.07126494   -1.7275544   0.69062674   521935 
 2133000    1.0261286   -1.7279351   -1.7279351   -1.0366806  0.073233254   -1.7279351   0.69125448   521935 
 2134000    1.0264879   -1.7270466   -1.7270466   -1.0355502   0.08724983   -1.7270466   0.69149647   521935 
 2135000    1.0244013    -1.726199    -1.726199   -1.0361082   0.07675411    -1.726199   0.69009082   521935 
 2136000    1.0258703   -1.7272349   -1.7272349   -1.0361544  0.060413379   -1.7272349   0.69108046   521935 
 2137000    1.0257976   -1.7268032   -1.7268032   -1.0357717  0.062870556   -1.7268032   0.69103145   521935 
 2138000    1.0252086   -1.7268427   -1.7268427    -1.036208  0.061836638   -1.7268427   0.69063468   521935 
 2139000    1.0254014     -1.72693     -1.72693   -1.0361654  0.076299491     -1.72693    0.6907646   521935 
 2140000    1.0288626   -1.7290852   -1.7290852    -1.035989  0.077362349   -1.7290852   0.69309619   521935 
 2141000    1.0277847   -1.7284819   -1.7284819   -1.0361118  0.075740444   -1.7284819   0.69237009   521935 
 2142000    1.0268891   -1.7281321   -1.7281321   -1.0363653  0.081507823   -1.7281321    0.6917668   521935 
 2143000    1.0275048   -1.7287409   -1.7287409   -1.0365594  0.089360229   -1.7287409   0.69218153   521935 
 2144000    1.0270341   -1.7295145   -1.7295145   -1.0376501   0.07274475   -1.7295145   0.69186447   521935 
 2145000    1.0269904   -1.7292671   -1.7292671    -1.037432   0.09194146   -1.7292671   0.69183504   521935 
 2146000    1.0293872   -1.7316036   -1.7316036    -1.038154  0.076281431   -1.7316036   0.69344959   521935 
 2147000    1.0280494   -1.7309232   -1.7309232   -1.0383748  0.073379263   -1.7309232   0.69254844   521935 
 2148000    1.0287861   -1.7311062   -1.7311062   -1.0380616  0.090368594   -1.7311062   0.69304466   521935 
 2149000    1.0264748   -1.7302932   -1.7302932   -1.0388055  0.089826805   -1.7302932   0.69148766   521935 
 2150000    1.0261025    -1.729655    -1.729655   -1.0384181  0.076706298    -1.729655   0.69123687   521935 
 2151000    1.0258583   -1.7298788   -1.7298788   -1.0388064  0.070445261   -1.7298788   0.69107236   521935 
 2152000     1.025122   -1.7297303   -1.7297303    -1.039154  0.077706243   -1.7297303   0.69057632   521935 
 2153000    1.0233832   -1.7275436   -1.7275436   -1.0381386  0.079314247   -1.7275436   0.68940503   521935 
 2154000    1.0228868   -1.7280178   -1.7280178   -1.0389471   0.07683543   -1.7280178   0.68907063   521935 
 2155000    1.0275885   -1.7312517   -1.7312517   -1.0390138   0.07038741   -1.7312517   0.69223789   521935 
 2156000    1.0254961   -1.7293078   -1.7293078   -1.0384794  0.069286957   -1.7293078   0.69082834   521935 
 2157000    1.0260524   -1.7295962   -1.7295962   -1.0383931  0.083533093   -1.7295962   0.69120313   521935 
 2158000    1.0242303   -1.7284305   -1.7284305   -1.0384548  0.067876381   -1.7284305   0.68997566   521935 
 2159000    1.0249318   -1.7295998   -1.7295998   -1.0391515  0.070719068   -1.7295998   0.69044825   521935 
 2160000    1.0256982   -1.7296587   -1.7296587   -1.0386942  0.070902471   -1.7296587   0.69096454   521935 
 2161000    1.0259839   -1.7305768   -1.7305768   -1.0394199  0.071521715   -1.7305768   0.69115699   521935 
 2162000    1.0256042   -1.7307235   -1.7307235   -1.0398223  0.075711833   -1.7307235   0.69090119   521935 
 2163000    1.0246525   -1.7300094   -1.7300094   -1.0397493  0.081032112   -1.7300094   0.69026008   521935 
 2164000    1.0256304   -1.7317317   -1.7317317   -1.0408128  0.077071425   -1.7317317   0.69091887   521935 
 2165000    1.0254223   -1.7316558   -1.7316558   -1.0408771  0.081569234   -1.7316558   0.69077863   521935 
 2166000    1.0257748   -1.7322738   -1.7322738   -1.0412576  0.073288537   -1.7322738   0.69101614   521935 
 2167000    1.0236703   -1.7312693   -1.7312693   -1.0416709  0.071894444   -1.7312693   0.68959841   521935 
 2168000     1.023709   -1.7314796   -1.7314796   -1.0418552  0.071995334   -1.7314796   0.68962448   521935 
 2169000     1.024057   -1.7312159   -1.7312159    -1.041357  0.053353176   -1.7312159   0.68985892   521935 
 2170000    1.0242297   -1.7312648   -1.7312648   -1.0412895  0.073625443   -1.7312648   0.68997527   521935 
 2171000    1.0248585   -1.7315772   -1.7315772   -1.0411783  0.071725491   -1.7315772   0.69039886   521935 
 2172000    1.0232765    -1.731499    -1.731499   -1.0421659  0.079293424    -1.731499    0.6893331   521935 
 2173000    1.0250513   -1.7331328   -1.7331328   -1.0426041  0.078413654   -1.7331328   0.69052873   521935 
 2174000    1.0243736   -1.7326586   -1.7326586   -1.0425864  0.056385326   -1.7326586   0.69007219   521935 
 2175000    1.0262044   -1.7330577   -1.7330577   -1.0417522  0.080370086   -1.7330577   0.69130552   521935 
 2176000    1.0247221   -1.7321494   -1.7321494   -1.0418425  0.072640686   -1.7321494   0.69030698   521935 
 2177000    1.0272094   -1.7339074   -1.7339074   -1.0419248  0.071851938   -1.7339074   0.69198256   521935 
 2178000    1.0263538   -1.7333929   -1.7333929   -1.0419868    0.0802535   -1.7333929   0.69140614   521935 
 2179000    1.0249041   -1.7324341   -1.7324341   -1.0420045  0.071107137   -1.7324341   0.69042959   521935 
 2180000    1.0234691   -1.7316821   -1.7316821   -1.0422192  0.078578182   -1.7316821   0.68946288   521935 
 2181000    1.0238888   -1.7318611   -1.7318611   -1.0421155   0.07055826   -1.7318611   0.68974562   521935 
 2182000    1.0234704   -1.7316237   -1.7316237     -1.04216  0.073804726   -1.7316237   0.68946378   521935 
 2183000     1.025229   -1.7325464   -1.7325464    -1.041898  0.070236105   -1.7325464   0.69064844   521935 
 2184000    1.0237223   -1.7320339   -1.7320339   -1.0424004  0.062222955   -1.7320339   0.68963344   521935 
 2185000    1.0245104   -1.7329048   -1.7329048   -1.0427404  0.083967357   -1.7329048   0.69016437   521935 
 2186000    1.0266034    -1.734602    -1.734602   -1.0430277  0.061405944    -1.734602   0.69157427   521935 
 2187000    1.0280136    -1.734224    -1.734224   -1.0416997   0.05866136    -1.734224    0.6925243   521935 
 2188000    1.0257975   -1.7332972   -1.7332972   -1.0422658  0.060301609   -1.7332972   0.69103138   521935 
 2189000    1.0264277   -1.7330829   -1.7330829   -1.0416269  0.070474729   -1.7330829   0.69145596   521935 
 2190000     1.027019    -1.734417    -1.734417   -1.0425627   0.06752649    -1.734417    0.6918543   521935 
 2191000    1.0260966   -1.7343669   -1.7343669    -1.043134  0.084098498   -1.7343669   0.69123288   521935 
 2192000    1.0254002   -1.7343165   -1.7343165   -1.0435528  0.067481109   -1.7343165   0.69076374   521935 
 2193000     1.026082    -1.734968    -1.734968   -1.0437449  0.083420393    -1.734968   0.69122309   521935 
 2194000    1.0237018    -1.731967    -1.731967   -1.0423473  0.079115374    -1.731967   0.68961967   521935 
 2195000    1.0229355   -1.7325263   -1.7325263   -1.0434229  0.069685074   -1.7325263   0.68910345   521935 
 2196000    1.0270077   -1.7353307   -1.7353307    -1.043484  0.065538194   -1.7353307   0.69184664   521935 
 2197000    1.0250931    -1.733829    -1.733829   -1.0432721  0.070911946    -1.733829   0.69055688   521935 
 2198000    1.0261423   -1.7340607   -1.7340607   -1.0427971  0.073182448   -1.7340607   0.69126366   521935 
 2199000    1.0245314   -1.7336506   -1.7336506   -1.0434721   0.06406765   -1.7336506   0.69017852   521935 
 2200000    1.0250089    -1.732675    -1.732675   -1.0421748   0.06855101    -1.732675   0.69050016   521935 
 2201000    1.0221707   -1.7309792   -1.7309792    -1.042391  0.074277354   -1.7309792   0.68858824   521935 
 2202000    1.0223849   -1.7314311   -1.7314311   -1.0426986  0.069458721   -1.7314311   0.68873253   521935 
 2203000    1.0258886   -1.7325526   -1.7325526   -1.0414599  0.075037327   -1.7325526   0.69109277   521935 
 2204000    1.0253063   -1.7332427   -1.7332427   -1.0425421  0.072159027   -1.7332427   0.69070053   521935 
 2205000    1.0265171    -1.734423    -1.734423   -1.0429068  0.067752639    -1.734423   0.69151619   521935 
 2206000    1.0255067   -1.7331448   -1.7331448   -1.0423093  0.069369196   -1.7331448   0.69083548   521935 
 2207000     1.026442   -1.7337552   -1.7337552   -1.0422896  0.064015435   -1.7337552   0.69146555   521935 
 2208000    1.0273645   -1.7339057   -1.7339057   -1.0418186  0.082245423   -1.7339057   0.69208705   521935 
 2209000    1.0243629   -1.7321329   -1.7321329    -1.042068  0.084822231   -1.7321329   0.69006496   521935 
 2210000    1.0244303   -1.7321884   -1.7321884    -1.042078  0.073390829   -1.7321884   0.69011038   521935 
 2211000    1.0229445   -1.7313416   -1.7313416   -1.0422321  0.064779586   -1.7313416   0.68910947   521935 
 2212000     1.023085   -1.7323626   -1.7323626   -1.0431585   0.06373145   -1.7323626   0.68920411   521935 
 2213000    1.0235041   -1.7328588   -1.7328588   -1.0433723  0.064963228   -1.7328588   0.68948646   521935 
 2214000    1.0254985   -1.7332694   -1.7332694   -1.0424395  0.057014495   -1.7332694   0.69082996   521935 
 2215000    1.0250691   -1.7322841   -1.7322841   -1.0417433  0.072756239   -1.7322841   0.69054073   521935 
 2216000    1.0248236   -1.7317824   -1.7317824    -1.041407   0.07131253   -1.7317824   0.69037533   521935 
 2217000    1.0259139   -1.7314169   -1.7314169   -1.0403071  0.073073264   -1.7314169   0.69110979   521935 
 2218000    1.0233313   -1.7301374   -1.7301374   -1.0407673  0.076427811   -1.7301374   0.68937004   521935 
 2219000     1.024902   -1.7307335   -1.7307335   -1.0403054  0.076263525   -1.7307335   0.69042813   521935 
 2220000    1.0257816   -1.7318344   -1.7318344   -1.0408137  0.072984667   -1.7318344   0.69102067   521935 
 2221000    1.0252745   -1.7318054   -1.7318054   -1.0411263  0.070982616   -1.7318054   0.69067912   521935 
 2222000    1.0252571   -1.7308622   -1.7308622   -1.0401948  0.081409174   -1.7308622   0.69066736   521935 
 2223000    1.0235236   -1.7298156   -1.7298156    -1.040316  0.073576113   -1.7298156   0.68949959   521935 
 2224000    1.0241361   -1.7310421   -1.7310421   -1.0411299  0.079203266   -1.7310421   0.68991219   521935 
 2225000    1.0265906   -1.7329446   -1.7329446   -1.0413789  0.074727097   -1.7329446   0.69156565   521935 
 2226000    1.0251723   -1.7312135   -1.7312135   -1.0406033  0.076053233   -1.7312135   0.69061021   521935 
 2227000    1.0221921   -1.7301283   -1.7301283   -1.0415257  0.066279769   -1.7301283   0.68860264   521935 
 2228000    1.0242153   -1.7315236   -1.7315236   -1.0415581  0.065523286   -1.7315236   0.68996552   521935 
 2229000    1.0263661   -1.7329382   -1.7329382   -1.0415237  0.082940438   -1.7329382   0.69141446   521935 
 2230000    1.0252476   -1.7322014   -1.7322014   -1.0415404  0.077227723   -1.7322014   0.69066095   521935 
 2231000    1.0265171   -1.7324059   -1.7324059   -1.0408898  0.078070258   -1.7324059   0.69151615   521935 
 2232000    1.0239282   -1.7307118   -1.7307118   -1.0409397  0.072032124   -1.7307118   0.68977217   521935 
 2233000    1.0261437   -1.7320453   -1.7320453   -1.0407806  0.061762977   -1.7320453   0.69126463   521935 
 2234000    1.0284929   -1.7338568   -1.7338568   -1.0410096  0.066909921   -1.7338568   0.69284718   521935 
 2235000    1.0237553   -1.7313472   -1.7313472   -1.0416916  0.071378876   -1.7313472   0.68965567   521935 
 2236000    1.0251984   -1.7318563   -1.7318563   -1.0412284  0.066061659   -1.7318563   0.69062784   521935 
 2237000    1.0232512   -1.7307792   -1.7307792   -1.0414631  0.074339279   -1.7307792   0.68931608   521935 
 2238000    1.0231231     -1.73031     -1.73031   -1.0410802   0.05794768     -1.73031   0.68922978   521935 
 2239000    1.0236557   -1.7310483   -1.7310483   -1.0414597  0.064031942   -1.7310483    0.6895886   521935 
 2240000     1.024785   -1.7319003   -1.7319003    -1.041551  0.072337226   -1.7319003   0.69034933   521935 
 2241000    1.0241456    -1.730991    -1.730991   -1.0410724  0.061602472    -1.730991   0.68991862   521935 
 2242000    1.0231715    -1.730302    -1.730302   -1.0410396  0.068952292    -1.730302   0.68926241   521935 
 2243000    1.0254057    -1.732171    -1.732171   -1.0414035  0.072442479    -1.732171    0.6907675   521935 
 2244000    1.0233177   -1.7309461   -1.7309461   -1.0415852  0.079892826   -1.7309461   0.68936091   521935 
 2245000    1.0240323    -1.731764    -1.731764   -1.0419217  0.067777797    -1.731764   0.68984228   521935 
 2246000    1.0251251   -1.7333049   -1.7333049   -1.0427264  0.073660803   -1.7333049   0.69057844   521935 
 2247000    1.0254753   -1.7332691   -1.7332691   -1.0424547  0.069927206   -1.7332691   0.69081439   521935 
 2248000    1.0253776   -1.7330018   -1.7330018   -1.0422533  0.071716367   -1.7330018   0.69074856   521935 
 2249000    1.0249819   -1.7330162   -1.7330162   -1.0425342  0.069067158   -1.7330162     0.690482   521935 
 2250000    1.0251055   -1.7327333   -1.7327333    -1.042168  0.075571814   -1.7327333   0.69056525   521935 
 2251000    1.0282782   -1.7338157   -1.7338157   -1.0411132  0.067322841   -1.7338157   0.69270256   521935 
 2252000    1.0247159   -1.7309412   -1.7309412   -1.0406384  0.080516157   -1.7309412   0.69030281   521935 
 2253000    1.0266256   -1.7324631   -1.7324631   -1.0408738  0.076162207   -1.7324631   0.69158923   521935 
 2254000    1.0252697   -1.7313188   -1.7313188   -1.0406429  0.076896235   -1.7313188   0.69067586   521935 
 2255000    1.0250209   -1.7302397   -1.7302397   -1.0397315  0.072818412   -1.7302397   0.69050828   521935 
 2256000    1.0245461   -1.7309487   -1.7309487   -1.0407603  0.063463537   -1.7309487   0.69018841   521935 
 2257000    1.0237241   -1.7308846   -1.7308846   -1.0412499  0.071566408   -1.7308846   0.68963464   521935 
 2258000    1.0248083   -1.7323351   -1.7323351     -1.04197  0.061032977   -1.7323351   0.69036502   521935 
 2259000    1.0229027   -1.7303395   -1.7303395   -1.0412582  0.069363585   -1.7303395    0.6890813   521935 
 2260000    1.0274503   -1.7330971   -1.7330971   -1.0409523  0.065178436   -1.7330971   0.69214481   521935 
 2261000    1.0237711   -1.7309068   -1.7309068   -1.0412404  0.078040748   -1.7309068   0.68966632   521935 
 2262000    1.0238554    -1.731411    -1.731411   -1.0416879  0.072539041    -1.731411   0.68972311   521935 
 2263000     1.022857   -1.7314695   -1.7314695   -1.0424189   0.08211765   -1.7314695   0.68905054   521935 
 2264000    1.0272555   -1.7340092   -1.7340092   -1.0419956  0.085523483   -1.7340092   0.69201357   521935 
 2265000    1.0262214   -1.7341552   -1.7341552   -1.0428383   0.06794352   -1.7341552   0.69131695   521935 
 2266000    1.0234813   -1.7320907   -1.7320907   -1.0426196  0.075870768   -1.7320907    0.6894711   521935 
 2267000    1.0251178   -1.7330079   -1.7330079   -1.0424343  0.078424556   -1.7330079   0.69057355   521935 
 2268000     1.024082   -1.7324424   -1.7324424   -1.0425666  0.083103736   -1.7324424   0.68987576   521935 
 2269000    1.0225874   -1.7309905   -1.7309905   -1.0421215   0.08105194   -1.7309905   0.68886894   521935 
 2270000      1.02792   -1.7343976   -1.7343976   -1.0419364   0.06605995   -1.7343976    0.6924612   521935 
 2271000     1.026219   -1.7331948   -1.7331948   -1.0418795  0.080657036   -1.7331948   0.69131538   521935 
 2272000    1.0257372   -1.7332277   -1.7332277   -1.0422369  0.066094292   -1.7332277   0.69099077   521935 
 2273000    1.0265883   -1.7341812   -1.7341812   -1.0426171  0.069735931   -1.7341812   0.69156411   521935 
 2274000    1.0249985   -1.7327086   -1.7327086   -1.0422154  0.085150768   -1.7327086   0.69049317   521935 
 2275000    1.0265565   -1.7336666   -1.7336666   -1.0421238  0.074834408   -1.7336666   0.69154272   521935 
 2276000    1.0244788    -1.732649    -1.732649   -1.0425059  0.077336934    -1.732649   0.69014304   521935 
 2277000    1.0247503   -1.7334825   -1.7334825   -1.0431565  0.067046198   -1.7334825   0.69032594   521935 
 2278000    1.0241279   -1.7329317   -1.7329317    -1.043025  0.081357947   -1.7329317   0.68990671   521935 
 2279000    1.0248088   -1.7339417   -1.7339417   -1.0435763   0.05944914   -1.7339417   0.69036538   521935 
 2280000    1.0234833   -1.7335395   -1.7335395    -1.044067  0.072256625   -1.7335395   0.68947244   521935 
 2281000    1.0265452   -1.7347078   -1.7347078   -1.0431727  0.057702632   -1.7347078   0.69153512   521935 
 2282000    1.0254795   -1.7338815   -1.7338815   -1.0430643  0.075205339   -1.7338815   0.69081719   521935 
 2283000    1.0229412   -1.7320098   -1.7320098   -1.0429025  0.077614535   -1.7320098   0.68910729   521935 
 2284000    1.0229603   -1.7316087   -1.7316087   -1.0424886  0.081024538   -1.7316087   0.68912011   521935 
 2285000    1.0243184   -1.7333765   -1.7333765   -1.0433415  0.061182936   -1.7333765   0.69003499   521935 
 2286000    1.0244663   -1.7332704   -1.7332704   -1.0431357  0.088348971   -1.7332704   0.69013463   521935 
 2287000    1.0227898   -1.7326001   -1.7326001   -1.0435949  0.078455882   -1.7326001   0.68900528   521935 
 2288000    1.0233357   -1.7330279   -1.7330279   -1.0436549  0.086314355   -1.7330279   0.68937302   521935 
 2289000    1.0258696   -1.7341571   -1.7341571   -1.0430771  0.079314327   -1.7341571   0.69107996   521935 
 2290000    1.0263261   -1.7346411   -1.7346411   -1.0432537  0.075389947   -1.7346411   0.69138749   521935 
 2291000    1.0247067   -1.7340472   -1.7340472   -1.0437507    0.0749306   -1.7340472   0.69029656   521935 
 2292000    1.0258895   -1.7355663   -1.7355663   -1.0444729  0.062129546   -1.7355663   0.69109336   521935 
 2293000    1.0248729   -1.7345564   -1.7345564   -1.0441479  0.067307981   -1.7345564   0.69040853   521935 
 2294000    1.0255811   -1.7348445   -1.7348445   -1.0439588  0.068346497   -1.7348445   0.69088562   521935 
 2295000    1.0251733   -1.7342747   -1.7342747   -1.0436638  0.073488487   -1.7342747   0.69061088   521935 
 2296000    1.0258557   -1.7348484   -1.7348484   -1.0437778  0.080172657   -1.7348484    0.6910706   521935 
 2297000     1.023886   -1.7339156   -1.7339156   -1.0441719  0.072689776   -1.7339156   0.68974375   521935 
 2298000    1.0228537   -1.7338322   -1.7338322   -1.0447839  0.073945095   -1.7338322   0.68904831   521935 
 2299000    1.0254421    -1.735354    -1.735354    -1.044562  0.069020413    -1.735354   0.69079196   521935 
 2300000    1.0230496   -1.7337926   -1.7337926   -1.0446123   0.08255973   -1.7337926   0.68918028   521935 
 2301000    1.0261969   -1.7363926   -1.7363926   -1.0450921  0.083542509   -1.7363926   0.69130047   521935 
 2302000     1.026505   -1.7363061   -1.7363061   -1.0447981  0.080886851   -1.7363061     0.691508   521935 
 2303000    1.0252848   -1.7351599   -1.7351599   -1.0444739  0.098624439   -1.7351599   0.69068605   521935 
 2304000    1.0254359   -1.7361058   -1.7361058    -1.045318  0.062340378   -1.7361058   0.69078784   521935 
 2305000    1.0256743   -1.7364604   -1.7364604    -1.045512  0.072818118   -1.7364604   0.69094842   521935 
 2306000     1.023648   -1.7348149   -1.7348149   -1.0452315  0.074693385   -1.7348149   0.68958338   521935 
 2307000    1.0220015   -1.7337339   -1.7337339   -1.0452597  0.060051345   -1.7337339   0.68847424   521935 
 2308000    1.0224302   -1.7343468   -1.7343468   -1.0455837  0.075039455   -1.7343468   0.68876304   521935 
 2309000    1.0249217   -1.7348806   -1.7348806   -1.0444392  0.077904976   -1.7348806   0.69044144   521935 
 2310000    1.0213215   -1.7331183   -1.7331183   -1.0451022  0.063352771   -1.7331183   0.68801613   521935 
 2311000    1.0218051   -1.7332843   -1.7332843   -1.0449424  0.072190577   -1.7332843    0.6883419   521935 
 2312000    1.0199753   -1.7324034   -1.7324034   -1.0452942   0.07583731   -1.7324034   0.68710926   521935 
 2313000    1.0237046   -1.7345438   -1.7345438   -1.0449223  0.075251551   -1.7345438   0.68962151   521935 
 2314000    1.0210358   -1.7326852   -1.7326852   -1.0448615  0.089805099   -1.7326852   0.68782368   521935 
 2315000    1.0235095   -1.7343482   -1.7343482   -1.0448581  0.072102397   -1.7343482    0.6894901   521935 
 2316000    1.0241021    -1.734675    -1.734675   -1.0447857   0.07648018    -1.734675   0.68988929   521935 
 2317000    1.0248755   -1.7349253   -1.7349253    -1.044515  0.076706201   -1.7349253   0.69041027   521935 
 2318000    1.0246389   -1.7348156   -1.7348156   -1.0445647  0.063836792   -1.7348156    0.6902509   521935 
 2319000    1.0249967   -1.7347127   -1.7347127   -1.0442208  0.079363531   -1.7347127   0.69049195   521935 
 2320000    1.0246092   -1.7341303   -1.7341303   -1.0438994  0.074351254   -1.7341303   0.69023091   521935 
 2321000    1.0253739   -1.7358239   -1.7358239   -1.0450778  0.066730156   -1.7358239   0.69074604   521935 
 2322000    1.0236099   -1.7349384   -1.7349384   -1.0453807  0.077016903   -1.7349384   0.68955775   521935 
 2323000    1.0253798   -1.7365784   -1.7365784   -1.0458284  0.069525825   -1.7365784   0.69075004   521935 
 2324000    1.0242244   -1.7358202   -1.7358202   -1.0458485  0.081345235   -1.7358202    0.6899717   521935 
 2325000    1.0266282   -1.7370935   -1.7370935   -1.0455025  0.073603195   -1.7370935   0.69159099   521935 
 2326000    1.0245377   -1.7355415   -1.7355415   -1.0453587  0.083209556   -1.7355415   0.69018275   521935 
 2327000     1.024043   -1.7348812   -1.7348812   -1.0450318  0.078649264   -1.7348812   0.68984949   521935 
 2328000    1.0251322   -1.7359306   -1.7359306   -1.0453474  0.071722241   -1.7359306   0.69058324   521935 
 2329000    1.0247328   -1.7353982   -1.7353982    -1.045084  0.077378626   -1.7353982    0.6903142   521935 
 2330000    1.0228156   -1.7346286   -1.7346286    -1.045606  0.072663168   -1.7346286   0.68902265   521935 
 2331000    1.0234817   -1.7339214   -1.7339214     -1.04445  0.061356079   -1.7339214   0.68947136   521935 
 2332000    1.0245335   -1.7351462   -1.7351462   -1.0449663  0.061926575   -1.7351462   0.69017992   521935 
 2333000    1.0227068    -1.734241    -1.734241   -1.0452917  0.062179979    -1.734241   0.68894935   521935 
 2334000    1.0235275   -1.7359633   -1.7359633   -1.0464611  0.051098847   -1.7359633   0.68950221   521935 
 2335000    1.0202355   -1.7335316   -1.7335316   -1.0462471  0.060254727   -1.7335316   0.68728452   521935 
 2336000    1.0218568   -1.7351023   -1.7351023   -1.0467256   0.07941093   -1.7351023   0.68837677   521935 
 2337000    1.0221687   -1.7354309   -1.7354309    -1.046844  0.063095594   -1.7354309   0.68858687   521935 
 2338000    1.0232306   -1.7357663   -1.7357663   -1.0464641  0.072189503   -1.7357663    0.6893022   521935 
 2339000    1.0239861   -1.7360287   -1.7360287   -1.0462175  0.054298122   -1.7360287   0.68981118   521935 
 2340000    1.0232776   -1.7362062   -1.7362062   -1.0468724  0.076601825   -1.7362062   0.68933384   521935 
 2341000    1.0232712   -1.7362872   -1.7362872   -1.0469577  0.064431127   -1.7362872   0.68932957   521935 
 2342000    1.0242442   -1.7370777   -1.7370777   -1.0470927  0.072001758   -1.7370777   0.68998501   521935 
 2343000    1.0256243   -1.7371771   -1.7371771   -1.0462623   0.07527477   -1.7371771   0.69091473   521935 
 2344000    1.0276942   -1.7381164   -1.7381164   -1.0458073  0.070258699   -1.7381164   0.69230911   521935 
 2345000     1.026002   -1.7374908   -1.7374908   -1.0463216  0.081339061   -1.7374908   0.69116914   521935 
 2346000    1.0239344   -1.7358825   -1.7358825   -1.0461061  0.062838335   -1.7358825   0.68977632   521935 
 2347000    1.0238898   -1.7367733   -1.7367733    -1.047027  0.073614715   -1.7367733    0.6897463   521935 
 2348000    1.0251071   -1.7371925   -1.7371925   -1.0466263  0.064481906   -1.7371925   0.69056629   521935 
 2349000    1.0220413   -1.7346931   -1.7346931   -1.0461921  0.088259018   -1.7346931   0.68850101   521935 
 2350000    1.0242571   -1.7358719   -1.7358719   -1.0458782  0.073662687   -1.7358719   0.68999373   521935 
 2351000    1.0230568   -1.7347448   -1.7347448   -1.0455596  0.072737027   -1.7347448   0.68918516   521935 
 2352000     1.025185   -1.7362815   -1.7362815   -1.0456627  0.072290287   -1.7362815   0.69061877   521935 
 2353000    1.0209373    -1.732876    -1.732876   -1.0451187  0.080198062    -1.732876   0.68775734   521935 
 2354000    1.0235949   -1.7350977   -1.7350977   -1.0455501  0.076759995   -1.7350977    0.6895476   521935 
 2355000    1.0234631   -1.7356579   -1.7356579   -1.0461991  0.068159919   -1.7356579   0.68945884   521935 
 2356000    1.0240645   -1.7358646   -1.7358646   -1.0460007  0.074521169   -1.7358646   0.68986394   521935 
 2357000    1.0222095   -1.7350573   -1.7350573    -1.046443  0.062878526   -1.7350573   0.68861431   521935 
 2358000    1.0219511   -1.7349994   -1.7349994   -1.0465591  0.073300192   -1.7349994   0.68844024   521935 
 2359000    1.0236721   -1.7363288   -1.7363288   -1.0467292  0.076917274   -1.7363288    0.6895996   521935 
 2360000    1.0233501   -1.7365671   -1.7365671   -1.0471844  0.081942956   -1.7365671    0.6893827   521935 
 2361000    1.0235919   -1.7364171   -1.7364171   -1.0468715  0.083951934   -1.7364171   0.68954558   521935 
 2362000    1.0233946   -1.7358156   -1.7358156   -1.0464029  0.084881185   -1.7358156   0.68941267   521935 
 2363000    1.0222687   -1.7354832   -1.7354832    -1.046829  0.074485527   -1.7354832   0.68865425   521935 
 2364000    1.0214214   -1.7344436   -1.7344436   -1.0463601  0.066633231   -1.7344436   0.68808343   521935 
 2365000    1.0234102   -1.7366194   -1.7366194   -1.0471963  0.059464781   -1.7366194   0.68942317   521935 
 2366000    1.0231086   -1.7364125   -1.7364125   -1.0471925  0.074011036   -1.7364125   0.68922002   521935 
 2367000    1.0228744   -1.7359221   -1.7359221   -1.0468599  0.078357465   -1.7359221   0.68906225   521935 
 2368000    1.0222049   -1.7355222   -1.7355222   -1.0469109  0.077515121   -1.7355222   0.68861126   521935 
 2369000    1.0239685   -1.7370352   -1.7370352   -1.0472359  0.073460208   -1.7370352   0.68979928   521935 
 2370000    1.0237739   -1.7367936   -1.7367936   -1.0471254  0.071186681   -1.7367936   0.68966822   521935 
 2371000    1.0231512   -1.7361867   -1.7361867    -1.046938  0.071042875   -1.7361867   0.68924873   521935 
 2372000    1.0252117   -1.7373321   -1.7373321   -1.0466954  0.071890264   -1.7373321   0.69063676   521935 
 2373000    1.0274888   -1.7382697   -1.7382697   -1.0460989  0.074572359   -1.7382697   0.69217077   521935 
 2374000    1.0291233   -1.7387313   -1.7387313   -1.0454595  0.075281481   -1.7387313   0.69327186   521935 
 2375000    1.0241616   -1.7362281   -1.7362281   -1.0462987  0.083366119   -1.7362281   0.68992936   521935 
 2376000    1.0237306   -1.7368279   -1.7368279   -1.0471889  0.071703571   -1.7368279   0.68963901   521935 
 2377000    1.0248927    -1.737001    -1.737001   -1.0465792  0.083321435    -1.737001   0.69042187   521935 
 2378000    1.0246939   -1.7379663   -1.7379663   -1.0476783  0.066251257   -1.7379663   0.69028799   521935 
 2379000    1.0265241   -1.7388945   -1.7388945   -1.0473736  0.073769238   -1.7388945   0.69152086   521935 
 2380000    1.0252567   -1.7376212   -1.7376212   -1.0469541  0.059946055   -1.7376212   0.69066707   521935 
 2381000     1.023628   -1.7369799   -1.7369799     -1.04741  0.083800474   -1.7369799   0.68956989   521935 
 2382000    1.0261245   -1.7386799   -1.7386799   -1.0474283  0.078470438   -1.7386799   0.69125168   521935 
 2383000     1.024501   -1.7371505   -1.7371505   -1.0469925  0.066924016   -1.7371505   0.69015799   521935 
 2384000    1.0234503   -1.7370156   -1.7370156   -1.0475654  0.073700814   -1.7370156   0.68945019   521935 
 2385000    1.0222726   -1.7361442   -1.7361442   -1.0474873  0.071322628   -1.7361442   0.68865688   521935 
 2386000    1.0240957   -1.7371669   -1.7371669   -1.0472819  0.065240186   -1.7371669     0.689885   521935 
 2387000    1.0222801   -1.7361607   -1.7361607   -1.0474988  0.068369599   -1.7361607   0.68866188   521935 
 2388000     1.023703   -1.7375673   -1.7375673   -1.0479469  0.060474873   -1.7375673   0.68962043   521935 
 2389000     1.021857   -1.7365716   -1.7365716   -1.0481947  0.079274087   -1.7365716   0.68837686   521935 
 2390000    1.0237141    -1.737267    -1.737267   -1.0476391  0.073995823    -1.737267    0.6896279   521935 
 2391000    1.0227052   -1.7368398   -1.7368398   -1.0478915  0.079850952   -1.7368398   0.68894829   521935 
 2392000    1.0244464    -1.737949    -1.737949   -1.0478278  0.078566315    -1.737949   0.69012127   521935 
 2393000    1.0244108   -1.7378538   -1.7378538   -1.0477566  0.072450525   -1.7378538   0.69009725   521935 
 2394000     1.023631   -1.7373349   -1.7373349    -1.047763  0.083464157   -1.7373349   0.68957192   521935 
 2395000    1.0265508   -1.7386479   -1.7386479   -1.0471091  0.070426839   -1.7386479   0.69153885   521935 
 2396000    1.0250045   -1.7378059   -1.7378059   -1.0473087  0.071012671   -1.7378059   0.69049717   521935 
 2397000    1.0245518   -1.7382311   -1.7382311   -1.0480388  0.069884388   -1.7382311   0.69019221   521935 
 2398000    1.0234552   -1.7367699   -1.7367699   -1.0473164  0.062914671   -1.7367699   0.68945354   521935 
 2399000    1.0237184   -1.7372217   -1.7372217   -1.0475909  0.062735871   -1.7372217    0.6896308   521935 
 2400000    1.0254781   -1.7372343   -1.7372343    -1.046418  0.066264436   -1.7372343   0.69081627   521935 
 2401000    1.0237108   -1.7364357   -1.7364357     -1.04681   0.07013399   -1.7364357   0.68962572   521935 
 2402000    1.0222306   -1.7365612   -1.7365612   -1.0479326  0.069345298   -1.7365612   0.68862856   521935 
 2403000    1.0245394   -1.7365069   -1.7365069   -1.0463231   0.06827757   -1.7365069   0.69018386   521935 
 2404000    1.0249767   -1.7371054   -1.7371054   -1.0466269  0.075368196   -1.7371054    0.6904785   521935 
 2405000    1.0246992   -1.7375471   -1.7375471   -1.0472555  0.062868686   -1.7375471   0.69029154   521935 
 2406000    1.0230515   -1.7357232   -1.7357232   -1.0465416  0.063812432   -1.7357232   0.68918153   521935 
 2407000    1.0233974   -1.7370526   -1.7370526    -1.047638  0.069865296   -1.7370526   0.68941455   521935 
 2408000    1.0239014   -1.7373358   -1.7373358   -1.0475817  0.073352618   -1.7373358    0.6897541   521935 
 2409000    1.0217241    -1.735804    -1.735804   -1.0475167  0.072266793    -1.735804   0.68828733   521935 
 2410000     1.024853   -1.7384311   -1.7384311   -1.0480359  0.076903377   -1.7384311   0.69039512   521935 
 2411000    1.0232679    -1.737528    -1.737528   -1.0482007  0.079732343    -1.737528   0.68932734   521935 
 2412000      1.02581   -1.7392643   -1.7392643   -1.0482244  0.071411097   -1.7392643   0.69103983   521935 
 2413000    1.0220868   -1.7362712   -1.7362712   -1.0477395  0.089337331   -1.7362712   0.68853166   521935 
 2414000    1.0232052   -1.7375267   -1.7375267   -1.0482417  0.067441265   -1.7375267   0.68928508   521935 
 2415000    1.0228913    -1.737633    -1.737633   -1.0485594  0.074644425    -1.737633   0.68907366   521935 
 2416000    1.0235873   -1.7384105   -1.7384105   -1.0488679   0.06296943   -1.7384105   0.68954253   521935 
 2417000    1.0255476   -1.7392006   -1.7392006   -1.0483375  0.077160349   -1.7392006   0.69086308   521935 
 2418000    1.0267291   -1.7400638   -1.7400638   -1.0484048  0.059021052   -1.7400638   0.69165895   521935 
 2419000    1.0264055   -1.7390432   -1.7390432   -1.0476023  0.080745658   -1.7390432   0.69144096   521935 
 2420000    1.0236581   -1.7380692   -1.7380692    -1.048479  0.070499129   -1.7380692    0.6895902   521935 
 2421000    1.0209959   -1.7364482   -1.7364482   -1.0486514  0.073022227   -1.7364482   0.68779683   521935 
 2422000    1.0221395   -1.7380359   -1.7380359   -1.0494687  0.077062032   -1.7380359    0.6885672   521935 
 2423000    1.0199643   -1.7367688   -1.7367688   -1.0496669  0.067488406   -1.7367688   0.68710186   521935 
 2424000    1.0237871   -1.7393876   -1.7393876   -1.0497105  0.061961915   -1.7393876   0.68967712   521935 
 2425000    1.0224566   -1.7385177   -1.7385177   -1.0497369  0.064258011   -1.7385177    0.6887808   521935 
 2426000    1.0217359   -1.7381921   -1.7381921   -1.0498968  0.077450835   -1.7381921    0.6882953   521935 
 2427000    1.0224161   -1.7372719   -1.7372719   -1.0485184  0.069872888   -1.7372719   0.68875351   521935 
 2428000    1.0238883   -1.7384487   -1.7384487   -1.0487035  0.066878599   -1.7384487   0.68974524   521935 
 2429000    1.0226384    -1.737383    -1.737383   -1.0484797  0.067394496    -1.737383   0.68890326   521935 
 2430000    1.0238119   -1.7385893   -1.7385893   -1.0488955  0.070913479   -1.7385893    0.6896938   521935 
 2431000    1.0236469   -1.7377846   -1.7377846   -1.0482019  0.074065541   -1.7377846   0.68958267   521935 
 2432000    1.0227279   -1.7372225   -1.7372225   -1.0482589  0.076394415   -1.7372225   0.68896356   521935 
 2433000    1.0257651    -1.738199    -1.738199   -1.0471895  0.060235319    -1.738199   0.69100955   521935 
 2434000    1.0258854   -1.7385014   -1.7385014   -1.0474108  0.066956198   -1.7385014   0.69109061   521935 
 2435000    1.0248733   -1.7386196   -1.7386196   -1.0482108  0.076907463   -1.7386196    0.6904088   521935 
 2436000    1.0240677   -1.7386602   -1.7386602   -1.0487941  0.069728089   -1.7386602   0.68986612   521935 
 2437000    1.0232713   -1.7382735   -1.7382735   -1.0489439  0.058310909   -1.7382735   0.68932966   521935 
 2438000    1.0231753   -1.7386686   -1.7386686   -1.0494037  0.069119515   -1.7386686   0.68926496   521935 
 2439000    1.0218137   -1.7377267   -1.7377267    -1.049379  0.080261045   -1.7377267   0.68834774   521935 
 2440000    1.0256871   -1.7397607   -1.7397607   -1.0488037  0.076237781   -1.7397607   0.69095702   521935 
 2441000    1.0208292   -1.7374017   -1.7374017   -1.0497172  0.067957923   -1.7374017   0.68768449   521935 
 2442000     1.020362   -1.7372532   -1.7372532   -1.0498834  0.061800742   -1.7372532   0.68736979   521935 
 2443000    1.0224923   -1.7383627   -1.7383627   -1.0495579  0.062679251   -1.7383627   0.68880484   521935 
 2444000    1.0223417   -1.7380932   -1.7380932   -1.0493898  0.068917995   -1.7380932   0.68870337   521935 
 2445000    1.0242454     -1.73946     -1.73946   -1.0494741  0.072692855     -1.73946   0.68998582   521935 
 2446000    1.0230503   -1.7389988   -1.7389988    -1.049818  0.081824568   -1.7389988   0.68918075   521935 
 2447000    1.0234416   -1.7393844   -1.7393844   -1.0499401  0.068067457   -1.7393844   0.68944433   521935 
 2448000    1.0245575   -1.7395254   -1.7395254   -1.0493294  0.062434422   -1.7395254   0.69019609   521935 
 2449000    1.0242969   -1.7399718   -1.7399718   -1.0499512  0.066203908   -1.7399718   0.69002053   521935 
 2450000    1.0251982   -1.7399773   -1.7399773   -1.0493497  0.071132531   -1.7399773   0.69062766   521935 
 2451000    1.0236541   -1.7392631   -1.7392631   -1.0496756  0.075257982   -1.7392631   0.68958751   521935 
 2452000    1.0219006   -1.7381212   -1.7381212    -1.049715  0.079372109   -1.7381212   0.68840628   521935 
 2453000    1.0230169   -1.7385912   -1.7385912    -1.049433  0.083930238   -1.7385912   0.68915823   521935 
 2454000    1.0224199   -1.7377571   -1.7377571    -1.049001  0.062959351   -1.7377571    0.6887561   521935 
 2455000    1.0231255   -1.7389868   -1.7389868   -1.0497555  0.059925657   -1.7389868   0.68923139   521935 
 2456000    1.0232458   -1.7390867   -1.7390867   -1.0497743  0.074388015   -1.7390867   0.68931242   521935 
 2457000    1.0226073   -1.7379198   -1.7379198   -1.0490375  0.068697787   -1.7379198   0.68888234   521935 
 2458000    1.0233213   -1.7377744   -1.7377744   -1.0484111  0.084807116   -1.7377744   0.68936329   521935 
 2459000    1.0240416    -1.739392    -1.739392   -1.0495435  0.065292364    -1.739392   0.68984856   521935 
 2460000    1.0228684   -1.7392317   -1.7392317   -1.0501735  0.067516023   -1.7392317   0.68905819   521935 
 2461000    1.0230577   -1.7384858   -1.7384858      -1.0493  0.071227473   -1.7384858   0.68918576   521935 
 2462000     1.024118   -1.7388224   -1.7388224   -1.0489224  0.077630999   -1.7388224   0.68990003   521935 
 2463000    1.0252148   -1.7388826   -1.7388826   -1.0482437  0.062977464   -1.7388826    0.6906389   521935 
 2464000    1.0252724    -1.738879    -1.738879   -1.0482014  0.065014267    -1.738879   0.69067767   521935 
 2465000    1.0262133   -1.7401483   -1.7401483   -1.0488368  0.067751484   -1.7401483   0.69131152   521935 
 2466000    1.0254996   -1.7396015   -1.7396015   -1.0487708  0.073322111   -1.7396015   0.69083076   521935 
 2467000    1.0254882   -1.7394103   -1.7394103   -1.0485872  0.071426402   -1.7394103   0.69082303   521935 
 2468000    1.0262665   -1.7393054   -1.7393054    -1.047958  0.070604016   -1.7393054   0.69134737   521935 
 2469000      1.02425    -1.738345    -1.738345   -1.0483561  0.073959075    -1.738345    0.6899889   521935 
 2470000    1.0258624   -1.7394141   -1.7394141   -1.0483389  0.070210656   -1.7394141   0.69107514   521935 
 2471000    1.0265346   -1.7393335   -1.7393335   -1.0478055  0.058484198   -1.7393335   0.69152798   521935 
 2472000    1.0231795   -1.7380007   -1.7380007   -1.0487329  0.067256761   -1.7380007   0.68926778   521935 
 2473000    1.0258659   -1.7393799   -1.7393799   -1.0483024  0.065976438   -1.7393799   0.69107746   521935 
 2474000    1.0254399   -1.7389494   -1.7389494   -1.0481589  0.086700091   -1.7389494   0.69079051   521935 
 2475000    1.0217744   -1.7374743   -1.7374743    -1.049153  0.077628111   -1.7374743   0.68832127   521935 
 2476000    1.0241952   -1.7385308   -1.7385308   -1.0485788  0.078166991   -1.7385308     0.689952   521935 
 2477000     1.023839   -1.7386023   -1.7386023   -1.0488902  0.075030433   -1.7386023   0.68971209   521935 
 2478000    1.0230973   -1.7381974   -1.7381974   -1.0489851  0.057609891   -1.7381974   0.68921239   521935 
 2479000    1.0222232   -1.7373549   -1.7373549   -1.0487314  0.068965932   -1.7373549   0.68862355   521935 
 2480000     1.024212   -1.7386878   -1.7386878   -1.0487244  0.068634699   -1.7386878   0.68996333   521935 
 2481000    1.0233501   -1.7387026   -1.7387026   -1.0493199   0.07376437   -1.7387026    0.6893827   521935 
 2482000    1.0253861   -1.7392842   -1.7392842   -1.0485299  0.066782547   -1.7392842    0.6907543   521935 
 2483000    1.0245945    -1.738611    -1.738611     -1.04839   0.07632083    -1.738611     0.690221   521935 
 2484000    1.0266169   -1.7402868   -1.7402868   -1.0487034  0.077883567   -1.7402868   0.69158339   521935 
 2485000    1.0218282   -1.7377999   -1.7377999   -1.0494424  0.082372037   -1.7377999   0.68835751   521935 
 2486000    1.0235124   -1.7392748   -1.7392748   -1.0497827  0.078098542   -1.7392748   0.68949202   521935 
 2487000    1.0219985    -1.738602    -1.738602   -1.0501298  0.077448313    -1.738602   0.68847221   521935 
 2488000    1.0222453   -1.7381718   -1.7381718   -1.0495333  0.073636876   -1.7381718   0.68863846   521935 
 2489000    1.0246464   -1.7399327   -1.7399327   -1.0496767  0.077627327   -1.7399327   0.69025595   521935 
 2490000    1.0264898   -1.7410709   -1.7410709   -1.0495731  0.071962638   -1.7410709   0.69149777   521935 
 2491000    1.0243474   -1.7396135   -1.7396135    -1.049559  0.068941045   -1.7396135   0.69005451   521935 
 2492000    1.0258764   -1.7397049   -1.7397049   -1.0486204  0.081728155   -1.7397049   0.69108454   521935 
 2493000    1.0253506    -1.739628    -1.739628   -1.0488976  0.084753355    -1.739628   0.69073036   521935 
 2494000    1.0235631    -1.737436    -1.737436   -1.0479098  0.084686354    -1.737436   0.68952617   521935 
 2495000    1.0227907   -1.7372222   -1.7372222   -1.0482163  0.068202615   -1.7372222   0.68900586   521935 
 2496000    1.0238758    -1.737498    -1.737498   -1.0477612  0.064581122    -1.737498   0.68973682   521935 
 2497000    1.0233885   -1.7377957   -1.7377957   -1.0483872  0.060356291   -1.7377957   0.68940856   521935 
 2498000    1.0231687   -1.7366668   -1.7366668   -1.0474063  0.072839883   -1.7366668   0.68926048   521935 
 2499000    1.0242523    -1.737971    -1.737971   -1.0479805  0.084521687    -1.737971    0.6899905   521935 
 2500000    1.0234552   -1.7375018   -1.7375018   -1.0480483   0.06859265   -1.7375018   0.68945354   521935 
 2501000    1.0258594   -1.7390474   -1.7390474   -1.0479743  0.067032425   -1.7390474   0.69107311   521935 
 2502000    1.0218736   -1.7359391   -1.7359391    -1.047551  0.071217151   -1.7359391   0.68838805   521935 
 2503000    1.0259729   -1.7380389   -1.7380389   -1.0468894  0.075976488   -1.7380389   0.69114956   521935 
 2504000    1.0264825   -1.7392186   -1.7392186   -1.0477257  0.076058525   -1.7392186   0.69149283   521935 
 2505000    1.0250104   -1.7377835   -1.7377835   -1.0472824  0.071189526   -1.7377835   0.69050115   521935 
 2506000    1.0236982     -1.73675     -1.73675   -1.0471328  0.071136831     -1.73675   0.68961718   521935 
 2507000    1.0263408   -1.7390103   -1.7390103   -1.0476129  0.069373116   -1.7390103   0.69139741   521935 
 2508000    1.0262011    -1.738834    -1.738834   -1.0475307  0.070165735    -1.738834    0.6913033   521935 
 2509000    1.0258213   -1.7394963   -1.7394963   -1.0484489  0.056429406   -1.7394963   0.69104747   521935 
 2510000    1.0250558   -1.7389307   -1.7389307   -1.0483989  0.072927138   -1.7389307   0.69053179   521935 
 2511000    1.0240334   -1.7376736   -1.7376736   -1.0478306   0.08449468   -1.7376736   0.68984303   521935 
 2512000    1.0247958   -1.7383271   -1.7383271   -1.0479704  0.072906549   -1.7383271   0.69035664   521935 
 2513000    1.0270949    -1.740132    -1.740132   -1.0482266   0.07856066    -1.740132   0.69190543   521935 
 2514000    1.0263271   -1.7389317   -1.7389317   -1.0475435  0.059574409   -1.7389317   0.69138818   521935 
 2515000    1.0262257   -1.7394645   -1.7394645   -1.0481446  0.081338348   -1.7394645   0.69131988   521935 
 2516000    1.0251339   -1.7392844   -1.7392844      -1.0487  0.071665934   -1.7392844    0.6905844   521935 
 2517000    1.0244118   -1.7386039   -1.7386039   -1.0485059  0.073599004   -1.7386039   0.69009794   521935 
 2518000    1.0234663   -1.7379831   -1.7379831   -1.0485221  0.063775662   -1.7379831   0.68946097   521935 
 2519000    1.0244812   -1.7384225   -1.7384225   -1.0482778   0.04678197   -1.7384225   0.69014465   521935 
 2520000    1.0240175   -1.7375677   -1.7375677   -1.0477354  0.069046757   -1.7375677   0.68983228   521935 
 2521000     1.024261   -1.7384584   -1.7384584    -1.048462  0.064843108   -1.7384584   0.68999634   521935 
 2522000    1.0238539   -1.7388157   -1.7388157   -1.0490936  0.062789119   -1.7388157    0.6897221   521935 
 2523000    1.0226643   -1.7386178   -1.7386178    -1.049697  0.060309281   -1.7386178   0.68892075   521935 
 2524000    1.0261262   -1.7404017   -1.7404017   -1.0491489  0.072002464   -1.7404017   0.69125283   521935 
 2525000    1.0245423   -1.7397841   -1.7397841   -1.0495983  0.067808001   -1.7397841   0.69018583   521935 
 2526000    1.0239827   -1.7392619   -1.7392619   -1.0494531  0.067840132   -1.7392619   0.68980889   521935 
 2527000    1.0244217   -1.7393922   -1.7393922   -1.0492876  0.083290246   -1.7393922   0.69010457   521935 
 2528000    1.0243744    -1.739475    -1.739475   -1.0494022  0.073221327    -1.739475   0.69007274   521935 
 2529000    1.0235883   -1.7391031   -1.7391031   -1.0495599  0.079569103   -1.7391031   0.68954314   521935 
 2530000    1.0272458    -1.740696    -1.740696   -1.0486889  0.077580759    -1.740696   0.69200708   521935 
 2531000    1.0250164   -1.7390417   -1.7390417   -1.0485365  0.079671519   -1.7390417   0.69050521   521935 
 2532000    1.0263225   -1.7405055   -1.7405055   -1.0491205  0.064455679   -1.7405055   0.69138504   521935 
 2533000    1.0235983   -1.7382049   -1.7382049    -1.048655  0.066921446   -1.7382049   0.68954989   521935 
 2534000    1.0222671   -1.7366093   -1.7366093   -1.0479561  0.064275129   -1.7366093   0.68865314   521935 
 2535000    1.0252068   -1.7397234   -1.7397234   -1.0490899  0.056074661   -1.7397234   0.69063346   521935 
 2536000    1.0218168   -1.7366848   -1.7366848    -1.048335  0.069147394   -1.7366848   0.68834983   521935 
 2537000    1.0217582   -1.7367503   -1.7367503     -1.04844  0.066325725   -1.7367503    0.6883103   521935 
 2538000    1.0230157   -1.7379118   -1.7379118   -1.0487544  0.063135584   -1.7379118   0.68915746   521935 
 2539000    1.0225934   -1.7383686   -1.7383686   -1.0494956  0.076623387   -1.7383686   0.68887297   521935 
 2540000    1.0236029    -1.739028    -1.739028    -1.049475  0.055567638    -1.739028   0.68955302   521935 
 2541000    1.0218618   -1.7382903   -1.7382903   -1.0499101  0.077102784   -1.7382903   0.68838011   521935 
 2542000     1.023562   -1.7393824   -1.7393824    -1.049857  0.078954786   -1.7393824   0.68952544   521935 
 2543000    1.0233934   -1.7391524   -1.7391524   -1.0497405  0.071785869   -1.7391524   0.68941187   521935 
 2544000    1.0239354   -1.7396972   -1.7396972   -1.0499202  0.088426072   -1.7396972   0.68977702   521935 
 2545000    1.0252424   -1.7406929   -1.7406929   -1.0500355  0.070203966   -1.7406929   0.69065745   521935 
 2546000    1.0242738   -1.7403306   -1.7403306   -1.0503257  0.077950645   -1.7403306   0.69000495   521935 
 2547000    1.0225055   -1.7401646   -1.7401646   -1.0513509  0.073509325   -1.7401646   0.68881374   521935 
 2548000    1.0241728   -1.7412626   -1.7412626   -1.0513257   0.06739555   -1.7412626   0.68993691   521935 
 2549000    1.0250422   -1.7421024   -1.7421024   -1.0515798  0.077993705   -1.7421024   0.69052259   521935 
 2550000    1.0240793   -1.7418691   -1.7418691   -1.0519952  0.073274489   -1.7418691   0.68987391   521935 
 2551000    1.0256442   -1.7431007   -1.7431007   -1.0521726  0.081571421   -1.7431007   0.69092812   521935 
 2552000    1.0230437   -1.7417159   -1.7417159   -1.0525396  0.077021798   -1.7417159   0.68917633   521935 
 2553000    1.0231554   -1.7414253   -1.7414253   -1.0521737  0.062040708   -1.7414253   0.68925154   521935 
 2554000      1.02346   -1.7424837   -1.7424837   -1.0530269  0.072455149   -1.7424837   0.68945675   521935 
 2555000    1.0240849   -1.7420766   -1.7420766   -1.0521989   0.07120281   -1.7420766    0.6898777   521935 
 2556000    1.0227257   -1.7412951   -1.7412951   -1.0523329  0.072594219   -1.7412951   0.68896211   521935 
 2557000    1.0196793   -1.7400492   -1.7400492   -1.0531393  0.068504288   -1.7400492   0.68690989   521935 
 2558000     1.019991   -1.7395858   -1.7395858    -1.052466  0.078999535   -1.7395858   0.68711983   521935 
 2559000    1.0228232    -1.741419    -1.741419   -1.0523913  0.063623823    -1.741419   0.68902775   521935 
 2560000    1.0207301    -1.740447    -1.740447   -1.0528293   0.07958771    -1.740447   0.68761771   521935 
 2561000    1.0219772   -1.7409639   -1.7409639    -1.052506  0.079356939   -1.7409639   0.68845783   521935 
 2562000    1.0233976   -1.7414301   -1.7414301   -1.0520154  0.073707371   -1.7414301    0.6894147   521935 
 2563000    1.0230282    -1.741822    -1.741822   -1.0526561  0.073937852    -1.741822   0.68916589   521935 
 2564000    1.0212052   -1.7405063   -1.7405063   -1.0525685  0.074108874   -1.7405063   0.68793782   521935 
 2565000    1.0229253   -1.7409408   -1.7409408   -1.0518443  0.088326818   -1.7409408   0.68909652   521935 
 2566000    1.0247317   -1.7425876   -1.7425876   -1.0522741  0.078980473   -1.7425876   0.69031344   521935 
 2567000    1.0224313   -1.7414186   -1.7414186   -1.0526548  0.076097837   -1.7414186   0.68876377   521935 
 2568000    1.0226975   -1.7421727   -1.7421727   -1.0532296  0.077409087   -1.7421727   0.68894307   521935 
 2569000    1.0240987   -1.7421993   -1.7421993   -1.0523123  0.076715109   -1.7421993     0.689887   521935 
 2570000    1.0229403   -1.7413919   -1.7413919   -1.0522853   0.06134414   -1.7413919   0.68910666   521935 
 2571000    1.0231913   -1.7416814   -1.7416814   -1.0524056  0.071748252   -1.7416814   0.68927576   521935 
 2572000     1.024969   -1.7437144   -1.7437144   -1.0532411  0.058216749   -1.7437144    0.6904733   521935 
 2573000    1.0198947   -1.7398309   -1.7398309    -1.052776  0.079705902   -1.7398309   0.68705494   521935 
 2574000    1.0230937   -1.7423747   -1.7423747   -1.0531647  0.070913751   -1.7423747   0.68920999   521935 
 2575000    1.0208956   -1.7405626   -1.7405626   -1.0528334  0.055752817   -1.7405626   0.68772925   521935 
 2576000    1.0195719   -1.7393168   -1.7393168   -1.0524793  0.057464474   -1.7393168   0.68683749   521935 
 2577000    1.0241129   -1.7416844   -1.7416844   -1.0517879  0.072875049   -1.7416844   0.68989659   521935 
 2578000    1.0218268   -1.7410218   -1.7410218   -1.0526653  0.075982506   -1.7410218   0.68835651   521935 
 2579000     1.022312   -1.7416676   -1.7416676   -1.0529842  0.077761455   -1.7416676   0.68868341   521935 
 2580000    1.0215342   -1.7413969   -1.7413969   -1.0532375  0.062279629   -1.7413969   0.68815941   521935 
 2581000    1.0236163   -1.7417909   -1.7417909   -1.0522288  0.070626926   -1.7417909   0.68956207   521935 
 2582000    1.0226381   -1.7413737   -1.7413737   -1.0524706  0.071892357   -1.7413737   0.68890304   521935 
 2583000     1.023687   -1.7422127   -1.7422127    -1.052603  0.078293209   -1.7422127   0.68960969   521935 
 2584000    1.0206351   -1.7410802   -1.7410802   -1.0535264  0.071856889   -1.7410802   0.68755376   521935 
 2585000    1.0225416      -1.7422      -1.7422    -1.053362   0.07647144      -1.7422   0.68883805   521935 
 2586000    1.0219266   -1.7418059   -1.7418059   -1.0533821   0.06638234   -1.7418059    0.6884238   521935 
 2587000    1.0218258   -1.7416116   -1.7416116   -1.0532557  0.070930417   -1.7416116   0.68835589   521935 
 2588000    1.0253371   -1.7433187   -1.7433187   -1.0525975  0.071985257   -1.7433187   0.69072123   521935 
 2589000    1.0215348   -1.7408915   -1.7408915   -1.0527316  0.068767472   -1.7408915   0.68815982   521935 
 2590000    1.0214391   -1.7411985   -1.7411985   -1.0531031  0.065609282   -1.7411985   0.68809534   521935 
 2591000    1.0243911   -1.7431036   -1.7431036   -1.0530196  0.071211255   -1.7431036   0.69008398   521935 
 2592000    1.0204326   -1.7404907   -1.7404907   -1.0530733   0.06664526   -1.7404907   0.68741734   521935 
 2593000    1.0209587    -1.740674    -1.740674   -1.0529022  0.073317614    -1.740674   0.68777175   521935 
 2594000    1.0229915   -1.7416618   -1.7416618   -1.0525207  0.078810384   -1.7416618   0.68914111   521935 
 2595000    1.0236697    -1.742003    -1.742003    -1.052405  0.066701925    -1.742003     0.689598   521935 
 2596000    1.0218752   -1.7407158   -1.7407158   -1.0523267  0.066752982   -1.7407158   0.68838912   521935 
 2597000    1.0235721   -1.7424622   -1.7424622     -1.05293  0.062785669   -1.7424622   0.68953226   521935 
 2598000    1.0228565   -1.7421163   -1.7421163   -1.0530661  0.075038155   -1.7421163   0.68905021   521935 
 2599000    1.0220547   -1.7413874   -1.7413874   -1.0528773  0.084264133   -1.7413874   0.68851009   521935 
 2600000    1.0210651   -1.7415701   -1.7415701   -1.0537268  0.099485061   -1.7415701   0.68784338   521935 
 2601000    1.0225797   -1.7423822   -1.7423822   -1.0535185  0.085655294   -1.7423822    0.6888637   521935 
 2602000    1.0223363   -1.7423416   -1.7423416   -1.0536418    0.0711326   -1.7423416   0.68869977   521935 
 2603000    1.0204253   -1.7405889   -1.7405889   -1.0531765  0.071406983   -1.7405889    0.6874124   521935 
 2604000    1.0234704   -1.7423269   -1.7423269   -1.0528632  0.075037443   -1.7423269   0.68946373   521935 
 2605000    1.0219293   -1.7419184   -1.7419184   -1.0534928  0.068060321   -1.7419184   0.68842556   521935 
 2606000    1.0208261   -1.7407959   -1.7407959   -1.0531134  0.082942084   -1.7407959   0.68768244   521935 
 2607000    1.0217879     -1.74169     -1.74169   -1.0533597  0.070151015     -1.74169   0.68833033   521935 
 2608000    1.0212468   -1.7417342   -1.7417342   -1.0537684  0.076197718   -1.7417342   0.68796581   521935 
 2609000    1.0242317   -1.7432536   -1.7432536    -1.053277  0.065576605   -1.7432536    0.6899766   521935 
 2610000    1.0225749   -1.7422591   -1.7422591   -1.0533986  0.099420349   -1.7422591    0.6888605   521935 
 2611000     1.024333   -1.7438882   -1.7438882   -1.0538433  0.069548222   -1.7438882   0.69004487   521935 
 2612000    1.0216207   -1.7419962   -1.7419962   -1.0537785  0.080503534   -1.7419962   0.68821768   521935 
 2613000    1.0230911   -1.7433656   -1.7433656   -1.0541573  0.063456911   -1.7433656   0.68920822   521935 
 2614000    1.0206294   -1.7414011   -1.7414011   -1.0538512  0.077729378   -1.7414011   0.68754988   521935 
 2615000    1.0190254   -1.7400602   -1.7400602   -1.0535908  0.069188526   -1.7400602   0.68646938   521935 
 2616000    1.0185898   -1.7393025   -1.7393025   -1.0531266  0.075326127   -1.7393025   0.68617591   521935 
 2617000    1.0229599   -1.7430076   -1.7430076   -1.0538877  0.063750669   -1.7430076   0.68911988   521935 
 2618000    1.0211302   -1.7411534   -1.7411534   -1.0532661  0.068534774   -1.7411534   0.68788728   521935 
 2619000    1.0210429    -1.740976    -1.740976   -1.0531475   0.07577098    -1.740976   0.68782847   521935 
 2620000    1.0205557   -1.7412929   -1.7412929   -1.0537927  0.068903339   -1.7412929   0.68750025   521935 
 2621000    1.0219576   -1.7419075   -1.7419075   -1.0534629  0.073543089   -1.7419075   0.68844462   521935 
 2622000     1.020318    -1.741417    -1.741417   -1.0540769  0.074299554    -1.741417   0.68734015   521935 
 2623000    1.0213315   -1.7421218   -1.7421218   -1.0540989  0.063544689   -1.7421218   0.68802289   521935 
 2624000    1.0208586   -1.7423315   -1.7423315   -1.0546272  0.069696362   -1.7423315   0.68770428   521935 
 2625000     1.022046   -1.7430308   -1.7430308   -1.0545266  0.076754096   -1.7430308   0.68850421   521935 
 2626000    1.0230318    -1.744455    -1.744455   -1.0552867   0.07990092    -1.744455   0.68916829   521935 
 2627000    1.0211889   -1.7433741   -1.7433741   -1.0554473  0.071650861   -1.7433741   0.68792679   521935 
 2628000    1.0227886   -1.7446322   -1.7446322   -1.0556277  0.078753396   -1.7446322   0.68900449   521935 
 2629000    1.0222212   -1.7433089   -1.7433089   -1.0546867  0.096123886   -1.7433089   0.68862224   521935 
 2630000    1.0203184   -1.7421258   -1.7421258   -1.0547854  0.080849921   -1.7421258   0.68734039   521935 
 2631000    1.0201824   -1.7423038   -1.7423038   -1.0550551  0.056637328   -1.7423038   0.68724877   521935 
 2632000     1.020675   -1.7430024   -1.7430024   -1.0554218   0.06807971   -1.7430024   0.68758059   521935 
 2633000    1.0219067   -1.7423553   -1.7423553   -1.0539449  0.076411049   -1.7423553   0.68841034   521935 
 2634000    1.0198395   -1.7416259   -1.7416259   -1.0546081  0.068627563   -1.7416259   0.68701776   521935 
 2635000     1.019723    -1.740482    -1.740482   -1.0535427  0.066273152    -1.740482   0.68693928   521935 
 2636000     1.018681   -1.7403151   -1.7403151   -1.0540778  0.066840873   -1.7403151   0.68623734   521935 
 2637000    1.0231421   -1.7422493   -1.7422493   -1.0530067  0.068000229   -1.7422493   0.68924257   521935 
 2638000    1.0218381   -1.7411595   -1.7411595   -1.0527954  0.066740784   -1.7411595   0.68836413   521935 
 2639000     1.020265   -1.7404285   -1.7404285   -1.0531241  0.079937994   -1.7404285   0.68730441   521935 
 2640000    1.0200046   -1.7396421   -1.7396421   -1.0525131  0.075966481   -1.7396421   0.68712901   521935 
 2641000    1.0211671   -1.7412715   -1.7412715   -1.0533594  0.069214455   -1.7412715   0.68791211   521935 
 2642000    1.0238725   -1.7430296   -1.7430296    -1.053295  0.068563018   -1.7430296   0.68973461   521935 
 2643000     1.024389   -1.7429924   -1.7429924   -1.0529099  0.068502074   -1.7429924   0.69008257   521935 
 2644000    1.0243601   -1.7440445   -1.7440445   -1.0539814  0.075753351   -1.7440445    0.6900631   521935 
 2645000    1.0230323   -1.7434749   -1.7434749   -1.0543063  0.066461421   -1.7434749   0.68916861   521935 
 2646000    1.0227523     -1.74325     -1.74325     -1.05427  0.073476043     -1.74325   0.68898003   521935 
 2647000    1.0227058   -1.7432461   -1.7432461   -1.0542974  0.086415835   -1.7432461    0.6889487   521935 
 2648000    1.0222107   -1.7430778   -1.7430778   -1.0544626  0.077585726   -1.7430778   0.68861517   521935 
 2649000    1.0207369   -1.7429617   -1.7429617   -1.0553393  0.079337957   -1.7429617   0.68762233   521935 
 2650000    1.0233255   -1.7427687   -1.7427687   -1.0534025  0.069403054   -1.7427687   0.68936616   521935 
 2651000    1.0213763    -1.740746    -1.740746   -1.0526929  0.082750979    -1.740746   0.68805307   521935 
 2652000    1.0228896   -1.7420104   -1.7420104   -1.0529379  0.072834474   -1.7420104   0.68907248   521935 
 2653000    1.0203021   -1.7415457   -1.7415457   -1.0542163   0.07976829   -1.7415457   0.68732939   521935 
 2654000     1.020032   -1.7410771   -1.7410771   -1.0539296  0.072179886   -1.7410771   0.68714749   521935 
 2655000    1.0221004   -1.7427208   -1.7427208   -1.0541799  0.062651239   -1.7427208   0.68854084   521935 
 2656000    1.0219323   -1.7425644   -1.7425644   -1.0541368  0.078224608   -1.7425644    0.6884276   521935 
 2657000    1.0216566   -1.7429237   -1.7429237   -1.0546818  0.077619758   -1.7429237   0.68824191   521935 
 2658000    1.0229354   -1.7433952   -1.7433952   -1.0542919  0.065459531   -1.7433952   0.68910338   521935 
 2659000    1.0204292   -1.7418086   -1.7418086   -1.0543935  0.069236122   -1.7418086   0.68741502   521935 
 2660000    1.0209885   -1.7427712   -1.7427712   -1.0549794  0.083283631   -1.7427712    0.6877918   521935 
 2661000    1.0211112   -1.7426409   -1.7426409   -1.0547664  0.083063157   -1.7426409   0.68787448   521935 
 2662000    1.0222557     -1.74244     -1.74244   -1.0537945  0.064661663     -1.74244   0.68864547   521935 
 2663000    1.0242878    -1.743851    -1.743851   -1.0538366  0.074052102    -1.743851   0.69001442   521935 
 2664000    1.0222967   -1.7425303   -1.7425303   -1.0538572   0.06430746   -1.7425303   0.68867311   521935 
 2665000    1.0207422   -1.7416522   -1.7416522   -1.0540264  0.068290061   -1.7416522   0.68762587   521935 
 2666000    1.0207578   -1.7420642   -1.7420642   -1.0544278  0.073876812   -1.7420642   0.68763641   521935 
 2667000     1.020459   -1.7419968   -1.7419968   -1.0545617  0.064002511   -1.7419968   0.68743514   521935 
 2668000    1.0216749   -1.7422667   -1.7422667   -1.0540125  0.071995721   -1.7422667   0.68825421   521935 
 2669000    1.0232178   -1.7429336   -1.7429336     -1.05364  0.067084827   -1.7429336   0.68929362   521935 
 2670000    1.0199846   -1.7419937   -1.7419937   -1.0548781  0.074953997   -1.7419937   0.68711554   521935 
 2671000    1.0196725   -1.7412346   -1.7412346   -1.0543293  0.070416556   -1.7412346   0.68690528   521935 
 2672000    1.0228023   -1.7428326   -1.7428326   -1.0538189  0.063902306   -1.7428326   0.68901365   521935 
 2673000    1.0225235   -1.7431121   -1.7431121   -1.0542863  0.080889448   -1.7431121   0.68882585   521935 
 2674000    1.0199584   -1.7420504   -1.7420504   -1.0549525  0.078090684   -1.7420504   0.68709787   521935 
 2675000    1.0248597   -1.7449747   -1.7449747    -1.054575  0.069728313   -1.7449747   0.69039969   521935 
 2676000    1.0234699   -1.7446432   -1.7446432   -1.0551798  0.074179431   -1.7446432   0.68946341   521935 
 2677000    1.0224177   -1.7439582   -1.7439582   -1.0552037  0.079759736   -1.7439582   0.68875458   521935 
 2678000    1.0218821   -1.7435593   -1.7435593   -1.0551655  0.064302732   -1.7435593   0.68839379   521935 
 2679000     1.023405   -1.7445259   -1.7445259   -1.0551062  0.076358918   -1.7445259   0.68941971   521935 
 2680000    1.0256191   -1.7450679   -1.7450679   -1.0541567  0.078264763   -1.7450679    0.6909112   521935 
 2681000    1.0239113   -1.7440178   -1.7440178    -1.054257  0.063687514   -1.7440178   0.68976078   521935 
 2682000    1.0213347   -1.7428506   -1.7428506   -1.0548256  0.069033728   -1.7428506   0.68802502   521935 
 2683000    1.0237525   -1.7438003   -1.7438003   -1.0541466  0.079653425   -1.7438003   0.68965377   521935 
 2684000    1.0211971   -1.7429273   -1.7429273    -1.054995  0.074741375   -1.7429273   0.68793236   521935 
 2685000    1.0213055   -1.7433642   -1.7433642   -1.0553588  0.070064972   -1.7433642   0.68800538   521935 
 2686000    1.0202494   -1.7430587   -1.7430587   -1.0557647  0.066983595   -1.7430587   0.68729392   521935 
 2687000    1.0195663   -1.7416417   -1.7416417    -1.054808  0.061649845   -1.7416417   0.68683374   521935 
 2688000    1.0219449   -1.7439697   -1.7439697   -1.0555336  0.059483977   -1.7439697   0.68843612   521935 
 2689000    1.0208989   -1.7428286   -1.7428286   -1.0550971  0.073376272   -1.7428286   0.68773144   521935 
 2690000    1.0189521   -1.7420897   -1.7420897   -1.0556698  0.075331038   -1.7420897   0.68641996   521935 
 2691000     1.020735   -1.7430783   -1.7430783   -1.0554573  0.063606244   -1.7430783   0.68762106   521935 
 2692000    1.0210973   -1.7429639   -1.7429639   -1.0550988  0.068934574   -1.7429639   0.68786509   521935 
 2693000    1.0225579   -1.7445478   -1.7445478   -1.0556988  0.075102406   -1.7445478   0.68884904   521935 
 2694000    1.0229435   -1.7446528   -1.7446528    -1.055544  0.064714877   -1.7446528    0.6891088   521935 
 2695000    1.0204754   -1.7432666   -1.7432666   -1.0558204  0.079389952   -1.7432666   0.68744618   521935 
 2696000    1.0226988   -1.7438451   -1.7438451   -1.0549011  0.076758878   -1.7438451   0.68894399   521935 
 2697000    1.0229701   -1.7448804   -1.7448804   -1.0557537  0.070117387   -1.7448804   0.68912675   521935 
 2698000    1.0204011    -1.743258    -1.743258   -1.0558619  0.076749407    -1.743258   0.68739613   521935 
 2699000     1.023047   -1.7444073   -1.7444073   -1.0552288  0.084471003   -1.7444073   0.68917852   521935 
 2700000    1.0254484   -1.7458405   -1.7458405   -1.0550443  0.067082573   -1.7458405   0.69079623   521935 
 2701000    1.0238046   -1.7446693   -1.7446693   -1.0549804  0.083301369   -1.7446693    0.6896889   521935 
 2702000       1.0238     -1.74442     -1.74442   -1.0547342  0.089069975     -1.74442   0.68968582   521935 
 2703000    1.0218463   -1.7430099   -1.7430099   -1.0546402   0.08247925   -1.7430099   0.68836969   521935 
 2704000    1.0237298   -1.7440141   -1.7440141   -1.0543756  0.073527146   -1.7440141   0.68963851   521935 
 2705000    1.0215073   -1.7426079   -1.7426079   -1.0544666  0.073760871   -1.7426079   0.68814131   521935 
 2706000     1.023104   -1.7438622   -1.7438622   -1.0546453  0.068322693   -1.7438622    0.6892169   521935 
 2707000    1.0220775   -1.7433294   -1.7433294    -1.054804  0.071047948   -1.7433294    0.6885254   521935 
 2708000    1.0234166   -1.7448633   -1.7448633   -1.0554357  0.068491239   -1.7448633   0.68942753   521935 
 2709000    1.0203455   -1.7421243   -1.7421243   -1.0547656  0.069450249   -1.7421243   0.68735863   521935 
 2710000    1.0215576   -1.7429369   -1.7429369   -1.0547617  0.090671159   -1.7429369   0.68817516   521935 
 2711000    1.0223091   -1.7438809   -1.7438809   -1.0551994  0.056159157   -1.7438809   0.68868145   521935 
 2712000    1.0218206   -1.7434879   -1.7434879   -1.0551355  0.074720211   -1.7434879   0.68835234   521935 
 2713000    1.0217454   -1.7435593   -1.7435593   -1.0552576  0.059878269   -1.7435593   0.68830172   521935 
 2714000    1.0234652    -1.744577    -1.744577   -1.0551168  0.068209177    -1.744577   0.68946025   521935 
 2715000    1.0258357    -1.745707    -1.745707   -1.0546498  0.075164214    -1.745707   0.69105717   521935 
 2716000    1.0223395   -1.7434238   -1.7434238   -1.0547218  0.071469278   -1.7434238   0.68870193   521935 
 2717000    1.0210974   -1.7428478   -1.7428478   -1.0549827  0.076425496   -1.7428478   0.68786519   521935 
 2718000    1.0226304   -1.7437868   -1.7437868   -1.0548889  0.072647329   -1.7437868   0.68889785   521935 
 2719000    1.0197161   -1.7420702   -1.7420702   -1.0551355  0.069404499   -1.7420702   0.68693465   521935 
 2720000    1.0222267   -1.7437411   -1.7437411   -1.0551152  0.063735488   -1.7437411    0.6886259   521935 
 2721000     1.022689   -1.7433281   -1.7433281   -1.0543907  0.070991415   -1.7433281   0.68893736   521935 
 2722000    1.0224735   -1.7424322   -1.7424322     -1.05364     0.073463   -1.7424322    0.6887922   521935 
 2723000      1.02299   -1.7431059   -1.7431059   -1.0539658  0.055998776   -1.7431059   0.68914011   521935 
 2724000     1.021488   -1.7432507   -1.7432507   -1.0551224  0.080681961   -1.7432507   0.68812828   521935 
 2725000     1.021128   -1.7436318   -1.7436318    -1.055746  0.068718997   -1.7436318   0.68788576   521935 
 2726000    1.0206542   -1.7433038   -1.7433038   -1.0557372  0.067090552   -1.7433038   0.68756658   521935 
 2727000    1.0195888   -1.7419686   -1.7419686   -1.0551197   0.06956456   -1.7419686   0.68684888   521935 
 2728000    1.0214804   -1.7435598   -1.7435598   -1.0554365  0.078304096   -1.7435598   0.68812321   521935 
 2729000     1.020876   -1.7433442   -1.7433442   -1.0556282  0.067601895   -1.7433442   0.68771602   521935 
 2730000     1.018965   -1.7423493   -1.7423493   -1.0559206  0.066526281   -1.7423493   0.68642867   521935 
 2731000    1.0205491   -1.7436255   -1.7436255   -1.0561296  0.071896052   -1.7436255   0.68749583   521935 
 2732000    1.0217867   -1.7449707   -1.7449707   -1.0566412  0.065988178   -1.7449707   0.68832954   521935 
 2733000    1.0210579   -1.7445526   -1.7445526   -1.0567141  0.073800779   -1.7445526   0.68783858   521935 
 2734000    1.0206898   -1.7441708   -1.7441708   -1.0565803  0.077206184   -1.7441708   0.68759056   521935 
 2735000     1.022277   -1.7449798   -1.7449798     -1.05632  0.089445724   -1.7449798   0.68865982   521935 
 2736000    1.0236991    -1.745771    -1.745771   -1.0561532  0.074588584    -1.745771   0.68961782   521935 
 2737000    1.0216801   -1.7446535   -1.7446535   -1.0563958  0.071118304   -1.7446535    0.6882577   521935 
 2738000    1.0232647   -1.7452106   -1.7452106   -1.0558854  0.086275695   -1.7452106    0.6893252   521935 
 2739000    1.0252409   -1.7462737   -1.7462737   -1.0556172  0.074311428   -1.7462737   0.69065648   521935 
 2740000    1.0236575   -1.7448612   -1.7448612   -1.0552713  0.084781856   -1.7448612   0.68958981   521935 
 2741000    1.0231107   -1.7440386   -1.7440386   -1.0548172  0.068942025   -1.7440386   0.68922142   521935 
 2742000    1.0218739   -1.7438103   -1.7438103    -1.055422  0.087644401   -1.7438103   0.68838826   521935 
 2743000    1.0204123   -1.7428089   -1.7428089   -1.0554053  0.068683816   -1.7428089   0.68740367   521935 
 2744000    1.0219465   -1.7438474   -1.7438474   -1.0554102  0.065188538   -1.7438474    0.6884372   521935 
 2745000    1.0197369   -1.7424159   -1.7424159   -1.0554672  0.072260768   -1.7424159   0.68694865   521935 
 2746000    1.0178827    -1.741233    -1.741233   -1.0555334  0.058518658    -1.741233   0.68569956   521935 
 2747000     1.019244    -1.742446    -1.742446   -1.0558293   0.05785771    -1.742446   0.68661663   521935 
 2748000    1.0192792   -1.7431174   -1.7431174   -1.0564771  0.063350221   -1.7431174   0.68664031   521935 
 2749000    1.0193249   -1.7427849   -1.7427849   -1.0561138  0.060619139   -1.7427849   0.68667109   521935 
 2750000    1.0183769   -1.7423016   -1.7423016   -1.0562691  0.067291816   -1.7423016   0.68603251   521935 
 2751000    1.0190466   -1.7417752   -1.7417752   -1.0552915  0.074893755   -1.7417752   0.68648366   521935 
 2752000    1.0226703   -1.7443683   -1.7443683   -1.0554436  0.067320122   -1.7443683   0.68892477   521935 
 2753000    1.0209385   -1.7439401   -1.7439401   -1.0561819  0.079859039   -1.7439401   0.68775812   521935 
 2754000    1.0225827   -1.7447295   -1.7447295   -1.0558638  0.083031263   -1.7447295   0.68886578   521935 
 2755000    1.0229179   -1.7455299   -1.7455299   -1.0564384  0.074683445   -1.7455299   0.68909156   521935 
 2756000    1.0247514   -1.7468379   -1.7468379   -1.0565112  0.069199847   -1.7468379    0.6903267   521935 
 2757000     1.022695   -1.7459636   -1.7459636   -1.0570222  0.081688277   -1.7459636   0.68894142   521935 
 2758000    1.0217315   -1.7451732   -1.7451732   -1.0568809  0.077857119   -1.7451732   0.68829234   521935 
 2759000    1.0214604   -1.7450182   -1.7450182   -1.0569085  0.066131101   -1.7450182   0.68810974   521935 
 2760000    1.0206813   -1.7447956   -1.7447956   -1.0572107  0.073031129   -1.7447956   0.68758488   521935 
 2761000    1.0212271   -1.7448526   -1.7448526   -1.0569001  0.077684685   -1.7448526   0.68795257   521935 
 2762000    1.0208717   -1.7441842   -1.7441842    -1.056471  0.062304667   -1.7441842   0.68771316   521935 
 2763000    1.0198078   -1.7436071   -1.7436071   -1.0566107  0.076475625   -1.7436071   0.68699644   521935 
 2764000    1.0201016   -1.7443543   -1.7443543     -1.05716  0.062751177   -1.7443543   0.68719435   521935 
 2765000    1.0204222    -1.743568    -1.743568   -1.0561577  0.062397222    -1.743568   0.68741035   521935 
 2766000    1.0195157   -1.7428436   -1.7428436    -1.056044  0.060383189   -1.7428436   0.68679967   521935 
 2767000    1.0189361   -1.7429436   -1.7429436   -1.0565343  0.076831388   -1.7429436   0.68640923   521935 
 2768000    1.0197314   -1.7432196   -1.7432196   -1.0562746  0.083680661   -1.7432196   0.68694499   521935 
 2769000    1.0198516   -1.7439026   -1.7439026   -1.0568766  0.070979095   -1.7439026   0.68702596   521935 
 2770000    1.0217992   -1.7453944   -1.7453944   -1.0570565  0.059767988   -1.7453944   0.68833792   521935 
 2771000    1.0208809   -1.7443889   -1.7443889   -1.0566696  0.071513388   -1.7443889   0.68771929   521935 
 2772000    1.0195916   -1.7445539   -1.7445539   -1.0577031  0.078095348   -1.7445539    0.6868508   521935 
 2773000    1.0198427   -1.7441219   -1.7441219    -1.057102  0.067826855   -1.7441219   0.68701992   521935 
 2774000    1.0214407   -1.7456723   -1.7456723   -1.0575759  0.071120274   -1.7456723   0.68809644   521935 
 2775000    1.0182509   -1.7441079   -1.7441079   -1.0581603  0.077590707   -1.7441079   0.68594763   521935 
 2776000     1.018952   -1.7443775   -1.7443775   -1.0579575  0.078422747   -1.7443775   0.68641994   521935 
 2777000    1.0203234   -1.7454409   -1.7454409   -1.0580972  0.077588694   -1.7454409   0.68734373   521935 
 2778000    1.0239891   -1.7471192   -1.7471192    -1.057306  0.062374767   -1.7471192   0.68981316   521935 
 2779000    1.0203107   -1.7451344   -1.7451344   -1.0577992   0.08069119   -1.7451344   0.68733521   521935 
 2780000    1.0199839   -1.7445051   -1.7445051   -1.0573901  0.057590351   -1.7445051   0.68711505   521935 
 2781000    1.0205484   -1.7453585   -1.7453585   -1.0578632  0.067991326   -1.7453585   0.68749532   521935 
 2782000    1.0202524   -1.7456892   -1.7456892   -1.0583932  0.088326809   -1.7456892   0.68729596   521935 
 2783000    1.0213102   -1.7459669   -1.7459669   -1.0579584  0.068184571   -1.7459669   0.68800855   521935 
 2784000    1.0191535    -1.744796    -1.744796   -1.0582403  0.069264871    -1.744796   0.68655569   521935 
 2785000    1.0204105   -1.7451968   -1.7451968   -1.0577944  0.083885803   -1.7451968   0.68740246   521935 
 2786000    1.0201013   -1.7451595   -1.7451595   -1.0579654  0.071165095   -1.7451595   0.68719416   521935 
 2787000     1.020432   -1.7451846   -1.7451846   -1.0577677  0.073627288   -1.7451846   0.68741692   521935 
 2788000    1.0171889   -1.7427167   -1.7427167   -1.0574846  0.070370348   -1.7427167   0.68523218   521935 
 2789000    1.0187852   -1.7436848   -1.7436848   -1.0573773  0.073692289   -1.7436848   0.68630756   521935 
 2790000    1.0205424   -1.7447123   -1.7447123    -1.057221  0.070462013   -1.7447123   0.68749128   521935 
 2791000    1.0220153   -1.7451836   -1.7451836   -1.0567001  0.055984829   -1.7451836   0.68848353   521935 
 2792000    1.0224059    -1.745178    -1.745178   -1.0564313  0.053598786    -1.745178   0.68874668   521935 
 2793000    1.0221334   -1.7456117   -1.7456117   -1.0570486   0.06416079   -1.7456117   0.68856305   521935 
 2794000     1.021338   -1.7440954   -1.7440954   -1.0560681  0.073338945   -1.7440954   0.68802723   521935 
 2795000    1.0198692   -1.7424895   -1.7424895   -1.0554517  0.070055159   -1.7424895   0.68703783   521935 
 2796000    1.0217566   -1.7432695   -1.7432695   -1.0549602  0.068720731   -1.7432695   0.68830923   521935 
 2797000    1.0207915   -1.7430151   -1.7430151    -1.055356  0.066866982   -1.7430151   0.68765911   521935 
 2798000    1.0209429   -1.7430263   -1.7430263   -1.0552652   0.07846405   -1.7430263    0.6877611   521935 
 2799000    1.0212656   -1.7430012   -1.7430012   -1.0550227  0.067295487   -1.7430012   0.68797846   521935 
 2800000    1.0191092   -1.7414476   -1.7414476   -1.0549218  0.062246121   -1.7414476   0.68652582   521935 
 2801000    1.0214446   -1.7431823   -1.7431823   -1.0550833  0.066104995   -1.7431823   0.68809907   521935 
 2802000    1.0183828   -1.7414461   -1.7414461   -1.0554096  0.075692125   -1.7414461    0.6860365   521935 
 2803000    1.0193505   -1.7420615   -1.7420615   -1.0553731  0.071693092   -1.7420615   0.68668837   521935 
 2804000    1.0204282   -1.7426702   -1.7426702   -1.0552559  0.065006568   -1.7426702   0.68741435   521935 
 2805000    1.0193765     -1.74159     -1.74159   -1.0548841  0.076398235     -1.74159   0.68670589   521935 
 2806000    1.0220731   -1.7434109   -1.7434109   -1.0548884  0.058852752   -1.7434109   0.68852246   521935 
 2807000    1.0206522   -1.7427367   -1.7427367   -1.0551715  0.069992373   -1.7427367   0.68756526   521935 
 2808000    1.0198837    -1.741974    -1.741974   -1.0549265  0.059518775    -1.741974   0.68704758   521935 
 2809000      1.01975   -1.7421604   -1.7421604   -1.0552029  0.073629705   -1.7421604   0.68695748   521935 
 2810000    1.0215705   -1.7428325   -1.7428325   -1.0546486  0.070101653   -1.7428325    0.6881839   521935 
 2811000    1.0212808   -1.7437396   -1.7437396   -1.0557509  0.075971286   -1.7437396    0.6879887   521935 
 2812000    1.0212732   -1.7435945   -1.7435945   -1.0556108  0.073768101   -1.7435945   0.68798363   521935 
 2813000    1.0179769   -1.7414272   -1.7414272   -1.0556642  0.076348189   -1.7414272   0.68576304   521935 
 2814000    1.0196333   -1.7429706   -1.7429706   -1.0560917  0.067961508   -1.7429706   0.68687887   521935 
 2815000    1.0203062   -1.7440843   -1.7440843   -1.0567522  0.068977484   -1.7440843   0.68733215   521935 
 2816000    1.0185955    -1.743279    -1.743279   -1.0570992   0.06669491    -1.743279   0.68617979   521935 
 2817000    1.0186387   -1.7436182   -1.7436182   -1.0574093  0.065422126   -1.7436182   0.68620887   521935 
 2818000    1.0171584   -1.7436507   -1.7436507    -1.058439  0.077947766   -1.7436507   0.68521168   521935 
 2819000    1.0188324   -1.7440363   -1.7440363    -1.057697  0.062321095   -1.7440363   0.68633936   521935 
 2820000    1.0190441   -1.7438259   -1.7438259    -1.057344  0.073393644   -1.7438259   0.68648194   521935 
 2821000    1.0197448   -1.7448435   -1.7448435   -1.0578895  0.061471992   -1.7448435     0.686954   521935 
 2822000    1.0201738   -1.7452232   -1.7452232   -1.0579802  0.075547177   -1.7452232   0.68724296   521935 
 2823000    1.0199107   -1.7454494   -1.7454494   -1.0583836  0.070928704   -1.7454494   0.68706577   521935 
 2824000    1.0181987   -1.7447115   -1.7447115    -1.058799   0.07829835   -1.7447115   0.68591249   521935 
 2825000    1.0202879   -1.7457347   -1.7457347   -1.0584148  0.071018684   -1.7457347   0.68731988   521935 
 2826000    1.0193481   -1.7451338   -1.7451338   -1.0584471  0.077868953   -1.7451338   0.68668674   521935 
 2827000    1.0215302   -1.7460262   -1.7460262   -1.0578695  0.072238514   -1.7460262    0.6881567   521935 
 2828000    1.0211839   -1.7458653   -1.7458653   -1.0579418  0.082618084   -1.7458653   0.68792347   521935 
 2829000    1.0209329   -1.7464548   -1.7464548   -1.0587004  0.072158321   -1.7464548   0.68775439   521935 
 2830000    1.0200589   -1.7462183   -1.7462183   -1.0590527  0.065541009   -1.7462183   0.68716558   521935 
 2831000    1.0218371   -1.7466174   -1.7466174   -1.0582539  0.054490339   -1.7466174   0.68836349   521935 
 2832000     1.020145    -1.744706    -1.744706   -1.0574824  0.084822769    -1.744706   0.68722361   521935 
 2833000    1.0203067   -1.7455503   -1.7455503   -1.0582178  0.076042706   -1.7455503   0.68733249   521935 
 2834000    1.0198332   -1.7448019   -1.7448019   -1.0577884  0.081130278   -1.7448019   0.68701351   521935 
 2835000    1.0190527    -1.745141    -1.745141   -1.0586532  0.063778826    -1.745141   0.68648778   521935 
 2836000    1.0183623   -1.7441004   -1.7441004   -1.0580777  0.076353086   -1.7441004    0.6860227   521935 
 2837000    1.0187642   -1.7445315   -1.7445315    -1.058238    0.0715416   -1.7445315   0.68629341   521935 
 2838000    1.0193052   -1.7447567   -1.7447567   -1.0580988  0.068528073   -1.7447567   0.68665786   521935 
 2839000    1.0182061   -1.7442965   -1.7442965   -1.0583791  0.069777013   -1.7442965   0.68591746   521935 
 2840000    1.0172636   -1.7438285   -1.7438285    -1.058546  0.061485994   -1.7438285   0.68528251   521935 
 2841000    1.0177104   -1.7432591   -1.7432591   -1.0576756  0.073487018   -1.7432591    0.6855835   521935 
 2842000    1.0200273   -1.7447358   -1.7447358   -1.0575915  0.073892393   -1.7447358   0.68714429   521935 
 2843000    1.0200466   -1.7451318   -1.7451318   -1.0579745  0.071087672   -1.7451318   0.68715728   521935 
 2844000    1.0193914   -1.7457963   -1.7457963   -1.0590804  0.068852298   -1.7457963   0.68671592   521935 
 2845000    1.0190828   -1.7458093   -1.7458093   -1.0593012  0.066411525   -1.7458093   0.68650803   521935 
 2846000    1.0209524     -1.74602     -1.74602   -1.0582525  0.073654162     -1.74602   0.68776747   521935 
 2847000     1.019607   -1.7454031   -1.7454031   -1.0585419  0.072117229   -1.7454031   0.68686113   521935 
 2848000    1.0205455   -1.7461286   -1.7461286   -1.0586353  0.078238286   -1.7461286   0.68749338   521935 
 2849000    1.0205572   -1.7463567   -1.7463567   -1.0588555  0.084914638   -1.7463567   0.68750123   521935 
 2850000    1.0219699   -1.7471575   -1.7471575   -1.0587046  0.078618808   -1.7471575   0.68845292   521935 
 2851000    1.0249194   -1.7490743   -1.7490743   -1.0586344  0.075518574   -1.7490743   0.69043989   521935 
 2852000    1.0208546   -1.7467587   -1.7467587   -1.0590571  0.077564996   -1.7467587   0.68770161   521935 
 2853000    1.0220258   -1.7472461   -1.7472461   -1.0587555  0.052751102   -1.7472461   0.68849058   521935 
 2854000    1.0206351   -1.7461941   -1.7461941   -1.0586403   0.06777598   -1.7461941   0.68755373   521935 
 2855000    1.0200115   -1.7455526   -1.7455526   -1.0584189  0.083502706   -1.7455526   0.68713368   521935 
 2856000    1.0198742    -1.745237    -1.745237   -1.0581959  0.073411629    -1.745237   0.68704115   521935 
 2857000    1.0190724   -1.7441363   -1.7441363   -1.0576353  0.070802679   -1.7441363   0.68650101   521935 
 2858000    1.0216527   -1.7460541   -1.7460541   -1.0578148  0.067121332   -1.7460541   0.68823922   521935 
 2859000    1.0191917   -1.7446482   -1.7446482   -1.0580668  0.087473257   -1.7446482   0.68658141   521935 
 2860000    1.0192575    -1.744907    -1.744907   -1.0582813  0.068865427    -1.744907   0.68662569   521935 
 2861000       1.0198    -1.744473    -1.744473   -1.0574818  0.068725121    -1.744473   0.68699116   521935 
 2862000    1.0197117   -1.7446121   -1.7446121   -1.0576804  0.074369073   -1.7446121    0.6869317   521935 
 2863000    1.0198099   -1.7447076   -1.7447076   -1.0577097   0.06966739   -1.7447076   0.68699784   521935 
 2864000    1.0194022   -1.7450165   -1.7450165   -1.0582933  0.086259957   -1.7450165   0.68672317   521935 
 2865000    1.0196977   -1.7456908   -1.7456908   -1.0587686  0.073530118   -1.7456908   0.68692229   521935 
 2866000    1.0203082    -1.745967    -1.745967   -1.0586335  0.068801344    -1.745967   0.68733349   521935 
 2867000    1.0210761   -1.7464031   -1.7464031   -1.0585522  0.078997523   -1.7464031   0.68785084   521935 
 2868000    1.0218549   -1.7463434   -1.7463434   -1.0579679  0.071354376   -1.7463434   0.68837547   521935 
 2869000    1.0216768   -1.7468196   -1.7468196   -1.0585641   0.06257691   -1.7468196   0.68825546   521935 
 2870000    1.0219034   -1.7468098   -1.7468098   -1.0584017  0.065167383   -1.7468098   0.68840813   521935 
 2871000    1.0211849   -1.7461574   -1.7461574   -1.0582333  0.074397434   -1.7461574   0.68792412   521935 
 2872000    1.0232416    -1.747896    -1.747896   -1.0585863  0.060406516    -1.747896   0.68930962   521935 
 2873000    1.0191408   -1.7452784   -1.7452784   -1.0587313   0.06038069   -1.7452784   0.68654713   521935 
 2874000    1.0212081   -1.7464788   -1.7464788   -1.0585391  0.052922307   -1.7464788   0.68793972   521935 
 2875000    1.0191087   -1.7448678   -1.7448678   -1.0583423  0.058729569   -1.7448678    0.6865255   521935 
 2876000    1.0187168   -1.7441891   -1.7441891   -1.0579276  0.051562674   -1.7441891   0.68626148   521935 
 2877000    1.0202534   -1.7451881   -1.7451881   -1.0578915  0.066880182   -1.7451881   0.68729659   521935 
 2878000    1.0222068   -1.7459239   -1.7459239   -1.0573113  0.065226077   -1.7459239   0.68861255   521935 
 2879000    1.0233585   -1.7463677   -1.7463677   -1.0569793  0.072374645   -1.7463677   0.68938838   521935 
 2880000    1.0221259   -1.7463556   -1.7463556   -1.0577975  0.082577301   -1.7463556   0.68855802   521935 
 2881000    1.0224342   -1.7471287   -1.7471287    -1.058363  0.066876346   -1.7471287   0.68876569   521935 
 2882000    1.0191672   -1.7451121   -1.7451121   -1.0585472  0.070155638   -1.7451121   0.68656488   521935 
 2883000    1.0198307   -1.7459091   -1.7459091   -1.0588972  0.076442843   -1.7459091   0.68701185   521935 
 2884000    1.0213651   -1.7468393   -1.7468393   -1.0587938   0.06820728   -1.7468393   0.68804551   521935 
 2885000    1.0225505   -1.7472771   -1.7472771   -1.0584331  0.079928301   -1.7472771   0.68884405   521935 
 2886000    1.0242945   -1.7484255   -1.7484255   -1.0584066  0.066481866   -1.7484255   0.69001891   521935 
 2887000    1.0236948   -1.7489084   -1.7489084   -1.0592934  0.081788499   -1.7489084   0.68961493   521935 
 2888000    1.0215762   -1.7478734   -1.7478734   -1.0596857   0.07497273   -1.7478734   0.68818769   521935 
 2889000    1.0211738   -1.7472765   -1.7472765   -1.0593598  0.064955203   -1.7472765   0.68791664   521935 
 2890000     1.021311   -1.7465652   -1.7465652   -1.0585562   0.07774829   -1.7465652   0.68800907   521935 
 2891000     1.022411   -1.7477971   -1.7477971    -1.059047  0.067073757   -1.7477971   0.68875007   521935 
 2892000    1.0220495   -1.7476575   -1.7476575   -1.0591509   0.07249238   -1.7476575   0.68850658   521935 
 2893000    1.0203823   -1.7459966   -1.7459966   -1.0586131  0.052906727   -1.7459966   0.68738346   521935 
 2894000    1.0206679   -1.7464363   -1.7464363   -1.0588604  0.073599879   -1.7464363   0.68757586   521935 
 2895000    1.0192167   -1.7458625   -1.7458625   -1.0592643  0.067625817   -1.7458625   0.68659824   521935 
 2896000    1.0213298   -1.7470503   -1.7470503   -1.0590285  0.063152753   -1.7470503   0.68802176   521935 
 2897000    1.0202972    -1.746971    -1.746971   -1.0596448  0.064104776    -1.746971   0.68732614   521935 
 2898000    1.0197777   -1.7458636   -1.7458636   -1.0588875  0.057589508   -1.7458636   0.68697615   521935 
 2899000     1.018624   -1.7451477   -1.7451477   -1.0589487  0.076190607   -1.7451477   0.68619894   521935 
 2900000    1.0191099   -1.7451427   -1.7451427   -1.0586164  0.065487357   -1.7451427   0.68652627   521935 
 2901000    1.0188497   -1.7459189   -1.7459189   -1.0595679    0.0788343   -1.7459189   0.68635098   521935 
 2902000    1.0224371   -1.7484932   -1.7484932   -1.0597255  0.077782457   -1.7484932   0.68876768   521935 
 2903000    1.0213858   -1.7469234   -1.7469234   -1.0588639  0.075210376   -1.7469234   0.68805945   521935 
 2904000    1.0204921   -1.7462347   -1.7462347   -1.0587773  0.087601776   -1.7462347   0.68745738   521935 
 2905000    1.0219683   -1.7468273   -1.7468273   -1.0583755  0.069467487   -1.7468273   0.68845187   521935 
 2906000    1.0219833   -1.7468188   -1.7468188   -1.0583568  0.070743309   -1.7468188   0.68846199   521935 
 2907000    1.0243992   -1.7484825   -1.7484825    -1.058393  0.075971494   -1.7484825   0.69008947   521935 
 2908000    1.0223526   -1.7475873   -1.7475873   -1.0588765  0.071823487   -1.7475873   0.68871074   521935 
 2909000     1.022018   -1.7468307   -1.7468307   -1.0583453  0.064710318   -1.7468307   0.68848535   521935 
 2910000      1.02463   -1.7489891   -1.7489891   -1.0587442  0.078348032   -1.7489891   0.69024491   521935 
 2911000    1.0195857   -1.7466124   -1.7466124   -1.0597656  0.074013052   -1.7466124   0.68684678   521935 
 2912000    1.0225044   -1.7485588   -1.7485588   -1.0597458  0.067153826   -1.7485588   0.68881298   521935 
 2913000    1.0202344   -1.7472486   -1.7472486   -1.0599648  0.069543511   -1.7472486    0.6872838   521935 
 2914000     1.023396     -1.74918     -1.74918   -1.0597663  0.062339491     -1.74918   0.68941364   521935 
 2915000    1.0226454   -1.7484062   -1.7484062   -1.0594982  0.070523315   -1.7484062   0.68890798   521935 
 2916000    1.0229383   -1.7484861   -1.7484861   -1.0593808  0.070506413   -1.7484861   0.68910528   521935 
 2917000     1.020737   -1.7466365   -1.7466365   -1.0590141  0.063135489   -1.7466365    0.6876224   521935 
 2918000     1.019844   -1.7460772   -1.7460772   -1.0590564  0.065097473   -1.7460772   0.68702082   521935 
 2919000    1.0191269   -1.7459193   -1.7459193   -1.0593816  0.067371029   -1.7459193   0.68653773   521935 
 2920000    1.0203611   -1.7469807   -1.7469807   -1.0596115   0.08152485   -1.7469807   0.68736917   521935 
 2921000    1.0197966   -1.7460166   -1.7460166   -1.0590277  0.060591674   -1.7460166   0.68698886   521935 
 2922000    1.0197285   -1.7461532   -1.7461532   -1.0592102  0.069869769   -1.7461532   0.68694303   521935 
 2923000    1.0200641   -1.7466588   -1.7466588   -1.0594897  0.077064385   -1.7466588    0.6871691   521935 
 2924000    1.0207216   -1.7471959   -1.7471959   -1.0595839  0.068986482   -1.7471959   0.68761203   521935 
 2925000    1.0208536   -1.7469549   -1.7469549    -1.059254  0.073189506   -1.7469549   0.68770096   521935 
 2926000    1.0203603    -1.746789    -1.746789   -1.0594204   0.08162272    -1.746789   0.68736861   521935 
 2927000    1.0204601   -1.7467838   -1.7467838    -1.059348   0.06452055   -1.7467838   0.68743582   521935 
 2928000    1.0196269   -1.7464931   -1.7464931   -1.0596185  0.069994982   -1.7464931   0.68687459   521935 
 2929000    1.0208753   -1.7474438   -1.7474438   -1.0597283  0.054975283   -1.7474438   0.68771557   521935 
 2930000    1.0201073   -1.7474144   -1.7474144   -1.0602162  0.071945934   -1.7474144   0.68719816   521935 
 2931000    1.0219639   -1.7479516   -1.7479516   -1.0595027  0.053467207   -1.7479516    0.6884489   521935 
 2932000    1.0202237   -1.7467801   -1.7467801   -1.0595035  0.072174458   -1.7467801   0.68727657   521935 
 2933000    1.0208456   -1.7476963   -1.7476963   -1.0600008  0.066454287   -1.7476963   0.68769552   521935 
 2934000    1.0206975   -1.7472703   -1.7472703   -1.0596746  0.068182053   -1.7472703   0.68759577   521935 
 2935000    1.0241019   -1.7496659   -1.7496659   -1.0597767  0.071336876   -1.7496659   0.68988915   521935 
 2936000    1.0225962   -1.7485708   -1.7485708    -1.059696  0.070230692   -1.7485708   0.68887486   521935 
 2937000    1.0226547   -1.7484724   -1.7484724   -1.0595581  0.062550012   -1.7484724   0.68891426   521935 
 2938000    1.0217934   -1.7472212   -1.7472212   -1.0588871  0.071153481   -1.7472212   0.68833407   521935 
 2939000     1.021141   -1.7482868   -1.7482868   -1.0603923  0.063941127   -1.7482868   0.68789452   521935 
 2940000    1.0190764   -1.7464705   -1.7464705   -1.0599668  0.078193779   -1.7464705   0.68650373   521935 
 2941000    1.0180976   -1.7464095   -1.7464095   -1.0605652  0.071558817   -1.7464095   0.68584434   521935 
 2942000    1.0200622   -1.7473627   -1.7473627   -1.0601949  0.058878516   -1.7473627   0.68716782   521935 
 2943000    1.0188021   -1.7460536   -1.7460536   -1.0597347  0.068810102   -1.7460536   0.68631892   521935 
 2944000    1.0179897   -1.7450635   -1.7450635   -1.0592919  0.071037499   -1.7450635   0.68577164   521935 
 2945000    1.0183383   -1.7458438   -1.7458438   -1.0598373  0.059724551   -1.7458438   0.68600648   521935 
 2946000     1.019316   -1.7458115   -1.7458115   -1.0591464  0.081485257   -1.7458115   0.68666511   521935 
 2947000    1.0196797   -1.7458045   -1.7458045   -1.0588944  0.064986693   -1.7458045   0.68691011   521935 
 2948000    1.0186013   -1.7454075   -1.7454075   -1.0592239  0.092172322   -1.7454075   0.68618364   521935 
 2949000    1.0198401   -1.7465657   -1.7465657   -1.0595475  0.060901844   -1.7465657   0.68701819   521935 
 2950000    1.0205267   -1.7464185   -1.7464185   -1.0589377  0.080354903   -1.7464185   0.68748072   521935 
 2951000    1.0230433   -1.7476055   -1.7476055   -1.0584294  0.062556346   -1.7476055   0.68917603   521935 
 2952000    1.0233114   -1.7481587   -1.7481587   -1.0588021  0.071910454   -1.7481587   0.68935661   521935 
 2953000    1.0216748   -1.7468528   -1.7468528   -1.0585987   0.05208465   -1.7468528   0.68825414   521935 
 2954000    1.0223868   -1.7479009   -1.7479009   -1.0591671  0.085355201   -1.7479009   0.68873381   521935 
 2955000    1.0207105   -1.7476243   -1.7476243   -1.0600198  0.071549115   -1.7476243   0.68760453   521935 
 2956000    1.0190744   -1.7464037   -1.7464037   -1.0599013  0.068608607   -1.7464037    0.6865024   521935 
 2957000    1.0207569   -1.7472008   -1.7472008    -1.059565  0.068052855   -1.7472008   0.68763577   521935 
 2958000    1.0216564   -1.7481442   -1.7481442   -1.0599024  0.078182874   -1.7481442   0.68824176   521935 
 2959000    1.0205082   -1.7476243   -1.7476243    -1.060156  0.075642287   -1.7476243   0.68746825   521935 
 2960000    1.0229525   -1.7487003   -1.7487003   -1.0595855  0.068424326   -1.7487003   0.68911486   521935 
 2961000    1.0186453   -1.7460394   -1.7460394   -1.0598261  0.075613569   -1.7460394   0.68621332   521935 
 2962000      1.01937   -1.7468744   -1.7468744   -1.0601729  0.072610049   -1.7468744   0.68670149   521935 
 2963000     1.019805   -1.7458854   -1.7458854   -1.0588909  0.072396609   -1.7458854   0.68699454   521935 
 2964000    1.0202232     -1.74628     -1.74628   -1.0590037  0.084387597     -1.74628   0.68727625   521935 
 2965000    1.0198961   -1.7465692   -1.7465692   -1.0595133  0.061480686   -1.7465692   0.68705588   521935 
 2966000    1.0221792   -1.7487429   -1.7487429    -1.060149   0.06660233   -1.7487429   0.68859395   521935 
 2967000     1.021834   -1.7487568   -1.7487568   -1.0603954  0.085647447   -1.7487568    0.6883614   521935 
 2968000    1.0229123   -1.7486488   -1.7486488    -1.059561  0.069526671   -1.7486488   0.68908778   521935 
 2969000    1.0190021     -1.74694     -1.74694   -1.0604863  0.079350974     -1.74694   0.68645368   521935 
 2970000    1.0223219   -1.7490155   -1.7490155   -1.0603254  0.054581784   -1.7490155   0.68869006   521935 
 2971000    1.0192872   -1.7472822   -1.7472822   -1.0606364  0.069185029   -1.7472822   0.68664573   521935 
 2972000     1.020821   -1.7476764   -1.7476764   -1.0599975  0.066358132   -1.7476764     0.687679   521935 
 2973000    1.0204865   -1.7475739   -1.7475739   -1.0601202  0.068850931   -1.7475739   0.68745367   521935 
 2974000    1.0210613   -1.7470297   -1.7470297   -1.0591889  0.074773693   -1.7470297   0.68784086   521935 
 2975000    1.0247132   -1.7499207   -1.7499207   -1.0596197  0.085119215   -1.7499207   0.69030099   521935 
 2976000    1.0224107   -1.7486121   -1.7486121   -1.0598623  0.079887878   -1.7486121   0.68874985   521935 
 2977000    1.0256402   -1.7508724   -1.7508724    -1.059947  0.077827527   -1.7508724   0.69092543   521935 
 2978000    1.0219837   -1.7480244   -1.7480244   -1.0595622  0.079280804   -1.7480244   0.68846225   521935 
 2979000    1.0207534   -1.7480515   -1.7480515    -1.060418  0.075932258   -1.7480515   0.68763345   521935 
 2980000    1.0212872   -1.7492081   -1.7492081    -1.061215  0.074493089   -1.7492081   0.68799306   521935 
 2981000    1.0206977   -1.7487365   -1.7487365   -1.0611405  0.072345514   -1.7487365   0.68759592   521935 
 2982000    1.0221215   -1.7489598   -1.7489598   -1.0604047  0.082804418   -1.7489598   0.68855509   521935 
 2983000    1.0215388   -1.7486883   -1.7486883   -1.0605257  0.073700639   -1.7486883   0.68816255   521935 
 2984000    1.0194044   -1.7473821   -1.7473821   -1.0606574   0.06891097   -1.7473821   0.68672467   521935 
 2985000    1.0213622   -1.7483592   -1.7483592   -1.0603157  0.057049527   -1.7483592   0.68804355   521935 
 2986000     1.022259   -1.7490436   -1.7490436   -1.0603959  0.065881245   -1.7490436   0.68864766   521935 
 2987000    1.0189189   -1.7467869   -1.7467869   -1.0603892  0.077016993   -1.7467869   0.68639763   521935 
 2988000    1.0214132   -1.7482553   -1.7482553   -1.0601774  0.082111178   -1.7482553   0.68807792   521935 
 2989000    1.0206313   -1.7483171   -1.7483171   -1.0607659  0.069364244   -1.7483171   0.68755118   521935 
 2990000    1.0184122   -1.7462821   -1.7462821   -1.0602258   0.07849674   -1.7462821    0.6860563   521935 
 2991000    1.0210078   -1.7486243   -1.7486243   -1.0608195  0.065950455   -1.7486243   0.68780483   521935 
 2992000    1.0209417   -1.7485815   -1.7485815   -1.0608212   0.06953836   -1.7485815   0.68776028   521935 
 2993000     1.019495   -1.7471278   -1.7471278   -1.0603421   0.06461584   -1.7471278    0.6867857   521935 
 2994000    1.0191988   -1.7467514   -1.7467514   -1.0601652  0.075294308   -1.7467514   0.68658621   521935 
 2995000    1.0204586   -1.7475323   -1.7475323   -1.0600975  0.080237953   -1.7475323   0.68743484   521935 
 2996000    1.0182448   -1.7468604   -1.7468604   -1.0609169  0.059034636   -1.7468604   0.68594354   521935 
 2997000    1.0196791   -1.7482519   -1.7482519   -1.0613422  0.067844073   -1.7482519   0.68690972   521935 
 2998000    1.0194087   -1.7483969   -1.7483969   -1.0616693  0.061531201   -1.7483969   0.68672759   521935 
 2999000    1.0184929   -1.7478568   -1.7478568   -1.0617462  0.061579286   -1.7478568   0.68611063   521935 
 3000000    1.0200805   -1.7495298   -1.7495298   -1.0623497  0.062165951   -1.7495298   0.68718013   521935 
 3001000    1.0211213   -1.7502261   -1.7502261   -1.0623448  0.063845349   -1.7502261   0.68788125   521935 
 3002000    1.0186716   -1.7481759   -1.7481759   -1.0619449  0.079678946   -1.7481759   0.68623104   521935 
 3003000    1.0217459   -1.7506323   -1.7506323   -1.0623302  0.073673329   -1.7506323   0.68830206   521935 
 3004000    1.0203237   -1.7502965   -1.7502965   -1.0629525  0.070660593   -1.7502965   0.68734396   521935 
 3005000    1.0188626   -1.7490346   -1.7490346   -1.0626749  0.075812929   -1.7490346   0.68635966   521935 
 3006000    1.0209246   -1.7490309   -1.7490309   -1.0612821  0.074002361   -1.7490309   0.68774873   521935 
 3007000    1.0191204    -1.748367    -1.748367   -1.0618336    0.0617084    -1.748367   0.68653338   521935 
 3008000    1.0228783   -1.7503223   -1.7503223   -1.0612574  0.074518293   -1.7503223   0.68906489   521935 
 3009000    1.0199668   -1.7483737   -1.7483737   -1.0612701  0.078626987   -1.7483737   0.68710357   521935 
 3010000    1.0218211    -1.750279    -1.750279   -1.0619263  0.076515819    -1.750279   0.68835266   521935 
 3011000    1.0199062   -1.7492064   -1.7492064   -1.0621437  0.078296076   -1.7492064   0.68706272   521935 
 3012000    1.0209891   -1.7494724   -1.7494724   -1.0616802  0.078374514   -1.7494724   0.68779219   521935 
 3013000    1.0184712    -1.747868    -1.747868    -1.061772  0.083667314    -1.747868   0.68609601   521935 
 3014000    1.0210415    -1.748847    -1.748847   -1.0610195  0.062286597    -1.748847   0.68782755   521935 
 3015000    1.0196527   -1.7482208   -1.7482208   -1.0613288  0.072362584   -1.7482208   0.68689193   521935 
 3016000    1.0194336   -1.7488144   -1.7488144   -1.0620701  0.076695528   -1.7488144   0.68674435   521935 
 3017000    1.0196771   -1.7485962   -1.7485962   -1.0616878  0.071244322   -1.7485962    0.6869084   521935 
 3018000    1.0199027   -1.7489286   -1.7489286   -1.0618682  0.075317011   -1.7489286   0.68706037   521935 
 3019000    1.0199129   -1.7492869   -1.7492869   -1.0622197  0.062328736   -1.7492869    0.6870672   521935 
 3020000      1.02002   -1.7482157   -1.7482157   -1.0610763  0.052883695   -1.7482157   0.68713938   521935 
 3021000      1.02051   -1.7485901   -1.7485901   -1.0611206  0.080330726   -1.7485901   0.68746945   521935 
 3022000    1.0202124   -1.7484207   -1.7484207   -1.0611516  0.068364049   -1.7484207   0.68726902   521935 
 3023000    1.0211348   -1.7493848   -1.7493848   -1.0614945  0.070030713   -1.7493848   0.68789035   521935 
 3024000    1.0183681   -1.7476326   -1.7476326    -1.061606  0.079232741   -1.7476326   0.68602658   521935 
 3025000    1.0216545   -1.7493699   -1.7493699   -1.0611294   0.06641952   -1.7493699    0.6882405   521935 
 3026000    1.0202305   -1.7487717   -1.7487717   -1.0614905  0.082209606   -1.7487717   0.68728119   521935 
 3027000    1.0189459   -1.7477036   -1.7477036   -1.0612878  0.060372429   -1.7477036   0.68641584   521935 
 3028000     1.019425   -1.7487861   -1.7487861   -1.0620475  0.062560266   -1.7487861   0.68673858   521935 
 3029000    1.0191734   -1.7492392   -1.7492392   -1.0626701  0.070306613   -1.7492392   0.68656906   521935 
 3030000     1.020496   -1.7501152   -1.7501152   -1.0626552  0.060666027   -1.7501152   0.68746002   521935 
 3031000    1.0197844    -1.749757    -1.749757   -1.0627764  0.075225215    -1.749757   0.68698066   521935 
 3032000    1.0199945   -1.7501739   -1.7501739   -1.0630517  0.078039527   -1.7501739   0.68712219   521935 
 3033000    1.0215091   -1.7523335   -1.7523335    -1.064191  0.081251937   -1.7523335   0.68814252   521935 
 3034000    1.0186625   -1.7508063   -1.7508063   -1.0645814  0.063456223   -1.7508063   0.68622491   521935 
 3035000    1.0193868    -1.750845    -1.750845   -1.0641322  0.074921527    -1.750845   0.68671284   521935 
 3036000    1.0218617   -1.7524972   -1.7524972   -1.0641172  0.075873226   -1.7524972   0.68838003   521935 
 3037000     1.019053   -1.7507673   -1.7507673   -1.0642794   0.06383194   -1.7507673   0.68648795   521935 
 3038000    1.0197068    -1.750949    -1.750949   -1.0640206    0.1015739    -1.750949    0.6869284   521935 
 3039000    1.0204454   -1.7526704   -1.7526704   -1.0652445  0.087544571   -1.7526704   0.68742596   521935 
 3040000    1.0199701    -1.752514    -1.752514   -1.0654082  0.068491032    -1.752514   0.68710577   521935 
 3041000    1.0207879   -1.7529957   -1.7529957    -1.065339  0.077795507   -1.7529957   0.68765671   521935 
 3042000     1.018944   -1.7508843   -1.7508843   -1.0644698  0.075805491   -1.7508843   0.68641452   521935 
 3043000     1.020185   -1.7518083   -1.7518083   -1.0645578  0.072598915   -1.7518083   0.68725052   521935 
 3044000    1.0181376   -1.7511562   -1.7511562   -1.0652849  0.075695224   -1.7511562   0.68587128   521935 
 3045000    1.0168139   -1.7505956   -1.7505956    -1.065616  0.069538577   -1.7505956   0.68497959   521935 
 3046000     1.019522   -1.7521916   -1.7521916   -1.0653877  0.065111336   -1.7521916   0.68680388   521935 
 3047000    1.0176159   -1.7501444   -1.7501444   -1.0646245  0.064268062   -1.7501444   0.68551985   521935 
 3048000    1.0194368   -1.7509872   -1.7509872   -1.0642407  0.068837046   -1.7509872    0.6867465   521935 
 3049000    1.0178885   -1.7490333   -1.7490333   -1.0633298  0.073496138   -1.7490333   0.68570345   521935 
 3050000    1.0195123   -1.7500715   -1.7500715   -1.0632741  0.069345307   -1.7500715   0.68679739   521935 
 3051000    1.0212633   -1.7506189   -1.7506189    -1.062642  0.073691458   -1.7506189   0.68797691   521935 
 3052000    1.0211358   -1.7500524   -1.7500524   -1.0621614  0.069582191   -1.7500524   0.68789101   521935 
 3053000    1.0242582   -1.7527648   -1.7527648   -1.0627704  0.063478967   -1.7527648   0.68999443   521935 
 3054000    1.0223224   -1.7515897   -1.7515897   -1.0628993  0.067719359   -1.7515897    0.6886904   521935 
 3055000    1.0225823   -1.7509723   -1.7509723   -1.0621068  0.074147525   -1.7509723    0.6888655   521935 
 3056000    1.0208437   -1.7513668   -1.7513668   -1.0636725  0.077414634   -1.7513668   0.68769427   521935 
 3057000    1.0226891   -1.7526377   -1.7526377   -1.0637003  0.071921777   -1.7526377    0.6889374   521935 
 3058000    1.0207372   -1.7510132   -1.7510132   -1.0633907  0.069016656   -1.7510132   0.68762254   521935 
 3059000    1.0222208   -1.7515672   -1.7515672   -1.0629453  0.066664104   -1.7515672   0.68862197   521935 
 3060000    1.0228567   -1.7514679   -1.7514679   -1.0624176  0.072179909   -1.7514679   0.68905034   521935 
 3061000    1.0187677   -1.7489697   -1.7489697   -1.0626739   0.07609175   -1.7489697   0.68629578   521935 
 3062000    1.0208174   -1.7507139   -1.7507139   -1.0630373  0.072798012   -1.7507139   0.68767657   521935 
 3063000    1.0210639   -1.7514672   -1.7514672   -1.0636246  0.080199222   -1.7514672   0.68784258   521935 
 3064000    1.0202589     -1.75071     -1.75071   -1.0634097  0.056747143     -1.75071   0.68730034   521935 
 3065000    1.0213358   -1.7516963   -1.7516963   -1.0636705  0.066940622   -1.7516963    0.6880258   521935 
 3066000    1.0203428   -1.7506415   -1.7506415   -1.0632847  0.064531917   -1.7506415   0.68735681   521935 
 3067000    1.0179513   -1.7499287   -1.7499287   -1.0641829  0.073088475   -1.7499287   0.68574579   521935 
 3068000    1.0201755     -1.75069     -1.75069   -1.0634458  0.066380031     -1.75069   0.68724414   521935 
 3069000    1.0175119   -1.7491213   -1.7491213   -1.0636715  0.080969268   -1.7491213   0.68544978   521935 
 3070000    1.0209943   -1.7503743   -1.7503743   -1.0625785  0.075445896   -1.7503743   0.68779574   521935 
 3071000    1.0214516   -1.7513416   -1.7513416   -1.0632378  0.090473973   -1.7513416    0.6881038   521935 
 3072000    1.0217838   -1.7523907   -1.7523907   -1.0640631  0.070246756   -1.7523907   0.68832759   521935 
 3073000    1.0184635   -1.7503122   -1.7503122   -1.0642213  0.057111925   -1.7503122   0.68609081   521935 
 3074000    1.0220888   -1.7523527   -1.7523527   -1.0638197  0.062779043   -1.7523527   0.68853305   521935 
 3075000    1.0185556   -1.7502289   -1.7502289   -1.0640761  0.071829047   -1.7502289   0.68615286   521935 
 3076000    1.0173949   -1.7495961   -1.7495961   -1.0642252  0.084857792   -1.7495961   0.68537095   521935 
 3077000     1.017652   -1.7501169   -1.7501169   -1.0645727  0.084846254   -1.7501169   0.68554418   521935 
 3078000    1.0212857   -1.7521989   -1.7521989   -1.0642069  0.067794001   -1.7521989   0.68799203   521935 
 3079000     1.019123   -1.7503347   -1.7503347   -1.0637996  0.078414088   -1.7503347   0.68653514   521935 
 3080000    1.0213686   -1.7512373   -1.7512373   -1.0631894  0.076661928   -1.7512373   0.68804789   521935 
 3081000    1.0241318     -1.75343     -1.75343   -1.0635207   0.08289113     -1.75343   0.68990928   521935 
 3082000    1.0209394   -1.7522828   -1.7522828   -1.0645241  0.088589342   -1.7522828   0.68775873   521935 
 3083000    1.0204601   -1.7519601   -1.7519601   -1.0645243  0.080549548   -1.7519601   0.68743582   521935 
 3084000    1.0199823   -1.7515502   -1.7515502   -1.0644362  0.070937986   -1.7515502   0.68711399   521935 
 3085000    1.0209958   -1.7514638   -1.7514638   -1.0636671  0.078484674   -1.7514638   0.68779672   521935 
 3086000    1.0221223   -1.7524698   -1.7524698   -1.0639142  0.071233484   -1.7524698   0.68855558   521935 
 3087000    1.0192722   -1.7507682   -1.7507682   -1.0641326  0.080002886   -1.7507682    0.6866356   521935 
 3088000    1.0195338   -1.7505217   -1.7505217   -1.0637099  0.082208273   -1.7505217   0.68681183   521935 
 3089000    1.0186199   -1.7501086   -1.7501086   -1.0639124  0.068486866   -1.7501086   0.68619621   521935 
 3090000    1.0164595   -1.7489157   -1.7489157   -1.0641749  0.088257244   -1.7489157   0.68474081   521935 
 3091000    1.0158587    -1.748015    -1.748015   -1.0636788  0.065346556    -1.748015   0.68433612   521935 
 3092000    1.0184125      -1.7502      -1.7502   -1.0641435   0.06061242      -1.7502    0.6860565   521935 
 3093000    1.0182456   -1.7504503   -1.7504503   -1.0645063  0.069073472   -1.7504503   0.68594402   521935 
 3094000    1.0167755   -1.7494761   -1.7494761   -1.0645224  0.062563296   -1.7494761    0.6849537   521935 
 3095000    1.0165628   -1.7485153   -1.7485153   -1.0637049  0.075464177   -1.7485153   0.68481042   521935 
 3096000    1.0176265   -1.7496559   -1.7496559   -1.0641289  0.066138866   -1.7496559   0.68552696   521935 
 3097000    1.0200421    -1.750784    -1.750784   -1.0636297   0.07756054    -1.750784   0.68715424   521935 
 3098000    1.0197495   -1.7504761   -1.7504761    -1.063519  0.072522739   -1.7504761   0.68695714   521935 
 3099000    1.0195797   -1.7501201   -1.7501201   -1.0632774  0.072275628   -1.7501201   0.68684275   521935 
 3100000    1.0178899   -1.7490184   -1.7490184    -1.063314  0.074186995   -1.7490184    0.6857044   521935 
 3101000    1.0208407   -1.7508516   -1.7508516   -1.0631593   0.08306754   -1.7508516   0.68769225   521935 
 3102000    1.0185039   -1.7501694   -1.7501694   -1.0640514  0.076712544   -1.7501694   0.68611806   521935 
 3103000    1.0187978   -1.7505446   -1.7505446   -1.0642285  0.065389882   -1.7505446   0.68631607   521935 
 3104000    1.0186926    -1.751126    -1.751126   -1.0648808  0.075127996    -1.751126   0.68624514   521935 
 3105000    1.0195875   -1.7514378   -1.7514378   -1.0645898  0.076794267   -1.7514378   0.68684805   521935 
 3106000    1.0170302   -1.7495664   -1.7495664   -1.0644411  0.069085664   -1.7495664   0.68512531   521935 
 3107000    1.0190945   -1.7508764   -1.7508764   -1.0643605  0.078626333   -1.7508764   0.68651595   521935 
 3108000    1.0184185   -1.7503497   -1.7503497   -1.0642891  0.076381929   -1.7503497   0.68606054   521935 
 3109000    1.0219838   -1.7520606   -1.7520606   -1.0635983  0.075105666   -1.7520606    0.6884623   521935 
 3110000     1.019933   -1.7508187   -1.7508187    -1.063738  0.073690759   -1.7508187   0.68708078   521935 
 3111000    1.0194215   -1.7510234   -1.7510234   -1.0642872   0.07677193   -1.7510234   0.68673622   521935 
 3112000    1.0217099   -1.7512443   -1.7512443   -1.0629665  0.072015473   -1.7512443   0.68827779   521935 
 3113000    1.0191553   -1.7503956   -1.7503956   -1.0638388   0.07893163   -1.7503956   0.68655685   521935 
 3114000    1.0220166   -1.7513631   -1.7513631   -1.0628787  0.064289477   -1.7513631    0.6884844   521935 
 3115000    1.0210995   -1.7509635   -1.7509635    -1.063097  0.073979648   -1.7509635   0.68786656   521935 
 3116000    1.0214383   -1.7509961   -1.7509961   -1.0629013  0.088348492   -1.7509961   0.68809485   521935 
 3117000    1.0200911   -1.7500221   -1.7500221   -1.0628348  0.071982658   -1.7500221   0.68718731   521935 
 3118000    1.0198584   -1.7503088   -1.7503088   -1.0632783  0.068491602   -1.7503088    0.6870305   521935 
 3119000    1.0205071   -1.7507789   -1.7507789   -1.0633114  0.065379964   -1.7507789   0.68746752   521935 
 3120000     1.021816   -1.7509029   -1.7509029   -1.0625536  0.072387304   -1.7509029   0.68834927   521935 
 3121000    1.0208791   -1.7504146   -1.7504146   -1.0626965  0.063299077   -1.7504146   0.68771811   521935 
 3122000    1.0188816    -1.749842    -1.749842   -1.0634695   0.07746864    -1.749842   0.68637246   521935 
 3123000    1.0203151   -1.7509943   -1.7509943   -1.0636562  0.064282121   -1.7509943   0.68733816   521935 
 3124000    1.0199079      -1.7498      -1.7498   -1.0627361  0.074291297      -1.7498   0.68706384   521935 
 3125000    1.0205317   -1.7501721   -1.7501721    -1.062688  0.073697483   -1.7501721   0.68748411   521935 
 3126000    1.0176113   -1.7483995   -1.7483995   -1.0628827  0.076542615   -1.7483995   0.68551676   521935 
 3127000    1.0195235   -1.7498216   -1.7498216   -1.0630167  0.063877128   -1.7498216   0.68680489   521935 
 3128000    1.0212457   -1.7507405   -1.7507405   -1.0627754  0.077028399   -1.7507405   0.68796511   521935 
 3129000    1.0212233   -1.7505787   -1.7505787   -1.0626287  0.063994727   -1.7505787   0.68794997   521935 
 3130000    1.0224842   -1.7511738   -1.7511738   -1.0623744  0.068857319   -1.7511738   0.68879942   521935 
 3131000    1.0226464   -1.7505122   -1.7505122   -1.0616035  0.073067911   -1.7505122   0.68890868   521935 
 3132000    1.0222499    -1.750857    -1.750857   -1.0622154  0.074425508    -1.750857   0.68864156   521935 
 3133000    1.0221496   -1.7508056   -1.7508056   -1.0622316  0.079689877   -1.7508056   0.68857397   521935 
 3134000    1.0224403   -1.7512006   -1.7512006   -1.0624308  0.068981184   -1.7512006    0.6887698   521935 
 3135000    1.0228093   -1.7517666   -1.7517666   -1.0627482  0.068093246   -1.7517666   0.68901838   521935 
 3136000     1.021053   -1.7505513   -1.7505513   -1.0627161  0.072296558   -1.7505513   0.68783527   521935 
 3137000    1.0226329   -1.7513471   -1.7513471   -1.0624476  0.068608563   -1.7513471   0.68889958   521935 
 3138000    1.0196559   -1.7495607   -1.7495607   -1.0626666  0.071297851   -1.7495607   0.68689408   521935 
 3139000    1.0203757   -1.7502563   -1.7502563   -1.0628773  0.082004872   -1.7502563   0.68737898   521935 
 3140000    1.0196977   -1.7499646   -1.7499646   -1.0630423  0.076796198   -1.7499646   0.68692227   521935 
 3141000    1.0197247   -1.7500431   -1.7500431   -1.0631026  0.069646987   -1.7500431   0.68694048   521935 
 3142000    1.0205875   -1.7512457   -1.7512457   -1.0637241  0.063644277   -1.7512457   0.68752165   521935 
 3143000    1.0211697   -1.7515573   -1.7515573   -1.0636435   0.07172009   -1.7515573   0.68791387   521935 
 3144000    1.0215901   -1.7520703   -1.7520703   -1.0638733  0.065233515   -1.7520703   0.68819707   521935 
 3145000    1.0188565   -1.7504232   -1.7504232   -1.0640676  0.072964201   -1.7504232   0.68635557   521935 
 3146000    1.0191823    -1.751066    -1.751066    -1.064491  0.072392613    -1.751066   0.68657507   521935 
 3147000    1.0174579   -1.7497234   -1.7497234     -1.06431  0.056868976   -1.7497234   0.68541339   521935 
 3148000    1.0184293   -1.7494364   -1.7494364   -1.0633685  0.066276211   -1.7494364   0.68606783   521935 
 3149000    1.0204304   -1.7502945   -1.7502945   -1.0628787  0.068657462   -1.7502945   0.68741582   521935 
 3150000    1.0201714   -1.7509721   -1.7509721   -1.0637307  0.058817905   -1.7509721   0.68724137   521935 
 3151000    1.0213605   -1.7513009   -1.7513009   -1.0632585  0.061546492   -1.7513009    0.6880424   521935 
 3152000    1.0188834   -1.7498707   -1.7498707    -1.063497  0.076889718   -1.7498707   0.68637371   521935 
 3153000    1.0183641   -1.7497576   -1.7497576   -1.0637337  0.084477872   -1.7497576   0.68602386   521935 
 3154000    1.0195146   -1.7514821   -1.7514821   -1.0646831  0.085803358   -1.7514821   0.68679893   521935 
 3155000    1.0192474   -1.7518152   -1.7518152   -1.0651963  0.072104168   -1.7518152   0.68661892   521935 
 3156000     1.019793   -1.7518452   -1.7518452   -1.0648587  0.077809443   -1.7518452   0.68698645   521935 
 3157000    1.0211884   -1.7527168   -1.7527168   -1.0647903  0.056639227   -1.7527168   0.68792648   521935 
 3158000    1.0203299   -1.7518586   -1.7518586   -1.0645104   0.07176353   -1.7518586   0.68734816   521935 
 3159000    1.0190241    -1.751414    -1.751414   -1.0649454  0.080607028    -1.751414   0.68646851   521935 
 3160000    1.0192889   -1.7514321   -1.7514321   -1.0647852  0.072131827   -1.7514321    0.6866469   521935 
 3161000    1.0202562   -1.7519048   -1.7519048   -1.0646063  0.070534901   -1.7519048   0.68729851   521935 
 3162000    1.0204349    -1.752284    -1.752284   -1.0648652  0.068681375    -1.752284   0.68741886   521935 
 3163000    1.0204551   -1.7519838   -1.7519838   -1.0645513  0.072409005   -1.7519838   0.68743249   521935 
 3164000    1.0193424   -1.7513053   -1.7513053   -1.0646224  0.068440213   -1.7513053   0.68668292   521935 
 3165000    1.0210128   -1.7525613   -1.7525613   -1.0647531   0.06997203   -1.7525613   0.68780815   521935 
 3166000    1.0215124   -1.7519907   -1.7519907    -1.063846  0.063853519   -1.7519907   0.68814477   521935 
 3167000    1.0211988   -1.7507755   -1.7507755    -1.062842   0.06802384   -1.7507755    0.6879335   521935 
 3168000     1.019144   -1.7497813   -1.7497813    -1.063232  0.071144146   -1.7497813   0.68654927   521935 
 3169000     1.018926   -1.7499307   -1.7499307   -1.0635283  0.072650706   -1.7499307   0.68640238   521935 
 3170000    1.0176435   -1.7491998   -1.7491998   -1.0636614  0.064417174   -1.7491998   0.68553841   521935 
 3171000    1.0182109    -1.749369    -1.749369   -1.0634483     0.071283    -1.749369   0.68592071   521935 
 3172000    1.0195215   -1.7506542   -1.7506542   -1.0638507  0.056530178   -1.7506542   0.68680354   521935 
 3173000    1.0181499   -1.7496211   -1.7496211   -1.0637415  0.076420951   -1.7496211   0.68587956   521935 
 3174000    1.0186411   -1.7495995   -1.7495995    -1.063389  0.084814049   -1.7495995   0.68621045   521935 
 3175000     1.019811   -1.7511587   -1.7511587   -1.0641601  0.078674435   -1.7511587    0.6869986   521935 
 3176000    1.0193377   -1.7505207   -1.7505207    -1.063841   0.07393556   -1.7505207   0.68667975   521935 
 3177000    1.0193782   -1.7505536   -1.7505536   -1.0638465  0.082880675   -1.7505536   0.68670702   521935 
 3178000    1.0182806   -1.7504299   -1.7504299   -1.0644623  0.073021702   -1.7504299   0.68596761   521935 
 3179000    1.0205498   -1.7513352   -1.7513352   -1.0638389   0.07030567   -1.7513352    0.6874963   521935 
 3180000    1.0200014   -1.7508715   -1.7508715   -1.0637447   0.07294987   -1.7508715   0.68712682   521935 
 3181000    1.0219579   -1.7525525   -1.7525525   -1.0641077  0.085707174   -1.7525525   0.68844483   521935 
 3182000    1.0201772   -1.7520496   -1.7520496   -1.0648043  0.067536147   -1.7520496   0.68724529   521935 
 3183000    1.0204766   -1.7527462   -1.7527462   -1.0652992  0.064037301   -1.7527462   0.68744697   521935 
 3184000    1.0189518   -1.7508525   -1.7508525   -1.0644327  0.083413169   -1.7508525   0.68641978   521935 
 3185000    1.0204964   -1.7523038   -1.7523038   -1.0648435   0.07277073   -1.7523038   0.68746031   521935 
 3186000    1.0176047   -1.7504364   -1.7504364   -1.0649241  0.080533271   -1.7504364    0.6855123   521935 
 3187000    1.0186836   -1.7515624   -1.7515624   -1.0653232  0.065892574   -1.7515624   0.68623914   521935 
 3188000    1.0167854   -1.7496375   -1.7496375   -1.0646771  0.073585593   -1.7496375   0.68496041   521935 
 3189000    1.0171388   -1.7499551   -1.7499551   -1.0647566  0.065778942   -1.7499551   0.68519848   521935 
 3190000    1.0168267   -1.7505578   -1.7505578   -1.0655696  0.067344375   -1.7505578    0.6849882   521935 
 3191000    1.0193287   -1.7520401   -1.7520401   -1.0653664  0.082828076   -1.7520401   0.68667368   521935 
 3192000    1.0191498   -1.7513677   -1.7513677   -1.0648146  0.070462122   -1.7513677   0.68655314   521935 
 3193000    1.0199483    -1.751589    -1.751589   -1.0644979   0.07585698    -1.751589   0.68709108   521935 
 3194000    1.0195381   -1.7516408   -1.7516408   -1.0648261  0.065895603   -1.7516408   0.68681475   521935 
 3195000    1.0199016   -1.7513679   -1.7513679   -1.0643083  0.078619268   -1.7513679   0.68705959   521935 
 3196000    1.0197744   -1.7514743   -1.7514743   -1.0645004  0.068569473   -1.7514743   0.68697394   521935 
 3197000    1.0209835   -1.7529925   -1.7529925   -1.0652041  0.062238794   -1.7529925   0.68778845   521935 
 3198000    1.0209885    -1.753129    -1.753129   -1.0653371   0.07243377    -1.753129   0.68779184   521935 
 3199000    1.0208999   -1.7527203   -1.7527203   -1.0649882  0.078761971   -1.7527203   0.68773211   521935 
 3200000    1.0213445   -1.7528322   -1.7528322   -1.0648006  0.074707295   -1.7528322   0.68803164   521935 
 3201000    1.0218633   -1.7530149   -1.7530149   -1.0646338   0.07130595   -1.7530149   0.68838111   521935 
 3202000    1.0203113   -1.7515215   -1.7515215   -1.0641859  0.078125211   -1.7515215   0.68733564   521935 
 3203000    1.0201706   -1.7516196   -1.7516196   -1.0643787  0.082029991   -1.7516196   0.68724085   521935 
 3204000    1.0197298   -1.7509388   -1.7509388   -1.0639949  0.073061213   -1.7509388   0.68694389   521935 
 3205000    1.0182154   -1.7505213   -1.7505213   -1.0645976  0.057832524   -1.7505213   0.68592372   521935 
 3206000    1.0189122   -1.7508895   -1.7508895   -1.0644965  0.069463948   -1.7508895   0.68639308   521935 
 3207000    1.0168198   -1.7489414   -1.7489414   -1.0639579  0.077969493   -1.7489414   0.68498355   521935 
 3208000    1.0183539   -1.7504314   -1.7504314   -1.0644143  0.066466163   -1.7504314   0.68601704   521935 
 3209000    1.0200557   -1.7517323   -1.7517323   -1.0645688  0.066481497   -1.7517323   0.68716344   521935 
 3210000    1.0200957   -1.7510237   -1.7510237   -1.0638334  0.075389575   -1.7510237   0.68719036   521935 
 3211000    1.0200329   -1.7509008   -1.7509008   -1.0637528  0.073360234   -1.7509008   0.68714804   521935 
 3212000    1.0203107   -1.7508624   -1.7508624   -1.0635272  0.079425607   -1.7508624   0.68733521   521935 
 3213000    1.0216699     -1.75255     -1.75255   -1.0642991  0.089766627     -1.75255   0.68825086   521935 
 3214000     1.021409   -1.7521174   -1.7521174   -1.0640423  0.069041117   -1.7521174   0.68807509   521935 
 3215000    1.0215396   -1.7519808   -1.7519808   -1.0638177  0.082195485   -1.7519808   0.68816304   521935 
 3216000    1.0208125   -1.7521734   -1.7521734   -1.0645002  0.066152387   -1.7521734   0.68767323   521935 
 3217000    1.0193807   -1.7522606   -1.7522606   -1.0655519  0.070746629   -1.7522606   0.68670871   521935 
 3218000    1.0222167   -1.7530139   -1.7530139   -1.0643947   0.06574402   -1.7530139    0.6886192   521935 
 3219000     1.021103   -1.7534772   -1.7534772   -1.0656082  0.053954526   -1.7534772   0.68786895   521935 
 3220000     1.020136    -1.752931    -1.752931   -1.0657135   0.06353937    -1.752931   0.68721749   521935 
 3221000    1.0195252   -1.7509299   -1.7509299   -1.0641238  0.074293313   -1.7509299   0.68680605   521935 
 3222000    1.0216885   -1.7521077   -1.7521077   -1.0638443  0.062473795   -1.7521077   0.68826336   521935 
 3223000    1.0191322   -1.7511113   -1.7511113   -1.0645699  0.088947714   -1.7511113   0.68654133   521935 
 3224000    1.0221143   -1.7528825   -1.7528825   -1.0643322  0.077122827   -1.7528825   0.68855023   521935 
 3225000    1.0201166   -1.7520673   -1.7520673   -1.0648628  0.063978032   -1.7520673   0.68720448   521935 
 3226000    1.0182332   -1.7509865   -1.7509865   -1.0650508   0.07051687   -1.7509865    0.6859357   521935 
 3227000    1.0202089   -1.7510999   -1.7510999   -1.0638333  0.077563588   -1.7510999   0.68726661   521935 
 3228000    1.0209619   -1.7522689   -1.7522689    -1.064495  0.072516402   -1.7522689    0.6877739   521935 
 3229000    1.0186611   -1.7513884   -1.7513884   -1.0651644  0.059622826   -1.7513884   0.68622397   521935 
 3230000    1.0203396   -1.7516172   -1.7516172   -1.0642625  0.061737585   -1.7516172   0.68735466   521935 
 3231000    1.0219007   -1.7522606   -1.7522606   -1.0638542  0.073911926   -1.7522606   0.68840634   521935 
 3232000    1.0179802   -1.7496296   -1.7496296   -1.0638643  0.090979702   -1.7496296   0.68576525   521935 
 3233000    1.0192018   -1.7511066   -1.7511066   -1.0645184  0.075209359   -1.7511066   0.68658821   521935 
 3234000    1.0201099    -1.752754    -1.752754   -1.0655541  0.074396798    -1.752754   0.68719992   521935 
 3235000    1.0217682   -1.7535196   -1.7535196   -1.0652025  0.079270539   -1.7535196   0.68831707   521935 
 3236000    1.0210793   -1.7526589   -1.7526589   -1.0648059  0.077843308   -1.7526589   0.68785295   521935 
 3237000    1.0194078   -1.7517094   -1.7517094   -1.0649825   0.07271627   -1.7517094   0.68672694   521935 
 3238000    1.0182629   -1.7513844   -1.7513844   -1.0654287  0.070230387   -1.7513844   0.68595568   521935 
 3239000    1.0188326   -1.7516366   -1.7516366   -1.0652971  0.070056979   -1.7516366   0.68633947   521935 
 3240000    1.0180011   -1.7508186   -1.7508186   -1.0650393  0.067253094   -1.7508186   0.68577931   521935 
 3241000    1.0201669   -1.7519389   -1.7519389   -1.0647006  0.079746563   -1.7519389   0.68723835   521935 
 3242000    1.0179475   -1.7509682   -1.7509682    -1.065225  0.069401484   -1.7509682   0.68574327   521935 
 3243000    1.0176064   -1.7508227   -1.7508227   -1.0653092  0.077128976   -1.7508227   0.68551347   521935 
 3244000    1.0177733   -1.7509664   -1.7509664   -1.0653405  0.076545456   -1.7509664   0.68562587   521935 
 3245000    1.0204249   -1.7522573   -1.7522573   -1.0648452   0.06041416   -1.7522573   0.68741213   521935 
 3246000    1.0194087   -1.7517892   -1.7517892   -1.0650617  0.080944484   -1.7517892   0.68672755   521935 
 3247000    1.0194229   -1.7519145   -1.7519145   -1.0651774  0.068262148   -1.7519145   0.68673716   521935 
 3248000    1.0215972   -1.7538385   -1.7538385   -1.0656367  0.072242667   -1.7538385   0.68820184   521935 
 3249000    1.0192551   -1.7539931   -1.7539931    -1.067369  0.075492223   -1.7539931   0.68662409   521935 
 3250000    1.0178081   -1.7529133   -1.7529133   -1.0672639  0.076942348   -1.7529133   0.68564934   521935 
 3251000    1.0196424   -1.7533748   -1.7533748   -1.0664898  0.061459474   -1.7533748   0.68688504   521935 
 3252000    1.0198913   -1.7531323   -1.7531323   -1.0660797  0.064026785   -1.7531323   0.68705267   521935 
 3253000    1.0205392   -1.7537056   -1.7537056   -1.0662164   0.07976142   -1.7537056   0.68748916   521935 
 3254000    1.0208886   -1.7533781   -1.7533781   -1.0656536  0.065931171   -1.7533781   0.68772455   521935 
 3255000    1.0195672   -1.7528685   -1.7528685   -1.0660342  0.069365828   -1.7528685   0.68683432   521935 
 3256000    1.0181912   -1.7521384   -1.7521384    -1.066231  0.075352583   -1.7521384    0.6859074   521935 
 3257000     1.018643   -1.7525869   -1.7525869   -1.0663751   0.07088188   -1.7525869   0.68621174   521935 
 3258000    1.0184834   -1.7525632   -1.7525632    -1.066459   0.08404917   -1.7525632   0.68610421   521935 
 3259000    1.0188211   -1.7519531   -1.7519531   -1.0656213  0.071284857   -1.7519531   0.68633176   521935 
 3260000    1.0180233   -1.7515278   -1.7515278   -1.0657335  0.068652744   -1.7515278   0.68579429   521935 
 3261000    1.0194562   -1.7527777   -1.7527777   -1.0660181  0.076598523   -1.7527777    0.6867596   521935 
 3262000    1.0182468   -1.7516181   -1.7516181   -1.0656732   0.06830053   -1.7516181   0.68594486   521935 
 3263000    1.0180784   -1.7513248   -1.7513248   -1.0654933  0.076000518   -1.7513248   0.68583145   521935 
 3264000    1.0189668   -1.7521817   -1.7521817   -1.0657518  0.066295245   -1.7521817    0.6864299   521935 
 3265000    1.0182132   -1.7522621   -1.7522621   -1.0663399  0.078782929   -1.7522621   0.68592221   521935 
 3266000    1.0197955    -1.753319    -1.753319   -1.0663308  0.063349625    -1.753319   0.68698812   521935 
 3267000    1.0197086   -1.7526757   -1.7526757   -1.0657461  0.074395662   -1.7526757   0.68692959   521935 
 3268000    1.0197447   -1.7527843   -1.7527843   -1.0658304  0.072209402   -1.7527843   0.68695392   521935 
 3269000     1.020599   -1.7532581   -1.7532581   -1.0657287  0.077954279   -1.7532581   0.68752941   521935 
 3270000     1.019159   -1.7529367   -1.7529367   -1.0663773  0.072699849   -1.7529367   0.68655934   521935 
 3271000    1.0197003   -1.7539519   -1.7539519   -1.0670279  0.069577315   -1.7539519   0.68692403   521935 
 3272000    1.0203477   -1.7550682   -1.7550682    -1.067708  0.055185086   -1.7550682   0.68736014   521935 
 3273000    1.0198505   -1.7544127   -1.7544127   -1.0673875  0.078007502   -1.7544127   0.68702517   521935 
 3274000    1.0210352   -1.7552837   -1.7552837   -1.0674605  0.071881531   -1.7552837   0.68782325   521935 
 3275000    1.0191119   -1.7540258   -1.7540258   -1.0674982  0.069363532   -1.7540258   0.68652762   521935 
 3276000    1.0213216   -1.7550609   -1.7550609   -1.0670447   0.06575253   -1.7550609   0.68801623   521935 
 3277000    1.0205718   -1.7543861   -1.7543861   -1.0668749  0.068410719   -1.7543861   0.68751112   521935 
 3278000    1.0200123   -1.7537508   -1.7537508   -1.0666166  0.068792033   -1.7537508    0.6871342   521935 
 3279000    1.0209857   -1.7549543   -1.7549543   -1.0671643  0.072544172   -1.7549543   0.68778991   521935 
 3280000    1.0206722    -1.754212    -1.754212   -1.0666333  0.069478161    -1.754212   0.68757876   521935 
 3281000    1.0213516   -1.7548309   -1.7548309   -1.0667946  0.067862022   -1.7548309   0.68803638   521935 
 3282000    1.0194201   -1.7532331   -1.7532331   -1.0664979  0.070980481   -1.7532331   0.68673524   521935 
 3283000    1.0215545   -1.7544997   -1.7544997   -1.0663266  0.073026247   -1.7544997    0.6881731   521935 
 3284000    1.0213912   -1.7536225   -1.7536225   -1.0655595  0.072579835   -1.7536225   0.68806307   521935 
 3285000    1.0200819   -1.7525107   -1.7525107   -1.0653297  0.068682879   -1.7525107   0.68718106   521935 
 3286000    1.0194464   -1.7525878   -1.7525878   -1.0658348  0.057801456   -1.7525878   0.68675299   521935 
 3287000    1.0182022   -1.7518756   -1.7518756   -1.0659608  0.067819694   -1.7518756   0.68591484   521935 
 3288000    1.0175313   -1.7505895   -1.7505895   -1.0651267  0.067840004   -1.7505895   0.68546285   521935 
 3289000    1.0195213   -1.7515848   -1.7515848   -1.0647814  0.053954583   -1.7515848   0.68680343   521935 
 3290000    1.0200396   -1.7519363   -1.7519363   -1.0647838  0.054004694   -1.7519363   0.68715257   521935 
 3291000     1.020287   -1.7531791   -1.7531791   -1.0658598  0.068526104   -1.7531791   0.68731925   521935 
 3292000    1.0199447   -1.7530577   -1.7530577   -1.0659691  0.066350029   -1.7530577   0.68708865   521935 
 3293000    1.0187574   -1.7526666   -1.7526666   -1.0663778  0.059254937   -1.7526666   0.68628884   521935 
 3294000    1.0196103   -1.7528298   -1.7528298   -1.0659664  0.071118364   -1.7528298   0.68686339   521935 
 3295000      1.01946   -1.7526314   -1.7526314   -1.0658692  0.065705866   -1.7526314   0.68676213   521935 
 3296000    1.0200052    -1.753243    -1.753243   -1.0661135  0.079292717    -1.753243   0.68712941   521935 
 3297000    1.0203805   -1.7534678   -1.7534678   -1.0660855  0.072237608   -1.7534678   0.68738224   521935 
 3298000    1.0219258   -1.7544788   -1.7544788   -1.0660556  0.062402728   -1.7544788   0.68842322   521935 
 3299000    1.0189966   -1.7529653   -1.7529653   -1.0665153  0.080372111   -1.7529653   0.68644998   521935 
 3300000    1.0209343   -1.7541648   -1.7541648   -1.0664095  0.078975264   -1.7541648   0.68775531   521935 
 3301000     1.020951   -1.7541197   -1.7541197   -1.0663532  0.064278171   -1.7541197   0.68776654   521935 
 3302000    1.0206949   -1.7537988   -1.7537988   -1.0662048   0.06213633   -1.7537988   0.68759406   521935 
 3303000    1.0197152    -1.753351    -1.753351   -1.0664169  0.066272774    -1.753351   0.68693407   521935 
 3304000    1.0171267   -1.7518517   -1.7518517   -1.0666614  0.080813599   -1.7518517   0.68519033   521935 
 3305000    1.0182033    -1.752665    -1.752665   -1.0667494  0.061670344    -1.752665   0.68591554   521935 
 3306000    1.0174297   -1.7526992   -1.7526992   -1.0673048  0.076214547   -1.7526992    0.6853944   521935 
 3307000    1.0190309   -1.7533583   -1.7533583   -1.0668852  0.077372292   -1.7533583    0.6864731   521935 
 3308000    1.0190138    -1.753504    -1.753504   -1.0670424  0.078035848    -1.753504   0.68646155   521935 
 3309000    1.0179987   -1.7522252   -1.7522252   -1.0664475  0.073365781   -1.7522252   0.68577769   521935 
 3310000    1.0187158   -1.7528983   -1.7528983   -1.0666375  0.066730239   -1.7528983   0.68626083   521935 
 3311000    1.0207029   -1.7538207   -1.7538207   -1.0662212  0.063159843   -1.7538207   0.68759944   521935 
 3312000    1.0220481   -1.7544246   -1.7544246    -1.065919  0.061563337   -1.7544246   0.68850558   521935 
 3313000    1.0207363   -1.7543511   -1.7543511   -1.0667291  0.073421352   -1.7543511   0.68762195   521935 
 3314000    1.0186947   -1.7529525   -1.7529525   -1.0667059  0.068320887   -1.7529525   0.68624658   521935 
 3315000    1.0205185   -1.7532456   -1.7532456   -1.0657704  0.071433863   -1.7532456   0.68747521   521935 
 3316000    1.0210362   -1.7538751   -1.7538751   -1.0660512  0.088837801   -1.7538751   0.68782395   521935 
 3317000    1.0190757   -1.7527102   -1.7527102   -1.0662069  0.065783275   -1.7527102   0.68650324   521935 
 3318000    1.0228307   -1.7552855   -1.7552855   -1.0662526  0.073869407   -1.7552855   0.68903281   521935 
 3319000    1.0234088   -1.7555341   -1.7555341   -1.0661118  0.074999266   -1.7555341   0.68942225   521935 
 3320000    1.0224969   -1.7556798   -1.7556798   -1.0668718  0.075651713   -1.7556798   0.68880798   521935 
 3321000    1.0186001   -1.7535754   -1.7535754   -1.0673925  0.068834401   -1.7535754   0.68618283   521935 
 3322000    1.0189666   -1.7529647   -1.7529647    -1.066535  0.066224175   -1.7529647   0.68642973   521935 
 3323000    1.0200719   -1.7542995   -1.7542995   -1.0671251  0.074556614   -1.7542995   0.68717437   521935 
 3324000    1.0203244   -1.7539059   -1.7539059   -1.0665614  0.075445502   -1.7539059   0.68734445   521935 
 3325000    1.0189464   -1.7534712   -1.7534712    -1.067055  0.066867162   -1.7534712   0.68641611   521935 
 3326000    1.0204051   -1.7543857   -1.7543857   -1.0669869  0.071033524   -1.7543857   0.68739877   521935 
 3327000    1.0194137   -1.7543704   -1.7543704   -1.0676395  0.078464914   -1.7543704   0.68673094   521935 
 3328000    1.0192647   -1.7540612   -1.7540612   -1.0674306   0.07269877   -1.7540612   0.68663055   521935 
 3329000    1.0179193      -1.7522      -1.7522   -1.0664757  0.077707057      -1.7522   0.68572426   521935 
 3330000    1.0195331   -1.7532816   -1.7532816   -1.0664703  0.064593749   -1.7532816   0.68681136   521935 
 3331000    1.0190587   -1.7531941   -1.7531941   -1.0667023  0.072176346   -1.7531941   0.68649178   521935 
 3332000    1.0185396    -1.753112    -1.753112   -1.0669699  0.068615901    -1.753112   0.68614208   521935 
 3333000     1.018803   -1.7527021   -1.7527021   -1.0663826  0.055929403   -1.7527021   0.68631955   521935 
 3334000    1.0166955   -1.7517923   -1.7517923   -1.0668925  0.070344028   -1.7517923   0.68489979   521935 
 3335000    1.0194404   -1.7532565   -1.7532565   -1.0665075  0.061042907   -1.7532565   0.68674893   521935 
 3336000     1.018952   -1.7531876   -1.7531876   -1.0667677  0.077048928   -1.7531876   0.68641992   521935 
 3337000    1.0205717   -1.7538596   -1.7538596   -1.0663486   0.07482924   -1.7538596   0.68751101   521935 
 3338000    1.0195303   -1.7529801   -1.7529801   -1.0661707  0.081811844   -1.7529801   0.68680949   521935 
 3339000    1.0198741   -1.7535587   -1.7535587   -1.0665176  0.070032682   -1.7535587   0.68704109   521935 
 3340000    1.0196304   -1.7536221   -1.7536221   -1.0667452   0.06428352   -1.7536221   0.68687693   521935 
 3341000    1.0208629   -1.7551872   -1.7551872     -1.06748  0.055461933   -1.7551872   0.68770719   521935 
 3342000    1.0183028   -1.7533043   -1.7533043   -1.0673217  0.076131891   -1.7533043   0.68598256   521935 
 3343000    1.0187067    -1.753653    -1.753653   -1.0673983  0.065680941    -1.753653   0.68625469   521935 
 3344000    1.0171363   -1.7528832   -1.7528832   -1.0676864   0.06313866   -1.7528832   0.68519676   521935 
 3345000    1.0179003   -1.7538943   -1.7538943   -1.0681829  0.060162471   -1.7538943   0.68571141   521935 
 3346000    1.0177384   -1.7534054   -1.7534054   -1.0678031  0.061654466   -1.7534054   0.68560239   521935 
 3347000    1.0197805   -1.7554081   -1.7554081   -1.0684301  0.065280945   -1.7554081   0.68697803   521935 
 3348000    1.0164411   -1.7537419   -1.7537419   -1.0690134  0.072890935   -1.7537419   0.68472847   521935 
 3349000    1.0182199   -1.7542778   -1.7542778   -1.0683511  0.068680178   -1.7542778   0.68592674   521935 
 3350000    1.0172723   -1.7536723   -1.7536723   -1.0683838  0.074990047   -1.7536723   0.68528842   521935 
 3351000    1.0196246   -1.7551346   -1.7551346   -1.0682616  0.061371184   -1.7551346     0.686873   521935 
 3352000    1.0174157   -1.7535725   -1.7535725   -1.0681875  0.072742556   -1.7535725     0.685385   521935 
 3353000    1.0196175    -1.754881    -1.754881   -1.0680128  0.073574275    -1.754881   0.68686822   521935 
 3354000    1.0173006   -1.7530957   -1.7530957   -1.0677883  0.088030777   -1.7530957   0.68530747   521935 
 3355000    1.0187201   -1.7552093   -1.7552093   -1.0689456  0.073859209   -1.7552093   0.68626367   521935 
 3356000    1.0187515   -1.7543441   -1.7543441   -1.0680593  0.063697112   -1.7543441   0.68628482   521935 
 3357000    1.0203262   -1.7555396   -1.7555396    -1.068194  0.074350013   -1.7555396   0.68734564   521935 
 3358000    1.0203885   -1.7550836   -1.7550836    -1.067696  0.056477617   -1.7550836   0.68738763   521935 
 3359000    1.0212861   -1.7554037   -1.7554037   -1.0674114  0.060927282   -1.7554037   0.68799229   521935 
 3360000    1.0216163   -1.7564512   -1.7564512   -1.0682365  0.058177056   -1.7564512   0.68821476   521935 
 3361000    1.0182969   -1.7551575   -1.7551575    -1.069179  0.069989857   -1.7551575   0.68597858   521935 
 3362000    1.0197919   -1.7560939   -1.7560939   -1.0691082  0.065654517   -1.7560939    0.6869857   521935 
 3363000    1.0174596   -1.7547083   -1.7547083   -1.0692938  0.063744261   -1.7547083   0.68541455   521935 
 3364000     1.017554   -1.7542801   -1.7542801    -1.068802  0.085224586   -1.7542801   0.68547817   521935 
 3365000    1.0201738   -1.7570315   -1.7570315   -1.0697884  0.061768411   -1.7570315   0.68724301   521935 
 3366000    1.0192583   -1.7563947   -1.7563947   -1.0697684  0.061724715   -1.7563947   0.68662629   521935 
 3367000     1.021256   -1.7571532   -1.7571532   -1.0691812    0.0668974   -1.7571532   0.68797202   521935 
 3368000     1.018553   -1.7552992   -1.7552992   -1.0691481  0.072644999   -1.7552992   0.68615113   521935 
 3369000    1.0203803   -1.7562199   -1.7562199   -1.0688378  0.071624526   -1.7562199    0.6873821   521935 
 3370000    1.0212732   -1.7567619   -1.7567619   -1.0687783  0.069773477   -1.7567619   0.68798361   521935 
 3371000    1.0194954   -1.7558384   -1.7558384   -1.0690524  0.075428624   -1.7558384   0.68678596   521935 
 3372000    1.0183657   -1.7545657   -1.7545657   -1.0685407  0.084211797   -1.7545657   0.68602494   521935 
 3373000    1.0198706   -1.7561641   -1.7561641   -1.0691254  0.061056863   -1.7561641   0.68703876   521935 
 3374000    1.0208123   -1.7563911   -1.7563911    -1.068718  0.072251473   -1.7563911   0.68767314   521935 
 3375000    1.0201078   -1.7558509   -1.7558509   -1.0686524  0.074185493   -1.7558509    0.6871985   521935 
 3376000    1.0188324   -1.7553318   -1.7553318   -1.0689924  0.063315616   -1.7553318   0.68633937   521935 
 3377000    1.0189605   -1.7550136   -1.7550136   -1.0685879   0.07991803   -1.7550136   0.68642567   521935 
 3378000    1.0189571   -1.7547382   -1.7547382   -1.0683148  0.073980951   -1.7547382   0.68642336   521935 
 3379000    1.0200789   -1.7554348   -1.7554348   -1.0682557  0.068448786   -1.7554348   0.68717906   521935 
 3380000    1.0190176   -1.7547749   -1.7547749   -1.0683108  0.062394918   -1.7547749   0.68646412   521935 
 3381000     1.017187   -1.7538195   -1.7538195   -1.0685886  0.071567695   -1.7538195   0.68523091   521935 
 3382000    1.0189775   -1.7544117   -1.7544117   -1.0679746  0.069997116   -1.7544117   0.68643712   521935 
 3383000    1.0195085   -1.7546202   -1.7546202   -1.0678254  0.067348166   -1.7546202   0.68679484   521935 
 3384000    1.0181362   -1.7540401   -1.7540401   -1.0681698   0.06093051   -1.7540401   0.68587036   521935 
 3385000    1.0186136   -1.7538569   -1.7538569    -1.067665  0.063883936   -1.7538569   0.68619199   521935 
 3386000    1.0177126   -1.7536153   -1.7536153   -1.0680303  0.064204231   -1.7536153   0.68558496   521935 
 3387000    1.0197519   -1.7555757   -1.7555757   -1.0686169  0.060517871   -1.7555757   0.68695876   521935 
 3388000    1.0187675   -1.7556576   -1.7556576    -1.069362  0.065684949   -1.7556576    0.6862956   521935 
 3389000    1.0196745   -1.7554547   -1.7554547   -1.0685481  0.057096428   -1.7554547   0.68690662   521935 
 3390000    1.0192126   -1.7551532   -1.7551532   -1.0685577  0.071661347   -1.7551532   0.68659547   521935 
 3391000    1.0188115    -1.755426    -1.755426   -1.0691008  0.055865578    -1.755426   0.68632529   521935 
 3392000    1.0186908   -1.7548926   -1.7548926   -1.0686487  0.085667445   -1.7548926   0.68624394   521935 
 3393000    1.0198597   -1.7561359   -1.7561359   -1.0691045  0.073131793   -1.7561359    0.6870314   521935 
 3394000    1.0194139   -1.7557012   -1.7557012   -1.0689702  0.067902754   -1.7557012   0.68673109   521935 
 3395000    1.0177423   -1.7542804   -1.7542804   -1.0686753  0.065585354   -1.7542804   0.68560502   521935 
 3396000    1.0188505   -1.7560583   -1.7560583   -1.0697067  0.077711478   -1.7560583   0.68635158   521935 
 3397000    1.0185197   -1.7554919   -1.7554919   -1.0693632  0.076131852   -1.7554919   0.68612871   521935 
 3398000    1.0187176     -1.75528     -1.75528    -1.069018  0.070756945     -1.75528   0.68626204   521935 
 3399000    1.0206205   -1.7567879   -1.7567879    -1.069244  0.066881028   -1.7567879   0.68754388   521935 
 3400000    1.0203382   -1.7558457   -1.7558457    -1.068492  0.069087445   -1.7558457   0.68735371   521935 
 3401000    1.0193648   -1.7554429   -1.7554429   -1.0687448  0.082911801   -1.7554429   0.68669803   521935 
 3402000    1.0184637   -1.7554017   -1.7554017   -1.0693108  0.077496895   -1.7554017   0.68609096   521935 
 3403000    1.0186565   -1.7561993   -1.7561993   -1.0699784  0.070804632   -1.7561993   0.68622087   521935 
 3404000    1.0202925   -1.7574897   -1.7574897   -1.0701667  0.078294887   -1.7574897   0.68732296   521935 
 3405000    1.0206593   -1.7580688   -1.7580688   -1.0704988  0.074198306   -1.7580688   0.68757005   521935 
 3406000    1.0232106   -1.7584528   -1.7584528    -1.069164  0.076166537   -1.7584528   0.68928876   521935 
 3407000    1.0191813    -1.756175    -1.756175   -1.0696005  0.079410192    -1.756175   0.68657442   521935 
 3408000    1.0199376   -1.7566562   -1.7566562   -1.0695724  0.076658475   -1.7566562   0.68708384   521935 
 3409000    1.0201032   -1.7567131   -1.7567131   -1.0695176  0.070702632   -1.7567131   0.68719545   521935 
 3410000    1.0172328   -1.7551344   -1.7551344   -1.0698726  0.073209884   -1.7551344   0.68526177   521935 
 3411000    1.0166269   -1.7552587   -1.7552587   -1.0704051  0.071125357   -1.7552587   0.68485358   521935 
 3412000    1.0166527   -1.7549668   -1.7549668   -1.0700958  0.068147052   -1.7549668   0.68487098   521935 
 3413000    1.0157791   -1.7540038   -1.7540038   -1.0697214   0.05567913   -1.7540038   0.68428246   521935 
 3414000    1.0171649   -1.7550309   -1.7550309   -1.0698149  0.079336045   -1.7550309   0.68521603   521935 
 3415000    1.0167487   -1.7542737   -1.7542737    -1.069338  0.050149452   -1.7542737   0.68493569   521935 
 3416000    1.0193771   -1.7550701   -1.7550701   -1.0683639  0.065958285   -1.7550701   0.68670627   521935 
 3417000    1.0182048   -1.7539556   -1.7539556    -1.068039   0.06415758   -1.7539556   0.68591659   521935 
 3418000    1.0188258   -1.7545471   -1.7545471   -1.0682122  0.065705514   -1.7545471   0.68633489   521935 
 3419000    1.0189544   -1.7545927   -1.7545927   -1.0681712   0.05768867   -1.7545927   0.68642156   521935 
 3420000    1.0174544   -1.7534565   -1.7534565   -1.0680454  0.069714895   -1.7534565   0.68541107   521935 
 3421000    1.0199831   -1.7556145   -1.7556145      -1.0685  0.064074334   -1.7556145   0.68711454   521935 
 3422000    1.0210877   -1.7559485   -1.7559485   -1.0680898  0.073865695   -1.7559485   0.68785866   521935 
 3423000    1.0195984   -1.7550842   -1.7550842   -1.0682289  0.074255781   -1.7550842   0.68685535   521935 
 3424000     1.016611   -1.7530257   -1.7530257   -1.0681828  0.094382756   -1.7530257   0.68484287   521935 
 3425000     1.017153    -1.753622    -1.753622    -1.068414  0.081551312    -1.753622   0.68520802   521935 
 3426000    1.0177177   -1.7540596   -1.7540596   -1.0684711  0.063038881   -1.7540596   0.68558846   521935 
 3427000    1.0215805   -1.7561624   -1.7561624   -1.0679718  0.073267282   -1.7561624   0.68819063   521935 
 3428000    1.0193828   -1.7550407   -1.7550407   -1.0683305  0.064926437   -1.7550407   0.68671012   521935 
 3429000    1.0191941   -1.7548697   -1.7548697   -1.0682867  0.060561081   -1.7548697   0.68658298   521935 
 3430000    1.0201118   -1.7554818   -1.7554818   -1.0682805  0.067013672   -1.7554818   0.68720124   521935 
 3431000    1.0192237   -1.7544527   -1.7544527   -1.0678498  0.068683009   -1.7544527   0.68660297   521935 
 3432000    1.0213265   -1.7558448   -1.7558448   -1.0678253  0.073015573   -1.7558448    0.6880195   521935 
 3433000    1.0189116   -1.7541631   -1.7541631   -1.0677704  0.085866824   -1.7541631   0.68639271   521935 
 3434000     1.020264   -1.7550095   -1.7550095   -1.0677058  0.069505185   -1.7550095   0.68730376   521935 
 3435000    1.0181178   -1.7534595   -1.7534595   -1.0676015  0.079473196   -1.7534595   0.68585799   521935 
 3436000    1.0191968   -1.7551234   -1.7551234   -1.0685386  0.070022458   -1.7551234   0.68658482   521935 
 3437000    1.0179784   -1.7532771   -1.7532771    -1.067513  0.090403435   -1.7532771   0.68576404   521935 
 3438000    1.0215703   -1.7558387   -1.7558387   -1.0676549  0.061454092   -1.7558387   0.68818377   521935 
 3439000    1.0212875   -1.7561782   -1.7561782    -1.068185  0.082656402   -1.7561782   0.68799324   521935 
 3440000    1.0194329   -1.7549311   -1.7549311   -1.0681872   0.07208926   -1.7549311   0.68674387   521935 
 3441000    1.0194386   -1.7550425   -1.7550425   -1.0682948  0.069482754   -1.7550425   0.68674769   521935 
 3442000    1.0201769   -1.7556335   -1.7556335   -1.0683884  0.070848765   -1.7556335   0.68724505   521935 
 3443000    1.0207095   -1.7560421   -1.7560421   -1.0684382  0.075686843   -1.7560421   0.68760388   521935 
 3444000     1.021748    -1.756484    -1.756484   -1.0681805  0.058138941    -1.756484   0.68830348   521935 
 3445000    1.0201832   -1.7559568   -1.7559568   -1.0687075  0.075682047   -1.7559568   0.68724932   521935 
 3446000    1.0223592   -1.7568721   -1.7568721   -1.0681569  0.073167813   -1.7568721   0.68871517   521935 
 3447000    1.0207975   -1.7564087   -1.7564087   -1.0687456  0.083701207   -1.7564087   0.68766315   521935 
 3448000    1.0207098   -1.7567177   -1.7567177   -1.0691137  0.067019035   -1.7567177   0.68760405   521935 
 3449000    1.0198975   -1.7572958   -1.7572958    -1.070239  0.065967943   -1.7572958   0.68705686   521935 
 3450000    1.0200523   -1.7567587   -1.7567587   -1.0695976  0.082293153   -1.7567587   0.68716113   521935 
 3451000    1.0186845   -1.7558226   -1.7558226   -1.0695829  0.063111197   -1.7558226   0.68623971   521935 
 3452000    1.0196497   -1.7566557   -1.7566557   -1.0697657  0.071028575   -1.7566557   0.68688992   521935 
 3453000    1.0197431   -1.7572465   -1.7572465   -1.0702937  0.062830016   -1.7572465   0.68695287   521935 
 3454000    1.0195188   -1.7573861   -1.7573861   -1.0705844  0.074451819   -1.7573861   0.68680173   521935 
 3455000    1.0216456   -1.7589823   -1.7589823   -1.0707479  0.070185041   -1.7589823   0.68823444   521935 
 3456000    1.0210888   -1.7586671   -1.7586671   -1.0708077  0.076038114   -1.7586671   0.68785937   521935 
 3457000    1.0208569   -1.7581732   -1.7581732   -1.0704701  0.072534073   -1.7581732   0.68770319   521935 
 3458000    1.0206627   -1.7582325   -1.7582325   -1.0706602  0.071178727   -1.7582325   0.68757235   521935 
 3459000    1.0225718    -1.759368    -1.759368   -1.0705096  0.068879325    -1.759368   0.68885839   521935 
 3460000    1.0190557   -1.7568706   -1.7568706   -1.0703808  0.078265487   -1.7568706   0.68648976   521935 
 3461000    1.0180393    -1.756293    -1.756293   -1.0704879  0.083107863    -1.756293   0.68580506   521935 
 3462000    1.0160679   -1.7551269   -1.7551269   -1.0706499  0.073415004   -1.7551269   0.68447706   521935 
 3463000    1.0166442    -1.754947    -1.754947   -1.0700817  0.075677613    -1.754947   0.68486527   521935 
 3464000    1.0182598   -1.7561741   -1.7561741   -1.0702205  0.072058352   -1.7561741   0.68595359   521935 
 3465000    1.0176319   -1.7557162   -1.7557162   -1.0701856  0.062224403   -1.7557162   0.68553063   521935 
 3466000    1.0208569   -1.7580034   -1.7580034   -1.0703003  0.054845974   -1.7580034   0.68770315   521935 
 3467000    1.0185533   -1.7558471   -1.7558471   -1.0696958  0.068355976   -1.7558471   0.68615131   521935 
 3468000    1.0193416   -1.7554161   -1.7554161   -1.0687338  0.079056394   -1.7554161   0.68668236   521935 
 3469000    1.0178124   -1.7543289   -1.7543289   -1.0686767  0.082344138   -1.7543289   0.68565222   521935 
 3470000    1.0197579   -1.7563915   -1.7563915   -1.0694287  0.057231938   -1.7563915   0.68696279   521935 
 3471000    1.0198586   -1.7562889   -1.7562889   -1.0692582  0.070605091   -1.7562889   0.68703065   521935 
 3472000    1.0194549   -1.7564629   -1.7564629   -1.0697042  0.074926393   -1.7564629    0.6867587   521935 
 3473000    1.0228183   -1.7585489   -1.7585489   -1.0695245  0.069937361   -1.7585489   0.68902446   521935 
 3474000     1.019784    -1.756298    -1.756298   -1.0693176  0.082378003    -1.756298   0.68698042   521935 
 3475000    1.0208893   -1.7569377   -1.7569377   -1.0692128   0.06836823   -1.7569377   0.68772499   521935 
 3476000    1.0192279   -1.7564725   -1.7564725   -1.0698668   0.06772674   -1.7564725   0.68660578   521935 
 3477000    1.0211496   -1.7577591   -1.7577591   -1.0698588  0.079403948   -1.7577591   0.68790037   521935 
 3478000    1.0200557   -1.7573885   -1.7573885    -1.070225  0.081016995   -1.7573885   0.68716345   521935 
 3479000    1.0202437   -1.7581825   -1.7581825   -1.0708925  0.072115301   -1.7581825   0.68729006   521935 
 3480000    1.0190097    -1.757601    -1.757601   -1.0711423  0.057508183    -1.757601   0.68645877   521935 
 3481000    1.0192517   -1.7565493   -1.7565493   -1.0699275  0.071490307   -1.7565493   0.68662179   521935 
 3482000    1.0182625   -1.7552691   -1.7552691   -1.0693137  0.080440372   -1.7552691   0.68595544   521935 
 3483000    1.0179781   -1.7544186   -1.7544186   -1.0686548  0.088764033   -1.7544186   0.68576388   521935 
 3484000    1.0188105   -1.7553892   -1.7553892   -1.0690646  0.082673047   -1.7553892    0.6863246   521935 
 3485000     1.019568   -1.7556833   -1.7556833   -1.0688484  0.075336996   -1.7556833   0.68683487   521935 
 3486000    1.0182873   -1.7551914   -1.7551914   -1.0692193  0.069341866   -1.7551914   0.68597211   521935 
 3487000    1.0189359   -1.7541281   -1.7541281    -1.067719  0.071334933   -1.7541281   0.68640909   521935 
 3488000    1.0190045   -1.7554626   -1.7554626   -1.0690074   0.05565022   -1.7554626   0.68645525   521935 
 3489000    1.0175327   -1.7539727   -1.7539727   -1.0685089  0.074481392   -1.7539727   0.68546381   521935 
 3490000    1.0194267   -1.7549507   -1.7549507    -1.068211  0.082601714   -1.7549507    0.6867397   521935 
 3491000    1.0189519   -1.7540061   -1.7540061   -1.0675863  0.069750725   -1.7540061   0.68641985   521935 
 3492000    1.0218568   -1.7565733   -1.7565733   -1.0681965  0.064534915   -1.7565733   0.68837677   521935 
 3493000    1.0194824   -1.7551123   -1.7551123   -1.0683351  0.073539778   -1.7551123    0.6867772   521935 
 3494000    1.0200388   -1.7558778   -1.7558778   -1.0687257  0.070804728   -1.7558778   0.68715205   521935 
 3495000    1.0217743   -1.7568854   -1.7568854   -1.0685643   0.07122057   -1.7568854   0.68832117   521935 
 3496000    1.0196869   -1.7559225   -1.7559225   -1.0690075  0.072650372   -1.7559225   0.68691495   521935 
 3497000    1.0211701   -1.7567952   -1.7567952   -1.0688811  0.069796474   -1.7567952   0.68791413   521935 
 3498000    1.0186126    -1.755874    -1.755874   -1.0696827  0.072572941    -1.755874   0.68619125   521935 
 3499000    1.0165684   -1.7548497   -1.7548497   -1.0700355  0.074260608   -1.7548497    0.6848142   521935 
 3500000    1.0173996   -1.7552958   -1.7552958   -1.0699217  0.073584098   -1.7552958   0.68537412   521935 
 3501000    1.0181441   -1.7549443   -1.7549443   -1.0690687  0.075314081   -1.7549443   0.68587569   521935 
 3502000    1.0189806   -1.7553086   -1.7553086   -1.0688694  0.071513084   -1.7553086   0.68643919   521935 
 3503000    1.0187955   -1.7558781   -1.7558781   -1.0695636  0.084514183   -1.7558781   0.68631447   521935 
 3504000    1.0175304   -1.7556511   -1.7556511   -1.0701889  0.065739563   -1.7556511   0.68546223   521935 
 3505000    1.0174946   -1.7551721   -1.7551721   -1.0697339  0.063334458   -1.7551721   0.68543811   521935 
 3506000    1.0186518   -1.7556655   -1.7556655   -1.0694478  0.063615983   -1.7556655   0.68621771   521935 
 3507000    1.0187784   -1.7558439   -1.7558439    -1.069541  0.081936813   -1.7558439   0.68630298   521935 
 3508000    1.0167864   -1.7542564   -1.7542564   -1.0692954  0.065801799   -1.7542564   0.68496105   521935 
 3509000    1.0195863   -1.7559257   -1.7559257   -1.0690784  0.070971071   -1.7559257   0.68684723   521935 
 3510000    1.0185806   -1.7558816   -1.7558816   -1.0697119  0.070575625   -1.7558816   0.68616973   521935 
 3511000    1.0182911   -1.7553702   -1.7553702   -1.0693955  0.074483779   -1.7553702    0.6859747   521935 
 3512000     1.019998   -1.7556803   -1.7556803   -1.0685557  0.073039189   -1.7556803   0.68712459   521935 
 3513000    1.0195578    -1.756033    -1.756033    -1.069205  0.069466049    -1.756033     0.686828   521935 
 3514000    1.0202212   -1.7561966   -1.7561966   -1.0689217  0.077087527   -1.7561966    0.6872749   521935 
 3515000    1.0197784   -1.7556466   -1.7556466     -1.06867  0.080066665   -1.7556466   0.68697666   521935 
 3516000    1.0184888   -1.7552307   -1.7552307   -1.0691228  0.066089084   -1.7552307   0.68610786   521935 
 3517000    1.0196689   -1.7559519   -1.7559519   -1.0690491   0.07690549   -1.7559519   0.68690285   521935 
 3518000    1.0211975    -1.756563    -1.756563   -1.0686304  0.068286204    -1.756563    0.6879326   521935 
 3519000    1.0219345    -1.757127    -1.757127   -1.0686979  0.075709397    -1.757127   0.68842907   521935 
 3520000    1.0218246    -1.757686    -1.757686   -1.0693309  0.062131762    -1.757686   0.68835506   521935 
 3521000    1.0194018    -1.756549    -1.756549   -1.0698261  0.089761677    -1.756549   0.68672296   521935 
 3522000    1.0194917   -1.7567622   -1.7567622   -1.0699787  0.084438043   -1.7567622    0.6867835   521935 
 3523000    1.0200661   -1.7566633   -1.7566633   -1.0694929  0.081668585   -1.7566633   0.68717041   521935 
 3524000    1.0189447   -1.7562263   -1.7562263   -1.0698113   0.07425744   -1.7562263   0.68641502   521935 
 3525000    1.0191948   -1.7561627   -1.7561627   -1.0695792   0.07143601   -1.7561627   0.68658347   521935 
 3526000     1.021512   -1.7571426   -1.7571426   -1.0689981  0.066432696   -1.7571426   0.68814445   521935 
 3527000    1.0196039    -1.755651    -1.755651   -1.0687919  0.064341819    -1.755651   0.68685904   521935 
 3528000    1.0187057   -1.7560107   -1.7560107   -1.0697567  0.062207246   -1.7560107   0.68625398   521935 
 3529000    1.0197875   -1.7565427   -1.7565427   -1.0695599  0.072798665   -1.7565427   0.68698278   521935 
 3530000    1.0187609   -1.7549293   -1.7549293   -1.0686381  0.077539299   -1.7549293   0.68629118   521935 
 3531000    1.0197357   -1.7558535   -1.7558535   -1.0689056  0.062238565   -1.7558535   0.68694788   521935 
 3532000    1.0199773   -1.7559682   -1.7559682   -1.0688576  0.074915253   -1.7559682   0.68711062   521935 
 3533000    1.0195918   -1.7556182   -1.7556182   -1.0687673  0.075201824   -1.7556182   0.68685095   521935 
 3534000    1.0214978    -1.756574    -1.756574   -1.0684392  0.081436936    -1.756574   0.68813489   521935 
 3535000    1.0202747   -1.7564957   -1.7564957   -1.0691848  0.075509789   -1.7564957   0.68731098   521935 
 3536000    1.0213078   -1.7562274   -1.7562274   -1.0682205  0.069785482   -1.7562274    0.6880069   521935 
 3537000    1.0180139   -1.7555984   -1.7555984   -1.0698104  0.088786425   -1.7555984   0.68578799   521935 
 3538000    1.0174593   -1.7555982   -1.7555982   -1.0701838  0.066711958   -1.7555982   0.68541437   521935 
 3539000    1.0194484   -1.7566637   -1.7566637   -1.0699094  0.067903926   -1.7566637    0.6867543   521935 
 3540000    1.0191572   -1.7560086   -1.7560086   -1.0694504  0.079027831   -1.7560086   0.68655818   521935 
 3541000    1.0181445   -1.7559125   -1.7559125   -1.0700366  0.078546007   -1.7559125   0.68587596   521935 
 3542000    1.0191769     -1.75643     -1.75643   -1.0698586  0.077506258     -1.75643   0.68657146   521935 
 3543000    1.0181424   -1.7555299   -1.7555299   -1.0696553  0.079857256   -1.7555299   0.68587452   521935 
 3544000    1.0195029   -1.7564012   -1.7564012   -1.0696101  0.063119505   -1.7564012   0.68679104   521935 
 3545000    1.0195117   -1.7560971   -1.7560971   -1.0693002  0.068434394   -1.7560971   0.68679694   521935 
 3546000    1.0183913   -1.7556098   -1.7556098   -1.0695676  0.062313406   -1.7556098    0.6860422   521935 
 3547000    1.0211232   -1.7572354   -1.7572354   -1.0693528  0.058249031   -1.7572354   0.68788255   521935 
 3548000     1.021152   -1.7563387   -1.7563387   -1.0684367   0.05679706   -1.7563387   0.68790198   521935 
 3549000    1.0187933   -1.7552591   -1.7552591   -1.0689461  0.069165883   -1.7552591     0.686313   521935 
 3550000    1.0201834   -1.7554048   -1.7554048   -1.0681554  0.068218101   -1.7554048   0.68724944   521935 
 3551000    1.0203297    -1.755018    -1.755018     -1.06767  0.073912194    -1.755018   0.68734801   521935 
 3552000    1.0191831   -1.7545772   -1.7545772   -1.0680015  0.055531146   -1.7545772   0.68657563   521935 
 3553000    1.0208447   -1.7552473   -1.7552473   -1.0675524  0.063342686   -1.7552473   0.68769494   521935 
 3554000    1.0229101   -1.7559991   -1.7559991   -1.0669128  0.071952772   -1.7559991   0.68908632   521935 
 3555000    1.0217973   -1.7551248   -1.7551248   -1.0667882  0.076913221   -1.7551248   0.68833669   521935 
 3556000    1.0214677   -1.7552529   -1.7552529   -1.0671383  0.063610079   -1.7552529   0.68811462   521935 
 3557000    1.0181644   -1.7530201   -1.7530201   -1.0671307  0.078783238   -1.7530201   0.68588932   521935 
 3558000    1.0185313   -1.7527674   -1.7527674   -1.0666309  0.066715639   -1.7527674   0.68613654   521935 
 3559000    1.0192416   -1.7530425   -1.7530425   -1.0664275  0.069089158   -1.7530425   0.68661499   521935 
 3560000    1.0193364   -1.7524588   -1.7524588   -1.0657799  0.061406446   -1.7524588   0.68667885   521935 
 3561000    1.0223554   -1.7546286   -1.7546286    -1.065916  0.070498108   -1.7546286    0.6887126   521935 
 3562000    1.0181691   -1.7527273   -1.7527273   -1.0668348  0.067719103   -1.7527273   0.68589253   521935 
 3563000    1.0209624   -1.7547798   -1.7547798   -1.0670056  0.071374573   -1.7547798   0.68777425   521935 
 3564000    1.0185287    -1.752822    -1.752822   -1.0666872  0.071298885    -1.752822   0.68613476   521935 
 3565000    1.0191409   -1.7528233   -1.7528233   -1.0662762  0.080787361   -1.7528233   0.68654714   521935 
 3566000    1.0184168   -1.7528758   -1.7528758   -1.0668164  0.065560499   -1.7528758   0.68605936   521935 
 3567000    1.0165273   -1.7521553   -1.7521553   -1.0673688  0.076986587   -1.7521553   0.68478651   521935 
 3568000    1.0200002   -1.7539167   -1.7539167   -1.0667906  0.070226064   -1.7539167   0.68712605   521935 
 3569000    1.0217141    -1.754615    -1.754615   -1.0663344  0.061686947    -1.754615   0.68828061   521935 
 3570000    1.0183584   -1.7540387   -1.7540387   -1.0680187  0.058300942   -1.7540387   0.68602006   521935 
 3571000     1.020079   -1.7551643   -1.7551643   -1.0679851  0.068959778   -1.7551643   0.68717916   521935 
 3572000    1.0180188   -1.7547799   -1.7547799   -1.0689887  0.075242426   -1.7547799   0.68579125   521935 
 3573000    1.0186276   -1.7544474   -1.7544474    -1.068246  0.084133598   -1.7544474   0.68620141   521935 
 3574000    1.0208591   -1.7566084   -1.7566084   -1.0689038  0.071064136   -1.7566084   0.68770466   521935 
 3575000    1.0219909   -1.7557445   -1.7557445   -1.0672774  0.067467248   -1.7557445    0.6884671   521935 
 3576000    1.0198631   -1.7543194   -1.7543194   -1.0672857  0.071337533   -1.7543194   0.68703366   521935 
 3577000    1.0195724   -1.7544178   -1.7544178   -1.0675799  0.066426054   -1.7544178   0.68683789   521935 
 3578000    1.0208102   -1.7553151   -1.7553151   -1.0676434  0.066229254   -1.7553151   0.68767172   521935 
 3579000    1.0212878   -1.7563386   -1.7563386   -1.0683451  0.070514381   -1.7563386   0.68799343   521935 
 3580000    1.0191931   -1.7543384   -1.7543384   -1.0677561  0.068313029   -1.7543384   0.68658231   521935 
 3581000     1.017986   -1.7533431   -1.7533431    -1.067574  0.082579504   -1.7533431   0.68576915   521935 
 3582000    1.0184857   -1.7543552   -1.7543552   -1.0682494  0.061905533   -1.7543552   0.68610578   521935 
 3583000    1.0200799   -1.7552154   -1.7552154   -1.0680357  0.065356112   -1.7552154   0.68717972   521935 
 3584000    1.0194877   -1.7551903   -1.7551903   -1.0684095  0.079378919   -1.7551903   0.68678082   521935 
 3585000    1.0180687   -1.7547677   -1.7547677   -1.0689428  0.066038456   -1.7547677   0.68582488   521935 
 3586000    1.0195561   -1.7560402   -1.7560402   -1.0692133  0.075062248   -1.7560402   0.68682686   521935 
 3587000    1.0177155   -1.7545745   -1.7545745   -1.0689876  0.068426924   -1.7545745   0.68558694   521935 
 3588000    1.0154956   -1.7530922   -1.7530922   -1.0690007  0.073365431   -1.7530922   0.68409151   521935 
 3589000     1.016952   -1.7542801   -1.7542801   -1.0692075  0.073914413   -1.7542801   0.68507263   521935 
 3590000    1.0181571   -1.7551778   -1.7551778   -1.0692934  0.073821153   -1.7551778   0.68588446   521935 
 3591000    1.0208935   -1.7567458   -1.7567458    -1.069018  0.067778335   -1.7567458   0.68772781   521935 
 3592000    1.0201188   -1.7565787   -1.7565787   -1.0693728  0.072803397   -1.7565787   0.68720592   521935 
 3593000     1.020774   -1.7561917   -1.7561917   -1.0685443  0.054417316   -1.7561917   0.68764733   521935 
 3594000    1.0194247   -1.7555988   -1.7555988   -1.0688604  0.072925168   -1.7555988   0.68673837   521935 
 3595000    1.0198272   -1.7558422   -1.7558422   -1.0688327  0.065741376   -1.7558422    0.6870095   521935 
 3596000    1.0201304   -1.7557219   -1.7557219   -1.0685082  0.075392188   -1.7557219   0.68721376   521935 
 3597000    1.0189211   -1.7552869   -1.7552869   -1.0688878   0.07605862   -1.7552869   0.68639913   521935 
 3598000     1.019165   -1.7550394   -1.7550394    -1.068476  0.068638999   -1.7550394    0.6865634   521935 
 3599000    1.0198672   -1.7559577   -1.7559577   -1.0689213   0.08244048   -1.7559577   0.68703642   521935 
 3600000    1.0209106     -1.75568     -1.75568   -1.0679407  0.079345749     -1.75568   0.68773931   521935 
 3601000    1.0194122    -1.755731    -1.755731   -1.0690011  0.070523975    -1.755731    0.6867299   521935 
 3602000    1.0177627   -1.7547951   -1.7547951   -1.0691763  0.063175739   -1.7547951   0.68561877   521935 
 3603000    1.0200654   -1.7561923   -1.7561923   -1.0690224  0.066729756   -1.7561923   0.68716996   521935 
 3604000    1.0187452   -1.7550258   -1.7550258   -1.0687452   0.07180077   -1.7550258   0.68628062   521935 
 3605000    1.0170204   -1.7544017   -1.7544017    -1.069283  0.080608292   -1.7544017   0.68511867   521935 
 3606000    1.0190266   -1.7558051   -1.7558051   -1.0693349  0.061536561   -1.7558051   0.68647019   521935 
 3607000    1.0194656   -1.7562527   -1.7562527   -1.0694868  0.058816907   -1.7562527   0.68676593   521935 
 3608000    1.0182254    -1.755619    -1.755619   -1.0696885  0.077089233    -1.755619   0.68593042   521935 
 3609000    1.0221678    -1.757219    -1.757219   -1.0686327  0.068273093    -1.757219   0.68858625   521935 
 3610000    1.0220054   -1.7574739   -1.7574739   -1.0689971  0.075080014   -1.7574739   0.68847685   521935 
 3611000    1.0209796   -1.7566162   -1.7566162   -1.0688304  0.074003992   -1.7566162   0.68778579   521935 
 3612000    1.0198775   -1.7552997   -1.7552997   -1.0682563  0.065106231   -1.7552997   0.68704342   521935 
 3613000    1.0193939   -1.7554478   -1.7554478   -1.0687302  0.074673016   -1.7554478   0.68671763   521935 
 3614000    1.0200038   -1.7561687   -1.7561687   -1.0690403  0.066159169   -1.7561687   0.68712844   521935 
 3615000    1.0185233   -1.7554632   -1.7554632   -1.0693321  0.081528537   -1.7554632   0.68613111   521935 
 3616000     1.020719   -1.7562844   -1.7562844   -1.0686742  0.075558149   -1.7562844   0.68761028   521935 
 3617000    1.0215024   -1.7561227   -1.7561227   -1.0679847  0.079735522   -1.7561227   0.68813797   521935 
 3618000    1.0207592   -1.7559292   -1.7559292   -1.0682919  0.066731483   -1.7559292   0.68763732   521935 
 3619000    1.0211087   -1.7564946   -1.7564946   -1.0686218  0.081108099   -1.7564946   0.68787279   521935 
 3620000    1.0186278   -1.7546993   -1.7546993   -1.0684978  0.072302599   -1.7546993    0.6862015   521935 
 3621000    1.0216458   -1.7570695   -1.7570695   -1.0688348  0.064830302   -1.7570695   0.68823463   521935 
 3622000    1.0197374   -1.7550786   -1.7550786   -1.0681295  0.079398847   -1.7550786   0.68694903   521935 
 3623000    1.0200695   -1.7550808   -1.7550808    -1.067908  0.085213605   -1.7550808   0.68717275   521935 
 3624000    1.0213499   -1.7563568   -1.7563568   -1.0683215  0.075879674   -1.7563568   0.68803525   521935 
 3625000    1.0188677   -1.7549368   -1.7549368   -1.0685737   0.06727691   -1.7549368   0.68636315   521935 
 3626000    1.0177381   -1.7548219   -1.7548219   -1.0692197  0.072797182   -1.7548219    0.6856022   521935 
 3627000    1.0191359   -1.7556814   -1.7556814   -1.0691376  0.063257261   -1.7556814   0.68654378   521935 
 3628000     1.019279   -1.7551645   -1.7551645   -1.0685243  0.074889524   -1.7551645    0.6866402   521935 
 3629000    1.0207896   -1.7564487   -1.7564487   -1.0687909  0.082377694   -1.7564487   0.68765781   521935 
 3630000    1.0188334   -1.7558107   -1.7558107   -1.0694707  0.074492576   -1.7558107   0.68634001   521935 
 3631000    1.0187237   -1.7565633   -1.7565633   -1.0702971  0.075971179   -1.7565633   0.68626612   521935 
 3632000    1.0181129    -1.755604    -1.755604   -1.0697493  0.075518034    -1.755604   0.68585464   521935 
 3633000    1.0198417   -1.7562634   -1.7562634   -1.0692441  0.061299245   -1.7562634   0.68701924   521935 
 3634000    1.0179682   -1.7552028   -1.7552028   -1.0694456  0.073564775   -1.7552028   0.68575715   521935 
 3635000    1.0198333   -1.7561971   -1.7561971   -1.0691834  0.085675116   -1.7561971   0.68701363   521935 
 3636000    1.0155034   -1.7528943   -1.7528943   -1.0687975  0.069860924   -1.7528943   0.68409678   521935 
 3637000    1.0166278   -1.7540905   -1.7540905   -1.0692363  0.064720682   -1.7540905   0.68485421   521935 
 3638000    1.0196589   -1.7563542   -1.7563542   -1.0694581  0.061212036   -1.7563542   0.68689611   521935 
 3639000    1.0165242   -1.7549881   -1.7549881   -1.0702037  0.054504914   -1.7549881   0.68478443   521935 
 3640000    1.0183714   -1.7548013   -1.7548013   -1.0687725  0.059497029   -1.7548013   0.68602877   521935 
 3641000    1.0188954   -1.7548365   -1.7548365   -1.0684548  0.073453406   -1.7548365   0.68638176   521935 
 3642000    1.0216404   -1.7566566   -1.7566566   -1.0684256  0.073226115   -1.7566566   0.68823096   521935 
 3643000    1.0196588   -1.7561254   -1.7561254   -1.0692293  0.068469406   -1.7561254   0.68689605   521935 
 3644000     1.019822   -1.7562214   -1.7562214   -1.0692155  0.077882732   -1.7562214     0.687006   521935 
 3645000    1.0203345   -1.7567054   -1.7567054   -1.0693542  0.055640798   -1.7567054   0.68735124   521935 
 3646000    1.0218029   -1.7577679   -1.7577679   -1.0694275    0.0560554   -1.7577679   0.68834044   521935 
 3647000    1.0221144   -1.7581858   -1.7581858   -1.0696355  0.073967671   -1.7581858   0.68855025   521935 
 3648000    1.0183101   -1.7551944   -1.7551944   -1.0692069  0.083565048   -1.7551944    0.6859875   521935 
 3649000    1.0185837   -1.7556342   -1.7556342   -1.0694624  0.069522489   -1.7556342   0.68617181   521935 
 3650000    1.0212205   -1.7574122   -1.7574122   -1.0694641  0.065315001   -1.7574122   0.68794811   521935 
 3651000    1.0186155   -1.7561487   -1.7561487   -1.0699555  0.075111693   -1.7561487   0.68619325   521935 
 3652000    1.0187218   -1.7558535   -1.7558535   -1.0695887  0.071618946   -1.7558535   0.68626482   521935 
 3653000     1.019954   -1.7562871   -1.7562871   -1.0691922   0.06472981   -1.7562871    0.6870949   521935 
 3654000    1.0210751   -1.7576709   -1.7576709   -1.0698208  0.070000051   -1.7576709   0.68785016   521935 
 3655000    1.0198063   -1.7566344   -1.7566344   -1.0696389  0.066147266   -1.7566344   0.68699544   521935 
 3656000    1.0211536   -1.7570191   -1.7570191   -1.0691161  0.068527074   -1.7570191   0.68790301   521935 
 3657000    1.0210282   -1.7573254   -1.7573254   -1.0695069  0.056732109   -1.7573254   0.68781857   521935 
 3658000    1.0176449   -1.7556186   -1.7556186   -1.0700792  0.078932354   -1.7556186   0.68553938   521935 
 3659000    1.0197145   -1.7566633   -1.7566633   -1.0697297  0.069541043   -1.7566633   0.68693358   521935 
 3660000    1.0198499   -1.7563266   -1.7563266   -1.0693018  0.077673525   -1.7563266   0.68702481   521935 
 3661000    1.0190494   -1.7565254   -1.7565254   -1.0700399   0.08182712   -1.7565254   0.68648554   521935 
 3662000    1.0189347   -1.7569643   -1.7569643   -1.0705561  0.065732748   -1.7569643   0.68640826   521935 
 3663000    1.0176896       -1.757       -1.757   -1.0714305  0.066031915       -1.757   0.68556953   521935 
 3664000    1.0191205   -1.7570251   -1.7570251   -1.0704917  0.061362935   -1.7570251   0.68653341   521935 
 3665000    1.0188316   -1.7559068   -1.7559068   -1.0695679  0.075939915   -1.7559068   0.68633883   521935 
 3666000    1.0203079   -1.7567748   -1.7567748   -1.0694416  0.074276524   -1.7567748    0.6873333   521935 
 3667000    1.0209962    -1.757692    -1.757692    -1.069895  0.067056675    -1.757692   0.68779703   521935 
 3668000    1.0202488    -1.758257    -1.758257   -1.0709635  0.075413028    -1.758257   0.68729349   521935 
 3669000    1.0207964   -1.7578959   -1.7578959   -1.0702335  0.072352655   -1.7578959   0.68766239   521935 
 3670000     1.019432   -1.7573506   -1.7573506   -1.0706074  0.073853272   -1.7573506   0.68674325   521935 
 3671000    1.0202806   -1.7578728   -1.7578728   -1.0705579  0.069595893   -1.7578728   0.68731492   521935 
 3672000    1.0175666   -1.7558249   -1.7558249   -1.0703382  0.083253139   -1.7558249   0.68548664   521935 
 3673000    1.0185468   -1.7568021   -1.7568021   -1.0706552  0.067215388   -1.7568021   0.68614695   521935 
 3674000    1.0188703   -1.7569793   -1.7569793   -1.0706144  0.075267715   -1.7569793   0.68636487   521935 
 3675000    1.0195681   -1.7572164   -1.7572164   -1.0703815  0.069772114   -1.7572164   0.68683496   521935 
 3676000    1.0199931   -1.7575124   -1.7575124   -1.0703911  0.075635589   -1.7575124   0.68712129   521935 
 3677000    1.0201462   -1.7572779   -1.7572779   -1.0700535  0.062651209   -1.7572779   0.68722438   521935 
 3678000    1.0181804   -1.7561884   -1.7561884   -1.0702883  0.071645475   -1.7561884   0.68590012   521935 
 3679000    1.0198588   -1.7572076   -1.7572076   -1.0701768   0.06854417   -1.7572076   0.68703081   521935 
 3680000    1.0204921   -1.7574116   -1.7574116   -1.0699542  0.067834267   -1.7574116   0.68745742   521935 
 3681000    1.0205476   -1.7574202   -1.7574202   -1.0699254  0.066989193   -1.7574202   0.68749482   521935 
 3682000    1.0195133    -1.756645    -1.756645    -1.069847  0.062027159    -1.756645   0.68679804   521935 
 3683000    1.0191446   -1.7558877   -1.7558877    -1.069338  0.054736333   -1.7558877   0.68654968   521935 
 3684000    1.0207868   -1.7569205   -1.7569205   -1.0692645  0.079699402   -1.7569205   0.68765594   521935 
 3685000    1.0202498   -1.7572825   -1.7572825   -1.0699883  0.068037411   -1.7572825   0.68729422   521935 
 3686000    1.0180468   -1.7557646   -1.7557646   -1.0699545  0.070508182   -1.7557646   0.68581012   521935 
 3687000    1.0196158   -1.7566483   -1.7566483   -1.0697812  0.072320173   -1.7566483    0.6868671   521935 
 3688000    1.0186061   -1.7566022   -1.7566022   -1.0704153  0.074562014   -1.7566022   0.68618689   521935 
 3689000    1.0153047   -1.7552238   -1.7552238   -1.0712608  0.076814147   -1.7552238   0.68396292   521935 
 3690000    1.0169443   -1.7563818   -1.7563818   -1.0713143  0.076660326   -1.7563818   0.68506744   521935 
 3691000    1.0188926   -1.7575114   -1.7575114   -1.0711315  0.072058904   -1.7575114   0.68637988   521935 
 3692000     1.018064   -1.7575077   -1.7575077    -1.071686  0.071810334   -1.7575077   0.68582168   521935 
 3693000    1.0204645   -1.7582016   -1.7582016   -1.0707627  0.076800475   -1.7582016   0.68743884   521935 
 3694000    1.0203841    -1.758972    -1.758972   -1.0715873  0.068501215    -1.758972   0.68738464   521935 
 3695000    1.0199342   -1.7592158   -1.7592158   -1.0721342  0.071212415   -1.7592158   0.68708161   521935 
 3696000    1.0187746   -1.7593252   -1.7593252   -1.0730247  0.074527514   -1.7593252   0.68630045   521935 
 3697000    1.0175162   -1.7588485   -1.7588485   -1.0733958  0.067237844   -1.7588485    0.6854527   521935 
 3698000    1.0208802   -1.7613458   -1.7613458   -1.0736269  0.075139644   -1.7613458   0.68771888   521935 
 3699000    1.0205275   -1.7597874   -1.7597874   -1.0723061  0.077737679   -1.7597874   0.68748123   521935 
 3700000    1.0205783   -1.7608312   -1.7608312   -1.0733157  0.081449516   -1.7608312   0.68751547   521935 
 3701000    1.0192932   -1.7607562   -1.7607562   -1.0741065  0.064545166   -1.7607562   0.68664977   521935 
 3702000    1.0213704   -1.7615979   -1.7615979   -1.0735488  0.070565373   -1.7615979    0.6880491   521935 
 3703000    1.0214008   -1.7612237   -1.7612237   -1.0731541   0.07234008   -1.7612237   0.68806955   521935 
 3704000    1.0194977   -1.7602753   -1.7602753   -1.0734878  0.068164003   -1.7602753   0.68678753   521935 
 3705000    1.0179616   -1.7591355   -1.7591355   -1.0733827  0.069371843   -1.7591355   0.68575274   521935 
 3706000    1.0176277   -1.7592781   -1.7592781   -1.0737503  0.067487188   -1.7592781    0.6855278   521935 
 3707000    1.0175098   -1.7592247   -1.7592247   -1.0737763  0.067343887   -1.7592247   0.68544841   521935 
 3708000     1.017665   -1.7586738   -1.7586738   -1.0731209  0.064217297   -1.7586738   0.68555293   521935 
 3709000    1.0169761   -1.7581846   -1.7581846   -1.0730957  0.071192602   -1.7581846   0.68508886   521935 
 3710000    1.0165961   -1.7576102   -1.7576102   -1.0727774  0.065469448   -1.7576102   0.68483283   521935 
 3711000    1.0179612   -1.7587898   -1.7587898   -1.0730373  0.067052847   -1.7587898   0.68575248   521935 
 3712000    1.0159604   -1.7566836   -1.7566836    -1.072279  0.075001256   -1.7566836   0.68440459   521935 
 3713000     1.017416   -1.7585824   -1.7585824   -1.0731972  0.073761059   -1.7585824   0.68538518   521935 
 3714000    1.0162437   -1.7583246   -1.7583246   -1.0737291  0.051949786   -1.7583246   0.68459548   521935 
 3715000    1.0161301   -1.7580606   -1.7580606   -1.0735416  0.064744786   -1.7580606   0.68451896   521935 
 3716000     1.016594   -1.7576829   -1.7576829   -1.0728514  0.067533615   -1.7576829   0.68483146   521935 
 3717000    1.0185423   -1.7584022   -1.7584022   -1.0722583  0.057097549   -1.7584022   0.68614391   521935 
 3718000    1.0169204   -1.7572561   -1.7572561   -1.0722048  0.070214899   -1.7572561   0.68505132   521935 
 3719000    1.0187385   -1.7576876   -1.7576876   -1.0714115  0.073977689   -1.7576876   0.68627612   521935 
 3720000    1.0207137   -1.7581784   -1.7581784   -1.0705718  0.056782892   -1.7581784   0.68760667   521935 
 3721000    1.0202466     -1.75852     -1.75852    -1.071228  0.067121498     -1.75852   0.68729206   521935 
 3722000     1.018416   -1.7580702   -1.7580702   -1.0720114  0.065657757   -1.7580702   0.68605881   521935 
 3723000    1.0156052   -1.7573196   -1.7573196   -1.0731543  0.067376585   -1.7573196    0.6841653   521935 
 3724000    1.0154927   -1.7574468   -1.7574468   -1.0733573  0.056846041   -1.7574468   0.68408954   521935 
 3725000    1.0151544   -1.7565288   -1.7565288   -1.0726671  0.065848429   -1.7565288   0.68386163   521935 
 3726000    1.0162443   -1.7569358   -1.7569358   -1.0723399   0.06910299   -1.7569358   0.68459588   521935 
 3727000    1.0184755   -1.7585984   -1.7585984   -1.0724995  0.060738906   -1.7585984   0.68609892   521935 
 3728000    1.0194812   -1.7592848   -1.7592848   -1.0725084  0.061258118   -1.7592848    0.6867764   521935 
 3729000    1.0179735   -1.7573476   -1.7573476   -1.0715868   0.08699265   -1.7573476   0.68576077   521935 
 3730000    1.0224078   -1.7606251   -1.7606251   -1.0718772  0.077911545   -1.7606251   0.68874796   521935 
 3731000    1.0216242   -1.7604013   -1.7604013   -1.0721813  0.065165999   -1.7604013   0.68822005   521935 
 3732000    1.0191617   -1.7603898   -1.7603898   -1.0738286   0.07224055   -1.7603898    0.6865612   521935 
 3733000    1.0202848   -1.7613122   -1.7613122   -1.0739944   0.07418553   -1.7613122   0.68731777   521935 
 3734000    1.0192612   -1.7591204   -1.7591204   -1.0724922   0.07135907   -1.7591204    0.6866282   521935 
 3735000    1.0231468   -1.7614596   -1.7614596   -1.0722138  0.065992911   -1.7614596   0.68924574   521935 
 3736000    1.0204111    -1.759134    -1.759134   -1.0717311  0.065529957    -1.759134   0.68740288   521935 
 3737000    1.0204067   -1.7596255   -1.7596255   -1.0722256  0.077513411   -1.7596255   0.68739991   521935 
 3738000    1.0197167   -1.7591154   -1.7591154   -1.0721803  0.065035213   -1.7591154   0.68693505   521935 
 3739000    1.0194568   -1.7588438   -1.7588438   -1.0720838  0.052973367   -1.7588438   0.68675999   521935 
 3740000    1.0191429   -1.7596126   -1.7596126   -1.0730641   0.06857198   -1.7596126    0.6865485   521935 
 3741000    1.0158804    -1.756899    -1.756899   -1.0725483  0.058725197    -1.756899   0.68435076   521935 
 3742000    1.0177774   -1.7573063   -1.7573063   -1.0716777  0.062404569   -1.7573063   0.68562867   521935 
 3743000    1.0185618   -1.7574256   -1.7574256   -1.0712685  0.064245802   -1.7574256   0.68615707   521935 
 3744000    1.0189815   -1.7581886   -1.7581886   -1.0717488  0.061008561   -1.7581886   0.68643976   521935 
 3745000    1.0178421    -1.757466    -1.757466   -1.0717938  0.090969578    -1.757466   0.68567223   521935 
 3746000    1.0183925   -1.7581324   -1.7581324   -1.0720894   0.06812845   -1.7581324   0.68604298   521935 
 3747000    1.0182419   -1.7581541   -1.7581541   -1.0722126  0.070623126   -1.7581541   0.68594155   521935 
 3748000    1.0188729   -1.7584551   -1.7584551   -1.0720885  0.067710749   -1.7584551   0.68636661   521935 
 3749000    1.0168898   -1.7580013   -1.7580013   -1.0729705  0.073468795   -1.7580013   0.68503072   521935 
 3750000    1.0185018   -1.7590127   -1.7590127    -1.072896  0.076300812   -1.7590127   0.68611665   521935 
 3751000    1.0194283   -1.7594958   -1.7594958    -1.072755    0.0678855   -1.7594958    0.6867408   521935 
 3752000    1.0203166   -1.7600124   -1.7600124   -1.0726732   0.07074462   -1.7600124   0.68733921   521935 
 3753000    1.0215714   -1.7611071   -1.7611071   -1.0729226  0.074115624   -1.7611071   0.68818451   521935 
 3754000    1.0203623   -1.7604666   -1.7604666   -1.0730966  0.082060899   -1.7604666   0.68736999   521935 
 3755000    1.0188155   -1.7597193   -1.7597193   -1.0733914  0.054608285   -1.7597193   0.68632793   521935 
 3756000    1.0187979   -1.7607353   -1.7607353   -1.0744191  0.071648646   -1.7607353   0.68631612   521935 
 3757000     1.019169   -1.7604725   -1.7604725   -1.0739064  0.068845436   -1.7604725   0.68656609   521935 
 3758000    1.0169517   -1.7591872   -1.7591872   -1.0741148  0.073347888   -1.7591872    0.6850724   521935 
 3759000    1.0181672   -1.7597978   -1.7597978   -1.0739065  0.069450343   -1.7597978   0.68589121   521935 
 3760000    1.0172472   -1.7595276   -1.7595276   -1.0742561  0.087575162   -1.7595276   0.68527144   521935 
 3761000    1.0185147   -1.7607749   -1.7607749   -1.0746496  0.061866022   -1.7607749   0.68612532   521935 
 3762000    1.0211345   -1.7620458   -1.7620458   -1.0741556  0.070372583   -1.7620458   0.68789016   521935 
 3763000     1.019711   -1.7606033   -1.7606033   -1.0736721  0.079412915   -1.7606033   0.68693121   521935 
 3764000    1.0198679   -1.7608265   -1.7608265   -1.0737895  0.068642383   -1.7608265   0.68703691   521935 
 3765000     1.020568   -1.7612741   -1.7612741   -1.0737655  0.071243441   -1.7612741   0.68750857   521935 
 3766000    1.0199175   -1.7606238   -1.7606238   -1.0735535  0.079790586   -1.7606238   0.68707032   521935 
 3767000    1.0189094   -1.7593729   -1.7593729   -1.0729817  0.058162749   -1.7593729   0.68639125   521935 
 3768000     1.017256   -1.7589038   -1.7589038   -1.0736264   0.07955318   -1.7589038   0.68527742   521935 
 3769000    1.0179407   -1.7593326   -1.7593326   -1.0735939  0.068381403   -1.7593326   0.68573863   521935 
 3770000    1.0191173   -1.7603424   -1.7603424   -1.0738111  0.077808018   -1.7603424   0.68653131   521935 
 3771000    1.0173611   -1.7590454   -1.7590454   -1.0736972   0.07088207   -1.7590454   0.68534818   521935 
 3772000      1.01525   -1.7581641   -1.7581641    -1.074238  0.070674477   -1.7581641   0.68392604   521935 
 3773000    1.0166003   -1.7586053   -1.7586053   -1.0737696  0.070756983   -1.7586053   0.68483566   521935 
 3774000    1.0180628    -1.758571    -1.758571   -1.0727501  0.064803148    -1.758571   0.68582091   521935 
 3775000    1.0167465   -1.7574081   -1.7574081   -1.0724739  0.063089021   -1.7574081   0.68493416   521935 
 3776000       1.0156   -1.7571049   -1.7571049   -1.0729431  0.066903084   -1.7571049   0.68416183   521935 
 3777000    1.0191543   -1.7596058   -1.7596058   -1.0730496  0.069084009   -1.7596058   0.68655618   521935 
 3778000     1.018139   -1.7590867   -1.7590867   -1.0732144  0.077749664   -1.7590867   0.68587223   521935 
 3779000    1.0193561   -1.7595001   -1.7595001   -1.0728079  0.074719651   -1.7595001   0.68669216   521935 
 3780000    1.0199424   -1.7605805   -1.7605805   -1.0734934  0.060013125   -1.7605805   0.68708711   521935 
 3781000    1.0184479   -1.7591895   -1.7591895   -1.0731092  0.066893802   -1.7591895   0.68608035   521935 
 3782000    1.0202757   -1.7607064   -1.7607064   -1.0733947  0.075794283   -1.7607064   0.68731166   521935 
 3783000    1.0204379   -1.7606321   -1.7606321   -1.0732112  0.068585415   -1.7606321   0.68742091   521935 
 3784000    1.0210197   -1.7614648   -1.7614648    -1.073652  0.076482571   -1.7614648    0.6878128   521935 
 3785000    1.0207025   -1.7608651   -1.7608651   -1.0732659  0.069440438   -1.7608651   0.68759918   521935 
 3786000    1.0185309    -1.759849    -1.759849   -1.0737127  0.069144634    -1.759849   0.68613624   521935 
 3787000     1.021962    -1.762608    -1.762608   -1.0741604  0.073965814    -1.762608   0.68844762   521935 
 3788000    1.0202198   -1.7616574   -1.7616574   -1.0743834  0.063590586   -1.7616574   0.68727395   521935 
 3789000    1.0177365   -1.7599021   -1.7599021    -1.074301  0.070821408   -1.7599021    0.6856011   521935 
 3790000    1.0179922   -1.7597537   -1.7597537   -1.0739803  0.076361449   -1.7597537   0.68577336   521935 
 3791000    1.0189545   -1.7602784   -1.7602784   -1.0738568  0.084415327   -1.7602784   0.68642158   521935 
 3792000    1.0190911    -1.759702    -1.759702   -1.0731883   0.07144646    -1.759702   0.68651363   521935 
 3793000    1.0214642    -1.760513    -1.760513   -1.0724007  0.069996332    -1.760513   0.68811228   521935 
 3794000     1.019373   -1.7596262   -1.7596262   -1.0729226  0.067736365   -1.7596262   0.68670354   521935 
 3795000    1.0213978   -1.7607074   -1.7607074   -1.0726399  0.057459837   -1.7607074   0.68806756   521935 
 3796000     1.019091   -1.7597419   -1.7597419   -1.0732284  0.066710542   -1.7597419   0.68651358   521935 
 3797000    1.0186298   -1.7596322   -1.7596322   -1.0734293  0.065188468   -1.7596322   0.68620285   521935 
 3798000    1.0183023   -1.7597263   -1.7597263    -1.073744  0.056922467   -1.7597263   0.68598224   521935 
 3799000    1.0179968   -1.7592975   -1.7592975   -1.0735211  0.073149606   -1.7592975   0.68577644   521935 
 3800000    1.0182748    -1.759608    -1.759608   -1.0736442  0.055762554    -1.759608   0.68596375   521935 
 3801000     1.017663   -1.7600156   -1.7600156    -1.074464  0.060842551   -1.7600156    0.6855516   521935 
 3802000    1.0195396   -1.7603679   -1.7603679   -1.0735521  0.068039586   -1.7603679   0.68681577   521935 
 3803000    1.0198499   -1.7609002   -1.7609002   -1.0738754  0.074544995   -1.7609002   0.68702479   521935 
 3804000    1.0199784    -1.759957    -1.759957   -1.0728456  0.057654719    -1.759957   0.68711136   521935 
 3805000    1.0185304   -1.7586556   -1.7586556   -1.0725197   0.07456127   -1.7586556   0.68613589   521935 
 3806000    1.0198517   -1.7590477   -1.7590477   -1.0720217  0.069450867   -1.7590477   0.68702599   521935 
 3807000     1.018825   -1.7583444   -1.7583444     -1.07201  0.071507934   -1.7583444   0.68633436   521935 
 3808000    1.0200219   -1.7589101   -1.7589101   -1.0717695  0.077542737   -1.7589101   0.68714064   521935 
 3809000    1.0175742   -1.7575414   -1.7575414   -1.0720496     0.071352   -1.7575414   0.68549177   521935 
 3810000    1.0205643   -1.7591029   -1.7591029   -1.0715969   0.06449294   -1.7591029   0.68750602   521935 
 3811000    1.0214279   -1.7597938   -1.7597938    -1.071706  0.068863479   -1.7597938   0.68808779   521935 
 3812000    1.0197007   -1.7594848   -1.7594848   -1.0725605  0.066295986   -1.7594848   0.68692427   521935 
 3813000    1.0194414   -1.7592777   -1.7592777   -1.0725281   0.06741795   -1.7592777   0.68674958   521935 
 3814000    1.0201384   -1.7590798   -1.7590798   -1.0718607  0.070176462   -1.7590798   0.68721912   521935 
 3815000    1.0192765   -1.7594751   -1.7594751   -1.0728366  0.063234119   -1.7594751   0.68663855   521935 
 3816000    1.0175071   -1.7581983   -1.7581983   -1.0727517  0.075657583   -1.7581983   0.68544658   521935 
 3817000     1.018563   -1.7585977   -1.7585977   -1.0724399  0.074283989   -1.7585977   0.68615784   521935 
 3818000    1.0179735   -1.7577645   -1.7577645   -1.0720038   0.06771112   -1.7577645   0.68576077   521935 
 3819000    1.0178915   -1.7580171   -1.7580171   -1.0723116   0.06727293   -1.7580171   0.68570548   521935 
 3820000    1.0193833   -1.7582905   -1.7582905     -1.07158  0.069774552   -1.7582905   0.68671048   521935 
 3821000    1.0193374   -1.7580654   -1.7580654   -1.0713859  0.060622508   -1.7580654   0.68667957   521935 
 3822000    1.0201729   -1.7587775   -1.7587775   -1.0715351   0.06491984   -1.7587775   0.68724239   521935 
 3823000    1.0187201   -1.7573966   -1.7573966   -1.0711329  0.068755721   -1.7573966   0.68626371   521935 
 3824000    1.0169816   -1.7564268   -1.7564268   -1.0713342  0.065768096   -1.7564268   0.68509258   521935 
 3825000    1.0188337   -1.7581201   -1.7581201   -1.0717799   0.06287986   -1.7581201   0.68634021   521935 
 3826000    1.0201437   -1.7593224   -1.7593224   -1.0720997  0.072325947   -1.7593224   0.68722273   521935 
 3827000    1.0187317   -1.7581146   -1.7581146    -1.071843  0.064203125   -1.7581146   0.68627154   521935 
 3828000    1.0178643   -1.7578636   -1.7578636   -1.0721764  0.075484196   -1.7578636   0.68568717   521935 
 3829000    1.0201697   -1.7588486   -1.7588486   -1.0716084  0.071559667   -1.7588486   0.68724023   521935 
 3830000    1.0175443   -1.7577932   -1.7577932   -1.0723215  0.057865986   -1.7577932   0.68547164   521935 
 3831000    1.0173085   -1.7576224   -1.7576224   -1.0723097  0.079683409   -1.7576224   0.68531276   521935 
 3832000    1.0182542   -1.7593149   -1.7593149   -1.0733651  0.075631909   -1.7593149   0.68594985   521935 
 3833000    1.0173324   -1.7577178   -1.7577178   -1.0723889  0.080817521   -1.7577178   0.68532889   521935 
 3834000    1.0183333   -1.7583171   -1.7583171    -1.072314   0.07257839   -1.7583171   0.68600312   521935 
 3835000    1.0199652   -1.7591627   -1.7591627   -1.0720603  0.070121786   -1.7591627   0.68710245   521935 
 3836000    1.0186268     -1.75814     -1.75814   -1.0719391  0.076107844     -1.75814   0.68620087   521935 
 3837000    1.0186123   -1.7582074   -1.7582074   -1.0720164  0.080623111   -1.7582074   0.68619107   521935 
 3838000     1.019511   -1.7580784   -1.7580784   -1.0712819  0.075612106   -1.7580784   0.68679649   521935 
 3839000    1.0185282   -1.7579866   -1.7579866   -1.0718522  0.073124384   -1.7579866   0.68613442   521935 
 3840000    1.0202003   -1.7585603   -1.7585603   -1.0712994   0.07240927   -1.7585603   0.68726086   521935 
 3841000    1.0172512    -1.756729    -1.756729   -1.0714549  0.087041629    -1.756729   0.68527418   521935 
 3842000    1.0191986   -1.7577566   -1.7577566   -1.0711706  0.063711494   -1.7577566   0.68658603   521935 
 3843000    1.0171914   -1.7573966   -1.7573966   -1.0721627  0.061072519   -1.7573966   0.68523391   521935 
 3844000    1.0184455    -1.758108    -1.758108   -1.0720293  0.065470431    -1.758108   0.68607872   521935 
 3845000    1.0190611   -1.7590304   -1.7590304    -1.072537  0.072881593   -1.7590304   0.68649341   521935 
 3846000    1.0169019   -1.7583964   -1.7583964   -1.0733576  0.065148206   -1.7583964   0.68503887   521935 
 3847000    1.0161378   -1.7573146   -1.7573146   -1.0727904  0.075167746   -1.7573146   0.68452416   521935 
 3848000    1.0192943   -1.7594122   -1.7594122   -1.0727617  0.071737342   -1.7594122   0.68665051   521935 
 3849000    1.0184339    -1.759478    -1.759478   -1.0734071  0.065724321    -1.759478   0.68607089   521935 
 3850000    1.0214247   -1.7613006   -1.7613006    -1.073215  0.059676274   -1.7613006   0.68808564   521935 
 3851000    1.0175852   -1.7586758   -1.7586758   -1.0731766  0.080454355   -1.7586758    0.6854992   521935 
 3852000    1.0192339   -1.7599864   -1.7599864   -1.0733766  0.065517609   -1.7599864    0.6866098   521935 
 3853000    1.0174571   -1.7592301   -1.7592301   -1.0738172  0.064911694   -1.7592301    0.6854129   521935 
 3854000    1.0187925   -1.7596905   -1.7596905   -1.0733781  0.068995824   -1.7596905   0.68631248   521935 
 3855000    1.0189229   -1.7599681   -1.7599681   -1.0735677  0.059758437   -1.7599681   0.68640034   521935 
 3856000    1.0200911   -1.7613849   -1.7613849   -1.0741976  0.068344461   -1.7613849   0.68718726   521935 
 3857000    1.0169941   -1.7588577   -1.7588577   -1.0737567  0.063933393   -1.7588577   0.68510095   521935 
 3858000    1.0201108   -1.7609121   -1.7609121   -1.0737116  0.056290373   -1.7609121   0.68720056   521935 
 3859000    1.0182767   -1.7600782   -1.7600782   -1.0741131   0.07172176   -1.7600782   0.68596503   521935 
 3860000    1.0158632    -1.759315    -1.759315   -1.0749759  0.075385174    -1.759315   0.68433915   521935 
 3861000    1.0185753   -1.7605783   -1.7605783   -1.0744121  0.056933119   -1.7605783   0.68616613   521935 
 3862000    1.0185607   -1.7600781   -1.7600781   -1.0739217  0.075411438   -1.7600781   0.68615634   521935 
 3863000     1.019746   -1.7603445   -1.7603445   -1.0733897  0.075424233   -1.7603445   0.68695478   521935 
 3864000    1.0217957    -1.761126    -1.761126   -1.0727904  0.060371716    -1.761126   0.68833557   521935 
 3865000    1.0181371    -1.759634    -1.759634   -1.0737631  0.064788461    -1.759634   0.68587096   521935 
 3866000    1.0185793   -1.7593059   -1.7593059    -1.073137  0.069073672   -1.7593059   0.68616887   521935 
 3867000    1.0215529   -1.7610624   -1.7610624   -1.0728904  0.083484722   -1.7610624   0.68817202   521935 
 3868000     1.021526    -1.760716    -1.760716   -1.0725621  0.062307239    -1.760716   0.68815393   521935 
 3869000    1.0206755   -1.7598817   -1.7598817   -1.0723007  0.076407942   -1.7598817   0.68758095   521935 
 3870000    1.0201706   -1.7591643   -1.7591643   -1.0719234  0.066266554   -1.7591643   0.68724085   521935 
 3871000    1.0187523   -1.7595801   -1.7595801   -1.0732947  0.072179931   -1.7595801    0.6862854   521935 
 3872000    1.0163385   -1.7580085   -1.7580085   -1.0733492  0.062911027   -1.7580085    0.6846593   521935 
 3873000    1.0178621   -1.7586229   -1.7586229   -1.0729372  0.063851013   -1.7586229   0.68568569   521935 
 3874000    1.0197696    -1.760012    -1.760012   -1.0730413  0.080885818    -1.760012   0.68697071   521935 
 3875000    1.0184585   -1.7591932   -1.7591932   -1.0731057  0.080915567   -1.7591932    0.6860875   521935 
 3876000    1.0181661   -1.7584811   -1.7584811   -1.0725905  0.080452892   -1.7584811   0.68589053   521935 
 3877000    1.0191085   -1.7591239   -1.7591239   -1.0725986  0.074218756   -1.7591239   0.68652532   521935 
 3878000    1.0199279   -1.7598521   -1.7598521   -1.0727747  0.064561823   -1.7598521   0.68707736   521935 
 3879000    1.0203638   -1.7607109   -1.7607109     -1.07334  0.069784057   -1.7607109   0.68737095   521935 
 3880000    1.0185675    -1.759407    -1.759407   -1.0732461  0.062613953    -1.759407   0.68616088   521935 
 3881000    1.0185609   -1.7592031   -1.7592031   -1.0730466  0.077930666   -1.7592031   0.68615645   521935 
 3882000    1.0188271   -1.7593582   -1.7593582   -1.0730224  0.069229926   -1.7593582    0.6863358   521935 
 3883000    1.0187121   -1.7595857   -1.7595857   -1.0733274  0.074329378   -1.7595857   0.68625833   521935 
 3884000    1.0210355   -1.7611166   -1.7611166   -1.0732932  0.074293045   -1.7611166   0.68782347   521935 
 3885000    1.0190216   -1.7609636   -1.7609636   -1.0744967  0.058639268   -1.7609636   0.68646681   521935 
 3886000    1.0164046   -1.7594234   -1.7594234   -1.0747196  0.062015653   -1.7594234   0.68470385   521935 
 3887000    1.0171319   -1.7590185   -1.7590185   -1.0738247  0.072369699   -1.7590185   0.68519381   521935 
 3888000    1.0176444   -1.7600594   -1.7600594   -1.0745204  0.068338162   -1.7600594   0.68553905   521935 
 3889000     1.019422   -1.7610126   -1.7610126   -1.0742761  0.067034171   -1.7610126   0.68673653   521935 
 3890000    1.0173346   -1.7596829   -1.7596829   -1.0743526  0.066139969   -1.7596829   0.68533034   521935 
 3891000    1.0196326   -1.7608115   -1.7608115   -1.0739331  0.054170367   -1.7608115   0.68687844   521935 
 3892000    1.0211006   -1.7618472   -1.7618472   -1.0739798  0.066998536   -1.7618472   0.68786734   521935 
 3893000    1.0198801   -1.7615328   -1.7615328   -1.0744877  0.075029041   -1.7615328   0.68704511   521935 
 3894000    1.0172233   -1.7595891   -1.7595891   -1.0743337  0.056178645   -1.7595891   0.68525539   521935 
 3895000     1.017657   -1.7600508   -1.7600508   -1.0745033  0.081545107   -1.7600508   0.68554756   521935 
 3896000    1.0189334   -1.7603409   -1.7603409   -1.0739335  0.064769386   -1.7603409   0.68640739   521935 
 3897000    1.0177545    -1.759357    -1.759357   -1.0737438  0.069604479    -1.759357   0.68561319   521935 
 3898000    1.0176478   -1.7607025   -1.7607025   -1.0751611  0.059440897   -1.7607025   0.68554133   521935 
 3899000    1.0178508   -1.7603384   -1.7603384   -1.0746603  0.077685508   -1.7603384   0.68567808   521935 
 3900000    1.0171943   -1.7594874   -1.7594874   -1.0742516  0.074621637   -1.7594874   0.68523585   521935 
 3901000    1.0178004   -1.7602865   -1.7602865   -1.0746424  0.071109359   -1.7602865   0.68564412   521935 
 3902000    1.0184106   -1.7609187   -1.7609187   -1.0748635   0.05953331   -1.7609187   0.68605517   521935 
 3903000    1.0170169   -1.7596657   -1.7596657   -1.0745494  0.071777628   -1.7596657   0.68511635   521935 
 3904000    1.0185126   -1.7605933   -1.7605933   -1.0744694  0.068816618   -1.7605933    0.6861239   521935 
 3905000    1.0194623   -1.7617581   -1.7617581   -1.0749944  0.065710556   -1.7617581   0.68676368   521935 
 3906000    1.0208361   -1.7624002   -1.7624002    -1.074711   0.07235055   -1.7624002   0.68768914   521935 
 3907000    1.0211116   -1.7623434   -1.7623434   -1.0744686  0.073429215   -1.7623434   0.68787475   521935 
 3908000     1.018452   -1.7606101   -1.7606101   -1.0745269  0.064113155   -1.7606101   0.68608312   521935 
 3909000    1.0176231   -1.7606956   -1.7606956   -1.0751709  0.072571935   -1.7606956   0.68552469   521935 
 3910000    1.0178297   -1.7611607   -1.7611607   -1.0754968   0.07979431   -1.7611607   0.68566385   521935 
 3911000    1.0191552   -1.7625352   -1.7625352   -1.0759784  0.073630616   -1.7625352   0.68655683   521935 
 3912000    1.0170893   -1.7603589   -1.7603589   -1.0751938  0.060774274   -1.7603589   0.68516511   521935 
 3913000    1.0187179   -1.7607524   -1.7607524   -1.0744901  0.071465471   -1.7607524    0.6862622   521935 
 3914000    1.0197462   -1.7615438   -1.7615438   -1.0745889  0.061321239   -1.7615438    0.6869549   521935 
 3915000    1.0184754   -1.7607542   -1.7607542   -1.0746553  0.075681127   -1.7607542   0.68609888   521935 
 3916000    1.0189887   -1.7609089   -1.7609089   -1.0744643  0.066554546   -1.7609089   0.68644462   521935 
 3917000    1.0174399   -1.7596914   -1.7596914   -1.0742901    0.0673795   -1.7596914   0.68540131   521935 
 3918000     1.015793   -1.7588712   -1.7588712   -1.0745793  0.067848376   -1.7588712   0.68429184   521935 
 3919000    1.0170764   -1.7597534   -1.7597534    -1.074597  0.061537327   -1.7597534    0.6851564   521935 
 3920000    1.0175109   -1.7604778   -1.7604778   -1.0750287  0.067394916   -1.7604778   0.68544914   521935 
 3921000    1.0164753   -1.7599647   -1.7599647   -1.0752132  0.062260843   -1.7599647   0.68475151   521935 
 3922000    1.0179989   -1.7604609   -1.7604609    -1.074683   0.06740893   -1.7604609   0.68577788   521935 
 3923000    1.0189871   -1.7608283   -1.7608283   -1.0743847  0.076155647   -1.7608283   0.68644355   521935 
 3924000    1.0186343   -1.7599858   -1.7599858     -1.07378  0.069088416   -1.7599858   0.68620587   521935 
 3925000    1.0174747   -1.7601043   -1.7601043   -1.0746796  0.079089289   -1.7601043   0.68542471   521935 
 3926000    1.0193683   -1.7619473   -1.7619473    -1.075247  0.071547369   -1.7619473   0.68670035   521935 
 3927000     1.020153   -1.7617342   -1.7617342   -1.0745052  0.059687842   -1.7617342   0.68722895   521935 
 3928000    1.0169907   -1.7593422   -1.7593422   -1.0742435  0.069607374   -1.7593422    0.6850987   521935 
 3929000    1.0183826   -1.7604307   -1.7604307   -1.0743943  0.066435639   -1.7604307   0.68603634   521935 
 3930000     1.017768   -1.7590634   -1.7590634   -1.0734412   0.07803277   -1.7590634   0.68562228   521935 
 3931000    1.0192717   -1.7602457   -1.7602457   -1.0736104  0.069800966   -1.7602457    0.6866353   521935 
 3932000    1.0218317   -1.7622233   -1.7622233   -1.0738635  0.061028345   -1.7622233   0.68835984   521935 
 3933000    1.0200263   -1.7617027   -1.7617027   -1.0745591  0.065506532   -1.7617027    0.6871436   521935 
 3934000    1.0203735   -1.7615497   -1.7615497   -1.0741722  0.072361931   -1.7615497   0.68737751   521935 
 3935000    1.0198613   -1.7612035   -1.7612035    -1.074171  0.074962917   -1.7612035   0.68703245   521935 
 3936000    1.0215272   -1.7616282   -1.7616282   -1.0734735   0.07501188   -1.7616282   0.68815471   521935 
 3937000    1.0211591   -1.7618974   -1.7618974   -1.0739906  0.076979768   -1.7618974   0.68790674   521935 
 3938000    1.0194412   -1.7608368   -1.7608368   -1.0740873  0.064572155   -1.7608368   0.68674948   521935 
 3939000    1.0190001   -1.7601437   -1.7601437   -1.0736914  0.088636844   -1.7601437   0.68645229   521935 
 3940000    1.0186174   -1.7604997   -1.7604997   -1.0743052  0.070795797   -1.7604997    0.6861945   521935 
 3941000    1.0180642   -1.7599456   -1.7599456   -1.0741237  0.064809431   -1.7599456   0.68582187   521935 
 3942000    1.0165886   -1.7590223   -1.7590223   -1.0741945  0.064729706   -1.7590223   0.68482784   521935 
 3943000    1.0171579   -1.7604988   -1.7604988   -1.0752876  0.060484922   -1.7604988   0.68521129   521935 
 3944000    1.0172146   -1.7600438   -1.7600438   -1.0747943   0.07329336   -1.7600438   0.68524951   521935 
 3945000    1.0175428   -1.7602528   -1.7602528   -1.0747822  0.065979537   -1.7602528   0.68547058   521935 
 3946000    1.0187678    -1.760692    -1.760692   -1.0743961  0.061544121    -1.760692   0.68629586   521935 
 3947000    1.0215126   -1.7628575   -1.7628575   -1.0747126  0.063941184   -1.7628575   0.68814489   521935 
 3948000     1.016891   -1.7596165   -1.7596165    -1.074585  0.070766856   -1.7596165   0.68503151   521935 
 3949000    1.0199463   -1.7621992   -1.7621992   -1.0751094  0.069885828   -1.7621992   0.68708972   521935 
 3950000    1.0195691   -1.7617561   -1.7617561   -1.0749205   0.06748153   -1.7617561   0.68683561   521935 
 3951000    1.0201282   -1.7621819   -1.7621819   -1.0749697  0.072907724   -1.7621819   0.68721226   521935 
 3952000    1.0202516    -1.763206    -1.763206   -1.0759106  0.066712624    -1.763206   0.68729538   521935 
 3953000    1.0184753    -1.762409    -1.762409   -1.0763102  0.066204671    -1.762409    0.6860988   521935 
 3954000    1.0184262   -1.7618711   -1.7618711   -1.0758054  0.066109852   -1.7618711   0.68606571   521935 
 3955000    1.0196302   -1.7626552   -1.7626552   -1.0757784  0.082973036   -1.7626552   0.68687677   521935 
 3956000    1.0186582   -1.7620111   -1.7620111   -1.0757891  0.063409782   -1.7620111   0.68622201   521935 
 3957000    1.0186711   -1.7625176   -1.7625176   -1.0762869  0.072608735   -1.7625176   0.68623072   521935 
 3958000    1.0180049    -1.762182    -1.762182   -1.0764002  0.055355289    -1.762182   0.68578187   521935 
 3959000    1.0174014   -1.7612676   -1.7612676   -1.0758922  0.074382905   -1.7612676   0.68537534   521935 
 3960000    1.0192971   -1.7624229   -1.7624229   -1.0757705   0.05953863   -1.7624229   0.68665237   521935 
 3961000    1.0174461    -1.760973    -1.760973   -1.0755675  0.054423628    -1.760973   0.68540545   521935 
 3962000    1.0193263   -1.7622591   -1.7622591    -1.075587  0.067453654   -1.7622591    0.6866721   521935 
 3963000    1.0175815   -1.7614503   -1.7614503   -1.0759536  0.083052515   -1.7614503    0.6854967   521935 
 3964000    1.0188091   -1.7622163   -1.7622163   -1.0758926  0.085150637   -1.7622163   0.68632364   521935 
 3965000    1.0184714   -1.7628575   -1.7628575   -1.0767613  0.063927186   -1.7628575   0.68609618   521935 
 3966000    1.0161903   -1.7621025   -1.7621025    -1.077543  0.060916876   -1.7621025    0.6845595   521935 
 3967000    1.0174193   -1.7619569   -1.7619569   -1.0765695  0.057289709   -1.7619569   0.68538739   521935 
 3968000     1.020719   -1.7633082   -1.7633082   -1.0756979  0.069163507   -1.7633082   0.68761025   521935 
 3969000    1.0206056    -1.763616    -1.763616   -1.0760821  0.072576746    -1.763616   0.68753387   521935 
 3970000    1.0193102   -1.7627781   -1.7627781   -1.0761169  0.057833523   -1.7627781   0.68666121   521935 
 3971000     1.020158   -1.7626053   -1.7626053    -1.075373  0.071887189   -1.7626053   0.68723232   521935 
 3972000    1.0186281   -1.7621723   -1.7621723   -1.0759706  0.070390562   -1.7621723   0.68620171   521935 
 3973000    1.0180617   -1.7612146   -1.7612146   -1.0753944  0.073122337   -1.7612146   0.68582018   521935 
 3974000    1.0160916   -1.7600374   -1.7600374   -1.0755444  0.068398134   -1.7600374     0.684493   521935 
 3975000    1.0173835   -1.7605626   -1.7605626   -1.0751993    0.0630075   -1.7605626    0.6853633   521935 
 3976000     1.019678   -1.7614251   -1.7614251   -1.0745162  0.067218839   -1.7614251   0.68690896   521935 
 3977000    1.0194479    -1.761339    -1.761339    -1.074585  0.072599202    -1.761339   0.68675401   521935 
 3978000    1.0180376   -1.7605443   -1.7605443   -1.0747404  0.050631946   -1.7605443    0.6858039   521935 
 3979000    1.0201219   -1.7621484   -1.7621484   -1.0749403  0.066789043   -1.7621484   0.68720805   521935 
 3980000    1.0182218   -1.7608383   -1.7608383   -1.0749102  0.072072642   -1.7608383   0.68592804   521935 
 3981000    1.0192262    -1.761348    -1.761348   -1.0747434  0.073720527    -1.761348   0.68660462   521935 
 3982000    1.0196362   -1.7614919   -1.7614919    -1.074611  0.062904947   -1.7614919   0.68688082   521935 
 3983000    1.0194407   -1.7611025   -1.7611025   -1.0743534  0.071859237   -1.7611025   0.68674913   521935 
 3984000    1.0188638   -1.7618117   -1.7618117   -1.0754512  0.071510196   -1.7618117   0.68636052   521935 
 3985000    1.0174464   -1.7612347   -1.7612347    -1.075829  0.071437844   -1.7612347   0.68540569   521935 
 3986000    1.0191873   -1.7619406   -1.7619406   -1.0753622  0.063112436   -1.7619406   0.68657841   521935 
 3987000    1.0181681   -1.7608972   -1.7608972   -1.0750053  0.068648341   -1.7608972   0.68589182   521935 
 3988000    1.0190851   -1.7614626   -1.7614626    -1.074953  0.064430123   -1.7614626   0.68650961   521935 
 3989000    1.0198639   -1.7619817   -1.7619817   -1.0749475  0.076131221   -1.7619817   0.68703422   521935 
 3990000    1.0196452    -1.762218    -1.762218   -1.0753311  0.072665388    -1.762218   0.68688687   521935 
 3991000    1.0189386   -1.7615929   -1.7615929    -1.075182  0.077459365   -1.7615929    0.6864109   521935 
 3992000    1.0178194   -1.7612343   -1.7612343   -1.0755774  0.061915841   -1.7612343   0.68565696   521935 
 3993000    1.0179064   -1.7612366   -1.7612366    -1.075521  0.051670366   -1.7612366   0.68571553   521935 
 3994000    1.0148726   -1.7591355   -1.7591355   -1.0754636  0.072802129   -1.7591355   0.68367184   521935 
 3995000    1.0152804    -1.759301    -1.759301   -1.0753545  0.063705115    -1.759301   0.68394651   521935 
 3996000    1.0178625   -1.7610811   -1.7610811   -1.0753952  0.060471713   -1.7610811   0.68568597   521935 
 3997000    1.0173246   -1.7602396   -1.7602396    -1.074916  0.060787788   -1.7602396    0.6853236   521935 
 3998000    1.0185801   -1.7613653   -1.7613653   -1.0751959  0.064243731   -1.7613653   0.68616938   521935 
 3999000    1.0175353   -1.7606105   -1.7606105   -1.0751449  0.070400032   -1.7606105   0.68546557   521935 
 4000000    1.0209489   -1.7620418   -1.7620418   -1.0742767  0.066624065   -1.7620418   0.68776516   521935 
Loop time of 11788 on 144 procs for 4000000 steps with 521935 atoms

Performance: 146589.519 tau/day, 339.328 timesteps/s
99.3% CPU use with 144 MPI tasks x 1 OpenMP threads

MPI task timing breakdown:
Section |  min time  |  avg time  |  max time  |%varavg|  %CPU | %total
-----------------------------------------------------------------------
Pair    | 1017.1     | 2211.9     | 2816.7     | 753.8 |  99.1 | 18.76
Bond    | 2.7484     | 2.9647     | 3.4732     |   7.8 | 100.0 |  0.03
Neigh   | 1072.9     | 2971.5     | 3715       |1095.9 |  99.6 | 25.21
Comm    | 4241.7     | 4928.3     | 7631.2     |1123.9 |  99.2 | 41.81
Output  | 125.23     | 125.79     | 126.76     |   5.2 |  98.6 |  1.07
Modify  | 1171.5     | 1404.1     | 2265.2     | 450.0 |  99.3 | 11.91
Other   |            | 143.5      |            |       |       |  1.22

Nlocal:        3624.55 ave        4632 max        2610 min
Histogram: 1 2 7 18 36 59 12 5 2 2
Nghost:        10033.3 ave       12437 max        3436 min
Histogram: 1 4 7 3 16 9 4 15 45 40
Neighs:        52200.1 ave       66531 max       17274 min
Histogram: 3 4 2 1 6 4 35 39 37 13

Total # of neighbors = 7516808
Ave neighs/atom = 14.401809
Ave special neighs/atom = 0.0000000
Neighbor list builds = 400000
Dangerous builds = 396000

Total wall time: 3:16:30
