LAMMPS (24 Dec 2020)
OMP_NUM_THREADS environment is not set. Defaulting to 1 thread. (src/comm.cpp:94)
  using 1 OpenMP thread(s) per MPI task
# Simple rigid body system
# needed variables: startTemp, temp

units		lj
atom_style	full
dimension 	3
boundary	p p f
pair_style	lj/smooth 2.5 3.0



variable 	sigma		equal 1.0
variable 	epsilon 	equal 1.0


region		box block 0 80 0 80 0 80
create_box 	3 box
Created orthogonal box = (0.0000000 0.0000000 0.0000000) to (80.000000 80.000000 80.000000)
  6 by 4 by 4 MPI processor grid
lattice 	sc 1.0
Lattice spacing in x,y,z = 1.0000000 1.0000000 1.0000000

create_atoms 	1 region box
Created 512000 atoms
  create_atoms CPU = 0.109 seconds

mass		1 1.0
mass		2 1.0
mass		3 1.0


group		solvent type 1
512000 atoms in group solvent


velocity 	solvent create ${startTemp} 563435 loop geom
velocity 	solvent create 0.5 563435 loop geom

read_data	data.vac add append
Reading data file ...
  orthogonal box = (0.0000000 0.0000000 0.0000000) to (80.000000 80.000000 160.00000)
  3 by 4 by 8 MPI processor grid
Finding 1-2 1-3 1-4 neighbors ...
  special bond factors lj:    0        0        0       
  special bond factors coul:  0        0        0       
     0 = max # of 1-2 neighbors
     0 = max # of 1-3 neighbors
     0 = max # of 1-4 neighbors
     1 = max # of special neighbors
  special bonds CPU = 0.448 seconds
  read_data CPU = 0.455 seconds

neighbor 	0.4 bin

pair_coeff	1 1 1.0 1.0
pair_coeff	2 2 0.0 0.0
pair_coeff	3 3 0.0 0.0
pair_coeff	2 3 0.0 0.0
pair_coeff	1 2*3 0.0 0.0

pair_modify 	shift yes

pair_write      1 1 1000 r 1.0 3.1 pair.txt LJ
Creating table file pair.txt with DATE: 2021-05-19
Neighbor list info ...
  update every 1 steps, delay 10 steps, check yes
  max neighbors/atom: 2000, page size: 100000
  master list distance cutoff = 3.4
  ghost atom cutoff = 3.4
  binsize = 1.7, bins = 48 48 95
  1 neighbor lists, perpetual/occasional/extra = 1 0 0
  (1) pair lj/smooth, perpetual
      attributes: half, newton on
      pair build: half/bin/newton
      stencil: half/bin/3d/newton
      bin: standard
balance 	1.05 shift z 10 1.05
Balancing ...
 rebalancing time: 0.009 seconds
  iteration count = 5
  initial/final maximal load/proc = 10800.000 6480.0000
  initial/final imbalance factor  = 2.0250000 1.2150000
  x cuts: 0.0000000 0.33333333 0.66666667 1.0000000
  y cuts: 0.0000000 0.25000000 0.50000000 0.75000000 1.0000000
  z cuts: 0.0000000 0.062500000 0.12890625 0.18750000 0.25781250 0.30859375 0.38671875 0.43750000 1.0000000


####################### WALLS ###########################


region	       low block  EDGE EDGE EDGE EDGE 0 2

region 	       top block  EDGE EDGE EDGE EDGE 159 160


delete_atoms   region low
WARNING: Ignoring 'compress yes' for molecular system (src/delete_atoms.cpp:125)
Deleted 19200 atoms, new total = 492800

delete_atoms   region top
WARNING: Ignoring 'compress yes' for molecular system (src/delete_atoms.cpp:125)
Deleted 0 atoms, new total = 492800


variable       epsilonWall equal 2*${epsilon}
variable       epsilonWall equal 2*1

variable       cutoffTop   equal   0.7147*${sigma}
variable       cutoffTop   equal   0.7147*1

variable       cutoffLow   equal   3*${sigma}
variable       cutoffLow   equal   3*1


fix            topWall all wall/lj93 zhi EDGE                ${epsilonWall} ${sigma} ${cutoffTop} units box
fix            topWall all wall/lj93 zhi EDGE                2 ${sigma} ${cutoffTop} units box
fix            topWall all wall/lj93 zhi EDGE                2 1 ${cutoffTop} units box
fix            topWall all wall/lj93 zhi EDGE                2 1 0.7147 units box

fix            lowWall all wall/lj93 zlo EDGE                ${epsilonWall} ${sigma} ${cutoffLow} units box
fix            lowWall all wall/lj93 zlo EDGE                2 ${sigma} ${cutoffLow} units box
fix            lowWall all wall/lj93 zlo EDGE                2 1 ${cutoffLow} units box
fix            lowWall all wall/lj93 zlo EDGE                2 1 3 units box


###################### COMPUTES ##########################

compute        bin1 solvent chunk/atom bin/1d z upper 1.0



######################	FIXES ############################


fix 		peclet solvent ave/chunk 1000 1 1000 bin1 density/number norm 		 none ave one file density.profile

fix 		 temp solvent ave/chunk 1000 1 1000 bin1 temp norm none ave one 		 file temp.profile

fix 		2 solvent nve

## Thermostat


region		regthermo block EDGE EDGE EDGE EDGE 0 20

group 		thermo dynamic solvent region regthermo every 1000
dynamic group thermo defined

fix 		3 thermo langevin ${startTemp} ${temp} 10 156453
fix 		3 thermo langevin 0.5 ${temp} 10 156453
fix 		3 thermo langevin 0.5 .6 10 156453



#### Load balancing


fix 		bal all balance 1000 1.05 shift z 10 1.05


############### Diagnostics and computes ###################
#compute 	com cube	  rigid/local	1 mol x y z
#compute 	quat cube	  rigid/local	1 mol quatw quati quatj quatk

thermo 		1000
thermo_style 	custom step temp epair evdwl etotal press pe ke vol

dump		1 all custom 100000 dump.lammpstrj id mol type x y z
dump 		2 all image 10000 image.*.png type type
dump 		3 all movie 1000 movie.avi type type
#dump 		com cube local 1000 dump.*.xyz c_com[*]
#dump		quat cube      local 1000 dump.*.quat c_quat[*]


restart 	500000 restart.dat
timestep 	0.0025
timer 		full
New timer settings: style=full  mode=nosync  timeout=off


run		1000000
Per MPI rank memory allocation (min/avg/max) = 12.19 | 12.58 | 12.81 Mbytes
Step Temp E_pair E_vdwl TotEng Press PotEng KinEng Volume 
       0   0.49998514   -3.5955076   -3.5955076   -2.8455314     8.314756   -3.5955076   0.74997619      1024000 
    1000     1.409289   -5.0827946   -5.0827946   -2.9688654    3.5494995   -5.0827946    2.1139292      1024000 
    2000    1.3455849   -5.1239038   -5.1239038   -3.1055306    2.3544149   -5.1239038    2.0183732      1024000 
    3000    1.2388472   -5.0907464   -5.0907464   -3.2324794    1.5358295   -5.0907464     1.858267      1024000 
    4000    1.1825865   -5.0941055   -5.0941055   -3.3202294    0.6414702   -5.0941055    1.7738761      1024000 
    5000    1.1101286    -5.029589    -5.029589   -3.3643995 0.0038870347    -5.029589    1.6651896      1024000 
    6000    1.0316061   -4.9275931   -4.9275931   -3.3801871  -0.32958376   -4.9275931     1.547406      1024000 
    7000   0.97329977   -4.8434506   -4.8434506   -3.3835039   -0.4211559   -4.8434506    1.4599467      1024000 
    8000   0.96363744   -4.8316354   -4.8316354   -3.3861821  -0.28539228   -4.8316354    1.4454532      1024000 
    9000   0.98082378   -4.8665344   -4.8665344   -3.3953017  -0.10342926   -4.8665344    1.4712327      1024000 
   10000   0.98880836   -4.8943947   -4.8943947   -3.4111852 -0.012217044   -4.8943947    1.4832095      1024000 
   11000   0.98170072    -4.897909    -4.897909   -3.4253609 -0.0065718332    -4.897909    1.4725481      1024000 
   12000   0.98202461   -4.9095786   -4.9095786   -3.4365447 0.0027252282   -4.9095786    1.4730339      1024000 
   13000   0.98464566   -4.9235065   -4.9235065    -3.446541   0.04254539   -4.9235065    1.4769655      1024000 
   14000   0.98682075   -4.9354404   -4.9354404   -3.4552123  0.069957946   -4.9354404    1.4802281      1024000 
   15000   0.98527283   -4.9401722   -4.9401722   -3.4622659  0.072783235   -4.9401722    1.4779063      1024000 
   16000    0.9820281   -4.9420574   -4.9420574   -3.4690182  0.071262008   -4.9420574    1.4730392      1024000 
   17000   0.97944804   -4.9431336   -4.9431336   -3.4739645  0.073932998   -4.9431336    1.4691691      1024000 
   18000   0.97886745   -4.9472546   -4.9472546   -3.4789564  0.077549593   -4.9472546    1.4682982      1024000 
   19000   0.97945753   -4.9521404   -4.9521404    -3.482957  0.092406363   -4.9521404    1.4691833      1024000 
   20000   0.98110534   -4.9581969   -4.9581969   -3.4865419  0.098639563   -4.9581969     1.471655      1024000 
   21000   0.98161016   -4.9630036   -4.9630036   -3.4905913   0.10361243   -4.9630036    1.4724122      1024000 
   22000   0.98124794   -4.9655127   -4.9655127   -3.4936438   0.11180335   -4.9655127    1.4718689      1024000 
   23000   0.97934099   -4.9654702   -4.9654702   -3.4964617   0.10986781   -4.9654702    1.4690085      1024000 
   24000     0.977802   -4.9658891   -4.9658891   -3.4991891   0.11005329   -4.9658891       1.4667      1024000 
   25000   0.97808223   -4.9690918   -4.9690918   -3.5019714   0.11734554   -4.9690918    1.4671204      1024000 
   26000   0.98321768   -4.9801043   -4.9801043   -3.5052807   0.22226895   -4.9801043    1.4748235      1024000 
   27000   0.99764127   -5.0038939   -5.0038939    -3.507435   0.66491124   -5.0038939    1.4964589      1024000 
   28000    1.0150198   -5.0315361   -5.0315361   -3.5090095    1.1296422   -5.0315361    1.5225266      1024000 
   29000    1.0296051   -5.0554834   -5.0554834    -3.511079    1.6323437   -5.0554834    1.5444044      1024000 
   30000    1.0353787    -5.065462    -5.065462   -3.5123971     1.640785    -5.065462    1.5530649      1024000 
   31000    1.0137319   -5.0347851   -5.0347851   -3.5141904     1.232084   -5.0347851    1.5205947      1024000 
   32000   0.99727097   -5.0114669   -5.0114669   -3.5155635   0.79821437   -5.0114669    1.4959034      1024000 
   33000   0.96867266   -4.9696769   -4.9696769   -3.5166709    0.4471194   -4.9696769     1.453006      1024000 
   34000   0.92940677   -4.9121456   -4.9121456   -3.5180382   0.19644819   -4.9121456    1.3941073      1024000 
   35000   0.88972803   -4.8539686   -4.8539686   -3.5193792   0.02847156   -4.8539686    1.3345893      1024000 
   36000   0.85811363   -4.8079751   -4.8079751   -3.5208073 -0.075966317   -4.8079751    1.2871678      1024000 
   37000   0.83713097   -4.7780139   -4.7780139     -3.52232  -0.12968277   -4.7780139    1.2556939      1024000 
   38000   0.82697249   -4.7643403   -4.7643403   -3.5238841  -0.13844172   -4.7643403    1.2404562      1024000 
   39000   0.83037862   -4.7706491   -4.7706491   -3.5250837  -0.12385342   -4.7706491    1.2455654      1024000 
   40000   0.83966567   -4.7860002   -4.7860002   -3.5265042 -0.063840856   -4.7860002     1.259496      1024000 
   41000   0.85810863   -4.8149524   -4.8149524   -3.5277921 -0.015075809   -4.8149524    1.2871603      1024000 
   42000   0.87518357   -4.8421641   -4.8421641   -3.5293914  0.078479034   -4.8421641    1.3127727      1024000 
   43000   0.89229505   -4.8688275   -4.8688275   -3.5303876   0.16816997   -4.8688275    1.3384399      1024000 
   44000   0.90322101   -4.8864982   -4.8864982   -3.5316695   0.22261097   -4.8864982    1.3548288      1024000 
   45000   0.90238516   -4.8866476   -4.8866476   -3.5330726   0.22799042   -4.8866476     1.353575      1024000 
   46000    0.8924953   -4.8733391   -4.8733391   -3.5345989   0.17956388   -4.8733391    1.3387402      1024000 
   47000   0.87795202   -4.8528585   -4.8528585   -3.5359331  0.094989561   -4.8528585    1.3169254      1024000 
   48000   0.86041071    -4.827943    -4.827943   -3.5373296  0.017818404    -4.827943    1.2906134      1024000 
   49000   0.84505569   -4.8063476   -4.8063476   -3.5387666 -0.035784088   -4.8063476     1.267581      1024000 
   50000   0.83636241   -4.7948154   -4.7948154   -3.5402743 -0.068789133   -4.7948154    1.2545411      1024000 
   51000   0.83423577   -4.7929049   -4.7929049   -3.5415538 -0.070996924   -4.7929049    1.2513511      1024000 
   52000   0.83921966   -4.8018872   -4.8018872   -3.5430603 -0.051773132   -4.8018872    1.2588269      1024000 
   53000   0.84966523   -4.8188065   -4.8188065   -3.5443113 -0.012136844   -4.8188065    1.2744953      1024000 
   54000   0.86328262   -4.8406984   -4.8406984   -3.5457771  0.056142677   -4.8406984    1.2949213      1024000 
   55000   0.87831599   -4.8649991   -4.8649991   -3.5475278   0.11833324   -4.8649991    1.3174713      1024000 
   56000   0.88815847   -4.8811913   -4.8811913   -3.5489563   0.16294413   -4.8811913     1.332235      1024000 
   57000    0.8917011   -4.8884613   -4.8884613   -3.5509124   0.19045015   -4.8884613    1.3375489      1024000 
   58000   0.89066508   -4.8885723   -4.8885723   -3.5525774   0.18557864   -4.8885723    1.3359949      1024000 
   59000   0.88353167   -4.8802086   -4.8802086   -3.5549138   0.15509383   -4.8802086    1.3252948      1024000 
   60000   0.87637351   -4.8715932   -4.8715932   -3.5570357   0.10778849   -4.8715932    1.3145576      1024000 
   61000   0.87028583   -4.8656207   -4.8656207   -3.5601946   0.08911484   -4.8656207    1.3054261      1024000 
   62000   0.86939113   -4.8669666   -4.8669666   -3.5628826   0.10828597   -4.8669666     1.304084      1024000 
   63000   0.87816381    -4.884486    -4.884486    -3.567243   0.18687829    -4.884486     1.317243      1024000 
   64000   0.89065159   -4.9088665   -4.9088665   -3.5728918   0.28765275   -4.9088665    1.3359747      1024000 
   65000   0.90133425   -4.9328378   -4.9328378   -3.5808392   0.35393417   -4.9328378    1.3519986      1024000 
   66000   0.90555562   -4.9498755   -4.9498755   -3.5915449    0.3949503   -4.9498755    1.3583307      1024000 
   67000   0.90518807   -4.9607337   -4.9607337   -3.6029544   0.43006259   -4.9607337    1.3577793      1024000 
   68000   0.89500748   -4.9572802   -4.9572802   -3.6147717   0.39788237   -4.9572802    1.3425085      1024000 
   69000   0.87725016   -4.9448625   -4.9448625   -3.6289899   0.29787519   -4.9448625    1.3158726      1024000 
   70000   0.85341971   -4.9251928   -4.9251928   -3.6450659   0.22238282   -4.9251928     1.280127      1024000 
   71000    0.8296766   -4.9081632   -4.9081632   -3.6636508    0.1415582   -4.9081632    1.2445124      1024000 
   72000   0.80804486   -4.8901047   -4.8901047   -3.6780399  0.068856172   -4.8901047    1.2120648      1024000 
   73000   0.79428436   -4.8828455   -4.8828455   -3.6914214   0.10023855   -4.8828455    1.1914241      1024000 
   74000   0.79093469   -4.9036279   -4.9036279   -3.7172283   0.22706268   -4.9036279    1.1863996      1024000 
   75000   0.79516216   -4.9371012   -4.9371012   -3.7443603   0.25730436   -4.9371012    1.1927408      1024000 
   76000   0.80132316   -4.9666504   -4.9666504   -3.7646681   0.24462647   -4.9666504    1.2019823      1024000 
   77000   0.80759516   -4.9898024   -4.9898024   -3.7784121   0.26296926   -4.9898024    1.2113903      1024000 
   78000   0.81457427   -5.0105348   -5.0105348   -3.7886759   0.31206324   -5.0105348    1.2218589      1024000 
   79000   0.82345719   -5.0324796   -5.0324796   -3.7972963   0.37850849   -5.0324796    1.2351833      1024000 
   80000   0.83003621   -5.0512079   -5.0512079   -3.8061561    0.4455609   -5.0512079    1.2450518      1024000 
   81000   0.81802604   -5.0445901   -5.0445901   -3.8175535   0.40486124   -5.0445901    1.2270366      1024000 
   82000   0.79932684   -5.0289537   -5.0289537   -3.8299658   0.32754227   -5.0289537    1.1989878      1024000 
   83000   0.78465493   -5.0183602   -5.0183602   -3.8413802   0.26398043   -5.0183602      1.17698      1024000 
   84000   0.77211799   -5.0108854   -5.0108854   -3.8527107   0.22084051   -5.0108854    1.1581746      1024000 
   85000   0.76296458   -5.0069387   -5.0069387   -3.8624941   0.17858489   -5.0069387    1.1444445      1024000 
   86000   0.75755023   -5.0069023   -5.0069023   -3.8705793   0.12868045   -5.0069023     1.136323      1024000 
   87000   0.75091721    -5.004509    -5.004509   -3.8781355  0.070302792    -5.004509    1.1263735      1024000 
   88000   0.74251785   -4.9961436   -4.9961436    -3.882369 0.0073315538   -4.9961436    1.1137745      1024000 
   89000    0.7337218    -4.983407    -4.983407   -3.8828265 -0.063947468    -4.983407    1.1005805      1024000 
   90000   0.72369108   -4.9667716   -4.9667716   -3.8812372   -0.1150634   -4.9667716    1.0855344      1024000 
   91000   0.71306085   -4.9483624   -4.9483624   -3.8787733  -0.15345327   -4.9483624    1.0695891      1024000 
   92000   0.70446802   -4.9339027   -4.9339027   -3.8772028  -0.18562996   -4.9339027    1.0566999      1024000 
   93000   0.69696091   -4.9225588   -4.9225588   -3.8771196   -0.2025664   -4.9225588    1.0454393      1024000 
   94000   0.69004115   -4.9137728   -4.9137728   -3.8787132  -0.21406446   -4.9137728    1.0350596      1024000 
   95000   0.68570096   -4.9092554   -4.9092554   -3.8807061  -0.22654723   -4.9092554    1.0285494      1024000 
   96000   0.68348833   -4.9080162   -4.9080162   -3.8827858  -0.23288687   -4.9080162    1.0252304      1024000 
   97000    0.6841889   -4.9107178   -4.9107178   -3.8844365  -0.23155616   -4.9107178    1.0262813      1024000 
   98000   0.68743427   -4.9168523   -4.9168523   -3.8857029  -0.23085349   -4.9168523    1.0311493      1024000 
   99000   0.69142428   -4.9240832   -4.9240832   -3.8869489  -0.21687242   -4.9240832    1.0371343      1024000 
  100000   0.69797998   -4.9340336   -4.9340336   -3.8870658  -0.19084409   -4.9340336    1.0469678      1024000 
  101000   0.70608378   -4.9471984   -4.9471984   -3.8880749  -0.16713828   -4.9471984    1.0591235      1024000 
  102000   0.71272115   -4.9583306   -4.9583306   -3.8892511  -0.12975651   -4.9583306    1.0690796      1024000 
  103000   0.72024047   -4.9719295   -4.9719295    -3.891571 -0.096100186   -4.9719295    1.0803585      1024000 
  104000   0.72672321   -4.9846185   -4.9846185   -3.8945359 -0.060990721   -4.9846185    1.0900826      1024000 
  105000   0.73249068   -4.9974393   -4.9974393   -3.8987055 -0.018462376   -4.9974393    1.0987338      1024000 
  106000    0.7373184   -5.0106223   -5.0106223   -3.9046469  0.023610984   -5.0106223    1.1059754      1024000 
  107000      0.74269   -5.0257205   -5.0257205   -3.9116878   0.06396924   -5.0257205    1.1140327      1024000 
  108000   0.74761355    -5.040744    -5.040744   -3.9193259   0.10912808    -5.040744    1.1214181      1024000 
  109000   0.75234451    -5.056672    -5.056672   -3.9281575   0.14716802    -5.056672    1.1285145      1024000 
  110000   0.75790723   -5.0740603   -5.0740603   -3.9372018   0.17360039   -5.0740603    1.1368585      1024000 
  111000   0.76071387   -5.0864816   -5.0864816   -3.9454131   0.19991731   -5.0864816    1.1410685      1024000 
  112000   0.76357369   -5.0979161   -5.0979161   -3.9525579   0.21855684   -5.0979161    1.1453582      1024000 
  113000   0.76274358   -5.1037653   -5.1037653   -3.9596523   0.23404806   -5.1037653     1.144113      1024000 
  114000   0.76026917   -5.1075933   -5.1075933   -3.9671919   0.23164191   -5.1075933    1.1404014      1024000 
  115000    0.7556772    -5.108165    -5.108165   -3.9746515   0.21433727    -5.108165    1.1335135      1024000 
  116000   0.74965077    -5.106486    -5.106486   -3.9820121   0.18471964    -5.106486    1.1244739      1024000 
  117000   0.74282997   -5.1041402   -5.1041402   -3.9898975   0.15367171   -5.1041402    1.1142427      1024000 
  118000   0.73655491   -5.1005633   -5.1005633   -3.9957332   0.11805676   -5.1005633    1.1048301      1024000 
  119000   0.73146537   -5.0978913   -5.0978913   -4.0006955  0.073348254   -5.0978913    1.0971958      1024000 
  120000   0.72373021   -5.0910252   -5.0910252   -4.0054321  0.039502057   -5.0910252    1.0855931      1024000 
  121000   0.71805925   -5.0862117   -5.0862117    -4.009125 -0.0040267424   -5.0862117    1.0770867      1024000 
  122000   0.71221563   -5.0803052   -5.0803052   -4.0119839  -0.04443716   -5.0803052    1.0683213      1024000 
  123000   0.70574186   -5.0731321   -5.0731321   -4.0145214 -0.078044194   -5.0731321    1.0586106      1024000 
  124000   0.70080368   -5.0668088   -5.0668088   -4.0156054  -0.10888683   -5.0668088    1.0512034      1024000 
  125000   0.69640652   -5.0618171   -5.0618171   -4.0172095  -0.13040807   -5.0618171    1.0446077      1024000 
  126000   0.69182222   -5.0563638   -5.0563638   -4.0186326  -0.14430814   -5.0563638    1.0377312      1024000 
  127000   0.68951701   -5.0543674   -5.0543674    -4.020094  -0.15276445   -5.0543674    1.0342734      1024000 
  128000   0.68801031   -5.0547373   -5.0547373   -4.0227239  -0.16704426   -5.0547373    1.0320134      1024000 
  129000   0.68788423   -5.0569341   -5.0569341   -4.0251099  -0.15923406   -5.0569341    1.0318243      1024000 
  130000    0.6900299   -5.0623268   -5.0623268   -4.0272841  -0.15703786   -5.0623268    1.0350427      1024000 
  131000    0.6929201   -5.0684364   -5.0684364   -4.0290583  -0.14285681   -5.0684364     1.039378      1024000 
  132000   0.69642315   -5.0765902   -5.0765902   -4.0319576   -0.1232783   -5.0765902    1.0446326      1024000 
  133000   0.70105186   -5.0864394   -5.0864394   -4.0348638 -0.099839836   -5.0864394    1.0515757      1024000 
  134000   0.70609658   -5.0975149   -5.0975149   -4.0383722  -0.07550306   -5.0975149    1.0591427      1024000 
  135000   0.71103889   -5.1084282   -5.1084282    -4.041872 -0.046791187   -5.1084282    1.0665562      1024000 
  136000   0.71605303   -5.1201531   -5.1201531   -4.0460758 -0.012433602   -5.1201531    1.0740774      1024000 
  137000   0.71999479   -5.1322427   -5.1322427   -4.0522527   0.02387146   -5.1322427      1.07999      1024000 
  138000   0.72481689   -5.1457189   -5.1457189   -4.0584958  0.050151759   -5.1457189    1.0872231      1024000 
  139000   0.72748085    -5.156223    -5.156223    -4.065004  0.081967868    -5.156223    1.0912191      1024000 
  140000   0.73011767   -5.1677019   -5.1677019   -4.0725277   0.10883858   -5.1677019    1.0951743      1024000 
  141000   0.73270312   -5.1788421   -5.1788421   -4.0797896   0.12982899   -5.1788421    1.0990524      1024000 
  142000   0.73417444   -5.1879571   -5.1879571   -4.0866977   0.14606521   -5.1879571    1.1012594      1024000 
  143000   0.73342683   -5.1945065   -5.1945065   -4.0943685   0.15069943   -5.1945065     1.100138      1024000 
  144000   0.73269363   -5.2010734   -5.2010734   -4.1020352   0.14724215   -5.2010734    1.0990382      1024000 
  145000   0.73135145   -5.2053219   -5.2053219   -4.1082969   0.13501259   -5.2053219    1.0970249      1024000 
  146000   0.72725162    -5.205328    -5.205328   -4.1144528   0.11885867    -5.205328    1.0908752      1024000 
  147000   0.72197175   -5.2034976   -5.2034976   -4.1205422   0.10383224   -5.2034976    1.0829554      1024000 
  148000   0.71866057   -5.2044582   -5.2044582   -4.1264695  0.074487374   -5.2044582    1.0779887      1024000 
  149000   0.71387406   -5.2022396   -5.2022396   -4.1314306  0.044490521   -5.2022396    1.0708089      1024000 
  150000   0.70917149   -5.2000189   -5.2000189   -4.1362638  0.015033241   -5.2000189    1.0637551      1024000 
  151000   0.70543125   -5.1985142   -5.1985142   -4.1403695 -0.011905467   -5.1985142    1.0581447      1024000 
  152000   0.69964759   -5.1940332   -5.1940332   -4.1445639 -0.040430143   -5.1940332    1.0494693      1024000 
  153000   0.69512245   -5.1903498   -5.1903498   -4.1476682 -0.058944479   -5.1903498    1.0426816      1024000 
  154000   0.69263026   -5.1892162   -5.1892162   -4.1502729 -0.082361584   -5.1892162    1.0389433      1024000 
  155000   0.68913985   -5.1868782   -5.1868782   -4.1531706 -0.098333154   -5.1868782    1.0337077      1024000 
  156000   0.68631026     -5.18601     -5.18601   -4.1565467  -0.11454328     -5.18601    1.0294633      1024000 
  157000   0.68655454   -5.1878434   -5.1878434   -4.1580137  -0.11675079   -5.1878434    1.0298297      1024000 
  158000   0.68740897   -5.1922459   -5.1922459   -4.1611346  -0.11304944   -5.1922459    1.0311114      1024000 
  159000   0.68739961   -5.1951669   -5.1951669   -4.1640696  -0.10547643   -5.1951669    1.0310973      1024000 
  160000   0.68786723   -5.1988344   -5.1988344   -4.1670357 -0.094338975   -5.1988344    1.0317988      1024000 
  161000   0.69187192   -5.2081837   -5.2081837    -4.170378 -0.086527924   -5.2081837    1.0378058      1024000 
  162000   0.69437087   -5.2153775   -5.2153775   -4.1738233 -0.071759799   -5.2153775    1.0415542      1024000 
  163000   0.69730527   -5.2234431   -5.2234431   -4.1774874 -0.045173151   -5.2234431    1.0459558      1024000 
  164000   0.70161409   -5.2342161   -5.2342161   -4.1817971 -0.023409728   -5.2342161     1.052419      1024000 
  165000   0.70377664    -5.241902    -5.241902   -4.1862392 0.0032959854    -5.241902    1.0556628      1024000 
  166000   0.70735655   -5.2512044   -5.2512044   -4.1901717  0.024920776   -5.2512044    1.0610327      1024000 
  167000   0.71019982   -5.2612153   -5.2612153   -4.1959178  0.043269032   -5.2612153    1.0652976      1024000 
  168000   0.71165351   -5.2683749   -5.2683749   -4.2008968  0.059295671   -5.2683749    1.0674781      1024000 
  169000   0.71366641   -5.2763477   -5.2763477   -4.2058503   0.07644613   -5.2763477    1.0704974      1024000 
  170000   0.71452181   -5.2830512   -5.2830512   -4.2112706  0.089106632   -5.2830512    1.0717805      1024000 
  171000   0.71534428   -5.2897991   -5.2897991   -4.2167848  0.088647864   -5.2897991    1.0730143      1024000 
  172000   0.71367879   -5.2920313   -5.2920313   -4.2215153  0.085407878   -5.2920313     1.070516      1024000 
  173000   0.71136665   -5.2935559   -5.2935559   -4.2265081  0.081509405   -5.2935559    1.0670478      1024000 
  174000   0.70849837   -5.2933615   -5.2933615   -4.2306161  0.068233008   -5.2933615    1.0627454      1024000 
  175000   0.70557069   -5.2928676   -5.2928676   -4.2345137  0.053409893   -5.2928676    1.0583539      1024000 
  176000   0.70360197   -5.2942405   -5.2942405   -4.2388397  0.033576895   -5.2942405    1.0554008      1024000 
  177000   0.69866658   -5.2912068   -5.2912068   -4.2432091   0.01488274   -5.2912068    1.0479978      1024000 
  178000   0.69608286   -5.2912477   -5.2912477   -4.2471255 -0.012988606   -5.2912477    1.0441222      1024000 
  179000   0.69143908   -5.2875142   -5.2875142   -4.2503577 -0.032073007   -5.2875142    1.0371565      1024000 
  180000   0.68782137   -5.2853506   -5.2853506   -4.2536206  -0.04690235   -5.2853506      1.03173      1024000 
  181000   0.68513489   -5.2835226   -5.2835226   -4.2558224 -0.059523554   -5.2835226    1.0277002      1024000 
  182000   0.68336501   -5.2827798   -5.2827798   -4.2577344 -0.077085002   -5.2827798    1.0250454      1024000 
  183000   0.68227593   -5.2842776   -5.2842776   -4.2608658  -0.08834876   -5.2842776    1.0234118      1024000 
  184000   0.67972162   -5.2833545   -5.2833545   -4.2637741  -0.08719571   -5.2833545    1.0195804      1024000 
  185000    0.6811094   -5.2878353   -5.2878353   -4.2661733  -0.09314831   -5.2878353     1.021662      1024000 
  186000    0.6809038   -5.2897416   -5.2897416   -4.2683879 -0.079463694   -5.2897416    1.0213536      1024000 
  187000   0.68296892   -5.2956498   -5.2956498   -4.2711985 -0.072032835   -5.2956498    1.0244513      1024000 
  188000   0.68472674   -5.3003803   -5.3003803   -4.2732923 -0.063481623   -5.3003803     1.027088      1024000 
  189000   0.68775118    -5.307533    -5.307533   -4.2759083 -0.050286585    -5.307533    1.0316247      1024000 
  190000   0.69042644   -5.3133843   -5.3133843   -4.2777468 -0.031483286   -5.3133843    1.0356376      1024000 
  191000   0.69230589   -5.3184638   -5.3184638    -4.280007  -0.01029477   -5.3184638    1.0384567      1024000 
  192000   0.69360542   -5.3233469   -5.3233469   -4.2829409  0.012479464   -5.3233469     1.040406      1024000 
  193000   0.69592543   -5.3305519   -5.3305519   -4.2866659  0.028908798   -5.3305519     1.043886      1024000 
  194000    0.6983112    -5.336985    -5.336985   -4.2895203  0.043302812    -5.336985    1.0474647      1024000 
  195000   0.70090866   -5.3441082   -5.3441082   -4.2927473  0.055021045   -5.3441082    1.0513609      1024000 
  196000   0.70189915    -5.348912    -5.348912   -4.2960654   0.06261633    -5.348912    1.0528466      1024000 
  197000   0.70101433    -5.351596    -5.351596   -4.3000766   0.06799367    -5.351596    1.0515194      1024000 
  198000   0.70058137   -5.3548578   -5.3548578   -4.3039879  0.064935539   -5.3548578    1.0508699      1024000 
  199000    0.6991163   -5.3555702   -5.3555702   -4.3068979  0.058515426   -5.3555702    1.0486723      1024000 
  200000   0.69733264   -5.3566588   -5.3566588    -4.310662  0.046070001   -5.3566588    1.0459968      1024000 
  201000   0.69418388   -5.3553223   -5.3553223   -4.3140486  0.032996673   -5.3553223    1.0412737      1024000 
  202000   0.69140367   -5.3535319   -5.3535319   -4.3164285  0.021372044   -5.3535319    1.0371034      1024000 
  203000   0.68904974   -5.3524502   -5.3524502   -4.3188777 0.0009554617   -5.3524502    1.0335725      1024000 
  204000   0.68616578   -5.3510615   -5.3510615   -4.3218149 -0.017320536   -5.3510615    1.0292466      1024000 
  205000   0.68339407   -5.3497713   -5.3497713   -4.3246822 -0.034638197   -5.3497713     1.025089      1024000 
  206000   0.68095311   -5.3485057   -5.3485057   -4.3270781 -0.048499807   -5.3485057    1.0214276      1024000 
  207000    0.6791246   -5.3471772   -5.3471772   -4.3284924 -0.055426083   -5.3471772    1.0186848      1024000 
  208000   0.67742348   -5.3470305   -5.3470305   -4.3308973 -0.064807167   -5.3470305    1.0161332      1024000 
  209000   0.67667604   -5.3474474   -5.3474474   -4.3324354 -0.067425966   -5.3474474     1.015012      1024000 
  210000    0.6748472   -5.3472072   -5.3472072   -4.3349384 -0.068714411   -5.3472072    1.0122687      1024000 
  211000   0.67558547   -5.3505624   -5.3505624   -4.3371863 -0.067808074   -5.3505624    1.0133762      1024000 
  212000   0.67598176   -5.3534599   -5.3534599   -4.3394893 -0.060393016   -5.3534599    1.0139706      1024000 
  213000    0.6781122   -5.3580367   -5.3580367   -4.3408704 -0.053611252   -5.3580367    1.0171662      1024000 
  214000   0.67888018   -5.3610885   -5.3610885   -4.3427703  -0.04272577   -5.3610885    1.0183182      1024000 
  215000   0.68145413   -5.3666996   -5.3666996   -4.3445204  -0.02903483   -5.3666996    1.0221791      1024000 
  216000   0.68325422   -5.3715392   -5.3715392     -4.34666 -0.015417081   -5.3715392    1.0248792      1024000 
  217000   0.68623988    -5.379292    -5.379292   -4.3499343 -0.0050196075    -5.379292    1.0293577      1024000 
  218000   0.68668574   -5.3827556   -5.3827556   -4.3527291  0.013966746   -5.3827556    1.0300265      1024000 
  219000   0.68736252   -5.3863568   -5.3863568   -4.3553151  0.028187821   -5.3863568    1.0310417      1024000 
  220000   0.68921948   -5.3919117   -5.3919117   -4.3580846  0.029952261   -5.3919117    1.0338271      1024000 
  221000   0.68862346   -5.3938634   -5.3938634   -4.3609303  0.040276576   -5.3938634    1.0329331      1024000 
  222000   0.69018796   -5.3987804   -5.3987804   -4.3635005   0.04117517   -5.3987804    1.0352798      1024000 
  223000   0.68973362   -5.4011539   -5.4011539   -4.3665556   0.04327805   -5.4011539    1.0345983      1024000 
  224000   0.68919599   -5.4034524   -5.4034524   -4.3696605  0.036042138   -5.4034524    1.0337919      1024000 
  225000   0.68646296   -5.4024725   -5.4024725   -4.3727802  0.035408197   -5.4024725    1.0296924      1024000 
  226000   0.68352845   -5.4011668   -5.4011668   -4.3758762  0.023964763   -5.4011668    1.0252906      1024000 
  227000   0.68263335   -5.4016737   -5.4016737   -4.3777258  0.007337013   -5.4016737    1.0239479      1024000 
  228000   0.68039358   -5.4007108   -5.4007108   -4.3801225 -0.0021426442   -5.4007108    1.0205883      1024000 
  229000   0.67773527   -5.3992677   -5.3992677   -4.3826668 -0.016200639   -5.3992677    1.0166008      1024000 
  230000     0.675121   -5.3971751   -5.3971751   -4.3844957 -0.027556473   -5.3971751    1.0126794      1024000 
  231000   0.67403275   -5.3971122   -5.3971122   -4.3860651 -0.040135692   -5.3971122    1.0110471      1024000 
  232000   0.67180097   -5.3954244   -5.3954244   -4.3877249 -0.049389578   -5.3954244    1.0076994      1024000 
  233000   0.67043809   -5.3952274   -5.3952274   -4.3895723 -0.053464513   -5.3952274    1.0056551      1024000 
  234000   0.67095364   -5.3975699   -5.3975699   -4.3911414 -0.055979457   -5.3975699    1.0064284      1024000 
  235000   0.67182847   -5.4000392   -5.4000392   -4.3922985 -0.060196208   -5.4000392    1.0077407      1024000 
  236000   0.67133447   -5.4012158   -5.4012158   -4.3942162 -0.055693156   -5.4012158    1.0069997      1024000 
  237000   0.67259324   -5.4049546   -5.4049546   -4.3960668 -0.052432314   -5.4049546    1.0088878      1024000 
  238000   0.67250622   -5.4066463   -5.4066463    -4.397889 -0.043117434   -5.4066463    1.0087573      1024000 
  239000   0.67400204   -5.4108634   -5.4108634   -4.3998624 -0.032764761   -5.4108634     1.011001      1024000 
  240000   0.67527758   -5.4151513   -5.4151513    -4.402237 -0.018951156   -5.4151513    1.0129143      1024000 
  241000   0.67723725   -5.4199345   -5.4199345   -4.4040806 -0.0066422464   -5.4199345    1.0158538      1024000 
  242000   0.67880537    -5.424619    -5.424619    -4.406413 0.0026499718    -5.424619     1.018206      1024000 
  243000   0.67874069   -5.4264175   -5.4264175   -4.4083085  0.019181854   -5.4264175     1.018109      1024000 
  244000   0.68151407    -5.432704    -5.432704    -4.410435  0.019489056    -5.432704     1.022269      1024000 
  245000   0.68043726   -5.4342284   -5.4342284   -4.4135745  0.029289626   -5.4342284    1.0206538      1024000 
  246000   0.68064965   -5.4367909   -5.4367909   -4.4158184  0.034403639   -5.4367909    1.0209724      1024000 
  247000   0.68064606   -5.4397063   -5.4397063   -4.4187393  0.025832671   -5.4397063     1.020967      1024000 
  248000    0.6800006   -5.4405997   -5.4405997   -4.4206009  0.026798462   -5.4405997    1.0199988      1024000 
  249000   0.67953049   -5.4418274   -5.4418274   -4.4225337  0.021430181   -5.4418274    1.0192937      1024000 
  250000   0.67688679   -5.4406707   -5.4406707   -4.4253426  0.019182468   -5.4406707    1.0153281      1024000 
  251000   0.67606401   -5.4412251   -5.4412251   -4.4271312 0.0078169361   -5.4412251     1.014094      1024000 
  252000   0.67490491   -5.4412364   -5.4412364   -4.4288811 -0.0021380601   -5.4412364    1.0123553      1024000 
  253000     0.673744   -5.4410433   -5.4410433   -4.4304293 -0.017927101   -5.4410433    1.0106139      1024000 
  254000   0.67165991   -5.4401299   -5.4401299   -4.4326421 -0.023183348   -5.4401299    1.0074878      1024000 
  255000   0.66970793   -5.4396839   -5.4396839   -4.4351241 -0.032583752   -5.4396839    1.0045599      1024000 
  256000   0.66856398   -5.4397883   -5.4397883   -4.4369443 -0.042179693   -5.4397883    1.0028439      1024000 
  257000   0.66822581   -5.4403816   -5.4403816   -4.4380449 -0.045798513   -5.4403816    1.0023367      1024000 
  258000   0.66777601   -5.4414544   -5.4414544   -4.4397924 -0.048781086   -5.4414544     1.001662      1024000 
  259000   0.66701169   -5.4422202   -5.4422202   -4.4417047 -0.047091794   -5.4422202    1.0005155      1024000 
  260000   0.66631785   -5.4430053   -5.4430053   -4.4435306 -0.046282331   -5.4430053   0.99947475      1024000 
  261000   0.66803888   -5.4469386   -5.4469386   -4.4448823 -0.045377511   -5.4469386    1.0020563      1024000 
  262000   0.66920267   -5.4505208   -5.4505208   -4.4467188 -0.038248229   -5.4505208     1.003802      1024000 
  263000   0.66862829   -5.4516009   -5.4516009   -4.4486605 -0.028165901   -5.4516009    1.0029404      1024000 
  264000   0.67022377   -5.4562076   -5.4562076    -4.450874 -0.019669962   -5.4562076    1.0053336      1024000 
  265000   0.67122162   -5.4591063   -5.4591063   -4.4522759 -0.0055471311   -5.4591063    1.0068304      1024000 
  266000    0.6727558   -5.4640374   -5.4640374   -4.4549058 -0.0051113581   -5.4640374    1.0091317      1024000 
  267000   0.67274049   -5.4662731   -5.4662731   -4.4571644  0.004090487   -5.4662731    1.0091087      1024000 
  268000   0.67304804   -5.4690801   -5.4690801   -4.4595101  0.012362614   -5.4690801      1.00957      1024000 
  269000    0.6731547   -5.4712135   -5.4712135   -4.4614835  0.017853069   -5.4712135      1.00973      1024000 
  270000   0.67350518   -5.4738319   -5.4738319   -4.4635762  0.020054763   -5.4738319    1.0102557      1024000 
  271000   0.67292395    -5.475298    -5.475298   -4.4659141  0.017629403    -5.475298    1.0093839      1024000 
  272000   0.67212963   -5.4766652   -5.4766652   -4.4684728  0.015760398   -5.4766652    1.0081924      1024000 
  273000   0.67284211   -5.4792814   -5.4792814   -4.4700203  0.010936283   -5.4792814    1.0092611      1024000 
  274000   0.67122441   -5.4775553   -5.4775553   -4.4707208  0.008074857   -5.4775553    1.0068346      1024000 
  275000    0.6699461   -5.4771936   -5.4771936   -4.4722765 0.0021179362   -5.4771936    1.0049171      1024000 
  276000   0.66884832   -5.4775413   -5.4775413   -4.4742709 -0.012521886   -5.4775413    1.0032704      1024000 
  277000   0.66718965   -5.4760552   -5.4760552   -4.4752728 -0.018849649   -5.4760552    1.0007825      1024000 
  278000   0.66553647   -5.4749632   -5.4749632   -4.4766605 -0.026311376   -5.4749632   0.99830268      1024000 
  279000   0.66384526   -5.4747742   -5.4747742   -4.4790083 -0.030954851   -5.4747742   0.99576587      1024000 
  280000   0.66341107   -5.4761378   -5.4761378   -4.4810232 -0.039993028   -5.4761378   0.99511459      1024000 
  281000   0.66323759   -5.4773979   -5.4773979   -4.4825435 -0.049148063   -5.4773979   0.99485437      1024000 
  282000   0.66277535   -5.4782437   -5.4782437   -4.4840827 -0.044678097   -5.4782437   0.99416101      1024000 
  283000    0.6626482   -5.4793692   -5.4793692   -4.4853989 -0.043024453   -5.4793692   0.99397029      1024000 
  284000    0.6621697   -5.4805481   -5.4805481   -4.4872956 -0.041041386   -5.4805481   0.99325254      1024000 
  285000    0.6624693   -5.4822031   -5.4822031   -4.4885011 -0.031733902   -5.4822031   0.99370194      1024000 
  286000   0.66353607   -5.4855991   -5.4855991    -4.490297 -0.034686835   -5.4855991   0.99530209      1024000 
  287000    0.6633903   -5.4867815   -5.4867815   -4.4916981 -0.024750584   -5.4867815   0.99508343      1024000 
  288000   0.66621497   -5.4924393   -5.4924393   -4.4931189 -0.017047401   -5.4924393   0.99932043      1024000 
  289000   0.66605949    -5.494847    -5.494847   -4.4957598 -0.0075515778    -5.494847    0.9990872      1024000 
  290000      0.66721   -5.4974286   -5.4974286   -4.4966157 -6.7714984e-05   -5.4974286     1.000813      1024000 
  291000   0.66829698   -5.5007932   -5.5007932   -4.4983498 0.0055365393   -5.5007932    1.0024434      1024000 
  292000   0.66890894   -5.5030804   -5.5030804   -4.4997191  0.014019868   -5.5030804    1.0033614      1024000 
  293000   0.66759939   -5.5032244   -5.5032244   -4.5018273  0.018366051   -5.5032244    1.0013971      1024000 
  294000   0.66766657   -5.5054863   -5.5054863   -4.5039885  0.013044003   -5.5054863    1.0014978      1024000 
  295000   0.66711812   -5.5063097   -5.5063097   -4.5056346  0.010015878   -5.5063097    1.0006751      1024000 
  296000   0.66714204   -5.5082857   -5.5082857   -4.5075747 0.0082221838   -5.5082857     1.000711      1024000 
  297000   0.66620285    -5.508466    -5.508466   -4.5091637 0.0056553688    -5.508466   0.99930225      1024000 
  298000   0.66515744    -5.508771    -5.508771   -4.5110368 0.0017148089    -5.508771   0.99773413      1024000 
  299000   0.66428687   -5.5095211   -5.5095211   -4.5130928 -0.012736303   -5.5095211   0.99642829      1024000 
  300000   0.66363322   -5.5097867   -5.5097867   -4.5143388  -0.01901756   -5.5097867   0.99544781      1024000 
  301000   0.66054051   -5.5069659   -5.5069659   -4.5161572 -0.019828979   -5.5069659   0.99080876      1024000 
  302000   0.65949671   -5.5071538   -5.5071538   -4.5179108 -0.028902481   -5.5071538   0.98924305      1024000 
  303000   0.65932405   -5.5081923   -5.5081923   -4.5192082 -0.035912207   -5.5081923   0.98898406      1024000 
  304000   0.65925962   -5.5097853   -5.5097853   -4.5208978 -0.038475134   -5.5097853   0.98888742      1024000 
  305000   0.65902451   -5.5104902   -5.5104902   -4.5219554 -0.037881175   -5.5104902   0.98853477      1024000 
  306000   0.65961211   -5.5127241   -5.5127241    -4.523308 -0.040822043   -5.5127241   0.98941616      1024000 
  307000   0.65982431    -5.514376    -5.514376   -4.5246415 -0.033304736    -5.514376   0.98973446      1024000 
  308000   0.66064487   -5.5167309   -5.5167309   -4.5257656 -0.031482958   -5.5167309   0.99096529      1024000 
  309000   0.66023546   -5.5172181   -5.5172181   -4.5268669 -0.021777922   -5.5172181   0.99035118      1024000 
  310000   0.66071856   -5.5199134   -5.5199134   -4.5288376 -0.016325075   -5.5199134   0.99107583      1024000 
  311000    0.6623511    -5.524001    -5.524001   -4.5304763 -0.016590156    -5.524001   0.99352464      1024000 
  312000   0.66261608   -5.5256469   -5.5256469   -4.5317248 -0.0058874279   -5.5256469   0.99392211      1024000 
  313000   0.66286638   -5.5270418   -5.5270418   -4.5327442 0.0025824309   -5.5270418   0.99429755      1024000 
  314000   0.66368538    -5.530342    -5.530342   -4.5348159 0.0082329049    -5.530342   0.99552606      1024000 
  315000   0.66502498   -5.5342085   -5.5342085    -4.536673  0.010015222   -5.5342085   0.99753545      1024000 
  316000   0.66427559   -5.5352935   -5.5352935   -4.5388821 0.0086633969   -5.5352935   0.99641136      1024000 
  317000   0.66357724   -5.5366449   -5.5366449   -4.5412811 0.0087443198   -5.5366449   0.99536385      1024000 
  318000   0.66305762   -5.5378964   -5.5378964    -4.543312 0.0075738687   -5.5378964   0.99458441      1024000 
  319000   0.66112863   -5.5370222   -5.5370222   -4.5453313 0.0031784742   -5.5370222   0.99169093      1024000 
  320000   0.65956874   -5.5361334   -5.5361334   -4.5467823 0.0021098375   -5.5361334   0.98935111      1024000 
  321000   0.66004424   -5.5391503   -5.5391503   -4.5490859 -0.011528129   -5.5391503   0.99006435      1024000 
  322000   0.66006041   -5.5397916   -5.5397916    -4.549703  -0.01269968   -5.5397916    0.9900886      1024000 
  323000   0.65840285   -5.5387411   -5.5387411   -4.5511388 -0.017624849   -5.5387411   0.98760227      1024000 
  324000   0.65815733   -5.5395819   -5.5395819   -4.5523479 -0.025543942   -5.5395819   0.98723399      1024000 
  325000   0.65740683   -5.5402728   -5.5402728   -4.5541646 -0.030926928   -5.5402728   0.98610824      1024000 
  326000   0.65526062   -5.5384015   -5.5384015   -4.5555126 -0.030198236   -5.5384015   0.98288893      1024000 
  327000   0.65563765   -5.5400508   -5.5400508   -4.5565963 -0.035308879   -5.5400508   0.98345448      1024000 
  328000   0.65551177   -5.5407318   -5.5407318   -4.5574661 -0.031594376   -5.5407318   0.98326567      1024000 
  329000   0.65548706   -5.5418721   -5.5418721   -4.5586436 -0.034481591   -5.5418721   0.98322859      1024000 
  330000   0.65492844   -5.5428492   -5.5428492   -4.5604586  -0.02696869   -5.5428492   0.98239067      1024000 
  331000   0.65502798   -5.5439769   -5.5439769   -4.5614369 -0.023751451   -5.5439769   0.98253998      1024000 
  332000   0.65766584   -5.5492193   -5.5492193   -4.5627226 -0.021788239   -5.5492193   0.98649676      1024000 
  333000   0.65820564   -5.5509589   -5.5509589   -4.5636524   -0.0144834   -5.5509589   0.98730645      1024000 
  334000   0.65821317    -5.552642    -5.552642   -4.5653243 -0.011842121    -5.552642   0.98731775      1024000 
  335000   0.65826482   -5.5544088   -5.5544088   -4.5670136 -0.0060802569   -5.5544088   0.98739523      1024000 
  336000    0.6591908   -5.5571952   -5.5571952    -4.568411 -0.0020657777   -5.5571952   0.98878419      1024000 
  337000   0.65877168   -5.5584514   -5.5584514   -4.5702959 0.0054091945   -5.5584514   0.98815552      1024000 
  338000   0.65900471   -5.5605836   -5.5605836   -4.5720786 0.0054789928   -5.5605836   0.98850506      1024000 
  339000   0.66003772   -5.5636239   -5.5636239   -4.5735694  0.001735793   -5.5636239   0.99005457      1024000 
  340000   0.66009162    -5.565208    -5.565208   -4.5750726 0.0016678909    -5.565208   0.99013542      1024000 
  341000     0.657734   -5.5638786   -5.5638786   -4.5772796 0.0069030269   -5.5638786     0.986599      1024000 
  342000   0.65739947   -5.5648902   -5.5648902    -4.578793 -0.0020711114   -5.5648902    0.9860972      1024000 
  343000   0.65684112   -5.5657477   -5.5657477   -4.5804881 -0.0038320758   -5.5657477   0.98525968      1024000 
  344000    0.6560103   -5.5664018   -5.5664018   -4.5823883 -0.013975904   -5.5664018   0.98401345      1024000 
  345000   0.65539575   -5.5677533   -5.5677533   -4.5846617 -0.015864809   -5.5677533   0.98309164      1024000 
  346000   0.65434668   -5.5673498   -5.5673498   -4.5858317  -0.02327132   -5.5673498   0.98151803      1024000 
  347000   0.65424468   -5.5686573   -5.5686573   -4.5872923 -0.025951837   -5.5686573   0.98136503      1024000 
  348000   0.65413385   -5.5694235   -5.5694235   -4.5882247 -0.026919158   -5.5694235   0.98119878      1024000 
  349000   0.65378486    -5.569626    -5.569626   -4.5889507 -0.030722119    -5.569626   0.98067531      1024000 
  350000   0.65211604   -5.5688264   -5.5688264   -4.5906543 -0.023394593   -5.5688264   0.97817208      1024000 
  351000   0.65304232   -5.5710875   -5.5710875    -4.591526 -0.030011709   -5.5710875    0.9795615      1024000 
  352000   0.65299426    -5.572441    -5.572441   -4.5929516 -0.027515927    -5.572441    0.9794894      1024000 
  353000   0.65368598   -5.5745953   -5.5745953   -4.5940683 -0.023914769   -5.5745953   0.98052698      1024000 
  354000   0.65411245   -5.5774997   -5.5774997    -4.596333 -0.020215516   -5.5774997   0.98116668      1024000 
  355000   0.65330398   -5.5777685   -5.5777685   -4.5978145 -0.015161868   -5.5777685   0.97995398      1024000 
  356000   0.65391483   -5.5804555   -5.5804555   -4.5995853   -0.0153518   -5.5804555   0.98087026      1024000 
  357000   0.65310939   -5.5804588   -5.5804588   -4.6007967 -0.0075943857   -5.5804588    0.9796621      1024000 
  358000   0.65378167   -5.5828139   -5.5828139   -4.6021433 -0.0029546612   -5.5828139   0.98067052      1024000 
  359000   0.65395514   -5.5850263   -5.5850263   -4.6040956 -0.0049930201   -5.5850263   0.98093072      1024000 
  360000   0.65452275   -5.5875505   -5.5875505   -4.6057683 -0.005217861   -5.5875505   0.98178213      1024000 
  361000   0.65476313   -5.5887908   -5.5887908   -4.6066481 -0.0031516883   -5.5887908    0.9821427      1024000 
  362000   0.65494046   -5.5901979   -5.5901979   -4.6077892 -0.0052200053   -5.5901979    0.9824087      1024000 
  363000   0.65433242   -5.5894826   -5.5894826    -4.607986 -0.0020323385   -5.5894826   0.98149664      1024000 
  364000   0.65446197   -5.5919129   -5.5919129   -4.6102219 -0.0057355653   -5.5919129   0.98169097      1024000 
  365000   0.65264198   -5.5904488   -5.5904488   -4.6114879 -0.0072353426   -5.5904488   0.97896099      1024000 
  366000   0.65248414   -5.5914305   -5.5914305   -4.6127063 -0.012235342   -5.5914305   0.97872422      1024000 
  367000   0.65206671   -5.5922318   -5.5922318   -4.6141337 -0.016519346   -5.5922318   0.97809808      1024000 
  368000    0.6514378   -5.5930489   -5.5930489   -4.6158942 -0.024168233   -5.5930489   0.97715472      1024000 
  369000    0.6498565   -5.5915144   -5.5915144   -4.6167316 -0.019024463   -5.5915144   0.97478278      1024000 
  370000   0.65012114   -5.5930349   -5.5930349   -4.6178552 -0.020948162   -5.5930349   0.97517973      1024000 
  371000   0.64931062   -5.5928558   -5.5928558   -4.6188919 -0.023127473   -5.5928558   0.97396395      1024000 
  372000   0.64985562   -5.5946317   -5.5946317   -4.6198503 -0.026116337   -5.5946317   0.97478145      1024000 
  373000   0.64844038   -5.5937963   -5.5937963   -4.6211377 -0.019986364   -5.5937963    0.9726586      1024000 
  374000   0.64953277   -5.5965883   -5.5965883   -4.6222911 -0.025695204   -5.5965883   0.97429718      1024000 
  375000   0.64898584   -5.5970454   -5.5970454   -4.6235686 -0.015863729   -5.5970454   0.97347678      1024000 
  376000   0.65085037    -5.600144    -5.600144   -4.6238704 -0.015268393    -5.600144   0.97627357      1024000 
  377000   0.65028329   -5.6001592   -5.6001592   -4.6247362 -0.011617435   -5.6001592   0.97542295      1024000 
  378000   0.65096695   -5.6020014   -5.6020014    -4.625553 -0.009515793   -5.6020014   0.97644844      1024000 
  379000   0.65141469    -5.604554    -5.604554   -4.6274339 -0.0058155172    -5.604554   0.97712005      1024000 
  380000   0.65129038   -5.6056188   -5.6056188   -4.6286852 -0.0079462193   -5.6056188   0.97693358      1024000 
  381000    0.6513695   -5.6072368   -5.6072368   -4.6301845 -0.0070436276   -5.6072368   0.97705226      1024000 
  382000   0.65161788   -5.6090301   -5.6090301   -4.6316052 -0.0068601185   -5.6090301   0.97742484      1024000 
  383000   0.65149712   -5.6101711   -5.6101711   -4.6329274 -0.0044768697   -5.6101711    0.9772437      1024000 
  384000   0.65049384   -5.6097912   -5.6097912   -4.6340525 -0.0031004646   -5.6097912   0.97573878      1024000 
  385000    0.6502026   -5.6104468   -5.6104468   -4.6351449 -0.0050828165   -5.6104468   0.97530191      1024000 
  386000   0.65046285   -5.6122248   -5.6122248   -4.6365325 -0.0076814398   -5.6122248   0.97569229      1024000 
  387000   0.64945649    -5.613568    -5.613568   -4.6393853 -0.011861936    -5.613568   0.97418275      1024000 
  388000   0.64809972   -5.6124343   -5.6124343   -4.6402867 -0.013218645   -5.6124343   0.97214761      1024000 
  389000   0.64904268   -5.6143486   -5.6143486   -4.6407866 -0.013194522   -5.6143486   0.97356205      1024000 
  390000   0.64772121   -5.6136088   -5.6136088   -4.6420289 -0.013756239   -5.6136088   0.97157984      1024000 
  391000   0.64739815   -5.6147794   -5.6147794   -4.6436842 -0.018280784   -5.6147794   0.97109525      1024000 
  392000   0.64692687   -5.6151995   -5.6151995   -4.6448111 -0.020226295   -5.6151995   0.97038833      1024000 
  393000   0.64694876   -5.6170592   -5.6170592    -4.646638 -0.020833795   -5.6170592   0.97042116      1024000 
  394000      0.64688   -5.6186705   -5.6186705   -4.6483525 -0.020238176   -5.6186705   0.97031802      1024000 
  395000    0.6464094   -5.6191976   -5.6191976   -4.6495855 -0.018456773   -5.6191976   0.96961213      1024000 
  396000   0.64660444   -5.6205044   -5.6205044   -4.6505997 -0.020293872   -5.6205044   0.96990469      1024000 
  397000   0.64618532   -5.6210323   -5.6210323   -4.6517563 -0.014296716   -5.6210323   0.96927601      1024000 
  398000   0.64786567   -5.6247908   -5.6247908   -4.6529942 -0.017517976   -5.6247908   0.97179654      1024000 
  399000   0.64627195   -5.6240206   -5.6240206   -4.6546146  -0.01472222   -5.6240206   0.96940596      1024000 
  400000    0.6465181   -5.6253023   -5.6253023   -4.6555271 -0.007557397   -5.6253023   0.96977519      1024000 
  401000   0.64645408    -5.626764    -5.626764   -4.6570849 -0.0092713429    -5.626764   0.96967916      1024000 
  402000   0.64660643   -5.6285402   -5.6285402   -4.6586325 -0.0095455959   -5.6285402   0.96990768      1024000 
  403000   0.64681689   -5.6299764   -5.6299764    -4.659753 -0.010125842   -5.6299764   0.97022336      1024000 
  404000   0.64655636   -5.6303792   -5.6303792   -4.6605466 -0.002387502   -5.6303792   0.96983258      1024000 
  405000   0.64730469   -5.6332268   -5.6332268   -4.6622718 -0.010373959   -5.6332268   0.97095506      1024000 
  406000   0.64734613   -5.6336965   -5.6336965   -4.6626793 -0.0047400126   -5.6336965   0.97101723      1024000 
  407000    0.6469918   -5.6340886   -5.6340886   -4.6636029 -0.0063195456   -5.6340886   0.97048574      1024000 
  408000   0.64676546   -5.6341105   -5.6341105   -4.6639643 -0.010647634   -5.6341105   0.97014622      1024000 
  409000   0.64569228   -5.6331638   -5.6331638   -4.6646273 -0.0076814012   -5.6331638   0.96853645      1024000 
  410000   0.64609713   -5.6351525   -5.6351525   -4.6660087 -0.013594111   -5.6351525   0.96914373      1024000 
  411000   0.64602408   -5.6358347   -5.6358347   -4.6668005 -0.016154865   -5.6358347   0.96903416      1024000 
  412000   0.64493436   -5.6356695   -5.6356695   -4.6682699 -0.014902523   -5.6356695   0.96739957      1024000 
  413000   0.64585575   -5.6377362   -5.6377362   -4.6689546 -0.018739841   -5.6377362   0.96878166      1024000 
  414000   0.64465638   -5.6370237   -5.6370237   -4.6700411  -0.01949118   -5.6370237   0.96698261      1024000 
  415000    0.6446642   -5.6371741   -5.6371741   -4.6701798 -0.019815895   -5.6371741   0.96699434      1024000 
  416000   0.64461531   -5.6384472   -5.6384472   -4.6715262 -0.019981288   -5.6384472     0.966921      1024000 
  417000   0.64453075   -5.6402313   -5.6402313   -4.6734371 -0.021193407   -5.6402313   0.96679416      1024000 
  418000   0.64381944   -5.6400772   -5.6400772     -4.67435 -0.018512164   -5.6400772   0.96572721      1024000 
  419000   0.64360466   -5.6413634   -5.6413634   -4.6759583 -0.018754746   -5.6413634   0.96540503      1024000 
  420000   0.64399805   -5.6426984   -5.6426984   -4.6767033 -0.015679237   -5.6426984   0.96599512      1024000 
  421000   0.64464719   -5.6445952   -5.6445952   -4.6776264 -0.012059925   -5.6445952   0.96696883      1024000 
  422000   0.64474551    -5.645754    -5.645754   -4.6786377 -0.010627058    -5.645754   0.96711631      1024000 
  423000   0.64480125   -5.6473677   -5.6473677   -4.6801677 -0.013577111   -5.6473677   0.96719992      1024000 
  424000     0.644886   -5.6475402   -5.6475402   -4.6802131 -0.0079792409   -5.6475402   0.96732704      1024000 
  425000   0.64474604   -5.6486639   -5.6486639   -4.6815468 -0.0085296129   -5.6486639    0.9671171      1024000 
  426000   0.64489798   -5.6498473   -5.6498473   -4.6825023 -0.0033635179   -5.6498473     0.967345      1024000 
  427000   0.64502623   -5.6515954   -5.6515954    -4.684058 -0.005386215   -5.6515954   0.96753738      1024000 
  428000   0.64381601   -5.6507903   -5.6507903   -4.6850683 -0.0028044997   -5.6507903   0.96572206      1024000 
  429000   0.64370328   -5.6517932   -5.6517932   -4.6862403 -0.0074414963   -5.6517932   0.96555296      1024000 
  430000   0.64472915   -5.6536919   -5.6536919   -4.6866001  -0.01034857   -5.6536919   0.96709177      1024000 
  431000   0.64336007   -5.6538144   -5.6538144   -4.6887763 -0.011462261   -5.6538144   0.96503815      1024000 
  432000   0.64305339   -5.6538311   -5.6538311    -4.689253 -0.015057302   -5.6538311   0.96457813      1024000 
  433000   0.64251103   -5.6542386   -5.6542386    -4.690474 -0.014123806   -5.6542386   0.96376459      1024000 
  434000   0.64252903   -5.6558614   -5.6558614   -4.6920698 -0.019746979   -5.6558614   0.96379159      1024000 
  435000    0.6424719   -5.6567659   -5.6567659     -4.69306 -0.020169477   -5.6567659   0.96370589      1024000 
  436000   0.64129977   -5.6560887   -5.6560887    -4.694141 -0.016983655   -5.6560887    0.9619477      1024000 
  437000   0.64226118   -5.6584628   -5.6584628    -4.695073    -0.019291   -5.6584628   0.96338982      1024000 
  438000   0.64168815   -5.6589159   -5.6589159   -4.6963856 -0.015914264   -5.6589159   0.96253028      1024000 
  439000   0.64158837   -5.6597479   -5.6597479   -4.6973673 -0.017171068   -5.6597479    0.9623806      1024000 
  440000   0.64177487    -5.661102    -5.661102   -4.6984417 -0.013041363    -5.661102   0.96266035      1024000 
  441000   0.64223778   -5.6629069   -5.6629069   -4.6995522 -0.013516259   -5.6629069   0.96335471      1024000 
  442000   0.64244346   -5.6652106   -5.6652106   -4.7015474 -0.010557514   -5.6652106   0.96366323      1024000 
  443000   0.64199754   -5.6660358   -5.6660358   -4.7030414 -0.0099615074   -5.6660358   0.96299436      1024000 
  444000   0.64195213    -5.666865    -5.666865   -4.7039388 -0.010900197    -5.666865   0.96292623      1024000 
  445000   0.64222389   -5.6687143   -5.6687143   -4.7053804 -0.012254716   -5.6687143   0.96333389      1024000 
  446000   0.64227034   -5.6694193   -5.6694193   -4.7060157 -0.0077524193   -5.6694193   0.96340356      1024000 
  447000   0.64179613   -5.6697689   -5.6697689   -4.7070767 -0.0058412793   -5.6697689   0.96269225      1024000 
  448000   0.64173708   -5.6707579   -5.6707579   -4.7081542 -0.0051629166   -5.6707579   0.96260367      1024000 
  449000   0.64161427   -5.6716989   -5.6716989   -4.7092794 -0.0066570026   -5.6716989   0.96241945      1024000 
  450000   0.64260777   -5.6745719   -5.6745719   -4.7106622 -0.010065252   -5.6745719    0.9639097      1024000 
  451000   0.64152051   -5.6732375   -5.6732375   -4.7109587 -0.0076360059   -5.6732375   0.96227882      1024000 
  452000   0.64108091    -5.672866    -5.672866   -4.7112466 -0.006943444    -5.672866   0.96161941      1024000 
  453000    0.6406927   -5.6736451   -5.6736451    -4.712608 -0.010895315   -5.6736451   0.96103709      1024000 
  454000   0.64032793   -5.6739476   -5.6739476   -4.7134577 -0.014128142   -5.6739476   0.96048995      1024000 
  455000    0.6389032   -5.6729652   -5.6729652   -4.7146124 -0.015262935   -5.6729652   0.95835286      1024000 
  456000   0.63827585   -5.6737884   -5.6737884   -4.7163766 -0.016591074   -5.6737884   0.95741184      1024000 
  457000   0.63871273   -5.6755683   -5.6755683   -4.7175011 -0.019515884   -5.6755683   0.95806715      1024000 
  458000   0.63997461   -5.6782745   -5.6782745   -4.7183145 -0.026634193   -5.6782745   0.95995997      1024000 
  459000   0.63877178   -5.6771156   -5.6771156   -4.7189599 -0.023833258   -5.6771156   0.95815572      1024000 
  460000   0.63947003   -5.6789547   -5.6789547   -4.7197516 -0.023719779   -5.6789547    0.9592031      1024000 
  461000   0.63935692   -5.6796262   -5.6796262   -4.7205928 -0.021343169   -5.6796262   0.95903343      1024000 
  462000   0.63968615   -5.6810861   -5.6810861   -4.7215588 -0.018773639   -5.6810861   0.95952728      1024000 
  463000   0.63875042    -5.680889    -5.680889   -4.7227653 -0.013322998    -5.680889   0.95812369      1024000 
  464000   0.63870756   -5.6817098   -5.6817098   -4.7236504 -0.0093621545   -5.6817098    0.9580594      1024000 
  465000   0.63937579   -5.6830481   -5.6830481   -4.7239863 -0.011191133   -5.6830481   0.95906174      1024000 
  466000   0.64016413   -5.6850378   -5.6850378   -4.7247936 -0.010779212   -5.6850378   0.96024425      1024000 
  467000   0.64042214   -5.6863417   -5.6863417   -4.7257104 -0.0078799195   -5.6863417   0.96063127      1024000 
  468000   0.63989408   -5.6869282   -5.6869282    -4.727089 -0.0062241357   -5.6869282   0.95983917      1024000 
  469000   0.63881747   -5.6863024   -5.6863024   -4.7280781 -0.002888733   -5.6863024   0.95822426      1024000 
  470000   0.63978816   -5.6884654   -5.6884654   -4.7287851 -0.0072007027   -5.6884654   0.95968029      1024000 
  471000   0.63910445    -5.688742    -5.688742   -4.7300873 -0.0040438554    -5.688742   0.95865473      1024000 
  472000   0.63894918   -5.6893147   -5.6893147   -4.7308928 -0.0045495894   -5.6893147   0.95842183      1024000 
  473000   0.63826954   -5.6895972   -5.6895972   -4.7321948 -0.0083293213   -5.6895972   0.95740237      1024000 
  474000   0.63922384   -5.6912741   -5.6912741   -4.7324403 -0.0091592158   -5.6912741   0.95883382      1024000 
  475000   0.63857753   -5.6914069   -5.6914069   -4.7335425 -0.014926989   -5.6914069   0.95786435      1024000 
  476000   0.63873889   -5.6926363   -5.6926363   -4.7345299 -0.015543128   -5.6926363   0.95810639      1024000 
  477000   0.63850624   -5.6936076   -5.6936076   -4.7358502 -0.018834291   -5.6936076   0.95775741      1024000 
  478000   0.63710589   -5.6918052   -5.6918052   -4.7361483 -0.015698484   -5.6918052    0.9556569      1024000 
  479000   0.63708313   -5.6929937   -5.6929937   -4.7373709 -0.019664812   -5.6929937   0.95562275      1024000 
  480000   0.63763086   -5.6944759   -5.6944759   -4.7380316 -0.017437521   -5.6944759   0.95644435      1024000 
  481000    0.6379288   -5.6959591   -5.6959591   -4.7390678 -0.019997826   -5.6959591   0.95689126      1024000 
  482000   0.63720588   -5.6964334   -5.6964334   -4.7406265 -0.015659696   -5.6964334   0.95580689      1024000 
  483000    0.6363654   -5.6963496   -5.6963496   -4.7418035 -0.013586451   -5.6963496   0.95454617      1024000 
  484000   0.63662947    -5.697587    -5.697587   -4.7426447   -0.0156019    -5.697587   0.95494226      1024000 
  485000   0.63717361   -5.6990247   -5.6990247   -4.7432662 -0.012116801   -5.6990247   0.95575848      1024000 
  486000   0.63703876   -5.6994655   -5.6994655   -4.7439093 -0.010170657   -5.6994655   0.95555621      1024000 
  487000    0.6367461   -5.7002365   -5.7002365   -4.7451193 -0.007998841   -5.7002365   0.95511721      1024000 
  488000   0.63667932   -5.7010466   -5.7010466   -4.7460296 -0.0046942245   -5.7010466   0.95501704      1024000 
  489000   0.63698678   -5.7021491   -5.7021491   -4.7466709 -0.0042901321   -5.7021491   0.95547823      1024000 
  490000   0.63728666   -5.7036671   -5.7036671   -4.7477391 -0.0049990635   -5.7036671   0.95592806      1024000 
  491000   0.63724351   -5.7044151   -5.7044151   -4.7485518 -0.0050954337   -5.7044151   0.95586333      1024000 
  492000   0.63755628   -5.7053152   -5.7053152   -4.7489827 -0.0068502598   -5.7053152   0.95633248      1024000 
  493000    0.6368363   -5.7058686   -5.7058686   -4.7506161 -0.0072494596   -5.7058686    0.9552525      1024000 
  494000   0.63615339   -5.7057479   -5.7057479   -4.7515198 -0.007554174   -5.7057479   0.95422815      1024000 
  495000   0.63629842   -5.7063386   -5.7063386   -4.7518929 -0.0073607078   -5.7063386    0.9544457      1024000 
  496000    0.6360559   -5.7067234   -5.7067234   -4.7526414 -0.0098628224   -5.7067234   0.95408192      1024000 
  497000   0.63701954   -5.7084851   -5.7084851   -4.7529577 -0.015328098   -5.7084851   0.95552737      1024000 
  498000   0.63580358   -5.7082137   -5.7082137   -4.7545102 -0.013361807   -5.7082137   0.95370343      1024000 
  499000   0.63504948   -5.7080918   -5.7080918   -4.7555196 -0.010929859   -5.7080918   0.95257228      1024000 
  500000    0.6351165   -5.7099543   -5.7099543   -4.7572815 -0.015679129   -5.7099543   0.95267281      1024000 
  501000   0.63466837   -5.7101551   -5.7101551   -4.7581545 -0.014335272   -5.7101551   0.95200062      1024000 
  502000   0.63473675   -5.7118013   -5.7118013   -4.7596981  -0.01604617   -5.7118013    0.9521032      1024000 
  503000   0.63501207   -5.7131989   -5.7131989   -4.7606827  -0.01497644   -5.7131989   0.95251617      1024000 
  504000   0.63569738   -5.7142533   -5.7142533   -4.7607092 -0.013234011   -5.7142533   0.95354414      1024000 
  505000   0.63502794   -5.7140529   -5.7140529    -4.761513 -0.010203409   -5.7140529   0.95253997      1024000 
  506000   0.63509013   -5.7145737   -5.7145737   -4.7619405 -0.0086564808   -5.7145737   0.95263326      1024000 
  507000   0.63618192   -5.7166448   -5.7166448   -4.7623739 -0.0083314359   -5.7166448   0.95427095      1024000 
  508000    0.6356375   -5.7163809   -5.7163809   -4.7629265 -0.003525252   -5.7163809   0.95345432      1024000 
  509000   0.63568056   -5.7178994   -5.7178994   -4.7643805 -0.0054039925   -5.7178994   0.95351891      1024000 
  510000   0.63587041   -5.7194844   -5.7194844   -4.7656808 -0.0083018037   -5.7194844   0.95380367      1024000 
  511000   0.63463491   -5.7186163   -5.7186163   -4.7666659 -0.0061919898   -5.7186163   0.95195043      1024000 
  512000    0.6349561   -5.7200742   -5.7200742    -4.767642 -0.0077182291   -5.7200742   0.95243222      1024000 
  513000   0.63340259   -5.7185193   -5.7185193   -4.7684173 -0.004231216   -5.7185193   0.95010196      1024000 
  514000   0.63315165   -5.7192384   -5.7192384   -4.7695129 -0.0062130718   -5.7192384   0.94972555      1024000 
  515000   0.63366364   -5.7207236   -5.7207236   -4.7702301 -0.012292166   -5.7207236   0.95049354      1024000 
  516000   0.63345648   -5.7209657   -5.7209657   -4.7707829 -0.0098307519   -5.7209657   0.95018279      1024000 
  517000    0.6341688   -5.7224824   -5.7224824   -4.7712312 -0.014963555   -5.7224824   0.95125127      1024000 
  518000   0.63296594   -5.7214931   -5.7214931   -4.7720461 -0.010404628   -5.7214931   0.94944698      1024000 
  519000   0.63311478   -5.7228535   -5.7228535   -4.7731832  -0.01474632   -5.7228535   0.94967024      1024000 
  520000   0.63289939   -5.7232342   -5.7232342    -4.773887 -0.015409696   -5.7232342   0.94934715      1024000 
  521000   0.63377612   -5.7253148   -5.7253148   -4.7746526 -0.019161708   -5.7253148   0.95066225      1024000 
  522000   0.63399149   -5.7256569   -5.7256569   -4.7746716 -0.015528753   -5.7256569    0.9509853      1024000 
  523000   0.63467455   -5.7275026   -5.7275026   -4.7754927 -0.016511121   -5.7275026   0.95200989      1024000 
  524000   0.63338599    -5.726338    -5.726338   -4.7762609 -0.013999967    -5.726338   0.95007706      1024000 
  525000   0.63292037   -5.7267498   -5.7267498   -4.7773712 -0.0087006966   -5.7267498   0.94937863      1024000 
  526000   0.63358078   -5.7284464   -5.7284464   -4.7780771 -0.010116839   -5.7284464   0.95036925      1024000 
  527000   0.63341785   -5.7298564   -5.7298564   -4.7797316 -0.016491355   -5.7298564   0.95012485      1024000 
  528000   0.63247323   -5.7293908   -5.7293908   -4.7806828 -0.0088059936   -5.7293908   0.94870792      1024000 
  529000   0.63154173   -5.7290633   -5.7290633   -4.7817526 -0.0077622249   -5.7290633   0.94731067      1024000 
  530000   0.63197547   -5.7305714   -5.7305714   -4.7826101 -0.011466167   -5.7305714   0.94796129      1024000 
  531000   0.63242032    -5.731587    -5.731587   -4.7829585 -0.012544694    -5.731587   0.94862855      1024000 
  532000   0.63283443   -5.7322298   -5.7322298   -4.7829801 -0.0049598893   -5.7322298   0.94924972      1024000 
  533000   0.63315133   -5.7335222   -5.7335222   -4.7837972 -0.0070986836   -5.7335222   0.94972507      1024000 
  534000   0.63318968   -5.7336188   -5.7336188   -4.7838362 -0.0063123114   -5.7336188   0.94978259      1024000 
  535000   0.63380085    -5.735142    -5.735142   -4.7844427 -0.0088293672    -5.735142   0.95069935      1024000 
  536000   0.63276318   -5.7346029   -5.7346029   -4.7854601 -0.0093234122   -5.7346029   0.94914284      1024000 
  537000   0.63264374   -5.7350671   -5.7350671   -4.7861034 -0.010073739   -5.7350671   0.94896369      1024000 
  538000   0.63162791   -5.7342876   -5.7342876   -4.7868477 -0.0079264539   -5.7342876   0.94743994      1024000 
  539000   0.63240859   -5.7358997   -5.7358997   -4.7872888 -0.011157808   -5.7358997   0.94861095      1024000 
  540000   0.63207605   -5.7363449   -5.7363449   -4.7882327 -0.013675029   -5.7363449   0.94811216      1024000 
  541000    0.6322064    -5.737137    -5.737137   -4.7888294 -0.013079502    -5.737137   0.94830767      1024000 
  542000   0.63317553   -5.7387115   -5.7387115   -4.7889501 -0.014175127   -5.7387115   0.94976137      1024000 
  543000   0.63178915   -5.7373177   -5.7373177   -4.7896359 -0.0098274767   -5.7373177    0.9476818      1024000 
  544000   0.63217269   -5.7388141   -5.7388141    -4.790557 -0.015333951   -5.7388141   0.94825711      1024000 
  545000    0.6318783   -5.7394122   -5.7394122   -4.7915966 -0.014273828   -5.7394122   0.94781553      1024000 
  546000   0.63240536   -5.7401386   -5.7401386   -4.7915325 -0.010601926   -5.7401386   0.94860611      1024000 
  547000   0.63141376   -5.7398998   -5.7398998   -4.7927811 -0.0071107399   -5.7398998   0.94711872      1024000 
  548000   0.63221835   -5.7416331   -5.7416331   -4.7933075 -0.0082918481   -5.7416331    0.9483256      1024000 
  549000   0.63167967   -5.7414162   -5.7414162   -4.7938986 -0.0046483925   -5.7414162   0.94751758      1024000 
  550000   0.63138422   -5.7423105   -5.7423105   -4.7952361 -0.0041771065   -5.7423105   0.94707441      1024000 
  551000    0.6319223   -5.7441043   -5.7441043   -4.7962228 -0.0049184498   -5.7441043   0.94788153      1024000 
  552000   0.63073332   -5.7438834   -5.7438834   -4.7977854 -0.0043208169   -5.7438834   0.94609806      1024000 
  553000   0.63116952   -5.7458435   -5.7458435   -4.7990911 -0.009142485   -5.7458435   0.94675235      1024000 
  554000   0.63087564   -5.7462011   -5.7462011   -4.7998896 -0.0062595866   -5.7462011   0.94631154      1024000 
  555000   0.63145153   -5.7473973   -5.7473973   -4.8002219 -0.0075145172   -5.7473973   0.94717538      1024000 
  556000   0.63196448   -5.7494443   -5.7494443   -4.8014995 -0.011699969   -5.7494443    0.9479448      1024000 
  557000   0.63004779   -5.7469232   -5.7469232   -4.8018534 -0.0046053053   -5.7469232   0.94506976      1024000 
  558000   0.63102625   -5.7491486   -5.7491486   -4.8026111 -0.0098439305   -5.7491486   0.94653745      1024000 
  559000   0.63071675   -5.7494427   -5.7494427   -4.8033695 -0.010530503   -5.7494427   0.94607321      1024000 
  560000   0.63109832   -5.7503334   -5.7503334   -4.8036878 -0.0086900044   -5.7503334   0.94664556      1024000 
  561000   0.62988244   -5.7500391   -5.7500391   -4.8052173 -0.0081426178   -5.7500391   0.94482175      1024000 
  562000   0.63025459   -5.7525129   -5.7525129    -4.807133 -0.013026535   -5.7525129   0.94537997      1024000 
  563000   0.63075344   -5.7521231   -5.7521231   -4.8059949 -0.0080934004   -5.7521231   0.94612824      1024000 
  564000   0.63056222   -5.7531152   -5.7531152   -4.8072738 -0.0084941145   -5.7531152    0.9458414      1024000 
  565000   0.63015905   -5.7529128   -5.7529128   -4.8076761 -0.0040061112   -5.7529128   0.94523666      1024000 
  566000   0.62973539   -5.7531328   -5.7531328   -4.8085317 -0.0078788001   -5.7531328   0.94460117      1024000 
  567000   0.63019527    -5.754848    -5.754848    -4.809557 -0.0036625967    -5.754848   0.94529099      1024000 
  568000   0.63019061   -5.7553906   -5.7553906   -4.8101066 -0.0017709099   -5.7553906     0.945284      1024000 
  569000   0.63071111   -5.7561622   -5.7561622   -4.8100975  -0.00673969   -5.7561622   0.94606475      1024000 
  570000   0.62928683   -5.7554537   -5.7554537   -4.8115254 -0.0047420055   -5.7554537   0.94392832      1024000 
  571000    0.6288208    -5.755945    -5.755945   -4.8127157 -0.0040156101    -5.755945   0.94322929      1024000 
  572000   0.62978693    -5.757569    -5.757569   -4.8128905 -0.0085563466    -5.757569   0.94467847      1024000 
  573000   0.62962189   -5.7583299   -5.7583299   -4.8138989 -0.0061506362   -5.7583299   0.94443093      1024000 
  574000    0.6300458   -5.7601767   -5.7601767   -4.8151099 -0.012083176   -5.7601767   0.94506678      1024000 
  575000   0.62880076   -5.7589071   -5.7589071   -4.8157078 -0.007336668   -5.7589071   0.94319922      1024000 
  576000   0.62912247   -5.7605382   -5.7605382   -4.8168564 -0.011674849   -5.7605382   0.94368179      1024000 
  577000   0.62855142   -5.7603009   -5.7603009   -4.8174757 -0.0084968745   -5.7603009   0.94282521      1024000 
  578000   0.62938083   -5.7631044   -5.7631044   -4.8190351 -0.013479784   -5.7631044   0.94406933      1024000 
  579000   0.62920169   -5.7626241   -5.7626241   -4.8188234 -0.011486607   -5.7626241   0.94380062      1024000 
  580000   0.62962313   -5.7634822   -5.7634822   -4.8190494 -0.011854038   -5.7634822   0.94443278      1024000 
  581000   0.62842484   -5.7629424   -5.7629424   -4.8203071 -0.0079726356   -5.7629424   0.94263535      1024000 
  582000   0.62864425   -5.7641433   -5.7641433   -4.8211788 -0.0091253481   -5.7641433   0.94296446      1024000 
  583000    0.6279634   -5.7631036   -5.7631036   -4.8211604 -0.006130847   -5.7631036   0.94194319      1024000 
  584000   0.62925039   -5.7657144   -5.7657144   -4.8218407 -0.0069915759   -5.7657144   0.94387368      1024000 
  585000   0.62924761   -5.7663863   -5.7663863   -4.8225168 -0.0057470913   -5.7663863    0.9438695      1024000 
  586000   0.62852349    -5.766107    -5.766107   -4.8233236 -0.004975791    -5.766107   0.94278333      1024000 
  587000   0.62852634    -5.766379    -5.766379   -4.8235915 -0.0024656345    -5.766379   0.94278759      1024000 
  588000   0.62888846   -5.7673785   -5.7673785   -4.8240477 0.00030930504   -5.7673785   0.94333077      1024000 
  589000   0.62934712   -5.7680996   -5.7680996   -4.8240809 -0.0037325137   -5.7680996   0.94401877      1024000 
  590000   0.62911928   -5.7684227   -5.7684227   -4.8247457 -0.0057061702   -5.7684227   0.94367701      1024000 
  591000   0.62961344   -5.7702626   -5.7702626   -4.8258444 -0.012589194   -5.7702626   0.94441825      1024000 
  592000   0.62769861   -5.7687187   -5.7687187   -4.8271727 -0.0085071586   -5.7687187     0.941546      1024000 
  593000    0.6277023   -5.7698131   -5.7698131   -4.8282616 -0.010584527   -5.7698131   0.94155155      1024000 
  594000   0.62811155   -5.7707296   -5.7707296   -4.8285642 -0.0098104181   -5.7707296   0.94216542      1024000 
  595000   0.62781996    -5.771154    -5.771154    -4.829426 -0.015335327    -5.771154   0.94172803      1024000 
  596000   0.62760034   -5.7716735   -5.7716735   -4.8302749 -0.016548338   -5.7716735    0.9413986      1024000 
  597000   0.62833965   -5.7732954   -5.7732954   -4.8307879  -0.01674574   -5.7732954   0.94250756      1024000 
  598000    0.6266815   -5.7711047   -5.7711047   -4.8310843 -0.0093136153   -5.7711047   0.94002034      1024000 
  599000   0.62744555   -5.7726776   -5.7726776   -4.8315112 -0.0097015783   -5.7726776   0.94116642      1024000 
  600000    0.6266905   -5.7723102   -5.7723102   -4.8322763 -0.0076423069   -5.7723102   0.94003385      1024000 
  601000   0.62738418   -5.7734357   -5.7734357   -4.8323613 -0.0043165874   -5.7734357   0.94107436      1024000 
  602000   0.62896986   -5.7758547   -5.7758547   -4.8324019 -0.0058857324   -5.7758547   0.94345288      1024000 
  603000   0.62869705   -5.7760247   -5.7760247    -4.832981 -0.0035031773   -5.7760247   0.94304366      1024000 
  604000   0.62834511    -5.776629    -5.776629   -4.8341133 -0.0049747733    -5.776629   0.94251575      1024000 
  605000   0.62796954   -5.7766595   -5.7766595   -4.8347071 -0.0042021777   -5.7766595    0.9419524      1024000 
  606000   0.62898293   -5.7784632   -5.7784632   -4.8349907 -0.0084984633   -5.7784632   0.94347247      1024000 
  607000   0.62817786   -5.7784012   -5.7784012   -4.8361363 -0.0026107646   -5.7784012   0.94226488      1024000 
  608000   0.62798389   -5.7788715   -5.7788715   -4.8368976 -0.0051431349   -5.7788715   0.94197392      1024000 
  609000   0.62795402   -5.7788275   -5.7788275   -4.8368984 -0.0044065843   -5.7788275   0.94192911      1024000 
  610000   0.62763251   -5.7790615   -5.7790615   -4.8376147 -0.0061521632   -5.7790615   0.94144685      1024000 
  611000   0.62735194    -5.778931    -5.778931    -4.837905 -0.004933763    -5.778931     0.941026      1024000 
  612000    0.6268246   -5.7792226   -5.7792226   -4.8389876 -0.0069081953   -5.7792226   0.94023499      1024000 
  613000   0.62773565    -5.782028    -5.782028   -4.8404265 -0.010417328    -5.782028   0.94160157      1024000 
  614000   0.62744455   -5.7820254   -5.7820254   -4.8408605 -0.012687032   -5.7820254   0.94116492      1024000 
  615000    0.6277171   -5.7829466   -5.7829466   -4.8413728 -0.015920733   -5.7829466   0.94157374      1024000 
  616000   0.62730599   -5.7831417   -5.7831417   -4.8421846 -0.010256205   -5.7831417   0.94095708      1024000 
  617000   0.62563967   -5.7816121   -5.7816121   -4.8431545 -0.0002361756   -5.7816121   0.93845761      1024000 
  618000   0.62690308   -5.7835553   -5.7835553   -4.8432025 -0.0044547897   -5.7835553   0.94035272      1024000 
  619000   0.62794819   -5.7856134   -5.7856134    -4.843693 -0.0067160848   -5.7856134   0.94192038      1024000 
  620000   0.62643482   -5.7841165   -5.7841165   -4.8444662 -0.0026035369   -5.7841165   0.93965032      1024000 
  621000   0.62671018   -5.7845629   -5.7845629   -4.8444996 0.00022573453   -5.7845629   0.94006336      1024000 
  622000   0.62692934   -5.7859795   -5.7859795   -4.8455874 -0.00029069175   -5.7859795    0.9403921      1024000 
  623000   0.62836346   -5.7880512   -5.7880512    -4.845508 -0.0035161976   -5.7880512   0.94254328      1024000 
  624000   0.62673369   -5.7863821   -5.7863821   -4.8462834 -0.0035653739   -5.7863821   0.94009862      1024000 
  625000   0.62748897     -5.78812     -5.78812   -4.8468885 -0.0036282007     -5.78812   0.94123154      1024000 
  626000   0.62692996   -5.7872801   -5.7872801   -4.8468871 -0.0039708081   -5.7872801   0.94039303      1024000 
  627000   0.62625113   -5.7873534   -5.7873534   -4.8479786 -0.00020021787   -5.7873534   0.93937479      1024000 
  628000   0.62635753   -5.7880299   -5.7880299   -4.8484955 -0.009501062   -5.7880299   0.93953439      1024000 
  629000   0.62641401   -5.7885753   -5.7885753   -4.8489562 -0.0092351983   -5.7885753    0.9396191      1024000 
  630000   0.62648465   -5.7894675   -5.7894675   -4.8497424 -0.005166075   -5.7894675   0.93972507      1024000 
  631000   0.62514294   -5.7887395   -5.7887395   -4.8510269 -0.0071459184   -5.7887395   0.93771251      1024000 
  632000   0.62662243   -5.7905407   -5.7905407    -4.850609 -0.012170419   -5.7905407   0.93993174      1024000 
  633000   0.62634501   -5.7914999   -5.7914999   -4.8519843 -0.0088492817   -5.7914999   0.93951561      1024000 
  634000   0.62644571   -5.7918836   -5.7918836   -4.8522169 -0.010488225   -5.7918836   0.93966665      1024000 
  635000   0.62636708   -5.7931398   -5.7931398   -4.8535911 -0.011665371   -5.7931398   0.93954871      1024000 
  636000     0.626094   -5.7934493   -5.7934493   -4.8543102 -0.0073443536   -5.7934493   0.93913909      1024000 
  637000   0.62494099   -5.7931648   -5.7931648   -4.8557552 -0.0028067973   -5.7931648   0.93740958      1024000 
  638000   0.62568925   -5.7949238   -5.7949238   -4.8563918 -0.0029784895   -5.7949238   0.93853197      1024000 
  639000   0.62555757   -5.7947719   -5.7947719   -4.8564374 -0.0011974759   -5.7947719   0.93833445      1024000 
  640000   0.62612535   -5.7969575   -5.7969575   -4.8577714 -0.00091686335   -5.7969575   0.93918612      1024000 
  641000   0.62568419   -5.7970197   -5.7970197   -4.8584953 -0.00096190295   -5.7970197   0.93852438      1024000 
  642000   0.62630931   -5.7984916   -5.7984916   -4.8590295 -0.0031474251   -5.7984916   0.93946206      1024000 
  643000   0.62630392   -5.7989956   -5.7989956   -4.8595416 -0.0032812659   -5.7989956   0.93945398      1024000 
  644000   0.62616198   -5.7997541   -5.7997541    -4.860513 -0.0023480997   -5.7997541   0.93924107      1024000 
  645000   0.62537434   -5.7987502   -5.7987502   -4.8606906 -0.0038065878   -5.7987502    0.9380596      1024000 
  646000   0.62549287   -5.7999601   -5.7999601   -4.8617227 -0.0054421275   -5.7999601   0.93823741      1024000 
  647000   0.62571681   -5.8005221   -5.8005221   -4.8619488 -0.0040899452   -5.8005221   0.93857331      1024000 
  648000   0.62508586   -5.7994577   -5.7994577   -4.8618308 -0.0035503828   -5.7994577   0.93762689      1024000 
  649000   0.62514435   -5.7999902   -5.7999902   -4.8622756 -0.0027983401   -5.7999902   0.93771462      1024000 
  650000   0.62561873   -5.8009917   -5.8009917   -4.8625656 -0.0092979645   -5.8009917   0.93842619      1024000 
  651000   0.62568617   -5.8017542   -5.8017542   -4.8632268 -0.0086797245   -5.8017542   0.93852735      1024000 
  652000   0.62467447   -5.8007361   -5.8007361   -4.8637263 -0.0059277406   -5.8007361    0.9370098      1024000 
  653000   0.62551641   -5.8024682   -5.8024682   -4.8641955 -0.0072579987   -5.8024682    0.9382727      1024000 
  654000   0.62578304   -5.8037401   -5.8037401   -4.8650674 -0.0073858535   -5.8037401   0.93867265      1024000 
  655000   0.62486134   -5.8028466   -5.8028466   -4.8655565 -0.0079051959   -5.8028466   0.93729011      1024000 
  656000   0.62466836   -5.8024761   -5.8024761   -4.8654754 -0.0035466241   -5.8024761   0.93700063      1024000 
  657000   0.62529816   -5.8043218   -5.8043218   -4.8663765 -0.0056724548   -5.8043218   0.93794534      1024000 
  658000   0.62484501   -5.8038939   -5.8038939   -4.8666283 -0.0022147159   -5.8038939   0.93726561      1024000 
  659000   0.62516545   -5.8052817   -5.8052817   -4.8675355 -0.0042609843   -5.8052817   0.93774628      1024000 
  660000   0.62442455   -5.8047404   -5.8047404   -4.8681055 0.00089217315   -5.8047404   0.93663492      1024000 
  661000    0.6249608   -5.8071319   -5.8071319   -4.8696926 -0.0048765637   -5.8071319    0.9374393      1024000 
  662000   0.62459139   -5.8065005   -5.8065005   -4.8696154 -0.0036091693   -5.8065005   0.93688519      1024000 
  663000    0.6253279   -5.8076931   -5.8076931   -4.8697032 -0.0011272862   -5.8076931   0.93798995      1024000 
  664000   0.62565414   -5.8085291   -5.8085291   -4.8700498 0.00017704871   -5.8085291    0.9384793      1024000 
  665000   0.62563726   -5.8090566   -5.8090566   -4.8706026 -0.0014109082   -5.8090566   0.93845398      1024000 
  666000   0.62467755   -5.8082282   -5.8082282   -4.8712137 -0.00074961816   -5.8082282   0.93701442      1024000 
  667000   0.62446915   -5.8090552   -5.8090552   -4.8723534 -0.00067727201   -5.8090552   0.93670182      1024000 
  668000   0.62428736   -5.8100364   -5.8100364   -4.8736073 -0.0026377986   -5.8100364   0.93642914      1024000 
  669000   0.62412129   -5.8103462   -5.8103462   -4.8741662 -0.0030067509   -5.8103462   0.93618003      1024000 
  670000   0.62445822   -5.8115406   -5.8115406   -4.8748552 -0.007120881   -5.8115406   0.93668543      1024000 
  671000   0.62278256    -5.810122    -5.810122     -4.87595 -0.0042751476    -5.810122   0.93417194      1024000 
  672000   0.62444901   -5.8121668   -5.8121668   -4.8754952 -0.0077824435   -5.8121668   0.93667161      1024000 
  673000   0.62417505   -5.8121842   -5.8121842   -4.8759235 -0.0036416171   -5.8121842   0.93626068      1024000 
  674000   0.62430923   -5.8125503   -5.8125503   -4.8760883 -0.0046701971   -5.8125503   0.93646195      1024000 
  675000   0.62453153   -5.8129806   -5.8129806   -4.8761852  -0.00586742   -5.8129806    0.9367954      1024000 
  676000   0.62456992    -5.814057    -5.814057    -4.877204 -0.007258538    -5.814057   0.93685297      1024000 
  677000   0.62503833   -5.8138781   -5.8138781   -4.8763225 -0.005769051   -5.8138781   0.93755559      1024000 
  678000   0.62436543   -5.8135556   -5.8135556   -4.8770094 -0.0016078789   -5.8135556   0.93654625      1024000 
  679000   0.62445732   -5.8143482   -5.8143482   -4.8776641 -0.0031298623   -5.8143482   0.93668408      1024000 
  680000   0.62447259   -5.8146787   -5.8146787   -4.8779717 -0.0024615081   -5.8146787   0.93670698      1024000 
  681000   0.62415215   -5.8148692   -5.8148692   -4.8786429 -0.001869758   -5.8148692   0.93622633      1024000 
  682000   0.62450711   -5.8148735   -5.8148735   -4.8781147 -0.00049127553   -5.8148735   0.93675877      1024000 
  683000   0.62494712   -5.8164184   -5.8164184   -4.8789996 0.0021449245   -5.8164184   0.93741878      1024000 
  684000   0.62430229     -5.81631     -5.81631   -4.8798585 -0.0064064244     -5.81631   0.93645154      1024000 
  685000    0.6236526   -5.8155584   -5.8155584   -4.8800814 -0.0023706646   -5.8155584     0.935477      1024000 
  686000   0.62390966   -5.8167312   -5.8167312   -4.8808686 -0.00076888725   -5.8167312   0.93586259      1024000 
  687000   0.62306184   -5.8158529   -5.8158529    -4.881262 -0.00039807072   -5.8158529   0.93459086      1024000 
  688000    0.6228002   -5.8163002   -5.8163002   -4.8821018 0.0018228902   -5.8163002    0.9341984      1024000 
  689000   0.62332428   -5.8175224   -5.8175224   -4.8825379 -0.0036125336   -5.8175224   0.93498452      1024000 
  690000   0.62349858   -5.8175932   -5.8175932   -4.8823472 -0.0034044834   -5.8175932   0.93524597      1024000 
  691000   0.62390387   -5.8195891   -5.8195891   -4.8837352 -0.0012703501   -5.8195891   0.93585391      1024000 
  692000   0.62369444   -5.8202224   -5.8202224   -4.8846827 -0.0026910943   -5.8202224   0.93553976      1024000 
  693000   0.62302298   -5.8194421   -5.8194421   -4.8849095 -0.0025410052   -5.8194421   0.93453257      1024000 
  694000   0.62284966   -5.8191644   -5.8191644   -4.8848918 -0.0002176093   -5.8191644    0.9342726      1024000 
  695000   0.62339682    -5.819818    -5.819818   -4.8847247 -0.0030920177    -5.819818   0.93509333      1024000 
  696000    0.6226426   -5.8198582   -5.8198582   -4.8858962 0.0020036244   -5.8198582   0.93396201      1024000 
  697000   0.62374391   -5.8212022   -5.8212022   -4.8855882 0.0028774867   -5.8212022   0.93561397      1024000 
  698000   0.62346555   -5.8212749   -5.8212749   -4.8860785  0.006691326   -5.8212749   0.93519643      1024000 
  699000   0.62437777   -5.8230089   -5.8230089   -4.8864441 0.0052853218   -5.8230089   0.93656475      1024000 
  700000     0.623965   -5.8233693   -5.8233693   -4.8874237 0.0030227364   -5.8233693    0.9359456      1024000 
  701000   0.62421696   -5.8243602   -5.8243602   -4.8880367 0.0015031518   -5.8243602   0.93632355      1024000 
  702000   0.62325231   -5.8239021   -5.8239021   -4.8890255 9.6234967e-05   -5.8239021   0.93487656      1024000 
  703000    0.6227842   -5.8238483   -5.8238483   -4.8896739 0.0013016027   -5.8238483   0.93417441      1024000 
  704000   0.62357365   -5.8254463   -5.8254463   -4.8900877 2.2648213e-05   -5.8254463   0.93535858      1024000 
  705000   0.62329512   -5.8259957   -5.8259957    -4.891055 0.0018952174   -5.8259957   0.93494078      1024000 
  706000   0.62349001   -5.8259634   -5.8259634   -4.8907303 -0.0021671964   -5.8259634   0.93523311      1024000 
  707000   0.62315186   -5.8262584   -5.8262584   -4.8915325 -0.0024373002   -5.8262584    0.9347259      1024000 
  708000   0.62308711   -5.8265753   -5.8265753   -4.8919465 -0.0017049157   -5.8265753   0.93462876      1024000 
  709000   0.62255323   -5.8257302   -5.8257302   -4.8919022 -0.0023477486   -5.8257302   0.93382795      1024000 
  710000   0.62227386   -5.8263904   -5.8263904   -4.8929815 -0.0018588783   -5.8263904    0.9334089      1024000 
  711000    0.6230887   -5.8277681   -5.8277681    -4.893137 -0.0055618925   -5.8277681   0.93463116      1024000 
  712000   0.62243353   -5.8272983   -5.8272983   -4.8936499 -0.0031049589   -5.8272983   0.93364841      1024000 
  713000   0.62245547   -5.8275926   -5.8275926   -4.8939113 0.00082184946   -5.8275926   0.93368131      1024000 
  714000   0.62254908   -5.8278223   -5.8278223   -4.8940006 0.0031928603   -5.8278223   0.93382173      1024000 
  715000   0.62241706   -5.8283911   -5.8283911   -4.8947674 -0.0015840236   -5.8283911    0.9336237      1024000 
  716000   0.62193828   -5.8282946   -5.8282946    -4.895389 -0.0012686912   -5.8282946   0.93290553      1024000 
  717000   0.62187508   -5.8280764   -5.8280764   -4.8952657 0.0054256419   -5.8280764   0.93281072      1024000 
  718000   0.62236786    -5.830222    -5.830222   -4.8966721 -0.0012377258    -5.830222    0.9335499      1024000 
  719000   0.62154883   -5.8291197   -5.8291197   -4.8967983 0.0018432981   -5.8291197   0.93232135      1024000 
  720000   0.62212848   -5.8304727   -5.8304727   -4.8972818 -0.0025638212   -5.8304727   0.93319082      1024000 
  721000   0.62247207   -5.8313338   -5.8313338   -4.8976276 -0.00091429125   -5.8313338   0.93370621      1024000 
  722000   0.62155378    -5.830683    -5.830683   -4.8983542 0.0010083046    -5.830683   0.93232878      1024000 
  723000   0.62100505   -5.8310521   -5.8310521   -4.8995464 0.0019483212   -5.8310521   0.93150569      1024000 
  724000   0.62145761   -5.8313173   -5.8313173   -4.8991328 0.0007630313   -5.8313173   0.93218453      1024000 
  725000   0.62186387   -5.8316629   -5.8316629    -4.898869 0.0039644297   -5.8316629   0.93279392      1024000 
  726000    0.6223997   -5.8334098   -5.8334098   -4.8998122 -0.0026074335   -5.8334098   0.93359765      1024000 
  727000   0.62187601   -5.8335844   -5.8335844   -4.9007723 -0.0027562665   -5.8335844   0.93281212      1024000 
  728000   0.62173086   -5.8338866   -5.8338866   -4.9012922 -0.0009807431   -5.8338866   0.93259439      1024000 
  729000   0.62108707   -5.8325997   -5.8325997    -4.900971 0.0075205522   -5.8325997   0.93162871      1024000 
  730000   0.62170234   -5.8342225   -5.8342225   -4.9016709 -3.7620626e-06   -5.8342225   0.93255161      1024000 
  731000    0.6226737   -5.8358652   -5.8358652   -4.9018566 -0.0034640075   -5.8358652   0.93400865      1024000 
  732000   0.62197766   -5.8357132   -5.8357132   -4.9027486 -0.00096272643   -5.8357132    0.9329646      1024000 
  733000   0.62131335   -5.8353716   -5.8353716   -4.9034035 0.0049845336   -5.8353716   0.93196813      1024000 
  734000   0.62178015   -5.8369318   -5.8369318   -4.9042634 -0.0042510112   -5.8369318   0.93266834      1024000 
  735000   0.62109982   -5.8365525   -5.8365525   -4.9049047 -0.0071822233   -5.8365525   0.93164784      1024000 
  736000   0.62070059   -5.8357965   -5.8357965   -4.9047475 -0.0016858261   -5.8357965   0.93104899      1024000 
  737000   0.62047453   -5.8358351   -5.8358351   -4.9051252 0.0024375392   -5.8358351   0.93070991      1024000 
  738000   0.62076009   -5.8368565   -5.8368565   -4.9057183 -0.00072490119   -5.8368565   0.93113825      1024000 
  739000    0.6210177   -5.8380635   -5.8380635   -4.9065389 0.00029458022   -5.8380635   0.93152465      1024000 
  740000    0.6210493     -5.83772     -5.83772    -4.906148 0.00036578984     -5.83772   0.93157206      1024000 
  741000   0.62082235   -5.8383445   -5.8383445   -4.9071128  0.001215859   -5.8383445   0.93123164      1024000 
  742000   0.62140691   -5.8401707   -5.8401707   -4.9080622 -0.0051474059   -5.8401707   0.93210848      1024000 
  743000   0.62181648   -5.8414195   -5.8414195   -4.9086966 -0.0052369587   -5.8414195   0.93272283      1024000 
  744000   0.62051979   -5.8404588   -5.8404588    -4.909681 -0.00099344686   -5.8404588    0.9307778      1024000 
  745000    0.6205363   -5.8403447   -5.8403447   -4.9095422 0.00024699613   -5.8403447   0.93080255      1024000 
  746000   0.62109157   -5.8417837   -5.8417837   -4.9101482 -0.00063243048   -5.8417837   0.93163546      1024000 
  747000   0.62154931   -5.8422867   -5.8422867   -4.9099647 0.0030136395   -5.8422867   0.93232207      1024000 
  748000   0.62204141   -5.8438781   -5.8438781   -4.9108178  -0.00363817   -5.8438781   0.93306022      1024000 
  749000   0.62202612   -5.8438673   -5.8438673     -4.91083 -0.00012229819   -5.8438673   0.93303729      1024000 
  750000   0.62256865   -5.8446484   -5.8446484   -4.9107974 -0.0034024433   -5.8446484   0.93385108      1024000 
  751000   0.62090876    -5.843229    -5.843229   -4.9118678 0.0024197049    -5.843229   0.93136125      1024000 
  752000   0.62144957   -5.8442623   -5.8442623   -4.9120898 0.0025752756   -5.8442623   0.93217246      1024000 
  753000   0.62104962   -5.8447773   -5.8447773   -4.9132048 0.0015582206   -5.8447773   0.93157254      1024000 
  754000   0.62151409   -5.8458626   -5.8458626   -4.9135933 0.00064197248   -5.8458626   0.93226924      1024000 
  755000   0.62139894   -5.8457163   -5.8457163   -4.9136198 0.0020503677   -5.8457163   0.93209652      1024000 
  756000   0.62131351   -5.8450012   -5.8450012   -4.9130328 0.0028168033   -5.8450012   0.93196837      1024000 
  757000   0.62182103   -5.8465756   -5.8465756   -4.9138459 -0.0010020176   -5.8465756   0.93272965      1024000 
  758000   0.62105471    -5.845166    -5.845166   -4.9135859 -0.00026988427    -5.845166   0.93158018      1024000 
  759000    0.6209402   -5.8459969   -5.8459969   -4.9145885 -0.0023440422   -5.8459969   0.93140841      1024000 
  760000   0.62099959   -5.8465536   -5.8465536   -4.9150561 -0.0029645255   -5.8465536    0.9314975      1024000 
  761000   0.62100341   -5.8472887   -5.8472887   -4.9157854 -0.0036873765   -5.8472887   0.93150323      1024000 
  762000    0.6193194   -5.8450738   -5.8450738   -4.9160966 0.0012311129   -5.8450738   0.92897721      1024000 
  763000   0.62102018   -5.8482196   -5.8482196   -4.9166912 -0.0034703656   -5.8482196   0.93152838      1024000 
  764000   0.61958637   -5.8473077   -5.8473077     -4.91793 -0.0021249058   -5.8473077   0.92937767      1024000 
  765000   0.61954977   -5.8475925   -5.8475925   -4.9182697 0.0027946821   -5.8475925   0.92932277      1024000 
  766000   0.62007951   -5.8483464   -5.8483464    -4.918229 -0.0007218352   -5.8483464   0.93011738      1024000 
  767000   0.62051166    -5.849117    -5.849117   -4.9183514 0.0020077645    -5.849117    0.9307656      1024000 
  768000   0.62116731   -5.8506943   -5.8506943   -4.9189452 0.0026357703   -5.8506943   0.93174908      1024000 
  769000   0.62164614   -5.8514231   -5.8514231   -4.9189557 0.0025293738   -5.8514231   0.93246732      1024000 
  770000   0.62092812    -5.850996    -5.850996   -4.9196057 0.0030302038    -5.850996   0.93139029      1024000 
  771000   0.62069889   -5.8514568   -5.8514568   -4.9204103 0.0035976528   -5.8514568   0.93104644      1024000 
  772000   0.62051913   -5.8518868   -5.8518868     -4.92111 0.0013847614   -5.8518868   0.93077681      1024000 
  773000   0.62027403   -5.8516365   -5.8516365   -4.9212274 -0.00012843396   -5.8516365   0.93040916      1024000 
  774000   0.62107336   -5.8531486   -5.8531486   -4.9215405 -0.00074229826   -5.8531486   0.93160815      1024000 
  775000   0.61973174   -5.8517279   -5.8517279   -4.9221322 0.00055844168   -5.8517279   0.92959572      1024000 
  776000   0.62046768   -5.8532528   -5.8532528   -4.9225531 -7.044823e-05   -5.8532528   0.93069963      1024000 
  777000   0.61906191   -5.8518166   -5.8518166   -4.9232256 0.00051168496   -5.8518166   0.92859098      1024000 
  778000   0.61980204   -5.8532414   -5.8532414   -4.9235403 -0.0059136646   -5.8532414   0.92970117      1024000 
  779000   0.61850333   -5.8517761   -5.8517761    -4.924023 -0.0033732963   -5.8517761   0.92775312      1024000 
  780000   0.61984682   -5.8547098   -5.8547098   -4.9249415 -0.0069362538   -5.8547098   0.92976834      1024000 
  781000   0.61906482   -5.8537633   -5.8537633    -4.925168 -0.0043664194   -5.8537633   0.92859535      1024000 
  782000   0.61910755   -5.8538665   -5.8538665    -4.925207 -0.0035518913   -5.8538665   0.92865944      1024000 
  783000   0.61926347   -5.8547192   -5.8547192   -4.9258259 -0.00097439952   -5.8547192   0.92889331      1024000 
  784000   0.61941837   -5.8557331   -5.8557331   -4.9266074 -0.0018701989   -5.8557331   0.92912566      1024000 
  785000   0.61983299   -5.8570717   -5.8570717   -4.9273241 -0.002030419   -5.8570717   0.92974759      1024000 
  786000    0.6191857   -5.8562164   -5.8562164   -4.9274397 0.0045718383   -5.8562164   0.92877667      1024000 
  787000   0.61970153   -5.8574285   -5.8574285   -4.9278781 -0.00080228091   -5.8574285    0.9295504      1024000 
  788000   0.61887808   -5.8557876   -5.8557876   -4.9274723 0.0058496272   -5.8557876   0.92831523      1024000 
  789000   0.62032873   -5.8582215   -5.8582215   -4.9277303 0.0035245303   -5.8582215   0.93049121      1024000 
  790000   0.62064154   -5.8590168   -5.8590168   -4.9280563 0.0030614736   -5.8590168   0.93096043      1024000 
  791000   0.62060027   -5.8589881   -5.8589881   -4.9280896 0.0044063488   -5.8589881   0.93089851      1024000 
  792000   0.62033563   -5.8582588   -5.8582588   -4.9277572 0.0090735124   -5.8582588   0.93050155      1024000 
  793000   0.62064784    -5.858912    -5.858912   -4.9279421 0.0036672005    -5.858912   0.93096987      1024000 
  794000   0.62062946   -5.8591126   -5.8591126   -4.9281703 0.0040533801   -5.8591126    0.9309423      1024000 
  795000   0.62113495    -5.859363    -5.859363   -4.9276625 0.0017017548    -5.859363   0.93170053      1024000 
  796000   0.62050213   -5.8591176   -5.8591176   -4.9283663 -0.0019126757   -5.8591176   0.93075131      1024000 
  797000   0.62015151   -5.8585431   -5.8585431   -4.9283177 -0.001989852   -5.8585431   0.93022537      1024000 
  798000   0.61925935   -5.8580064   -5.8580064   -4.9291193 -0.0032159296   -5.8580064   0.92888714      1024000 
  799000   0.61944681   -5.8592679   -5.8592679   -4.9300996 -0.0087520997   -5.8592679   0.92916833      1024000 
  800000   0.61972331   -5.8599466   -5.8599466   -4.9303635 -0.0088124623   -5.8599466   0.92958308      1024000 
  801000   0.61884414   -5.8595201   -5.8595201   -4.9312558 -0.0068794045   -5.8595201   0.92826433      1024000 
  802000   0.61915082   -5.8601169   -5.8601169   -4.9313926 -0.0082732343   -5.8601169   0.92872434      1024000 
  803000   0.61916247   -5.8605408   -5.8605408   -4.9317989 -0.0064061201   -5.8605408   0.92874182      1024000 
  804000   0.61915688   -5.8612545   -5.8612545   -4.9325211 -0.0027062095   -5.8612545   0.92873344      1024000 
  805000   0.62059855   -5.8634348   -5.8634348   -4.9325389 -0.0035048914   -5.8634348   0.93089594      1024000 
  806000   0.62068096   -5.8637021   -5.8637021   -4.9326826 -0.0016727511   -5.8637021   0.93101955      1024000 
  807000   0.61983979   -5.8616521   -5.8616521   -4.9318943 0.0082649618   -5.8616521    0.9297578      1024000 
  808000   0.62105514   -5.8639425   -5.8639425   -4.9323616  0.010140154   -5.8639425   0.93158082      1024000 
  809000   0.62179127   -5.8655387   -5.8655387   -4.9328537  0.008629903   -5.8655387   0.93268501      1024000 
  810000   0.62045601   -5.8653743   -5.8653743   -4.9346921 0.0082257005   -5.8653743   0.93068213      1024000 
  811000   0.62011312   -5.8649056   -5.8649056   -4.9347378  0.008517752   -5.8649056   0.93016779      1024000 
  812000    0.6202173   -5.8648983   -5.8648983   -4.9345742 0.0069051143   -5.8648983   0.93032406      1024000 
  813000   0.62034969   -5.8654103   -5.8654103   -4.9348877 0.0050426547   -5.8654103   0.93052265      1024000 
  814000   0.61975733   -5.8657941   -5.8657941     -4.93616 0.0027340128   -5.8657941   0.92963412      1024000 
  815000   0.61948019   -5.8652382   -5.8652382   -4.9360197 0.0021202061   -5.8652382   0.92921841      1024000 
  816000   0.61834831   -5.8643773   -5.8643773   -4.9368567 0.0039681057   -5.8643773   0.92752058      1024000 
  817000   0.61839878   -5.8641033   -5.8641033   -4.9365071 -0.00043894727   -5.8641033   0.92759628      1024000 
  818000   0.61862377   -5.8652867   -5.8652867   -4.9373529 -0.0031909456   -5.8652867   0.92793377      1024000 
  819000   0.61931183   -5.8663881   -5.8663881   -4.9374222 -0.0078165224   -5.8663881   0.92896586      1024000 
  820000   0.61829894   -5.8648224   -5.8648224   -4.9373758 -0.0067957469   -5.8648224   0.92744653      1024000 
  821000   0.61867917   -5.8652201   -5.8652201   -4.9372033 -0.0046683796   -5.8652201   0.92801687      1024000 
  822000   0.61854219   -5.8650127   -5.8650127   -4.9372013 -0.0011499038   -5.8650127    0.9278114      1024000 
  823000   0.61859659   -5.8653657   -5.8653657   -4.9374727 0.0033363574   -5.8653657     0.927893      1024000 
  824000   0.61996955   -5.8674247   -5.8674247   -4.9374723 0.0017674874   -5.8674247   0.92995244      1024000 
  825000   0.61965324   -5.8668483   -5.8668483   -4.9373703  0.006622642   -5.8668483   0.92947798      1024000 
  826000   0.62026369   -5.8690606   -5.8690606   -4.9386669 0.0078807817   -5.8690606   0.93039365      1024000 
  827000   0.61955802   -5.8690542   -5.8690542    -4.939719 0.0057667675   -5.8690542   0.92933514      1024000 
  828000   0.61960365   -5.8694279   -5.8694279   -4.9400243  0.011377449   -5.8694279   0.92940359      1024000 
  829000   0.61986836   -5.8697365   -5.8697365   -4.9399358  0.012462068   -5.8697365   0.92980066      1024000 
  830000   0.62020015   -5.8708112   -5.8708112   -4.9405129  0.011435264   -5.8708112   0.93029834      1024000 
  831000   0.62091861    -5.872218    -5.872218    -4.940842 0.0076342979    -5.872218   0.93137602      1024000 
  832000   0.61988211   -5.8704501   -5.8704501   -4.9406288  0.013023401   -5.8704501   0.92982128      1024000 
  833000   0.62026827     -5.87162     -5.87162   -4.9412195 0.0079614796     -5.87162   0.93040052      1024000 
  834000   0.61947285   -5.8716898   -5.8716898   -4.9424824 0.0025130222   -5.8716898    0.9292074      1024000 
  835000    0.6193687    -5.871475    -5.871475   -4.9424238 0.0028167915    -5.871475   0.92905117      1024000 
  836000   0.61839235    -5.870137    -5.870137   -4.9425504 0.0033122181    -5.870137   0.92758664      1024000 
  837000   0.61795696   -5.8696964   -5.8696964   -4.9427628 0.0046378286   -5.8696964   0.92693356      1024000 
  838000   0.61893096   -5.8705539   -5.8705539   -4.9421593 0.00098736848   -5.8705539   0.92839455      1024000 
  839000   0.61910208   -5.8706399   -5.8706399   -4.9419886 -0.0024831596   -5.8706399   0.92865124      1024000 
  840000   0.61830739   -5.8699138   -5.8699138   -4.9424546 0.0018609558   -5.8699138    0.9274592      1024000 
  841000   0.61811505   -5.8702682   -5.8702682   -4.9430975 -0.0016491447   -5.8702682    0.9271707      1024000 
  842000    0.6189498    -5.871018    -5.871018   -4.9425952 0.0014262367    -5.871018   0.92842281      1024000 
  843000   0.61929008   -5.8717654   -5.8717654   -4.9428321 -0.0012840556   -5.8717654   0.92893323      1024000 
  844000   0.61895195   -5.8707437   -5.8707437   -4.9423177 0.0047889919   -5.8707437   0.92842604      1024000 
  845000   0.62002254   -5.8735566   -5.8735566   -4.9435246 0.0030766587   -5.8735566   0.93003193      1024000 
  846000   0.61953862   -5.8735093   -5.8735093   -4.9442033  0.004331938   -5.8735093   0.92930604      1024000 
  847000   0.61917528   -5.8731726   -5.8731726   -4.9444116 0.0079603359   -5.8731726   0.92876103      1024000 
  848000   0.61900621   -5.8739009   -5.8739009   -4.9453935 0.0064997097   -5.8739009   0.92850743      1024000 
  849000   0.61991147   -5.8755706   -5.8755706   -4.9457052 0.0068677074   -5.8755706   0.92986531      1024000 
  850000   0.61955893   -5.8753462   -5.8753462   -4.9460097 0.0086937468   -5.8753462   0.92933652      1024000 
  851000   0.61957621   -5.8756731   -5.8756731   -4.9463107 0.0094176519   -5.8756731   0.92936243      1024000 
  852000   0.61860052   -5.8746677   -5.8746677   -4.9467688 0.0072079784   -5.8746677    0.9278989      1024000 
  853000   0.61982629   -5.8759173   -5.8759173   -4.9461798 0.0049942181   -5.8759173   0.92973754      1024000 
  854000   0.61970162   -5.8763125   -5.8763125    -4.946762 0.0049501919   -5.8763125   0.92955055      1024000 
  855000   0.61877997   -5.8752651   -5.8752651    -4.947097 0.0051036892   -5.8752651   0.92816807      1024000 
  856000   0.62024115   -5.8775933   -5.8775933   -4.9472335 0.00057301414   -5.8775933   0.93035983      1024000 
  857000   0.61816177   -5.8743759   -5.8743759   -4.9471351 0.0070284813   -5.8743759   0.92724077      1024000 
  858000   0.61950702   -5.8768103   -5.8768103   -4.9475517 -0.0028689734   -5.8768103   0.92925865      1024000 
  859000   0.61890561   -5.8760452   -5.8760452   -4.9476887 -0.001293685   -5.8760452   0.92835654      1024000 
  860000   0.61847275   -5.8755906   -5.8755906   -4.9478833 0.0015790106   -5.8755906   0.92770725      1024000 
  861000   0.61770108    -5.874468    -5.874468   -4.9479183 0.00062780836    -5.874468   0.92654974      1024000 
  862000   0.61836895   -5.8760851   -5.8760851   -4.9485336 0.00035874268   -5.8760851   0.92755154      1024000 
  863000   0.61925858   -5.8773148   -5.8773148   -4.9484288 -0.00035849567   -5.8773148   0.92888599      1024000 
  864000   0.61917436   -5.8774301   -5.8774301   -4.9486704 0.0055169982   -5.8774301   0.92875966      1024000 
  865000   0.61954421   -5.8780524   -5.8780524   -4.9487379 0.0051807452   -5.8780524   0.92931443      1024000 
  866000   0.62023107   -5.8795244   -5.8795244   -4.9491797 0.0032989983   -5.8795244   0.93034472      1024000 
  867000   0.61926237   -5.8781379   -5.8781379   -4.9492462 0.0080682283   -5.8781379   0.92889167      1024000 
  868000   0.62049892   -5.8802095   -5.8802095    -4.949463  0.005004327   -5.8802095   0.93074649      1024000 
  869000   0.61959429   -5.8795247   -5.8795247   -4.9501351 0.0071662539   -5.8795247   0.92938955      1024000 
  870000   0.61942726   -5.8788836   -5.8788836   -4.9497446 0.0087360558   -5.8788836   0.92913901      1024000 
  871000   0.61984188    -5.880123    -5.880123    -4.950362 0.0099831807    -5.880123   0.92976094      1024000 
  872000   0.61923772   -5.8798623   -5.8798623   -4.9510076    0.0109645   -5.8798623    0.9288547      1024000 
  873000   0.61936455   -5.8811608   -5.8811608   -4.9521158  0.010489714   -5.8811608   0.92904495      1024000 
  874000   0.61826387   -5.8797144   -5.8797144   -4.9523204 0.0082946076   -5.8797144   0.92739393      1024000 
  875000   0.61942325   -5.8807073   -5.8807073   -4.9515743 0.0044248248   -5.8807073   0.92913298      1024000 
  876000   0.61966616    -5.881286    -5.881286   -4.9517886 0.0069164487    -5.881286   0.92949736      1024000 
  877000   0.61883266    -5.880244    -5.880244   -4.9519969 0.0055189194    -5.880244    0.9282471      1024000 
  878000    0.6205897   -5.8830487   -5.8830487    -4.952166 -0.0010310336   -5.8830487   0.93088267      1024000 
  879000   0.61931839   -5.8811856   -5.8811856   -4.9522099 0.0057631336   -5.8811856    0.9289757      1024000 
  880000   0.61909297   -5.8809216   -5.8809216   -4.9522841 0.0049522492   -5.8809216   0.92863757      1024000 
  881000   0.61902274   -5.8813821   -5.8813821   -4.9528499 0.00067562165   -5.8813821   0.92853222      1024000 
  882000   0.61842682    -5.881117    -5.881117   -4.9534787 0.0011207644    -5.881117   0.92763835      1024000 
  883000   0.61783993   -5.8813923   -5.8813923   -4.9546343 0.0032229544   -5.8813923   0.92675801      1024000 
  884000   0.61894232   -5.8830386   -5.8830386    -4.954627 -0.0017572673   -5.8830386    0.9284116      1024000 
  885000   0.61731234   -5.8811647   -5.8811647   -4.9551981 0.0039877103   -5.8811647   0.92596663      1024000 
  886000   0.61870776   -5.8834273   -5.8834273   -4.9553675 0.0036675108   -5.8834273   0.92805976      1024000 
  887000   0.61868075   -5.8825018   -5.8825018   -4.9544826  0.011692973   -5.8825018   0.92801924      1024000 
  888000   0.61926522   -5.8844653   -5.8844653   -4.9555693 0.0062582013   -5.8844653   0.92889594      1024000 
  889000   0.61907655   -5.8842683   -5.8842683   -4.9556553 0.0098185892   -5.8842683   0.92861293      1024000 
  890000   0.61940373   -5.8839097   -5.8839097    -4.954806  0.010055359   -5.8839097   0.92910371      1024000 
  891000   0.61990876   -5.8857248   -5.8857248   -4.9558635 0.0028976106   -5.8857248   0.92986126      1024000 
  892000   0.61983896   -5.8848286   -5.8848286    -4.955072 0.0072135545   -5.8848286   0.92975656      1024000 
  893000   0.61920582   -5.8838629   -5.8838629   -4.9550561  0.013544328   -5.8838629   0.92880684      1024000 
  894000   0.61932098   -5.8842524   -5.8842524   -4.9552728  0.010576943   -5.8842524   0.92897958      1024000 
  895000   0.62016662   -5.8851808   -5.8851808   -4.9549328 0.0090624302   -5.8851808   0.93024804      1024000 
  896000   0.61948754   -5.8847114   -5.8847114   -4.9554819 0.0065647817   -5.8847114   0.92922943      1024000 
  897000   0.61944718   -5.8844539   -5.8844539    -4.955285 0.0068624031   -5.8844539   0.92916888      1024000 
  898000   0.61884597   -5.8835088   -5.8835088   -4.9552417 0.0025657177   -5.8835088   0.92826707      1024000 
  899000   0.61933488   -5.8844485   -5.8844485   -4.9554481 0.0030702091   -5.8844485   0.92900043      1024000 
  900000   0.61827056   -5.8830929   -5.8830929   -4.9556889 -0.00042720323   -5.8830929   0.92740396      1024000 
  901000   0.61846902    -5.884018    -5.884018   -4.9563163 0.00067709158    -5.884018   0.92770165      1024000 
  902000   0.61902048   -5.8844888   -5.8844888     -4.95596 0.0049373859   -5.8844888   0.92852883      1024000 
  903000   0.61978772   -5.8863881   -5.8863881   -4.9567084 0.0016927855   -5.8863881   0.92967969      1024000 
  904000   0.61926067   -5.8861656   -5.8861656   -4.9572765 0.0036318177   -5.8861656   0.92888912      1024000 
  905000   0.61991094   -5.8885549   -5.8885549   -4.9586904 0.00038064965   -5.8885549   0.92986453      1024000 
  906000   0.61848919   -5.8871566   -5.8871566   -4.9594247 0.0072127391   -5.8871566    0.9277319      1024000 
  907000   0.61851085   -5.8884649   -5.8884649   -4.9607006  0.008063346   -5.8884649   0.92776439      1024000 
  908000   0.61887919   -5.8885395   -5.8885395   -4.9602226 0.0093579061   -5.8885395    0.9283169      1024000 
  909000   0.61990657   -5.8908803   -5.8908803   -4.9610223 0.0062105311   -5.8908803   0.92985797      1024000 
  910000   0.61833038   -5.8894608   -5.8894608   -4.9619671  0.016464799   -5.8894608   0.92749369      1024000 
  911000   0.61985147   -5.8914381   -5.8914381   -4.9616627  0.010831906   -5.8914381   0.92977532      1024000 
  912000     0.619516   -5.8911081   -5.8911081    -4.961836  0.011795589   -5.8911081   0.92927212      1024000 
  913000   0.61964564   -5.8915876   -5.8915876    -4.962121 0.0098105883   -5.8915876   0.92946657      1024000 
  914000   0.61941575   -5.8915752   -5.8915752   -4.9624535 0.0039000687   -5.8915752   0.92912174      1024000 
  915000   0.61887643   -5.8906397   -5.8906397   -4.9623269  0.010181996   -5.8906397   0.92831276      1024000 
  916000    0.6183769   -5.8902748   -5.8902748   -4.9627113 0.0076626529   -5.8902748   0.92756346      1024000 
  917000   0.61841622   -5.8905481   -5.8905481   -4.9629257 0.0077299823   -5.8905481   0.92762245      1024000 
  918000   0.61875015   -5.8905956   -5.8905956   -4.9624723 0.0047910743   -5.8905956   0.92812333      1024000 
  919000    0.6177386   -5.8896373   -5.8896373   -4.9630313 0.0045971514   -5.8896373   0.92660602      1024000 
  920000   0.61865858   -5.8909088   -5.8909088   -4.9629228 0.0015275838   -5.8909088   0.92798599      1024000 
  921000   0.61893132   -5.8920969   -5.8920969   -4.9637018 -0.0021412359   -5.8920969    0.9283951      1024000 
  922000   0.61730889   -5.8890073   -5.8890073   -4.9630458 0.0026496925   -5.8890073   0.92596146      1024000 
  923000   0.61870199   -5.8914312   -5.8914312   -4.9633801 -0.00080404203   -5.8914312    0.9280511      1024000 
  924000   0.61852004   -5.8907413   -5.8907413   -4.9629632 0.0036515815   -5.8907413   0.92777818      1024000 
  925000   0.61859096   -5.8913576   -5.8913576    -4.963473 0.00031725823   -5.8913576   0.92788455      1024000 
  926000   0.61884605   -5.8923993   -5.8923993   -4.9641321 0.0010633544   -5.8923993   0.92826718      1024000 
  927000   0.61909453   -5.8930989   -5.8930989    -4.964459 0.0016275759   -5.8930989   0.92863991      1024000 
  928000   0.61826314   -5.8915303   -5.8915303   -4.9641375 0.0079148166   -5.8915303   0.92739284      1024000 
  929000   0.61827422   -5.8916729   -5.8916729   -4.9642635  0.012218261   -5.8916729   0.92740944      1024000 
  930000    0.6202863   -5.8940416   -5.8940416    -4.963614 0.0035688653   -5.8940416   0.93042756      1024000 
  931000   0.61866842   -5.8919601   -5.8919601   -4.9639593 0.0093770332   -5.8919601   0.92800075      1024000 
  932000   0.61965717   -5.8935312   -5.8935312   -4.9640473 0.0071487537   -5.8935312   0.92948387      1024000 
  933000   0.61857821   -5.8919799   -5.8919799   -4.9641145  0.012392624   -5.8919799   0.92786543      1024000 
  934000   0.61772821   -5.8915484   -5.8915484   -4.9649579  0.011191342   -5.8915484   0.92659043      1024000 
  935000   0.61763872   -5.8918705   -5.8918705   -4.9654143 0.0061817653   -5.8918705   0.92645619      1024000 
  936000   0.61906381   -5.8935432   -5.8935432   -4.9649494 0.0020731448   -5.8935432   0.92859384      1024000 
  937000   0.61908348   -5.8932373   -5.8932373    -4.964614 0.0092444733   -5.8932373   0.92862333      1024000 
  938000   0.61914974   -5.8939548   -5.8939548   -4.9652321 0.0067945978   -5.8939548   0.92872273      1024000 
  939000   0.61872535   -5.8931991   -5.8931991    -4.965113 0.0069310416   -5.8931991   0.92808615      1024000 
  940000   0.61808485   -5.8928069   -5.8928069   -4.9656815 0.0075968462   -5.8928069   0.92712539      1024000 
  941000   0.61860166   -5.8935147   -5.8935147   -4.9656141  0.008183977   -5.8935147   0.92790061      1024000 
  942000   0.61855264   -5.8932378   -5.8932378   -4.9654108 0.0088064019   -5.8932378   0.92782708      1024000 
  943000   0.61840467   -5.8939759   -5.8939759   -4.9663708 0.0084982108   -5.8939759   0.92760513      1024000 
  944000    0.6188002   -5.8943645   -5.8943645   -4.9661661 0.0079312602   -5.8943645   0.92819841      1024000 
  945000   0.61909147   -5.8942722   -5.8942722   -4.9656369 0.0070291454   -5.8942722   0.92863533      1024000 
  946000   0.62008335   -5.8962298   -5.8962298   -4.9661067 0.0099218764   -5.8962298   0.93012313      1024000 
  947000   0.61890618   -5.8947112   -5.8947112   -4.9663538  0.010926928   -5.8947112   0.92835739      1024000 
  948000   0.61993981   -5.8965829   -5.8965829   -4.9666751 0.0050930965   -5.8965829   0.92990782      1024000 
  949000   0.61857425   -5.8958297   -5.8958297   -4.9679702 0.0072648704   -5.8958297    0.9278595      1024000 
  950000   0.61884886   -5.8963175   -5.8963175   -4.9680461   0.01037214   -5.8963175   0.92827141      1024000 
  951000   0.61904041   -5.8969136   -5.8969136   -4.9683549 0.0080827231   -5.8969136   0.92855873      1024000 
  952000   0.61885718   -5.8965444   -5.8965444   -4.9682605   0.01028198   -5.8965444   0.92828389      1024000 
  953000   0.62095358   -5.8994757   -5.8994757   -4.9680473 0.0063035229   -5.8994757   0.93142849      1024000 
  954000   0.62023994   -5.8978628   -5.8978628   -4.9675048  0.010101027   -5.8978628   0.93035801      1024000 
  955000   0.61946514   -5.8962303   -5.8962303   -4.9670345  0.013441084   -5.8962303   0.92919582      1024000 
  956000    0.6201185   -5.8978088   -5.8978088   -4.9676329  0.014125889   -5.8978088   0.93017586      1024000 
  957000   0.61910354   -5.8962458   -5.8962458   -4.9675924  0.011287657   -5.8962458   0.92865343      1024000 
  958000   0.61866737   -5.8961058   -5.8961058   -4.9681067 0.0084175181   -5.8961058   0.92799917      1024000 
  959000    0.6194669   -5.8983879   -5.8983879   -4.9691894  0.006892988   -5.8983879   0.92919847      1024000 
  960000   0.61889391   -5.8978182   -5.8978182   -4.9694793 0.0098728509   -5.8978182   0.92833898      1024000 
  961000   0.61882807   -5.8980378   -5.8980378   -4.9697976 0.0097270824   -5.8980378   0.92824022      1024000 
  962000   0.61869403   -5.8972897   -5.8972897   -4.9692506 0.0081330323   -5.8972897   0.92803916      1024000 
  963000   0.61858799   -5.8968504   -5.8968504   -4.9689703 0.0076401262   -5.8968504    0.9278801      1024000 
  964000     0.618097   -5.8968442   -5.8968442   -4.9697005 0.0092223377   -5.8968442   0.92714363      1024000 
  965000   0.61897564   -5.8980927   -5.8980927   -4.9696311  0.010345229   -5.8980927   0.92846158      1024000 
  966000   0.61775605   -5.8966678   -5.8966678   -4.9700356  0.009198565   -5.8966678    0.9266322      1024000 
  967000   0.61901468   -5.8993054   -5.8993054   -4.9707853  0.010722978   -5.8993054   0.92852013      1024000 
  968000   0.61874984   -5.8985299   -5.8985299    -4.970407  0.011712085   -5.8985299   0.92812288      1024000 
  969000   0.61902543   -5.8987169   -5.8987169   -4.9701806  0.017215342   -5.8987169   0.92853626      1024000 
  970000   0.61900205   -5.8993767   -5.8993767   -4.9708755  0.012855194   -5.8993767   0.92850119      1024000 
  971000   0.61906502   -5.8999177   -5.8999177    -4.971322  0.015336909   -5.8999177   0.92859565      1024000 
  972000   0.61861119   -5.9002225   -5.9002225   -4.9723076  0.013756855   -5.9002225    0.9279149      1024000 
  973000   0.61908123   -5.9005146   -5.9005146   -4.9718946  0.016151703   -5.9005146   0.92861996      1024000 
  974000   0.61952022   -5.9010608   -5.9010608   -4.9717823  0.011159908   -5.9010608   0.92927844      1024000 
  975000      0.61962   -5.9009542   -5.9009542   -4.9715261  0.015358623   -5.9009542   0.92942811      1024000 
  976000   0.61867199   -5.8998713   -5.8998713   -4.9718652  0.014879931   -5.8998713    0.9280061      1024000 
  977000    0.6191226   -5.9009673   -5.9009673   -4.9722853  0.012817325   -5.9009673   0.92868201      1024000 
  978000   0.61957312   -5.9016993   -5.9016993   -4.9723415 0.0090702989   -5.9016993   0.92935779      1024000 
  979000   0.61968068   -5.9017579   -5.9017579   -4.9722387 0.0060863302   -5.9017579   0.92951913      1024000 
  980000   0.61934269   -5.9019552   -5.9019552    -4.972943 0.0053192385   -5.9019552   0.92901215      1024000 
  981000   0.61910876     -5.90116     -5.90116   -4.9724987  0.010873936     -5.90116   0.92866126      1024000 
  982000   0.61923196   -5.9013031   -5.9013031    -4.972457 0.0069783212   -5.9013031   0.92884605      1024000 
  983000   0.61973064   -5.9018678   -5.9018678   -4.9722737 0.0081352126   -5.9018678   0.92959407      1024000 
  984000   0.61967046   -5.9004516   -5.9004516   -4.9709478 0.0092449526   -5.9004516   0.92950381      1024000 
  985000   0.61917812   -5.9003713   -5.9003713    -4.971606  0.013520768   -5.9003713    0.9287653      1024000 
  986000   0.61979727   -5.9013217   -5.9013217   -4.9716277  0.011242048   -5.9013217   0.92969402      1024000 
  987000   0.61901398   -5.9012061   -5.9012061    -4.972687 0.0098963471   -5.9012061   0.92851908      1024000 
  988000   0.61880277   -5.9005551   -5.9005551   -4.9723529  0.010548595   -5.9005551   0.92820228      1024000 
  989000   0.61947139   -5.9021723   -5.9021723   -4.9729671 0.0079399974   -5.9021723    0.9292052      1024000 
  990000   0.61944762   -5.9023214   -5.9023214   -4.9731518 0.0095906858   -5.9023214   0.92916955      1024000 
  991000   0.61885807   -5.9013802   -5.9013802    -4.973095   0.01441163   -5.9013802   0.92828523      1024000 
  992000   0.61937253   -5.9022682   -5.9022682   -4.9732113  0.013090476   -5.9022682    0.9290569      1024000 
  993000   0.61989094   -5.9031311   -5.9031311   -4.9732966  0.010150706   -5.9031311   0.92983453      1024000 
  994000   0.61973793   -5.9034905   -5.9034905   -4.9738855  0.011957225   -5.9034905   0.92960501      1024000 
  995000   0.62000434   -5.9037505   -5.9037505   -4.9737459  0.012115596   -5.9037505   0.93000462      1024000 
  996000   0.61875313   -5.9020167   -5.9020167   -4.9738889  0.016150986   -5.9020167   0.92812781      1024000 
  997000   0.61987384   -5.9039197   -5.9039197   -4.9741109 0.0062009562   -5.9039197   0.92980888      1024000 
  998000   0.61933479   -5.9035582   -5.9035582   -4.9745579   0.01002806   -5.9035582   0.92900029      1024000 
  999000   0.61940661   -5.9049052   -5.9049052   -4.9757972 0.0087689327   -5.9049052   0.92910802      1024000 
 1000000   0.61931571   -5.9034718   -5.9034718   -4.9745002 0.0075175973   -5.9034718   0.92897167      1024000 
Loop time of 8504.19 on 96 procs for 1000000 steps with 492800 atoms

Performance: 25399.241 tau/day, 117.589 timesteps/s
99.5% CPU use with 96 MPI tasks x 1 OpenMP threads

MPI task timing breakdown:
Section |  min time  |  avg time  |  max time  |%varavg|  %CPU | %total
-----------------------------------------------------------------------
Pair    | 4602.5     | 5906.6     | 6716.5     | 702.8 |  99.5 | 69.45
Bond    | 0.76947    | 0.81193    | 0.87646    |   2.3 | 100.0 |  0.01
Neigh   | 497.02     | 624.86     | 699.17     | 189.5 |  99.6 |  7.35
Comm    | 709.91     | 1448.5     | 2544.1     |1185.1 |  99.3 | 17.03
Output  | 39.424     | 39.605     | 39.612     |   0.3 |  98.9 |  0.47
Modify  | 68.873     | 122.13     | 290.76     | 784.0 |  99.6 |  1.44
Other   |            | 361.7      |            |       |       |  4.25

Nlocal:        5133.33 ave        5360 max        4840 min
Histogram: 3 4 1 3 12 31 27 9 4 2
Nghost:        8204.41 ave        9632 max        5831 min
Histogram: 24 0 0 0 0 0 0 24 43 5
Neighs:        365505.0 ave      409618 max      285519 min
Histogram: 4 5 3 0 1 34 6 6 22 15

Total # of neighbors = 35088435
Ave neighs/atom = 71.202181
Ave special neighs/atom = 0.0000000
Neighbor list builds = 55635
Dangerous builds = 382
Total wall time: 2:21:45
