LAMMPS (24 Dec 2020)
OMP_NUM_THREADS environment is not set. Defaulting to 1 thread. (src/comm.cpp:94)
  using 1 OpenMP thread(s) per MPI task
#Read the equilibrated lj fluid and add nanocubes

units           lj
atom_style      full
atom_modify     map array first cubes
dimension       3
boundary        p p f
pair_style      lj/cut/opt 2.5

variable        sigma           equal 1.0
variable        epsilon         equal 1.0
read_restart	restart.dat.3000000
Reading restart file ...
  restart file = 24 Dec 2020, LAMMPS = 24 Dec 2020
WARNING: Restart file used different # of processors: 48 vs. 288 (src/read_restart.cpp:697)
  restoring atom style full from restart
  orthogonal box = (0.0000000 0.0000000 0.0000000) to (80.000000 80.000000 160.00000)
  6 by 4 by 12 MPI processor grid
  restoring pair style lj/cut/opt from restart
  518400 atoms
Finding 1-2 1-3 1-4 neighbors ...
  special bond factors lj:    0        0        0       
  special bond factors coul:  0        0        0       
     0 = max # of 1-2 neighbors
     0 = max # of 1-3 neighbors
     0 = max # of 1-4 neighbors
     1 = max # of special neighbors
  special bonds CPU = 2.451 seconds
  read_restart CPU = 2.749 seconds

group		solvent type 1
518400 atoms in group solvent

read_data	data_125.cubes group cubes add append
Reading data file ...
  orthogonal box = (0.0000000 0.0000000 0.0000000) to (80.000000 80.000000 160.00000)
  6 by 4 by 12 MPI processor grid
  reading atoms ...
  142875 atoms
  reading velocities ...
  142875 velocities
Finding 1-2 1-3 1-4 neighbors ...
  special bond factors lj:    0        0        0       
  special bond factors coul:  0        0        0       
     0 = max # of 1-2 neighbors
     0 = max # of 1-3 neighbors
     0 = max # of 1-4 neighbors
     1 = max # of special neighbors
  special bonds CPU = 0.069 seconds
  read_data CPU = 0.504 seconds

group 		hull  type 2
55750 atoms in group hull
group 		dummy type 3
87125 atoms in group dummy

neighbor      0.4 bin
neigh_modify  exclude molecule/intra cubes


pair_modify   shift yes

pair_coeff    1 1 1.0 1.0 #solvent
pair_coeff    2 2 1.0 1.0 1.12 #np
pair_coeff    3 3 0.0 0.0 0.0 #dummy
pair_coeff    2 3 0.0 0.0 0.0 #np dummy
pair_coeff    1 2 ${eps} ${sig} ${nscut} #np solvent
pair_coeff    1 2 1.0 ${sig} ${nscut} 
pair_coeff    1 2 1.0 1.0 ${nscut} 
pair_coeff    1 2 1.0 1.0 4.0 
pair_coeff    1 3 0.0 0.0 2.5 #dummy solvent

# delete solvent where the cubes are
delete_atoms  overlap 1.0 solvent cubes
System init for delete_atoms ...
Neighbor list info ...
  update every 1 steps, delay 10 steps, check yes
  max neighbors/atom: 2000, page size: 100000
  master list distance cutoff = 4.4
  ghost atom cutoff = 4.4
  binsize = 2.2, bins = 37 37 73
  2 neighbor lists, perpetual/occasional/extra = 1 1 0
  (1) command delete_atoms, occasional
      attributes: full, newton on
      pair build: full/bin
      stencil: full/bin/3d
      bin: standard
  (2) pair lj/cut/opt, perpetual
      attributes: half, newton on
      pair build: half/bin/newton
      stencil: half/bin/3d/newton
      bin: standard
WARNING: Delete_atoms cutoff > minimum neighbor cutoff (src/delete_atoms.cpp:307)
WARNING: Ignoring 'compress yes' for molecular system (src/delete_atoms.cpp:125)
Deleted 91914 atoms, new total = 569361



pair_coeff    1 1 1.0 1.0 #solvent
pair_coeff    2 2 1.0 1.0 1.12 #np
pair_coeff    3 3 0.0 0.0 0.0 #dummy
pair_coeff    2 3 0.0 0.0 0.0 #np dummy
pair_coeff    1 2 ${eps} ${sig} ${nscut} #np solvent
pair_coeff    1 2 1.0 ${sig} ${nscut} 
pair_coeff    1 2 1.0 1.0 ${nscut} 
pair_coeff    1 2 1.0 1.0 4.0 
pair_coeff    1 3 0.0 0.0 0.0 #dummy solvent


comm_modify   mode multi cutoff/multi 1 2.5 cutoff/multi 2 2.5 cutoff/multi 3 6.95

reset_timestep 	0

balance 	1.05 shift z 10 1.05
Balancing ...
Neighbor list info ...
  update every 1 steps, delay 10 steps, check yes
  max neighbors/atom: 2000, page size: 100000
  master list distance cutoff = 4.4
  ghost atom cutoff = 6.95
  binsize = 2.2, bins = 37 37 73
  1 neighbor lists, perpetual/occasional/extra = 1 0 0
  (1) pair lj/cut/opt, perpetual
      attributes: half, newton on
      pair build: half/bin/newton
      stencil: half/bin/3d/newton
      bin: standard
 rebalancing time: 0.004 seconds
  iteration count = 4
  initial/final maximal load/proc = 2584.0000 2731.0000
  initial/final imbalance factor  = 1.3070653 1.3814223
  x cuts: 0.0000000 0.16666667 0.33333333 0.50000000 0.66666667 0.83333333 1.0000000
  y cuts: 0.0000000 0.25000000 0.50000000 0.75000000 1.0000000
  z cuts: 0.0000000 0.078125000 0.16145833 0.24479167 0.33854167 0.41145833 0.48437500 0.54687500 0.61979167 0.70312500 0.77604167 0.85937500 1.0000000

####################### WALLS ###########################

variable       epsilonWall equal 2*${epsilon}
variable       epsilonWall equal 2*1
variable       repulsive   equal   0.7147*${sigma}
variable       repulsive   equal   0.7147*1
variable       full	   equal   3*${sigma}
variable       full	   equal   3*1
region         lowWall block EDGE EDGE EDGE EDGE EDGE 2

fix            topWall all wall/lj93 zhi EDGE 	       ${epsilonWall} ${sigma} ${repulsive} units box
fix            topWall all wall/lj93 zhi EDGE 	       2 ${sigma} ${repulsive} units box
fix            topWall all wall/lj93 zhi EDGE 	       2 1 ${repulsive} units box
fix            topWall all wall/lj93 zhi EDGE 	       2 1 0.7147 units box
fix            lowSol solvent wall/lj93 zlo EDGE                ${epsilonWall} ${sigma} ${full} units box
fix            lowSol solvent wall/lj93 zlo EDGE                2 ${sigma} ${full} units box
fix            lowSol solvent wall/lj93 zlo EDGE                2 1 ${full} units box
fix            lowSol solvent wall/lj93 zlo EDGE                2 1 3 units box
fix 	       lowCub cubes wall/lj93 zlo EDGE                ${epsilonWall} ${sigma} ${repulsive} units box
fix 	       lowCub cubes wall/lj93 zlo EDGE                2 ${sigma} ${repulsive} units box
fix 	       lowCub cubes wall/lj93 zlo EDGE                2 1 ${repulsive} units box
fix 	       lowCub cubes wall/lj93 zlo EDGE                2 1 0.7147 units box


###################### COMPUTES ##########################

compute        bin1 solvent chunk/atom bin/1d z lower 1.0 units box


######################  FIXES ############################


fix             peclet solvent ave/chunk 10 10 10000 bin1 density/number norm                  none ave one file density.profile

fix              temp solvent ave/chunk 10 10 10000 bin1 temp norm                  none ave one file temp.profile

fix             1 cubes rigid/nve/small molecule
  create bodies CPU = 0.001 seconds
  125 rigid bodies with 142875 atoms
  6.9282032 = max distance from body owner to body atom

fix             2 solvent nve# temp ${temp} ${temp} 10


## Thermostat
region          regthermo block EDGE EDGE EDGE EDGE 0 15
group           thermo dynamic solvent region regthermo every 1000
dynamic group thermo defined
fix             3 thermo langevin ${temp} ${temp} 10 156453
fix             3 thermo langevin 1.0 ${temp} 10 156453
fix             3 thermo langevin 1.0 1.0 10 156453


#### Load balancing

fix             bal all balance 1000 1.05 shift z 10 1.05

############### Diagnostics and computes ###################

compute        	com cubes          rigid/local   1 mol x y z
compute        	quat cubes         rigid/local   1 mol quatw quati quatj quatk

compute 	cc2 cubes 	   chunk/atom 	 molecule
compute 	msd cubes 	   msd/chunk 	 cc2

fix 		msd all ave/time  1 1 10000 c_msd[*] file dump.msd ave one mode vector

dump            1 all custom 500000 dump.lammpstrj id mol type x y z
dump		cubetrj hull custom 500000 cubes.lammpstrj id mol type x y z
dump            com cubes local 10000 dump.*.xyz c_com[*]
dump	        xyz hull xyz 100000 cubes.xyz
dump            quat cubes      local 10000 dump.*.quat c_quat[*]
#dump		mol cubes molfile 10000 mol.xyz xyz


dump            2 all image 10000 image.*.png type type
dump_modify     2 pad 8
dump		image cubes image 10000 image_cubes.*.png type type
dump_modify	image pad 8
dump            3 all movie 5000 movie.avi type type
dump		4 cubes movie 5000 movie_cubes.avi type type


thermo          1000
thermo_style    custom step temp epair evdwl etotal press pe ke atoms

restart         1000000 restart.dat
timestep        0.005
timer           full
New timer settings: style=full  mode=nosync  timeout=off

run 		4000000
Per MPI rank memory allocation (min/avg/max) = 15.75 | 20.55 | 24.00 Mbytes
Step Temp E_pair E_vdwl TotEng Press PotEng KinEng Atoms 
       0   0.99247058   -2.5684434   -2.5684434   -1.4526611  -0.21501212   -2.5684434    1.1157823   569361 
    1000    1.0234615   -2.6059255   -2.6059255   -1.4553018  0.050438408   -2.6059255    1.1506237   569361 
    2000    1.0284883   -2.6153556   -2.6153556   -1.4590805  0.059795902   -2.6153556    1.1562751   569361 
    3000    1.0291995    -2.619311    -2.619311   -1.4622363  0.072685794    -2.619311    1.1570747   569361 
    4000    1.0317283   -2.6258647   -2.6258647   -1.4659471   0.06742208   -2.6258647    1.1599176   569361 
    5000    1.0321704   -2.6287485   -2.6287485   -1.4683338  0.070126768   -2.6287485    1.1604147   569361 
    6000    1.0319395   -2.6311334   -2.6311334   -1.4709784  0.081532176   -2.6311334     1.160155   569361 
    7000    1.0320334     -2.63419     -2.63419   -1.4739294  0.080034494     -2.63419    1.1602606   569361 
    8000    1.0284527   -2.6328365   -2.6328365   -1.4766014  0.068419706   -2.6328365    1.1562351   569361 
    9000    1.0306652   -2.6389647   -2.6389647   -1.4802423  0.060018044   -2.6389647    1.1587224   569361 
   10000    1.0261984   -2.6351961   -2.6351961   -1.4814954  0.067274491   -2.6351961    1.1537007   569361 
   11000    1.0245026   -2.6343349   -2.6343349   -1.4825407  0.053629851   -2.6343349    1.1517942   569361 
   12000    1.0241898   -2.6352013   -2.6352013   -1.4837588   0.06247563   -2.6352013    1.1514425   569361 
   13000    1.0225554   -2.6350799   -2.6350799   -1.4854748  0.063792949   -2.6350799    1.1496051   569361 
   14000    1.0226683   -2.6354006   -2.6354006   -1.4856686  0.066696028   -2.6354006     1.149732   569361 
   15000    1.0216086   -2.6353712   -2.6353712   -1.4868306  0.049276866   -2.6353712    1.1485406   569361 
   16000    1.0226212    -2.637045    -2.637045    -1.487366  0.066549156    -2.637045     1.149679   569361 
   17000    1.0241656   -2.6392719   -2.6392719   -1.4878566    0.0606666   -2.6392719    1.1514153   569361 
   18000    1.0232101   -2.6397178   -2.6397178   -1.4893768   0.05887645   -2.6397178    1.1503411   569361 
   19000    1.0223654   -2.6400126   -2.6400126   -1.4906212  0.065406269   -2.6400126    1.1493914   569361 
   20000    1.0223184   -2.6402616   -2.6402616   -1.4909231  0.058544949   -2.6402616    1.1493385   569361 
   21000    1.0228966   -2.6418239   -2.6418239   -1.4918352  0.064740486   -2.6418239    1.1499887   569361 
   22000    1.0237135   -2.6432051   -2.6432051   -1.4922981  0.056438713   -2.6432051     1.150907   569361 
   23000    1.0238277   -2.6441426   -2.6441426   -1.4931071  0.058785541   -2.6441426    1.1510354   569361 
   24000     1.022812   -2.6445372   -2.6445372   -1.4946437  0.069541821   -2.6445372    1.1498935   569361 
   25000    1.0237824   -2.6455116   -2.6455116   -1.4945271  0.062694525   -2.6455116    1.1509844   569361 
   26000    1.0231214   -2.6453212   -2.6453212   -1.4950799  0.073197533   -2.6453212    1.1502413   569361 
   27000    1.0216628   -2.6440655   -2.6440655    -1.495464  0.070137839   -2.6440655    1.1486015   569361 
   28000    1.0249311   -2.6479049   -2.6479049   -1.4956289  0.064210424   -2.6479049     1.152276   569361 
   29000     1.021636   -2.6445944   -2.6445944   -1.4960231  0.059311443   -2.6445944    1.1485714   569361 
   30000    1.0212837   -2.6448658   -2.6448658   -1.4966905  0.057368112   -2.6448658    1.1481753   569361 
   31000    1.0211234   -2.6447437   -2.6447437   -1.4967486  0.068033374   -2.6447437    1.1479951   569361 
   32000    1.0205499   -2.6445994   -2.6445994   -1.4972491   0.06972436   -2.6445994    1.1473503   569361 
   33000    1.0212281   -2.6456661   -2.6456661   -1.4975533  0.050844518   -2.6456661    1.1481128   569361 
   34000    1.0203629   -2.6460772   -2.6460772   -1.4989371  0.061807627   -2.6460772    1.1471401   569361 
   35000     1.020478   -2.6463486   -2.6463486   -1.4990791  0.063471552   -2.6463486    1.1472695   569361 
   36000    1.0196289    -2.647176    -2.647176   -1.5008611  0.054777825    -2.647176     1.146315   569361 
   37000     1.020257   -2.6477714   -2.6477714   -1.5007504  0.055334712   -2.6477714     1.147021   569361 
   38000     1.019095    -2.648033    -2.648033   -1.5023183  0.058269433    -2.648033    1.1457147   569361 
   39000    1.0214838   -2.6512297   -2.6512297   -1.5028294  0.062853277   -2.6512297    1.1484003   569361 
   40000    1.0196462   -2.6490349   -2.6490349   -1.5027005  0.066635844   -2.6490349    1.1463343   569361 
   41000    1.0183878    -2.648171    -2.648171   -1.5032514   0.06171688    -2.648171    1.1449196   569361 
   42000    1.0202944   -2.6507045   -2.6507045   -1.5036414  0.059095701   -2.6507045    1.1470631   569361 
   43000    1.0200105   -2.6513164   -2.6513164   -1.5045725  0.059382492   -2.6513164    1.1467439   569361 
   44000    1.0198516    -2.651886    -2.651886   -1.5053207  0.068427656    -2.651886    1.1465652   569361 
   45000    1.0208096   -2.6523473   -2.6523473   -1.5047049  0.062228549   -2.6523473    1.1476423   569361 
   46000    1.0197822   -2.6530321   -2.6530321   -1.5065449  0.060271165   -2.6530321    1.1464873   569361 
   47000    1.0189923   -2.6533043   -2.6533043   -1.5077051  0.048496093   -2.6533043    1.1455992   569361 
   48000    1.0185314   -2.6527523   -2.6527523   -1.5076713   0.05981244   -2.6527523     1.145081   569361 
   49000    1.0206453   -2.6556933   -2.6556933   -1.5082358  0.071655488   -2.6556933    1.1474576   569361 
   50000    1.0205712   -2.6561097   -2.6561097   -1.5087355  0.064504629   -2.6561097    1.1473742   569361 
   51000    1.0217224   -2.6583088   -2.6583088   -1.5096403  0.065026449   -2.6583088    1.1486686   569361 
   52000    1.0200611   -2.6569335   -2.6569335   -1.5101327   0.06797716   -2.6569335    1.1468008   569361 
   53000    1.0193535   -2.6546707   -2.6546707   -1.5086654  0.055503342   -2.6546707    1.1460053   569361 
   54000    1.0196717   -2.6560562   -2.6560562   -1.5096931  0.065269435   -2.6560562    1.1463631   569361 
   55000    1.0192546   -2.6555661   -2.6555661   -1.5096719  0.060677752   -2.6555661    1.1458941   569361 
   56000     1.020211   -2.6566044   -2.6566044    -1.509635  0.075396254   -2.6566044    1.1469694   569361 
   57000    1.0175768   -2.6553823   -2.6553823   -1.5113744  0.057862009   -2.6553823    1.1440078   569361 
   58000    1.0179295   -2.6568605   -2.6568605   -1.5124562  0.055200003   -2.6568605    1.1444044   569361 
   59000     1.019744   -2.6594929   -2.6594929   -1.5130486  0.056177044   -2.6594929    1.1464443   569361 
   60000    1.0184516    -2.657794    -2.657794   -1.5128027  0.062744342    -2.657794    1.1449913   569361 
   61000    1.0194465   -2.6583495   -2.6583495   -1.5122397  0.065668887   -2.6583495    1.1461098   569361 
   62000    1.0183921   -2.6581868   -2.6581868   -1.5132623  0.064149579   -2.6581868    1.1449245   569361 
   63000    1.0168109   -2.6570321   -2.6570321   -1.5138853   0.06144718   -2.6570321    1.1431468   569361 
   64000    1.0179237   -2.6588166   -2.6588166   -1.5144188  0.054005374   -2.6588166    1.1443978   569361 
   65000    1.0175376   -2.6583068   -2.6583068   -1.5143431  0.052284637   -2.6583068    1.1439638   569361 
   66000    1.0179818   -2.6600883   -2.6600883   -1.5156251  0.061368511   -2.6600883    1.1444632   569361 
   67000    1.0180401   -2.6599942   -2.6599942   -1.5154656  0.058292678   -2.6599942    1.1445287   569361 
   68000    1.0185668   -2.6591924   -2.6591924   -1.5140715  0.052988237   -2.6591924    1.1451209   569361 
   69000     1.017948   -2.6595439   -2.6595439   -1.5151187  0.064734064   -2.6595439    1.1444252   569361 
   70000    1.0183984   -2.6605451   -2.6605451   -1.5156135  0.059942982   -2.6605451    1.1449315   569361 
   71000    1.0185981   -2.6616329   -2.6616329   -1.5164768  0.064902779   -2.6616329    1.1451561   569361 
   72000    1.0192857   -2.6620573   -2.6620573   -1.5161282  0.073288927   -2.6620573    1.1459291   569361 
   73000    1.0193147   -2.6623021   -2.6623021   -1.5163404  0.080639515   -2.6623021    1.1459616   569361 
   74000    1.0195688   -2.6629058   -2.6629058   -1.5166584  0.072052794   -2.6629058    1.1462474   569361 
   75000    1.0197194   -2.6626142   -2.6626142   -1.5161976  0.071263196   -2.6626142    1.1464166   569361 
   76000    1.0194884   -2.6636829   -2.6636829   -1.5175259  0.065214793   -2.6636829     1.146157   569361 
   77000    1.0172444   -2.6611211   -2.6611211    -1.517487  0.072536003   -2.6611211    1.1436341   569361 
   78000    1.0164579   -2.6606052   -2.6606052   -1.5178552  0.069561532   -2.6606052    1.1427499   569361 
   79000    1.0176829   -2.6621167   -2.6621167   -1.5179897  0.064299886   -2.6621167    1.1441271   569361 
   80000    1.0179597   -2.6623721   -2.6623721   -1.5179338  0.062210687   -2.6623721    1.1444383   569361 
   81000    1.0191863    -2.664471    -2.664471   -1.5186537  0.058082858    -2.664471    1.1458173   569361 
   82000    1.0182386   -2.6629453   -2.6629453   -1.5181934  0.055113266   -2.6629453    1.1447519   569361 
   83000    1.0175433    -2.663664    -2.663664   -1.5196938  0.065744632    -2.663664    1.1439701   569361 
   84000    1.0177041   -2.6642231   -2.6642231   -1.5200721  0.068003442   -2.6642231     1.144151   569361 
   85000    1.0163684   -2.6638069   -2.6638069   -1.5211576  0.068302336   -2.6638069    1.1426493   569361 
   86000    1.0189891   -2.6674246   -2.6674246    -1.521829  0.064056139   -2.6674246    1.1455956   569361 
   87000    1.0201199   -2.6674096   -2.6674096   -1.5205427  0.065769675   -2.6674096     1.146867   569361 
   88000    1.0180816   -2.6665574   -2.6665574    -1.521982  0.062976747   -2.6665574    1.1445754   569361 
   89000    1.0196064   -2.6678271   -2.6678271   -1.5215374   0.06045659   -2.6678271    1.1462897   569361 
   90000    1.0198996   -2.6666462   -2.6666462   -1.5200269  0.078705484   -2.6666462    1.1466192   569361 
   91000    1.0188699   -2.6667544   -2.6667544   -1.5212928  0.059768634   -2.6667544    1.1454616   569361 
   92000    1.0179785   -2.6657655   -2.6657655   -1.5213061  0.067153142   -2.6657655    1.1444594   569361 
   93000    1.0177379   -2.6673871   -2.6673871   -1.5231981  0.074060388   -2.6673871     1.144189   569361 
   94000    1.0163534   -2.6657073   -2.6657073   -1.5230748  0.058794425   -2.6657073    1.1426325   569361 
   95000    1.0181887    -2.667722    -2.667722   -1.5230262  0.062154924    -2.667722    1.1446958   569361 
   96000    1.0169044   -2.6661447   -2.6661447   -1.5228928  0.057641344   -2.6661447    1.1432519   569361 
   97000    1.0169697    -2.666401    -2.666401   -1.5230757  0.065431164    -2.666401    1.1433253   569361 
   98000    1.0179392   -2.6673813   -2.6673813    -1.522966   0.07392268   -2.6673813    1.1444153   569361 
   99000     1.018358   -2.6677566   -2.6677566   -1.5228705  0.056641547   -2.6677566    1.1448861   569361 
  100000    1.0173497   -2.6673177   -2.6673177   -1.5235652  0.064760217   -2.6673177    1.1437526   569361 
  101000    1.0185077   -2.6678514   -2.6678514   -1.5227969   0.05866631   -2.6678514    1.1450545   569361 
  102000    1.0171267   -2.6659742   -2.6659742   -1.5224724  0.061499443   -2.6659742    1.1435018   569361 
  103000    1.0162613   -2.6658143   -2.6658143   -1.5232854  0.075355076   -2.6658143    1.1425289   569361 
  104000    1.0168995   -2.6664098   -2.6664098   -1.5231634   0.06606888   -2.6664098    1.1432464   569361 
  105000    1.0180458   -2.6677019   -2.6677019   -1.5231667  0.062925481   -2.6677019    1.1445352   569361 
  106000    1.0171123   -2.6667277   -2.6667277    -1.523242  0.072075312   -2.6667277    1.1434857   569361 
  107000    1.0162124   -2.6669615   -2.6669615   -1.5244875  0.057025606   -2.6669615     1.142474   569361 
  108000    1.0168613   -2.6674679   -2.6674679   -1.5242645  0.061874272   -2.6674679    1.1432034   569361 
  109000    1.0169678   -2.6679318   -2.6679318   -1.5246086  0.055336683   -2.6679318    1.1433232   569361 
  110000     1.017663   -2.6696607   -2.6696607    -1.525556  0.062370885   -2.6696607    1.1441048   569361 
  111000    1.0176421   -2.6699612   -2.6699612     -1.52588  0.074087682   -2.6699612    1.1440812   569361 
  112000    1.0171708   -2.6696468   -2.6696468   -1.5260953  0.078314453   -2.6696468    1.1435514   569361 
  113000    1.0175597   -2.6700295   -2.6700295   -1.5260408  0.068096435   -2.6700295    1.1439887   569361 
  114000    1.0177644   -2.6705947   -2.6705947   -1.5263759  0.068750965   -2.6705947    1.1442188   569361 
  115000    1.0175961   -2.6707971   -2.6707971   -1.5267676  0.064813444   -2.6707971    1.1440295   569361 
  116000    1.0171283   -2.6701661   -2.6701661   -1.5266625  0.067950702   -2.6701661    1.1435036   569361 
  117000    1.0175891   -2.6708333   -2.6708333   -1.5268116  0.072494431   -2.6708333    1.1440216   569361 
  118000    1.0188826   -2.6717026   -2.6717026   -1.5262267  0.061940457   -2.6717026    1.1454759   569361 
  119000    1.0176947   -2.6701982   -2.6701982   -1.5260579  0.071448945   -2.6701982    1.1441404   569361 
  120000    1.0167036   -2.6692128   -2.6692128   -1.5261867  0.068821353   -2.6692128    1.1430262   569361 
  121000    1.0172421   -2.6709984   -2.6709984   -1.5273669  0.062361544   -2.6709984    1.1436316   569361 
  122000    1.0166903   -2.6699394   -2.6699394   -1.5269282  0.075863477   -2.6699394    1.1430112   569361 
  123000    1.0175628    -2.671233    -2.671233   -1.5272409  0.063548532    -2.671233    1.1439922   569361 
  124000     1.018501   -2.6726569   -2.6726569     -1.52761  0.061023729   -2.6726569    1.1450469   569361 
  125000    1.0200556   -2.6744367   -2.6744367   -1.5276421  0.061607076   -2.6744367    1.1467946   569361 
  126000    1.0183037   -2.6723459   -2.6723459   -1.5275208   0.07136352   -2.6723459    1.1448251   569361 
  127000    1.0191443   -2.6728507   -2.6728507   -1.5270807  0.057970257   -2.6728507    1.1457701   569361 
  128000    1.0179372    -2.671344    -2.671344   -1.5269309  0.066246071    -2.671344     1.144413   569361 
  129000    1.0166274   -2.6701118   -2.6701118   -1.5271713  0.062770761   -2.6701118    1.1429405   569361 
  130000     1.015502   -2.6685966   -2.6685966   -1.5269213  0.076629884   -2.6685966    1.1416753   569361 
  131000    1.0147635   -2.6684418   -2.6684418   -1.5275969  0.071529491   -2.6684418     1.140845   569361 
  132000    1.0170045   -2.6705492   -2.6705492   -1.5271847  0.051025597   -2.6705492    1.1433645   569361 
  133000    1.0151616    -2.669659    -2.669659   -1.5283664  0.064291644    -2.669659    1.1412926   569361 
  134000    1.0157555   -2.6704575   -2.6704575   -1.5284972  0.059048401   -2.6704575    1.1419602   569361 
  135000    1.0168387   -2.6709948   -2.6709948   -1.5278167  0.073420719   -2.6709948    1.1431781   569361 
  136000    1.0176089   -2.6724363   -2.6724363   -1.5283924  0.054539613   -2.6724363    1.1440439   569361 
  137000    1.0186044   -2.6739111   -2.6739111    -1.528748   0.05550419   -2.6739111    1.1451631   569361 
  138000    1.0186427   -2.6735044   -2.6735044   -1.5282982  0.066192041   -2.6735044    1.1452062   569361 
  139000    1.0181666   -2.6733317   -2.6733317   -1.5286607  0.064679615   -2.6733317     1.144671   569361 
  140000    1.0176193   -2.6733647   -2.6733647   -1.5293091   0.06262574   -2.6733647    1.1440556   569361 
  141000    1.0168679   -2.6728283   -2.6728283   -1.5296174  0.053436671   -2.6728283    1.1432108   569361 
  142000     1.016959   -2.6728255   -2.6728255   -1.5295122    0.0648985   -2.6728255    1.1433133   569361 
  143000    1.0160716   -2.6719039   -2.6719039   -1.5295883  0.074567704   -2.6719039    1.1423156   569361 
  144000    1.0170177   -2.6722069   -2.6722069   -1.5288276  0.048452076   -2.6722069    1.1433793   569361 
  145000    1.0177781   -2.6736919   -2.6736919   -1.5294578  0.057909042   -2.6736919    1.1442341   569361 
  146000    1.0172509   -2.6730431   -2.6730431   -1.5294017  0.063392598   -2.6730431    1.1436414   569361 
  147000    1.0168309    -2.672587    -2.672587   -1.5294178  0.062553252    -2.672587    1.1431692   569361 
  148000    1.0167076   -2.6732039   -2.6732039   -1.5301732  0.057534332   -2.6732039    1.1430306   569361 
  149000    1.0157027   -2.6724719   -2.6724719    -1.530571  0.067934924   -2.6724719    1.1419009   569361 
  150000    1.0177617   -2.6747065   -2.6747065   -1.5304909  0.073673374   -2.6747065    1.1442157   569361 
  151000    1.0191535   -2.6773558   -2.6773558   -1.5315754  0.076096465   -2.6773558    1.1457804   569361 
  152000    1.0175015   -2.6762821   -2.6762821    -1.532359  0.066736372   -2.6762821    1.1439231   569361 
  153000    1.0193263   -2.6784902   -2.6784902   -1.5325155  0.069859385   -2.6784902    1.1459747   569361 
  154000    1.0185134   -2.6786539   -2.6786539   -1.5335931  0.063628091   -2.6786539    1.1450608   569361 
  155000    1.0173958   -2.6773945   -2.6773945   -1.5335901  0.072796392   -2.6773945    1.1438044   569361 
  156000    1.0181534   -2.6775198   -2.6775198   -1.5328637  0.056197346   -2.6775198    1.1446561   569361 
  157000     1.016972   -2.6763896   -2.6763896   -1.5330617  0.064698136   -2.6763896     1.143328   569361 
  158000    1.0153779   -2.6747813   -2.6747813   -1.5332456  0.063860297   -2.6747813    1.1415357   569361 
  159000    1.0150977   -2.6747144   -2.6747144   -1.5334937  0.063605151   -2.6747144    1.1412207   569361 
  160000    1.0150736    -2.676462    -2.676462   -1.5352684  0.060088252    -2.676462    1.1411936   569361 
  161000    1.0175987   -2.6793644   -2.6793644   -1.5353319  0.059736636   -2.6793644    1.1440325   569361 
  162000    1.0162031   -2.6777426   -2.6777426   -1.5352792   0.06320408   -2.6777426    1.1424635   569361 
  163000    1.0155242   -2.6776419   -2.6776419   -1.5359416     0.070521   -2.6776419    1.1417002   569361 
  164000    1.0152258   -2.6772875   -2.6772875   -1.5359228  0.059161328   -2.6772875    1.1413647   569361 
  165000     1.015123   -2.6778869   -2.6778869   -1.5366378  0.057731214   -2.6778869    1.1412491   569361 
  166000     1.014538   -2.6777368   -2.6777368   -1.5371453  0.077514702   -2.6777368    1.1405915   569361 
  167000    1.0159537   -2.6801532   -2.6801532   -1.5379701  0.065821206   -2.6801532     1.142183   569361 
  168000    1.0152706   -2.6784614   -2.6784614   -1.5370463  0.059841089   -2.6784614    1.1414151   569361 
  169000    1.0170113   -2.6804959   -2.6804959   -1.5371238  0.072487527   -2.6804959    1.1433721   569361 
  170000    1.0162019   -2.6798523   -2.6798523   -1.5373902  0.071357419   -2.6798523    1.1424621   569361 
  171000    1.0160161   -2.6789749   -2.6789749   -1.5367217  0.062239163   -2.6789749    1.1422532   569361 
  172000    1.0181753   -2.6796701   -2.6796701   -1.5349894  0.067942847   -2.6796701    1.1446807   569361 
  173000    1.0152643   -2.6770961   -2.6770961   -1.5356881  0.080090156   -2.6770961     1.141408   569361 
  174000    1.0151321   -2.6760156   -2.6760156   -1.5347562    0.0656006   -2.6760156    1.1412594   569361 
  175000    1.0166336   -2.6786962   -2.6786962   -1.5357488  0.071285887   -2.6786962    1.1429474   569361 
  176000    1.0148224   -2.6773925   -2.6773925   -1.5364813  0.066905294   -2.6773925    1.1409112   569361 
  177000    1.0162731   -2.6783385   -2.6783385   -1.5357963  0.066585334   -2.6783385    1.1425422   569361 
  178000    1.0182367   -2.6805335   -2.6805335   -1.5357838  0.063538491   -2.6805335    1.1447497   569361 
  179000    1.0163355    -2.678568    -2.678568   -1.5359557  0.076653178    -2.678568    1.1426123   569361 
  180000    1.0155467   -2.6784693   -2.6784693   -1.5367438  0.063999807   -2.6784693    1.1417255   569361 
  181000    1.0173589   -2.6811471   -2.6811471   -1.5373842  0.067899499   -2.6811471    1.1437629   569361 
  182000     1.018499   -2.6826462   -2.6826462   -1.5376015   0.07057182   -2.6826462    1.1450447   569361 
  183000     1.017086   -2.6818358   -2.6818358   -1.5383797  0.067755187   -2.6818358    1.1434561   569361 
  184000    1.0169276   -2.6824342   -2.6824342   -1.5391562  0.071042115   -2.6824342     1.143278   569361 
  185000    1.0156416   -2.6815332   -2.6815332    -1.539701  0.071406055   -2.6815332    1.1418323   569361 
  186000    1.0167256   -2.6832035   -2.6832035   -1.5401526  0.066561671   -2.6832035    1.1430509   569361 
  187000     1.016224   -2.6825071   -2.6825071   -1.5400201  0.062565284   -2.6825071     1.142487   569361 
  188000    1.0153179   -2.6813312   -2.6813312    -1.539863  0.078892564   -2.6813312    1.1414682   569361 
  189000    1.0173367   -2.6825197   -2.6825197   -1.5387818  0.072350118   -2.6825197    1.1437379   569361 
  190000    1.0161161   -2.6813844   -2.6813844   -1.5390187  0.053859964   -2.6813844    1.1423657   569361 
  191000    1.0155508    -2.680001    -2.680001   -1.5382709  0.058396667    -2.680001    1.1417301   569361 
  192000    1.0168451    -2.681146    -2.681146   -1.5379607  0.055555399    -2.681146    1.1431852   569361 
  193000    1.0161238   -2.6801924   -2.6801924    -1.537818  0.069416297   -2.6801924    1.1423743   569361 
  194000    1.0158184   -2.6801065   -2.6801065   -1.5380755  0.071373616   -2.6801065    1.1420309   569361 
  195000    1.0163369   -2.6803077   -2.6803077   -1.5376938  0.059181279   -2.6803077    1.1426139   569361 
  196000    1.0156821   -2.6799088   -2.6799088    -1.538031  0.062487867   -2.6799088    1.1418778   569361 
  197000    1.0158138   -2.6805493   -2.6805493   -1.5385235  0.063150411   -2.6805493    1.1420258   569361 
  198000    1.0153453   -2.6812732   -2.6812732   -1.5397741  0.064602451   -2.6812732    1.1414991   569361 
  199000    1.0151954   -2.6807302   -2.6807302   -1.5393995   0.05443413   -2.6807302    1.1413306   569361 
  200000     1.014332   -2.6795935   -2.6795935   -1.5392336  0.058420671   -2.6795935    1.1403599   569361 
  201000    1.0149453    -2.679989    -2.679989   -1.5389395  0.051986375    -2.679989    1.1410494   569361 
  202000    1.0145285   -2.6797147   -2.6797147   -1.5391339  0.072476101   -2.6797147    1.1405809   569361 
  203000    1.0142906   -2.6799502   -2.6799502   -1.5396368   0.05928951   -2.6799502    1.1403134   569361 
  204000    1.0155121   -2.6817902   -2.6817902   -1.5401036  0.060554144   -2.6817902    1.1416866   569361 
  205000    1.0133143   -2.6804749   -2.6804749   -1.5412591   0.06080534   -2.6804749    1.1392158   569361 
  206000    1.0150332   -2.6825455   -2.6825455   -1.5413973  0.068146689   -2.6825455    1.1411482   569361 
  207000    1.0160804   -2.6837895   -2.6837895    -1.541464  0.059884553   -2.6837895    1.1423255   569361 
  208000     1.015979   -2.6849217   -2.6849217   -1.5427102  0.060173448   -2.6849217    1.1422116   569361 
  209000    1.0147751   -2.6838129   -2.6838129   -1.5429549  0.054882076   -2.6838129     1.140858   569361 
  210000    1.0144125   -2.6834178   -2.6834178   -1.5429674  0.058940393   -2.6834178    1.1404504   569361 
  211000    1.0169765   -2.6865645   -2.6865645   -1.5432315  0.065048693   -2.6865645     1.143333   569361 
  212000    1.0145161   -2.6845382   -2.6845382   -1.5439714  0.060478394   -2.6845382    1.1405668   569361 
  213000     1.015407   -2.6863932   -2.6863932   -1.5448248  0.069499224   -2.6863932    1.1415685   569361 
  214000    1.0146317   -2.6859316   -2.6859316   -1.5452347  0.062980004   -2.6859316    1.1406969   569361 
  215000    1.0151044    -2.687493    -2.687493   -1.5462648  0.079000733    -2.687493    1.1412282   569361 
  216000    1.0147953   -2.6874985   -2.6874985   -1.5466178  0.065466067   -2.6874985    1.1408808   569361 
  217000    1.0155491    -2.688142    -2.688142   -1.5464138  0.061165593    -2.688142    1.1417282   569361 
  218000    1.0160558   -2.6886978   -2.6886978   -1.5463999  0.067404884   -2.6886978    1.1422979   569361 
  219000    1.0154729   -2.6889878   -2.6889878   -1.5473453  0.063041728   -2.6889878    1.1416425   569361 
  220000    1.0133051   -2.6874508   -2.6874508   -1.5482455   0.06661673   -2.6874508    1.1392053   569361 
  221000    1.0138832   -2.6881366   -2.6881366   -1.5482812  0.062200811   -2.6881366    1.1398554   569361 
  222000    1.0138769   -2.6879393   -2.6879393   -1.5480911  0.069402138   -2.6879393    1.1398482   569361 
  223000    1.0152021    -2.689057    -2.689057   -1.5477189  0.069675516    -2.689057    1.1413381   569361 
  224000    1.0145214   -2.6883208   -2.6883208   -1.5477479  0.067116604   -2.6883208    1.1405729   569361 
  225000    1.0145187   -2.6878053   -2.6878053   -1.5472355  0.058901736   -2.6878053    1.1405698   569361 
  226000    1.0146152   -2.6890437   -2.6890437   -1.5483654  0.060457353   -2.6890437    1.1406783   569361 
  227000    1.0136485   -2.6867141   -2.6867141   -1.5471226  0.066359918   -2.6867141    1.1395915   569361 
  228000    1.0154592   -2.6893891   -2.6893891   -1.5477619  0.063425853   -2.6893891    1.1416272   569361 
  229000    1.0147269   -2.6883079   -2.6883079   -1.5475041  0.064610064   -2.6883079    1.1408038   569361 
  230000    1.0156924   -2.6897843   -2.6897843    -1.547895   0.06115486   -2.6897843    1.1418893   569361 
  231000    1.0149183   -2.6892732   -2.6892732   -1.5482542  0.065951086   -2.6892732     1.141019   569361 
  232000     1.014188   -2.6893181   -2.6893181   -1.5491201  0.059084266   -2.6893181     1.140198   569361 
  233000    1.0156208   -2.6909524   -2.6909524   -1.5491437  0.071126578   -2.6909524    1.1418088   569361 
  234000    1.0160763   -2.6923716   -2.6923716   -1.5500507  0.074598568   -2.6923716    1.1423209   569361 
  235000    1.0128407    -2.689309    -2.689309   -1.5506257  0.058679725    -2.689309    1.1386833   569361 
  236000    1.0137516    -2.690241    -2.690241   -1.5505336  0.070271534    -2.690241    1.1397074   569361 
  237000    1.0143126   -2.6907137   -2.6907137   -1.5503756  0.070667149   -2.6907137    1.1403381   569361 
  238000    1.0135642   -2.6905328   -2.6905328   -1.5510361   0.06623445   -2.6905328    1.1394967   569361 
  239000    1.0135569   -2.6919037   -2.6919037   -1.5524153  0.067976573   -2.6919037    1.1394885   569361 
  240000    1.0143883   -2.6931976   -2.6931976   -1.5527744  0.061058553   -2.6931976    1.1404232   569361 
  241000    1.0123541   -2.6914609   -2.6914609   -1.5533247  0.061169247   -2.6914609    1.1381362   569361 
  242000     1.013863   -2.6929098   -2.6929098   -1.5530771  0.061856155   -2.6929098    1.1398326   569361 
  243000    1.0137139   -2.6932255   -2.6932255   -1.5535605  0.062083464   -2.6932255     1.139665   569361 
  244000    1.0119374   -2.6906639   -2.6906639   -1.5529961  0.065259219   -2.6906639    1.1376678   569361 
  245000    1.0129645   -2.6921248   -2.6921248   -1.5533023  0.065126734   -2.6921248    1.1388225   569361 
  246000     1.013098   -2.6920449   -2.6920449   -1.5530723  0.068542352   -2.6920449    1.1389726   569361 
  247000    1.0142938   -2.6932272   -2.6932272   -1.5529103  0.058494745   -2.6932272     1.140317   569361 
  248000    1.0122205   -2.6924903   -2.6924903   -1.5545043  0.059334883   -2.6924903    1.1379861   569361 
  249000    1.0128995   -2.6932841   -2.6932841   -1.5545346  0.064472787   -2.6932841    1.1387494   569361 
  250000    1.0128535   -2.6914213   -2.6914213   -1.5527236  0.068334886   -2.6914213    1.1386977   569361 
  251000    1.0117013   -2.6909955   -2.6909955   -1.5535931  0.072536014   -2.6909955    1.1374024   569361 
  252000     1.012497   -2.6920084   -2.6920084   -1.5537115  0.060593312   -2.6920084    1.1382969   569361 
  253000    1.0150116   -2.6942778   -2.6942778   -1.5531538  0.056634497   -2.6942778    1.1411239   569361 
  254000    1.0136569   -2.6920631   -2.6920631   -1.5524622   0.07243993   -2.6920631    1.1396009   569361 
  255000    1.0152061     -2.69359     -2.69359   -1.5522474  0.058754427     -2.69359    1.1413426   569361 
  256000     1.013788   -2.6929333   -2.6929333   -1.5531851  0.069920118   -2.6929333    1.1397482   569361 
  257000    1.0142699    -2.692935    -2.692935   -1.5526449  0.069760889    -2.692935      1.14029   569361 
  258000      1.01394   -2.6916862   -2.6916862    -1.551767  0.066461447   -2.6916862    1.1399192   569361 
  259000    1.0137233   -2.6929292   -2.6929292   -1.5532536  0.056340296   -2.6929292    1.1396756   569361 
  260000    1.0146374   -2.6945184   -2.6945184   -1.5538151  0.061512172   -2.6945184    1.1407033   569361 
  261000    1.0128469   -2.6922504   -2.6922504   -1.5535601  0.059079896   -2.6922504    1.1386903   569361 
  262000    1.0152992   -2.6949442   -2.6949442    -1.553497  0.055039227   -2.6949442    1.1414473   569361 
  263000    1.0153627   -2.6946479   -2.6946479   -1.5531293  0.068382132   -2.6946479    1.1415186   569361 
  264000    1.0159992    -2.695988    -2.695988   -1.5537537  0.062906873    -2.695988    1.1422343   569361 
  265000    1.0142975    -2.693995    -2.693995   -1.5536739  0.066140364    -2.693995    1.1403211   569361 
  266000    1.0150332   -2.6940766   -2.6940766   -1.5529284  0.072736688   -2.6940766    1.1411483   569361 
  267000    1.0124605   -2.6920248   -2.6920248   -1.5537689  0.061828623   -2.6920248    1.1382559   569361 
  268000    1.0157238    -2.695363    -2.695363   -1.5534384  0.061074843    -2.695363    1.1419246   569361 
  269000    1.0130213   -2.6928118   -2.6928118   -1.5539255  0.065086836   -2.6928118    1.1388863   569361 
  270000    1.0129341   -2.6928026   -2.6928026   -1.5540143  0.059910217   -2.6928026    1.1387883   569361 
  271000    1.0107899   -2.6909926   -2.6909926   -1.5546149  0.058487996   -2.6909926    1.1363777   569361 
  272000    1.0130002   -2.6929526   -2.6929526     -1.55409  0.062848204   -2.6929526    1.1388626   569361 
  273000    1.0139811   -2.6942715   -2.6942715   -1.5543061  0.067991188   -2.6942715    1.1399654   569361 
  274000    1.0133384   -2.6938325   -2.6938325   -1.5545897  0.071841933   -2.6938325    1.1392429   569361 
  275000    1.0124106   -2.6924025   -2.6924025   -1.5542027  0.069720866   -2.6924025    1.1381998   569361 
  276000    1.0131194   -2.6944103   -2.6944103   -1.5554136  0.065700047   -2.6944103    1.1389966   569361 
  277000    1.0134646   -2.6949678   -2.6949678   -1.5555831  0.048478517   -2.6949678    1.1393847   569361 
  278000    1.0144952    -2.695688    -2.695688   -1.5551446  0.061048201    -2.695688    1.1405433   569361 
  279000    1.0133283   -2.6953487   -2.6953487   -1.5561172  0.055239062   -2.6953487    1.1392315   569361 
  280000    1.0124383   -2.6946712   -2.6946712   -1.5564402   0.07337539   -2.6946712    1.1382309   569361 
  281000    1.0136949   -2.6948954   -2.6948954   -1.5552518  0.069375791   -2.6948954    1.1396436   569361 
  282000    1.0113986   -2.6921077   -2.6921077   -1.5550456  0.059425428   -2.6921077     1.137062   569361 
  283000    1.0101442    -2.690636    -2.690636   -1.5549842   0.06254049    -2.690636    1.1356518   569361 
  284000    1.0121401   -2.6928134   -2.6928134   -1.5549178   0.04883945   -2.6928134    1.1378956   569361 
  285000    1.0117204   -2.6934798   -2.6934798    -1.556056   0.06479837   -2.6934798    1.1374238   569361 
  286000    1.0123578   -2.6938634   -2.6938634    -1.555723  0.061502762   -2.6938634    1.1381404   569361 
  287000    1.0130143   -2.6946301   -2.6946301   -1.5557516  0.061711448   -2.6946301    1.1388785   569361 
  288000    1.0144369   -2.6958415   -2.6958415   -1.5553636  0.060007404   -2.6958415    1.1404779   569361 
  289000    1.0132192    -2.695475    -2.695475   -1.5563662  0.063296988    -2.695475    1.1391088   569361 
  290000    1.0147579   -2.6973502   -2.6973502   -1.5565115  0.050661907   -2.6973502    1.1408387   569361 
  291000    1.0140761   -2.6963833   -2.6963833   -1.5563112  0.067771676   -2.6963833    1.1400722   569361 
  292000    1.0144681   -2.6972456   -2.6972456   -1.5567327  0.066528208   -2.6972456    1.1405129   569361 
  293000    1.0135976   -2.6963198   -2.6963198   -1.5567855  0.064574025   -2.6963198    1.1395343   569361 
  294000    1.0141871   -2.6962276   -2.6962276   -1.5560306  0.074540776   -2.6962276     1.140197   569361 
  295000    1.0141639    -2.695879    -2.695879   -1.5557081  0.067015441    -2.695879    1.1401709   569361 
  296000    1.0132435   -2.6944707   -2.6944707   -1.5553345   0.06676243   -2.6944707    1.1391362   569361 
  297000     1.012101   -2.6929239   -2.6929239   -1.5550722  0.050583498   -2.6929239    1.1378517   569361 
  298000    1.0128321   -2.6940688   -2.6940688   -1.5553952  0.064008676   -2.6940688    1.1386736   569361 
  299000    1.0136905   -2.6951894   -2.6951894   -1.5555507  0.056665307   -2.6951894    1.1396387   569361 
  300000    1.0132895   -2.6951357   -2.6951357   -1.5559478  0.072278689   -2.6951357    1.1391879   569361 
  301000    1.0136289   -2.6961158   -2.6961158   -1.5565464  0.055313709   -2.6961158    1.1395694   569361 
  302000    1.0139473   -2.6952387   -2.6952387   -1.5553113  0.065439886   -2.6952387    1.1399274   569361 
  303000    1.0129929   -2.6947348   -2.6947348   -1.5558804  0.056689036   -2.6947348    1.1388544   569361 
  304000    1.0119728   -2.6941859   -2.6941859   -1.5564784  0.069055727   -2.6941859    1.1377075   569361 
  305000    1.0124244   -2.6950642   -2.6950642   -1.5568489  0.064225731   -2.6950642    1.1382152   569361 
  306000    1.0115173   -2.6941493   -2.6941493   -1.5569538  0.063460328   -2.6941493    1.1371954   569361 
  307000    1.0114205   -2.6949996   -2.6949996    -1.557913  0.070547758   -2.6949996    1.1370866   569361 
  308000    1.0117006   -2.6954041   -2.6954041   -1.5580026  0.057891539   -2.6954041    1.1374015   569361 
  309000    1.0136609   -2.6981879   -2.6981879   -1.5585825  0.057982604   -2.6981879    1.1396054   569361 
  310000    1.0123397   -2.6960121   -2.6960121    -1.557892  0.064018786   -2.6960121      1.13812   569361 
  311000    1.0128732   -2.6962954   -2.6962954   -1.5575756  0.065097468   -2.6962954    1.1387198   569361 
  312000    1.0132213   -2.6957357   -2.6957357   -1.5566245  0.065851669   -2.6957357    1.1391112   569361 
  313000     1.014026   -2.6976458   -2.6976458     -1.55763  0.059759306   -2.6976458    1.1400158   569361 
  314000    1.0132805   -2.6965191   -2.6965191   -1.5573413  0.066638334   -2.6965191    1.1391778   569361 
  315000    1.0124067   -2.6959136   -2.6959136   -1.5577182  0.060464984   -2.6959136    1.1381954   569361 
  316000    1.0141262   -2.6976378   -2.6976378   -1.5575093  0.058459379   -2.6976378    1.1401285   569361 
  317000    1.0126632    -2.695597    -2.695597   -1.5571133  0.059707771    -2.695597    1.1384837   569361 
  318000    1.0138856   -2.6974089   -2.6974089   -1.5575509  0.065474848   -2.6974089     1.139858   569361 
  319000     1.014652   -2.6978572   -2.6978572   -1.5571375  0.073731807   -2.6978572    1.1407197   569361 
  320000    1.0147674   -2.6982062   -2.6982062   -1.5573568  0.070001573   -2.6982062    1.1408494   569361 
  321000    1.0138728   -2.6969623   -2.6969623   -1.5571187  0.067834861   -2.6969623    1.1398436   569361 
  322000    1.0146783   -2.6973418   -2.6973418   -1.5565925  0.077548059   -2.6973418    1.1407493   569361 
  323000    1.0137921   -2.6958409   -2.6958409    -1.556088  0.068299595   -2.6958409    1.1397529   569361 
  324000    1.0133035   -2.6960504   -2.6960504   -1.5568467  0.062612377   -2.6960504    1.1392036   569361 
  325000    1.0132453   -2.6963786   -2.6963786   -1.5572404  0.062839459   -2.6963786    1.1391382   569361 
  326000    1.0128639   -2.6957063   -2.6957063   -1.5569969  0.062440198   -2.6957063    1.1387094   569361 
  327000    1.0116487   -2.6948562   -2.6948562    -1.557513  0.068578826   -2.6948562    1.1373433   569361 
  328000    1.0131021   -2.6957867   -2.6957867   -1.5568095  0.055385859   -2.6957867    1.1389772   569361 
  329000    1.0139844   -2.6979731   -2.6979731   -1.5580041  0.045533137   -2.6979731    1.1399691   569361 
  330000     1.013525   -2.6974794   -2.6974794   -1.5580268  0.056828736   -2.6974794    1.1394526   569361 
  331000    1.0123179   -2.6972701   -2.6972701   -1.5591745  0.058307667   -2.6972701    1.1380955   569361 
  332000    1.0134929   -2.6992162   -2.6992162   -1.5597996  0.057783218   -2.6992162    1.1394166   569361 
  333000    1.0138961    -2.699507    -2.699507   -1.5596372  0.064500369    -2.699507    1.1398698   569361 
  334000    1.0146288   -2.7008561   -2.7008561   -1.5601626   0.05938984   -2.7008561    1.1406935   569361 
  335000    1.0133774   -2.7006582   -2.7006582   -1.5613715  0.063208951   -2.7006582    1.1392867   569361 
  336000    1.0133699    -2.699346    -2.699346   -1.5600677  0.070611157    -2.699346    1.1392783   569361 
  337000    1.0136937   -2.7003502   -2.7003502   -1.5607079  0.060519463   -2.7003502    1.1396423   569361 
  338000    1.0146699   -2.7006438   -2.7006438   -1.5599041  0.055270414   -2.7006438    1.1407397   569361 
  339000    1.0135152   -2.6995909   -2.6995909   -1.5601492  0.057151012   -2.6995909    1.1394416   569361 
  340000    1.0116907   -2.6981881   -2.6981881   -1.5607977  0.071919293   -2.6981881    1.1373904   569361 
  341000    1.0134328   -2.7001537   -2.7001537   -1.5608047  0.057870371   -2.7001537     1.139349   569361 
  342000    1.0133709   -2.7002655   -2.7002655   -1.5609861  0.059102808   -2.7002655    1.1392794   569361 
  343000    1.0130961   -2.7002234   -2.7002234    -1.561253  0.059985719   -2.7002234    1.1389704   569361 
  344000    1.0124069   -2.6994981   -2.6994981   -1.5613025  0.064472398   -2.6994981    1.1381956   569361 
  345000    1.0132204   -2.7006679   -2.7006679   -1.5615578  0.061947194   -2.7006679    1.1391101   569361 
  346000    1.0134126   -2.7008798   -2.7008798   -1.5615535  0.068251081   -2.7008798    1.1393262   569361 
  347000    1.0131067   -2.7014071   -2.7014071   -1.5624247  0.055699461   -2.7014071    1.1389823   569361 
  348000    1.0129538   -2.7013391   -2.7013391   -1.5625287  0.052906823   -2.7013391    1.1388104   569361 
  349000    1.0112606   -2.7003104   -2.7003104   -1.5634035  0.063400857   -2.7003104    1.1369069   569361 
  350000    1.0116949   -2.7018092   -2.7018092   -1.5644141  0.056884937   -2.7018092    1.1373952   569361 
  351000     1.011464   -2.7004884   -2.7004884   -1.5633528  0.067235649   -2.7004884    1.1371356   569361 
  352000    1.0122621   -2.7012617   -2.7012617   -1.5632289   0.06318546   -2.7012617    1.1380328   569361 
  353000    1.0120619   -2.7007901   -2.7007901   -1.5629823  0.058177207   -2.7007901    1.1378077   569361 
  354000    1.0126654   -2.7010347   -2.7010347   -1.5625485  0.061128805   -2.7010347    1.1384862   569361 
  355000    1.0108344   -2.6997039   -2.6997039   -1.5632762  0.067499504   -2.6997039    1.1364277   569361 
  356000     1.010746   -2.6996441   -2.6996441   -1.5633157  0.066644088   -2.6996441    1.1363283   569361 
  357000    1.0101888   -2.6991315   -2.6991315   -1.5634296  0.058778974   -2.6991315    1.1357019   569361 
  358000    1.0115878   -2.7012493   -2.7012493   -1.5639746  0.058531271   -2.7012493    1.1372747   569361 
  359000     1.009403   -2.6992907   -2.6992907   -1.5644722  0.060450454   -2.6992907    1.1348185   569361 
  360000    1.0115614   -2.7013604   -2.7013604   -1.5641153  0.065305595   -2.7013604     1.137245   569361 
  361000    1.0125809   -2.7020296   -2.7020296   -1.5636384  0.062524636   -2.7020296    1.1383912   569361 
  362000    1.0136038   -2.7029233   -2.7029233   -1.5633822  0.063340748   -2.7029233    1.1395412   569361 
  363000    1.0130839   -2.7022702   -2.7022702   -1.5633135  0.063760795   -2.7022702    1.1389567   569361 
  364000    1.0138696   -2.7026439   -2.7026439   -1.5628039   0.05620673   -2.7026439      1.13984   569361 
  365000    1.0118494   -2.7006426   -2.7006426   -1.5630738  0.068351466   -2.7006426    1.1375688   569361 
  366000    1.0118759   -2.7005301   -2.7005301   -1.5629315  0.054608075   -2.7005301    1.1375987   569361 
  367000    1.0133568   -2.7023039   -2.7023039   -1.5630404  0.058919104   -2.7023039    1.1392636   569361 
  368000    1.0135939   -2.7031117   -2.7031117   -1.5635816  0.061936262   -2.7031117    1.1395301   569361 
  369000    1.0119549   -2.7001092   -2.7001092   -1.5624218  0.061693417   -2.7001092    1.1376874   569361 
  370000    1.0119121   -2.6989332   -2.6989332   -1.5612938  0.064697042   -2.6989332    1.1376393   569361 
  371000    1.0122109   -2.7000564   -2.7000564   -1.5620812  0.060416533   -2.7000564    1.1379752   569361 
  372000    1.0122123   -2.7006358   -2.7006358   -1.5626589  0.061453589   -2.7006358    1.1379768   569361 
  373000    1.0104661   -2.6987519   -2.6987519   -1.5627382  0.060458909   -2.6987519    1.1360137   569361 
  374000    1.0106515   -2.6993421   -2.6993421     -1.56312  0.065386563   -2.6993421    1.1362221   569361 
  375000    1.0126478   -2.7009724   -2.7009724   -1.5625059     0.054937   -2.7009724    1.1384665   569361 
  376000    1.0110583   -2.6997611   -2.6997611   -1.5630816  0.063407666   -2.6997611    1.1366795   569361 
  377000    1.0111312   -2.6997016   -2.6997016   -1.5629401  0.062774489   -2.6997016    1.1367614   569361 
  378000    1.0107675   -2.6988513   -2.6988513   -1.5624988  0.065110795   -2.6988513    1.1363525   569361 
  379000    1.0109026   -2.6993063   -2.6993063   -1.5628019  0.065558633   -2.6993063    1.1365044   569361 
  380000    1.0116982    -2.700491    -2.700491   -1.5630922  0.056230687    -2.700491    1.1373988   569361 
  381000    1.0114659   -2.6995907   -2.6995907   -1.5624531  0.068599481   -2.6995907    1.1371377   569361 
  382000    1.0134727   -2.7016866   -2.7016866   -1.5622928  0.053118006   -2.7016866    1.1393938   569361 
  383000    1.0123877   -2.7009399   -2.7009399   -1.5627659   0.06806361   -2.7009399     1.138174   569361 
  384000    1.0102178   -2.6981763   -2.6981763   -1.5624418  0.059077353   -2.6981763    1.1357345   569361 
  385000    1.0129762   -2.7013156   -2.7013156     -1.56248  0.062506109   -2.7013156    1.1388356   569361 
  386000    1.0129277   -2.7021806   -2.7021806   -1.5633995  0.059961771   -2.7021806    1.1387811   569361 
  387000    1.0122932   -2.7021415   -2.7021415   -1.5640737  0.062343484   -2.7021415    1.1380678   569361 
  388000    1.0128862   -2.7019267   -2.7019267   -1.5631922  0.063255066   -2.7019267    1.1387345   569361 
  389000    1.0145025   -2.7045643   -2.7045643   -1.5640127  0.073293373   -2.7045643    1.1405516   569361 
  390000    1.0127637    -2.703409    -2.703409   -1.5648122  0.057338498    -2.703409    1.1385968   569361 
  391000    1.0134162   -2.7043579   -2.7043579   -1.5650276  0.059671407   -2.7043579    1.1393303   569361 
  392000    1.0115352   -2.7024196   -2.7024196    -1.565204   0.06892951   -2.7024196    1.1372156   569361 
  393000    1.0114774   -2.7027579   -2.7027579   -1.5656074   0.05941271   -2.7027579    1.1371506   569361 
  394000     1.011351   -2.7031778   -2.7031778   -1.5661693  0.056380736   -2.7031778    1.1370085   569361 
  395000    1.0109018   -2.7034823   -2.7034823   -1.5669788  0.062916405   -2.7034823    1.1365035   569361 
  396000    1.0112027   -2.7034814   -2.7034814   -1.5666396  0.053996723   -2.7034814    1.1368418   569361 
  397000    1.0123358   -2.7045224   -2.7045224   -1.5664068  0.053873433   -2.7045224    1.1381157   569361 
  398000    1.0113108   -2.7047484   -2.7047484   -1.5677851  0.037435389   -2.7047484    1.1369633   569361 
  399000    1.0101708   -2.7033511   -2.7033511   -1.5676695  0.067488103   -2.7033511    1.1356817   569361 
  400000    1.0105891   -2.7046663   -2.7046663   -1.5685143  0.064651137   -2.7046663    1.1361519   569361 
  401000    1.0099333   -2.7031163   -2.7031163   -1.5677016  0.075125273   -2.7031163    1.1354146   569361 
  402000    1.0106457   -2.7027933   -2.7027933   -1.5665777  0.062479935   -2.7027933    1.1362156   569361 
  403000    1.0111551   -2.7044447   -2.7044447   -1.5676564  0.057839053   -2.7044447    1.1367883   569361 
  404000     1.010011   -2.7036195   -2.7036195   -1.5681175  0.061645817   -2.7036195     1.135502   569361 
  405000    1.0088617    -2.702705    -2.702705   -1.5684951  0.070511081    -2.702705    1.1342099   569361 
  406000    1.0116403   -2.7048604   -2.7048604   -1.5675267   0.06578254   -2.7048604    1.1373337   569361 
  407000    1.0100324   -2.7032689   -2.7032689   -1.5677429  0.068558754   -2.7032689    1.1355261   569361 
  408000    1.0100852   -2.7039743   -2.7039743   -1.5683888  0.064089124   -2.7039743    1.1355855   569361 
  409000    1.0111312   -2.7049901   -2.7049901   -1.5682287  0.063347733   -2.7049901    1.1367614   569361 
  410000    1.0105555   -2.7043452   -2.7043452   -1.5682311   0.05895049   -2.7043452    1.1361141   569361 
  411000    1.0120997   -2.7063501   -2.7063501   -1.5684999  0.060590151   -2.7063501    1.1378502   569361 
  412000    1.0132694   -2.7066216   -2.7066216   -1.5674563  0.056893797   -2.7066216    1.1391653   569361 
  413000    1.0106371   -2.7049682   -2.7049682   -1.5687624  0.066477949   -2.7049682    1.1362059   569361 
  414000    1.0119152   -2.7070038   -2.7070038    -1.569361  0.062827108   -2.7070038    1.1376428   569361 
  415000    1.0103875   -2.7055593   -2.7055593    -1.569634  0.066284679   -2.7055593    1.1359253   569361 
  416000    1.0110197   -2.7061743   -2.7061743   -1.5695382  0.067802407   -2.7061743    1.1366361   569361 
  417000    1.0102227     -2.70544     -2.70544      -1.5697  0.074207565     -2.70544      1.13574   569361 
  418000    1.0101774    -2.705108    -2.705108   -1.5694189  0.053897112    -2.705108    1.1356891   569361 
  419000     1.010932   -2.7063896   -2.7063896   -1.5698521  0.054842797   -2.7063896    1.1365375   569361 
  420000    1.0115254   -2.7070413   -2.7070413   -1.5698367  0.057375088   -2.7070413    1.1372046   569361 
  421000    1.0111132   -2.7065057   -2.7065057   -1.5697646  0.062360056   -2.7065057    1.1367411   569361 
  422000    1.0122532   -2.7074104   -2.7074104   -1.5693876  0.058292306   -2.7074104    1.1380229   569361 
  423000    1.0114206    -2.706661    -2.706661   -1.5695742  0.070122003    -2.706661    1.1370868   569361 
  424000    1.0124093   -2.7073083   -2.7073083     -1.56911  0.062557218   -2.7073083    1.1381983   569361 
  425000    1.0115428   -2.7074807   -2.7074807   -1.5702565  0.071526256   -2.7074807    1.1372242   569361 
  426000    1.0126264   -2.7076397   -2.7076397   -1.5691974  0.067151145   -2.7076397    1.1384423   569361 
  427000    1.0129242   -2.7080129   -2.7080129   -1.5692357  0.059431802   -2.7080129    1.1387772   569361 
  428000    1.0111792   -2.7059184   -2.7059184    -1.569103  0.056898921   -2.7059184    1.1368153   569361 
  429000    1.0122218   -2.7064091   -2.7064091   -1.5684216  0.061124841   -2.7064091    1.1379875   569361 
  430000    1.0096215   -2.7041374   -2.7041374   -1.5690733  0.068309748   -2.7041374    1.1350641   569361 
  431000    1.0102987   -2.7048852   -2.7048852   -1.5690597  0.054964962   -2.7048852    1.1358255   569361 
  432000    1.0096241   -2.7054382   -2.7054382   -1.5703711  0.061190259   -2.7054382     1.135067   569361 
  433000    1.0102283   -2.7061525   -2.7061525   -1.5704062  0.062456741   -2.7061525    1.1357463   569361 
  434000    1.0112305   -2.7076265   -2.7076265   -1.5707535  0.051118536   -2.7076265     1.136873   569361 
  435000    1.0100873   -2.7058985   -2.7058985   -1.5703106  0.065677458   -2.7058985    1.1355878   569361 
  436000    1.0095854   -2.7063374   -2.7063374   -1.5713138  0.058112582   -2.7063374    1.1350236   569361 
  437000    1.0102879   -2.7072656   -2.7072656   -1.5714522  0.067602378   -2.7072656    1.1358133   569361 
  438000    1.0100493   -2.7062736   -2.7062736   -1.5707285  0.065589015   -2.7062736     1.135545   569361 
  439000    1.0102528   -2.7069487   -2.7069487   -1.5711748  0.063597303   -2.7069487    1.1357738   569361 
  440000    1.0113386   -2.7085201   -2.7085201   -1.5715255   0.06379559   -2.7085201    1.1369946   569361 
  441000    1.0105457   -2.7071594   -2.7071594   -1.5710562  0.063956243   -2.7071594    1.1361032   569361 
  442000    1.0092748   -2.7070032   -2.7070032   -1.5723288  0.062670702   -2.7070032    1.1346744   569361 
  443000    1.0107214   -2.7083106   -2.7083106   -1.5720099  0.058196921   -2.7083106    1.1363007   569361 
  444000    1.0102096   -2.7083273   -2.7083273    -1.572602  0.050877128   -2.7083273    1.1357253   569361 
  445000    1.0093671   -2.7071923   -2.7071923   -1.5724142  0.058392549   -2.7071923    1.1347781   569361 
  446000    1.0091983   -2.7065379   -2.7065379   -1.5719495  0.067338247   -2.7065379    1.1345884   569361 
  447000    1.0090271   -2.7080844   -2.7080844   -1.5736885  0.060472845   -2.7080844    1.1343959   569361 
  448000    1.0096626   -2.7081612   -2.7081612   -1.5730509  0.059386927   -2.7081612    1.1351103   569361 
  449000    1.0110464   -2.7097908   -2.7097908   -1.5731247  0.057304005   -2.7097908    1.1366661   569361 
  450000    1.0093445   -2.7082901   -2.7082901   -1.5735374  0.070754771   -2.7082901    1.1347528   569361 
  451000    1.0100771   -2.7091633   -2.7091633    -1.573587  0.053440951   -2.7091633    1.1355763   569361 
  452000    1.0113928   -2.7097418   -2.7097418   -1.5726863  0.065563681   -2.7097418    1.1370555   569361 
  453000    1.0122283   -2.7109212   -2.7109212   -1.5729264   0.06106243   -2.7109212    1.1379948   569361 
  454000     1.011881   -2.7112682   -2.7112682   -1.5736638  0.064592396   -2.7112682    1.1376043   569361 
  455000    1.0119619   -2.7112319   -2.7112319   -1.5735366   0.07029832   -2.7112319    1.1376953   569361 
  456000     1.013018   -2.7117763   -2.7117763   -1.5728937  0.077614281   -2.7117763    1.1388827   569361 
  457000    1.0106005   -2.7096806   -2.7096806   -1.5735158  0.063907244   -2.7096806    1.1361647   569361 
  458000    1.0101844    -2.709038    -2.709038   -1.5733411  0.061648954    -2.709038     1.135697   569361 
  459000    1.0109407   -2.7094913   -2.7094913    -1.572944  0.057496535   -2.7094913    1.1365472   569361 
  460000    1.0106546   -2.7090575   -2.7090575   -1.5728319  0.068982802   -2.7090575    1.1362256   569361 
  461000    1.0117404   -2.7097453   -2.7097453   -1.5722989  0.060856905   -2.7097453    1.1374463   569361 
  462000    1.0115116    -2.709444    -2.709444   -1.5722549  0.075984478    -2.709444    1.1371891   569361 
  463000     1.010913   -2.7091444   -2.7091444   -1.5726284  0.069873604   -2.7091444     1.136516   569361 
  464000    1.0108193    -2.708645    -2.708645   -1.5722343  0.059158663    -2.708645    1.1364107   569361 
  465000    1.0121534   -2.7101949   -2.7101949   -1.5722843   0.06693894   -2.7101949    1.1379106   569361 
  466000    1.0121835   -2.7103553   -2.7103553   -1.5724109  0.048678635   -2.7103553    1.1379445   569361 
  467000    1.0099091   -2.7083532   -2.7083532   -1.5729658  0.066801558   -2.7083532    1.1353874   569361 
  468000     1.011902   -2.7115282   -2.7115282   -1.5739003  0.064897925   -2.7115282     1.137628   569361 
  469000    1.0107741   -2.7104022   -2.7104022   -1.5740423  0.059084357   -2.7104022    1.1363599   569361 
  470000    1.0106269    -2.710187    -2.710187   -1.5739925   0.05885936    -2.710187    1.1361944   569361 
  471000    1.0109482   -2.7110154   -2.7110154   -1.5744598  0.074952698   -2.7110154    1.1365556   569361 
  472000    1.0103082   -2.7105174   -2.7105174   -1.5746813  0.057517988   -2.7105174    1.1358361   569361 
  473000    1.0117882   -2.7118325   -2.7118325   -1.5743325  0.056794683   -2.7118325       1.1375   569361 
  474000    1.0115121   -2.7116746   -2.7116746   -1.5744851  0.070128928   -2.7116746    1.1371896   569361 
  475000    1.0112779   -2.7111442   -2.7111442   -1.5742179   0.05394909   -2.7111442    1.1369263   569361 
  476000    1.0114496   -2.7114915   -2.7114915   -1.5743722  0.063464067   -2.7114915    1.1371193   569361 
  477000    1.0104176   -2.7105347   -2.7105347   -1.5745757  0.066812031   -2.7105347    1.1359591   569361 
  478000     1.010148   -2.7093337   -2.7093337   -1.5736777  0.064965271   -2.7093337     1.135656   569361 
  479000     1.009826   -2.7097092   -2.7097092   -1.5744151  0.064339754   -2.7097092     1.135294   569361 
  480000    1.0099929    -2.710014    -2.710014   -1.5745324  0.059756722    -2.710014    1.1354816   569361 
  481000    1.0111499   -2.7116261   -2.7116261   -1.5748436  0.068103784   -2.7116261    1.1367825   569361 
  482000    1.0093321   -2.7097703   -2.7097703   -1.5750315  0.074467378   -2.7097703    1.1347388   569361 
  483000    1.0106689   -2.7116448   -2.7116448   -1.5754031  0.047265316   -2.7116448    1.1362417   569361 
  484000    1.0108921   -2.7125056   -2.7125056    -1.576013  0.065660644   -2.7125056    1.1364926   569361 
  485000    1.0103462   -2.7114677   -2.7114677   -1.5755889  0.055055011   -2.7114677    1.1358788   569361 
  486000    1.0124276   -2.7139527   -2.7139527   -1.5757339   0.05920782   -2.7139527    1.1382188   569361 
  487000     1.010735   -2.7125128   -2.7125128   -1.5761968  0.059235008   -2.7125128     1.136316   569361 
  488000    1.0112892   -2.7118928   -2.7118928   -1.5749537  0.059890048   -2.7118928     1.136939   569361 
  489000    1.0100244   -2.7108777   -2.7108777   -1.5753606  0.061347611   -2.7108777    1.1355171   569361 
  490000     1.009298   -2.7108331   -2.7108331   -1.5761326  0.067114718   -2.7108331    1.1347005   569361 
  491000    1.0100971   -2.7115756   -2.7115756   -1.5759768   0.06693036   -2.7115756    1.1355988   569361 
  492000    1.0108328   -2.7135305   -2.7135305   -1.5771046  0.057649092   -2.7135305    1.1364259   569361 
  493000    1.0118429   -2.7148116   -2.7148116   -1.5772501  0.054003715   -2.7148116    1.1375615   569361 
  494000    1.0104725   -2.7137202   -2.7137202   -1.5776994  0.064967725   -2.7137202    1.1360208   569361 
  495000    1.0104486   -2.7136135   -2.7136135   -1.5776195  0.060870177   -2.7136135     1.135994   569361 
  496000    1.0082441   -2.7123801   -2.7123801   -1.5788645  0.060264944   -2.7123801    1.1335156   569361 
  497000    1.0105957   -2.7148516   -2.7148516   -1.5786923  0.055778041   -2.7148516    1.1361593   569361 
  498000    1.0075398   -2.7114879   -2.7114879   -1.5787641  0.066352938   -2.7114879    1.1327237   569361 
  499000    1.0099536   -2.7146848   -2.7146848   -1.5792473  0.062444084   -2.7146848    1.1354374   569361 
  500000    1.0090217    -2.713789    -2.713789   -1.5793992  0.060837675    -2.713789    1.1343898   569361 
  501000    1.0095628   -2.7138057   -2.7138057   -1.5788075  0.066303178   -2.7138057    1.1349982   569361 
  502000    1.0093292   -2.7137501   -2.7137501   -1.5790145   0.06510897   -2.7137501    1.1347356   569361 
  503000    1.0114974   -2.7163722   -2.7163722   -1.5791991  0.058875414   -2.7163722    1.1371731   569361 
  504000    1.0097912   -2.7144861   -2.7144861   -1.5792312  0.057457177   -2.7144861    1.1352549   569361 
  505000    1.0101611   -2.7144964   -2.7144964   -1.5788256  0.063867762   -2.7144964    1.1356708   569361 
  506000    1.0121401   -2.7167876   -2.7167876   -1.5788919  0.059459835   -2.7167876    1.1378957   569361 
  507000    1.0108395    -2.715934    -2.715934   -1.5795005  0.058296073    -2.715934    1.1364335   569361 
  508000    1.0089862   -2.7141953   -2.7141953   -1.5798454  0.063515823   -2.7141953    1.1343499   569361 
  509000    1.0077644   -2.7124077   -2.7124077   -1.5794315  0.060068907   -2.7124077    1.1329762   569361 
  510000    1.0086519   -2.7137988   -2.7137988   -1.5798247  0.059264471   -2.7137988    1.1339741   569361 
  511000     1.009431   -2.7144003   -2.7144003   -1.5795504  0.070925287   -2.7144003    1.1348499   569361 
  512000    1.0116159   -2.7170997   -2.7170997   -1.5797935  0.053095374   -2.7170997    1.1373063   569361 
  513000    1.0098187   -2.7153568   -2.7153568   -1.5800709  0.066152381   -2.7153568    1.1352858   569361 
  514000    1.0079637   -2.7131032   -2.7131032   -1.5799028  0.055460313   -2.7131032    1.1332004   569361 
  515000    1.0097042   -2.7158377   -2.7158377   -1.5806806  0.054530007   -2.7158377    1.1351571   569361 
  516000    1.0080077   -2.7137556   -2.7137556   -1.5805058  0.060867466   -2.7137556    1.1332498   569361 
  517000    1.0100274    -2.716244    -2.716244   -1.5807235  0.067049456    -2.716244    1.1355205   569361 
  518000    1.0107012   -2.7171409   -2.7171409   -1.5808629  0.062691615   -2.7171409     1.136278   569361 
  519000    1.0116491   -2.7174444   -2.7174444   -1.5801007  0.070509621   -2.7174444    1.1373437   569361 
  520000    1.0094919   -2.7153721   -2.7153721   -1.5804536  0.063284552   -2.7153721    1.1349185   569361 
  521000    1.0116894   -2.7180774   -2.7180774   -1.5806885  0.064781628   -2.7180774    1.1373889   569361 
  522000    1.0111545   -2.7175646   -2.7175646    -1.580777  0.065473282   -2.7175646    1.1367876   569361 
  523000    1.0102935   -2.7169143   -2.7169143   -1.5810946   0.06446475   -2.7169143    1.1358196   569361 
  524000    1.0110727   -2.7174248   -2.7174248   -1.5807292  0.057447418   -2.7174248    1.1366956   569361 
  525000    1.0103045   -2.7181168   -2.7181168   -1.5822848  0.063280638   -2.7181168     1.135832   569361 
  526000    1.0090679   -2.7181132   -2.7181132   -1.5836714  0.072703591   -2.7181132    1.1344418   569361 
  527000    1.0089611   -2.7167907   -2.7167907   -1.5824691  0.070178025   -2.7167907    1.1343216   569361 
  528000    1.0089018   -2.7176845   -2.7176845   -1.5834295   0.06492527   -2.7176845     1.134255   569361 
  529000    1.0101159   -2.7192546   -2.7192546   -1.5836347  0.058346094   -2.7192546    1.1356199   569361 
  530000    1.0087054   -2.7171753   -2.7171753    -1.583141  0.065164826   -2.7171753    1.1340342   569361 
  531000    1.0089567   -2.7173641   -2.7173641   -1.5830474  0.056929093   -2.7173641    1.1343167   569361 
  532000    1.0104608   -2.7193694   -2.7193694   -1.5833617  0.058505761   -2.7193694    1.1360077   569361 
  533000    1.0088881   -2.7178828   -2.7178828   -1.5836433   0.05695403   -2.7178828    1.1342396   569361 
  534000    1.0106932   -2.7200267   -2.7200267   -1.5837577  0.063336006   -2.7200267     1.136269   569361 
  535000    1.0083338    -2.716852    -2.716852   -1.5832355  0.069151866    -2.716852    1.1336164   569361 
  536000    1.0106791   -2.7197918   -2.7197918   -1.5835387  0.071324306   -2.7197918    1.1362531   569361 
  537000    1.0105181   -2.7192414   -2.7192414   -1.5831693  0.064514749   -2.7192414    1.1360721   569361 
  538000    1.0110387   -2.7182384   -2.7182384   -1.5815809  0.060243302   -2.7182384    1.1366574   569361 
  539000    1.0108838    -2.718429    -2.718429   -1.5819457  0.065816755    -2.718429    1.1364832   569361 
  540000    1.0086173   -2.7164079   -2.7164079   -1.5824728  0.059704933   -2.7164079    1.1339351   569361 
  541000    1.0070518   -2.7150743   -2.7150743   -1.5828991   0.05055424   -2.7150743    1.1321752   569361 
  542000    1.0093265   -2.7176402   -2.7176402   -1.5829077  0.061255021   -2.7176402    1.1347325   569361 
  543000    1.0085451   -2.7179463   -2.7179463   -1.5840923  0.061544699   -2.7179463     1.133854   569361 
  544000    1.0098821   -2.7194768   -2.7194768   -1.5841196  0.054911718   -2.7194768    1.1353571   569361 
  545000    1.0077118   -2.7163271   -2.7163271   -1.5834099  0.078544954   -2.7163271    1.1329172   569361 
  546000     1.010506   -2.7193849   -2.7193849   -1.5833264  0.068058644   -2.7193849    1.1360585   569361 
  547000    1.0103701   -2.7191192   -2.7191192   -1.5832135  0.060151688   -2.7191192    1.1359058   569361 
  548000    1.0084848   -2.7175655   -2.7175655   -1.5837792  0.059518383   -2.7175655    1.1337863   569361 
  549000    1.0106017   -2.7188545   -2.7188545   -1.5826885  0.069847567   -2.7188545    1.1361661   569361 
  550000    1.0096884   -2.7185239   -2.7185239   -1.5833846  0.066020623   -2.7185239    1.1351393   569361 
  551000    1.0118648   -2.7204826   -2.7204826   -1.5828965  0.057040305   -2.7204826    1.1375861   569361 
  552000    1.0092419   -2.7175535   -2.7175535   -1.5829161  0.073560748   -2.7175535    1.1346374   569361 
  553000    1.0093557   -2.7164552   -2.7164552   -1.5816898  0.060876016   -2.7164552    1.1347653   569361 
  554000    1.0083519   -2.7155674   -2.7155674   -1.5819306  0.064696111   -2.7155674    1.1336368   569361 
  555000    1.0084472   -2.7160639   -2.7160639     -1.58232  0.061707485   -2.7160639    1.1337439   569361 
  556000    1.0111252   -2.7182931   -2.7182931   -1.5815384  0.069385246   -2.7182931    1.1367547   569361 
  557000    1.0111754   -2.7193767   -2.7193767   -1.5825655  0.060875444   -2.7193767    1.1368111   569361 
  558000    1.0094744   -2.7179341   -2.7179341   -1.5830353  0.065084721   -2.7179341    1.1348987   569361 
  559000     1.008226   -2.7163337   -2.7163337   -1.5828384  0.057493404   -2.7163337    1.1334953   569361 
  560000    1.0077112   -2.7174076   -2.7174076   -1.5844911  0.064037716   -2.7174076    1.1329165   569361 
  561000    1.0086769   -2.7185987   -2.7185987   -1.5845966  0.063443068   -2.7185987    1.1340021   569361 
  562000    1.0094376   -2.7189987   -2.7189987   -1.5841412  0.064959037   -2.7189987    1.1348574   569361 
  563000    1.0092616   -2.7180813   -2.7180813   -1.5834218  0.062297212   -2.7180813    1.1346595   569361 
  564000    1.0097162   -2.7191073   -2.7191073   -1.5839367  0.068834965   -2.7191073    1.1351706   569361 
  565000    1.0099188    -2.719419    -2.719419   -1.5840207  0.055583589    -2.719419    1.1353983   569361 
  566000    1.0095904   -2.7187179   -2.7187179   -1.5836888  0.060416599   -2.7187179    1.1350292   569361 
  567000    1.0098154    -2.718803    -2.718803   -1.5835209  0.060775613    -2.718803    1.1352821   569361 
  568000    1.0122052    -2.721579    -2.721579   -1.5836101  0.064211807    -2.721579    1.1379689   569361 
  569000    1.0089239   -2.7178648   -2.7178648   -1.5835849  0.078085451   -2.7178648    1.1342799   569361 
  570000      1.00943   -2.7192376   -2.7192376   -1.5843888  0.064373575   -2.7192376    1.1348488   569361 
  571000    1.0093828   -2.7191378   -2.7191378   -1.5843421  0.062987036   -2.7191378    1.1347958   569361 
  572000    1.0093726   -2.7194956   -2.7194956   -1.5847114  0.073754881   -2.7194956    1.1347843   569361 
  573000     1.008878   -2.7193364   -2.7193364   -1.5851082  0.066395851   -2.7193364    1.1342282   569361 
  574000    1.0102573   -2.7209862   -2.7209862   -1.5852073   0.05466816   -2.7209862    1.1357789   569361 
  575000    1.0105272   -2.7213833   -2.7213833   -1.5853009  0.063867064   -2.7213833    1.1360824   569361 
  576000    1.0084268   -2.7194876   -2.7194876   -1.5857666  0.066458061   -2.7194876    1.1337209   569361 
  577000    1.0090916   -2.7199761   -2.7199761   -1.5855078   0.06953035   -2.7199761    1.1344684   569361 
  578000    1.0074221   -2.7176191   -2.7176191   -1.5850276  0.059973644   -2.7176191    1.1325915   569361 
  579000     1.010184   -2.7210818   -2.7210818   -1.5853853  0.068702255   -2.7210818    1.1356965   569361 
  580000    1.0084578   -2.7193405   -2.7193405   -1.5855847    0.0665177   -2.7193405    1.1337558   569361 
  581000    1.0092653   -2.7203972   -2.7203972   -1.5857335  0.058860165   -2.7203972    1.1346637   569361 
  582000    1.0085744   -2.7192551   -2.7192551   -1.5853682  0.056967627   -2.7192551    1.1338869   569361 
  583000    1.0092035   -2.7188192   -2.7188192    -1.584225   0.06611885   -2.7188192    1.1345942   569361 
  584000    1.0088627   -2.7180486   -2.7180486   -1.5838376  0.073810343   -2.7180486     1.134211   569361 
  585000    1.0099214   -2.7195337   -2.7195337   -1.5841324  0.062644918   -2.7195337    1.1354013   569361 
  586000    1.0094291   -2.7185573   -2.7185573   -1.5837095  0.063491882   -2.7185573    1.1348478   569361 
  587000    1.0093382   -2.7192108   -2.7192108   -1.5844652  0.061619185   -2.7192108    1.1347456   569361 
  588000    1.0098328   -2.7194165   -2.7194165   -1.5841148  0.071446779   -2.7194165    1.1353017   569361 
  589000    1.0087591   -2.7185235   -2.7185235    -1.584429  0.051830425   -2.7185235    1.1340946   569361 
  590000    1.0110608   -2.7214819   -2.7214819   -1.5847996  0.055220084   -2.7214819    1.1366822   569361 
  591000    1.0087277   -2.7186133   -2.7186133    -1.584554  0.044769378   -2.7186133    1.1340592   569361 
  592000    1.0078345   -2.7188743   -2.7188743   -1.5858192  0.067647079   -2.7188743    1.1330551   569361 
  593000    1.0070102   -2.7172631   -2.7172631   -1.5851347  0.062985428   -2.7172631    1.1321284   569361 
  594000    1.0079382   -2.7186287   -2.7186287    -1.585457  0.054930224   -2.7186287    1.1331717   569361 
  595000    1.0093453   -2.7198033   -2.7198033   -1.5850497  0.059767382   -2.7198033    1.1347536   569361 
  596000    1.0091538   -2.7202743   -2.7202743    -1.585736  0.058556783   -2.7202743    1.1345383   569361 
  597000    1.0101393   -2.7218705   -2.7218705   -1.5862243  0.062518841   -2.7218705    1.1356462   569361 
  598000    1.0087935   -2.7204338   -2.7204338   -1.5863006  0.061947089   -2.7204338    1.1341332   569361 
  599000    1.0091513   -2.7202533   -2.7202533   -1.5857177  0.058848961   -2.7202533    1.1345356   569361 
  600000    1.0096019   -2.7207001   -2.7207001    -1.585658  0.071160906   -2.7207001    1.1350421   569361 
  601000    1.0100631   -2.7208657   -2.7208657   -1.5853051  0.072209943   -2.7208657    1.1355606   569361 
  602000    1.0095642    -2.720905    -2.720905   -1.5859053  0.062108822    -2.720905    1.1349997   569361 
  603000    1.0103208    -2.722262    -2.722262   -1.5864117  0.057356063    -2.722262    1.1358503   569361 
  604000    1.0112222   -2.7229454   -2.7229454   -1.5860817   0.06776844   -2.7229454    1.1368637   569361 
  605000    1.0090589   -2.7206673   -2.7206673   -1.5862356  0.062853819   -2.7206673    1.1344316   569361 
  606000    1.0115414   -2.7235555   -2.7235555   -1.5863329  0.056828277   -2.7235555    1.1372226   569361 
  607000    1.0103349   -2.7219598   -2.7219598   -1.5860936   0.05614085   -2.7219598    1.1358662   569361 
  608000    1.0105476   -2.7220592   -2.7220592   -1.5859539  0.062058566   -2.7220592    1.1361053   569361 
  609000    1.0108545   -2.7228649   -2.7228649   -1.5864146  0.064644346   -2.7228649    1.1364504   569361 
  610000    1.0081137   -2.7217755   -2.7217755   -1.5884065  0.063511297   -2.7217755     1.133369   569361 
  611000    1.0096626   -2.7225706   -2.7225706   -1.5874602  0.068379014   -2.7225706    1.1351104   569361 
  612000    1.0074174   -2.7206046   -2.7206046   -1.5880184  0.066281293   -2.7206046    1.1325862   569361 
  613000    1.0080624   -2.7212757   -2.7212757   -1.5879644  0.052447344   -2.7212757    1.1333113   569361 
  614000     1.007898   -2.7214043   -2.7214043   -1.5882779   0.07261696   -2.7214043    1.1331264   569361 
  615000    1.0091514   -2.7222805   -2.7222805   -1.5877449   0.05579839   -2.7222805    1.1345357   569361 
  616000    1.0094579   -2.7225743   -2.7225743   -1.5876941  0.047989274   -2.7225743    1.1348802   569361 
  617000     1.008293   -2.7217021   -2.7217021   -1.5881315   0.07027361   -2.7217021    1.1335706   569361 
  618000    1.0107432   -2.7249877   -2.7249877   -1.5886625  0.065026893   -2.7249877    1.1363252   569361 
  619000    1.0093052   -2.7235119   -2.7235119   -1.5888033  0.054780447   -2.7235119    1.1347086   569361 
  620000     1.011382   -2.7251144   -2.7251144    -1.588071  0.065997662   -2.7251144    1.1370434   569361 
  621000    1.0103423   -2.7243588   -2.7243588   -1.5884844  0.051002526   -2.7243588    1.1358744   569361 
  622000     1.010172   -2.7233064   -2.7233064   -1.5876235  0.061693822   -2.7233064     1.135683   569361 
  623000    1.0099803   -2.7239598   -2.7239598   -1.5884923  0.059893528   -2.7239598    1.1354675   569361 
  624000    1.0112171   -2.7247281   -2.7247281   -1.5878702  0.064442693   -2.7247281    1.1368579   569361 
  625000    1.0095724   -2.7232871   -2.7232871   -1.5882782  0.069358865   -2.7232871     1.135009   569361 
  626000    1.0099013   -2.7235171   -2.7235171   -1.5881384  0.059661776   -2.7235171    1.1353787   569361 
  627000    1.0087979   -2.7225294   -2.7225294   -1.5883912  0.062464152   -2.7225294    1.1341382   569361 
  628000    1.0094469   -2.7231709   -2.7231709   -1.5883031  0.043775294   -2.7231709    1.1348679   569361 
  629000    1.0090178   -2.7228965   -2.7228965    -1.588511  0.070789274   -2.7228965    1.1343854   569361 
  630000    1.0076666   -2.7219233   -2.7219233    -1.589057  0.072478648   -2.7219233    1.1328663   569361 
  631000    1.0098995   -2.7242537   -2.7242537   -1.5888771   0.06733955   -2.7242537    1.1353766   569361 
  632000    1.0098109   -2.7243536   -2.7243536   -1.5890765   0.06085382   -2.7243536     1.135277   569361 
  633000     1.010505    -2.725401    -2.725401   -1.5893436   0.05337471    -2.725401    1.1360574   569361 
  634000    1.0087837   -2.7232366   -2.7232366   -1.5891143  0.065731592   -2.7232366    1.1341223   569361 
  635000    1.0107462   -2.7273249   -2.7273249   -1.5909964  0.060150656   -2.7273249    1.1363286   569361 
  636000    1.0100673   -2.7258231   -2.7258231   -1.5902578  0.056362608   -2.7258231    1.1355653   569361 
  637000     1.009977   -2.7247402   -2.7247402   -1.5892763  0.056719751   -2.7247402    1.1354638   569361 
  638000    1.0074296   -2.7231038   -2.7231038   -1.5905039  0.068536759   -2.7231038    1.1325999   569361 
  639000    1.0082384   -2.7239968   -2.7239968   -1.5904876  0.079533261   -2.7239968    1.1335092   569361 
  640000    1.0069742   -2.7235735   -2.7235735   -1.5914856  0.061669716   -2.7235735    1.1320879   569361 
  641000    1.0074189     -2.72474     -2.72474   -1.5921521  0.064248479     -2.72474    1.1325879   569361 
  642000    1.0091565    -2.726238    -2.726238   -1.5916966  0.054315973    -2.726238    1.1345414   569361 
  643000    1.0076632   -2.7249667   -2.7249667   -1.5921043  0.046394045   -2.7249667    1.1328625   569361 
  644000    1.0076872   -2.7250591   -2.7250591   -1.5921696   0.06560069   -2.7250591    1.1328895   569361 
  645000    1.0075532   -2.7250366   -2.7250366   -1.5922977  0.066997861   -2.7250366    1.1327389   569361 
  646000    1.0081441   -2.7256326   -2.7256326   -1.5922294  0.070250572   -2.7256326    1.1334032   569361 
  647000    1.0099179   -2.7269586   -2.7269586   -1.5915612  0.066929553   -2.7269586    1.1353974   569361 
  648000    1.0101423   -2.7273978   -2.7273978   -1.5917482  0.071511159   -2.7273978    1.1356496   569361 
  649000    1.0091695   -2.7272901   -2.7272901   -1.5927341   0.06783954   -2.7272901    1.1345559   569361 
  650000    1.0096384   -2.7276622   -2.7276622   -1.5925791   0.05381069   -2.7276622    1.1350831   569361 
  651000    1.0088752   -2.7275199   -2.7275199   -1.5932948  0.064796039   -2.7275199    1.1342251   569361 
  652000    1.0107254   -2.7296061   -2.7296061   -1.5933009  0.058497729   -2.7296061    1.1363052   569361 
  653000    1.0090326   -2.7271996   -2.7271996   -1.5927975  0.068174813   -2.7271996    1.1344021   569361 
  654000    1.0080941   -2.7265182   -2.7265182   -1.5931713  0.057559565   -2.7265182     1.133347   569361 
  655000    1.0066262   -2.7256736   -2.7256736   -1.5939769  0.066619262   -2.7256736    1.1316967   569361 
  656000    1.0076147   -2.7272477   -2.7272477   -1.5944397   0.05814644   -2.7272477     1.132808   569361 
  657000    1.0101663   -2.7304815   -2.7304815   -1.5948048  0.056006905   -2.7304815    1.1356766   569361 
  658000    1.0058328   -2.7265008   -2.7265008   -1.5956961  0.065922402   -2.7265008    1.1308047   569361 
  659000    1.0066009   -2.7271549   -2.7271549   -1.5954866  0.062992588   -2.7271549    1.1316683   569361 
  660000    1.0064016   -2.7267045   -2.7267045   -1.5952604  0.069470084   -2.7267045    1.1314441   569361 
  661000    1.0076686   -2.7281467   -2.7281467   -1.5952781  0.062351458   -2.7281467    1.1328686   569361 
  662000    1.0081825   -2.7279859   -2.7279859   -1.5945396  0.072451607   -2.7279859    1.1334464   569361 
  663000     1.007668    -2.728168    -2.728168   -1.5953001  0.059617545    -2.728168    1.1328679   569361 
  664000    1.0099509   -2.7304085   -2.7304085   -1.5949741  0.070386627   -2.7304085    1.1354344   569361 
  665000    1.0092757   -2.7298569   -2.7298569   -1.5951815  0.080483137   -2.7298569    1.1346754   569361 
  666000    1.0084944   -2.7289885   -2.7289885   -1.5951915  0.060492557   -2.7289885     1.133797   569361 
  667000    1.0087038   -2.7292429   -2.7292429   -1.5952106  0.058613857   -2.7292429    1.1340324   569361 
  668000    1.0078757   -2.7276889   -2.7276889   -1.5945874  0.055651052   -2.7276889    1.1331014   569361 
  669000     1.008257   -2.7286677   -2.7286677   -1.5951375  0.052749729   -2.7286677    1.1335301   569361 
  670000    1.0108741   -2.7306811   -2.7306811   -1.5942088  0.059621013   -2.7306811    1.1364723   569361 
  671000    1.0086922   -2.7287879   -2.7287879   -1.5947686  0.053001767   -2.7287879    1.1340193   569361 
  672000    1.0089057   -2.7282849   -2.7282849   -1.5940255   0.06284958   -2.7282849    1.1342594   569361 
  673000    1.0076421   -2.7266471   -2.7266471   -1.5938083  0.063988467   -2.7266471    1.1328388   569361 
  674000    1.0086122   -2.7276017   -2.7276017   -1.5936723  0.079509123   -2.7276017    1.1339294   569361 
  675000    1.0081703    -2.726588    -2.726588   -1.5931553  0.066089742    -2.726588    1.1334327   569361 
  676000    1.0079163   -2.7274067   -2.7274067   -1.5942596  0.057702333   -2.7274067    1.1331471   569361 
  677000    1.0086668   -2.7286425   -2.7286425   -1.5946517  0.053211789   -2.7286425    1.1339908   569361 
  678000    1.0068668   -2.7258986   -2.7258986   -1.5939314  0.062682332   -2.7258986    1.1319672   569361 
  679000    1.0067299   -2.7259725   -2.7259725   -1.5941593   0.06659256   -2.7259725    1.1318132   569361 
  680000    1.0077026   -2.7273692   -2.7273692   -1.5944624  0.070242048   -2.7273692    1.1329068   569361 
  681000     1.007177   -2.7262966   -2.7262966   -1.5939808  0.078165489   -2.7262966    1.1323159   569361 
  682000    1.0078149   -2.7266421   -2.7266421    -1.593609  0.052095007   -2.7266421    1.1330331   569361 
  683000    1.0105811   -2.7297566   -2.7297566   -1.5936136  0.044437955   -2.7297566     1.136143   569361 
  684000    1.0110257   -2.7302596   -2.7302596   -1.5936168   0.05927793   -2.7302596    1.1366428   569361 
  685000    1.0088526   -2.7279837   -2.7279837    -1.593784  0.061399041   -2.7279837    1.1341997   569361 
  686000     1.009404   -2.7291989   -2.7291989   -1.5943793  0.061272574   -2.7291989    1.1348196   569361 
  687000    1.0096497   -2.7290608   -2.7290608   -1.5939651  0.067118256   -2.7290608    1.1350958   569361 
  688000    1.0078437   -2.7278941   -2.7278941   -1.5948287  0.069900235   -2.7278941    1.1330654   569361 
  689000    1.0099831   -2.7306234   -2.7306234   -1.5951528  0.058009738   -2.7306234    1.1354706   569361 
  690000    1.0096311   -2.7300582   -2.7300582   -1.5949833     0.068216   -2.7300582    1.1350749   569361 
  691000    1.0096639   -2.7300978   -2.7300978    -1.594986  0.057025944   -2.7300978    1.1351117   569361 
  692000    1.0090306   -2.7294082   -2.7294082   -1.5950084  0.056345338   -2.7294082    1.1343998   569361 
  693000    1.0088421   -2.7289459   -2.7289459    -1.594758  0.070777928   -2.7289459    1.1341879   569361 
  694000    1.0074753   -2.7276288   -2.7276288   -1.5949776  0.065349172   -2.7276288    1.1326513   569361 
  695000    1.0069218   -2.7269296   -2.7269296   -1.5949006  0.066631945   -2.7269296     1.132029   569361 
  696000    1.0081966   -2.7272221   -2.7272221   -1.5937598  0.063203893   -2.7272221    1.1334622   569361 
  697000    1.0090878   -2.7284709   -2.7284709   -1.5940068    0.0645767   -2.7284709    1.1344641   569361 
  698000    1.0106121   -2.7303519   -2.7303519   -1.5941741  0.057239381   -2.7303519    1.1361778   569361 
  699000    1.0089313   -2.7286452   -2.7286452    -1.594357  0.070615457   -2.7286452    1.1342882   569361 
  700000     1.007999   -2.7280482   -2.7280482   -1.5948081  0.066878168   -2.7280482    1.1332401   569361 
  701000    1.0091172   -2.7290181   -2.7290181    -1.594521  0.050961654   -2.7290181    1.1344971   569361 
  702000    1.0088279   -2.7299505   -2.7299505   -1.5957786  0.066153733   -2.7299505    1.1341719   569361 
  703000    1.0077557   -2.7280288   -2.7280288   -1.5950623   0.06004336   -2.7280288    1.1329666   569361 
  704000    1.0089324   -2.7287466   -2.7287466   -1.5944572  0.062231675   -2.7287466    1.1342894   569361 
  705000    1.0094061    -2.729055    -2.729055    -1.594233  0.054215178    -2.729055     1.134822   569361 
  706000    1.0076752   -2.7268511   -2.7268511   -1.5939751  0.051914713   -2.7268511     1.132876   569361 
  707000    1.0084453   -2.7289616   -2.7289616   -1.5952198  0.068066342   -2.7289616    1.1337418   569361 
  708000    1.0074434   -2.7282742   -2.7282742   -1.5956587  0.059815459   -2.7282742    1.1326154   569361 
  709000    1.0085455   -2.7294431   -2.7294431   -1.5955887   0.06761536   -2.7294431    1.1338544   569361 
  710000    1.0082996   -2.7289935   -2.7289935   -1.5954155  0.069570411   -2.7289935     1.133578   569361 
  711000    1.0088302   -2.7295343   -2.7295343   -1.5953597  0.063662183   -2.7295343    1.1341746   569361 
  712000    1.0099203   -2.7306682   -2.7306682   -1.5952681   0.06860922   -2.7306682    1.1354001   569361 
  713000    1.0086447   -2.7294502   -2.7294502   -1.5954842  0.067939272   -2.7294502     1.133966   569361 
  714000    1.0089693   -2.7308068   -2.7308068   -1.5964759  0.059407658   -2.7308068    1.1343309   569361 
  715000    1.0101381   -2.7311199   -2.7311199    -1.595475  0.068578904   -2.7311199    1.1356449   569361 
  716000    1.0078639   -2.7284052   -2.7284052   -1.5953171  0.069359668   -2.7284052    1.1330881   569361 
  717000    1.0065461   -2.7279821   -2.7279821   -1.5963755  0.062824074   -2.7279821    1.1316066   569361 
  718000    1.0071181   -2.7289862   -2.7289862   -1.5967365  0.068468318   -2.7289862    1.1322497   569361 
  719000    1.0079522   -2.7300593   -2.7300593    -1.596872  0.062095788   -2.7300593    1.1331874   569361 
  720000    1.0081671   -2.7300228   -2.7300228   -1.5965938  0.066295002   -2.7300228     1.133429   569361 
  721000    1.0081231   -2.7302429   -2.7302429   -1.5968634  0.066538711   -2.7302429    1.1333796   569361 
  722000    1.0100793   -2.7327442   -2.7327442   -1.5971654  0.072221055   -2.7327442    1.1355788   569361 
  723000    1.0079262   -2.7299691   -2.7299691    -1.596811  0.066156415   -2.7299691    1.1331582   569361 
  724000    1.0070774   -2.7294381   -2.7294381   -1.5972342  0.070820532   -2.7294381    1.1322039   569361 
  725000    1.0070117   -2.7306081   -2.7306081    -1.598478  0.070405892   -2.7306081      1.13213   569361 
  726000    1.0076141   -2.7311665   -2.7311665   -1.5983593  0.067199119   -2.7311665    1.1328073   569361 
  727000    1.0068641   -2.7305459   -2.7305459   -1.5985818  0.065257983   -2.7305459    1.1319641   569361 
  728000     1.007394   -2.7315878   -2.7315878    -1.599028  0.052189776   -2.7315878    1.1325599   569361 
  729000     1.007603   -2.7316122   -2.7316122   -1.5988173  0.069825828   -2.7316122    1.1327948   569361 
  730000    1.0073578   -2.7316565   -2.7316565   -1.5991372   0.05967775   -2.7316565    1.1325192   569361 
  731000    1.0084659   -2.7327502   -2.7327502   -1.5989852  0.053858104   -2.7327502     1.133765   569361 
  732000    1.0059339   -2.7306666   -2.7306666   -1.5997483  0.061812016   -2.7306666    1.1309183   569361 
  733000    1.0059481   -2.7304567   -2.7304567   -1.5995223  0.063382231   -2.7304567    1.1309344   569361 
  734000    1.0063675   -2.7304796   -2.7304796   -1.5990738  0.058913738   -2.7304796    1.1314059   569361 
  735000    1.0074726   -2.7321879   -2.7321879   -1.5995397  0.061326094   -2.7321879    1.1326482   569361 
  736000     1.008211   -2.7338732   -2.7338732   -1.6003949   0.05895677   -2.7338732    1.1334783   569361 
  737000    1.0056158   -2.7319077   -2.7319077    -1.601347   0.05234989   -2.7319077    1.1305607   569361 
  738000    1.0074315   -2.7330886   -2.7330886   -1.6004865  0.065810826   -2.7330886    1.1326021   569361 
  739000    1.0066996   -2.7318364   -2.7318364   -1.6000573    0.0598967   -2.7318364    1.1317791   569361 
  740000    1.0091004   -2.7341235   -2.7341235   -1.5996453  0.061400538   -2.7341235    1.1344783   569361 
  741000    1.0078121   -2.7317599   -2.7317599     -1.59873  0.065113587   -2.7317599    1.1330299   569361 
  742000    1.0093698    -2.733957    -2.733957   -1.5991758  0.065832725    -2.733957    1.1347812   569361 
  743000    1.0096111   -2.7353129   -2.7353129   -1.6002605   0.06426698   -2.7353129    1.1350524   569361 
  744000    1.0075476   -2.7329269   -2.7329269   -1.6001944  0.055625778   -2.7329269    1.1327325   569361 
  745000    1.0069544   -2.7308315   -2.7308315   -1.5987659  0.069377199   -2.7308315    1.1320656   569361 
  746000    1.0084872   -2.7324885   -2.7324885   -1.5986996  0.064741979   -2.7324885    1.1337889   569361 
  747000    1.0091186    -2.733403    -2.733403   -1.5989043  0.068703596    -2.733403    1.1344987   569361 
  748000    1.0077506   -2.7322906   -2.7322906   -1.5993298  0.056532643   -2.7322906    1.1329608   569361 
  749000    1.0100096   -2.7346076   -2.7346076   -1.5991072  0.058181397   -2.7346076    1.1355004   569361 
  750000    1.0063642   -2.7316879   -2.7316879   -1.6002857  0.064062248   -2.7316879    1.1314021   569361 
  751000    1.0083175   -2.7335407   -2.7335407   -1.5999425  0.059925689   -2.7335407    1.1335982   569361 
  752000    1.0080473   -2.7332669   -2.7332669   -1.5999725  0.072670115   -2.7332669    1.1332944   569361 
  753000    1.0072742   -2.7320772   -2.7320772    -1.599652  0.063919783   -2.7320772    1.1324252   569361 
  754000    1.0077482   -2.7326369   -2.7326369   -1.5996789  0.057186214   -2.7326369     1.132958   569361 
  755000    1.0083495   -2.7332695   -2.7332695   -1.5996353  0.064183124   -2.7332695    1.1336341   569361 
  756000    1.0093748   -2.7341647   -2.7341647   -1.5993779  0.058470271   -2.7341647    1.1347867   569361 
  757000    1.0093895   -2.7349416   -2.7349416   -1.6001383  0.064072219   -2.7349416    1.1348033   569361 
  758000    1.0075939    -2.732783    -2.732783   -1.5999984  0.063183432    -2.732783    1.1327846   569361 
  759000    1.0060413   -2.7319009   -2.7319009   -1.6008619  0.065482636   -2.7319009    1.1310391   569361 
  760000    1.0063657   -2.7315425   -2.7315425   -1.6001387  0.051133777   -2.7315425    1.1314038   569361 
  761000    1.0067459   -2.7314884   -2.7314884   -1.5996571  0.056816556   -2.7314884    1.1318312   569361 
  762000     1.005083   -2.7295764   -2.7295764   -1.5996147  0.054608091   -2.7295764    1.1299617   569361 
  763000    1.0059686   -2.7295383   -2.7295383    -1.598581  0.056454518   -2.7295383    1.1309573   569361 
  764000    1.0070419    -2.730712    -2.730712   -1.5985479  0.052953525    -2.730712    1.1321641   569361 
  765000    1.0063669   -2.7303205   -2.7303205   -1.5989153  0.053184566   -2.7303205    1.1314052   569361 
  766000    1.0060701   -2.7311248   -2.7311248   -1.6000533  0.056147842   -2.7311248    1.1310715   569361 
  767000    1.0055473   -2.7315796   -2.7315796   -1.6010959  0.063517028   -2.7315796    1.1304837   569361 
  768000    1.0081254   -2.7345326   -2.7345326   -1.6011504  0.062051265   -2.7345326    1.1333821   569361 
  769000    1.0099148   -2.7368772   -2.7368772   -1.6014833  0.058359593   -2.7368772    1.1353939   569361 
  770000    1.0088838   -2.7357313   -2.7357313   -1.6014966   0.07588086   -2.7357313    1.1342348   569361 
  771000    1.0097843   -2.7359205   -2.7359205   -1.6006733   0.07003948   -2.7359205    1.1352471   569361 
  772000    1.0079536   -2.7334575   -2.7334575   -1.6002686  0.063754708   -2.7334575    1.1331889   569361 
  773000    1.0081338   -2.7334577   -2.7334577   -1.6000662  0.064232853   -2.7334577    1.1333915   569361 
  774000    1.0083804   -2.7329395   -2.7329395   -1.5992707  0.065492886   -2.7329395    1.1336688   569361 
  775000    1.0065086   -2.7314114   -2.7314114   -1.5998469   0.06823938   -2.7314114    1.1315645   569361 
  776000    1.0069557   -2.7320822   -2.7320822    -1.600015  0.060650016   -2.7320822    1.1320671   569361 
  777000    1.0052702   -2.7305841   -2.7305841   -1.6004119  0.060705055   -2.7305841    1.1301722   569361 
  778000    1.0071966     -2.73287     -2.73287    -1.600532  0.061007241     -2.73287     1.132338   569361 
  779000    1.0041544    -2.730365    -2.730365   -1.6014472   0.05287482    -2.730365    1.1289178   569361 
  780000    1.0058179   -2.7326435   -2.7326435   -1.6018556  0.065317376   -2.7326435    1.1307879   569361 
  781000    1.0065633   -2.7337695   -2.7337695   -1.6021435  0.056431548   -2.7337695    1.1316259   569361 
  782000    1.0069562   -2.7346208   -2.7346208   -1.6025531  0.056947822   -2.7346208    1.1320676   569361 
  783000    1.0074708   -2.7351953   -2.7351953   -1.6025491  0.060834727   -2.7351953    1.1326463   569361 
  784000    1.0075779   -2.7361385   -2.7361385   -1.6033719  0.077416597   -2.7361385    1.1327666   569361 
  785000    1.0094035   -2.7374144   -2.7374144   -1.6025953  0.059056391   -2.7374144    1.1348191   569361 
  786000     1.007115   -2.7358614   -2.7358614   -1.6036153  0.057623518   -2.7358614    1.1322461   569361 
  787000    1.0080795   -2.7366282   -2.7366282   -1.6032977  0.071109179   -2.7366282    1.1333305   569361 
  788000    1.0072217   -2.7353666   -2.7353666   -1.6030005  0.070952941   -2.7353666    1.1323662   569361 
  789000    1.0074779    -2.735484    -2.735484   -1.6028298  0.064147712    -2.735484    1.1326542   569361 
  790000    1.0069641   -2.7339228   -2.7339228   -1.6018462  0.055368361   -2.7339228    1.1320766   569361 
  791000    1.0073628   -2.7339242   -2.7339242   -1.6013994  0.049341293   -2.7339242    1.1325248   569361 
  792000    1.0088229   -2.7354082   -2.7354082   -1.6012419  0.070967305   -2.7354082    1.1341663   569361 
  793000    1.0067232   -2.7334658   -2.7334658   -1.6016601  0.054647547   -2.7334658    1.1318057   569361 
  794000    1.0066246   -2.7339275   -2.7339275   -1.6022327   0.05072614   -2.7339275    1.1316949   569361 
  795000    1.0062433    -2.733361    -2.733361   -1.6020948  0.072444296    -2.733361    1.1312662   569361 
  796000    1.0083101   -2.7360819   -2.7360819   -1.6024921  0.058127085   -2.7360819    1.1335898   569361 
  797000     1.008564   -2.7357602   -2.7357602    -1.601885  0.048184159   -2.7357602    1.1338752   569361 
  798000    1.0062714   -2.7331113   -2.7331113   -1.6018135  0.064812908   -2.7331113    1.1312978   569361 
  799000    1.0080744   -2.7356303   -2.7356303   -1.6023055  0.071464541   -2.7356303    1.1333248   569361 
  800000    1.0086445   -2.7368574   -2.7368574   -1.6028916  0.055742347   -2.7368574    1.1339658   569361 
  801000    1.0075465   -2.7347699   -2.7347699   -1.6020386  0.064841024   -2.7347699    1.1327313   569361 
  802000    1.0072261   -2.7338802   -2.7338802   -1.6015091  0.052777201   -2.7338802    1.1323711   569361 
  803000    1.0085292   -2.7346457   -2.7346457   -1.6008096  0.067290611   -2.7346457    1.1338361   569361 
  804000    1.0063965   -2.7329507   -2.7329507   -1.6015124   0.05226844   -2.7329507    1.1314384   569361 
  805000    1.0064718   -2.7324337   -2.7324337   -1.6009106  0.058843501   -2.7324337    1.1315231   569361 
  806000    1.0060436   -2.7325786   -2.7325786   -1.6015369   0.06959724   -2.7325786    1.1310417   569361 
  807000    1.0080876   -2.7352133   -2.7352133   -1.6018737  0.065256173   -2.7352133    1.1333396   569361 
  808000    1.0080021   -2.7362109   -2.7362109   -1.6029673  0.065991865   -2.7362109    1.1332435   569361 
  809000    1.0073517    -2.735061    -2.735061   -1.6025487  0.066077302    -2.735061    1.1325124   569361 
  810000    1.0095724   -2.7377235   -2.7377235   -1.6027146  0.061468241   -2.7377235    1.1350089   569361 
  811000    1.0082485   -2.7361616   -2.7361616   -1.6026411  0.055541334   -2.7361616    1.1335205   569361 
  812000    1.0075721   -2.7348463   -2.7348463   -1.6020862  0.069170511   -2.7348463    1.1327601   569361 
  813000    1.0082438   -2.7354268   -2.7354268   -1.6019115  0.058837263   -2.7354268    1.1335153   569361 
  814000    1.0059282   -2.7331041   -2.7331041   -1.6021922  0.056365112   -2.7331041    1.1309119   569361 
  815000    1.0050318   -2.7327442   -2.7327442     -1.60284  0.058833125   -2.7327442    1.1299042   569361 
  816000     1.007252    -2.734055    -2.734055   -1.6016548   0.05739316    -2.734055    1.1324002   569361 
  817000    1.0069783   -2.7332498   -2.7332498   -1.6011573  0.062502559   -2.7332498    1.1320925   569361 
  818000       1.0067   -2.7337462   -2.7337462   -1.6019666  0.068227028   -2.7337462    1.1317796   569361 
  819000    1.0061202   -2.7335169   -2.7335169    -1.602389  0.065780974   -2.7335169    1.1311278   569361 
  820000    1.0067559    -2.733597    -2.733597   -1.6017545  0.061347652    -2.733597    1.1318425   569361 
  821000    1.0071758   -2.7342555   -2.7342555    -1.601941  0.069361997   -2.7342555    1.1323145   569361 
  822000    1.0061061   -2.7332306   -2.7332306   -1.6021187  0.058279417   -2.7332306     1.131112   569361 
  823000    1.0082346   -2.7353683   -2.7353683   -1.6018634  0.057275752   -2.7353683    1.1335049   569361 
  824000    1.0058196   -2.7327077   -2.7327077   -1.6019178  0.058288089   -2.7327077    1.1307898   569361 
  825000    1.0077593   -2.7340048   -2.7340048   -1.6010342  0.066916588   -2.7340048    1.1329706   569361 
  826000    1.0083216   -2.7352726   -2.7352726   -1.6016699  0.059263439   -2.7352726    1.1336027   569361 
  827000    1.0096552   -2.7366898   -2.7366898   -1.6015879  0.063596833   -2.7366898     1.135102   569361 
  828000    1.0103466   -2.7381145   -2.7381145   -1.6022352  0.068029569   -2.7381145    1.1358793   569361 
  829000    1.0085729   -2.7368955   -2.7368955   -1.6030102  0.057872028   -2.7368955    1.1338853   569361 
  830000    1.0089985   -2.7374526   -2.7374526   -1.6030889  0.077490942   -2.7374526    1.1343637   569361 
  831000    1.0102742     -2.73873     -2.73873   -1.6029321  0.068768637     -2.73873    1.1357979   569361 
  832000    1.0090244   -2.7365387   -2.7365387   -1.6021459  0.062611725   -2.7365387    1.1343928   569361 
  833000    1.0082737   -2.7365733   -2.7365733   -1.6030244  0.066482579   -2.7365733    1.1335489   569361 
  834000     1.007985   -2.7361815   -2.7361815   -1.6029572  0.079651361   -2.7361815    1.1332243   569361 
  835000    1.0075654   -2.7359315   -2.7359315   -1.6031789  0.070289576   -2.7359315    1.1327526   569361 
  836000    1.0072871   -2.7368639   -2.7368639   -1.6044241  0.053517628   -2.7368639    1.1324397   569361 
  837000    1.0083947    -2.738075    -2.738075   -1.6043901  0.059834987    -2.738075    1.1336849   569361 
  838000     1.009232    -2.738774    -2.738774   -1.6041478  0.061892348    -2.738774    1.1346262   569361 
  839000    1.0075738   -2.7373328   -2.7373328   -1.6045707  0.072942036   -2.7373328     1.132762   569361 
  840000     1.006587   -2.7360286   -2.7360286    -1.604376  0.069635152   -2.7360286    1.1316526   569361 
  841000    1.0086764   -2.7386461   -2.7386461   -1.6046445  0.069641341   -2.7386461    1.1340016   569361 
  842000     1.009229   -2.7385319   -2.7385319    -1.603909  0.073590316   -2.7385319    1.1346228   569361 
  843000    1.0082549   -2.7367043   -2.7367043   -1.6031766  0.074181829   -2.7367043    1.1335278   569361 
  844000    1.0085879   -2.7378116   -2.7378116   -1.6039096  0.051878737   -2.7378116    1.1339021   569361 
  845000    1.0078175   -2.7367021   -2.7367021   -1.6036662  0.067010446   -2.7367021    1.1330359   569361 
  846000     1.008496   -2.7375517   -2.7375517   -1.6037529  0.065110065   -2.7375517    1.1337988   569361 
  847000     1.007694   -2.7371758   -2.7371758   -1.6042786   0.06434538   -2.7371758    1.1328972   569361 
  848000    1.0063833    -2.735379    -2.735379   -1.6039554   0.06663123    -2.735379    1.1314236   569361 
  849000    1.0091851   -2.7380905   -2.7380905   -1.6035169  0.049916331   -2.7380905    1.1345735   569361 
  850000    1.0073745   -2.7359329   -2.7359329   -1.6033949   0.07400822   -2.7359329    1.1325379   569361 
  851000    1.0075081   -2.7367644   -2.7367644   -1.6040762  0.061446715   -2.7367644    1.1326882   569361 
  852000    1.0067124   -2.7361773   -2.7361773   -1.6043838   0.06021941   -2.7361773    1.1317935   569361 
  853000    1.0061344   -2.7365759   -2.7365759   -1.6054322  0.047078052   -2.7365759    1.1311437   569361 
  854000    1.0074747   -2.7385438   -2.7385438   -1.6058932  0.058371311   -2.7385438    1.1326506   569361 
  855000    1.0079234   -2.7389426   -2.7389426   -1.6057875  0.062765489   -2.7389426    1.1331551   569361 
  856000    1.0071018   -2.7383695   -2.7383695   -1.6061382  0.069652872   -2.7383695    1.1322313   569361 
  857000    1.0104122   -2.7422303   -2.7422303   -1.6062772   0.06305714   -2.7422303    1.1359531   569361 
  858000    1.0056703   -2.7369789   -2.7369789   -1.6063569  0.067433086   -2.7369789     1.130622   569361 
  859000    1.0073716   -2.7390491   -2.7390491   -1.6065145  0.061511668   -2.7390491    1.1325346   569361 
  860000    1.0079466    -2.739571    -2.739571   -1.6063899  0.073436978    -2.739571    1.1331811   569361 
  861000    1.0073749   -2.7384495   -2.7384495    -1.605911  0.062354849   -2.7384495    1.1325384   569361 
  862000    1.0085992   -2.7392728   -2.7392728    -1.605358  0.059684412   -2.7392728    1.1339148   569361 
  863000    1.0062707   -2.7364273   -2.7364273   -1.6051303  0.064773126   -2.7364273     1.131297   569361 
  864000    1.0069337   -2.7374774   -2.7374774   -1.6054351    0.0633094   -2.7374774    1.1320423   569361 
  865000    1.0057286   -2.7368521   -2.7368521   -1.6061645  0.066934101   -2.7368521    1.1306875   569361 
  866000    1.0083554   -2.7396915   -2.7396915   -1.6060509  0.069984481   -2.7396915    1.1336407   569361 
  867000    1.0070618   -2.7380126   -2.7380126   -1.6058262  0.057112032   -2.7380126    1.1321864   569361 
  868000    1.0077484   -2.7378428   -2.7378428   -1.6048845  0.061730538   -2.7378428    1.1329583   569361 
  869000    1.0065509   -2.7382305   -2.7382305   -1.6066184  0.063613498   -2.7382305     1.131612   569361 
  870000    1.0056575   -2.7363869   -2.7363869   -1.6057793  0.065841515   -2.7363869    1.1306076   569361 
  871000    1.0076952   -2.7381567   -2.7381567   -1.6052583  0.053703384   -2.7381567    1.1328985   569361 
  872000    1.0074732    -2.738703    -2.738703   -1.6060541  0.061160938    -2.738703    1.1326489   569361 
  873000    1.0066422   -2.7376971   -2.7376971   -1.6059825  0.065125955   -2.7376971    1.1317147   569361 
  874000    1.0087181   -2.7407116   -2.7407116   -1.6066631  0.052658859   -2.7407116    1.1340485   569361 
  875000    1.0073024   -2.7391342   -2.7391342   -1.6066773  0.051614664   -2.7391342    1.1324568   569361 
  876000    1.0071492   -2.7389604   -2.7389604   -1.6066758  0.068811136   -2.7389604    1.1322846   569361 
  877000    1.0065032   -2.7386471   -2.7386471   -1.6070887  0.067694968   -2.7386471    1.1315584   569361 
  878000    1.0063122   -2.7393478   -2.7393478   -1.6080041  0.061303251   -2.7393478    1.1313436   569361 
  879000    1.0080511   -2.7413085   -2.7413085     -1.60801  0.058347997   -2.7413085    1.1332986   569361 
  880000    1.0080405   -2.7405065   -2.7405065   -1.6072198  0.065438061   -2.7405065    1.1332867   569361 
  881000    1.0065376   -2.7395403   -2.7395403   -1.6079432  0.064800889   -2.7395403     1.131597   569361 
  882000    1.0062864   -2.7403005   -2.7403005   -1.6089859   0.05793949   -2.7403005    1.1313147   569361 
  883000    1.0055755   -2.7394386   -2.7394386   -1.6089231  0.066235002   -2.7394386    1.1305154   569361 
  884000    1.0064945   -2.7405785   -2.7405785   -1.6090299  0.059696287   -2.7405785    1.1315487   569361 
  885000    1.0082033   -2.7421949   -2.7421949   -1.6087252  0.058032843   -2.7421949    1.1334697   569361 
  886000    1.0056793   -2.7400322   -2.7400322   -1.6094001  0.071804106   -2.7400322    1.1306321   569361 
  887000    1.0070325   -2.7414001   -2.7414001   -1.6092466  0.057267533   -2.7414001    1.1321535   569361 
  888000    1.0052358   -2.7387918   -2.7387918   -1.6086584  0.059802347   -2.7387918    1.1301335   569361 
  889000     1.007196   -2.7404461   -2.7404461   -1.6081088  0.062753475   -2.7404461    1.1323372   569361 
  890000    1.0069282    -2.741971    -2.741971   -1.6099349  0.069674497    -2.741971    1.1320361   569361 
  891000    1.0056886   -2.7405006   -2.7405006   -1.6098581  0.066527994   -2.7405006    1.1306425   569361 
  892000    1.0068121   -2.7415139   -2.7415139   -1.6096083  0.075771588   -2.7415139    1.1319056   569361 
  893000    1.0084466   -2.7433541   -2.7433541   -1.6096108  0.055926539   -2.7433541    1.1337433   569361 
  894000    1.0065666   -2.7419369   -2.7419369   -1.6103073  0.063314736   -2.7419369    1.1316297   569361 
  895000    1.0062553   -2.7407769   -2.7407769   -1.6094973  0.067974653   -2.7407769    1.1312797   569361 
  896000    1.0074677   -2.7425274   -2.7425274   -1.6098847  0.065112785   -2.7425274    1.1326427   569361 
  897000    1.0073662   -2.7424734   -2.7424734   -1.6099448  0.055713878   -2.7424734    1.1325286   569361 
  898000    1.0068155   -2.7410585   -2.7410585    -1.609149  0.066933143   -2.7410585    1.1319095   569361 
  899000     1.006925   -2.7417372   -2.7417372   -1.6097045  0.070221442   -2.7417372    1.1320326   569361 
  900000     1.007371    -2.741586    -2.741586    -1.609052  0.073314128    -2.741586     1.132534   569361 
  901000    1.0085094   -2.7432646   -2.7432646   -1.6094507  0.060781135   -2.7432646    1.1338138   569361 
  902000     1.008712   -2.7436931   -2.7436931   -1.6096514  0.075487658   -2.7436931    1.1340416   569361 
  903000    1.0074244   -2.7413321   -2.7413321   -1.6087381  0.069398102   -2.7413321     1.132594   569361 
  904000    1.0080949   -2.7431236   -2.7431236   -1.6097758  0.067276435   -2.7431236    1.1333478   569361 
  905000    1.0082439   -2.7425014   -2.7425014    -1.608986  0.066168948   -2.7425014    1.1335153   569361 
  906000    1.0070005   -2.7419473   -2.7419473   -1.6098299  0.065267343   -2.7419473    1.1321174   569361 
  907000    1.0074208   -2.7418165   -2.7418165   -1.6092265  0.068876146   -2.7418165      1.13259   569361 
  908000    1.0061437   -2.7408954   -2.7408954   -1.6097412  0.059212027   -2.7408954    1.1311542   569361 
  909000    1.0072726   -2.7429582   -2.7429582   -1.6105348  0.065589056   -2.7429582    1.1324234   569361 
  910000    1.0077256   -2.7431728   -2.7431728   -1.6102401   0.05076883   -2.7431728    1.1329327   569361 
  911000    1.0059771    -2.741195    -2.741195    -1.610228   0.05152287    -2.741195    1.1309669   569361 
  912000    1.0064015   -2.7414638   -2.7414638   -1.6100199  0.067517538   -2.7414638     1.131444   569361 
  913000    1.0062561   -2.7407384   -2.7407384   -1.6094577  0.061359211   -2.7407384    1.1312806   569361 
  914000    1.0069832   -2.7412746   -2.7412746   -1.6091765  0.062114892   -2.7412746    1.1320981   569361 
  915000    1.0054154   -2.7405507   -2.7405507   -1.6102153  0.066845674   -2.7405507    1.1303354   569361 
  916000    1.0069068   -2.7421729   -2.7421729   -1.6101608  0.057660421   -2.7421729    1.1320121   569361 
  917000    1.0063032   -2.7410883   -2.7410883   -1.6097547  0.068655566   -2.7410883    1.1313336   569361 
  918000    1.0059034   -2.7396896   -2.7396896   -1.6088055  0.067297628   -2.7396896    1.1308841   569361 
  919000    1.0082059   -2.7421135   -2.7421135   -1.6086408  0.060317389   -2.7421135    1.1334727   569361 
  920000     1.007789   -2.7412998   -2.7412998   -1.6082959   0.07105184   -2.7412998    1.1330039   569361 
  921000    1.0073388   -2.7410897   -2.7410897    -1.608592  0.073210258   -2.7410897    1.1324978   569361 
  922000    1.0070076   -2.7402833   -2.7402833   -1.6081579  0.063091767   -2.7402833    1.1321255   569361 
  923000    1.0068703   -2.7403836   -2.7403836   -1.6084125  0.064054838   -2.7403836    1.1319711   569361 
  924000    1.0056023   -2.7392506   -2.7392506    -1.608705  0.061476714   -2.7392506    1.1305456   569361 
  925000    1.0057169   -2.7386546   -2.7386546   -1.6079802  0.060276212   -2.7386546    1.1306743   569361 
  926000    1.0068739   -2.7394091   -2.7394091    -1.607434  0.061072398   -2.7394091    1.1319751   569361 
  927000     1.005679   -2.7379828   -2.7379828    -1.607351  0.067271939   -2.7379828    1.1306318   569361 
  928000    1.0076099   -2.7405813   -2.7405813   -1.6077786  0.056862112   -2.7405813    1.1328026   569361 
  929000    1.0062104   -2.7400311   -2.7400311   -1.6088018   0.05623461   -2.7400311    1.1312292   569361 
  930000     1.006446   -2.7407731   -2.7407731    -1.609279  0.059286594   -2.7407731    1.1314941   569361 
  931000    1.0072313   -2.7413147   -2.7413147   -1.6089378  0.062175752   -2.7413147    1.1323769   569361 
  932000    1.0072585   -2.7416464   -2.7416464   -1.6092389   0.06115171   -2.7416464    1.1324076   569361 
  933000    1.0061253   -2.7409946   -2.7409946   -1.6098611  0.063750011   -2.7409946    1.1311336   569361 
  934000    1.0063214   -2.7407911   -2.7407911   -1.6094371  0.064548313   -2.7407911     1.131354   569361 
  935000    1.0074634    -2.742057    -2.742057   -1.6094192  0.059869538    -2.742057    1.1326378   569361 
  936000    1.0045791   -2.7396215   -2.7396215   -1.6102263  0.057778376   -2.7396215    1.1293952   569361 
  937000    1.0040049    -2.738788    -2.738788   -1.6100383  0.061288537    -2.738788    1.1287496   569361 
  938000    1.0062564   -2.7413899   -2.7413899    -1.610109  0.057378882   -2.7413899    1.1312809   569361 
  939000    1.0054448   -2.7400437   -2.7400437   -1.6096752   0.05484059   -2.7400437    1.1303685   569361 
  940000    1.0051526   -2.7399788   -2.7399788   -1.6099388  0.064693289   -2.7399788      1.13004   569361 
  941000    1.0061696   -2.7416891   -2.7416891   -1.6105058  0.071192256   -2.7416891    1.1311833   569361 
  942000    1.0036755   -2.7390786   -2.7390786   -1.6106992  0.064296891   -2.7390786    1.1283794   569361 
  943000    1.0068591   -2.7429013   -2.7429013   -1.6109427  0.052617837   -2.7429013    1.1319585   569361 
  944000    1.0068505   -2.7425609   -2.7425609   -1.6106121  0.055012037   -2.7425609    1.1319488   569361 
  945000    1.0060111   -2.7424978   -2.7424978   -1.6114926  0.065522359   -2.7424978    1.1310052   569361 
  946000    1.0080745   -2.7452442   -2.7452442   -1.6119193  0.054818479   -2.7452442    1.1333249   569361 
  947000    1.0085109   -2.7456228   -2.7456228   -1.6118072  0.056814868   -2.7456228    1.1338156   569361 
  948000    1.0079899   -2.7458273   -2.7458273   -1.6125975  0.062664218   -2.7458273    1.1332298   569361 
  949000    1.0085906   -2.7470522   -2.7470522    -1.613147  0.060094116   -2.7470522    1.1339052   569361 
  950000    1.0070383   -2.7444311   -2.7444311   -1.6122711    0.0678074   -2.7444311    1.1321599   569361 
  951000    1.0079383   -2.7463848   -2.7463848    -1.613213  0.047925212   -2.7463848    1.1331718   569361 
  952000    1.0056816   -2.7440356   -2.7440356   -1.6134009  0.066070408   -2.7440356    1.1306347   569361 
  953000     1.005964   -2.7444592   -2.7444592    -1.613507  0.046396494   -2.7444592    1.1309522   569361 
  954000    1.0052666   -2.7426274   -2.7426274   -1.6124593  0.066962529   -2.7426274    1.1301681   569361 
  955000    1.0077979   -2.7452866   -2.7452866   -1.6122726   0.05869835   -2.7452866     1.133014   569361 
  956000    1.0046843   -2.7418304   -2.7418304   -1.6123169  0.066488091   -2.7418304    1.1295135   569361 
  957000    1.0057396   -2.7436256   -2.7436256   -1.6129257  0.059927173   -2.7436256    1.1306999   569361 
  958000     1.006477   -2.7444639   -2.7444639    -1.612935  0.064054257   -2.7444639    1.1315289   569361 
  959000     1.005606   -2.7427893   -2.7427893   -1.6122397  0.062953323   -2.7427893    1.1305497   569361 
  960000    1.0062793   -2.7428691   -2.7428691   -1.6115624  0.058706053   -2.7428691    1.1313067   569361 
  961000     1.005263    -2.742576    -2.742576   -1.6124119  0.070878623    -2.742576    1.1301641   569361 
  962000    1.0039178   -2.7408393   -2.7408393   -1.6121875  0.068076796   -2.7408393    1.1286518   569361 
  963000    1.0049935   -2.7427654   -2.7427654   -1.6129043  0.058305846   -2.7427654    1.1298611   569361 
  964000    1.0041312     -2.74232     -2.74232   -1.6134283  0.055352644     -2.74232    1.1288917   569361 
  965000    1.0054905   -2.7439691   -2.7439691   -1.6135492  0.056781649   -2.7439691    1.1304199   569361 
  966000    1.0079908   -2.7467159   -2.7467159   -1.6134851  0.055857772   -2.7467159    1.1332308   569361 
  967000    1.0063274   -2.7448342   -2.7448342   -1.6134734  0.056288666   -2.7448342    1.1313608   569361 
  968000    1.0037735   -2.7422264   -2.7422264   -1.6137368   0.06144629   -2.7422264    1.1284895   569361 
  969000    1.0075033   -2.7463052   -2.7463052   -1.6136225  0.072646754   -2.7463052    1.1326828   569361 
  970000     1.005884   -2.7447939   -2.7447939   -1.6139317  0.066472926   -2.7447939    1.1308622   569361 
  971000    1.0075012   -2.7459599   -2.7459599   -1.6132795   0.06234173   -2.7459599    1.1326804   569361 
  972000    1.0061612   -2.7448843   -2.7448843   -1.6137104   0.06641824   -2.7448843    1.1311739   569361 
  973000    1.0059308   -2.7442946   -2.7442946   -1.6133798   0.06010646   -2.7442946    1.1309148   569361 
  974000    1.0053792   -2.7439995   -2.7439995   -1.6137048  0.046367047   -2.7439995    1.1302947   569361 
  975000    1.0069308   -2.7452368   -2.7452368   -1.6131977  0.063133442   -2.7452368    1.1320391   569361 
  976000    1.0069807   -2.7452832   -2.7452832    -1.613188  0.058394273   -2.7452832    1.1320952   569361 
  977000    1.0051669   -2.7444319   -2.7444319   -1.6143758  0.050753272   -2.7444319    1.1300561   569361 
  978000    1.0043922   -2.7433324   -2.7433324   -1.6141473  0.069527297   -2.7433324    1.1291851   569361 
  979000     1.006842   -2.7457873   -2.7457873    -1.613848  0.067378994   -2.7457873    1.1319393   569361 
  980000    1.0070897   -2.7466226   -2.7466226   -1.6144049  0.055186753   -2.7466226    1.1322177   569361 
  981000    1.0054408     -2.74527     -2.74527    -1.614906  0.056380408     -2.74527     1.130364   569361 
  982000    1.0065918   -2.7473011   -2.7473011   -1.6156431  0.063200121   -2.7473011     1.131658   569361 
  983000    1.0063875   -2.7477631   -2.7477631   -1.6163348  0.062017744   -2.7477631    1.1314283   569361 
  984000    1.0079051   -2.7485034   -2.7485034   -1.6153689  0.057727211   -2.7485034    1.1331344   569361 
  985000    1.0079029   -2.7485074   -2.7485074   -1.6153754  0.059866774   -2.7485074     1.133132   569361 
  986000    1.0082149   -2.7500478   -2.7500478   -1.6165651  0.060589759   -2.7500478    1.1334827   569361 
  987000    1.0076289   -2.7487201   -2.7487201   -1.6158962  0.065615455   -2.7487201    1.1328239   569361 
  988000    1.0063398   -2.7475519   -2.7475519   -1.6161773  0.055083289   -2.7475519    1.1313747   569361 
  989000    1.0076449   -2.7489394   -2.7489394   -1.6160975  0.061883715   -2.7489394     1.132842   569361 
  990000    1.0084044   -2.7495093   -2.7495093   -1.6158135    0.0727429   -2.7495093    1.1336958   569361 
  991000    1.0067651   -2.7474558   -2.7474558   -1.6156029  0.068226754   -2.7474558    1.1318529   569361 
  992000    1.0058311   -2.7455441   -2.7455441   -1.6147413  0.069515123   -2.7455441    1.1308028   569361 
  993000     1.006019   -2.7468569   -2.7468569   -1.6158429   0.06656439   -2.7468569     1.131014   569361 
  994000    1.0071071    -2.747303    -2.747303   -1.6150657  0.054953007    -2.747303    1.1322373   569361 
  995000    1.0058338   -2.7450796   -2.7450796   -1.6142737  0.074466639   -2.7450796    1.1308058   569361 
  996000    1.0081971   -2.7485184   -2.7485184   -1.6150557  0.072755016   -2.7485184    1.1334627   569361 
  997000    1.0073311   -2.7470128   -2.7470128   -1.6145236   0.05736201   -2.7470128    1.1324891   569361 
  998000    1.0081029   -2.7480658   -2.7480658    -1.614709  0.062385392   -2.7480658    1.1333569   569361 
  999000    1.0055679   -2.7456684   -2.7456684   -1.6151616  0.050847406   -2.7456684    1.1305068   569361 
 1000000    1.0066001   -2.7461485   -2.7461485   -1.6144812   0.06060931   -2.7461485    1.1316673   569361 
 1001000    1.0070041   -2.7468508   -2.7468508   -1.6147292  0.060187196   -2.7468508    1.1321216   569361 
 1002000     1.007441   -2.7475763   -2.7475763   -1.6149636  0.068393414   -2.7475763    1.1326127   569361 
 1003000    1.0096134   -2.7504785   -2.7504785   -1.6154235   0.06388118   -2.7504785     1.135055   569361 
 1004000    1.0085588   -2.7498486   -2.7498486   -1.6159792  0.072562335   -2.7498486    1.1338694   569361 
 1005000    1.0076924   -2.7491694   -2.7491694   -1.6162741  0.060316964   -2.7491694    1.1328954   569361 
 1006000    1.0082244   -2.7497463   -2.7497463   -1.6162529  0.067953821   -2.7497463    1.1334934   569361 
 1007000      1.00845   -2.7507887   -2.7507887   -1.6170416  0.066596009   -2.7507887     1.133747   569361 
 1008000    1.0055221   -2.7473882   -2.7473882   -1.6169328   0.07498427   -2.7473882    1.1304554   569361 
 1009000    1.0035144   -2.7446297   -2.7446297   -1.6164315  0.053826355   -2.7446297    1.1281983   569361 
 1010000    1.0042075   -2.7448042   -2.7448042   -1.6158267  0.063331718   -2.7448042    1.1289775   569361 
 1011000    1.0055929   -2.7468822   -2.7468822   -1.6163472  0.048546656   -2.7468822     1.130535   569361 
 1012000    1.0066329   -2.7481621   -2.7481621   -1.6164579  0.060304152   -2.7481621    1.1317043   569361 
 1013000    1.0049829   -2.7466996   -2.7466996   -1.6168504  0.059194536   -2.7466996    1.1298492   569361 
 1014000    1.0066879   -2.7480094   -2.7480094   -1.6162434   0.06811541   -2.7480094     1.131766   569361 
 1015000    1.0038095    -2.745097    -2.745097    -1.616567  0.058033042    -2.745097      1.12853   569361 
 1016000    1.0061091   -2.7478405   -2.7478405   -1.6167252  0.062871051   -2.7478405    1.1311153   569361 
 1017000    1.0054834   -2.7473963   -2.7473963   -1.6169845  0.064867381   -2.7473963    1.1304119   569361 
 1018000    1.0055962   -2.7478222   -2.7478222   -1.6172835   0.05248058   -2.7478222    1.1305387   569361 
 1019000    1.0071471   -2.7497775   -2.7497775   -1.6174952   0.06107529   -2.7497775    1.1322822   569361 
 1020000    1.0068121   -2.7485898   -2.7485898   -1.6166842  0.065488484   -2.7485898    1.1319056   569361 
 1021000    1.0062028    -2.748147    -2.748147   -1.6169263  0.062931026    -2.748147    1.1312207   569361 
 1022000    1.0055865   -2.7482247   -2.7482247   -1.6176969  0.068419342   -2.7482247    1.1305278   569361 
 1023000    1.0058821   -2.7478211   -2.7478211    -1.616961  0.070817206   -2.7478211    1.1308601   569361 
 1024000    1.0065107   -2.7489556   -2.7489556   -1.6173888  0.063123259   -2.7489556    1.1315669   569361 
 1025000    1.0064075   -2.7487897   -2.7487897    -1.617339  0.057733955   -2.7487897    1.1314507   569361 
 1026000    1.0057082   -2.7484788   -2.7484788   -1.6178142  0.047312848   -2.7484788    1.1306646   569361 
 1027000    1.0044712   -2.7473056   -2.7473056   -1.6180317  0.047749865   -2.7473056    1.1292739   569361 
 1028000    1.0048556   -2.7479105   -2.7479105   -1.6182044  0.061035988   -2.7479105    1.1297061   569361 
 1029000    1.0036814   -2.7458128   -2.7458128   -1.6174269  0.072848964   -2.7458128    1.1283859   569361 
 1030000    1.0042995   -2.7462006   -2.7462006   -1.6171197  0.056387053   -2.7462006    1.1290809   569361 
 1031000    1.0055433   -2.7483252   -2.7483252    -1.617846  0.056457033   -2.7483252    1.1304792   569361 
 1032000    1.0067785   -2.7492833   -2.7492833   -1.6174154  0.051799304   -2.7492833    1.1318679   569361 
 1033000    1.0052319   -2.7475036   -2.7475036   -1.6173745  0.057670945   -2.7475036    1.1301291   569361 
 1034000    1.0063659   -2.7491142   -2.7491142   -1.6177102  0.065457389   -2.7491142     1.131404   569361 
 1035000    1.0063211   -2.7485309   -2.7485309   -1.6171772  0.062696052   -2.7485309    1.1313537   569361 
 1036000    1.0052596    -2.747661    -2.747661   -1.6175008  0.061888044    -2.747661    1.1301603   569361 
 1037000    1.0050594   -2.7479957   -2.7479957   -1.6180605  0.064852094   -2.7479957    1.1299351   569361 
 1038000    1.0065754   -2.7495566   -2.7495566   -1.6179171  0.062138998   -2.7495566    1.1316395   569361 
 1039000     1.007117   -2.7494665   -2.7494665   -1.6172181  0.056841778   -2.7494665    1.1322484   569361 
 1040000    1.0063744   -2.7497978   -2.7497978   -1.6183842  0.068407435   -2.7497978    1.1314136   569361 
 1041000    1.0055748   -2.7488934   -2.7488934   -1.6183788  0.062269804   -2.7488934    1.1305146   569361 
 1042000    1.0071057   -2.7499462   -2.7499462   -1.6177105  0.054639189   -2.7499462    1.1322357   569361 
 1043000    1.0068754   -2.7502468   -2.7502468   -1.6182699  0.060846282   -2.7502468    1.1319769   569361 
 1044000     1.007801    -2.750497    -2.750497   -1.6174795  0.058948667    -2.750497    1.1330175   569361 
 1045000    1.0065362   -2.7496227   -2.7496227   -1.6180272  0.063616377   -2.7496227    1.1315955   569361 
 1046000    1.0059466   -2.7497878   -2.7497878   -1.6188552  0.058633431   -2.7497878    1.1309326   569361 
 1047000    1.0051768   -2.7479294   -2.7479294   -1.6178623   0.06828258   -2.7479294    1.1300672   569361 
 1048000    1.0051418   -2.7487034   -2.7487034   -1.6186755  0.060399853   -2.7487034    1.1300279   569361 
 1049000    1.0059789   -2.7500566   -2.7500566   -1.6190877  0.056480796   -2.7500566    1.1309689   569361 
 1050000     1.005049   -2.7488758   -2.7488758   -1.6189523   0.06003513   -2.7488758    1.1299235   569361 
 1051000     1.005923   -2.7497587   -2.7497587   -1.6188527  0.063715068   -2.7497587    1.1309061   569361 
 1052000    1.0051733   -2.7473277   -2.7473277   -1.6172644  0.073561786   -2.7473277    1.1300633   569361 
 1053000    1.0069154   -2.7493079   -2.7493079   -1.6172861   0.06153181   -2.7493079    1.1320218   569361 
 1054000    1.0056209   -2.7480501   -2.7480501   -1.6174837  0.064006706   -2.7480501    1.1305664   569361 
 1055000    1.0059972    -2.748075    -2.748075   -1.6170854  0.052972877    -2.748075    1.1309895   569361 
 1056000    1.0062647   -2.7487282   -2.7487282   -1.6174379  0.061493047   -2.7487282    1.1312903   569361 
 1057000    1.0054633   -2.7480027   -2.7480027   -1.6176133  0.070655576   -2.7480027    1.1303893   569361 
 1058000    1.0055497   -2.7478257   -2.7478257   -1.6173392  0.052039534   -2.7478257    1.1304864   569361 
 1059000    1.0041955   -2.7476082   -2.7476082   -1.6186443  0.068489533   -2.7476082     1.128964   569361 
 1060000    1.0042911   -2.7477901   -2.7477901   -1.6187187  0.059122219   -2.7477901    1.1290714   569361 
 1061000    1.0051053   -2.7480748   -2.7480748    -1.618088  0.050742264   -2.7480748    1.1299867   569361 
 1062000    1.0052425   -2.7488446   -2.7488446   -1.6187035  0.064623935   -2.7488446     1.130141   569361 
 1063000    1.0066131   -2.7509956   -2.7509956   -1.6193136  0.056687623   -2.7509956     1.131682   569361 
 1064000    1.0062838   -2.7517486   -2.7517486   -1.6204369  0.060116971   -2.7517486    1.1313117   569361 
 1065000    1.0052865   -2.7515192   -2.7515192   -1.6213288  0.053877594   -2.7515192    1.1301905   569361 
 1066000    1.0037745   -2.7492768   -2.7492768   -1.6207861  0.054367766   -2.7492768    1.1284907   569361 
 1067000    1.0049154   -2.7500202   -2.7500202   -1.6202469  0.058282388   -2.7500202    1.1297733   569361 
 1068000    1.0062425    -2.751572    -2.751572   -1.6203067  0.063341909    -2.751572    1.1312653   569361 
 1069000    1.0054965    -2.750389    -2.750389   -1.6199624  0.068938309    -2.750389    1.1304266   569361 
 1070000    1.0069927   -2.7519952   -2.7519952   -1.6198864  0.054135911   -2.7519952    1.1321087   569361 
 1071000    1.0061493   -2.7514229   -2.7514229   -1.6202623  0.053932459   -2.7514229    1.1311605   569361 
 1072000    1.0047462   -2.7513041   -2.7513041   -1.6217211  0.065993607   -2.7513041    1.1295831   569361 
 1073000    1.0049452   -2.7503242   -2.7503242   -1.6205174  0.064694292   -2.7503242    1.1298068   569361 
 1074000     1.004718   -2.7502058   -2.7502058   -1.6206544  0.055201606   -2.7502058    1.1295514   569361 
 1075000    1.0041234   -2.7503082   -2.7503082   -1.6214252  0.064082279   -2.7503082    1.1288829   569361 
 1076000    1.0041893   -2.7502888   -2.7502888   -1.6213318  0.063559911   -2.7502888     1.128957   569361 
 1077000    1.0041176   -2.7500503   -2.7500503    -1.621174  0.056369443   -2.7500503    1.1288763   569361 
 1078000    1.0049351    -2.750563    -2.750563   -1.6207675  0.066185829    -2.750563    1.1297955   569361 
 1079000    1.0050886   -2.7511127   -2.7511127   -1.6211446  0.057591745   -2.7511127     1.129968   569361 
 1080000    1.0038032   -2.7498681   -2.7498681   -1.6213452  0.063195864   -2.7498681    1.1285229   569361 
 1081000    1.0046325   -2.7510805   -2.7510805   -1.6216252  0.065443021   -2.7510805    1.1294552   569361 
 1082000    1.0049425    -2.751294    -2.751294   -1.6214902   0.05781246    -2.751294    1.1298038   569361 
 1083000    1.0036455   -2.7508584   -2.7508584   -1.6225127  0.065458452   -2.7508584    1.1283457   569361 
 1084000    1.0057278    -2.752872    -2.752872   -1.6221855  0.061151005    -2.752872    1.1306866   569361 
 1085000    1.0048894   -2.7514033   -2.7514033   -1.6216591   0.07127313   -2.7514033    1.1297441   569361 
 1086000     1.005514   -2.7523396   -2.7523396   -1.6218933  0.060591671   -2.7523396    1.1304463   569361 
 1087000    1.0050007   -2.7526814   -2.7526814   -1.6228123  0.062980437   -2.7526814    1.1298692   569361 
 1088000    1.0029323   -2.7505519   -2.7505519   -1.6230081  0.057529787   -2.7505519    1.1275438   569361 
 1089000     1.002665   -2.7503949   -2.7503949   -1.6231517  0.064472703   -2.7503949    1.1272433   569361 
 1090000    1.0046741   -2.7519442   -2.7519442   -1.6224422  0.067474127   -2.7519442     1.129502   569361 
 1091000    1.0046011   -2.7519395   -2.7519395   -1.6225195  0.056263677   -2.7519395      1.12942   569361 
 1092000    1.0061049   -2.7535829   -2.7535829   -1.6224723  0.049335703   -2.7535829    1.1311106   569361 
 1093000       1.0035   -2.7509191   -2.7509191    -1.622737  0.072551353   -2.7509191    1.1281821   569361 
 1094000    1.0038079   -2.7509347   -2.7509347   -1.6224065  0.053875887   -2.7509347    1.1285282   569361 
 1095000     1.007119   -2.7531641   -2.7531641   -1.6209134  0.072644682   -2.7531641    1.1322507   569361 
 1096000    1.0070267   -2.7532532   -2.7532532   -1.6211063  0.062156101   -2.7532532    1.1321469   569361 
 1097000    1.0056502   -2.7519678   -2.7519678   -1.6213684  0.068394854   -2.7519678    1.1305994   569361 
 1098000      1.00474   -2.7512001   -2.7512001    -1.621624  0.076258042   -2.7512001    1.1295761   569361 
 1099000    1.0055747   -2.7521859   -2.7521859   -1.6216714  0.063037355   -2.7521859    1.1305145   569361 
 1100000    1.0063296   -2.7531128   -2.7531128   -1.6217496  0.064893585   -2.7531128    1.1313632   569361 
 1101000    1.0070314   -2.7535652   -2.7535652    -1.621413  0.068891701   -2.7535652    1.1321522   569361 
 1102000    1.0052313   -2.7510511   -2.7510511   -1.6209226  0.059949989   -2.7510511    1.1301285   569361 
 1103000    1.0052793   -2.7509455   -2.7509455   -1.6207631  0.064013844   -2.7509455    1.1301824   569361 
 1104000    1.0041652   -2.7493897   -2.7493897   -1.6204599  0.054031582   -2.7493897    1.1289298   569361 
 1105000    1.0031017   -2.7485288   -2.7485288   -1.6207945  0.057218077   -2.7485288    1.1277343   569361 
 1106000    1.0055488   -2.7503304   -2.7503304    -1.619845  0.058319649   -2.7503304    1.1304854   569361 
 1107000    1.0056151   -2.7499491   -2.7499491   -1.6193891  0.062780814   -2.7499491      1.13056   569361 
 1108000    1.0048502   -2.7495877   -2.7495877   -1.6198877  0.051270182   -2.7495877       1.1297   569361 
 1109000    1.0035765   -2.7481199   -2.7481199   -1.6198519  0.060990525   -2.7481199     1.128268   569361 
 1110000    1.0044471   -2.7493741   -2.7493741   -1.6201272  0.060021842   -2.7493741    1.1292469   569361 
 1111000    1.0051458   -2.7493986   -2.7493986   -1.6193662  0.059604551   -2.7493986    1.1300324   569361 
 1112000     1.002902   -2.7469544   -2.7469544   -1.6194446  0.061618429   -2.7469544    1.1275098   569361 
 1113000     1.005078   -2.7496917   -2.7496917   -1.6197356  0.052133756   -2.7496917    1.1299561   569361 
 1114000    1.0051676    -2.748316    -2.748316   -1.6182592  0.058911776    -2.748316    1.1300569   569361 
 1115000    1.0043689   -2.7483956   -2.7483956   -1.6192366  0.056533583   -2.7483956     1.129159   569361 
 1116000    1.0046419   -2.7486446   -2.7486446   -1.6191788   0.06120964   -2.7486446    1.1294658   569361 
 1117000    1.0065065   -2.7497268   -2.7497268   -1.6181648  0.063909835   -2.7497268     1.131562   569361 
 1118000    1.0055529   -2.7491243   -2.7491243   -1.6186343  0.066074265   -2.7491243      1.13049   569361 
 1119000    1.0064281   -2.7500146   -2.7500146   -1.6185406  0.072186112   -2.7500146     1.131474   569361 
 1120000    1.0068797   -2.7513932   -2.7513932   -1.6194116  0.075921629   -2.7513932    1.1319817   569361 
 1121000    1.0085151   -2.7527921   -2.7527921   -1.6189719  0.054593177   -2.7527921    1.1338202   569361 
 1122000    1.0056042   -2.7494005   -2.7494005   -1.6188528  0.056225921   -2.7494005    1.1305477   569361 
 1123000    1.0045207   -2.7485722   -2.7485722   -1.6192426  0.067467154   -2.7485722    1.1293296   569361 
 1124000    1.0044107    -2.749188    -2.749188   -1.6199822  0.066681288    -2.749188    1.1292059   569361 
 1125000    1.0047183   -2.7491861   -2.7491861   -1.6196344  0.058601455   -2.7491861    1.1295517   569361 
 1126000    1.0038649   -2.7479649   -2.7479649   -1.6193726   0.05679027   -2.7479649    1.1285923   569361 
 1127000    1.0053805   -2.7499503   -2.7499503   -1.6196541  0.061538986   -2.7499503    1.1302962   569361 
 1128000    1.0051461   -2.7497573   -2.7497573   -1.6197246  0.051771638   -2.7497573    1.1300327   569361 
 1129000    1.0045517   -2.7497802   -2.7497802   -1.6204158  0.054270177   -2.7497802    1.1293644   569361 
 1130000    1.0052042   -2.7503286   -2.7503286   -1.6202306   0.06142844   -2.7503286    1.1300979   569361 
 1131000    1.0059307   -2.7518905   -2.7518905   -1.6209757    0.0583556   -2.7518905    1.1309148   569361 
 1132000    1.0046472   -2.7513367   -2.7513367   -1.6218649  0.061907628   -2.7513367    1.1294718   569361 
 1133000    1.0060381   -2.7526408   -2.7526408   -1.6216053  0.060292392   -2.7526408    1.1310355   569361 
 1134000     1.006598   -2.7531898   -2.7531898   -1.6215248  0.057197051   -2.7531898     1.131665   569361 
 1135000    1.0062362   -2.7516271   -2.7516271   -1.6203688  0.072303497   -2.7516271    1.1312582   569361 
 1136000    1.0061119   -2.7518409   -2.7518409   -1.6207224  0.061215724   -2.7518409    1.1311185   569361 
 1137000      1.00506   -2.7506376   -2.7506376   -1.6207018  0.075599706   -2.7506376    1.1299358   569361 
 1138000    1.0045106    -2.750419    -2.750419   -1.6211008  0.060397447    -2.750419    1.1293182   569361 
 1139000    1.0048169   -2.7506642   -2.7506642   -1.6210017  0.061649924   -2.7506642    1.1296625   569361 
 1140000    1.0058601   -2.7517158   -2.7517158   -1.6208804  0.058318875   -2.7517158    1.1308354   569361 
 1141000    1.0032204   -2.7491892   -2.7491892   -1.6213216   0.05404667   -2.7491892    1.1278677   569361 
 1142000    1.0039297   -2.7495813   -2.7495813   -1.6209162  0.054661583   -2.7495813    1.1286651   569361 
 1143000    1.0047836   -2.7507721   -2.7507721   -1.6211469  0.062129795   -2.7507721    1.1296251   569361 
 1144000    1.0055567   -2.7521287   -2.7521287   -1.6216344  0.069305963   -2.7521287    1.1304943   569361 
 1145000    1.0050797   -2.7506261   -2.7506261   -1.6206681   0.05121899   -2.7506261     1.129958   569361 
 1146000    1.0062604   -2.7527443   -2.7527443   -1.6214589  0.064466605   -2.7527443    1.1312855   569361 
 1147000    1.0045522   -2.7516541   -2.7516541   -1.6222891  0.066642729   -2.7516541     1.129365   569361 
 1148000    1.0055923   -2.7524168   -2.7524168   -1.6218824  0.068497133   -2.7524168    1.1305344   569361 
 1149000    1.0044956   -2.7502629   -2.7502629   -1.6209616   0.06803023   -2.7502629    1.1293013   569361 
 1150000    1.0063507   -2.7519126   -2.7519126   -1.6205256  0.068711992   -2.7519126    1.1313869   569361 
 1151000     1.007403   -2.7529005   -2.7529005   -1.6203305  0.055516876   -2.7529005      1.13257   569361 
 1152000    1.0073169   -2.7535338   -2.7535338   -1.6210606  0.064638214   -2.7535338    1.1324732   569361 
 1153000    1.0076611   -2.7539312   -2.7539312    -1.621071   0.06467695   -2.7539312    1.1328602   569361 
 1154000    1.0071027   -2.7526219   -2.7526219   -1.6203896  0.055167612   -2.7526219    1.1322323   569361 
 1155000    1.0050786   -2.7508071   -2.7508071   -1.6208503  0.064695611   -2.7508071    1.1299567   569361 
 1156000    1.0072094    -2.752926    -2.752926   -1.6205736  0.063246217    -2.752926    1.1323524   569361 
 1157000    1.0064694   -2.7524358   -2.7524358   -1.6209154  0.063436553   -2.7524358    1.1315204   569361 
 1158000    1.0062325   -2.7531196   -2.7531196   -1.6218656  0.063649612   -2.7531196     1.131254   569361 
 1159000    1.0054374   -2.7524155   -2.7524155   -1.6220553  0.071653247   -2.7524155    1.1303602   569361 
 1160000    1.0057927   -2.7523547   -2.7523547   -1.6215951  0.066542072   -2.7523547    1.1307596   569361 
 1161000     1.004798   -2.7510357   -2.7510357   -1.6213943  0.077058885   -2.7510357    1.1296413   569361 
 1162000     1.004977   -2.7527052   -2.7527052   -1.6228626  0.061817049   -2.7527052    1.1298426   569361 
 1163000    1.0055646   -2.7539232   -2.7539232     -1.62342  0.066050765   -2.7539232    1.1305031   569361 
 1164000    1.0057705   -2.7538365   -2.7538365   -1.6231018  0.063648042   -2.7538365    1.1307347   569361 
 1165000    1.0054227   -2.7534908   -2.7534908   -1.6231471  0.068552765   -2.7534908    1.1303437   569361 
 1166000    1.0039939   -2.7525251   -2.7525251   -1.6237877  0.063107224   -2.7525251    1.1287373   569361 
 1167000    1.0050136   -2.7536558   -2.7536558   -1.6237721  0.065415232   -2.7536558    1.1298837   569361 
 1168000    1.0063978   -2.7549379   -2.7549379   -1.6234981  0.062780001   -2.7549379    1.1314399   569361 
 1169000    1.0037693    -2.752644    -2.752644   -1.6241592  0.043705318    -2.752644    1.1284848   569361 
 1170000    1.0035928   -2.7516008   -2.7516008   -1.6233144  0.060163121   -2.7516008    1.1282864   569361 
 1171000     1.003865    -2.752259    -2.752259   -1.6236666  0.063262565    -2.752259    1.1285924   569361 
 1172000    1.0043397   -2.7527891   -2.7527891    -1.623663  0.052134059   -2.7527891    1.1291261   569361 
 1173000    1.0040662    -2.752708    -2.752708   -1.6238894  0.061495174    -2.752708    1.1288186   569361 
 1174000    1.0047473    -2.753925    -2.753925   -1.6243407  0.058411644    -2.753925    1.1295843   569361 
 1175000    1.0046894   -2.7536696   -2.7536696   -1.6241503  0.063205717   -2.7536696    1.1295193   569361 
 1176000    1.0051737   -2.7541166   -2.7541166   -1.6240529  0.057391782   -2.7541166    1.1300637   569361 
 1177000    1.0057259   -2.7548817   -2.7548817   -1.6241972  0.054636982   -2.7548817    1.1306845   569361 
 1178000    1.0048548   -2.7530602   -2.7530602    -1.623355  0.062954468   -2.7530602    1.1297051   569361 
 1179000    1.0056466   -2.7543402   -2.7543402   -1.6237448  0.065646886   -2.7543402    1.1305954   569361 
 1180000    1.0057863   -2.7542552   -2.7542552   -1.6235028  0.055157108   -2.7542552    1.1307524   569361 
 1181000     1.004079   -2.7528715   -2.7528715   -1.6240385  0.061543762   -2.7528715     1.128833   569361 
 1182000    1.0064523   -2.7555992   -2.7555992    -1.624098   0.05924774   -2.7555992    1.1315011   569361 
 1183000    1.0056951    -2.755238    -2.755238   -1.6245882  0.057556424    -2.755238    1.1306498   569361 
 1184000    1.0050876   -2.7541946   -2.7541946   -1.6242277  0.063666647   -2.7541946    1.1299669   569361 
 1185000      1.00558   -2.7548526   -2.7548526    -1.624332  0.072104352   -2.7548526    1.1305205   569361 
 1186000    1.0051085   -2.7546428   -2.7546428   -1.6246524  0.061278151   -2.7546428    1.1299904   569361 
 1187000    1.0067869   -2.7560855   -2.7560855   -1.6242081  0.053919841   -2.7560855    1.1318773   569361 
 1188000    1.0066089   -2.7559564   -2.7559564   -1.6242791  0.067361883   -2.7559564    1.1316772   569361 
 1189000    1.0071781   -2.7559886   -2.7559886   -1.6236715  0.072875197   -2.7559886    1.1323172   569361 
 1190000     1.007173   -2.7562259   -2.7562259   -1.6239145  0.065226669   -2.7562259    1.1323114   569361 
 1191000    1.0065739   -2.7561831   -2.7561831   -1.6245452  0.062815467   -2.7561831    1.1316379   569361 
 1192000    1.0070681   -2.7562608   -2.7562608   -1.6240673  0.066548825   -2.7562608    1.1321934   569361 
 1193000    1.0053316   -2.7538998   -2.7538998   -1.6236585  0.061141386   -2.7538998    1.1302413   569361 
 1194000    1.0044985   -2.7537347   -2.7537347   -1.6244302  0.068642623   -2.7537347    1.1293046   569361 
 1195000    1.0061315   -2.7557015   -2.7557015   -1.6245609   0.05910524   -2.7557015    1.1311406   569361 
 1196000     1.004487   -2.7542717   -2.7542717     -1.62498  0.056342135   -2.7542717    1.1292917   569361 
 1197000    1.0050643   -2.7546802   -2.7546802   -1.6247396  0.057767492   -2.7546802    1.1299407   569361 
 1198000    1.0055321   -2.7546644   -2.7546644   -1.6241978  0.057868808   -2.7546644    1.1304666   569361 
 1199000    1.0053521   -2.7556747   -2.7556747   -1.6254105  0.064341246   -2.7556747    1.1302643   569361 
 1200000    1.0052468   -2.7570518   -2.7570518   -1.6269059  0.056712095   -2.7570518    1.1301459   569361 
 1201000    1.0045397   -2.7547111   -2.7547111   -1.6253601  0.064124913   -2.7547111     1.129351   569361 
 1202000    1.0045009   -2.7537856   -2.7537856   -1.6244783  0.060112441   -2.7537856    1.1293073   569361 
 1203000    1.0048583     -2.75444     -2.75444   -1.6247309  0.063979081     -2.75444    1.1297091   569361 
 1204000    1.0043997   -2.7546952   -2.7546952   -1.6255016  0.058630622   -2.7546952    1.1291935   569361 
 1205000    1.0059842   -2.7564002   -2.7564002   -1.6254253  0.065892841   -2.7564002    1.1309749   569361 
 1206000    1.0055372   -2.7554939   -2.7554939   -1.6250215  0.066600388   -2.7554939    1.1304724   569361 
 1207000    1.0060384   -2.7554066   -2.7554066   -1.6243708   0.06992679   -2.7554066    1.1310358   569361 
 1208000    1.0061717   -2.7548662   -2.7548662   -1.6236806  0.074349253   -2.7548662    1.1311857   569361 
 1209000    1.0047342   -2.7541522   -2.7541522   -1.6245826  0.054086588   -2.7541522    1.1295696   569361 
 1210000    1.0051859   -2.7549023   -2.7549023   -1.6248249  0.056074851   -2.7549023    1.1300774   569361 
 1211000    1.0060249   -2.7548491   -2.7548491   -1.6238285  0.070725387   -2.7548491    1.1310206   569361 
 1212000    1.0060189   -2.7552829   -2.7552829    -1.624269  0.063440125   -2.7552829    1.1310139   569361 
 1213000    1.0056328   -2.7547677   -2.7547677   -1.6241879  0.054213952   -2.7547677    1.1305798   569361 
 1214000     1.005245   -2.7541618   -2.7541618   -1.6240179  0.058090412   -2.7541618    1.1301439   569361 
 1215000    1.0064126   -2.7551016   -2.7551016   -1.6236451  0.060083433   -2.7551016    1.1314565   569361 
 1216000    1.0060452   -2.7553063   -2.7553063   -1.6242628  0.066669689   -2.7553063    1.1310434   569361 
 1217000    1.0057108   -2.7549672   -2.7549672   -1.6242997  0.065700513   -2.7549672    1.1306675   569361 
 1218000    1.0059047   -2.7548759   -2.7548759   -1.6239904  0.062962043   -2.7548759    1.1308855   569361 
 1219000    1.0054793   -2.7544971   -2.7544971   -1.6240898  0.064818539   -2.7544971    1.1304073   569361 
 1220000    1.0051937   -2.7544146   -2.7544146   -1.6243284  0.058139748   -2.7544146    1.1300861   569361 
 1221000    1.0039409   -2.7538045   -2.7538045   -1.6251267  0.068457637   -2.7538045    1.1286778   569361 
 1222000    1.0049123   -2.7544778   -2.7544778    -1.624708  0.052001884   -2.7544778    1.1297698   569361 
 1223000    1.0053423   -2.7547375   -2.7547375   -1.6244843  0.069128512   -2.7547375    1.1302533   569361 
 1224000    1.0074334   -2.7572056   -2.7572056   -1.6246014  0.057838308   -2.7572056    1.1326042   569361 
 1225000    1.0057999   -2.7550958   -2.7550958   -1.6243281  0.050107146   -2.7550958    1.1307677   569361 
 1226000    1.0052039   -2.7551536   -2.7551536    -1.625056  0.056913683   -2.7551536    1.1300976   569361 
 1227000    1.0048511   -2.7552392   -2.7552392   -1.6255382   0.06961806   -2.7552392     1.129701   569361 
 1228000    1.0069752   -2.7569055   -2.7569055   -1.6248166  0.058900757   -2.7569055     1.132089   569361 
 1229000    1.0073861   -2.7580457   -2.7580457   -1.6254948  0.070797346   -2.7580457     1.132551   569361 
 1230000    1.0063456   -2.7565323   -2.7565323   -1.6251512  0.061651175   -2.7565323    1.1313812   569361 
 1231000    1.0075605   -2.7574258   -2.7574258   -1.6246787  0.062000279   -2.7574258    1.1327471   569361 
 1232000    1.0049284   -2.7549738   -2.7549738   -1.6251859  0.068504229   -2.7549738     1.129788   569361 
 1233000    1.0053412   -2.7551438   -2.7551438   -1.6248919  0.058268857   -2.7551438     1.130252   569361 
 1234000     1.005107    -2.755104    -2.755104   -1.6251153  0.067932692    -2.755104    1.1299887   569361 
 1235000    1.0056239   -2.7562118   -2.7562118    -1.625642  0.067301627   -2.7562118    1.1305698   569361 
 1236000      1.00496   -2.7557803   -2.7557803   -1.6259569  0.055177521   -2.7557803    1.1298234   569361 
 1237000    1.0047721   -2.7550452   -2.7550452    -1.625433  0.071678661   -2.7550452    1.1296122   569361 
 1238000     1.005099   -2.7558789   -2.7558789   -1.6258992  0.050605549   -2.7558789    1.1299798   569361 
 1239000    1.0040779   -2.7550054   -2.7550054   -1.6261737  0.060718256   -2.7550054    1.1288317   569361 
 1240000    1.0048584   -2.7549508   -2.7549508   -1.6252416  0.059989912   -2.7549508    1.1297092   569361 
 1241000     1.003853   -2.7547479   -2.7547479    -1.626169  0.061810525   -2.7547479    1.1285789   569361 
 1242000    1.0048702   -2.7557417   -2.7557417   -1.6260192  0.064005354   -2.7557417    1.1297225   569361 
 1243000    1.0049593   -2.7561637   -2.7561637   -1.6263411   0.05918783   -2.7561637    1.1298226   569361 
 1244000    1.0048552   -2.7565181   -2.7565181   -1.6268125  0.061741406   -2.7565181    1.1297056   569361 
 1245000     1.004859   -2.7562194   -2.7562194   -1.6265095   0.05954417   -2.7562194    1.1297099   569361 
 1246000    1.0072341   -2.7588883   -2.7588883   -1.6265082  0.058712841   -2.7588883    1.1323801   569361 
 1247000    1.0063953   -2.7579001   -2.7579001    -1.626463   0.05568672   -2.7579001    1.1314371   569361 
 1248000    1.0067431   -2.7577082   -2.7577082   -1.6258802  0.057321864   -2.7577082     1.131828   569361 
 1249000    1.0072844   -2.7588599   -2.7588599   -1.6264233  0.069174204   -2.7588599    1.1324366   569361 
 1250000    1.0061821   -2.7570422   -2.7570422   -1.6258448  0.057236851   -2.7570422    1.1311974   569361 
 1251000     1.006777   -2.7582559   -2.7582559   -1.6263897  0.072430659   -2.7582559    1.1318662   569361 
 1252000    1.0072033   -2.7581844   -2.7581844   -1.6258388  0.065566035   -2.7581844    1.1323455   569361 
 1253000    1.0069425   -2.7583675   -2.7583675   -1.6263153  0.063279208   -2.7583675    1.1320522   569361 
 1254000    1.0060421   -2.7579085   -2.7579085   -1.6268685  0.071214213   -2.7579085      1.13104   569361 
 1255000    1.0063212   -2.7583127   -2.7583127   -1.6269589  0.050258699   -2.7583127    1.1313538   569361 
 1256000    1.0039804   -2.7562491   -2.7562491    -1.627527  0.055830753   -2.7562491    1.1287222   569361 
 1257000    1.0038633   -2.7561627   -2.7561627   -1.6275722   0.06558198   -2.7561627    1.1285905   569361 
 1258000    1.0049685   -2.7581876   -2.7581876   -1.6283545  0.060841832   -2.7581876    1.1298331   569361 
 1259000    1.0050101   -2.7575987   -2.7575987   -1.6277189  0.056720293   -2.7575987    1.1298798   569361 
 1260000    1.0047266   -2.7576642   -2.7576642   -1.6281032  0.051460239   -2.7576642    1.1295611   569361 
 1261000    1.0033153   -2.7558789   -2.7558789   -1.6279045  0.052617715   -2.7558789    1.1279744   569361 
 1262000    1.0029911   -2.7556569   -2.7556569    -1.628047  0.065329855   -2.7556569    1.1276099   569361 
 1263000    1.0046709   -2.7566586   -2.7566586   -1.6271602  0.048428255   -2.7566586    1.1294984   569361 
 1264000    1.0040287   -2.7560038   -2.7560038   -1.6272275   0.05582078   -2.7560038    1.1287764   569361 
 1265000      1.00486   -2.7572572   -2.7572572   -1.6275461  0.066211863   -2.7572572    1.1297111   569361 
 1266000    1.0037141   -2.7562589   -2.7562589   -1.6278361  0.061774218   -2.7562589    1.1284228   569361 
 1267000    1.0059629   -2.7581357   -2.7581357   -1.6271848  0.065872771   -2.7581357     1.130951   569361 
 1268000    1.0046748   -2.7561609   -2.7561609   -1.6266581  0.067755728   -2.7561609    1.1295028   569361 
 1269000    1.0058083    -2.757268    -2.757268   -1.6264909    0.0626347    -2.757268    1.1307771   569361 
 1270000    1.0057857   -2.7581366   -2.7581366   -1.6273848  0.059042709   -2.7581366    1.1307518   569361 
 1271000    1.0054779    -2.757783    -2.757783   -1.6273773  0.055670059    -2.757783    1.1304058   569361 
 1272000    1.0059587   -2.7587694   -2.7587694   -1.6278232  0.066536205   -2.7587694    1.1309462   569361 
 1273000    1.0055743   -2.7585538   -2.7585538   -1.6280397   0.06545025   -2.7585538    1.1305141   569361 
 1274000     1.006139   -2.7588911   -2.7588911   -1.6277422  0.059978917   -2.7588911    1.1311489   569361 
 1275000    1.0071753   -2.7603222   -2.7603222   -1.6280083  0.051753962   -2.7603222     1.132314   569361 
 1276000    1.0069652   -2.7608164   -2.7608164   -1.6287386  0.074008309   -2.7608164    1.1320778   569361 
 1277000    1.0060842   -2.7601507   -2.7601507   -1.6290635  0.062755434   -2.7601507    1.1310873   569361 
 1278000    1.0064801   -2.7600409   -2.7600409   -1.6285085  0.072677137   -2.7600409    1.1315324   569361 
 1279000    1.0053251   -2.7588157   -2.7588157   -1.6285818  0.069999909   -2.7588157     1.130234   569361 
 1280000    1.0057835   -2.7596154   -2.7596154   -1.6288661  0.072710786   -2.7596154    1.1307493   569361 
 1281000    1.0053649   -2.7586783   -2.7586783   -1.6283996   0.06559477   -2.7586783    1.1302787   569361 
 1282000    1.0059298   -2.7589638   -2.7589638   -1.6280501  0.069663726   -2.7589638    1.1309137   569361 
 1283000    1.0050366   -2.7585094   -2.7585094   -1.6285997  0.061634529   -2.7585094    1.1299096   569361 
 1284000     1.004811   -2.7582777   -2.7582777   -1.6286218  0.066265449   -2.7582777    1.1296559   569361 
 1285000    1.0050416   -2.7594623   -2.7594623   -1.6295472  0.069560515   -2.7594623    1.1299151   569361 
 1286000    1.0044826   -2.7590339   -2.7590339   -1.6297472  0.050328864   -2.7590339    1.1292867   569361 
 1287000     1.005069   -2.7589276   -2.7589276   -1.6289816  0.058471254   -2.7589276     1.129946   569361 
 1288000    1.0043348   -2.7582019   -2.7582019   -1.6290814   0.05932558   -2.7582019    1.1291205   569361 
 1289000    1.0047516   -2.7592592   -2.7592592     -1.62967   0.04421452   -2.7592592    1.1295892   569361 
 1290000    1.0054606   -2.7596644   -2.7596644   -1.6292781  0.052489462   -2.7596644    1.1303863   569361 
 1291000    1.0069998   -2.7622298   -2.7622298   -1.6301131  0.068890682   -2.7622298    1.1321167   569361 
 1292000    1.0062415   -2.7617859   -2.7617859   -1.6305217  0.059561073   -2.7617859    1.1312642   569361 
 1293000    1.0046257   -2.7602279   -2.7602279   -1.6307802  0.065941793   -2.7602279    1.1294477   569361 
 1294000    1.0060516   -2.7610178   -2.7610178   -1.6299671  0.057668085   -2.7610178    1.1310507   569361 
 1295000    1.0061884   -2.7613288   -2.7613288   -1.6301244  0.059938793   -2.7613288    1.1312044   569361 
 1296000    1.0038628   -2.7584367   -2.7584367   -1.6298467  0.056232208   -2.7584367    1.1285899   569361 
 1297000    1.0033938   -2.7586533   -2.7586533   -1.6305906  0.058268152   -2.7586533    1.1280627   569361 
 1298000    1.0052414   -2.7601733   -2.7601733   -1.6300336  0.054512454   -2.7601733    1.1301398   569361 
 1299000    1.0043374   -2.7599781   -2.7599781   -1.6308546  0.060549052   -2.7599781    1.1291235   569361 
 1300000    1.0053485    -2.761221    -2.761221   -1.6309608  0.063403793    -2.761221    1.1302602   569361 
 1301000    1.0054306   -2.7612718   -2.7612718   -1.6309193  0.064561387   -2.7612718    1.1303525   569361 
 1302000    1.0037657   -2.7591506   -2.7591506   -1.6306698  0.065959453   -2.7591506    1.1284808   569361 
 1303000    1.0059787   -2.7618617   -2.7618617    -1.630893  0.061049981   -2.7618617    1.1309687   569361 
 1304000    1.0048067   -2.7603478   -2.7603478   -1.6306967  0.056841188   -2.7603478    1.1296511   569361 
 1305000    1.0056642   -2.7615947   -2.7615947   -1.6309795  0.067357076   -2.7615947    1.1306152   569361 
 1306000    1.0067189   -2.7611513   -2.7611513   -1.6293504  0.067121299   -2.7611513    1.1318009   569361 
 1307000    1.0067019   -2.7608045   -2.7608045   -1.6290227  0.058182432   -2.7608045    1.1317817   569361 
 1308000      1.00804   -2.7629778   -2.7629778   -1.6296917  0.065400103   -2.7629778    1.1332861   569361 
 1309000    1.0070472   -2.7615134   -2.7615134   -1.6293435  0.065991654   -2.7615134      1.13217   569361 
 1310000    1.0076937   -2.7625749   -2.7625749   -1.6296781  0.056984068   -2.7625749    1.1328968   569361 
 1311000    1.0074689   -2.7630092   -2.7630092   -1.6303651  0.055311995   -2.7630092    1.1326441   569361 
 1312000    1.0051521   -2.7615266   -2.7615266   -1.6314872  0.075257964   -2.7615266    1.1300394   569361 
 1313000    1.0053785   -2.7618066   -2.7618066   -1.6315126  0.057385841   -2.7618066     1.130294   569361 
 1314000    1.0073694      -2.7644      -2.7644   -1.6318678  0.055087127      -2.7644    1.1325322   569361 
 1315000    1.0058504   -2.7627307   -2.7627307   -1.6319063   0.06474696   -2.7627307    1.1308244   569361 
 1316000    1.0052879   -2.7631035   -2.7631035   -1.6329114  0.065387009   -2.7631035    1.1301921   569361 
 1317000    1.0038547   -2.7617521   -2.7617521   -1.6331713  0.058672625   -2.7617521    1.1285809   569361 
 1318000    1.0063961   -2.7642908   -2.7642908   -1.6328529  0.068363627   -2.7642908    1.1314379   569361 
 1319000    1.0068973    -2.763779    -2.763779   -1.6317775  0.055518457    -2.763779    1.1320015   569361 
 1320000     1.006177   -2.7625553   -2.7625553   -1.6313636  0.076837693   -2.7625553    1.1311917   569361 
 1321000    1.0045442   -2.7615165   -2.7615165   -1.6321605  0.059897498   -2.7615165     1.129356   569361 
 1322000     1.006452    -2.762352    -2.762352   -1.6308512  0.065752065    -2.762352    1.1315008   569361 
 1323000    1.0053383   -2.7612352   -2.7612352   -1.6309864  0.067220432   -2.7612352    1.1302488   569361 
 1324000     1.005675   -2.7617964   -2.7617964    -1.631169  0.064314455   -2.7617964    1.1306273   569361 
 1325000    1.0048864    -2.761307    -2.761307   -1.6315663   0.06509217    -2.761307    1.1297407   569361 
 1326000    1.0059173   -2.7629639   -2.7629639   -1.6320641   0.06082309   -2.7629639    1.1308997   569361 
 1327000    1.0039619   -2.7609816   -2.7609816   -1.6322802  0.064041275   -2.7609816    1.1287014   569361 
 1328000    1.0041083   -2.7611708   -2.7611708   -1.6323048  0.065795429   -2.7611708     1.128866   569361 
 1329000    1.0039429   -2.7610824   -2.7610824   -1.6324024  0.068175968   -2.7610824      1.12868   569361 
 1330000    1.0039117   -2.7601447   -2.7601447   -1.6314998  0.054582797   -2.7601447    1.1286449   569361 
 1331000    1.0043319   -2.7603256   -2.7603256   -1.6312083  0.061318731   -2.7603256    1.1291173   569361 
 1332000    1.0034622   -2.7591224   -2.7591224   -1.6309829  0.056235959   -2.7591224    1.1281395   569361 
 1333000    1.0041861   -2.7597186   -2.7597186   -1.6307653  0.059404717   -2.7597186    1.1289534   569361 
 1334000    1.0047187   -2.7607399   -2.7607399   -1.6311877  0.059228461   -2.7607399    1.1295522   569361 
 1335000    1.0061679   -2.7626334   -2.7626334    -1.631452   0.05788296   -2.7626334    1.1311814   569361 
 1336000    1.0046803   -2.7609733   -2.7609733   -1.6314643  0.064499474   -2.7609733     1.129509   569361 
 1337000    1.0042652    -2.759834    -2.759834   -1.6307917  0.064205487    -2.759834    1.1290423   569361 
 1338000    1.0052433   -2.7610339   -2.7610339   -1.6308919  0.063982005   -2.7610339    1.1301419   569361 
 1339000    1.0061979   -2.7614274   -2.7614274   -1.6302122  0.065655981   -2.7614274    1.1312152   569361 
 1340000    1.0051396   -2.7604635   -2.7604635   -1.6304381  0.055098737   -2.7604635    1.1300254   569361 
 1341000    1.0050113   -2.7595499   -2.7595499   -1.6296687  0.060253692   -2.7595499    1.1298812   569361 
 1342000    1.0051762   -2.7598397   -2.7598397   -1.6297733  0.067224673   -2.7598397    1.1300665   569361 
 1343000    1.0062749   -2.7620797   -2.7620797    -1.630778   0.06412053   -2.7620797    1.1313017   569361 
 1344000    1.0045067   -2.7600038   -2.7600038     -1.63069  0.066668117   -2.7600038    1.1293138   569361 
 1345000    1.0050459   -2.7613016   -2.7613016   -1.6313816  0.055352477   -2.7613016    1.1299201   569361 
 1346000     1.005431   -2.7616491   -2.7616491   -1.6312961  0.067631443   -2.7616491     1.130353   569361 
 1347000    1.0053233   -2.7617597   -2.7617597   -1.6315278  0.057655167   -2.7617597    1.1302319   569361 
 1348000    1.0053567   -2.7618665   -2.7618665    -1.631597  0.062364232   -2.7618665    1.1302695   569361 
 1349000    1.0048675   -2.7611276   -2.7611276   -1.6314082   0.06186405   -2.7611276    1.1297194   569361 
 1350000    1.0046941   -2.7604666   -2.7604666    -1.630942  0.059342795   -2.7604666    1.1295245   569361 
 1351000    1.0056239   -2.7614744   -2.7614744   -1.6309046  0.061132749   -2.7614744    1.1305698   569361 
 1352000    1.0038225   -2.7595957   -2.7595957   -1.6310512  0.057276565   -2.7595957    1.1285446   569361 
 1353000    1.0047507   -2.7605469   -2.7605469   -1.6309588  0.066036418   -2.7605469    1.1295881   569361 
 1354000     1.005146   -2.7611204   -2.7611204   -1.6310878  0.059951518   -2.7611204    1.1300326   569361 
 1355000    1.0052622   -2.7605852   -2.7605852    -1.630422  0.065224136   -2.7605852    1.1301632   569361 
 1356000    1.0063543    -2.761626    -2.761626    -1.630235  0.068465081    -2.761626     1.131391   569361 
 1357000    1.0060395   -2.7612285   -2.7612285   -1.6301914  0.056073942   -2.7612285    1.1310371   569361 
 1358000    1.0045014   -2.7600565   -2.7600565   -1.6307486  0.069391145   -2.7600565    1.1293079   569361 
 1359000    1.0051838    -2.761688    -2.761688   -1.6316129  0.064770494    -2.761688    1.1300751   569361 
 1360000     1.004981   -2.7619183   -2.7619183   -1.6320712  0.059631821   -2.7619183    1.1298471   569361 
 1361000    1.0047775   -2.7616972   -2.7616972   -1.6320789  0.063666953   -2.7616972    1.1296183   569361 
 1362000    1.0057692   -2.7621645   -2.7621645   -1.6314313  0.057984993   -2.7621645    1.1307332   569361 
 1363000     1.006002    -2.762491    -2.762491   -1.6314962  0.054796233    -2.762491    1.1309949   569361 
 1364000    1.0049597   -2.7612193   -2.7612193   -1.6313962  0.060670254   -2.7612193    1.1298231   569361 
 1365000    1.0050227   -2.7627041   -2.7627041   -1.6328102  0.059745596   -2.7627041     1.129894   569361 
 1366000    1.0052463   -2.7624408   -2.7624408   -1.6322955  0.070316515   -2.7624408    1.1301453   569361 
 1367000    1.0070584   -2.7640139   -2.7640139   -1.6318313  0.056407136   -2.7640139    1.1321826   569361 
 1368000    1.0056546   -2.7638554   -2.7638554    -1.633251  0.058836649   -2.7638554    1.1306044   569361 
 1369000    1.0077012   -2.7666163   -2.7666163   -1.6337111  0.054792124   -2.7666163    1.1329053   569361 
 1370000    1.0051647   -2.7633718   -2.7633718   -1.6333182  0.058576786   -2.7633718    1.1300536   569361 
 1371000    1.0053084   -2.7629092   -2.7629092    -1.632694  0.063342327   -2.7629092    1.1302151   569361 
 1372000    1.0061243   -2.7629499   -2.7629499   -1.6318175  0.062762145   -2.7629499    1.1311324   569361 
 1373000    1.0057684   -2.7626727   -2.7626727   -1.6319404  0.067407854   -2.7626727    1.1307323   569361 
 1374000    1.0049344   -2.7617944   -2.7617944   -1.6319997  0.066352774   -2.7617944    1.1297947   569361 
 1375000    1.0055341   -2.7619615   -2.7619615   -1.6314927  0.074099651   -2.7619615    1.1304688   569361 
 1376000    1.0065767   -2.7636753   -2.7636753   -1.6320344  0.062676486   -2.7636753     1.131641   569361 
 1377000    1.0076079   -2.7655779   -2.7655779   -1.6327777  0.061722463   -2.7655779    1.1328003   569361 
 1378000    1.0049274   -2.7634767   -2.7634767   -1.6336899  0.069305068   -2.7634767    1.1297869   569361 
 1379000    1.0043027   -2.7622484   -2.7622484   -1.6331639  0.061033223   -2.7622484    1.1290845   569361 
 1380000    1.0034265   -2.7612704   -2.7612704   -1.6331711  0.056428763   -2.7612704    1.1280994   569361 
 1381000    1.0044501    -2.763677    -2.763677   -1.6344268  0.058592752    -2.763677    1.1292502   569361 
 1382000    1.0052049   -2.7640179   -2.7640179   -1.6339191  0.068584201   -2.7640179    1.1300988   569361 
 1383000    1.0042043   -2.7627742   -2.7627742   -1.6338003  0.059135593   -2.7627742    1.1289739   569361 
 1384000    1.0036535   -2.7628323   -2.7628323   -1.6344777  0.055401944   -2.7628323    1.1283546   569361 
 1385000    1.0049836   -2.7636707   -2.7636707   -1.6338207  0.061166766   -2.7636707      1.12985   569361 
 1386000     1.004671   -2.7645535   -2.7645535   -1.6350549  0.059725102   -2.7645535    1.1294986   569361 
 1387000     1.005001   -2.7653525   -2.7653525   -1.6354829  0.052737798   -2.7653525    1.1298696   569361 
 1388000    1.0049914   -2.7657509   -2.7657509   -1.6358921  0.061263493   -2.7657509    1.1298588   569361 
 1389000    1.0052188   -2.7649201   -2.7649201   -1.6348058  0.062803672   -2.7649201    1.1301144   569361 
 1390000    1.0053588    -2.765062    -2.765062   -1.6347902  0.062711382    -2.765062    1.1302719   569361 
 1391000    1.0068325   -2.7664881   -2.7664881   -1.6345595  0.050837862   -2.7664881    1.1319286   569361 
 1392000    1.0054377   -2.7659243   -2.7659243   -1.6355638  0.062618421   -2.7659243    1.1303605   569361 
 1393000    1.0043868   -2.7647516   -2.7647516   -1.6355725  0.059085937   -2.7647516     1.129179   569361 
 1394000    1.0043203   -2.7649937   -2.7649937   -1.6358894  0.058478704   -2.7649937    1.1291043   569361 
 1395000    1.0050912   -2.7656251   -2.7656251   -1.6356542  0.055193151   -2.7656251    1.1299709   569361 
 1396000    1.0044286   -2.7658478   -2.7658478   -1.6366217  0.066258263   -2.7658478    1.1292261   569361 
 1397000    1.0045653   -2.7657718   -2.7657718   -1.6363921  0.062127297   -2.7657718    1.1293797   569361 
 1398000    1.0049802   -2.7671489   -2.7671489   -1.6373028  0.073489564   -2.7671489    1.1298461   569361 
 1399000    1.0046301   -2.7670269   -2.7670269   -1.6375743   0.07637348   -2.7670269    1.1294526   569361 
 1400000     1.004568   -2.7672859   -2.7672859   -1.6379032  0.062522111   -2.7672859    1.1293827   569361 
 1401000    1.0045101   -2.7669238   -2.7669238   -1.6376061   0.06458191   -2.7669238    1.1293177   569361 
 1402000     1.002665   -2.7653227   -2.7653227   -1.6380794  0.067153878   -2.7653227    1.1272434   569361 
 1403000    1.0047729   -2.7666726   -2.7666726   -1.6370596  0.062322952   -2.7666726    1.1296131   569361 
 1404000    1.0042969   -2.7662661   -2.7662661   -1.6371882  0.061427173   -2.7662661    1.1290779   569361 
 1405000    1.0044933   -2.7652435   -2.7652435   -1.6359447  0.068828983   -2.7652435    1.1292988   569361 
 1406000    1.0045387   -2.7650325   -2.7650325   -1.6356827  0.051285428   -2.7650325    1.1293498   569361 
 1407000    1.0045283   -2.7652387   -2.7652387   -1.6359006  0.062145504   -2.7652387    1.1293382   569361 
 1408000    1.0040845   -2.7647041   -2.7647041   -1.6358649  0.067270628   -2.7647041    1.1288392   569361 
 1409000    1.0035042   -2.7646022   -2.7646022   -1.6364155  0.065363168   -2.7646022    1.1281867   569361 
 1410000     1.004787    -2.765388    -2.765388    -1.635759  0.064932918    -2.765388     1.129629   569361 
 1411000     1.006307   -2.7671833   -2.7671833   -1.6358456   0.04604722   -2.7671833    1.1313378   569361 
 1412000    1.0059519    -2.766905    -2.766905   -1.6359664  0.056767741    -2.766905    1.1309386   569361 
 1413000    1.0051205   -2.7655679   -2.7655679    -1.635564  0.058623378   -2.7655679    1.1300039   569361 
 1414000    1.0045301   -2.7652177   -2.7652177   -1.6358776  0.067058736   -2.7652177    1.1293401   569361 
 1415000      1.00458   -2.7658358   -2.7658358   -1.6364396  0.059782563   -2.7658358    1.1293962   569361 
 1416000    1.0056303   -2.7671932   -2.7671932   -1.6366163  0.066203034   -2.7671932     1.130577   569361 
 1417000    1.0065559    -2.767591    -2.767591   -1.6359734  0.067090892    -2.767591    1.1316176   569361 
 1418000    1.0042901   -2.7659479   -2.7659479   -1.6368775  0.058104832   -2.7659479    1.1290703   569361 
 1419000    1.0041976   -2.7661973   -2.7661973    -1.637231  0.058404845   -2.7661973    1.1289664   569361 
 1420000    1.0045375   -2.7651552   -2.7651552   -1.6358068  0.066388233   -2.7651552    1.1293484   569361 
 1421000    1.0049668   -2.7652255   -2.7652255   -1.6353944  0.063960696   -2.7652255     1.129831   569361 
 1422000    1.0047072   -2.7649086   -2.7649086   -1.6353694  0.059672238   -2.7649086    1.1295393   569361 
 1423000    1.0047208   -2.7656977   -2.7656977   -1.6361431  0.053512307   -2.7656977    1.1295546   569361 
 1424000    1.0043254   -2.7647239   -2.7647239   -1.6356139  0.056083461   -2.7647239      1.12911   569361 
 1425000    1.0035789     -2.76317     -2.76317   -1.6348993  0.061649577     -2.76317    1.1282707   569361 
 1426000    1.0049099   -2.7651811   -2.7651811    -1.635414   0.05615114   -2.7651811    1.1297672   569361 
 1427000    1.0046715   -2.7650162   -2.7650162   -1.6355171  0.063726184   -2.7650162    1.1294991   569361 
 1428000     1.006575     -2.76744     -2.76744   -1.6358009  0.056242901     -2.76744    1.1316391   569361 
 1429000    1.0041644   -2.7650649   -2.7650649   -1.6361359  0.072388615   -2.7650649     1.128929   569361 
 1430000    1.0028871   -2.7638984   -2.7638984   -1.6364054  0.053016927   -2.7638984     1.127493   569361 
 1431000    1.0049648   -2.7665598   -2.7665598   -1.6367309  0.057296767   -2.7665598    1.1298289   569361 
 1432000    1.0044944    -2.765929    -2.765929   -1.6366291  0.057060404    -2.765929       1.1293   569361 
 1433000    1.0052766   -2.7662989   -2.7662989   -1.6361195  0.066141786   -2.7662989    1.1301794   569361 
 1434000    1.0051836   -2.7663882   -2.7663882   -1.6363133  0.066958465   -2.7663882    1.1300748   569361 
 1435000    1.0058144   -2.7672525   -2.7672525   -1.6364685  0.062464198   -2.7672525     1.130784   569361 
 1436000    1.0050575    -2.766903    -2.766903   -1.6369699  0.057544653    -2.766903    1.1299331   569361 
 1437000    1.0065462   -2.7685042   -2.7685042   -1.6368975   0.06173368   -2.7685042    1.1316068   569361 
 1438000    1.0031096   -2.7645623   -2.7645623   -1.6368192  0.061016271   -2.7645623    1.1277431   569361 
 1439000     1.004335    -2.766274    -2.766274   -1.6371532  0.051018054    -2.766274    1.1291208   569361 
 1440000    1.0050174   -2.7666562   -2.7666562   -1.6367683  0.068181841   -2.7666562     1.129888   569361 
 1441000    1.0043665   -2.7665184   -2.7665184   -1.6373622  0.055338169   -2.7665184    1.1291562   569361 
 1442000    1.0034473   -2.7649002   -2.7649002   -1.6367775  0.055569019   -2.7649002    1.1281228   569361 
 1443000    1.0050158   -2.7652902   -2.7652902    -1.635404  0.065905603   -2.7652902    1.1298862   569361 
 1444000    1.0056313     -2.76652     -2.76652   -1.6359419   0.06253116     -2.76652    1.1305781   569361 
 1445000    1.0073874   -2.7683454   -2.7683454    -1.635793  0.062850707   -2.7683454    1.1325525   569361 
 1446000    1.0078318   -2.7690117   -2.7690117   -1.6359597  0.062134739   -2.7690117     1.133052   569361 
 1447000    1.0060271   -2.7675033   -2.7675033   -1.6364802  0.062768498   -2.7675033    1.1310231   569361 
 1448000    1.0060226   -2.7690294   -2.7690294   -1.6380113  0.056315952   -2.7690294     1.131018   569361 
 1449000    1.0056005   -2.7687065   -2.7687065    -1.638163    0.0706402   -2.7687065    1.1305436   569361 
 1450000    1.0071281   -2.7702888   -2.7702888   -1.6380278  0.061677531   -2.7702888     1.132261   569361 
 1451000     1.006521   -2.7690622   -2.7690622   -1.6374838  0.070745269   -2.7690622    1.1315784   569361 
 1452000     1.004456   -2.7675085   -2.7675085   -1.6382517  0.063283729   -2.7675085    1.1292569   569361 
 1453000    1.0059187   -2.7689999   -2.7689999   -1.6380986  0.065177055   -2.7689999    1.1309013   569361 
 1454000    1.0056629   -2.7685488   -2.7685488   -1.6379351  0.066407914   -2.7685488    1.1306137   569361 
 1455000    1.0049413    -2.767576    -2.767576   -1.6377735  0.074361031    -2.767576    1.1298025   569361 
 1456000    1.0045424   -2.7672671   -2.7672671   -1.6379132  0.073127055   -2.7672671    1.1293539   569361 
 1457000    1.0052173   -2.7680642   -2.7680642   -1.6379515  0.061274984   -2.7680642    1.1301127   569361 
 1458000    1.0038572   -2.7672246   -2.7672246    -1.638641  0.057668583   -2.7672246    1.1285836   569361 
 1459000    1.0042514   -2.7672419   -2.7672419   -1.6382151   0.06104077   -2.7672419    1.1290268   569361 
 1460000    1.0045714   -2.7676481   -2.7676481   -1.6382615  0.055207458   -2.7676481    1.1293866   569361 
 1461000    1.0049024   -2.7678143   -2.7678143   -1.6380555   0.06036816   -2.7678143    1.1297587   569361 
 1462000    1.0044049   -2.7672998   -2.7672998   -1.6381004  0.061685804   -2.7672998    1.1291994   569361 
 1463000    1.0039276   -2.7671062   -2.7671062   -1.6384435   0.04058996   -2.7671062    1.1286627   569361 
 1464000    1.0048559   -2.7678347   -2.7678347   -1.6381283  0.057498334   -2.7678347    1.1297064   569361 
 1465000    1.0036112    -2.765379    -2.765379   -1.6370719  0.071085063    -2.765379    1.1283071   569361 
 1466000    1.0053352   -2.7676932   -2.7676932   -1.6374479  0.060919347   -2.7676932    1.1302453   569361 
 1467000     1.004498   -2.7672606   -2.7672606   -1.6379565  0.058505202   -2.7672606    1.1293041   569361 
 1468000    1.0046641   -2.7677096   -2.7677096   -1.6382188  0.068366734   -2.7677096    1.1294907   569361 
 1469000    1.0050732   -2.7689406   -2.7689406   -1.6389898  0.065909631   -2.7689406    1.1299508   569361 
 1470000    1.0057106   -2.7693565   -2.7693565   -1.6386892  0.064047035   -2.7693565    1.1306673   569361 
 1471000     1.003711   -2.7670067   -2.7670067   -1.6385874  0.071014826   -2.7670067    1.1284192   569361 
 1472000    1.0047715   -2.7678991   -2.7678991   -1.6382876  0.069026433   -2.7678991    1.1296115   569361 
 1473000    1.0048423   -2.7681002   -2.7681002   -1.6384091  0.059389336   -2.7681002    1.1296911   569361 
 1474000    1.0049128   -2.7682118   -2.7682118   -1.6384414  0.053112279   -2.7682118    1.1297704   569361 
 1475000    1.0034806    -2.767429    -2.767429   -1.6392688  0.066973001    -2.767429    1.1281602   569361 
 1476000    1.0058206   -2.7687057   -2.7687057   -1.6379147  0.058820052   -2.7687057     1.130791   569361 
 1477000    1.0050145   -2.7670516   -2.7670516   -1.6371668  0.070009252   -2.7670516    1.1298848   569361 
 1478000    1.0064076   -2.7688207   -2.7688207   -1.6373698  0.063764309   -2.7688207    1.1314509   569361 
 1479000    1.0050077   -2.7671223   -2.7671223   -1.6372452  0.072227929   -2.7671223    1.1298771   569361 
 1480000    1.0046837   -2.7673853   -2.7673853   -1.6378725  0.065213712   -2.7673853    1.1295128   569361 
 1481000    1.0056658   -2.7687617   -2.7687617   -1.6381448  0.059672686   -2.7687617     1.130617   569361 
 1482000    1.0055243   -2.7678105   -2.7678105   -1.6373527  0.055308509   -2.7678105    1.1304578   569361 
 1483000    1.0043864   -2.7673892   -2.7673892   -1.6382106  0.068393513   -2.7673892    1.1291786   569361 
 1484000    1.0046689   -2.7680842   -2.7680842    -1.638588  0.059208634   -2.7680842    1.1294962   569361 
 1485000    1.0050769    -2.769123    -2.769123   -1.6391681  0.059944399    -2.769123    1.1299548   569361 
 1486000    1.0047823   -2.7685169   -2.7685169   -1.6388932  0.064319725   -2.7685169    1.1296237   569361 
 1487000    1.0044483   -2.7691759   -2.7691759   -1.6399277  0.067438409   -2.7691759    1.1292482   569361 
 1488000    1.0036171   -2.7688477   -2.7688477   -1.6405341  0.064714074   -2.7688477    1.1283136   569361 
 1489000    1.0057386   -2.7700232   -2.7700232   -1.6393244  0.053834413   -2.7700232    1.1306988   569361 
 1490000    1.0042994   -2.7693606   -2.7693606   -1.6402798  0.057624615   -2.7693606    1.1290807   569361 
 1491000    1.0050412   -2.7701771   -2.7701771   -1.6402624   0.06060508   -2.7701771    1.1299148   569361 
 1492000    1.0048951   -2.7697961   -2.7697961   -1.6400456  0.060961197   -2.7697961    1.1297505   569361 
 1493000    1.0056057   -2.7705904   -2.7705904   -1.6400411  0.061388324   -2.7705904    1.1305493   569361 
 1494000     1.004439   -2.7692993   -2.7692993   -1.6400616  0.064677674   -2.7692993    1.1292377   569361 
 1495000    1.0046108   -2.7689676   -2.7689676   -1.6395368  0.055983809   -2.7689676    1.1294309   569361 
 1496000    1.0062273   -2.7702951   -2.7702951   -1.6390469   0.06789653   -2.7702951    1.1312482   569361 
 1497000    1.0063719   -2.7711912   -2.7711912   -1.6397804  0.056301195   -2.7711912    1.1314108   569361 
 1498000    1.0062629   -2.7695261   -2.7695261   -1.6382379  0.070637756   -2.7695261    1.1312882   569361 
 1499000     1.006151   -2.7699181   -2.7699181   -1.6387557  0.072821757   -2.7699181    1.1311624   569361 
 1500000    1.0065264   -2.7707541   -2.7707541   -1.6391696  0.066733879   -2.7707541    1.1315845   569361 
 1501000    1.0068305   -2.7719315   -2.7719315   -1.6400052  0.071254827   -2.7719315    1.1319263   569361 
 1502000    1.0065048   -2.7716649   -2.7716649   -1.6401047   0.07461288   -2.7716649    1.1315602   569361 
 1503000    1.0059572   -2.7710373   -2.7710373   -1.6400928  0.067619591   -2.7710373    1.1309445   569361 
 1504000    1.0052309   -2.7695452   -2.7695452   -1.6394172  0.054508609   -2.7695452     1.130128   569361 
 1505000    1.0050469    -2.769183    -2.769183   -1.6392619  0.067438876    -2.769183    1.1299211   569361 
 1506000    1.0055734   -2.7704548   -2.7704548   -1.6399418  0.067795353   -2.7704548     1.130513   569361 
 1507000    1.0053825   -2.7697104   -2.7697104    -1.639412  0.065719988   -2.7697104    1.1302984   569361 
 1508000    1.0044238   -2.7689198   -2.7689198   -1.6396992  0.066248074   -2.7689198    1.1292206   569361 
 1509000    1.0038742   -2.7693238   -2.7693238    -1.640721  0.067754724   -2.7693238    1.1286028   569361 
 1510000    1.0055093   -2.7705598   -2.7705598   -1.6401188   0.05699328   -2.7705598     1.130441   569361 
 1511000    1.0062392   -2.7718229   -2.7718229   -1.6405613  0.073120451   -2.7718229    1.1312616   569361 
 1512000    1.0052651   -2.7710717   -2.7710717   -1.6409053  0.054985387   -2.7710717    1.1301665   569361 
 1513000    1.0053053   -2.7714773   -2.7714773   -1.6412657  0.070985625   -2.7714773    1.1302116   569361 
 1514000    1.0056725    -2.771456    -2.771456   -1.6408316   0.06815898    -2.771456    1.1306244   569361 
 1515000    1.0058299   -2.7719747   -2.7719747   -1.6411733   0.05775482   -2.7719747    1.1308014   569361 
 1516000    1.0045501   -2.7699848   -2.7699848   -1.6406222  0.056955895   -2.7699848    1.1293626   569361 
 1517000    1.0049851    -2.770904    -2.770904   -1.6410523  0.043498083    -2.770904    1.1298517   569361 
 1518000    1.0050175   -2.7708025   -2.7708025   -1.6409144  0.055582587   -2.7708025    1.1298881   569361 
 1519000    1.0034054   -2.7690099   -2.7690099   -1.6409342  0.054964974   -2.7690099    1.1280757   569361 
 1520000    1.0034134   -2.7687591   -2.7687591   -1.6406744  0.064150147   -2.7687591    1.1280847   569361 
 1521000    1.0048061   -2.7703122   -2.7703122   -1.6406617  0.071926105   -2.7703122    1.1296504   569361 
 1522000    1.0062087   -2.7708558   -2.7708558   -1.6396285  0.061681371   -2.7708558    1.1312273   569361 
 1523000    1.0049717   -2.7695374   -2.7695374   -1.6397009  0.061187994   -2.7695374    1.1298366   569361 
 1524000    1.0058033   -2.7710369   -2.7710369   -1.6402654   0.06841703   -2.7710369    1.1307715   569361 
 1525000     1.004621   -2.7692094   -2.7692094   -1.6397671  0.073674354   -2.7692094    1.1294423   569361 
 1526000    1.0045905   -2.7698435   -2.7698435   -1.6404355  0.069522466   -2.7698435     1.129408   569361 
 1527000    1.0060268    -2.771475    -2.771475   -1.6404523  0.054353167    -2.771475    1.1310228   569361 
 1528000    1.0033742   -2.7692346   -2.7692346    -1.641194  0.058201414   -2.7692346    1.1280406   569361 
 1529000    1.0050329   -2.7708867   -2.7708867   -1.6409812  0.054602137   -2.7708867    1.1299055   569361 
 1530000    1.0037156   -2.7699179   -2.7699179   -1.6414935  0.061299868   -2.7699179    1.1284244   569361 
 1531000     1.004308   -2.7703165   -2.7703165   -1.6412261  0.060486651   -2.7703165    1.1290904   569361 
 1532000    1.0048593   -2.7706285   -2.7706285   -1.6409183  0.057808132   -2.7706285    1.1297102   569361 
 1533000    1.0043161   -2.7697794   -2.7697794   -1.6406798  0.066218381   -2.7697794    1.1290996   569361 
 1534000    1.0050479    -2.770511    -2.770511   -1.6405888  0.055237236    -2.770511    1.1299223   569361 
 1535000    1.0049924    -2.770475    -2.770475   -1.6406152  0.064965373    -2.770475    1.1298598   569361 
 1536000    1.0057574   -2.7703608   -2.7703608   -1.6396408  0.053350061   -2.7703608      1.13072   569361 
 1537000    1.0068184   -2.7719078   -2.7719078   -1.6399951  0.062817177   -2.7719078    1.1319127   569361 
 1538000    1.0053169   -2.7712716   -2.7712716   -1.6410469  0.054542483   -2.7712716    1.1302247   569361 
 1539000    1.0072754   -2.7731314   -2.7731314   -1.6407049     0.056038   -2.7731314    1.1324265   569361 
 1540000    1.0056466   -2.7712966   -2.7712966   -1.6407013  0.062271874   -2.7712966    1.1305954   569361 
 1541000    1.0066005   -2.7722099   -2.7722099   -1.6405421  0.068101519   -2.7722099    1.1316678   569361 
 1542000    1.0064492   -2.7712072   -2.7712072   -1.6397095  0.058043376   -2.7712072    1.1314977   569361 
 1543000    1.0041722    -2.769227    -2.769227   -1.6402893  0.070330287    -2.769227    1.1289378   569361 
 1544000    1.0060369   -2.7710751   -2.7710751   -1.6400409  0.060301127   -2.7710751    1.1310342   569361 
 1545000    1.0036398   -2.7685811   -2.7685811    -1.640242  0.061008888   -2.7685811    1.1283392   569361 
 1546000    1.0035512   -2.7693076   -2.7693076   -1.6410681  0.058963129   -2.7693076    1.1282396   569361 
 1547000    1.0042799   -2.7706928   -2.7706928    -1.641634  0.068172963   -2.7706928    1.1290588   569361 
 1548000    1.0031732   -2.7692773   -2.7692773   -1.6414626  0.061173116   -2.7692773    1.1278147   569361 
 1549000    1.0043498    -2.770251    -2.770251   -1.6411136  0.064183359    -2.770251    1.1291374   569361 
 1550000    1.0053502   -2.7708806   -2.7708806   -1.6406184  0.063626031   -2.7708806    1.1302622   569361 
 1551000    1.0041036   -2.7697346   -2.7697346   -1.6408739  0.072702347   -2.7697346    1.1288607   569361 
 1552000    1.0036277   -2.7684984   -2.7684984   -1.6401728  0.061835813   -2.7684984    1.1283257   569361 
 1553000    1.0063447   -2.7707246   -2.7707246   -1.6393444  0.059188838   -2.7707246    1.1313802   569361 
 1554000    1.0046315    -2.768872    -2.768872   -1.6394179  0.058357487    -2.768872    1.1294541   569361 
 1555000    1.0033236     -2.76751     -2.76751   -1.6395262  0.076783588     -2.76751    1.1279837   569361 
 1556000     1.003908   -2.7675152   -2.7675152   -1.6388745  0.067680871   -2.7675152    1.1286407   569361 
 1557000    1.0044106   -2.7689973   -2.7689973   -1.6397916   0.05860106   -2.7689973    1.1292057   569361 
 1558000     1.004479   -2.7683507   -2.7683507   -1.6390681  0.066954137   -2.7683507    1.1292826   569361 
 1559000    1.0069161    -2.770947    -2.770947   -1.6389244  0.060671062    -2.770947    1.1320226   569361 
 1560000    1.0056328   -2.7703232   -2.7703232   -1.6397433  0.066106296   -2.7703232    1.1305799   569361 
 1561000    1.0056947   -2.7694358   -2.7694358   -1.6387863  0.080050484   -2.7694358    1.1306495   569361 
 1562000    1.0056212   -2.7693023   -2.7693023   -1.6387355   0.06290574   -2.7693023    1.1305668   569361 
 1563000    1.0044901   -2.7680026   -2.7680026   -1.6387074  0.065748394   -2.7680026    1.1292952   569361 
 1564000    1.0052402   -2.7696866   -2.7696866   -1.6395482  0.056888873   -2.7696866    1.1301385   569361 
 1565000     1.004836   -2.7690129   -2.7690129   -1.6393289  0.065944173   -2.7690129     1.129684   569361 
 1566000    1.0036767   -2.7680755   -2.7680755   -1.6396948  0.050918109   -2.7680755    1.1283807   569361 
 1567000    1.0043681   -2.7688598   -2.7688598   -1.6397017  0.058412316   -2.7688598     1.129158   569361 
 1568000    1.0049278   -2.7691465   -2.7691465   -1.6393592   0.07089643   -2.7691465    1.1297872   569361 
 1569000    1.0039581   -2.7691829   -2.7691829   -1.6404859  0.064504472   -2.7691829     1.128697   569361 
 1570000    1.0044373   -2.7692301   -2.7692301   -1.6399943  0.066567119   -2.7692301    1.1292358   569361 
 1571000    1.0054875   -2.7695257   -2.7695257   -1.6391092  0.066899442   -2.7695257    1.1304165   569361 
 1572000    1.0041528   -2.7688441   -2.7688441   -1.6399281  0.070589788   -2.7688441     1.128916   569361 
 1573000    1.0041466     -2.76936     -2.76936   -1.6404509  0.067367944     -2.76936     1.128909   569361 
 1574000    1.0047832   -2.7704561   -2.7704561   -1.6408314  0.055433872   -2.7704561    1.1296246   569361 
 1575000    1.0042058   -2.7712057   -2.7712057   -1.6422302  0.069783599   -2.7712057    1.1289755   569361 
 1576000    1.0035112   -2.7694934   -2.7694934   -1.6412988  0.068911174   -2.7694934    1.1281947   569361 
 1577000    1.0037993   -2.7705369   -2.7705369   -1.6420184  0.062711787   -2.7705369    1.1285186   569361 
 1578000    1.0035092   -2.7699208   -2.7699208   -1.6417284  0.064862777   -2.7699208    1.1281924   569361 
 1579000    1.0036223   -2.7706534   -2.7706534   -1.6423338  0.071380717   -2.7706534    1.1283196   569361 
 1580000    1.0056696    -2.772835    -2.772835   -1.6422137  0.062283297    -2.772835    1.1306213   569361 
 1581000    1.0032419   -2.7696236   -2.7696236   -1.6417317  0.061074536   -2.7696236    1.1278918   569361 
 1582000    1.0041006   -2.7715297   -2.7715297   -1.6426724   0.07223144   -2.7715297    1.1288573   569361 
 1583000    1.0034481   -2.7709019   -2.7709019   -1.6427782  0.061286801   -2.7709019    1.1281237   569361 
 1584000    1.0049136   -2.7726432   -2.7726432    -1.642872  0.067254748   -2.7726432    1.1297713   569361 
 1585000    1.0055466   -2.7729927   -2.7729927   -1.6425098  0.066181054   -2.7729927     1.130483   569361 
 1586000    1.0062306   -2.7730544   -2.7730544   -1.6418025  0.068232466   -2.7730544    1.1312519   569361 
 1587000      1.00473   -2.7725598   -2.7725598   -1.6429949  0.059300051   -2.7725598    1.1295649   569361 
 1588000    1.0044553   -2.7725109   -2.7725109   -1.6432548  0.063750767   -2.7725109    1.1292561   569361 
 1589000    1.0057459   -2.7744178   -2.7744178   -1.6437108  0.064301895   -2.7744178    1.1307069   569361 
 1590000    1.0059415   -2.7750873   -2.7750873   -1.6441604  0.054119164   -2.7750873    1.1309269   569361 
 1591000    1.0036475   -2.7730708   -2.7730708   -1.6447229  0.066609408   -2.7730708    1.1283479   569361 
 1592000    1.0049966    -2.774775    -2.774775   -1.6449104  0.071149925    -2.774775    1.1298646   569361 
 1593000    1.0043873   -2.7738183   -2.7738183   -1.6446387  0.063597634   -2.7738183    1.1291796   569361 
 1594000    1.0035765   -2.7738496   -2.7738496   -1.6455815  0.061608157   -2.7738496     1.128268   569361 
 1595000    1.0039157   -2.7745979   -2.7745979   -1.6459485  0.064283724   -2.7745979    1.1286494   569361 
 1596000    1.0040765   -2.7749618   -2.7749618   -1.6461316  0.062444693   -2.7749618    1.1288302   569361 
 1597000    1.0047037   -2.7749248   -2.7749248   -1.6453895  0.069521834   -2.7749248    1.1295353   569361 
 1598000    1.0042432   -2.7739196   -2.7739196   -1.6449021  0.075178568   -2.7739196    1.1290175   569361 
 1599000    1.0051254   -2.7743987   -2.7743987   -1.6443893  0.062032305   -2.7743987    1.1300094   569361 
 1600000    1.0049489   -2.7743247   -2.7743247   -1.6445137  0.077319707   -2.7743247     1.129811   569361 
 1601000    1.0057182   -2.7749844   -2.7749844   -1.6443086   0.05986657   -2.7749844    1.1306758   569361 
 1602000    1.0047115   -2.7735834   -2.7735834   -1.6440393  0.059513142   -2.7735834    1.1295441   569361 
 1603000    1.0029846   -2.7727097   -2.7727097   -1.6451071  0.061660549   -2.7727097    1.1276026   569361 
 1604000    1.0053604   -2.7750834   -2.7750834   -1.6448098  0.070598366   -2.7750834    1.1302736   569361 
 1605000     1.003131   -2.7727535   -2.7727535   -1.6449863  0.068667923   -2.7727535    1.1277672   569361 
 1606000    1.0035233   -2.7740422   -2.7740422    -1.645834  0.065479229   -2.7740422    1.1282083   569361 
 1607000    1.0023888   -2.7729221   -2.7729221   -1.6459892  0.079858524   -2.7729221    1.1269328   569361 
 1608000    1.0033265   -2.7738969   -2.7738969   -1.6459099  0.058536525   -2.7738969     1.127987   569361 
 1609000    1.0030171   -2.7730343   -2.7730343   -1.6453951  0.074363185   -2.7730343    1.1276391   569361 
 1610000    1.0051941   -2.7743769   -2.7743769   -1.6442902  0.063671839   -2.7743769    1.1300867   569361 
 1611000    1.0050609   -2.7732283   -2.7732283   -1.6432914  0.067916243   -2.7732283    1.1299369   569361 
 1612000    1.0030405   -2.7720707   -2.7720707   -1.6444052  0.054376188   -2.7720707    1.1276654   569361 
 1613000     1.003725   -2.7729537   -2.7729537   -1.6445188  0.065355376   -2.7729537     1.128435   569361 
 1614000    1.0043669   -2.7730891   -2.7730891   -1.6439324  0.068434836   -2.7730891    1.1291567   569361 
 1615000    1.0042349    -2.772886    -2.772886   -1.6438778  0.059549164    -2.772886    1.1290083   569361 
 1616000    1.0040158   -2.7729519   -2.7729519   -1.6441899  0.064938445   -2.7729519    1.1287619   569361 
 1617000    1.0037621   -2.7733893   -2.7733893   -1.6449126  0.066080888   -2.7733893    1.1284767   569361 
 1618000    1.0030104   -2.7731807   -2.7731807    -1.645549  0.065066735   -2.7731807    1.1276317   569361 
 1619000    1.0021815   -2.7718842   -2.7718842   -1.6451844  0.065644614   -2.7718842    1.1266998   569361 
 1620000    1.0025816   -2.7717991   -2.7717991   -1.6446496  0.057671577   -2.7717991    1.1271495   569361 
 1621000     1.003707   -2.7738729   -2.7738729   -1.6454581  0.061948651   -2.7738729    1.1284148   569361 
 1622000    1.0022213   -2.7719287   -2.7719287   -1.6451842  0.054063773   -2.7719287    1.1267445   569361 
 1623000     1.002691   -2.7723244   -2.7723244   -1.6450518  0.064962604   -2.7723244    1.1272725   569361 
 1624000    1.0040526   -2.7739718   -2.7739718   -1.6451685  0.058526287   -2.7739718    1.1288033   569361 
 1625000    1.0049098   -2.7745176   -2.7745176   -1.6447506  0.060526593   -2.7745176     1.129767   569361 
 1626000    1.0036575   -2.7740059   -2.7740059   -1.6456468  0.069164487   -2.7740059    1.1283591   569361 
 1627000    1.0027873   -2.7728785   -2.7728785   -1.6454976  0.070928343   -2.7728785    1.1273809   569361 
 1628000    1.0025707   -2.7735789   -2.7735789   -1.6464416  0.067187153   -2.7735789    1.1271373   569361 
 1629000    1.0039453   -2.7751587   -2.7751587   -1.6464761  0.065613837   -2.7751587    1.1286826   569361 
 1630000    1.0043124   -2.7752536   -2.7752536   -1.6461581  0.069911048   -2.7752536    1.1290954   569361 
 1631000    1.0045503   -2.7746612   -2.7746612   -1.6452983  0.059966561   -2.7746612    1.1293628   569361 
 1632000    1.0048936   -2.7754574   -2.7754574   -1.6457085  0.059900995   -2.7754574    1.1297488   569361 
 1633000    1.0041782    -2.774726    -2.774726   -1.6457814  0.072247302    -2.774726    1.1289445   569361 
 1634000    1.0052426   -2.7756022   -2.7756022   -1.6454611  0.069097954   -2.7756022    1.1301411   569361 
 1635000    1.0045042   -2.7758062   -2.7758062   -1.6464952  0.069204082   -2.7758062     1.129311   569361 
 1636000    1.0035565   -2.7748456   -2.7748456   -1.6466001  0.070239858   -2.7748456    1.1282455   569361 
 1637000    1.0054408   -2.7768149   -2.7768149    -1.646451  0.066796066   -2.7768149    1.1303639   569361 
 1638000    1.0048334    -2.776293    -2.776293    -1.646612  0.062926873    -2.776293    1.1296811   569361 
 1639000    1.0043712   -2.7756354   -2.7756354   -1.6464739  0.070557925   -2.7756354    1.1291615   569361 
 1640000    1.0054562   -2.7769183   -2.7769183    -1.646537  0.073126341   -2.7769183    1.1303813   569361 
 1641000    1.0051345   -2.7754306   -2.7754306    -1.645411  0.066375386   -2.7754306    1.1300197   569361 
 1642000    1.0052944   -2.7767336   -2.7767336   -1.6465342    0.0659113   -2.7767336    1.1301994   569361 
 1643000    1.0054671   -2.7766039   -2.7766039   -1.6462104  0.071516743   -2.7766039    1.1303936   569361 
 1644000    1.0057422   -2.7767268   -2.7767268   -1.6460241  0.065899018   -2.7767268    1.1307028   569361 
 1645000    1.0049045    -2.775903    -2.775903   -1.6461419  0.066063771    -2.775903    1.1297611   569361 
 1646000    1.0046135   -2.7754855   -2.7754855   -1.6460516  0.071647823   -2.7754855    1.1294339   569361 
 1647000    1.0040422   -2.7754994   -2.7754994   -1.6467078  0.065110371   -2.7754994    1.1287916   569361 
 1648000      1.00222   -2.7722008   -2.7722008   -1.6454578  0.070368341   -2.7722008     1.126743   569361 
 1649000    1.0052326   -2.7747913   -2.7747913   -1.6446614  0.070256844   -2.7747913    1.1301299   569361 
 1650000    1.0043137   -2.7739355   -2.7739355   -1.6448387   0.06471409   -2.7739355    1.1290968   569361 
 1651000    1.0041727   -2.7730048   -2.7730048   -1.6440665  0.062291624   -2.7730048    1.1289384   569361 
 1652000    1.0051041   -2.7739268   -2.7739268   -1.6439413  0.057246913   -2.7739268    1.1299854   569361 
 1653000    1.0037731   -2.7730194   -2.7730194   -1.6445303  0.061353063   -2.7730194    1.1284891   569361 
 1654000    1.0030947   -2.7727096   -2.7727096   -1.6449832   0.06994731   -2.7727096    1.1277264   569361 
 1655000    1.0043237   -2.7737683   -2.7737683   -1.6446602  0.074403375   -2.7737683    1.1291081   569361 
 1656000    1.0030031   -2.7722462   -2.7722462   -1.6446228  0.058471702   -2.7722462    1.1276234   569361 
 1657000    1.0043038    -2.774517    -2.774517   -1.6454313  0.047785014    -2.774517    1.1290857   569361 
 1658000    1.0025931   -2.7727049   -2.7727049   -1.6455424  0.067999565   -2.7727049    1.1271625   569361 
 1659000    1.0028473   -2.7721977   -2.7721977   -1.6447495   0.06092923   -2.7721977    1.1274482   569361 
 1660000    1.0048422   -2.7740944   -2.7740944   -1.6444034  0.061338025   -2.7740944     1.129691   569361 
 1661000    1.0043661   -2.7732949   -2.7732949   -1.6441391  0.059284761   -2.7732949    1.1291557   569361 
 1662000    1.0033362   -2.7722031   -2.7722031   -1.6442052  0.060788889   -2.7722031    1.1279979   569361 
 1663000    1.0042704   -2.7738281   -2.7738281   -1.6447799  0.058316155   -2.7738281    1.1290482   569361 
 1664000    1.0032107    -2.772507    -2.772507   -1.6446502  0.064611559    -2.772507    1.1278568   569361 
 1665000    1.0035792   -2.7729364   -2.7729364   -1.6446653  0.068286442   -2.7729364    1.1282711   569361 
 1666000    1.0008643    -2.771063    -2.771063   -1.6458441  0.069120638    -2.771063    1.1252189   569361 
 1667000    1.0034853   -2.7742754   -2.7742754   -1.6461098  0.060666581   -2.7742754    1.1281656   569361 
 1668000    1.0035556   -2.7741655   -2.7741655   -1.6459209   0.06437271   -2.7741655    1.1282446   569361 
 1669000    1.0018408   -2.7719515   -2.7719515   -1.6456347   0.05946056   -2.7719515    1.1263167   569361 
 1670000    1.0040386   -2.7742048   -2.7742048   -1.6454173  0.061971825   -2.7742048    1.1287875   569361 
 1671000     1.003456   -2.7740426   -2.7740426   -1.6459101  0.050247688   -2.7740426    1.1281326   569361 
 1672000    1.0021439    -2.771233    -2.771233   -1.6445755  0.064862524    -2.771233    1.1266575   569361 
 1673000    1.0029763   -2.7722504   -2.7722504   -1.6446572  0.068034118   -2.7722504    1.1275932   569361 
 1674000    1.0036545   -2.7732285   -2.7732285   -1.6448727  0.063544761   -2.7732285    1.1283557   569361 
 1675000     1.002639    -2.772608    -2.772608   -1.6453939  0.066355686    -2.772608    1.1272141   569361 
 1676000    1.0044824   -2.7745089   -2.7745089   -1.6452223   0.07426918   -2.7745089    1.1292866   569361 
 1677000     1.007022   -2.7772604   -2.7772604   -1.6451188   0.05630845   -2.7772604    1.1321417   569361 
 1678000    1.0040671     -2.77397     -2.77397   -1.6451504  0.068186496     -2.77397    1.1288196   569361 
 1679000    1.0028599   -2.7728654   -2.7728654    -1.645403  0.068596844   -2.7728654    1.1274624   569361 
 1680000    1.0011099   -2.7709582   -2.7709582   -1.6454631   0.06477997   -2.7709582     1.125495   569361 
 1681000      1.00238   -2.7733297   -2.7733297   -1.6464068  0.059150849   -2.7733297    1.1269229   569361 
 1682000    1.0012461   -2.7711535   -2.7711535   -1.6455053  0.063108964   -2.7711535    1.1256482   569361 
 1683000    1.0015379   -2.7720393   -2.7720393   -1.6460631  0.062400275   -2.7720393    1.1259762   569361 
 1684000     1.002851   -2.7729777   -2.7729777   -1.6455254  0.063611345   -2.7729777    1.1274524   569361 
 1685000    1.0030136   -2.7729293   -2.7729293   -1.6452941  0.064953854   -2.7729293    1.1276352   569361 
 1686000    1.0045306   -2.7750466   -2.7750466    -1.645706  0.067028244   -2.7750466    1.1293407   569361 
 1687000    1.0035794   -2.7741348   -2.7741348   -1.6458635  0.071835453   -2.7741348    1.1282713   569361 
 1688000    1.0042795   -2.7743039   -2.7743039   -1.6452455  0.055385759   -2.7743039    1.1290584   569361 
 1689000    1.0045597   -2.7754058   -2.7754058   -1.6460324  0.061489166   -2.7754058    1.1293734   569361 
 1690000    1.0043272   -2.7756664   -2.7756664   -1.6465544  0.061215393   -2.7756664    1.1291121   569361 
 1691000    1.0034726   -2.7740479   -2.7740479   -1.6458967  0.070484391   -2.7740479    1.1281512   569361 
 1692000    1.0044004   -2.7750793   -2.7750793   -1.6458849  0.066030754   -2.7750793    1.1291944   569361 
 1693000    1.0030043   -2.7740378   -2.7740378    -1.646413  0.069499131   -2.7740378    1.1276248   569361 
 1694000    1.0008608   -2.7708959   -2.7708959    -1.645681   0.05567534   -2.7708959    1.1252149   569361 
 1695000    1.0036188   -2.7740099   -2.7740099   -1.6456943  0.068171251   -2.7740099    1.1283156   569361 
 1696000    1.0018096   -2.7725443   -2.7725443   -1.6462627  0.060590703   -2.7725443    1.1262816   569361 
 1697000    1.0035027   -2.7749926   -2.7749926   -1.6468075  0.044501241   -2.7749926    1.1281851   569361 
 1698000    1.0025052    -2.773929    -2.773929   -1.6468654  0.060969085    -2.773929    1.1270636   569361 
 1699000    1.0035662   -2.7754443   -2.7754443   -1.6471879  0.063268378   -2.7754443    1.1282564   569361 
 1700000    1.0032774   -2.7757772   -2.7757772   -1.6478455  0.060413619   -2.7757772    1.1279317   569361 
 1701000    1.0030198   -2.7755744   -2.7755744   -1.6479323  0.069874186   -2.7755744    1.1276421   569361 
 1702000    1.0038327   -2.7762855   -2.7762855   -1.6477294  0.061053782   -2.7762855    1.1285561   569361 
 1703000    1.0044584   -2.7764006   -2.7764006   -1.6471411  0.068735749   -2.7764006    1.1292595   569361 
 1704000    1.0041419   -2.7758265   -2.7758265   -1.6469228  0.073386523   -2.7758265    1.1289037   569361 
 1705000    1.0034246   -2.7744472   -2.7744472   -1.6463499  0.061063461   -2.7744472    1.1280973   569361 
 1706000    1.0022547   -2.7736022   -2.7736022   -1.6468201  0.075332723   -2.7736022     1.126782   569361 
 1707000    1.0053307   -2.7754758   -2.7754758   -1.6452356  0.056946885   -2.7754758    1.1302402   569361 
 1708000    1.0044136   -2.7751485   -2.7751485   -1.6459394  0.075268968   -2.7751485    1.1292091   569361 
 1709000    1.0052585   -2.7756991   -2.7756991     -1.64554  0.064854626   -2.7756991    1.1301591   569361 
 1710000     1.002899   -2.7732887   -2.7732887   -1.6457822  0.061183252   -2.7732887    1.1275064   569361 
 1711000    1.0047059   -2.7756799   -2.7756799   -1.6461421  0.069071828   -2.7756799    1.1295378   569361 
 1712000    1.0035369   -2.7743073   -2.7743073   -1.6460837  0.070970174   -2.7743073    1.1282236   569361 
 1713000    1.0032386   -2.7738015   -2.7738015   -1.6459134  0.069192984   -2.7738015    1.1278881   569361 
 1714000    1.0042125    -2.773995    -2.773995   -1.6450119  0.066622336    -2.773995    1.1289831   569361 
 1715000    1.0024932   -2.7720721   -2.7720721   -1.6450219  0.066860615   -2.7720721    1.1270502   569361 
 1716000    1.0030787   -2.7727583   -2.7727583   -1.6450498  0.064755845   -2.7727583    1.1277085   569361 
 1717000    1.0036623   -2.7729709   -2.7729709   -1.6446064  0.065439197   -2.7729709    1.1283645   569361 
 1718000    1.0051825   -2.7740693   -2.7740693   -1.6439956  0.062713586   -2.7740693    1.1300736   569361 
 1719000    1.0047402    -2.773708    -2.773708   -1.6441318  0.069313125    -2.773708    1.1295763   569361 
 1720000    1.0040291   -2.7727617   -2.7727617   -1.6439848  0.058989577   -2.7727617    1.1287769   569361 
 1721000    1.0033921    -2.772287    -2.772287   -1.6442263  0.064167318    -2.772287    1.1280607   569361 
 1722000    1.0038187   -2.7733838   -2.7733838   -1.6448435  0.062527058   -2.7733838    1.1285403   569361 
 1723000    1.0029418   -2.7719717   -2.7719717   -1.6444172  0.059324233   -2.7719717    1.1275545   569361 
 1724000      1.00352   -2.7720895   -2.7720895    -1.643885  0.061113895   -2.7720895    1.1282045   569361 
 1725000    1.0037602   -2.7718589   -2.7718589   -1.6433844  0.061613102   -2.7718589    1.1284745   569361 
 1726000      1.00249   -2.7706847   -2.7706847   -1.6436382  0.068475673   -2.7706847    1.1270465   569361 
 1727000    1.0037731   -2.7714216   -2.7714216   -1.6429326  0.071064538   -2.7714216     1.128489   569361 
 1728000    1.0032898   -2.7718862   -2.7718862   -1.6439405  0.066155538   -2.7718862    1.1279457   569361 
 1729000    1.0040811   -2.7727202   -2.7727202   -1.6438849  0.058797999   -2.7727202    1.1288353   569361 
 1730000    1.0036107   -2.7721922   -2.7721922   -1.6438857  0.063405706   -2.7721922    1.1283065   569361 
 1731000    1.0043553   -2.7721423   -2.7721423   -1.6429987  0.068325656   -2.7721423    1.1291436   569361 
 1732000    1.0038051   -2.7716689   -2.7716689   -1.6431438  0.072365293   -2.7716689    1.1285251   569361 
 1733000    1.0037902   -2.7726232   -2.7726232   -1.6441148   0.07036991   -2.7726232    1.1285083   569361 
 1734000    1.0045769   -2.7734242   -2.7734242   -1.6440314  0.058475084   -2.7734242    1.1293928   569361 
 1735000    1.0054363   -2.7742455   -2.7742455   -1.6438865  0.067496164   -2.7742455     1.130359   569361 
 1736000    1.0034735   -2.7731975   -2.7731975   -1.6450452  0.065848211   -2.7731975    1.1281522   569361 
 1737000    1.0030813   -2.7727993   -2.7727993    -1.645088  0.057786505   -2.7727993    1.1277113   569361 
 1738000    1.0035135   -2.7734513   -2.7734513    -1.645254  0.063489704   -2.7734513    1.1281972   569361 
 1739000    1.0030429   -2.7733529   -2.7733529   -1.6456847  0.064624111   -2.7733529    1.1276682   569361 
 1740000    1.0026068   -2.7721198   -2.7721198   -1.6449419  0.064497637   -2.7721198    1.1271779   569361 
 1741000      1.00352    -2.773426    -2.773426   -1.6452214   0.05796758    -2.773426    1.1282045   569361 
 1742000    1.0047559   -2.7751721   -2.7751721   -1.6455782  0.064824103   -2.7751721     1.129594   569361 
 1743000      1.00447    -2.775124    -2.775124   -1.6458514  0.065594566    -2.775124    1.1292726   569361 
 1744000    1.0042525   -2.7750861   -2.7750861    -1.646058  0.063784358   -2.7750861    1.1290281   569361 
 1745000    1.0049421   -2.7758784   -2.7758784   -1.6460751  0.055733335   -2.7758784    1.1298033   569361 
 1746000     1.005536   -2.7758706   -2.7758706   -1.6453996  0.075419212   -2.7758706    1.1304711   569361 
 1747000    1.0066856   -2.7770414   -2.7770414    -1.645278  0.074886969   -2.7770414    1.1317635   569361 
 1748000    1.0059093    -2.775178    -2.775178   -1.6442873  0.067366758    -2.775178    1.1308906   569361 
 1749000     1.006304   -2.7754456   -2.7754456   -1.6441113  0.076861662   -2.7754456    1.1313344   569361 
 1750000    1.0043067   -2.7733131   -2.7733131   -1.6442242  0.065410512   -2.7733131     1.129089   569361 
 1751000    1.0044899   -2.7738169   -2.7738169    -1.644522  0.067124044   -2.7738169    1.1292949   569361 
 1752000    1.0032729   -2.7733111   -2.7733111   -1.6453844  0.070088213   -2.7733111    1.1279267   569361 
 1753000    1.0037611    -2.773883    -2.773883   -1.6454075  0.058030446    -2.773883    1.1284756   569361 
 1754000    1.0004602   -2.7698638   -2.7698638   -1.6450993  0.055995575   -2.7698638    1.1247646   569361 
 1755000    1.0026507   -2.7726402   -2.7726402    -1.645413  0.065390645   -2.7726402    1.1272272   569361 
 1756000    1.0035169   -2.7736444   -2.7736444   -1.6454434  0.064110652   -2.7736444    1.1282011   569361 
 1757000    1.0040121   -2.7745784   -2.7745784   -1.6458206  0.052138599   -2.7745784    1.1287578   569361 
 1758000    1.0027135   -2.7731438   -2.7731438   -1.6458459  0.064693861   -2.7731438    1.1272978   569361 
 1759000     1.003832   -2.7731619   -2.7731619   -1.6446066  0.068565754   -2.7731619    1.1285553   569361 
 1760000    1.0020535   -2.7707686   -2.7707686   -1.6442128  0.068402264   -2.7707686    1.1265558   569361 
 1761000    1.0037901   -2.7731752   -2.7731752    -1.644667  0.053171749   -2.7731752    1.1285082   569361 
 1762000    1.0018015   -2.7705457   -2.7705457   -1.6442732  0.069624744   -2.7705457    1.1262725   569361 
 1763000    1.0019252   -2.7714826   -2.7714826   -1.6450711  0.060928372   -2.7714826    1.1264115   569361 
 1764000    1.0026688   -2.7730841   -2.7730841   -1.6458366  0.064274879   -2.7730841    1.1272475   569361 
 1765000    1.0030463   -2.7722842   -2.7722842   -1.6446123   0.06995194   -2.7722842     1.127672   569361 
 1766000    1.0027617   -2.7723393   -2.7723393   -1.6449873  0.055777946   -2.7723393     1.127352   569361 
 1767000    1.0026145   -2.7725924   -2.7725924   -1.6454059  0.061744266   -2.7725924    1.1271865   569361 
 1768000    1.0047059     -2.77486     -2.77486   -1.6453222    0.0571838     -2.77486    1.1295378   569361 
 1769000    1.0031689   -2.7728717   -2.7728717   -1.6450619  0.056965179   -2.7728717    1.1278099   569361 
 1770000    1.0029801   -2.7724855   -2.7724855   -1.6448879  0.060406186   -2.7724855    1.1275975   569361 
 1771000    1.0031972   -2.7722773   -2.7722773   -1.6444357  0.060501763   -2.7722773    1.1278416   569361 
 1772000    1.0046136   -2.7731697   -2.7731697   -1.6437357  0.071486094   -2.7731697     1.129434   569361 
 1773000    1.0048769   -2.7733482   -2.7733482   -1.6436182  0.061230806   -2.7733482      1.12973   569361 
 1774000     1.005458   -2.7740867   -2.7740867   -1.6437034  0.062584999   -2.7740867    1.1303833   569361 
 1775000    1.0054539   -2.7745762   -2.7745762   -1.6441975  0.069849582   -2.7745762    1.1303788   569361 
 1776000    1.0069265    -2.776231    -2.776231   -1.6441968  0.069997937    -2.776231    1.1320342   569361 
 1777000    1.0057212   -2.7749091   -2.7749091   -1.6442299  0.078124633   -2.7749091    1.1306792   569361 
 1778000     1.006915   -2.7757113   -2.7757113   -1.6436899  0.070954516   -2.7757113    1.1320213   569361 
 1779000    1.0051904   -2.7743182   -2.7743182   -1.6442357  0.071383637   -2.7743182    1.1300825   569361 
 1780000    1.0060194   -2.7762279   -2.7762279   -1.6452134  0.065598898   -2.7762279    1.1310145   569361 
 1781000    1.0036909   -2.7747691   -2.7747691   -1.6463725  0.063624084   -2.7747691    1.1283966   569361 
 1782000    1.0039526   -2.7739561   -2.7739561   -1.6452652  0.081563242   -2.7739561    1.1286909   569361 
 1783000    1.0032492   -2.7730212   -2.7730212   -1.6451212  0.059576519   -2.7730212       1.1279   569361 
 1784000    1.0014605   -2.7717044   -2.7717044   -1.6458152  0.072828677   -2.7717044    1.1258892   569361 
 1785000    1.0033573   -2.7738339   -2.7738339   -1.6458123  0.066102736   -2.7738339    1.1280216   569361 
 1786000    1.0051566   -2.7761254   -2.7761254   -1.6460808    0.0586014   -2.7761254    1.1300445   569361 
 1787000    1.0033291   -2.7735671   -2.7735671   -1.6455772  0.069390239   -2.7735671    1.1279899   569361 
 1788000    1.0028117   -2.7735046   -2.7735046   -1.6460965  0.062961221   -2.7735046    1.1274082   569361 
 1789000    1.0036431   -2.7742672   -2.7742672   -1.6459242  0.065982707   -2.7742672     1.128343   569361 
 1790000    1.0044102    -2.774535    -2.774535   -1.6453297  0.072918982    -2.774535    1.1292053   569361 
 1791000    1.0051248   -2.7753485   -2.7753485   -1.6453398  0.058778966   -2.7753485    1.1300087   569361 
 1792000    1.0055973   -2.7760923   -2.7760923   -1.6455524  0.065983911   -2.7760923      1.13054   569361 
 1793000    1.0039683   -2.7738177   -2.7738177   -1.6451092  0.058428315   -2.7738177    1.1287085   569361 
 1794000    1.0052513   -2.7752678   -2.7752678   -1.6451169  0.054760899   -2.7752678    1.1301509   569361 
 1795000    1.0058729    -2.774873    -2.774873   -1.6440232  0.061023846    -2.774873    1.1308498   569361 
 1796000    1.0060542   -2.7752717   -2.7752717   -1.6442181  0.058408156   -2.7752717    1.1310536   569361 
 1797000    1.0044901   -2.7724696   -2.7724696   -1.6431744  0.078224908   -2.7724696    1.1292952   569361 
 1798000    1.0016852   -2.7709393   -2.7709393   -1.6447976  0.062310063   -2.7709393    1.1261418   569361 
 1799000    1.0026287   -2.7714894   -2.7714894   -1.6442869  0.064050451   -2.7714894    1.1272025   569361 
 1800000    1.0044035   -2.7728205   -2.7728205   -1.6436227  0.066185667   -2.7728205    1.1291979   569361 
 1801000    1.0049069   -2.7729779   -2.7729779   -1.6432142  0.056666635   -2.7729779    1.1297637   569361 
 1802000    1.0041997   -2.7733463   -2.7733463   -1.6443776  0.059644784   -2.7733463    1.1289687   569361 
 1803000    1.0052873   -2.7731449   -2.7731449   -1.6429535   0.05110002   -2.7731449    1.1301914   569361 
 1804000    1.0036418    -2.771367    -2.771367   -1.6430256  0.061708616    -2.771367    1.1283414   569361 
 1805000    1.0039799   -2.7724636   -2.7724636    -1.643742  0.057077711   -2.7724636    1.1287216   569361 
 1806000    1.0040312   -2.7716224   -2.7716224   -1.6428432  0.061093067   -2.7716224    1.1287792   569361 
 1807000    1.0035224   -2.7704215   -2.7704215   -1.6422142  0.065060627   -2.7704215    1.1282072   569361 
 1808000    1.0048436   -2.7721584   -2.7721584   -1.6424658  0.067721554   -2.7721584    1.1296926   569361 
 1809000    1.0054333   -2.7718127   -2.7718127   -1.6414571  0.066391659   -2.7718127    1.1303556   569361 
 1810000    1.0060352   -2.7729749   -2.7729749   -1.6419427  0.063864657   -2.7729749    1.1310322   569361 
 1811000    1.0037056   -2.7697689   -2.7697689   -1.6413557  0.070986762   -2.7697689    1.1284132   569361 
 1812000    1.0048928   -2.7714324   -2.7714324   -1.6416844  0.065707665   -2.7714324    1.1297479   569361 
 1813000    1.0050538   -2.7707645   -2.7707645   -1.6408356  0.066736327   -2.7707645    1.1299289   569361 
 1814000     1.003748   -2.7699663   -2.7699663   -1.6415055  0.060438457   -2.7699663    1.1284609   569361 
 1815000     1.003702    -2.769705    -2.769705   -1.6412958  0.064513567    -2.769705    1.1284092   569361 
 1816000      1.00377   -2.7700121   -2.7700121   -1.6415264  0.054375302   -2.7700121    1.1284856   569361 
 1817000    1.0046032   -2.7708689   -2.7708689   -1.6414466  0.058518011   -2.7708689    1.1294224   569361 
 1818000    1.0029495   -2.7691273   -2.7691273   -1.6415642  0.065111893   -2.7691273    1.1275631   569361 
 1819000    1.0035486   -2.7697503   -2.7697503   -1.6415136  0.072397483   -2.7697503    1.1282367   569361 
 1820000    1.0044006   -2.7696378   -2.7696378   -1.6404433  0.059903003   -2.7696378    1.1291945   569361 
 1821000    1.0055563   -2.7706131   -2.7706131   -1.6401193    0.0686703   -2.7706131    1.1304938   569361 
 1822000     1.006558   -2.7713907   -2.7713907   -1.6397707  0.061118026   -2.7713907      1.13162   569361 
 1823000    1.0057705   -2.7709247   -2.7709247     -1.64019   0.05977369   -2.7709247    1.1307347   569361 
 1824000    1.0042071    -2.769767    -2.769767     -1.64079   0.05779111    -2.769767     1.128977   569361 
 1825000    1.0039181   -2.7700495   -2.7700495   -1.6413974  0.071970742   -2.7700495    1.1286521   569361 
 1826000    1.0057497   -2.7720611   -2.7720611   -1.6413498  0.053821398   -2.7720611    1.1307113   569361 
 1827000     1.005672   -2.7719828   -2.7719828    -1.641359  0.069292772   -2.7719828    1.1306239   569361 
 1828000    1.0047974   -2.7704489   -2.7704489   -1.6408083  0.067909207   -2.7704489    1.1296406   569361 
 1829000     1.003396   -2.7701584   -2.7701584   -1.6420932  0.054733952   -2.7701584    1.1280652   569361 
 1830000    1.0040418   -2.7712516   -2.7712516   -1.6424604  0.064102597   -2.7712516    1.1287912   569361 
 1831000    1.0052993   -2.7729181   -2.7729181   -1.6427131  0.063383923   -2.7729181     1.130205   569361 
 1832000    1.0032395   -2.7711606   -2.7711606   -1.6432715  0.063975377   -2.7711606    1.1278892   569361 
 1833000     1.004264   -2.7722352   -2.7722352   -1.6431941  0.062923195   -2.7722352     1.129041   569361 
 1834000    1.0031653   -2.7708598   -2.7708598    -1.643054  0.067940692   -2.7708598    1.1278057   569361 
 1835000    1.0032483   -2.7717422   -2.7717422   -1.6438431  0.064459424   -2.7717422    1.1278991   569361 
 1836000    1.0050894   -2.7746013   -2.7746013   -1.6446324  0.055953684   -2.7746013    1.1299689   569361 
 1837000    1.0044279   -2.7737888   -2.7737888   -1.6445635  0.074922025   -2.7737888    1.1292253   569361 
 1838000    1.0042814   -2.7749854   -2.7749854   -1.6459248  0.069225851   -2.7749854    1.1290606   569361 
 1839000    1.0040316   -2.7747691   -2.7747691   -1.6459894  0.062875764   -2.7747691    1.1287797   569361 
 1840000    1.0046609   -2.7758096   -2.7758096   -1.6463224  0.066507911   -2.7758096    1.1294872   569361 
 1841000    1.0047759   -2.7765002   -2.7765002   -1.6468838  0.067915443   -2.7765002    1.1296164   569361 
 1842000    1.0053151   -2.7766918   -2.7766918   -1.6464692  0.063306939   -2.7766918    1.1302226   569361 
 1843000     1.003762   -2.7745601   -2.7745601   -1.6460835  0.069841295   -2.7745601    1.1284766   569361 
 1844000    1.0038884   -2.7739503   -2.7739503   -1.6453316  0.074340392   -2.7739503    1.1286187   569361 
 1845000    1.0053557   -2.7751148   -2.7751148   -1.6448465  0.071000151   -2.7751148    1.1302683   569361 
 1846000    1.0052608   -2.7756665   -2.7756665   -1.6455048  0.067159404   -2.7756665    1.1301616   569361 
 1847000    1.0056124   -2.7767127   -2.7767127   -1.6461558   0.06744617   -2.7767127    1.1305569   569361 
 1848000    1.0033328   -2.7751082   -2.7751082   -1.6471141  0.070976111   -2.7751082    1.1279941   569361 
 1849000    1.0050975   -2.7773793   -2.7773793   -1.6474013  0.056476625   -2.7773793     1.129978   569361 
 1850000    1.0038165   -2.7750126   -2.7750126   -1.6464748  0.076783249   -2.7750126    1.1285379   569361 
 1851000    1.0040006   -2.7761026   -2.7761026   -1.6473578  0.059999871   -2.7761026    1.1287449   569361 
 1852000    1.0055254   -2.7770564   -2.7770564   -1.6465973  0.057769354   -2.7770564    1.1304591   569361 
 1853000    1.0057753   -2.7778181   -2.7778181   -1.6470781   0.06169068   -2.7778181      1.13074   569361 
 1854000    1.0055476   -2.7769794   -2.7769794   -1.6464953  0.068945663   -2.7769794    1.1304841   569361 
 1855000    1.0046748   -2.7758281   -2.7758281   -1.6463253  0.059609482   -2.7758281    1.1295028   569361 
 1856000    1.0046965   -2.7764226   -2.7764226   -1.6468954  0.067660078   -2.7764226    1.1295272   569361 
 1857000    1.0049568   -2.7755433   -2.7755433   -1.6457234  0.069212368   -2.7755433    1.1298199   569361 
 1858000    1.0052693   -2.7757807   -2.7757807   -1.6456095  0.071871741   -2.7757807    1.1301712   569361 
 1859000    1.0038934   -2.7743435   -2.7743435   -1.6457192  0.067362928   -2.7743435    1.1286243   569361 
 1860000     1.005973    -2.775906    -2.775906   -1.6449437   0.06432587    -2.775906    1.1309623   569361 
 1861000    1.0072381   -2.7778116   -2.7778116    -1.645427  0.076323784   -2.7778116    1.1323846   569361 
 1862000    1.0045028    -2.774865    -2.774865   -1.6455555  0.065873857    -2.774865    1.1293094   569361 
 1863000     1.006756   -2.7770912   -2.7770912   -1.6452485  0.077379768   -2.7770912    1.1318426   569361 
 1864000    1.0060445   -2.7758691   -2.7758691   -1.6448264  0.060740576   -2.7758691    1.1310427   569361 
 1865000    1.0053896   -2.7752279   -2.7752279   -1.6449215  0.070971567   -2.7752279    1.1303064   569361 
 1866000    1.0056953   -2.7749591   -2.7749591    -1.644309  0.060487272   -2.7749591    1.1306501   569361 
 1867000    1.0039377   -2.7733779   -2.7733779   -1.6447038  0.059430707   -2.7733779    1.1286741   569361 
 1868000    1.0041679   -2.7737419   -2.7737419    -1.644809  0.081832401   -2.7737419     1.128933   569361 
 1869000     1.004648   -2.7739613   -2.7739613   -1.6444886  0.061749079   -2.7739613    1.1294727   569361 
 1870000    1.0051459   -2.7751345   -2.7751345   -1.6451021   0.06223131   -2.7751345    1.1300324   569361 
 1871000    1.0036313   -2.7742898   -2.7742898   -1.6459601  0.062415606   -2.7742898    1.1283297   569361 
 1872000    1.0027387   -2.7737397   -2.7737397   -1.6464135  0.068268588   -2.7737397    1.1273262   569361 
 1873000    1.0022676   -2.7737961   -2.7737961   -1.6469996  0.061055967   -2.7737961    1.1267965   569361 
 1874000    1.0023517   -2.7731681   -2.7731681    -1.646277  0.067610587   -2.7731681    1.1268911   569361 
 1875000     1.003396   -2.7739637   -2.7739637   -1.6458986  0.057912622   -2.7739637    1.1280652   569361 
 1876000    1.0044619   -2.7747469   -2.7747469   -1.6454834  0.049266199   -2.7747469    1.1292635   569361 
 1877000    1.0044694   -2.7744818   -2.7744818   -1.6452099  0.060047004   -2.7744818    1.1292719   569361 
 1878000    1.0038993   -2.7738284   -2.7738284   -1.6451975  0.059896657   -2.7738284    1.1286309   569361 
 1879000    1.0047596   -2.7748548   -2.7748548   -1.6452567  0.062813626   -2.7748548    1.1295982   569361 
 1880000    1.0058922   -2.7762631   -2.7762631   -1.6453916   0.06220575   -2.7762631    1.1308715   569361 
 1881000    1.0042781    -2.774675    -2.774675   -1.6456181  0.062034632    -2.774675    1.1290568   569361 
 1882000    1.0033877    -2.773632    -2.773632   -1.6455763  0.065286989    -2.773632    1.1280557   569361 
 1883000    1.0053824   -2.7757473   -2.7757473    -1.645449  0.065065191   -2.7757473    1.1302984   569361 
 1884000    1.0045036   -2.7746498   -2.7746498   -1.6453395  0.067573254   -2.7746498    1.1293104   569361 
 1885000    1.0030309   -2.7730831   -2.7730831   -1.6454284  0.070785735   -2.7730831    1.1276547   569361 
 1886000    1.0040534   -2.7747018   -2.7747018   -1.6458976  0.059933372   -2.7747018    1.1288042   569361 
 1887000    1.0026416    -2.773789    -2.773789   -1.6465719  0.065723899    -2.773789     1.127217   569361 
 1888000    1.0045212   -2.7748908   -2.7748908   -1.6455607  0.067220756   -2.7748908    1.1293301   569361 
 1889000    1.0030491   -2.7739703   -2.7739703   -1.6462953  0.064747247   -2.7739703    1.1276751   569361 
 1890000    1.0020395   -2.7737901   -2.7737901   -1.6472501  0.065093874   -2.7737901    1.1265401   569361 
 1891000    1.0043024   -2.7761137   -2.7761137   -1.6470296  0.062508515   -2.7761137    1.1290841   569361 
 1892000    1.0048891   -2.7751292   -2.7751292   -1.6453855  0.074623411   -2.7751292    1.1297437   569361 
 1893000    1.0049558   -2.7762778   -2.7762778    -1.646459  0.073979435   -2.7762778    1.1298188   569361 
 1894000    1.0061345   -2.7771448   -2.7771448   -1.6460009   0.07191102   -2.7771448    1.1311439   569361 
 1895000    1.0055027   -2.7762545   -2.7762545   -1.6458209  0.060645363   -2.7762545    1.1304336   569361 
 1896000    1.0065266   -2.7775711   -2.7775711   -1.6459864   0.06908534   -2.7775711    1.1315847   569361 
 1897000    1.0054743   -2.7763883   -2.7763883   -1.6459867  0.074714638   -2.7763883    1.1304016   569361 
 1898000    1.0066742   -2.7777773   -2.7777773   -1.6460266  0.070056466   -2.7777773    1.1317507   569361 
 1899000    1.0065808   -2.7778206   -2.7778206   -1.6461749  0.065989781   -2.7778206    1.1316456   569361 
 1900000    1.0044967   -2.7754482   -2.7754482   -1.6461456  0.063123417   -2.7754482    1.1293026   569361 
 1901000    1.0056229   -2.7766837   -2.7766837    -1.646115  0.068589796   -2.7766837    1.1305687   569361 
 1902000    1.0040755   -2.7745734   -2.7745734   -1.6457444  0.059311437   -2.7745734     1.128829   569361 
 1903000    1.0049463   -2.7753408   -2.7753408   -1.6455328  0.066682561   -2.7753408     1.129808   569361 
 1904000    1.0051001    -2.775836    -2.775836    -1.645855  0.076196916    -2.775836     1.129981   569361 
 1905000    1.0018208   -2.7725247   -2.7725247   -1.6462305  0.066406353   -2.7725247    1.1262942   569361 
 1906000    1.0032669   -2.7742041   -2.7742041    -1.646284  0.068412609   -2.7742041      1.12792   569361 
 1907000    1.0033661   -2.7745982   -2.7745982   -1.6465667  0.050554069   -2.7745982    1.1280315   569361 
 1908000    1.0016911   -2.7732337   -2.7732337   -1.6470854  0.061807367   -2.7732337    1.1261483   569361 
 1909000    1.0040299   -2.7756856   -2.7756856   -1.6469078  0.058186325   -2.7756856    1.1287778   569361 
 1910000    1.0042483   -2.7756576   -2.7756576   -1.6466343  0.062990054   -2.7756576    1.1290233   569361 
 1911000    1.0038967   -2.7741148   -2.7741148   -1.6454867  0.066440323   -2.7741148     1.128628   569361 
 1912000    1.0035823   -2.7740569   -2.7740569   -1.6457823  0.067198544   -2.7740569    1.1282746   569361 
 1913000    1.0028034   -2.7735587   -2.7735587   -1.6461598  0.066022072   -2.7735587    1.1273989   569361 
 1914000    1.0036863    -2.774392    -2.774392   -1.6460005  0.057232324    -2.774392    1.1283915   569361 
 1915000    1.0033593   -2.7740012   -2.7740012   -1.6459774  0.060122608   -2.7740012    1.1280239   569361 
 1916000    1.0034645   -2.7750641   -2.7750641    -1.646922  0.062597163   -2.7750641    1.1281422   569361 
 1917000    1.0026623    -2.773666    -2.773666   -1.6464258  0.071949114    -2.773666    1.1272403   569361 
 1918000    1.0037974   -2.7745697   -2.7745697   -1.6460533  0.057215318   -2.7745697    1.1285164   569361 
 1919000     1.004297   -2.7747928   -2.7747928   -1.6457147  0.063126001   -2.7747928    1.1290781   569361 
 1920000    1.0034227    -2.773761    -2.773761   -1.6456659  0.072495728    -2.773761    1.1280951   569361 
 1921000    1.0044588   -2.7744429   -2.7744429    -1.645183  0.071455031   -2.7744429    1.1292599   569361 
 1922000    1.0048609   -2.7756629   -2.7756629    -1.645951  0.068459549   -2.7756629     1.129712   569361 
 1923000    1.0039079   -2.7743699   -2.7743699   -1.6457292  0.060666054   -2.7743699    1.1286407   569361 
 1924000    1.0038656   -2.7738628   -2.7738628   -1.6452697  0.047539319   -2.7738628     1.128593   569361 
 1925000    1.0045385   -2.7737739   -2.7737739   -1.6444243  0.072449933   -2.7737739    1.1293496   569361 
 1926000    1.0050286   -2.7742087   -2.7742087   -1.6443081  0.075236217   -2.7742087    1.1299006   569361 
 1927000    1.0052508   -2.7748849   -2.7748849   -1.6447345  0.059557401   -2.7748849    1.1301504   569361 
 1928000    1.0064006   -2.7761721   -2.7761721    -1.644729  0.067371488   -2.7761721    1.1314431   569361 
 1929000    1.0057013   -2.7755126   -2.7755126   -1.6448558  0.056060953   -2.7755126    1.1306569   569361 
 1930000    1.0058355    -2.775591    -2.775591   -1.6447833  0.066115221    -2.775591    1.1308077   569361 
 1931000    1.0030328   -2.7727642   -2.7727642   -1.6451074  0.064169792   -2.7727642    1.1276568   569361 
 1932000    1.0055815   -2.7753933   -2.7753933    -1.644871  0.059306929   -2.7753933    1.1305222   569361 
 1933000    1.0047147   -2.7742475   -2.7742475   -1.6446998  0.084544518   -2.7742475    1.1295477   569361 
 1934000    1.0049086    -2.774219    -2.774219   -1.6444533  0.056112643    -2.774219    1.1297657   569361 
 1935000    1.0053314   -2.7750949   -2.7750949   -1.6448539  0.062190196   -2.7750949     1.130241   569361 
 1936000    1.0050498   -2.7746795   -2.7746795   -1.6447551  0.066967862   -2.7746795    1.1299244   569361 
 1937000    1.0039314    -2.774224    -2.774224   -1.6455569  0.067410056    -2.774224    1.1286671   569361 
 1938000    1.0045119   -2.7752321   -2.7752321   -1.6459124  0.074595965   -2.7752321    1.1293197   569361 
 1939000    1.0047126   -2.7755379   -2.7755379   -1.6459926  0.058824705   -2.7755379    1.1295453   569361 
 1940000    1.0052283    -2.776573    -2.776573   -1.6464479   0.07069681    -2.776573     1.130125   569361 
 1941000    1.0039221    -2.775003    -2.775003   -1.6463463  0.070586018    -2.775003    1.1286566   569361 
 1942000     1.004084   -2.7754612   -2.7754612   -1.6466226  0.066818286   -2.7754612    1.1288387   569361 
 1943000     1.003544   -2.7750039   -2.7750039   -1.6467724  0.066441287   -2.7750039    1.1282316   569361 
 1944000    1.0040757   -2.7744451   -2.7744451   -1.6456159  0.063043569   -2.7744451    1.1288292   569361 
 1945000    1.0029045   -2.7739675   -2.7739675   -1.6464549  0.064253594   -2.7739675    1.1275126   569361 
 1946000    1.0018571   -2.7725099   -2.7725099   -1.6461749  0.066747644   -2.7725099     1.126335   569361 
 1947000    1.0013504   -2.7733343   -2.7733343   -1.6475689  0.063060977   -2.7733343    1.1257654   569361 
 1948000    1.0010222   -2.7730209   -2.7730209   -1.6476245  0.064647004   -2.7730209    1.1253964   569361 
 1949000    1.0027509   -2.7746129   -2.7746129    -1.647273  0.068058602   -2.7746129    1.1273399   569361 
 1950000    1.0025816   -2.7732466   -2.7732466    -1.646097  0.059785932   -2.7732466    1.1271495   569361 
 1951000    1.0043825   -2.7756531   -2.7756531   -1.6464789  0.050524607   -2.7756531    1.1291742   569361 
 1952000    1.0047259   -2.7750012   -2.7750012    -1.645441  0.070327284   -2.7750012    1.1295602   569361 
 1953000    1.0064567   -2.7772171   -2.7772171    -1.645711  0.068804637   -2.7772171    1.1315061   569361 
 1954000    1.0049206   -2.7763877   -2.7763877   -1.6466086  0.074476981   -2.7763877    1.1297792   569361 
 1955000    1.0042934   -2.7745443   -2.7745443   -1.6454704  0.076397669   -2.7745443     1.129074   569361 
 1956000     1.004847   -2.7752207   -2.7752207   -1.6455242  0.076820755   -2.7752207    1.1296964   569361 
 1957000     1.005479    -2.776099    -2.776099   -1.6456921   0.07078427    -2.776099     1.130407   569361 
 1958000    1.0059142   -2.7773471   -2.7773471   -1.6464509  0.062063936   -2.7773471    1.1308962   569361 
 1959000    1.0059972   -2.7768359   -2.7768359   -1.6458464   0.07198835   -2.7768359    1.1309895   569361 
 1960000    1.0035051   -2.7737654   -2.7737654   -1.6455776  0.079210113   -2.7737654    1.1281878   569361 
 1961000    1.0047224   -2.7745629   -2.7745629   -1.6450066   0.07230933   -2.7745629    1.1295563   569361 
 1962000    1.0043841    -2.774359    -2.774359   -1.6451831  0.066515932    -2.774359     1.129176   569361 
 1963000    1.0054807   -2.7745778   -2.7745778    -1.644169  0.056500422   -2.7745778    1.1304088   569361 
 1964000    1.0052009   -2.7742483   -2.7742483   -1.6441541  0.071557601   -2.7742483    1.1300943   569361 
 1965000    1.0069658   -2.7757827   -2.7757827   -1.6437043  0.061879872   -2.7757827    1.1320784   569361 
 1966000    1.0052798   -2.7746075   -2.7746075   -1.6444245  0.071720726   -2.7746075     1.130183   569361 
 1967000    1.0062204   -2.7761325   -2.7761325   -1.6448921  0.066809883   -2.7761325    1.1312405   569361 
 1968000    1.0046885   -2.7737401   -2.7737401   -1.6442219  0.067128927   -2.7737401    1.1295182   569361 
 1969000    1.0053772   -2.7755597   -2.7755597   -1.6452672  0.061249185   -2.7755597    1.1302925   569361 
 1970000     1.003939   -2.7738366   -2.7738366    -1.645161  0.067722538   -2.7738366    1.1286755   569361 
 1971000    1.0045234   -2.7747848   -2.7747848   -1.6454522  0.058596105   -2.7747848    1.1293326   569361 
 1972000    1.0041414    -2.773943    -2.773943   -1.6450398  0.055084575    -2.773943    1.1289032   569361 
 1973000    1.0028231   -2.7720082   -2.7720082   -1.6445871  0.065937237   -2.7720082    1.1274211   569361 
 1974000    1.0024688   -2.7724091   -2.7724091   -1.6453864  0.051600149   -2.7724091    1.1270227   569361 
 1975000    1.0016205   -2.7709332   -2.7709332   -1.6448642  0.056718824   -2.7709332    1.1260691   569361 
 1976000    1.0030059   -2.7729501   -2.7729501   -1.6453236  0.063047765   -2.7729501    1.1276265   569361 
 1977000     1.003284   -2.7736112   -2.7736112    -1.645672  0.057486302   -2.7736112    1.1279392   569361 
 1978000    1.0020757   -2.7722721   -2.7722721   -1.6456913  0.064498264   -2.7722721    1.1265808   569361 
 1979000    1.0020615   -2.7727136   -2.7727136   -1.6461488  0.059363239   -2.7727136    1.1265648   569361 
 1980000    1.0036978   -2.7735408   -2.7735408   -1.6451363  0.051475655   -2.7735408    1.1284045   569361 
 1981000    1.0031316    -2.772502    -2.772502   -1.6447341  0.066571033    -2.772502    1.1277679   569361 
 1982000    1.0053393   -2.7749192   -2.7749192   -1.6446693    0.0569954   -2.7749192    1.1302499   569361 
 1983000    1.0050989   -2.7748933   -2.7748933   -1.6449137  0.074069769   -2.7748933    1.1299796   569361 
 1984000    1.0062337   -2.7757564   -2.7757564   -1.6445011  0.070170561   -2.7757564    1.1312554   569361 
 1985000    1.0059926   -2.7747401   -2.7747401   -1.6437558  0.068226111   -2.7747401    1.1309843   569361 
 1986000    1.0058857   -2.7752696   -2.7752696   -1.6444054  0.055610774   -2.7752696    1.1308642   569361 
 1987000    1.0060878   -2.7761674   -2.7761674    -1.645076  0.060330484   -2.7761674    1.1310914   569361 
 1988000    1.0056287   -2.7761787   -2.7761787   -1.6456035  0.062116709   -2.7761787    1.1305752   569361 
 1989000    1.0036531   -2.7747315   -2.7747315   -1.6463773  0.075565443   -2.7747315    1.1283541   569361 
 1990000     1.004052   -2.7762435   -2.7762435   -1.6474408   0.06209538   -2.7762435    1.1288027   569361 
 1991000    1.0030778   -2.7761522   -2.7761522   -1.6484448  0.061016642   -2.7761522    1.1277074   569361 
 1992000    1.0032529   -2.7760708   -2.7760708   -1.6481666  0.056255063   -2.7760708    1.1279042   569361 
 1993000    1.0039177   -2.7766282   -2.7766282   -1.6479766  0.071353165   -2.7766282    1.1286517   569361 
 1994000    1.0049187   -2.7778388   -2.7778388   -1.6480618  0.062480428   -2.7778388     1.129777   569361 
 1995000     1.003951   -2.7764904   -2.7764904   -1.6478014  0.062691415   -2.7764904    1.1286891   569361 
 1996000    1.0036255    -2.776499    -2.776499   -1.6481758  0.070842622    -2.776499    1.1283232   569361 
 1997000    1.0034197   -2.7775891   -2.7775891   -1.6494974  0.070017166   -2.7775891    1.1280918   569361 
 1998000    1.0046697   -2.7785672   -2.7785672   -1.6490701  0.064216139   -2.7785672     1.129497   569361 
 1999000    1.0057573   -2.7796057   -2.7796057   -1.6488859  0.075543018   -2.7796057    1.1307198   569361 
 2000000      1.00724   -2.7807433   -2.7807433   -1.6483566  0.056057921   -2.7807433    1.1323867   569361 
 2001000    1.0051415   -2.7785986   -2.7785986   -1.6485711  0.076895427   -2.7785986    1.1300276   569361 
 2002000    1.0056267   -2.7785829   -2.7785829   -1.6480099  0.075214128   -2.7785829    1.1305729   569361 
 2003000    1.0040949    -2.777764    -2.777764   -1.6489132  0.071949995    -2.777764    1.1288509   569361 
 2004000    1.0050922   -2.7786522   -2.7786522   -1.6486802    0.0611586   -2.7786522     1.129972   569361 
 2005000    1.0050773    -2.777812    -2.777812   -1.6478566  0.074510032    -2.777812    1.1299553   569361 
 2006000    1.0047531   -2.7775799   -2.7775799   -1.6479892  0.065519603   -2.7775799    1.1295908   569361 
 2007000    1.0051811   -2.7785266   -2.7785266   -1.6484545  0.063138624   -2.7785266     1.130072   569361 
 2008000    1.0040707   -2.7779769   -2.7779769   -1.6491532  0.069174027   -2.7779769    1.1288237   569361 
 2009000    1.0047123   -2.7786439   -2.7786439    -1.649099  0.062780736   -2.7786439     1.129545   569361 
 2010000    1.0033744   -2.7767706   -2.7767706   -1.6487297  0.057165327   -2.7767706    1.1280408   569361 
 2011000    1.0030976    -2.776847    -2.776847   -1.6491173  0.061454446    -2.776847    1.1277297   569361 
 2012000    1.0033621   -2.7768888   -2.7768888   -1.6488617  0.067548177   -2.7768888     1.128027   569361 
 2013000    1.0037983   -2.7772889   -2.7772889   -1.6487714   0.06692398   -2.7772889    1.1285174   569361 
 2014000    1.0041496   -2.7768388   -2.7768388   -1.6479265  0.068065906   -2.7768388    1.1289123   569361 
 2015000    1.0061756   -2.7788158   -2.7788158   -1.6476258  0.063358457   -2.7788158    1.1311901   569361 
 2016000    1.0052055   -2.7780199   -2.7780199   -1.6479205  0.059494663   -2.7780199    1.1300994   569361 
 2017000    1.0041901   -2.7765683   -2.7765683   -1.6476104  0.067197392   -2.7765683    1.1289579   569361 
 2018000    1.0030305   -2.7751679   -2.7751679   -1.6475137   0.05656789   -2.7751679    1.1276542   569361 
 2019000    1.0029238   -2.7752622   -2.7752622   -1.6477279  0.063543613   -2.7752622    1.1275343   569361 
 2020000    1.0030701   -2.7748313   -2.7748313   -1.6471326  0.046840703   -2.7748313    1.1276987   569361 
 2021000    1.0037493   -2.7757458   -2.7757458   -1.6472834  0.062027642   -2.7757458    1.1284624   569361 
 2022000    1.0029638   -2.7759274   -2.7759274   -1.6483482   0.06453315   -2.7759274    1.1275793   569361 
 2023000    1.0032648   -2.7769741   -2.7769741   -1.6490565  0.058692304   -2.7769741    1.1279176   569361 
 2024000    1.0017776   -2.7755299   -2.7755299   -1.6492842  0.051656431   -2.7755299    1.1262457   569361 
 2025000    1.0006991   -2.7740906   -2.7740906   -1.6490574  0.064202907   -2.7740906    1.1250332   569361 
 2026000    1.0007781   -2.7744068   -2.7744068   -1.6492849  0.058983028   -2.7744068    1.1251219   569361 
 2027000    1.0026166   -2.7763691   -2.7763691   -1.6491802  0.067391407   -2.7763691    1.1271889   569361 
 2028000    1.0032914   -2.7772693   -2.7772693   -1.6493217  0.062801984   -2.7772693    1.1279476   569361 
 2029000    1.0035745   -2.7771624   -2.7771624   -1.6488966  0.061704021   -2.7771624    1.1282658   569361 
 2030000    1.0030147   -2.7761612   -2.7761612   -1.6485247  0.056646358   -2.7761612    1.1276365   569361 
 2031000    1.0043065   -2.7775731   -2.7775731   -1.6484843  0.067782066   -2.7775731    1.1290888   569361 
 2032000    1.0034353   -2.7777044   -2.7777044    -1.649595  0.061463708   -2.7777044    1.1281093   569361 
 2033000    1.0037816   -2.7784915   -2.7784915   -1.6499928  0.061560908   -2.7784915    1.1284986   569361 
 2034000     1.003177   -2.7778409   -2.7778409    -1.650022  0.067282596   -2.7778409    1.1278189   569361 
 2035000    1.0041337   -2.7787985   -2.7787985    -1.649904  0.058397051   -2.7787985    1.1288945   569361 
 2036000    1.0040493   -2.7796154   -2.7796154   -1.6508158  0.066586819   -2.7796154    1.1287996   569361 
 2037000    1.0057884   -2.7807795   -2.7807795   -1.6500248  0.075647337   -2.7807795    1.1307547   569361 
 2038000     1.003269    -2.778452    -2.778452   -1.6505296   0.07657873    -2.778452    1.1279224   569361 
 2039000    1.0045819   -2.7802291   -2.7802291   -1.6508307  0.072522419   -2.7802291    1.1293984   569361 
 2040000    1.0045644   -2.7801819   -2.7801819   -1.6508032  0.066841067   -2.7801819    1.1293787   569361 
 2041000    1.0037503   -2.7794213   -2.7794213   -1.6509579  0.055640053   -2.7794213    1.1284634   569361 
 2042000     1.002896   -2.7788561   -2.7788561   -1.6513531  0.063936907   -2.7788561     1.127503   569361 
 2043000    1.0041312    -2.780643    -2.780643   -1.6517514  0.069695078    -2.780643    1.1288916   569361 
 2044000    1.0026506   -2.7790041   -2.7790041   -1.6517771  0.071506332   -2.7790041    1.1272271   569361 
 2045000    1.0041083   -2.7794819   -2.7794819    -1.650616  0.070828125   -2.7794819     1.128866   569361 
 2046000    1.0033752   -2.7802844   -2.7802844   -1.6522427   0.06557783   -2.7802844    1.1280417   569361 
 2047000     1.004458   -2.7799265   -2.7799265   -1.6506674  0.072407313   -2.7799265    1.1292591   569361 
 2048000    1.0032385   -2.7779238   -2.7779238   -1.6500358  0.065316402   -2.7779238     1.127888   569361 
 2049000    1.0044292   -2.7789728   -2.7789728   -1.6497461  0.068849943   -2.7789728    1.1292267   569361 
 2050000    1.0050183   -2.7790197   -2.7790197   -1.6491308  0.077164542   -2.7790197    1.1298889   569361 
 2051000    1.0044676   -2.7782809   -2.7782809   -1.6490111  0.064281759   -2.7782809    1.1292698   569361 
 2052000    1.0019168   -2.7767424   -2.7767424   -1.6503402  0.065271931   -2.7767424    1.1264022   569361 
 2053000    1.0027587   -2.7778924   -2.7778924   -1.6505437  0.070467301   -2.7778924    1.1273487   569361 
 2054000    1.0023611   -2.7776408   -2.7776408   -1.6507391  0.061916691   -2.7776408    1.1269017   569361 
 2055000    1.0025825   -2.7771906   -2.7771906     -1.65004  0.059463975   -2.7771906    1.1271505   569361 
 2056000    1.0022223   -2.7766979   -2.7766979   -1.6499524  0.059589555   -2.7766979    1.1267455   569361 
 2057000    1.0014556    -2.775918    -2.775918   -1.6500344  0.057747626    -2.775918    1.1258836   569361 
 2058000    1.0037457   -2.7782208   -2.7782208   -1.6497625  0.063930349   -2.7782208    1.1284582   569361 
 2059000    1.0020353   -2.7757897   -2.7757897   -1.6492544  0.065361131   -2.7757897    1.1265353   569361 
 2060000    1.0023239   -2.7761085   -2.7761085   -1.6492486  0.064184075   -2.7761085    1.1268599   569361 
 2061000    1.0016171   -2.7752138   -2.7752138   -1.6491486  0.059563122   -2.7752138    1.1260652   569361 
 2062000    1.0010683   -2.7748913   -2.7748913   -1.6494431  0.062797181   -2.7748913    1.1254483   569361 
 2063000    1.0024268   -2.7762134   -2.7762134   -1.6492379  0.062992286   -2.7762134    1.1269755   569361 
 2064000    1.0037657   -2.7775021   -2.7775021   -1.6490213  0.065316426   -2.7775021    1.1284808   569361 
 2065000    1.0046639   -2.7778267   -2.7778267   -1.6483362  0.065582476   -2.7778267    1.1294906   569361 
 2066000    1.0036339   -2.7760583   -2.7760583   -1.6477258  0.076686382   -2.7760583    1.1283326   569361 
 2067000    1.0023364   -2.7759425   -2.7759425   -1.6490687  0.060475258   -2.7759425    1.1268739   569361 
 2068000    1.0032542   -2.7771122   -2.7771122   -1.6492065  0.062726353   -2.7771122    1.1279057   569361 
 2069000    1.0048056   -2.7781278   -2.7781278   -1.6484779  0.060933876   -2.7781278    1.1296499   569361 
 2070000    1.0039843   -2.7768877   -2.7768877   -1.6481612  0.063810245   -2.7768877    1.1287265   569361 
 2071000    1.0032069   -2.7761903   -2.7761903   -1.6483378  0.060206491   -2.7761903    1.1278525   569361 
 2072000    1.0030823   -2.7764743   -2.7764743   -1.6487618  0.074111708   -2.7764743    1.1277125   569361 
 2073000    1.0029317    -2.776121    -2.776121   -1.6485779  0.074432255    -2.776121    1.1275432   569361 
 2074000    1.0036717   -2.7762225   -2.7762225   -1.6478474  0.071596993   -2.7762225    1.1283751   569361 
 2075000    1.0055722   -2.7785351   -2.7785351   -1.6480234  0.062890868   -2.7785351    1.1305118   569361 
 2076000    1.0042242   -2.7781657   -2.7781657   -1.6491695  0.075459224   -2.7781657    1.1289962   569361 
 2077000    1.0040367   -2.7782687   -2.7782687   -1.6494833  0.068173842   -2.7782687    1.1287854   569361 
 2078000    1.0024056   -2.7765274   -2.7765274   -1.6495757  0.070228996   -2.7765274    1.1269517   569361 
 2079000    1.0031533   -2.7777178   -2.7777178   -1.6499255  0.062875351   -2.7777178    1.1277923   569361 
 2080000    1.0041281   -2.7785845   -2.7785845   -1.6496963  0.050108265   -2.7785845    1.1288882   569361 
 2081000     1.002255   -2.7768069   -2.7768069   -1.6500245  0.072510427   -2.7768069    1.1267824   569361 
 2082000    1.0037368   -2.7784832   -2.7784832   -1.6500349  0.064922483   -2.7784832    1.1284483   569361 
 2083000    1.0032362   -2.7773256   -2.7773256   -1.6494402  0.057102254   -2.7773256    1.1278854   569361 
 2084000    1.0039382   -2.7778634   -2.7778634   -1.6491886  0.071295428   -2.7778634    1.1286747   569361 
 2085000    1.0029756   -2.7765231   -2.7765231   -1.6489306  0.070472563   -2.7765231    1.1275925   569361 
 2086000    1.0052827    -2.778144    -2.778144   -1.6479578  0.067741403    -2.778144    1.1301862   569361 
 2087000    1.0043968   -2.7775623   -2.7775623   -1.6483721   0.06845758   -2.7775623    1.1291903   569361 
 2088000    1.0055554   -2.7794955   -2.7794955   -1.6490027  0.064295779   -2.7794955    1.1304928   569361 
 2089000    1.0046363   -2.7785269   -2.7785269   -1.6490674  0.075175685   -2.7785269    1.1294595   569361 
 2090000    1.0040812    -2.777861    -2.777861   -1.6490255   0.07545096    -2.777861    1.1288355   569361 
 2091000    1.0037668   -2.7773153   -2.7773153   -1.6488333  0.057798302   -2.7773153    1.1284819   569361 
 2092000    1.0044206   -2.7777182   -2.7777182   -1.6485011  0.066607684   -2.7777182    1.1292171   569361 
 2093000    1.0045174    -2.778043    -2.778043   -1.6487171  0.065366226    -2.778043    1.1293259   569361 
 2094000    1.0042344   -2.7777566   -2.7777566   -1.6487489   0.06263327   -2.7777566    1.1290076   569361 
 2095000     1.003166   -2.7767686   -2.7767686    -1.648962  0.065724183   -2.7767686    1.1278066   569361 
 2096000    1.0033794   -2.7771949   -2.7771949   -1.6491484  0.063721316   -2.7771949    1.1280465   569361 
 2097000    1.0042817   -2.7778421   -2.7778421   -1.6487812  0.062536663   -2.7778421    1.1290609   569361 
 2098000    1.0033607   -2.7764491   -2.7764491   -1.6484237  0.062686298   -2.7764491    1.1280255   569361 
 2099000    1.0031893   -2.7758522   -2.7758522   -1.6480194  0.069599686   -2.7758522    1.1278328   569361 
 2100000    1.0051532   -2.7781563   -2.7781563   -1.6481156  0.072199822   -2.7781563    1.1300407   569361 
 2101000     1.003608   -2.7768502   -2.7768502   -1.6485467  0.070763362   -2.7768502    1.1283035   569361 
 2102000    1.0056086   -2.7787368   -2.7787368   -1.6481842  0.065266152   -2.7787368    1.1305526   569361 
 2103000    1.0037723   -2.7768844   -2.7768844   -1.6483962  0.060956104   -2.7768844    1.1284882   569361 
 2104000     1.004048   -2.7777695   -2.7777695   -1.6489714  0.059601848   -2.7777695    1.1287982   569361 
 2105000    1.0038836   -2.7766233   -2.7766233   -1.6480099  0.054225463   -2.7766233    1.1286133   569361 
 2106000    1.0030325   -2.7757374   -2.7757374   -1.6480809  0.059971183   -2.7757374    1.1276564   569361 
 2107000     1.002052    -2.775313    -2.775313   -1.6487588  0.052984771    -2.775313    1.1265541   569361 
 2108000    1.0033663   -2.7770972   -2.7770972   -1.6490654  0.066924837   -2.7770972    1.1280318   569361 
 2109000    1.0030421   -2.7766522   -2.7766522   -1.6489849  0.065034222   -2.7766522    1.1276673   569361 
 2110000    1.0005138   -2.7737358   -2.7737358   -1.6489109  0.061705559   -2.7737358    1.1248249   569361 
 2111000    1.0017161   -2.7762122   -2.7762122   -1.6500357  0.060053015   -2.7762122    1.1261765   569361 
 2112000    1.0011636   -2.7754954   -2.7754954   -1.6499401  0.059029258   -2.7754954    1.1255553   569361 
 2113000      1.00061   -2.7753392   -2.7753392   -1.6504062  0.063878594   -2.7753392     1.124933   569361 
 2114000    1.0031689   -2.7773055   -2.7773055   -1.6494958  0.058420858   -2.7773055    1.1278098   569361 
 2115000    1.0025489    -2.775151    -2.775151   -1.6480382  0.063500365    -2.775151    1.1271128   569361 
 2116000    1.0016351    -2.774949    -2.774949   -1.6488636  0.068306124    -2.774949    1.1260854   569361 
 2117000    1.0036481   -2.7774953   -2.7774953   -1.6491468  0.064717415   -2.7774953    1.1283485   569361 
 2118000    1.0057571   -2.7796387   -2.7796387   -1.6489191  0.044544165   -2.7796387    1.1307196   569361 
 2119000    1.0063954   -2.7799479   -2.7799479   -1.6485106  0.064958006   -2.7799479    1.1314372   569361 
 2120000    1.0085605   -2.7811605   -2.7811605   -1.6472893  0.061530915   -2.7811605    1.1338713   569361 
 2121000     1.005396   -2.7786043   -2.7786043   -1.6482907    0.0625014   -2.7786043    1.1303136   569361 
 2122000    1.0051636   -2.7785279   -2.7785279   -1.6484756  0.076201621   -2.7785279    1.1300523   569361 
 2123000    1.0057378   -2.7795826   -2.7795826   -1.6488847  0.062989793   -2.7795826    1.1306979   569361 
 2124000    1.0045963   -2.7784229   -2.7784229   -1.6490083  0.063840869   -2.7784229    1.1294146   569361 
 2125000    1.0056068   -2.7793419   -2.7793419   -1.6487913    0.0693927   -2.7793419    1.1305506   569361 
 2126000    1.0056004   -2.7787639   -2.7787639   -1.6482205  0.080244077   -2.7787639    1.1305434   569361 
 2127000     1.002537   -2.7768209   -2.7768209   -1.6497216  0.082585737   -2.7768209    1.1270994   569361 
 2128000    1.0031808   -2.7781244   -2.7781244   -1.6503013  0.073960927   -2.7781244    1.1278231   569361 
 2129000     1.002667   -2.7774489   -2.7774489   -1.6502034  0.067106717   -2.7774489    1.1272455   569361 
 2130000    1.0044319   -2.7790768   -2.7790768   -1.6498471  0.067589071   -2.7790768    1.1292297   569361 
 2131000    1.0043743   -2.7793095   -2.7793095   -1.6501445  0.070207046   -2.7793095     1.129165   569361 
 2132000    1.0035244   -2.7775405   -2.7775405    -1.649331  0.076833897   -2.7775405    1.1282095   569361 
 2133000    1.0045907   -2.7784063   -2.7784063    -1.648998  0.071097823   -2.7784063    1.1294083   569361 
 2134000    1.0055698   -2.7798197   -2.7798197   -1.6493107  0.068685362   -2.7798197     1.130509   569361 
 2135000    1.0035739   -2.7771764   -2.7771764   -1.6489112  0.066256344   -2.7771764    1.1282652   569361 
 2136000    1.0022025   -2.7761541   -2.7761541   -1.6494308  0.053606126   -2.7761541    1.1267233   569361 
 2137000    1.0010067   -2.7752788   -2.7752788   -1.6498999  0.066493779   -2.7752788    1.1253789   569361 
 2138000    1.0027985   -2.7771789   -2.7771789   -1.6497855  0.057385042   -2.7771789    1.1273934   569361 
 2139000    1.0030203   -2.7773383   -2.7773383   -1.6496955  0.054831946   -2.7773383    1.1276428   569361 
 2140000    1.0020301    -2.775993    -2.775993   -1.6494635  0.068130368    -2.775993    1.1265296   569361 
 2141000    1.0022151   -2.7760387   -2.7760387   -1.6493012  0.058079044   -2.7760387    1.1267375   569361 
 2142000    1.0033079    -2.776079    -2.776079   -1.6481129  0.062573781    -2.776079    1.1279661   569361 
 2143000    1.0032822   -2.7751747   -2.7751747   -1.6472375  0.062143772   -2.7751747    1.1279372   569361 
 2144000    1.0045573   -2.7755719   -2.7755719   -1.6462012  0.065657481   -2.7755719    1.1293707   569361 
 2145000    1.0043237   -2.7761662   -2.7761662   -1.6470581  0.067306117   -2.7761662    1.1291081   569361 
 2146000     1.003893   -2.7757448   -2.7757448   -1.6471209  0.066854673   -2.7757448    1.1286238   569361 
 2147000    1.0040849   -2.7761186   -2.7761186   -1.6472789  0.073689073   -2.7761186    1.1288396   569361 
 2148000    1.0033921   -2.7759452   -2.7759452   -1.6478845  0.060460874   -2.7759452    1.1280608   569361 
 2149000     1.002158   -2.7751538   -2.7751538   -1.6484805  0.062721109   -2.7751538    1.1266733   569361 
 2150000    1.0024189   -2.7753466   -2.7753466     -1.64838  0.063559774   -2.7753466    1.1269666   569361 
 2151000    1.0036368    -2.776407    -2.776407   -1.6480712  0.056402835    -2.776407    1.1283359   569361 
 2152000    1.0024321   -2.7753557   -2.7753557   -1.6483742  0.058883306   -2.7753557    1.1269815   569361 
 2153000    1.0016852   -2.7745717   -2.7745717   -1.6484299  0.072769278   -2.7745717    1.1261417   569361 
 2154000    1.0010706   -2.7744009   -2.7744009   -1.6489501  0.071471588   -2.7744009    1.1254508   569361 
 2155000    1.0024992   -2.7756659   -2.7756659   -1.6486091  0.066409669   -2.7756659    1.1270569   569361 
 2156000    1.0036293   -2.7763836   -2.7763836   -1.6480561  0.055279476   -2.7763836    1.1283274   569361 
 2157000     1.003919   -2.7758491   -2.7758491   -1.6471959  0.060791709   -2.7758491    1.1286531   569361 
 2158000    1.0034382   -2.7749425   -2.7749425     -1.64683  0.064395644   -2.7749425    1.1281125   569361 
 2159000    1.0044131   -2.7753185   -2.7753185   -1.6461099  0.064836156   -2.7753185    1.1292086   569361 
 2160000     1.004585   -2.7766508   -2.7766508    -1.647249  0.069315597   -2.7766508    1.1294018   569361 
 2161000    1.0040422   -2.7761092   -2.7761092   -1.6473176   0.06100549   -2.7761092    1.1287916   569361 
 2162000    1.0041357   -2.7772461   -2.7772461   -1.6483494  0.068996869   -2.7772461    1.1288967   569361 
 2163000    1.0042094   -2.7775846   -2.7775846    -1.648605  0.055727722   -2.7775846    1.1289796   569361 
 2164000    1.0033993   -2.7765126   -2.7765126   -1.6484438  0.060115047   -2.7765126    1.1280688   569361 
 2165000    1.0043053   -2.7765186   -2.7765186   -1.6474312  0.074169575   -2.7765186    1.1290874   569361 
 2166000      1.00501   -2.7775057   -2.7775057   -1.6476261  0.069344645   -2.7775057    1.1298796   569361 
 2167000    1.0054198   -2.7785477   -2.7785477   -1.6482074  0.062984472   -2.7785477    1.1303403   569361 
 2168000    1.0036929   -2.7765768   -2.7765768   -1.6481778  0.067508425   -2.7765768    1.1283989   569361 
 2169000    1.0035985   -2.7766968   -2.7766968    -1.648404  0.069184881   -2.7766968    1.1282928   569361 
 2170000    1.0031884   -2.7763349   -2.7763349   -1.6485031  0.072583072   -2.7763349    1.1278318   569361 
 2171000    1.0038579   -2.7779188   -2.7779188   -1.6493344  0.067430209   -2.7779188    1.1285844   569361 
 2172000    1.0039002   -2.7776269   -2.7776269    -1.648995  0.062865305   -2.7776269    1.1286319   569361 
 2173000    1.0040919   -2.7777352   -2.7777352   -1.6488878  0.061491565   -2.7777352    1.1288475   569361 
 2174000    1.0027934   -2.7761987   -2.7761987   -1.6488111  0.066315952   -2.7761987    1.1273876   569361 
 2175000    1.0040787   -2.7784019   -2.7784019   -1.6495693  0.066954746   -2.7784019    1.1288326   569361 
 2176000    1.0043964   -2.7787134   -2.7787134   -1.6495236  0.065227529   -2.7787134    1.1291898   569361 
 2177000    1.0032009   -2.7776223   -2.7776223   -1.6497765  0.062425782   -2.7776223    1.1278458   569361 
 2178000    1.0032151   -2.7779033   -2.7779033   -1.6500415  0.071947502   -2.7779033    1.1278617   569361 
 2179000    1.0028175   -2.7772863   -2.7772863   -1.6498716  0.070068129   -2.7772863    1.1274147   569361 
 2180000    1.0012906   -2.7754508   -2.7754508   -1.6497526  0.068948547   -2.7754508    1.1256982   569361 
 2181000    1.0035705   -2.7774695   -2.7774695   -1.6492082  0.065757029   -2.7774695    1.1282613   569361 
 2182000    1.0023043   -2.7769534   -2.7769534   -1.6501156  0.068430512   -2.7769534    1.1268378   569361 
 2183000    1.0024485   -2.7764212   -2.7764212   -1.6494213  0.065410234   -2.7764212    1.1269999   569361 
 2184000    1.0036636   -2.7779608   -2.7779608   -1.6495948  0.061709914   -2.7779608     1.128366   569361 
 2185000    1.0024291   -2.7761445   -2.7761445   -1.6491664  0.060753901   -2.7761445     1.126978   569361 
 2186000    1.0026561   -2.7760054   -2.7760054   -1.6487721  0.061922156   -2.7760054    1.1272333   569361 
 2187000    1.0045917   -2.7777575   -2.7777575   -1.6483482  0.079752255   -2.7777575    1.1294094   569361 
 2188000    1.0042317   -2.7770909   -2.7770909   -1.6480863  0.062676125   -2.7770909    1.1290046   569361 
 2189000    1.0057289   -2.7785251   -2.7785251   -1.6478372  0.068551892   -2.7785251    1.1306879   569361 
 2190000    1.0045452   -2.7777885   -2.7777885   -1.6484313  0.064053141   -2.7777885    1.1293571   569361 
 2191000    1.0049267   -2.7777267   -2.7777267   -1.6479406  0.059516471   -2.7777267    1.1297861   569361 
 2192000    1.0039032   -2.7770209   -2.7770209   -1.6483855   0.07171367   -2.7770209    1.1286354   569361 
 2193000    1.0034231   -2.7771128   -2.7771128   -1.6490172  0.066414038   -2.7771128    1.1280956   569361 
 2194000    1.0024908   -2.7765538   -2.7765538   -1.6495064  0.061196775   -2.7765538    1.1270474   569361 
 2195000    1.0020289   -2.7770473   -2.7770473   -1.6505191  0.063086839   -2.7770473    1.1265282   569361 
 2196000    1.0029827   -2.7775455   -2.7775455    -1.649945  0.065742146   -2.7775455    1.1276004   569361 
 2197000    1.0028821   -2.7777776   -2.7777776   -1.6502902  0.057028421   -2.7777776    1.1274874   569361 
 2198000    1.0026096   -2.7761705   -2.7761705   -1.6489894  0.059176599   -2.7761705    1.1271811   569361 
 2199000    1.0038573   -2.7772031   -2.7772031   -1.6486193  0.073232324   -2.7772031    1.1285838   569361 
 2200000    1.0042341   -2.7785126   -2.7785126   -1.6495053  0.055277415   -2.7785126    1.1290073   569361 
 2201000    1.0039033   -2.7770234   -2.7770234   -1.6483879  0.066414971   -2.7770234    1.1286355   569361 
 2202000      1.00524   -2.7790128   -2.7790128   -1.6488746  0.056939529   -2.7790128    1.1301383   569361 
 2203000    1.0028475   -2.7782203   -2.7782203   -1.6507718  0.062481179   -2.7782203    1.1274485   569361 
 2204000    1.0043485    -2.779092    -2.779092    -1.649956  0.066264424    -2.779092     1.129136   569361 
 2205000    1.0039973    -2.778488    -2.778488   -1.6497468  0.071506245    -2.778488    1.1287412   569361 
 2206000    1.0046824   -2.7790367   -2.7790367   -1.6495254  0.070668557   -2.7790367    1.1295114   569361 
 2207000     1.004668   -2.7792275   -2.7792275   -1.6497323  0.064560956   -2.7792275    1.1294951   569361 
 2208000    1.0047186   -2.7795915   -2.7795915   -1.6500395  0.067200941   -2.7795915     1.129552   569361 
 2209000    1.0039913    -2.778083    -2.778083   -1.6493486  0.068058901    -2.778083    1.1287344   569361 
 2210000    1.0045404   -2.7791416   -2.7791416   -1.6497898   0.05652542   -2.7791416    1.1293517   569361 
 2211000    1.0033612   -2.7772147   -2.7772147   -1.6491887  0.069907277   -2.7772147     1.128026   569361 
 2212000     1.002795   -2.7766786   -2.7766786   -1.6492892  0.071191339   -2.7766786    1.1273894   569361 
 2213000    1.0049502   -2.7790418   -2.7790418   -1.6492293  0.058777347   -2.7790418    1.1298125   569361 
 2214000    1.0045305   -2.7785226   -2.7785226   -1.6491821  0.072543746   -2.7785226    1.1293405   569361 
 2215000    1.0038903    -2.777179    -2.777179   -1.6485582   0.06496437    -2.777179    1.1286208   569361 
 2216000     1.002723   -2.7760766   -2.7760766   -1.6487681  0.063152811   -2.7760766    1.1273085   569361 
 2217000     1.004056   -2.7765634   -2.7765634   -1.6477563  0.069023028   -2.7765634    1.1288071   569361 
 2218000    1.0055915   -2.7779215   -2.7779215   -1.6473881  0.070832622   -2.7779215    1.1305334   569361 
 2219000    1.0034329   -2.7770072   -2.7770072   -1.6489006   0.07246721   -2.7770072    1.1281066   569361 
 2220000    1.0035337   -2.7764714   -2.7764714   -1.6482514  0.074399589   -2.7764714      1.12822   569361 
 2221000    1.0023967   -2.7764877   -2.7764877   -1.6495461  0.058848659   -2.7764877    1.1269416   569361 
 2222000    1.0041468   -2.7777718   -2.7777718   -1.6488625  0.070019532   -2.7777718    1.1289093   569361 
 2223000    1.0017303   -2.7747853   -2.7747853   -1.6485929  0.056591073   -2.7747853    1.1261925   569361 
 2224000    1.0024286   -2.7761139   -2.7761139   -1.6491364  0.060705179   -2.7761139    1.1269775   569361 
 2225000    1.0035939   -2.7771558   -2.7771558   -1.6488682    0.0660118   -2.7771558    1.1282876   569361 
 2226000    1.0035379   -2.7771826   -2.7771826   -1.6489579  0.067847306   -2.7771826    1.1282247   569361 
 2227000    1.0044298   -2.7781696   -2.7781696   -1.6489422  0.064550774   -2.7781696    1.1292274   569361 
 2228000    1.0016318   -2.7743885   -2.7743885   -1.6483068  0.063525974   -2.7743885    1.1260818   569361 
 2229000    1.0028643   -2.7759394   -2.7759394    -1.648472   0.07326773   -2.7759394    1.1274674   569361 
 2230000    1.0047464   -2.7769035   -2.7769035   -1.6473202  0.067177526   -2.7769035    1.1295833   569361 
 2231000    1.0044999   -2.7779633   -2.7779633   -1.6486571  0.067492979   -2.7779633    1.1293062   569361 
 2232000    1.0033925   -2.7765815   -2.7765815   -1.6485204  0.071533146   -2.7765815    1.1280612   569361 
 2233000    1.0036459   -2.7767794   -2.7767794   -1.6484333  0.068888817   -2.7767794    1.1283461   569361 
 2234000    1.0044676   -2.7774992   -2.7774992   -1.6482293  0.057155359   -2.7774992    1.1292699   569361 
 2235000    1.0032509   -2.7759351   -2.7759351   -1.6480331  0.081872378   -2.7759351    1.1279019   569361 
 2236000    1.0051809   -2.7775007   -2.7775007   -1.6474288  0.063631989   -2.7775007    1.1300718   569361 
 2237000    1.0043083   -2.7762216   -2.7762216   -1.6471308  0.069325347   -2.7762216    1.1290908   569361 
 2238000    1.0047422   -2.7769193   -2.7769193   -1.6473407  0.067587571   -2.7769193    1.1295786   569361 
 2239000    1.0051897   -2.7765574   -2.7765574   -1.6464757  0.067143717   -2.7765574    1.1300816   569361 
 2240000     1.003774   -2.7749238   -2.7749238   -1.6464337  0.071258276   -2.7749238    1.1284901   569361 
 2241000    1.0061849   -2.7776712   -2.7776712   -1.6464707  0.069449049   -2.7776712    1.1312005   569361 
 2242000    1.0043145   -2.7754008   -2.7754008    -1.646303  0.065562648   -2.7754008    1.1290977   569361 
 2243000    1.0037163    -2.775492    -2.775492   -1.6470667  0.067845338    -2.775492    1.1284252   569361 
 2244000    1.0035083   -2.7747685   -2.7747685   -1.6465771  0.056313277   -2.7747685    1.1281914   569361 
 2245000     1.004106    -2.775103    -2.775103   -1.6462397  0.060101947    -2.775103    1.1288633   569361 
 2246000    1.0062525   -2.7777868   -2.7777868   -1.6465103  0.058677839   -2.7777868    1.1312765   569361 
 2247000    1.0028694   -2.7735375   -2.7735375   -1.6460644  0.069847169   -2.7735375    1.1274731   569361 
 2248000    1.0029323   -2.7739619   -2.7739619   -1.6464182  0.061439342   -2.7739619    1.1275438   569361 
 2249000    1.0017374     -2.77207     -2.77207   -1.6458696  0.059498291     -2.77207    1.1262004   569361 
 2250000    1.0042564   -2.7745466   -2.7745466   -1.6455142  0.054485437   -2.7745466    1.1290325   569361 
 2251000    1.0020886   -2.7737368   -2.7737368   -1.6471416  0.070532543   -2.7737368    1.1265953   569361 
 2252000    1.0041359    -2.775561    -2.775561   -1.6466641  0.059558857    -2.775561    1.1288969   569361 
 2253000    1.0033062   -2.7734587   -2.7734587   -1.6454946  0.062062543   -2.7734587    1.1279642   569361 
 2254000    1.0036221    -2.774377    -2.774377   -1.6460577  0.069531097    -2.774377    1.1283193   569361 
 2255000    1.0044581   -2.7747607   -2.7747607   -1.6455016   0.05619374   -2.7747607    1.1292592   569361 
 2256000    1.0039305   -2.7738119   -2.7738119   -1.6451458  0.068478066   -2.7738119     1.128666   569361 
 2257000    1.0051737   -2.7749795   -2.7749795   -1.6449157  0.058732236   -2.7749795    1.1300637   569361 
 2258000    1.0020835   -2.7723545   -2.7723545   -1.6457649   0.06695197   -2.7723545    1.1265896   569361 
 2259000    1.0044032   -2.7736867   -2.7736867   -1.6444893  0.066847612   -2.7736867    1.1291974   569361 
 2260000    1.0029993   -2.7727044   -2.7727044   -1.6450852  0.061077395   -2.7727044    1.1276192   569361 
 2261000    1.0048764   -2.7748544   -2.7748544    -1.645125  0.062792447   -2.7748544    1.1297294   569361 
 2262000    1.0062684   -2.7756444   -2.7756444     -1.64435  0.064010159   -2.7756444    1.1312944   569361 
 2263000    1.0051603   -2.7753193   -2.7753193   -1.6452707  0.062838446   -2.7753193    1.1300486   569361 
 2264000    1.0062542   -2.7755067   -2.7755067   -1.6442283  0.057968056   -2.7755067    1.1312784   569361 
 2265000    1.0041851   -2.7731884   -2.7731884   -1.6442362  0.066287828   -2.7731884    1.1289522   569361 
 2266000    1.0042311   -2.7738376   -2.7738376   -1.6448336  0.070919168   -2.7738376     1.129004   569361 
 2267000    1.0040637   -2.7746442   -2.7746442   -1.6458284   0.05454067   -2.7746442    1.1288158   569361 
 2268000    1.0046152   -2.7752752   -2.7752752   -1.6458394  0.046578454   -2.7752752    1.1294358   569361 
 2269000    1.0036734   -2.7742682   -2.7742682   -1.6458912  0.065190825   -2.7742682     1.128377   569361 
 2270000     1.003756   -2.7743794   -2.7743794   -1.6459096  0.064454646   -2.7743794    1.1284698   569361 
 2271000    1.0020276   -2.7735154   -2.7735154   -1.6469888  0.069583128   -2.7735154    1.1265267   569361 
 2272000    1.0030587   -2.7747718   -2.7747718   -1.6470859  0.070590378   -2.7747718    1.1276859   569361 
 2273000    1.0025887   -2.7746326   -2.7746326   -1.6474751  0.061226833   -2.7746326    1.1271575   569361 
 2274000    1.0021478   -2.7738494   -2.7738494   -1.6471876  0.068569966   -2.7738494    1.1266618   569361 
 2275000    1.0021903   -2.7738762   -2.7738762   -1.6471666  0.067806077   -2.7738762    1.1267096   569361 
 2276000    1.0031105   -2.7754887   -2.7754887   -1.6477445  0.070693635   -2.7754887    1.1277442   569361 
 2277000    1.0040712   -2.7770059   -2.7770059   -1.6481817  0.055653622   -2.7770059    1.1288242   569361 
 2278000    1.0041386   -2.7774707   -2.7774707   -1.6485708  0.063507079   -2.7774707       1.1289   569361 
 2279000    1.0019644   -2.7757452   -2.7757452   -1.6492895  0.066311154   -2.7757452    1.1264557   569361 
 2280000    1.0050864   -2.7786207   -2.7786207   -1.6486552  0.057565403   -2.7786207    1.1299655   569361 
 2281000    1.0051673   -2.7786898   -2.7786898   -1.6486333  0.057201028   -2.7786898    1.1300565   569361 
 2282000    1.0042885   -2.7769721   -2.7769721   -1.6479036  0.068144695   -2.7769721    1.1290685   569361 
 2283000    1.0049971   -2.7783266   -2.7783266   -1.6484614  0.074312229   -2.7783266    1.1298651   569361 
 2284000    1.0046164   -2.7769304   -2.7769304   -1.6474932  0.062219095   -2.7769304    1.1294371   569361 
 2285000     1.004272   -2.7756723   -2.7756723   -1.6466223  0.070781791   -2.7756723      1.12905   569361 
 2286000     1.004436   -2.7757627   -2.7757627   -1.6465283  0.069171939   -2.7757627    1.1292344   569361 
 2287000     1.004893   -2.7764337   -2.7764337   -1.6466855  0.075522678   -2.7764337    1.1297482   569361 
 2288000    1.0060982   -2.7788177   -2.7788177   -1.6477146  0.071760113   -2.7788177    1.1311031   569361 
 2289000    1.0043809   -2.7772017   -2.7772017   -1.6480294  0.070955087   -2.7772017    1.1291724   569361 
 2290000    1.0060814   -2.7784574   -2.7784574   -1.6473733  0.067780517   -2.7784574    1.1310842   569361 
 2291000    1.0052133   -2.7776395   -2.7776395   -1.6475313  0.067289946   -2.7776395    1.1301082   569361 
 2292000     1.004972   -2.7775006   -2.7775006   -1.6476636  0.059684588   -2.7775006     1.129837   569361 
 2293000    1.0052208   -2.7773837   -2.7773837   -1.6472671  0.066566298   -2.7773837    1.1301166   569361 
 2294000    1.0055022   -2.7769893   -2.7769893   -1.6465563  0.066200058   -2.7769893     1.130433   569361 
 2295000    1.0063111   -2.7778957   -2.7778957   -1.6465533  0.063564824   -2.7778957    1.1313424   569361 
 2296000    1.0035455   -2.7741424   -2.7741424   -1.6459092  0.075237747   -2.7741424    1.1282332   569361 
 2297000    1.0024297   -2.7739657   -2.7739657   -1.6469869  0.062528511   -2.7739657    1.1269788   569361 
 2298000    1.0043221   -2.7753924   -2.7753924   -1.6462861  0.080580935   -2.7753924    1.1291063   569361 
 2299000    1.0038944   -2.7740207   -2.7740207   -1.6453952  0.064147887   -2.7740207    1.1286254   569361 
 2300000    1.0045475   -2.7751025   -2.7751025   -1.6457428  0.059659786   -2.7751025    1.1293597   569361 
 2301000    1.0035084   -2.7734865   -2.7734865    -1.645295  0.065294241   -2.7734865    1.1281915   569361 
 2302000    1.0025792   -2.7732787   -2.7732787   -1.6461318  0.063169341   -2.7732787    1.1271468   569361 
 2303000    1.0025885   -2.7741112   -2.7741112    -1.646954  0.063925349   -2.7741112    1.1271573   569361 
 2304000    1.0032845   -2.7741846   -2.7741846   -1.6462448  0.054290342   -2.7741846    1.1279398   569361 
 2305000    1.0029918   -2.7730327   -2.7730327    -1.645422  0.053298388   -2.7730327    1.1276107   569361 
 2306000    1.0044555   -2.7743599   -2.7743599   -1.6451036  0.053784117   -2.7743599    1.1292563   569361 
 2307000    1.0042038   -2.7736563   -2.7736563   -1.6446831   0.06489658   -2.7736563    1.1289732   569361 
 2308000    1.0043293   -2.7735923   -2.7735923   -1.6444779  0.070825788   -2.7735923    1.1291144   569361 
 2309000    1.0028521   -2.7723967   -2.7723967    -1.644943  0.058590711   -2.7723967    1.1274537   569361 
 2310000    1.0029659    -2.772879    -2.772879   -1.6452974  0.060739115    -2.772879    1.1275816   569361 
 2311000    1.0017902   -2.7714358   -2.7714358    -1.645176  0.062158433   -2.7714358    1.1262598   569361 
 2312000    1.0043549   -2.7737438   -2.7737438   -1.6446006  0.062529292   -2.7737438    1.1291432   569361 
 2313000    1.0029701   -2.7727685   -2.7727685   -1.6451823  0.057295742   -2.7727685    1.1275863   569361 
 2314000    1.0031413    -2.772779    -2.772779   -1.6450003  0.067282212    -2.772779    1.1277788   569361 
 2315000    1.0041784   -2.7742196   -2.7742196   -1.6452749  0.061698322   -2.7742196    1.1289447   569361 
 2316000    1.0038868   -2.7737187   -2.7737187   -1.6451018  0.063959513   -2.7737187     1.128617   569361 
 2317000    1.0026585   -2.7723873   -2.7723873   -1.6451512  0.068225114   -2.7723873     1.127236   569361 
 2318000    1.0032991   -2.7732463   -2.7732463   -1.6452902  0.070340643   -2.7732463    1.1279561   569361 
 2319000    1.0038659   -2.7739939   -2.7739939   -1.6454005   0.06541349   -2.7739939    1.1285934   569361 
 2320000    1.0035872   -2.7742351   -2.7742351    -1.645955  0.061690672   -2.7742351    1.1282801   569361 
 2321000     1.002704   -2.7737521   -2.7737521   -1.6464649  0.060552726   -2.7737521    1.1272871   569361 
 2322000     1.002906    -2.774107    -2.774107   -1.6465928  0.064060059    -2.774107    1.1275142   569361 
 2323000    1.0033103   -2.7752317   -2.7752317   -1.6472629  0.064199344   -2.7752317    1.1279688   569361 
 2324000     1.004189   -2.7761241   -2.7761241   -1.6471674  0.064515017   -2.7761241    1.1289566   569361 
 2325000    1.0053367   -2.7767885   -2.7767885   -1.6465415  0.069571433   -2.7767885     1.130247   569361 
 2326000    1.0055945   -2.7774872   -2.7774872   -1.6469504  0.070605476   -2.7774872    1.1305368   569361 
 2327000    1.0048509   -2.7764487   -2.7764487   -1.6467479  0.050572468   -2.7764487    1.1297008   569361 
 2328000    1.0042604   -2.7765197   -2.7765197   -1.6474828  0.060026275   -2.7765197     1.129037   569361 
 2329000    1.0041865   -2.7765849   -2.7765849   -1.6476311  0.065952551   -2.7765849    1.1289538   569361 
 2330000    1.0051456   -2.7771916   -2.7771916   -1.6471595  0.070514326   -2.7771916    1.1300321   569361 
 2331000    1.0049607   -2.7774654   -2.7774654   -1.6476411  0.068946324   -2.7774654    1.1298243   569361 
 2332000    1.0043026   -2.7765241   -2.7765241   -1.6474397  0.066394577   -2.7765241    1.1290844   569361 
 2333000     1.006611     -2.77948     -2.77948   -1.6478004  0.063431404     -2.77948    1.1316796   569361 
 2334000    1.0051492   -2.7776422   -2.7776422   -1.6476061   0.06513799   -2.7776422    1.1300362   569361 
 2335000    1.0048924   -2.7769591   -2.7769591   -1.6472117  0.059827907   -2.7769591    1.1297474   569361 
 2336000    1.0055454   -2.7775038   -2.7775038   -1.6470222  0.078021317   -2.7775038    1.1304816   569361 
 2337000    1.0058889   -2.7776159   -2.7776159   -1.6467481  0.061446634   -2.7776159    1.1308677   569361 
 2338000    1.0059298   -2.7779407   -2.7779407    -1.647027  0.064702401   -2.7779407    1.1309137   569361 
 2339000    1.0051372   -2.7764793   -2.7764793   -1.6464567  0.066454088   -2.7764793    1.1300226   569361 
 2340000    1.0057446   -2.7777531   -2.7777531   -1.6470476  0.060689502   -2.7777531    1.1307055   569361 
 2341000    1.0047131     -2.77568     -2.77568   -1.6461341  0.067981913     -2.77568    1.1295459   569361 
 2342000    1.0047486   -2.7754409   -2.7754409   -1.6458552  0.080770825   -2.7754409    1.1295857   569361 
 2343000    1.0044868   -2.7751652   -2.7751652   -1.6458737   0.06289459   -2.7751652    1.1292914   569361 
 2344000     1.004091   -2.7748365   -2.7748365     -1.64599  0.075238915   -2.7748365    1.1288465   569361 
 2345000    1.0051422   -2.7752118   -2.7752118   -1.6451835  0.062896386   -2.7752118    1.1300283   569361 
 2346000    1.0050522   -2.7755505   -2.7755505   -1.6456234  0.061989145   -2.7755505    1.1299271   569361 
 2347000    1.0031112     -2.77336     -2.77336   -1.6456151  0.072952322     -2.77336    1.1277449   569361 
 2348000    1.0040271   -2.7747154   -2.7747154   -1.6459407  0.052653784   -2.7747154    1.1287747   569361 
 2349000    1.0048588    -2.774814    -2.774814   -1.6451043  0.057980074    -2.774814    1.1297097   569361 
 2350000    1.0043671   -2.7735278   -2.7735278   -1.6443709  0.066394464   -2.7735278    1.1291569   569361 
 2351000    1.0051216   -2.7754645   -2.7754645   -1.6454594  0.066586945   -2.7754645    1.1300051   569361 
 2352000    1.0032587   -2.7723442   -2.7723442   -1.6444335  0.068792154   -2.7723442    1.1279107   569361 
 2353000    1.0021367   -2.7720256   -2.7720256   -1.6453763  0.059975596   -2.7720256    1.1266494   569361 
 2354000    1.0030365   -2.7728128   -2.7728128   -1.6451519   0.05338061   -2.7728128     1.127661   569361 
 2355000    1.0033932   -2.7736001   -2.7736001   -1.6455381  0.064174422   -2.7736001     1.128062   569361 
 2356000    1.0043972    -2.774451    -2.774451   -1.6452603   0.06804944    -2.774451    1.1291907   569361 
 2357000    1.0042632   -2.7736315   -2.7736315   -1.6445914  0.056378215   -2.7736315      1.12904   569361 
 2358000    1.0045123   -2.7747093   -2.7747093   -1.6453892  0.058048283   -2.7747093    1.1293201   569361 
 2359000    1.0022649   -2.7730183   -2.7730183   -1.6462248  0.048655343   -2.7730183    1.1267935   569361 
 2360000    1.0036699   -2.7734487   -2.7734487   -1.6450757  0.057113145   -2.7734487     1.128373   569361 
 2361000    1.0049689    -2.774452    -2.774452   -1.6446185  0.072851695    -2.774452    1.1298335   569361 
 2362000    1.0058556   -2.7760611   -2.7760611   -1.6452308  0.065652539   -2.7760611    1.1308303   569361 
 2363000    1.0047954    -2.776131    -2.776131   -1.6464925  0.057671682    -2.776131    1.1296384   569361 
 2364000    1.0033065   -2.7743595   -2.7743595   -1.6463951  0.066784329   -2.7743595    1.1279645   569361 
 2365000    1.0037052   -2.7760903   -2.7760903   -1.6476776  0.048327542   -2.7760903    1.1284127   569361 
 2366000    1.0021432   -2.7734322   -2.7734322   -1.6467755  0.062043429   -2.7734322    1.1266567   569361 
 2367000    1.0046226   -2.7753492   -2.7753492   -1.6459051  0.064140416   -2.7753492    1.1294441   569361 
 2368000    1.0036559   -2.7745494   -2.7745494   -1.6461921  0.064019771   -2.7745494    1.1283573   569361 
 2369000    1.0046626    -2.775997    -2.775997   -1.6465079  0.068727305    -2.775997    1.1294891   569361 
 2370000      1.00508   -2.7760875   -2.7760875   -1.6461291  0.068706112   -2.7760875    1.1299584   569361 
 2371000    1.0044789    -2.775741    -2.775741   -1.6464585  0.053478248    -2.775741    1.1292826   569361 
 2372000    1.0060543    -2.777481    -2.777481   -1.6464273  0.084970703    -2.777481    1.1310537   569361 
 2373000     1.006549   -2.7787971   -2.7787971   -1.6471872  0.079350592   -2.7787971    1.1316099   569361 
 2374000    1.0065659    -2.777991    -2.777991   -1.6463622  0.068792543    -2.777991    1.1316288   569361 
 2375000    1.0063306   -2.7785209   -2.7785209   -1.6471565  0.070067087   -2.7785209    1.1313643   569361 
 2376000    1.0062031   -2.7782852   -2.7782852   -1.6470642   0.08136183   -2.7782852     1.131221   569361 
 2377000    1.0062136   -2.7781045   -2.7781045   -1.6468717  0.080229744   -2.7781045    1.1312328   569361 
 2378000    1.0052995   -2.7768774   -2.7768774   -1.6466723   0.06916233   -2.7768774    1.1302051   569361 
 2379000     1.004897   -2.7765508   -2.7765508   -1.6467982  0.078211685   -2.7765508    1.1297526   569361 
 2380000    1.0059717   -2.7774249   -2.7774249    -1.646464  0.071009826   -2.7774249    1.1309609   569361 
 2381000    1.0060306   -2.7774367   -2.7774367   -1.6464096  0.068858334   -2.7774367    1.1310271   569361 
 2382000    1.0052478    -2.778138    -2.778138    -1.647991  0.067478557    -2.778138     1.130147   569361 
 2383000    1.0049826   -2.7773579   -2.7773579    -1.647509  0.055953312   -2.7773579    1.1298489   569361 
 2384000    1.0037951   -2.7761861   -2.7761861   -1.6476722  0.060283217   -2.7761861    1.1285139   569361 
 2385000    1.0032993   -2.7750373   -2.7750373   -1.6470809  0.063032741   -2.7750373    1.1279564   569361 
 2386000    1.0041819   -2.7759032   -2.7759032   -1.6469545  0.052580458   -2.7759032    1.1289487   569361 
 2387000    1.0060828   -2.7772591   -2.7772591   -1.6461733  0.057340225   -2.7772591    1.1310858   569361 
 2388000    1.0044949   -2.7758043   -2.7758043   -1.6465037  0.075323516   -2.7758043    1.1293006   569361 
 2389000    1.0033646   -2.7741899   -2.7741899     -1.64616  0.059443075   -2.7741899    1.1280299   569361 
 2390000    1.0044054   -2.7749912   -2.7749912   -1.6457912  0.076336838   -2.7749912       1.1292   569361 
 2391000    1.0039196   -2.7747523   -2.7747523   -1.6460986  0.070038737   -2.7747523    1.1286537   569361 
 2392000    1.0062567   -2.7768564   -2.7768564   -1.6455752  0.065574538   -2.7768564    1.1312812   569361 
 2393000    1.0047417    -2.774935    -2.774935    -1.645357  0.069753484    -2.774935     1.129578   569361 
 2394000    1.0042327   -2.7740905   -2.7740905   -1.6450848   0.05913206   -2.7740905    1.1290058   569361 
 2395000    1.0047281   -2.7739711   -2.7739711   -1.6444083  0.068257599   -2.7739711    1.1295628   569361 
 2396000    1.0045235   -2.7733916   -2.7733916   -1.6440589  0.070892993   -2.7733916    1.1293327   569361 
 2397000    1.0031412   -2.7723476   -2.7723476   -1.6445689  0.071416387   -2.7723476    1.1277787   569361 
 2398000    1.0049581   -2.7736889   -2.7736889   -1.6438676  0.074712764   -2.7736889    1.1298213   569361 
 2399000    1.0030856   -2.7720326   -2.7720326   -1.6443164  0.062799246   -2.7720326    1.1277162   569361 
 2400000    1.0020616   -2.7706002   -2.7706002   -1.6440352  0.070123365   -2.7706002    1.1265649   569361 
 2401000    1.0044883   -2.7738993   -2.7738993   -1.6446062  0.057951828   -2.7738993    1.1292931   569361 
 2402000    1.0024422   -2.7718765   -2.7718765   -1.6448836  0.055416059   -2.7718765    1.1269928   569361 
 2403000    1.0023947   -2.7717613   -2.7717613    -1.644822   0.06418425   -2.7717613    1.1269394   569361 
 2404000    1.0029316   -2.7727845   -2.7727845   -1.6452415    0.0679332   -2.7727845     1.127543   569361 
 2405000     1.002974   -2.7712566   -2.7712566   -1.6436659  0.059597899   -2.7712566    1.1275907   569361 
 2406000    1.0035538   -2.7728006   -2.7728006   -1.6445581  0.062122325   -2.7728006    1.1282425   569361 
 2407000    1.0044937   -2.7738812   -2.7738812    -1.644582  0.063067075   -2.7738812    1.1292992   569361 
 2408000    1.0045479   -2.7744813   -2.7744813   -1.6451212  0.066498102   -2.7744813    1.1293601   569361 
 2409000    1.0047675   -2.7748469   -2.7748469   -1.6452398    0.0654305   -2.7748469    1.1296071   569361 
 2410000    1.0048822   -2.7746331   -2.7746331   -1.6448971  0.073014256   -2.7746331     1.129736   569361 
 2411000    1.0052147   -2.7752584   -2.7752584   -1.6451486  0.058551302   -2.7752584    1.1301098   569361 
 2412000    1.0037675    -2.774068    -2.774068   -1.6455852  0.058506363    -2.774068    1.1284828   569361 
 2413000    1.0051641    -2.776578    -2.776578   -1.6465251  0.063985334    -2.776578    1.1300529   569361 
 2414000    1.0030986   -2.7734836   -2.7734836   -1.6457529  0.060133531   -2.7734836    1.1277308   569361 
 2415000    1.0041574   -2.7750117   -2.7750117   -1.6460906  0.068791656   -2.7750117    1.1289211   569361 
 2416000    1.0047762   -2.7751481   -2.7751481   -1.6455313  0.059605786   -2.7751481    1.1296168   569361 
 2417000    1.0053717   -2.7761166   -2.7761166   -1.6458303   0.06155121   -2.7761166    1.1302863   569361 
 2418000    1.0060876   -2.7773812   -2.7773812   -1.6462901  0.057438354   -2.7773812    1.1310911   569361 
 2419000    1.0053303   -2.7762037   -2.7762037    -1.645964  0.067389495   -2.7762037    1.1302397   569361 
 2420000    1.0065482   -2.7781269   -2.7781269   -1.6465179  0.072292216   -2.7781269     1.131609   569361 
 2421000    1.0064539   -2.7774568   -2.7774568   -1.6459538  0.079831611   -2.7774568     1.131503   569361 
 2422000    1.0072317   -2.7785578   -2.7785578   -1.6461804  0.070144618   -2.7785578    1.1323774   569361 
 2423000    1.0074557   -2.7786548   -2.7786548   -1.6460255  0.067218574   -2.7786548    1.1326293   569361 
 2424000    1.0050792   -2.7762872   -2.7762872   -1.6463298  0.072660442   -2.7762872    1.1299574   569361 
 2425000    1.0063275   -2.7772677   -2.7772677   -1.6459069  0.067257539   -2.7772677    1.1313608   569361 
 2426000    1.0065398   -2.7764426   -2.7764426   -1.6448431  0.060410845   -2.7764426    1.1315995   569361 
 2427000    1.0053937    -2.775855    -2.775855   -1.6455439  0.073476373    -2.775855    1.1303111   569361 
 2428000    1.0056551   -2.7762475   -2.7762475   -1.6456425  0.066321274   -2.7762475    1.1306049   569361 
 2429000    1.0043409   -2.7742971   -2.7742971   -1.6451696  0.067948665   -2.7742971    1.1291275   569361 
 2430000    1.0049818   -2.7757874   -2.7757874   -1.6459394  0.061625954   -2.7757874    1.1298479   569361 
 2431000    1.0039741   -2.7741986   -2.7741986   -1.6454836  0.063070893   -2.7741986     1.128715   569361 
 2432000    1.0038825   -2.7734343   -2.7734343   -1.6448222  0.075562618   -2.7734343    1.1286121   569361 
 2433000    1.0040153   -2.7736359   -2.7736359   -1.6448745   0.06105879   -2.7736359    1.1287614   569361 
 2434000    1.0029204   -2.7733761   -2.7733761   -1.6458457  0.059287014   -2.7733761    1.1275305   569361 
 2435000    1.0035335    -2.772966    -2.772966   -1.6447463  0.063248613    -2.772966    1.1282197   569361 
 2436000    1.0039624   -2.7731279   -2.7731279    -1.644426  0.059800616   -2.7731279    1.1287019   569361 
 2437000    1.0047738   -2.7731271   -2.7731271   -1.6435129  0.064959265   -2.7731271    1.1296142   569361 
 2438000    1.0035529   -2.7707311   -2.7707311   -1.6424896  0.074439514   -2.7707311    1.1282415   569361 
 2439000    1.0035355   -2.7714494   -2.7714494   -1.6432275  0.065281733   -2.7714494    1.1282219   569361 
 2440000      1.00321   -2.7716751   -2.7716751   -1.6438191  0.061737669   -2.7716751     1.127856   569361 
 2441000    1.0012544   -2.7698811   -2.7698811   -1.6442237  0.053838015   -2.7698811    1.1256574   569361 
 2442000     1.002995    -2.772217    -2.772217   -1.6446026  0.062571517    -2.772217    1.1276144   569361 
 2443000    1.0048959    -2.774789    -2.774789   -1.6450377  0.060282158    -2.774789    1.1297514   569361 
 2444000    1.0038065    -2.772581    -2.772581   -1.6440544  0.058703838    -2.772581    1.1285267   569361 
 2445000    1.0035748   -2.7724578   -2.7724578   -1.6441916  0.054238773   -2.7724578    1.1282661   569361 
 2446000    1.0038078   -2.7722382   -2.7722382   -1.6437101  0.071843535   -2.7722382    1.1285281   569361 
 2447000    1.0029801   -2.7721582   -2.7721582   -1.6445606  0.064647512   -2.7721582    1.1275976   569361 
 2448000    1.0038357   -2.7725726   -2.7725726   -1.6440131  0.071150379   -2.7725726    1.1285594   569361 
 2449000    1.0036573   -2.7726728   -2.7726728   -1.6443139  0.065579515   -2.7726728    1.1283589   569361 
 2450000    1.0030375   -2.7732195   -2.7732195   -1.6455575  0.061636404   -2.7732195     1.127662   569361 
 2451000    1.0032176   -2.7732484   -2.7732484   -1.6453838  0.058385294   -2.7732484    1.1278646   569361 
 2452000    1.0045022   -2.7746036   -2.7746036   -1.6452948  0.069704923   -2.7746036    1.1293088   569361 
 2453000    1.0025174   -2.7734101   -2.7734101   -1.6463328  0.076021514   -2.7734101    1.1270773   569361 
 2454000    1.0023557    -2.773721    -2.773721   -1.6468254   0.07056303    -2.773721    1.1268955   569361 
 2455000    1.0039623   -2.7753708   -2.7753708    -1.646669  0.063522093   -2.7753708    1.1287018   569361 
 2456000    1.0033105   -2.7749218   -2.7749218   -1.6469528    0.0771577   -2.7749218     1.127969   569361 
 2457000    1.0063203   -2.7776865   -2.7776865   -1.6463338  0.069916794   -2.7776865    1.1313527   569361 
 2458000    1.0060671   -2.7776664   -2.7776664   -1.6465983  0.070364355   -2.7776664    1.1310681   569361 
 2459000    1.0038537    -2.776254    -2.776254   -1.6476743    0.0825461    -2.776254    1.1285797   569361 
 2460000    1.0066444    -2.778532    -2.778532    -1.646815  0.068245281    -2.778532    1.1317171   569361 
 2461000    1.0052049   -2.7769847   -2.7769847   -1.6468859  0.068831785   -2.7769847    1.1300988   569361 
 2462000    1.0054713   -2.7768665   -2.7768665   -1.6464681  0.073481854   -2.7768665    1.1303983   569361 
 2463000    1.0064918   -2.7781715   -2.7781715   -1.6466259  0.076893297   -2.7781715    1.1315456   569361 
 2464000    1.0075195   -2.7796452   -2.7796452   -1.6469442  0.065118537   -2.7796452     1.132701   569361 
 2465000    1.0062514   -2.7787497   -2.7787497   -1.6474744  0.067179682   -2.7787497    1.1312753   569361 
 2466000    1.0044477   -2.7769708   -2.7769708   -1.6477234  0.073708344   -2.7769708    1.1292474   569361 
 2467000    1.0058211   -2.7780473   -2.7780473   -1.6472557  0.080884419   -2.7780473    1.1307915   569361 
 2468000    1.0048556   -2.7775318   -2.7775318   -1.6478257  0.074384074   -2.7775318    1.1297061   569361 
 2469000    1.0066954    -2.778927    -2.778927   -1.6471525  0.067989996    -2.778927    1.1317745   569361 
 2470000    1.0064235   -2.7776372   -2.7776372   -1.6461684  0.076267507   -2.7776372    1.1314688   569361 
 2471000    1.0051181    -2.776504    -2.776504   -1.6465028  0.066712854    -2.776504    1.1300012   569361 
 2472000    1.0044503   -2.7762393   -2.7762393   -1.6469888  0.064496705   -2.7762393    1.1292505   569361 
 2473000    1.0044958   -2.7753627   -2.7753627   -1.6460611  0.059743581   -2.7753627    1.1293016   569361 
 2474000    1.0035246   -2.7742858   -2.7742858    -1.646076  0.073803373   -2.7742858    1.1282098   569361 
 2475000    1.0042421   -2.7749916   -2.7749916   -1.6459752  0.063570202   -2.7749916    1.1290164   569361 
 2476000    1.0049216   -2.7751138   -2.7751138   -1.6453336  0.060572496   -2.7751138    1.1297802   569361 
 2477000    1.0046371   -2.7745457   -2.7745457   -1.6450853  0.069465303   -2.7745457    1.1294604   569361 
 2478000     1.004403   -2.7734601   -2.7734601   -1.6442629  0.067219239   -2.7734601    1.1291972   569361 
 2479000    1.0049338   -2.7735069   -2.7735069    -1.643713  0.058313846   -2.7735069     1.129794   569361 
 2480000    1.0053595   -2.7737757   -2.7737757   -1.6435031  0.057504586   -2.7737757    1.1302726   569361 
 2481000     1.005519   -2.7733961   -2.7733961   -1.6429442  0.074284919   -2.7733961    1.1304519   569361 
 2482000    1.0042037   -2.7717113   -2.7717113   -1.6427382  0.067134758   -2.7717113    1.1289731   569361 
 2483000    1.0045458   -2.7726042   -2.7726042   -1.6432464  0.061247401   -2.7726042    1.1293578   569361 
 2484000    1.0034477   -2.7715552   -2.7715552   -1.6434319  0.067215928   -2.7715552    1.1281232   569361 
 2485000    1.0027687   -2.7707816   -2.7707816   -1.6434217  0.064384518   -2.7707816    1.1273599   569361 
 2486000    1.0032632    -2.772139    -2.772139   -1.6442233  0.066636531    -2.772139    1.1279158   569361 
 2487000    1.0027023   -2.7717135   -2.7717135   -1.6444283  0.059959087   -2.7717135    1.1272852   569361 
 2488000    1.0037304   -2.7731186   -2.7731186   -1.6446775  0.066931315   -2.7731186    1.1284411   569361 
 2489000    1.0037517   -2.7727963   -2.7727963   -1.6443312  0.067961306   -2.7727963    1.1284651   569361 
 2490000    1.0024355   -2.7718079   -2.7718079   -1.6448226  0.072568953   -2.7718079    1.1269852   569361 
 2491000    1.0027477   -2.7709858   -2.7709858   -1.6436495  0.065643561   -2.7709858    1.1273363   569361 
 2492000    1.0062157   -2.7741185   -2.7741185   -1.6428833  0.067810912   -2.7741185    1.1312352   569361 
 2493000    1.0029743   -2.7704148   -2.7704148   -1.6428238  0.066671794   -2.7704148     1.127591   569361 
 2494000    1.0057305   -2.7733987   -2.7733987   -1.6427091   0.06627496   -2.7733987    1.1306896   569361 
 2495000    1.0050125   -2.7718539   -2.7718539   -1.6419715  0.070978526   -2.7718539    1.1298824   569361 
 2496000    1.0067493   -2.7741057   -2.7741057   -1.6422706  0.065791367   -2.7741057    1.1318351   569361 
 2497000    1.0086718   -2.7760199   -2.7760199   -1.6420234  0.064361805   -2.7760199    1.1339964   569361 
 2498000    1.0062792   -2.7741214   -2.7741214   -1.6428149  0.067995105   -2.7741214    1.1313065   569361 
 2499000    1.0064656   -2.7750902   -2.7750902   -1.6435741  0.070019032   -2.7750902    1.1315161   569361 
 2500000    1.0065869   -2.7753863   -2.7753863   -1.6437338  0.070931791   -2.7753863    1.1316525   569361 
 2501000    1.0064419   -2.7754611   -2.7754611   -1.6439716  0.069472997   -2.7754611    1.1314895   569361 
 2502000    1.0061417   -2.7750889   -2.7750889   -1.6439369  0.064484936   -2.7750889     1.131152   569361 
 2503000    1.0061215   -2.7756415   -2.7756415   -1.6445122  0.066950603   -2.7756415    1.1311293   569361 
 2504000    1.0062929   -2.7763769   -2.7763769    -1.645055  0.064826488   -2.7763769     1.131322   569361 
 2505000    1.0044532   -2.7740191   -2.7740191   -1.6447654  0.075529139   -2.7740191    1.1292537   569361 
 2506000    1.0045723   -2.7746764   -2.7746764   -1.6452887  0.059746424   -2.7746764    1.1293876   569361 
 2507000    1.0029534   -2.7727392   -2.7727392   -1.6451717  0.072847381   -2.7727392    1.1275676   569361 
 2508000    1.0037675   -2.7741182   -2.7741182   -1.6456354  0.066390849   -2.7741182    1.1284828   569361 
 2509000    1.0035727   -2.7735467   -2.7735467   -1.6452829  0.065064707   -2.7735467    1.1282638   569361 
 2510000     1.004586   -2.7740134   -2.7740134   -1.6446104   0.06815221   -2.7740134     1.129403   569361 
 2511000    1.0037868   -2.7732024   -2.7732024    -1.644698  0.067065167   -2.7732024    1.1285045   569361 
 2512000    1.0039372   -2.7731752   -2.7731752   -1.6445016  0.068626291   -2.7731752    1.1286736   569361 
 2513000    1.0035518   -2.7731093   -2.7731093    -1.644869  0.066373361   -2.7731093    1.1282403   569361 
 2514000    1.0048705   -2.7743609   -2.7743609   -1.6446381  0.073983065   -2.7743609    1.1297229   569361 
 2515000    1.0050092   -2.7745298   -2.7745298   -1.6446511   0.06342943   -2.7745298    1.1298787   569361 
 2516000      1.00525   -2.7752517   -2.7752517   -1.6451022  0.063720294   -2.7752517    1.1301495   569361 
 2517000    1.0037919   -2.7735225   -2.7735225   -1.6450123  0.065126647   -2.7735225    1.1285102   569361 
 2518000    1.0058245    -2.774031    -2.774031   -1.6432356  0.063089103    -2.774031    1.1307954   569361 
 2519000    1.0046474   -2.7721293   -2.7721293   -1.6426573  0.067451344   -2.7721293     1.129472   569361 
 2520000    1.0043248   -2.7716745   -2.7716745   -1.6425652   0.06366878   -2.7716745    1.1291093   569361 
 2521000    1.0047784   -2.7728823   -2.7728823    -1.643263  0.073622881   -2.7728823    1.1296193   569361 
 2522000    1.0063651   -2.7736389   -2.7736389   -1.6422358   0.07267065   -2.7736389    1.1314031   569361 
 2523000    1.0045754   -2.7719219   -2.7719219   -1.6425308  0.066676751   -2.7719219    1.1293911   569361 
 2524000    1.0041734   -2.7719314   -2.7719314   -1.6429922  0.073866478   -2.7719314    1.1289391   569361 
 2525000    1.0044643   -2.7720597   -2.7720597   -1.6427935  0.075651381   -2.7720597    1.1292661   569361 
 2526000     1.006149   -2.7740627   -2.7740627   -1.6429026  0.060563119   -2.7740627    1.1311601   569361 
 2527000    1.0067748   -2.7734553   -2.7734553   -1.6415916  0.064911734   -2.7734553    1.1318637   569361 
 2528000    1.0037755   -2.7711676   -2.7711676   -1.6426758  0.068898748   -2.7711676    1.1284917   569361 
 2529000    1.0053095    -2.772924    -2.772924   -1.6427076  0.064029056    -2.772924    1.1302164   569361 
 2530000    1.0047241   -2.7722625   -2.7722625   -1.6427042  0.069796672   -2.7722625    1.1295583   569361 
 2531000    1.0048773   -2.7717586   -2.7717586   -1.6420281  0.069346781   -2.7717586    1.1297305   569361 
 2532000    1.0056812   -2.7724074   -2.7724074   -1.6417731  0.058199316   -2.7724074    1.1306343   569361 
 2533000    1.0041357   -2.7710344   -2.7710344   -1.6421377  0.066692522   -2.7710344    1.1288967   569361 
 2534000    1.0049624   -2.7722533   -2.7722533   -1.6424271  0.063925901   -2.7722533    1.1298262   569361 
 2535000    1.0037719   -2.7716702   -2.7716702   -1.6431824  0.069421094   -2.7716702    1.1284878   569361 
 2536000    1.0028622    -2.771031    -2.771031    -1.643566  0.069556714    -2.771031     1.127465   569361 
 2537000    1.0023456   -2.7711821   -2.7711821   -1.6442979  0.058939295   -2.7711821    1.1268842   569361 
 2538000    1.0019628    -2.770667    -2.770667   -1.6442131  0.066543724    -2.770667    1.1264539   569361 
 2539000    1.0028172   -2.7712832   -2.7712832   -1.6438688  0.060625722   -2.7712832    1.1274144   569361 
 2540000    1.0032932   -2.7722616   -2.7722616   -1.6443121  0.056097227   -2.7722616    1.1279495   569361 
 2541000    1.0031895   -2.7717729   -2.7717729   -1.6439399  0.067992894   -2.7717729     1.127833   569361 
 2542000    1.0031143    -2.771634    -2.771634   -1.6438857  0.064050072    -2.771634    1.1277484   569361 
 2543000    1.0031971   -2.7709337   -2.7709337   -1.6430922  0.065436526   -2.7709337    1.1278415   569361 
 2544000    1.0037906   -2.7722603   -2.7722603   -1.6437515  0.071961275   -2.7722603    1.1285087   569361 
 2545000    1.0046032    -2.772643    -2.772643   -1.6432207   0.05943924    -2.772643    1.1294223   569361 
 2546000    1.0060878   -2.7741207   -2.7741207   -1.6430294  0.075202965   -2.7741207    1.1310913   569361 
 2547000     1.005193   -2.7733703   -2.7733703   -1.6432849   0.08370156   -2.7733703    1.1300854   569361 
 2548000    1.0055982   -2.7737741   -2.7737741   -1.6432331  0.067287814   -2.7737741    1.1305409   569361 
 2549000    1.0043101   -2.7729274   -2.7729274   -1.6438346  0.070612178   -2.7729274    1.1290928   569361 
 2550000     1.006217   -2.7742883   -2.7742883   -1.6430517  0.067297582   -2.7742883    1.1312366   569361 
 2551000    1.0055951   -2.7738553   -2.7738553   -1.6433178  0.062554917   -2.7738553    1.1305375   569361 
 2552000    1.0038504   -2.7716496   -2.7716496   -1.6430736  0.068293657   -2.7716496     1.128576   569361 
 2553000     1.004056   -2.7724808   -2.7724808   -1.6436737  0.063973628   -2.7724808    1.1288072   569361 
 2554000    1.0048355   -2.7733548   -2.7733548   -1.6436713  0.059158422   -2.7733548    1.1296835   569361 
 2555000    1.0040798   -2.7727519   -2.7727519   -1.6439181  0.072855075   -2.7727519    1.1288339   569361 
 2556000    1.0043858   -2.7733398   -2.7733398   -1.6441619  0.052051171   -2.7733398    1.1291779   569361 
 2557000     1.005602   -2.7742807   -2.7742807   -1.6437354  0.059770194   -2.7742807    1.1305453   569361 
 2558000    1.0049814   -2.7736453   -2.7736453   -1.6437978  0.062030162   -2.7736453    1.1298475   569361 
 2559000    1.0042668   -2.7727156   -2.7727156   -1.6436715  0.056898044   -2.7727156    1.1290441   569361 
 2560000    1.0044673    -2.772933    -2.772933   -1.6436634  0.062916647    -2.772933    1.1292695   569361 
 2561000    1.0058289   -2.7743227   -2.7743227   -1.6435225  0.062536953   -2.7743227    1.1308003   569361 
 2562000    1.0051402    -2.774865    -2.774865   -1.6448389  0.056536397    -2.774865    1.1300261   569361 
 2563000     1.004398   -2.7731229   -2.7731229   -1.6439313  0.070610289   -2.7731229    1.1291916   569361 
 2564000    1.0028866   -2.7721207   -2.7721207   -1.6446283  0.073424771   -2.7721207    1.1274924   569361 
 2565000    1.0033074   -2.7719193   -2.7719193   -1.6439537  0.060565588   -2.7719193    1.1279656   569361 
 2566000    1.0048463   -2.7740746   -2.7740746    -1.644379  0.064752394   -2.7740746    1.1296956   569361 
 2567000    1.0035862   -2.7725077   -2.7725077   -1.6442287  0.075689463   -2.7725077     1.128279   569361 
 2568000    1.0036864   -2.7726885   -2.7726885   -1.6442969  0.053650957   -2.7726885    1.1283916   569361 
 2569000    1.0039415   -2.7726896   -2.7726896   -1.6440112  0.065279408   -2.7726896    1.1286784   569361 
 2570000    1.0049548   -2.7736139   -2.7736139   -1.6437963  0.064028411   -2.7736139    1.1298176   569361 
 2571000    1.0041709   -2.7729544   -2.7729544   -1.6440181  0.076875436   -2.7729544    1.1289363   569361 
 2572000      1.00398   -2.7728795   -2.7728795   -1.6441578  0.069639975   -2.7728795    1.1287217   569361 
 2573000    1.0041315   -2.7741643   -2.7741643   -1.6452723  0.066925976   -2.7741643     1.128892   569361 
 2574000    1.0044011   -2.7746769   -2.7746769   -1.6454819  0.070703961   -2.7746769    1.1291951   569361 
 2575000    1.0025563   -2.7719886   -2.7719886   -1.6448675  0.069144414   -2.7719886    1.1271211   569361 
 2576000    1.0058453   -2.7755701   -2.7755701   -1.6447514  0.072665603   -2.7755701    1.1308188   569361 
 2577000    1.0054848    -2.774764    -2.774764   -1.6443505  0.078177262    -2.774764    1.1304135   569361 
 2578000     1.004329   -2.7738603   -2.7738603   -1.6447462  0.070873071   -2.7738603    1.1291141   569361 
 2579000    1.0035077   -2.7731985   -2.7731985   -1.6450078  0.060323279   -2.7731985    1.1281907   569361 
 2580000    1.0052666   -2.7758235   -2.7758235   -1.6456554  0.068756608   -2.7758235    1.1301681   569361 
 2581000    1.0050232   -2.7752457   -2.7752457   -1.6453512  0.070724397   -2.7752457    1.1298945   569361 
 2582000     1.003968   -2.7743334   -2.7743334   -1.6456252  0.066081621   -2.7743334    1.1287082   569361 
 2583000    1.0050792   -2.7754848   -2.7754848   -1.6455273  0.067242859   -2.7754848    1.1299575   569361 
 2584000    1.0042334   -2.7747285   -2.7747285   -1.6457219  0.071762835   -2.7747285    1.1290066   569361 
 2585000    1.0033028   -2.7732557   -2.7732557   -1.6452953  0.058835505   -2.7732557    1.1279604   569361 
 2586000    1.0039453   -2.7745474   -2.7745474   -1.6458647  0.070207865   -2.7745474    1.1286827   569361 
 2587000    1.0030709   -2.7736826   -2.7736826    -1.645983  0.075714918   -2.7736826    1.1276996   569361 
 2588000    1.0039723   -2.7753391   -2.7753391   -1.6466261  0.071110433   -2.7753391     1.128713   569361 
 2589000    1.0056515   -2.7761816   -2.7761816   -1.6455808  0.063364493   -2.7761816    1.1306008   569361 
 2590000    1.0064058   -2.7770554   -2.7770554   -1.6456065  0.063891285   -2.7770554    1.1314488   569361 
 2591000    1.0060492   -2.7759149   -2.7759149   -1.6448668  0.063196394   -2.7759149     1.131048   569361 
 2592000    1.0047184   -2.7756532   -2.7756532   -1.6461014  0.066525053   -2.7756532    1.1295519   569361 
 2593000    1.0055748   -2.7759472   -2.7759472   -1.6454326   0.06401735   -2.7759472    1.1305146   569361 
 2594000    1.0055618   -2.7762107   -2.7762107   -1.6457107  0.071507278   -2.7762107    1.1305001   569361 
 2595000    1.0056794   -2.7763045   -2.7763045   -1.6456722  0.064746128   -2.7763045    1.1306323   569361 
 2596000    1.0053519   -2.7752741   -2.7752741   -1.6450101  0.067202426   -2.7752741     1.130264   569361 
 2597000    1.0067125   -2.7760641   -2.7760641   -1.6442704  0.073480229   -2.7760641    1.1317937   569361 
 2598000     1.005354   -2.7745782   -2.7745782   -1.6443118  0.064001998   -2.7745782    1.1302664   569361 
 2599000    1.0040755     -2.77355     -2.77355   -1.6447209  0.073126868     -2.77355    1.1288291   569361 
 2600000    1.0056943   -2.7760536   -2.7760536   -1.6454047  0.063104148   -2.7760536     1.130649   569361 
 2601000    1.0054933     -2.77432     -2.77432   -1.6438971  0.079362691     -2.77432     1.130423   569361 
 2602000     1.006325   -2.7754852   -2.7754852   -1.6441272   0.06398159   -2.7754852     1.131358   569361 
 2603000    1.0057064   -2.7752302   -2.7752302   -1.6445676  0.063592816   -2.7752302    1.1306626   569361 
 2604000    1.0027044   -2.7720491   -2.7720491   -1.6447614  0.063505732   -2.7720491    1.1272876   569361 
 2605000    1.0052211   -2.7749054   -2.7749054   -1.6447883  0.055400979   -2.7749054     1.130117   569361 
 2606000    1.0055307   -2.7740152   -2.7740152   -1.6435502  0.065375279   -2.7740152     1.130465   569361 
 2607000    1.0045426   -2.7734921   -2.7734921   -1.6441379  0.064157182   -2.7734921    1.1293542   569361 
 2608000     1.003129   -2.7723646   -2.7723646   -1.6445996  0.065759951   -2.7723646     1.127765   569361 
 2609000    1.0039403   -2.7736167   -2.7736167   -1.6449397  0.069458018   -2.7736167     1.128677   569361 
 2610000    1.0055726   -2.7745845   -2.7745845   -1.6440723  0.058198691   -2.7745845    1.1305122   569361 
 2611000     1.003778   -2.7732651   -2.7732651   -1.6447705  0.063945468   -2.7732651    1.1284946   569361 
 2612000    1.0047585   -2.7735506   -2.7735506   -1.6439536  0.058297643   -2.7735506     1.129597   569361 
 2613000    1.0045171   -2.7724603   -2.7724603   -1.6431348  0.067569385   -2.7724603    1.1293256   569361 
 2614000    1.0036661   -2.7724234   -2.7724234   -1.6440546  0.061511993   -2.7724234    1.1283688   569361 
 2615000    1.0017262   -2.7707497   -2.7707497   -1.6445618  0.058039013   -2.7707497    1.1261879   569361 
 2616000    1.0044221    -2.773126    -2.773126   -1.6439073  0.064291012    -2.773126    1.1292187   569361 
 2617000    1.0047133   -2.7730184   -2.7730184   -1.6434723   0.06048193   -2.7730184    1.1295461   569361 
 2618000    1.0042071   -2.7724694   -2.7724694   -1.6434924  0.059360496   -2.7724694    1.1289771   569361 
 2619000    1.0057486   -2.7740613   -2.7740613   -1.6433512  0.064333372   -2.7740613      1.13071   569361 
 2620000     1.005016   -2.7729665   -2.7729665   -1.6430801  0.059311017   -2.7729665    1.1298864   569361 
 2621000    1.0032742    -2.771478    -2.771478   -1.6435498  0.069579354    -2.771478    1.1279282   569361 
 2622000    1.0048636   -2.7729594   -2.7729594   -1.6432444  0.057159672   -2.7729594     1.129715   569361 
 2623000    1.0051539   -2.7743686   -2.7743686   -1.6443272  0.069797196   -2.7743686    1.1300414   569361 
 2624000    1.0049382   -2.7741353   -2.7741353   -1.6443363  0.067430571   -2.7741353    1.1297989   569361 
 2625000    1.0058345   -2.7746918   -2.7746918   -1.6438852  0.060376712   -2.7746918    1.1308065   569361 
 2626000    1.0039451   -2.7724163   -2.7724163   -1.6437338  0.061183899   -2.7724163    1.1286825   569361 
 2627000     1.004491   -2.7734339   -2.7734339   -1.6441377  0.065335052   -2.7734339    1.1292962   569361 
 2628000    1.0031227    -2.771993    -2.771993   -1.6442351  0.060595049    -2.771993    1.1277578   569361 
 2629000    1.0044829   -2.7728791   -2.7728791   -1.6435921  0.068352892   -2.7728791     1.129287   569361 
 2630000     1.005368   -2.7737719   -2.7737719   -1.6434897  0.065622363   -2.7737719    1.1302821   569361 
 2631000    1.0049296   -2.7730377   -2.7730377   -1.6432483  0.075190752   -2.7730377    1.1297893   569361 
 2632000    1.0062866   -2.7745464   -2.7745464   -1.6432315  0.059139152   -2.7745464    1.1313149   569361 
 2633000    1.0070452   -2.7750587   -2.7750587    -1.642891  0.059415949   -2.7750587    1.1321677   569361 
 2634000    1.0066736   -2.7739125   -2.7739125   -1.6421625  0.072113236   -2.7739125    1.1317499   569361 
 2635000    1.0069203   -2.7737906   -2.7737906   -1.6417633  0.065399331   -2.7737906    1.1320273   569361 
 2636000    1.0064333   -2.7744322   -2.7744322   -1.6429524  0.061091848   -2.7744322    1.1314798   569361 
 2637000    1.0074855   -2.7753573   -2.7753573   -1.6426946  0.066381207   -2.7753573    1.1326627   569361 
 2638000    1.0052728     -2.77428     -2.77428   -1.6441049  0.064183741     -2.77428    1.1301751   569361 
 2639000    1.0022008   -2.7719962   -2.7719962   -1.6452748   0.05861608   -2.7719962    1.1267214   569361 
 2640000    1.0037498   -2.7731577   -2.7731577   -1.6446948    0.0611006   -2.7731577    1.1284629   569361 
 2641000    1.0039098   -2.7742712   -2.7742712   -1.6456284   0.06600823   -2.7742712    1.1286427   569361 
 2642000    1.0035036     -2.77348     -2.77348   -1.6452939  0.058328039     -2.77348     1.128186   569361 
 2643000    1.0026247    -2.773205    -2.773205    -1.646007  0.060968888    -2.773205    1.1271979   569361 
 2644000    1.0031601   -2.7738761   -2.7738761   -1.6460763  0.066137839   -2.7738761    1.1277999   569361 
 2645000    1.0015768   -2.7723831   -2.7723831   -1.6463633   0.06622577   -2.7723831    1.1260198   569361 
 2646000    1.0038661   -2.7742213   -2.7742213   -1.6456276  0.067262981   -2.7742213    1.1285936   569361 
 2647000    1.0031944    -2.774058    -2.774058   -1.6462195  0.062749852    -2.774058    1.1278385   569361 
 2648000    1.0018392   -2.7726566   -2.7726566   -1.6463417  0.062703433   -2.7726566    1.1263149   569361 
 2649000    1.0019883   -2.7729416   -2.7729416   -1.6464591  0.064324522   -2.7729416    1.1264825   569361 
 2650000    1.0018074   -2.7721634   -2.7721634   -1.6458842  0.059608443   -2.7721634    1.1262791   569361 
 2651000    1.0031744      -2.7731      -2.7731   -1.6452841  0.065970979      -2.7731    1.1278159   569361 
 2652000    1.0032521   -2.7737881   -2.7737881   -1.6458848  0.071026459   -2.7737881    1.1279033   569361 
 2653000    1.0038443   -2.7731026   -2.7731026   -1.6445335   0.06709525   -2.7731026    1.1285691   569361 
 2654000    1.0046315   -2.7741179   -2.7741179   -1.6446638  0.056454015   -2.7741179    1.1294541   569361 
 2655000    1.0024625   -2.7722903   -2.7722903   -1.6452747  0.073601951   -2.7722903    1.1270156   569361 
 2656000    1.0039266   -2.7743119   -2.7743119   -1.6456502  0.064756946   -2.7743119    1.1286616   569361 
 2657000    1.0030566   -2.7732869   -2.7732869   -1.6456033  0.074486982   -2.7732869    1.1276836   569361 
 2658000    1.0040361   -2.7739784   -2.7739784   -1.6451937   0.05874726   -2.7739784    1.1287848   569361 
 2659000    1.0042712     -2.77366     -2.77366   -1.6446109  0.072482073     -2.77366    1.1290491   569361 
 2660000    1.0044584   -2.7743512   -2.7743512   -1.6450917  0.073269231   -2.7743512    1.1292596   569361 
 2661000    1.0041562   -2.7736767   -2.7736767   -1.6447568  0.083381622   -2.7736767    1.1289198   569361 
 2662000     1.003881   -2.7735804   -2.7735804     -1.64497  0.075177992   -2.7735804    1.1286104   569361 
 2663000    1.0050006   -2.7749343   -2.7749343   -1.6450652  0.063367835   -2.7749343    1.1298691   569361 
 2664000    1.0046358   -2.7741655   -2.7741655   -1.6447066  0.069456607   -2.7741655    1.1294589   569361 
 2665000    1.0067828   -2.7768547   -2.7768547   -1.6449819  0.065137685   -2.7768547    1.1318728   569361 
 2666000    1.0039615   -2.7735545   -2.7735545   -1.6448537  0.070224649   -2.7735545    1.1287009   569361 
 2667000    1.0064018   -2.7757868   -2.7757868   -1.6443424  0.062389482   -2.7757868    1.1314444   569361 
 2668000    1.0048562   -2.7747832   -2.7747832   -1.6450765  0.061736095   -2.7747832    1.1297067   569361 
 2669000    1.0054455   -2.7762296   -2.7762296   -1.6458604  0.051959507   -2.7762296    1.1303693   569361 
 2670000    1.0056848   -2.7759232   -2.7759232   -1.6452849  0.055770047   -2.7759232    1.1306383   569361 
 2671000     1.004714   -2.7747735   -2.7747735   -1.6452266  0.060957077   -2.7747735    1.1295469   569361 
 2672000    1.0033586   -2.7743315   -2.7743315   -1.6463084  0.067181682   -2.7743315    1.1280231   569361 
 2673000    1.0052234   -2.7761973   -2.7761973   -1.6460778  0.063943175   -2.7761973    1.1301195   569361 
 2674000    1.0051412   -2.7750116   -2.7750116   -1.6449844  0.059328721   -2.7750116    1.1300272   569361 
 2675000    1.0023707   -2.7725889   -2.7725889   -1.6456765    0.0697732   -2.7725889    1.1269124   569361 
 2676000    1.0047584   -2.7745519   -2.7745519   -1.6449551  0.068669888   -2.7745519    1.1295968   569361 
 2677000      1.00494   -2.7739013   -2.7739013   -1.6441004  0.060027375   -2.7739013     1.129801   569361 
 2678000    1.0059705   -2.7752669   -2.7752669   -1.6443074   0.06158207   -2.7752669    1.1309595   569361 
 2679000    1.0042075   -2.7735713   -2.7735713   -1.6445939  0.069784325   -2.7735713    1.1289774   569361 
 2680000    1.0038941    -2.773279    -2.773279   -1.6446539   0.07082519    -2.773279    1.1286251   569361 
 2681000    1.0040219   -2.7737415   -2.7737415   -1.6449727  0.066957492   -2.7737415    1.1287688   569361 
 2682000    1.0048628   -2.7740896   -2.7740896   -1.6443754  0.062903206   -2.7740896    1.1297142   569361 
 2683000    1.0047638   -2.7745254   -2.7745254   -1.6449226   0.06190158   -2.7745254    1.1296028   569361 
 2684000    1.0051434   -2.7742132   -2.7742132   -1.6441835  0.062299795   -2.7742132    1.1300297   569361 
 2685000     1.004899   -2.7734462   -2.7734462   -1.6436913  0.066910646   -2.7734462    1.1297549   569361 
 2686000    1.0049675   -2.7735855   -2.7735855   -1.6437536  0.065572462   -2.7735855    1.1298319   569361 
 2687000    1.0052287   -2.7735539   -2.7735539   -1.6434284  0.073318902   -2.7735539    1.1301255   569361 
 2688000     1.005388   -2.7740336   -2.7740336    -1.643729  0.078178082   -2.7740336    1.1303047   569361 
 2689000    1.0053794   -2.7740439   -2.7740439   -1.6437489  0.074751804   -2.7740439     1.130295   569361 
 2690000    1.0047942   -2.7740871   -2.7740871   -1.6444501  0.048950163   -2.7740871     1.129637   569361 
 2691000    1.0047467   -2.7743263   -2.7743263   -1.6447427  0.072515746   -2.7743263    1.1295836   569361 
 2692000    1.0038394   -2.7734022   -2.7734022   -1.6448386   0.06981082   -2.7734022    1.1285636   569361 
 2693000     1.003769   -2.7733338   -2.7733338   -1.6448493  0.073808716   -2.7733338    1.1284845   569361 
 2694000    1.0043188   -2.7745207   -2.7745207   -1.6454182  0.063427971   -2.7745207    1.1291026   569361 
 2695000    1.0041459   -2.7738574   -2.7738574   -1.6449491  0.060926749   -2.7738574    1.1289083   569361 
 2696000    1.0041767   -2.7738631   -2.7738631   -1.6449203  0.065173155   -2.7738631    1.1289428   569361 
 2697000    1.0037058   -2.7733277   -2.7733277   -1.6449143  0.057710695   -2.7733277    1.1284134   569361 
 2698000    1.0034889   -2.7735953   -2.7735953   -1.6454258  0.065029876   -2.7735953    1.1281695   569361 
 2699000     1.003298   -2.7730183   -2.7730183   -1.6450633  0.069535091   -2.7730183     1.127955   569361 
 2700000    1.0038988   -2.7724082   -2.7724082   -1.6437778  0.073839454   -2.7724082    1.1286304   569361 
 2701000     1.004032   -2.7733154   -2.7733154   -1.6445352  0.063383877   -2.7733154    1.1287802   569361 
 2702000    1.0056421   -2.7738825   -2.7738825   -1.6432923  0.069342536   -2.7738825    1.1305903   569361 
 2703000    1.0062348   -2.7742235   -2.7742235   -1.6429668  0.066322384   -2.7742235    1.1312567   569361 
 2704000    1.0080207   -2.7750095   -2.7750095   -1.6417451  0.073086711   -2.7750095    1.1332644   569361 
 2705000    1.0057187   -2.7732425   -2.7732425   -1.6425661  0.067979517   -2.7732425    1.1306764   569361 
 2706000    1.0052726     -2.77301     -2.77301   -1.6428351  0.069209371     -2.77301    1.1301749   569361 
 2707000    1.0063156   -2.7747823   -2.7747823   -1.6434348  0.064315663   -2.7747823    1.1313475   569361 
 2708000    1.0044941   -2.7732726   -2.7732726   -1.6439729  0.070321949   -2.7732726    1.1292997   569361 
 2709000    1.0063003    -2.774657    -2.774657   -1.6433267  0.069431825    -2.774657    1.1313303   569361 
 2710000    1.0052153   -2.7740728   -2.7740728   -1.6439624  0.067148752   -2.7740728    1.1301104   569361 
 2711000    1.0042763   -2.7729146   -2.7729146   -1.6438597  0.067404618   -2.7729146    1.1290549   569361 
 2712000    1.0030477   -2.7722532   -2.7722532   -1.6445797  0.063430923   -2.7722532    1.1276735   569361 
 2713000    1.0030145   -2.7731302   -2.7731302    -1.645494  0.047437983   -2.7731302    1.1276362   569361 
 2714000    1.0037544   -2.7734356   -2.7734356   -1.6449675  0.066541001   -2.7734356    1.1284681   569361 
 2715000    1.0040106    -2.773967    -2.773967   -1.6452109  0.059525359    -2.773967    1.1287561   569361 
 2716000    1.0014333   -2.7718201   -2.7718201   -1.6459615  0.055756537   -2.7718201    1.1258586   569361 
 2717000    1.0015831    -2.770258    -2.770258    -1.644231  0.066949831    -2.770258     1.126027   569361 
 2718000     1.003573   -2.7720197   -2.7720197   -1.6437556  0.060722883   -2.7720197    1.1282641   569361 
 2719000     1.004264   -2.7736886   -2.7736886   -1.6446476   0.05793112   -2.7736886     1.129041   569361 
 2720000    1.0027016   -2.7731992   -2.7731992   -1.6459148  0.060505421   -2.7731992    1.1272845   569361 
 2721000    1.0035192   -2.7741063   -2.7741063   -1.6459028  0.063391101   -2.7741063    1.1282036   569361 
 2722000    1.0026023    -2.772828    -2.772828   -1.6456552  0.060181486    -2.772828    1.1271728   569361 
 2723000    1.0032395   -2.7727868   -2.7727868   -1.6448976  0.056314078   -2.7727868    1.1278892   569361 
 2724000    1.0038312    -2.772811    -2.772811   -1.6442565  0.072481875    -2.772811    1.1285545   569361 
 2725000    1.0035152   -2.7734999   -2.7734999   -1.6453007   0.06364088   -2.7734999    1.1281992   569361 
 2726000    1.0030125   -2.7734687   -2.7734687   -1.6458347  0.062235753   -2.7734687     1.127634   569361 
 2727000    1.0048719   -2.7755096   -2.7755096   -1.6457851  0.064689205   -2.7755096    1.1297245   569361 
 2728000    1.0018049   -2.7717959   -2.7717959   -1.6455195  0.075290024   -2.7717959    1.1262764   569361 
 2729000    1.0034661   -2.7719041   -2.7719041   -1.6437601  0.063125273   -2.7719041    1.1281439   569361 
 2730000    1.0034671   -2.7721487   -2.7721487   -1.6440036  0.067482366   -2.7721487    1.1281451   569361 
 2731000    1.0039388   -2.7731975   -2.7731975   -1.6445222  0.077147897   -2.7731975    1.1286753   569361 
 2732000    1.0060169   -2.7758837   -2.7758837   -1.6448721  0.068627329   -2.7758837    1.1310116   569361 
 2733000    1.0068591   -2.7765564   -2.7765564   -1.6445979  0.069336993   -2.7765564    1.1319585   569361 
 2734000    1.0067901   -2.7761213   -2.7761213   -1.6442404  0.073453512   -2.7761213    1.1318809   569361 
 2735000     1.007365   -2.7763242   -2.7763242   -1.6437969  0.067610557   -2.7763242    1.1325273   569361 
 2736000    1.0088948   -2.7776346   -2.7776346   -1.6433875  0.071482619   -2.7776346    1.1342471   569361 
 2737000    1.0096874   -2.7782937   -2.7782937   -1.6431555  0.072576504   -2.7782937    1.1351382   569361 
 2738000    1.0079737    -2.776188    -2.776188   -1.6429764  0.067793491    -2.776188    1.1332116   569361 
 2739000     1.007473    -2.777193    -2.777193   -1.6445443  0.071661673    -2.777193    1.1326487   569361 
 2740000    1.0052808   -2.7744776   -2.7744776   -1.6442935  0.075971829   -2.7744776    1.1301841   569361 
 2741000     1.006949   -2.7756069   -2.7756069   -1.6435473  0.061788907   -2.7756069    1.1320596   569361 
 2742000    1.0070381   -2.7761537   -2.7761537   -1.6439939   0.07384279   -2.7761537    1.1321597   569361 
 2743000    1.0046015   -2.7740594   -2.7740594    -1.644639  0.064729264   -2.7740594    1.1294204   569361 
 2744000    1.0055107   -2.7750412   -2.7750412   -1.6445987  0.062063489   -2.7750412    1.1304425   569361 
 2745000    1.0029697   -2.7725691   -2.7725691   -1.6449833  0.062399462   -2.7725691    1.1275858   569361 
 2746000    1.0037357    -2.773712    -2.773712    -1.645265  0.077771323    -2.773712     1.128447   569361 
 2747000    1.0032936   -2.7733386   -2.7733386   -1.6453886  0.073157506   -2.7733386      1.12795   569361 
 2748000    1.0043415   -2.7732394   -2.7732394   -1.6441113  0.066813249   -2.7732394    1.1291281   569361 
 2749000    1.0053989   -2.7738485   -2.7738485   -1.6435316  0.075407111   -2.7738485    1.1303169   569361 
 2750000    1.0051442   -2.7737963   -2.7737963   -1.6437658  0.059036334   -2.7737963    1.1300305   569361 
 2751000    1.0041758   -2.7720679   -2.7720679   -1.6431261  0.063203338   -2.7720679    1.1289418   569361 
 2752000    1.0042896   -2.7723051   -2.7723051   -1.6432354  0.065361697   -2.7723051    1.1290697   569361 
 2753000    1.0059009    -2.773831    -2.773831   -1.6429497  0.061019864    -2.773831    1.1308813   569361 
 2754000    1.0050827   -2.7723296   -2.7723296   -1.6423682  0.068693025   -2.7723296    1.1299613   569361 
 2755000     1.004223   -2.7710588   -2.7710588    -1.642064  0.070432484   -2.7710588    1.1289949   569361 
 2756000    1.0048978   -2.7717004   -2.7717004    -1.641947  0.069066026   -2.7717004    1.1297535   569361 
 2757000    1.0036009    -2.770907    -2.770907   -1.6426116  0.066352316    -2.770907    1.1282955   569361 
 2758000    1.0047571   -2.7729825   -2.7729825   -1.6433871  0.060465127   -2.7729825    1.1295954   569361 
 2759000    1.0037869   -2.7719931   -2.7719931   -1.6434884  0.064953906   -2.7719931    1.1285046   569361 
 2760000    1.0024698     -2.77012     -2.77012   -1.6430962  0.064132151     -2.77012    1.1270238   569361 
 2761000    1.0022754   -2.7710187   -2.7710187   -1.6442135  0.065458645   -2.7710187    1.1268053   569361 
 2762000    1.0044451   -2.7728908   -2.7728908   -1.6436462   0.05295149   -2.7728908    1.1292445   569361 
 2763000    1.0033501   -2.7717662   -2.7717662   -1.6437526  0.072161899   -2.7717662    1.1280136   569361 
 2764000    1.0033135   -2.7715388   -2.7715388   -1.6435664  0.068454237   -2.7715388    1.1279724   569361 
 2765000    1.0017998   -2.7694091   -2.7694091   -1.6431385  0.069695099   -2.7694091    1.1262706   569361 
 2766000    1.0048973   -2.7726782   -2.7726782   -1.6429253  0.069973076   -2.7726782     1.129753   569361 
 2767000    1.0036664   -2.7712755   -2.7712755   -1.6429063  0.072027692   -2.7712755    1.1283691   569361 
 2768000    1.0047411   -2.7723427   -2.7723427   -1.6427654  0.075941831   -2.7723427    1.1295773   569361 
 2769000    1.0047094   -2.7720923   -2.7720923   -1.6425507  0.066243162   -2.7720923    1.1295417   569361 
 2770000    1.0048648   -2.7718451   -2.7718451   -1.6421287  0.068120498   -2.7718451    1.1297164   569361 
 2771000    1.0060319   -2.7734727   -2.7734727   -1.6424442  0.071486601   -2.7734727    1.1310285   569361 
 2772000    1.0053261   -2.7733953   -2.7733953   -1.6431602  0.068719408   -2.7733953     1.130235   569361 
 2773000    1.0063348   -2.7736442   -2.7736442    -1.642275  0.063362716   -2.7736442    1.1313691   569361 
 2774000    1.0054549   -2.7738102   -2.7738102   -1.6434304   0.06696108   -2.7738102    1.1303798   569361 
 2775000    1.0057284   -2.7742128   -2.7742128   -1.6435255  0.067692253   -2.7742128    1.1306873   569361 
 2776000    1.0057031   -2.7742801   -2.7742801   -1.6436212  0.065109118   -2.7742801    1.1306589   569361 
 2777000    1.0055985   -2.7754692   -2.7754692   -1.6449279  0.062733365   -2.7754692    1.1305413   569361 
 2778000     1.006382   -2.7759772   -2.7759772   -1.6445551  0.066457405   -2.7759772    1.1314221   569361 
 2779000    1.0056459   -2.7746491   -2.7746491   -1.6440546  0.069953377   -2.7746491    1.1305945   569361 
 2780000     1.006256   -2.7758433   -2.7758433   -1.6445628  0.061420595   -2.7758433    1.1312805   569361 
 2781000    1.0036356   -2.7719373   -2.7719373   -1.6436028  0.073333382   -2.7719373    1.1283346   569361 
 2782000    1.0036253   -2.7729684   -2.7729684   -1.6446455  0.063908449   -2.7729684    1.1283229   569361 
 2783000    1.0051658   -2.7745191   -2.7745191   -1.6444643  0.067144714   -2.7745191    1.1300548   569361 
 2784000    1.0050951   -2.7744593   -2.7744593    -1.644484  0.064453401   -2.7744593    1.1299753   569361 
 2785000    1.0045232   -2.7740812   -2.7740812   -1.6447489  0.060709667   -2.7740812    1.1293324   569361 
 2786000    1.0035436   -2.7730226   -2.7730226   -1.6447916  0.068455143   -2.7730226     1.128231   569361 
 2787000    1.0042235   -2.7731467   -2.7731467   -1.6441513  0.069675536   -2.7731467    1.1289954   569361 
 2788000    1.0039324   -2.7732197   -2.7732197   -1.6445515  0.065101311   -2.7732197    1.1286681   569361 
 2789000    1.0036032   -2.7733194   -2.7733194   -1.6450213   0.06861615   -2.7733194    1.1282981   569361 
 2790000    1.0042679   -2.7729524   -2.7729524    -1.643907  0.070971413   -2.7729524    1.1290453   569361 
 2791000    1.0044849   -2.7734104   -2.7734104   -1.6441211  0.067204254   -2.7734104    1.1292893   569361 
 2792000    1.0039365   -2.7730737   -2.7730737   -1.6444009  0.068715615   -2.7730737    1.1286728   569361 
 2793000    1.0039786   -2.7730988   -2.7730988   -1.6443787   0.06472548   -2.7730988    1.1287202   569361 
 2794000    1.0033143    -2.772276    -2.772276   -1.6443028  0.047001864    -2.772276    1.1279732   569361 
 2795000    1.0029272   -2.7724416   -2.7724416   -1.6449036  0.066244506   -2.7724416     1.127538   569361 
 2796000    1.0045157   -2.7736569   -2.7736569    -1.644333  0.066484111   -2.7736569    1.1293239   569361 
 2797000    1.0026814   -2.7711246   -2.7711246   -1.6438629  0.071359415   -2.7711246    1.1272618   569361 
 2798000    1.0036044   -2.7721526   -2.7721526   -1.6438532    0.0598741   -2.7721526    1.1282994   569361 
 2799000    1.0036178   -2.7722485   -2.7722485    -1.643934  0.069135208   -2.7722485    1.1283145   569361 
 2800000    1.0039328   -2.7725202   -2.7725202   -1.6438516  0.076521473   -2.7725202    1.1286686   569361 
 2801000    1.0047681   -2.7738445   -2.7738445   -1.6442368  0.061150687   -2.7738445    1.1296077   569361 
 2802000    1.0063438   -2.7744977   -2.7744977   -1.6431185  0.062944635   -2.7744977    1.1313792   569361 
 2803000     1.005812   -2.7742338   -2.7742338   -1.6434524  0.075682052   -2.7742338    1.1307813   569361 
 2804000     1.004898   -2.7738031   -2.7738031   -1.6440494  0.058253509   -2.7738031    1.1297538   569361 
 2805000    1.0049645   -2.7729474   -2.7729474   -1.6431189  0.070349385   -2.7729474    1.1298285   569361 
 2806000    1.0041919   -2.7726805   -2.7726805   -1.6437205  0.076478413   -2.7726805    1.1289599   569361 
 2807000    1.0040755   -2.7725891   -2.7725891   -1.6437601  0.058871323   -2.7725891     1.128829   569361 
 2808000    1.0050866    -2.773434    -2.773434   -1.6434682  0.071351573    -2.773434    1.1299658   569361 
 2809000     1.006448   -2.7748754   -2.7748754    -1.643379  0.064551522   -2.7748754    1.1314963   569361 
 2810000    1.0067149   -2.7755537   -2.7755537   -1.6437574  0.062369859   -2.7755537    1.1317964   569361 
 2811000    1.0053794   -2.7735002   -2.7735002   -1.6432053  0.060740485   -2.7735002    1.1302949   569361 
 2812000    1.0057466   -2.7742545   -2.7742545   -1.6435467  0.073814877   -2.7742545    1.1307078   569361 
 2813000    1.0068386   -2.7760028   -2.7760028   -1.6440674  0.067936423   -2.7760028    1.1319354   569361 
 2814000    1.0061181   -2.7743426   -2.7743426   -1.6432172  0.066677409   -2.7743426    1.1311254   569361 
 2815000    1.0061285   -2.7746602   -2.7746602    -1.643523  0.072169664   -2.7746602    1.1311372   569361 
 2816000    1.0065496   -2.7749758   -2.7749758   -1.6433653  0.058172275   -2.7749758    1.1316106   569361 
 2817000    1.0040988   -2.7728332   -2.7728332    -1.643978  0.065518399   -2.7728332    1.1288552   569361 
 2818000    1.0041958    -2.772353    -2.772353   -1.6433887   0.07572967    -2.772353    1.1289643   569361 
 2819000    1.0043031   -2.7724222   -2.7724222   -1.6433373  0.066778925   -2.7724222    1.1290849   569361 
 2820000    1.0045067    -2.771502    -2.771502   -1.6421882  0.072980383    -2.771502    1.1293138   569361 
 2821000    1.0050994   -2.7727545   -2.7727545   -1.6427743  0.063187756   -2.7727545    1.1299802   569361 
 2822000    1.0050699   -2.7724101   -2.7724101   -1.6424632  0.071221249   -2.7724101     1.129947   569361 
 2823000    1.0042904   -2.7712896   -2.7712896   -1.6422189  0.059894458   -2.7712896    1.1290707   569361 
 2824000    1.0050534   -2.7727516   -2.7727516   -1.6428231  0.057448796   -2.7727516    1.1299285   569361 
 2825000    1.0029497   -2.7695016   -2.7695016   -1.6419382  0.062775975   -2.7695016    1.1275634   569361 
 2826000    1.0048805   -2.7716098   -2.7716098   -1.6418757   0.07571768   -2.7716098     1.129734   569361 
 2827000    1.0056423    -2.772478    -2.772478   -1.6418875  0.070222998    -2.772478    1.1305905   569361 
 2828000    1.0054841   -2.7715816   -2.7715816    -1.641169  0.073252656   -2.7715816    1.1304126   569361 
 2829000    1.0034075    -2.768749    -2.768749    -1.640671  0.066798643    -2.768749    1.1280781   569361 
 2830000    1.0051871   -2.7712849   -2.7712849   -1.6412061  0.070861711   -2.7712849    1.1300788   569361 
 2831000    1.0047299   -2.7710507   -2.7710507   -1.6414859   0.05784758   -2.7710507    1.1295648   569361 
 2832000    1.0043471   -2.7710533   -2.7710533   -1.6419189  0.058979225   -2.7710533    1.1291344   569361 
 2833000    1.0042239   -2.7710281   -2.7710281   -1.6420322  0.054813805   -2.7710281    1.1289959   569361 
 2834000    1.0043988   -2.7715137   -2.7715137   -1.6423213   0.07116002   -2.7715137    1.1291925   569361 
 2835000    1.0040338   -2.7703474   -2.7703474   -1.6415652   0.05383217   -2.7703474    1.1287822   569361 
 2836000    1.0043973   -2.7707204   -2.7707204   -1.6415295  0.074404912   -2.7707204    1.1291908   569361 
 2837000    1.0038892   -2.7702497   -2.7702497   -1.6416302  0.062265114   -2.7702497    1.1286196   569361 
 2838000    1.0040962   -2.7712478   -2.7712478   -1.6423954  0.067411772   -2.7712478    1.1288523   569361 
 2839000    1.0042368   -2.7719732   -2.7719732   -1.6429629  0.058176291   -2.7719732    1.1290104   569361 
 2840000    1.0049556   -2.7723311   -2.7723311   -1.6425125  0.057817855   -2.7723311    1.1298185   569361 
 2841000     1.003393    -2.771472    -2.771472   -1.6434103   0.06298638    -2.771472    1.1280618   569361 
 2842000    1.0033963   -2.7712129   -2.7712129   -1.6431475  0.068288049   -2.7712129    1.1280654   569361 
 2843000    1.0036242   -2.7714639   -2.7714639   -1.6431422  0.070410845   -2.7714639    1.1283216   569361 
 2844000    1.0048784   -2.7726317   -2.7726317   -1.6428999  0.060726086   -2.7726317    1.1297318   569361 
 2845000    1.0063928   -2.7746677   -2.7746677   -1.6432334  0.059355006   -2.7746677    1.1314343   569361 
 2846000    1.0049433   -2.7727514   -2.7727514   -1.6429467  0.064908067   -2.7727514    1.1298046   569361 
 2847000    1.0067209   -2.7745939   -2.7745939   -1.6427908  0.069258973   -2.7745939    1.1318031   569361 
 2848000    1.0052833   -2.7742566   -2.7742566   -1.6440696  0.073604845   -2.7742566     1.130187   569361 
 2849000     1.005097   -2.7751403   -2.7751403   -1.6451628  0.064414857   -2.7751403    1.1299775   569361 
 2850000    1.0051995   -2.7755999   -2.7755999   -1.6455072  0.063763379   -2.7755999    1.1300927   569361 
 2851000    1.0041687   -2.7736937   -2.7736937   -1.6447598  0.075216028   -2.7736937    1.1289339   569361 
 2852000     1.005972   -2.7755992   -2.7755992    -1.644638  0.071558889   -2.7755992    1.1309612   569361 
 2853000    1.0062301   -2.7757472   -2.7757472   -1.6444958  0.069656774   -2.7757472    1.1312514   569361 
 2854000    1.0053842   -2.7750421   -2.7750421   -1.6447417  0.065179775   -2.7750421    1.1303004   569361 
 2855000    1.0049793   -2.7754027   -2.7754027   -1.6455575  0.064212576   -2.7754027    1.1298452   569361 
 2856000    1.0040672   -2.7743045   -2.7743045   -1.6454847  0.064909469   -2.7743045    1.1288197   569361 
 2857000    1.0050028   -2.7755698   -2.7755698   -1.6456983  0.068956139   -2.7755698    1.1298715   569361 
 2858000    1.0048391   -2.7744858   -2.7744858   -1.6447982  0.076140672   -2.7744858    1.1296876   569361 
 2859000    1.0040088   -2.7740998   -2.7740998   -1.6453457  0.077165489   -2.7740998    1.1287541   569361 
 2860000    1.0055669   -2.7758543   -2.7758543   -1.6453486  0.074904827   -2.7758543    1.1305057   569361 
 2861000    1.0065153    -2.776249    -2.776249    -1.644677  0.060974941    -2.776249     1.131572   569361 
 2862000    1.0056683   -2.7746191   -2.7746191   -1.6439993   0.07591251   -2.7746191    1.1306198   569361 
 2863000     1.005968    -2.775149    -2.775149   -1.6441923  0.079220454    -2.775149    1.1309567   569361 
 2864000        1.006   -2.7755616   -2.7755616   -1.6445689  0.069227273   -2.7755616    1.1309927   569361 
 2865000    1.0064374   -2.7766458   -2.7766458   -1.6451614  0.067666933   -2.7766458    1.1314844   569361 
 2866000    1.0053024   -2.7751937   -2.7751937   -1.6449853  0.066538785   -2.7751937    1.1302084   569361 
 2867000     1.005256   -2.7755657   -2.7755657   -1.6454095  0.063817183   -2.7755657    1.1301562   569361 
 2868000    1.0056527   -2.7745256   -2.7745256   -1.6439234  0.067350244   -2.7745256    1.1306022   569361 
 2869000    1.0040643   -2.7745252   -2.7745252   -1.6457088  0.071290725   -2.7745252    1.1288164   569361 
 2870000     1.002921   -2.7736928   -2.7736928   -1.6461617  0.058981381   -2.7736928    1.1275311   569361 
 2871000    1.0024203   -2.7728519   -2.7728519   -1.6458837  0.065575793   -2.7728519    1.1269681   569361 
 2872000    1.0041913   -2.7745281   -2.7745281   -1.6455689  0.061688111   -2.7745281    1.1289592   569361 
 2873000    1.0018766   -2.7714877   -2.7714877   -1.6451308   0.06610612   -2.7714877    1.1263569   569361 
 2874000    1.0028642   -2.7723399   -2.7723399   -1.6448727  0.072694878   -2.7723399    1.1274673   569361 
 2875000    1.0019928   -2.7713976   -2.7713976     -1.64491  0.061590461   -2.7713976    1.1264876   569361 
 2876000    1.0041308   -2.7716106   -2.7716106   -1.6427193  0.064613888   -2.7716106    1.1288913   569361 
 2877000    1.0036205   -2.7724218   -2.7724218   -1.6441042  0.076198989   -2.7724218    1.1283175   569361 
 2878000     1.006474   -2.7747244   -2.7747244   -1.6431988   0.06243589   -2.7747244    1.1315256   569361 
 2879000    1.0051224   -2.7741009   -2.7741009   -1.6440949  0.054497225   -2.7741009     1.130006   569361 
 2880000     1.005583   -2.7739703   -2.7739703   -1.6434465   0.06483598   -2.7739703    1.1305238   569361 
 2881000    1.0049326    -2.773153    -2.773153   -1.6433604  0.064232702    -2.773153    1.1297926   569361 
 2882000    1.0052264   -2.7743613   -2.7743613   -1.6442384  0.064859748   -2.7743613    1.1301229   569361 
 2883000    1.0048769   -2.7736103   -2.7736103   -1.6438802  0.073096408   -2.7736103    1.1297301   569361 
 2884000    1.0039875   -2.7722323   -2.7722323   -1.6435022  0.066680567   -2.7722323    1.1287301   569361 
 2885000    1.0040186   -2.7727491   -2.7727491    -1.643984  0.061671157   -2.7727491    1.1287651   569361 
 2886000    1.0063276   -2.7756475   -2.7756475   -1.6442865  0.071471691   -2.7756475     1.131361   569361 
 2887000    1.0048271   -2.7731639   -2.7731639   -1.6434899  0.066968822   -2.7731639     1.129674   569361 
 2888000    1.0059139   -2.7749814   -2.7749814   -1.6440855  0.067208309   -2.7749814    1.1308959   569361 
 2889000    1.0045413    -2.773603    -2.773603   -1.6442503  0.057654984    -2.773603    1.1293527   569361 
 2890000    1.0050934   -2.7748288   -2.7748288   -1.6448554  0.072957192   -2.7748288    1.1299734   569361 
 2891000    1.0036725   -2.7738529   -2.7738529    -1.645477  0.065145906   -2.7738529     1.128376   569361 
 2892000    1.0036442   -2.7739472   -2.7739472   -1.6456031  0.060631568   -2.7739472    1.1283442   569361 
 2893000    1.0037682   -2.7738168   -2.7738168   -1.6453332  0.059265355   -2.7738168    1.1284836   569361 
 2894000    1.0035407   -2.7731342   -2.7731342   -1.6449064  0.065463912   -2.7731342    1.1282278   569361 
 2895000    1.0034331   -2.7728968   -2.7728968     -1.64479  0.069047009   -2.7728968    1.1281068   569361 
 2896000    1.0037163   -2.7732882   -2.7732882    -1.644863  0.061100577   -2.7732882    1.1284252   569361 
 2897000    1.0036654   -2.7731818   -2.7731818   -1.6448138  0.077215607   -2.7731818     1.128368   569361 
 2898000    1.0038754   -2.7733235   -2.7733235   -1.6447194   0.05941193   -2.7733235    1.1286041   569361 
 2899000    1.0043112   -2.7743774   -2.7743774   -1.6452834  0.076444632   -2.7743774     1.129094   569361 
 2900000    1.0049931   -2.7746216   -2.7746216   -1.6447608  0.066334545   -2.7746216    1.1298607   569361 
 2901000    1.0063036   -2.7759264   -2.7759264   -1.6445924  0.060091643   -2.7759264     1.131334   569361 
 2902000    1.0064709   -2.7758363   -2.7758363   -1.6443142  0.066337786   -2.7758363    1.1315221   569361 
 2903000     1.005267   -2.7750399   -2.7750399   -1.6448713  0.069010261   -2.7750399    1.1301686   569361 
 2904000    1.0056733   -2.7749572   -2.7749572   -1.6443319  0.067657744   -2.7749572    1.1306253   569361 
 2905000    1.0028308   -2.7727463   -2.7727463   -1.6453166  0.071596809   -2.7727463    1.1274297   569361 
 2906000    1.0031539   -2.7729984   -2.7729984   -1.6452055  0.066433977   -2.7729984     1.127793   569361 
 2907000    1.0049699    -2.775227    -2.775227   -1.6453924  0.064799715    -2.775227    1.1298346   569361 
 2908000    1.0027242   -2.7724426   -2.7724426   -1.6451327   0.05983619   -2.7724426    1.1273099   569361 
 2909000     1.002653   -2.7726238   -2.7726238    -1.645394  0.062632865   -2.7726238    1.1272298   569361 
 2910000    1.0039239   -2.7732957   -2.7732957   -1.6446371  0.064578073   -2.7732957    1.1286586   569361 
 2911000    1.0036521    -2.773035    -2.773035    -1.644682  0.071352104    -2.773035     1.128353   569361 
 2912000    1.0048482   -2.7746159   -2.7746159   -1.6449181  0.056693373   -2.7746159    1.1296977   569361 
 2913000    1.0034093   -2.7727595   -2.7727595   -1.6446794  0.079439636   -2.7727595    1.1280801   569361 
 2914000    1.0038608   -2.7727392   -2.7727392   -1.6441515  0.061275537   -2.7727392    1.1285877   569361 
 2915000    1.0040691   -2.7722636   -2.7722636   -1.6434418  0.059967446   -2.7722636    1.1288218   569361 
 2916000    1.0050078   -2.7731356   -2.7731356   -1.6432584  0.060819115   -2.7731356    1.1298772   569361 
 2917000    1.0054233   -2.7739827   -2.7739827   -1.6436383  0.062172777   -2.7739827    1.1303443   569361 
 2918000    1.0039651   -2.7720935   -2.7720935   -1.6433885  0.066625316   -2.7720935     1.128705   569361 
 2919000    1.0040778   -2.7722691   -2.7722691   -1.6434375  0.074143007   -2.7722691    1.1288316   569361 
 2920000    1.0043919   -2.7720444   -2.7720444   -1.6428596  0.077215136   -2.7720444    1.1291848   569361 
 2921000    1.0062463   -2.7739822   -2.7739822   -1.6427126  0.072841516   -2.7739822    1.1312696   569361 
 2922000    1.0060789   -2.7740173   -2.7740173   -1.6429359  0.062536357   -2.7740173    1.1310814   569361 
 2923000    1.0021988   -2.7711862   -2.7711862    -1.644467    0.0695849   -2.7711862    1.1267192   569361 
 2924000    1.0033985    -2.771776    -2.771776    -1.643708  0.060163695    -2.771776     1.128068   569361 
 2925000    1.0046244   -2.7737401   -2.7737401    -1.644294  0.061377702   -2.7737401    1.1294461   569361 
 2926000    1.0041604   -2.7729553   -2.7729553   -1.6440308  0.068089511   -2.7729553    1.1289245   569361 
 2927000    1.0030686    -2.772217    -2.772217     -1.64452  0.065644792    -2.772217     1.127697   569361 
 2928000    1.0038722    -2.773021    -2.773021   -1.6444205  0.068227404    -2.773021    1.1286005   569361 
 2929000    1.0030487   -2.7711323   -2.7711323   -1.6434576  0.076963849   -2.7711323    1.1276747   569361 
 2930000    1.0051773   -2.7739684   -2.7739684   -1.6439006  0.067884819   -2.7739684    1.1300678   569361 
 2931000     1.003971    -2.773054    -2.773054   -1.6443425  0.061492401    -2.773054    1.1287115   569361 
 2932000    1.0041511   -2.7730029   -2.7730029   -1.6440889  0.058225287   -2.7730029     1.128914   569361 
 2933000    1.0039889   -2.7730106   -2.7730106   -1.6442789  0.070009359   -2.7730106    1.1287317   569361 
 2934000    1.0043556   -2.7742142   -2.7742142   -1.6450702  0.073480161   -2.7742142     1.129144   569361 
 2935000    1.0017832   -2.7716698   -2.7716698   -1.6454179  0.067375864   -2.7716698     1.126252   569361 
 2936000     1.003206    -2.773102    -2.773102   -1.6452505   0.06677076    -2.773102    1.1278515   569361 
 2937000    1.0035397    -2.773224    -2.773224   -1.6449973  0.066641493    -2.773224    1.1282267   569361 
 2938000     1.004328   -2.7747007   -2.7747007   -1.6455878  0.060726546   -2.7747007     1.129113   569361 
 2939000    1.0033651   -2.7741021   -2.7741021   -1.6460716  0.067686745   -2.7741021    1.1280304   569361 
 2940000    1.0034908   -2.7738054   -2.7738054   -1.6456337  0.063849043   -2.7738054    1.1281717   569361 
 2941000    1.0053231   -2.7753487   -2.7753487    -1.645117  0.063385879   -2.7753487    1.1302317   569361 
 2942000    1.0039185   -2.7742133   -2.7742133   -1.6455608    0.0739145   -2.7742133    1.1286525   569361 
 2943000    1.0039099   -2.7752692   -2.7752692   -1.6466263  0.057524334   -2.7752692    1.1286429   569361 
 2944000    1.0034237   -2.7736989   -2.7736989   -1.6456026  0.064596711   -2.7736989    1.1280963   569361 
 2945000    1.0024458   -2.7729224   -2.7729224   -1.6459256  0.071056741   -2.7729224    1.1269969   569361 
 2946000    1.0043411   -2.7745666   -2.7745666    -1.645439  0.059619244   -2.7745666    1.1291276   569361 
 2947000    1.0040628   -2.7741316   -2.7741316   -1.6453168  0.068293549   -2.7741316    1.1288148   569361 
 2948000    1.0035671   -2.7740384   -2.7740384   -1.6457809   0.06499989   -2.7740384    1.1282575   569361 
 2949000    1.0040193   -2.7746216   -2.7746216   -1.6458558  0.060677552   -2.7746216    1.1287658   569361 
 2950000    1.0050171    -2.776613    -2.776613   -1.6467253  0.061357206    -2.776613    1.1298876   569361 
 2951000    1.0053101   -2.7750668   -2.7750668   -1.6448497  0.064694586   -2.7750668    1.1302171   569361 
 2952000    1.0066604   -2.7772067   -2.7772067   -1.6454715  0.064284885   -2.7772067    1.1317352   569361 
 2953000    1.0046498   -2.7756408   -2.7756408   -1.6461661  0.070948428   -2.7756408    1.1294747   569361 
 2954000    1.0040098   -2.7753435   -2.7753435   -1.6465883  0.068205975   -2.7753435    1.1287551   569361 
 2955000     1.004747   -2.7763518   -2.7763518   -1.6467678  0.063676229   -2.7763518     1.129584   569361 
 2956000    1.0026165   -2.7746971   -2.7746971   -1.6475083  0.076337486   -2.7746971    1.1271887   569361 
 2957000    1.0037658   -2.7762436   -2.7762436   -1.6477627  0.067536364   -2.7762436    1.1284809   569361 
 2958000    1.0029041   -2.7749789   -2.7749789   -1.6474668  0.072791993   -2.7749789    1.1275121   569361 
 2959000    1.0042792   -2.7759542   -2.7759542   -1.6468962  0.061102159   -2.7759542    1.1290581   569361 
 2960000    1.0038925   -2.7762256   -2.7762256   -1.6476023  0.063876956   -2.7762256    1.1286233   569361 
 2961000    1.0042964   -2.7758596   -2.7758596   -1.6467822  0.065389194   -2.7758596    1.1290774   569361 
 2962000    1.0041995   -2.7763819   -2.7763819   -1.6474134  0.072933097   -2.7763819    1.1289685   569361 
 2963000    1.0032982    -2.775673    -2.775673   -1.6477178  0.067555775    -2.775673    1.1279552   569361 
 2964000    1.0047936   -2.7768315   -2.7768315   -1.6471951  0.065394139   -2.7768315    1.1296364   569361 
 2965000    1.0035556    -2.775175    -2.775175   -1.6469305  0.053832367    -2.775175    1.1282445   569361 
 2966000    1.0045623   -2.7764613   -2.7764613   -1.6470851  0.060278456   -2.7764613    1.1293763   569361 
 2967000    1.0042878   -2.7779159   -2.7779159   -1.6488482  0.058542768   -2.7779159    1.1290677   569361 
 2968000    1.0039114   -2.7771976   -2.7771976   -1.6485531  0.054368687   -2.7771976    1.1286445   569361 
 2969000     1.002444   -2.7752023   -2.7752023   -1.6482075  0.060809617   -2.7752023    1.1269949   569361 
 2970000    1.0019487   -2.7745304   -2.7745304   -1.6480923  0.059437743   -2.7745304     1.126438   569361 
 2971000    1.0030125   -2.7755835   -2.7755835   -1.6479495  0.056994152   -2.7755835     1.127634   569361 
 2972000    1.0026332   -2.7756607   -2.7756607   -1.6484532  0.062743577   -2.7756607    1.1272076   569361 
 2973000    1.0030049   -2.7757108   -2.7757108   -1.6480853   0.06968941   -2.7757108    1.1276255   569361 
 2974000    1.0036416   -2.7762478   -2.7762478   -1.6479066  0.061648264   -2.7762478    1.1283412   569361 
 2975000    1.0034295    -2.776865    -2.776865   -1.6487621  0.065622329    -2.776865    1.1281028   569361 
 2976000    1.0042125   -2.7777907   -2.7777907   -1.6488076  0.067768533   -2.7777907     1.128983   569361 
 2977000    1.0054806   -2.7783786   -2.7783786   -1.6479699  0.066939817   -2.7783786    1.1304087   569361 
 2978000    1.0060685   -2.7790406   -2.7790406   -1.6479709  0.073653371   -2.7790406    1.1310697   569361 
 2979000    1.0049814   -2.7778134   -2.7778134    -1.647966   0.06257683   -2.7778134    1.1298475   569361 
 2980000    1.0054234   -2.7773806   -2.7773806   -1.6470362  0.066584254   -2.7773806    1.1303444   569361 
 2981000    1.0061094   -2.7780656   -2.7780656     -1.64695  0.074751894   -2.7780656    1.1311156   569361 
 2982000    1.0039367   -2.7763492   -2.7763492   -1.6476762  0.074993689   -2.7763492     1.128673   569361 
 2983000     1.005255   -2.7773749   -2.7773749   -1.6472199  0.067626071   -2.7773749    1.1301551   569361 
 2984000    1.0039756   -2.7758091   -2.7758091   -1.6470924  0.068247431   -2.7758091    1.1287167   569361 
 2985000    1.0056658   -2.7777204   -2.7777204   -1.6471034  0.066087077   -2.7777204    1.1306169   569361 
 2986000     1.005376     -2.77757     -2.77757   -1.6472789  0.063874849     -2.77757    1.1302911   569361 
 2987000    1.0052071   -2.7769993   -2.7769993    -1.646898  0.065839822   -2.7769993    1.1301013   569361 
 2988000    1.0042127   -2.7757826   -2.7757826   -1.6467992   0.07516913   -2.7757826    1.1289833   569361 
 2989000    1.0048517   -2.7765026   -2.7765026   -1.6468009  0.075514461   -2.7765026    1.1297016   569361 
 2990000    1.0031913   -2.7745398   -2.7745398   -1.6467048  0.067745895   -2.7745398     1.127835   569361 
 2991000    1.0045344   -2.7765301   -2.7765301   -1.6471852  0.072949122   -2.7765301    1.1293449   569361 
 2992000     1.003179   -2.7749449   -2.7749449   -1.6471237  0.061871657   -2.7749449    1.1278212   569361 
 2993000    1.0040339   -2.7756723   -2.7756723     -1.64689  0.069561739   -2.7756723    1.1287823   569361 
 2994000     1.004107   -2.7761827   -2.7761827   -1.6473182  0.063346778   -2.7761827    1.1288644   569361 
 2995000    1.0040026   -2.7759136   -2.7759136   -1.6471665  0.061461702   -2.7759136    1.1287471   569361 
 2996000    1.0047139    -2.775145    -2.775145   -1.6455982  0.063500258    -2.775145    1.1295468   569361 
 2997000    1.0048255   -2.7748861   -2.7748861   -1.6452139   0.06684168   -2.7748861    1.1296722   569361 
 2998000    1.0045321   -2.7746162   -2.7746162   -1.6452738  0.062462792   -2.7746162    1.1293423   569361 
 2999000     1.004249   -2.7750297   -2.7750297   -1.6460055   0.06536454   -2.7750297    1.1290242   569361 
 3000000    1.0043413   -2.7744363   -2.7744363   -1.6453083  0.068953907   -2.7744363    1.1291279   569361 
 3001000    1.0041908   -2.7742177   -2.7742177    -1.645259  0.056128921   -2.7742177    1.1289587   569361 
 3002000    1.0037251    -2.773787    -2.773787    -1.645352  0.067127819    -2.773787    1.1284351   569361 
 3003000    1.0034112   -2.7734266   -2.7734266   -1.6453443  0.060515393   -2.7734266    1.1280823   569361 
 3004000    1.0032154   -2.7731834   -2.7731834   -1.6453213  0.068360817   -2.7731834    1.1278621   569361 
 3005000    1.0037453   -2.7740543   -2.7740543   -1.6455965  0.064580841   -2.7740543    1.1284578   569361 
 3006000    1.0039989    -2.774446    -2.774446    -1.645703   0.06787659    -2.774446    1.1287429   569361 
 3007000     1.002948   -2.7737406   -2.7737406   -1.6461791  0.066086663   -2.7737406    1.1275615   569361 
 3008000    1.0033336   -2.7740887   -2.7740887   -1.6460937  0.056251426   -2.7740887     1.127995   569361 
 3009000    1.0026482   -2.7732796   -2.7732796   -1.6460552  0.065941011   -2.7732796    1.1272244   569361 
 3010000    1.0038643   -2.7744555   -2.7744555   -1.6458638  0.064695147   -2.7744555    1.1285916   569361 
 3011000    1.0063657   -2.7755777   -2.7755777   -1.6441739  0.068816576   -2.7755777    1.1314038   569361 
 3012000    1.0060842   -2.7754888   -2.7754888   -1.6444015  0.064709376   -2.7754888    1.1310873   569361 
 3013000    1.0044687   -2.7741357   -2.7741357   -1.6448645  0.072966749   -2.7741357    1.1292712   569361 
 3014000    1.0042178   -2.7748972   -2.7748972   -1.6459082  0.062472762   -2.7748972     1.128989   569361 
 3015000    1.0058052   -2.7761814   -2.7761814   -1.6454077  0.064725077   -2.7761814    1.1307736   569361 
 3016000    1.0044549   -2.7749015   -2.7749015   -1.6456459  0.066555716   -2.7749015    1.1292556   569361 
 3017000    1.0050862    -2.775889    -2.775889   -1.6459237  0.068120472    -2.775889    1.1299653   569361 
 3018000    1.0040171   -2.7755068   -2.7755068   -1.6467434   0.06924459   -2.7755068    1.1287634   569361 
 3019000    1.0027725   -2.7739455   -2.7739455   -1.6465813    0.0647578   -2.7739455    1.1273642   569361 
 3020000    1.0045248   -2.7754872   -2.7754872    -1.646153  0.070597178   -2.7754872    1.1293342   569361 
 3021000    1.0051664   -2.7758375   -2.7758375   -1.6457821   0.05582127   -2.7758375    1.1300554   569361 
 3022000    1.0026996   -2.7731533   -2.7731533   -1.6458712  0.060165359   -2.7731533    1.1272822   569361 
 3023000    1.0031048    -2.773415    -2.773415   -1.6456773  0.066936477    -2.773415    1.1277377   569361 
 3024000    1.0034489   -2.7735742   -2.7735742   -1.6454496  0.067600611   -2.7735742    1.1281246   569361 
 3025000    1.0042459   -2.7734863   -2.7734863   -1.6444657  0.073858143   -2.7734863    1.1290206   569361 
 3026000    1.0037012   -2.7737179   -2.7737179   -1.6453096  0.064863567   -2.7737179    1.1284082   569361 
 3027000    1.0055678   -2.7761387   -2.7761387   -1.6456319  0.063854008   -2.7761387    1.1305068   569361 
 3028000    1.0039419   -2.7736754   -2.7736754   -1.6449965  0.063656613   -2.7736754    1.1286789   569361 
 3029000    1.0027441   -2.7733741   -2.7733741   -1.6460419  0.072600072   -2.7733741    1.1273322   569361 
 3030000    1.0053881   -2.7756121   -2.7756121   -1.6453074  0.061327878   -2.7756121    1.1303047   569361 
 3031000    1.0049779    -2.773271    -2.773271   -1.6434275  0.071501147    -2.773271    1.1298435   569361 
 3032000     1.004881   -2.7739375   -2.7739375   -1.6442029  0.063396383   -2.7739375    1.1297346   569361 
 3033000    1.0042505   -2.7729062   -2.7729062   -1.6438805  0.064951673   -2.7729062    1.1290258   569361 
 3034000    1.0038908   -2.7733434   -2.7733434    -1.644722  0.061188711   -2.7733434    1.1286214   569361 
 3035000    1.0039826   -2.7728274   -2.7728274   -1.6441028  0.065865114   -2.7728274    1.1287246   569361 
 3036000    1.0041196   -2.7724256   -2.7724256    -1.643547   0.06354035   -2.7724256    1.1288786   569361 
 3037000     1.005672   -2.7736885   -2.7736885   -1.6430646  0.063084507   -2.7736885     1.130624   569361 
 3038000    1.0039267    -2.771986    -2.771986   -1.6433242  0.064661541    -2.771986    1.1286617   569361 
 3039000    1.0052864   -2.7734528   -2.7734528   -1.6432624  0.064370166   -2.7734528    1.1301904   569361 
 3040000     1.004705   -2.7736196   -2.7736196   -1.6440828  0.066821113   -2.7736196    1.1295368   569361 
 3041000    1.0057206    -2.774318    -2.774318   -1.6436395  0.071085084    -2.774318    1.1306785   569361 
 3042000    1.0057726   -2.7743122   -2.7743122   -1.6435752  0.063785552   -2.7743122     1.130737   569361 
 3043000    1.0045129    -2.772577    -2.772577   -1.6432563  0.064600987    -2.772577    1.1293208   569361 
 3044000    1.0062958   -2.7750464   -2.7750464   -1.6437212  0.067141726   -2.7750464    1.1313252   569361 
 3045000     1.005135   -2.7744407   -2.7744407   -1.6444204  0.072389791   -2.7744407    1.1300202   569361 
 3046000    1.0057441    -2.775741    -2.775741   -1.6450361  0.065995068    -2.775741     1.130705   569361 
 3047000    1.0041225   -2.7736801   -2.7736801   -1.6447982  0.071090951   -2.7736801    1.1288819   569361 
 3048000    1.0034206   -2.7723175   -2.7723175   -1.6442247  0.069936315   -2.7723175    1.1280927   569361 
 3049000    1.0036497   -2.7730391   -2.7730391   -1.6446888  0.066873672   -2.7730391    1.1283503   569361 
 3050000    1.0045518   -2.7738766   -2.7738766   -1.6445121  0.063623937   -2.7738766    1.1293645   569361 
 3051000    1.0027403   -2.7719776   -2.7719776   -1.6446496  0.062506222   -2.7719776    1.1273279   569361 
 3052000    1.0039204   -2.7739759   -2.7739759   -1.6453212  0.052849254   -2.7739759    1.1286547   569361 
 3053000    1.0037234   -2.7736734   -2.7736734   -1.6452402   0.05673019   -2.7736734    1.1284332   569361 
 3054000     1.003932   -2.7742658   -2.7742658   -1.6455981  0.069034411   -2.7742658    1.1286677   569361 
 3055000    1.0051264   -2.7753188   -2.7753188   -1.6453082  0.069602235   -2.7753188    1.1300106   569361 
 3056000    1.0057858    -2.775607    -2.775607   -1.6448551  0.061447414    -2.775607    1.1307519   569361 
 3057000    1.0063433   -2.7752778   -2.7752778   -1.6438992  0.065674407   -2.7752778    1.1313786   569361 
 3058000    1.0057232   -2.7740106   -2.7740106   -1.6433292  0.074866887   -2.7740106    1.1306815   569361 
 3059000    1.0068933   -2.7753526   -2.7753526   -1.6433556  0.066673303   -2.7753526     1.131997   569361 
 3060000    1.0061693   -2.7750052   -2.7750052   -1.6438222  0.071081347   -2.7750052     1.131183   569361 
 3061000    1.0061531   -2.7754239   -2.7754239    -1.644259  0.080399429   -2.7754239    1.1311648   569361 
 3062000    1.0073419   -2.7768161   -2.7768161   -1.6443149  0.061120517   -2.7768161    1.1325013   569361 
 3063000    1.0065846    -2.775813    -2.775813   -1.6441631  0.064219709    -2.775813    1.1316499   569361 
 3064000    1.0053384   -2.7747128   -2.7747128   -1.6444639  0.064984173   -2.7747128    1.1302489   569361 
 3065000    1.0049834   -2.7736254   -2.7736254   -1.6437756  0.053385271   -2.7736254    1.1298498   569361 
 3066000    1.0053113   -2.7740958   -2.7740958   -1.6438775  0.066982487   -2.7740958    1.1302184   569361 
 3067000    1.0058317   -2.7756821   -2.7756821   -1.6448787  0.061737351   -2.7756821    1.1308034   569361 
 3068000    1.0060244   -2.7755791   -2.7755791    -1.644559  0.075955628   -2.7755791    1.1310201   569361 
 3069000    1.0052642   -2.7750797   -2.7750797   -1.6449143  0.066247803   -2.7750797    1.1301654   569361 
 3070000     1.005266   -2.7746238   -2.7746238   -1.6444562  0.079696586   -2.7746238    1.1301675   569361 
 3071000    1.0045028   -2.7738948   -2.7738948   -1.6445854  0.075816341   -2.7738948    1.1293094   569361 
 3072000    1.0056869   -2.7738242   -2.7738242   -1.6431836  0.064657276   -2.7738242    1.1306406   569361 
 3073000    1.0044482    -2.773219    -2.773219    -1.643971  0.070609896    -2.773219     1.129248   569361 
 3074000    1.0039051   -2.7723712   -2.7723712   -1.6437336  0.070265721   -2.7723712    1.1286375   569361 
 3075000    1.0051037   -2.7733553   -2.7733553   -1.6433703  0.059514427   -2.7733553     1.129985   569361 
 3076000    1.0032063   -2.7718127   -2.7718127   -1.6439609   0.07022362   -2.7718127    1.1278519   569361 
 3077000    1.0025676   -2.7705821   -2.7705821   -1.6434483  0.070288355   -2.7705821    1.1271338   569361 
 3078000    1.0039364   -2.7730184   -2.7730184   -1.6443457  0.058775973   -2.7730184    1.1286727   569361 
 3079000    1.0026408   -2.7722956   -2.7722956   -1.6450795  0.068574953   -2.7722956    1.1272161   569361 
 3080000    1.0020574   -2.7717156   -2.7717156   -1.6451553  0.054896723   -2.7717156    1.1265602   569361 
 3081000    1.0035425    -2.772993    -2.772993   -1.6447632  0.063683112    -2.772993    1.1282298   569361 
 3082000    1.0052849    -2.774232    -2.774232   -1.6440433  0.061868876    -2.774232    1.1301888   569361 
 3083000     1.006788   -2.7759625   -2.7759625   -1.6440839  0.068348521   -2.7759625    1.1318786   569361 
 3084000    1.0051505   -2.7745676   -2.7745676   -1.6445299  0.053180733   -2.7745676    1.1300377   569361 
 3085000    1.0060685   -2.7740874   -2.7740874   -1.6430177  0.060338369   -2.7740874    1.1310696   569361 
 3086000    1.0049822   -2.7724013   -2.7724013   -1.6425529   0.06922591   -2.7724013    1.1298485   569361 
 3087000    1.0061842    -2.774221    -2.774221   -1.6430212   0.06781004    -2.774221    1.1311998   569361 
 3088000    1.0062109   -2.7741916   -2.7741916   -1.6429618  0.072319757   -2.7741916    1.1312298   569361 
 3089000    1.0046404   -2.7713617   -2.7713617   -1.6418977  0.066285342   -2.7713617    1.1294641   569361 
 3090000    1.0057977    -2.773708    -2.773708   -1.6429428  0.068748334    -2.773708    1.1307653   569361 
 3091000    1.0051122   -2.7730568   -2.7730568   -1.6430623  0.072001976   -2.7730568    1.1299945   569361 
 3092000    1.0054918   -2.7731066   -2.7731066   -1.6426853  0.079676359   -2.7731066    1.1304213   569361 
 3093000    1.0058845   -2.7729459   -2.7729459   -1.6420831  0.068410399   -2.7729459    1.1308628   569361 
 3094000    1.0064599   -2.7742776   -2.7742776    -1.642768  0.071836169   -2.7742776    1.1315097   569361 
 3095000    1.0057945    -2.773529    -2.773529   -1.6427674  0.078369366    -2.773529    1.1307616   569361 
 3096000     1.006157   -2.7748068   -2.7748068   -1.6436376  0.064624506   -2.7748068    1.1311691   569361 
 3097000    1.0052615   -2.7740559   -2.7740559   -1.6438935  0.068916555   -2.7740559    1.1301624   569361 
 3098000    1.0043846   -2.7733872   -2.7733872   -1.6442107  0.078667818   -2.7733872    1.1291765   569361 
 3099000    1.0051454   -2.7745457   -2.7745457   -1.6445138  0.075275982   -2.7745457    1.1300319   569361 
 3100000    1.0050017   -2.7744429   -2.7744429   -1.6445726  0.065573554   -2.7744429    1.1298703   569361 
 3101000    1.0041285   -2.7733045   -2.7733045   -1.6444158  0.070980748   -2.7733045    1.1288887   569361 
 3102000    1.0046001   -2.7733454   -2.7733454   -1.6439266  0.068636355   -2.7733454    1.1294188   569361 
 3103000    1.0048893   -2.7735153   -2.7735153   -1.6437713  0.082420358   -2.7735153     1.129744   569361 
 3104000    1.0045002   -2.7734426   -2.7734426   -1.6441361  0.073563736   -2.7734426    1.1293065   569361 
 3105000    1.0056615   -2.7739036   -2.7739036   -1.6432914  0.072056504   -2.7739036    1.1306122   569361 
 3106000    1.0048951   -2.7735081   -2.7735081   -1.6437576  0.073918984   -2.7735081    1.1297505   569361 
 3107000    1.0056907   -2.7750105   -2.7750105   -1.6443656  0.071232491   -2.7750105    1.1306449   569361 
 3108000    1.0045841   -2.7736467   -2.7736467   -1.6442459  0.066984985   -2.7736467    1.1294008   569361 
 3109000    1.0046576   -2.7728595   -2.7728595   -1.6433761  0.063030492   -2.7728595    1.1294835   569361 
 3110000    1.0043365   -2.7722712   -2.7722712   -1.6431487  0.058756313   -2.7722712    1.1291225   569361 
 3111000    1.0034278   -2.7730028   -2.7730028   -1.6449019  0.070720116   -2.7730028    1.1281008   569361 
 3112000    1.0044399   -2.7743393   -2.7743393   -1.6451006  0.057729262   -2.7743393    1.1292388   569361 
 3113000     1.003955    -2.773674    -2.773674   -1.6449804  0.066979078    -2.773674    1.1286936   569361 
 3114000    1.0039147   -2.7733291   -2.7733291   -1.6446809  0.069155715   -2.7733291    1.1286483   569361 
 3115000    1.0041622   -2.7732457   -2.7732457   -1.6443192  0.072075876   -2.7732457    1.1289265   569361 
 3116000    1.0053554   -2.7746283   -2.7746283   -1.6443603  0.061949246   -2.7746283     1.130268   569361 
 3117000     1.005925   -2.7745468   -2.7745468   -1.6436385  0.072092362   -2.7745468    1.1309083   569361 
 3118000    1.0047931   -2.7739855   -2.7739855   -1.6443497   0.06631933   -2.7739855    1.1296358   569361 
 3119000    1.0041301   -2.7734982   -2.7734982   -1.6446077  0.075538754   -2.7734982    1.1288905   569361 
 3120000     1.005511    -2.774975    -2.774975   -1.6445321  0.071559628    -2.774975    1.1304429   569361 
 3121000    1.0050776   -2.7744002   -2.7744002   -1.6444446  0.056898275   -2.7744002    1.1299556   569361 
 3122000    1.0040372   -2.7744633   -2.7744633   -1.6456773  0.071099088   -2.7744633     1.128786   569361 
 3123000    1.0037281   -2.7734666   -2.7734666   -1.6450281  0.057288995   -2.7734666    1.1284385   569361 
 3124000    1.0047412   -2.7740483   -2.7740483   -1.6444709  0.057747608   -2.7740483    1.1295774   569361 
 3125000    1.0046503   -2.7738526   -2.7738526   -1.6443773  0.070653019   -2.7738526    1.1294752   569361 
 3126000    1.0052443   -2.7742111   -2.7742111   -1.6440681  0.070095106   -2.7742111     1.130143   569361 
 3127000    1.0055224   -2.7743517   -2.7743517    -1.643896  0.070770199   -2.7743517    1.1304557   569361 
 3128000     1.004643   -2.7729669   -2.7729669   -1.6434998  0.058293063   -2.7729669    1.1294671   569361 
 3129000    1.0051845   -2.7734899   -2.7734899   -1.6434141  0.062218699   -2.7734899    1.1300758   569361 
 3130000    1.0060253   -2.7750024   -2.7750024   -1.6439813   0.06320635   -2.7750024    1.1310212   569361 
 3131000    1.0048422   -2.7739705   -2.7739705   -1.6442795  0.057490579   -2.7739705     1.129691   569361 
 3132000    1.0054362   -2.7752784   -2.7752784   -1.6449195  0.069859287   -2.7752784    1.1303588   569361 
 3133000    1.0040274   -2.7745567   -2.7745567   -1.6457817  0.062351403   -2.7745567     1.128775   569361 
 3134000    1.0043547   -2.7738926   -2.7738926   -1.6447497   0.07589548   -2.7738926    1.1291429   569361 
 3135000    1.0051949   -2.7756084   -2.7756084   -1.6455209  0.074223866   -2.7756084    1.1300875   569361 
 3136000    1.0039937   -2.7751904   -2.7751904   -1.6464532  0.059484163   -2.7751904    1.1287371   569361 
 3137000     1.003311   -2.7731769   -2.7731769   -1.6452074  0.070993611   -2.7731769    1.1279695   569361 
 3138000    1.0040683   -2.7745787   -2.7745787   -1.6457578  0.067388944   -2.7745787    1.1288209   569361 
 3139000    1.0032926   -2.7738944   -2.7738944   -1.6459455  0.069816591   -2.7738944    1.1279489   569361 
 3140000    1.0031227   -2.7743234   -2.7743234   -1.6465656  0.061553288   -2.7743234    1.1277578   569361 
 3141000    1.0038892   -2.7748508   -2.7748508   -1.6462312  0.068488573   -2.7748508    1.1286197   569361 
 3142000     1.002924   -2.7742312   -2.7742312   -1.6466966  0.064723401   -2.7742312    1.1275345   569361 
 3143000    1.0039463   -2.7744476   -2.7744476   -1.6457638   0.06025652   -2.7744476    1.1286838   569361 
 3144000    1.0047103   -2.7756206   -2.7756206   -1.6460779  0.061105736   -2.7756206    1.1295427   569361 
 3145000    1.0056716   -2.7762971   -2.7762971   -1.6456737   0.06840589   -2.7762971    1.1306234   569361 
 3146000    1.0039483   -2.7757095   -2.7757095   -1.6470234  0.076796355   -2.7757095     1.128686   569361 
 3147000    1.0060153   -2.7765378   -2.7765378   -1.6455279  0.064911921   -2.7765378    1.1310099   569361 
 3148000      1.00514   -2.7758426   -2.7758426   -1.6458168  0.071107967   -2.7758426    1.1300258   569361 
 3149000    1.0057005    -2.776879    -2.776879    -1.646223  0.085489172    -2.776879     1.130656   569361 
 3150000    1.0052226   -2.7764476   -2.7764476   -1.6463289  0.074042213   -2.7764476    1.1301187   569361 
 3151000    1.0047808   -2.7751428   -2.7751428   -1.6455208  0.070934706   -2.7751428     1.129622   569361 
 3152000    1.0042344   -2.7751561   -2.7751561   -1.6461484   0.07536499   -2.7751561    1.1290077   569361 
 3153000    1.0048699   -2.7767234   -2.7767234   -1.6470013  0.070424711   -2.7767234    1.1297221   569361 
 3154000    1.0031899   -2.7748391   -2.7748391   -1.6470056  0.072885496   -2.7748391    1.1278335   569361 
 3155000    1.0043216   -2.7762355   -2.7762355   -1.6471298  0.056812668   -2.7762355    1.1291057   569361 
 3156000    1.0057273   -2.7769451   -2.7769451   -1.6462591  0.057771065   -2.7769451     1.130686   569361 
 3157000    1.0073114   -2.7781365   -2.7781365   -1.6456695  0.073323227   -2.7781365     1.132467   569361 
 3158000    1.0048658   -2.7762794   -2.7762794   -1.6465619  0.062057451   -2.7762794    1.1297175   569361 
 3159000    1.0033183   -2.7745326   -2.7745326   -1.6465548  0.065749803   -2.7745326    1.1279778   569361 
 3160000    1.0051061   -2.7761979   -2.7761979   -1.6462102  0.071965619   -2.7761979    1.1299877   569361 
 3161000    1.0045153   -2.7756749   -2.7756749   -1.6463514  0.070957893   -2.7756749    1.1293234   569361 
 3162000    1.0061372   -2.7774571   -2.7774571   -1.6463102  0.079836813   -2.7774571    1.1311469   569361 
 3163000    1.0044421   -2.7750847   -2.7750847   -1.6458435  0.065032461   -2.7750847    1.1292412   569361 
 3164000    1.0036718   -2.7740239   -2.7740239   -1.6456487  0.074437017   -2.7740239    1.1283752   569361 
 3165000    1.0060701   -2.7770605   -2.7770605    -1.645989  0.069848169   -2.7770605    1.1310714   569361 
 3166000     1.005026   -2.7751142   -2.7751142   -1.6452166  0.066082082   -2.7751142    1.1298976   569361 
 3167000    1.0060896   -2.7762697   -2.7762697   -1.6451763  0.063906791   -2.7762697    1.1310934   569361 
 3168000    1.0050289   -2.7755313   -2.7755313   -1.6456304  0.064202985   -2.7755313    1.1299009   569361 
 3169000    1.0044272   -2.7746357   -2.7746357   -1.6454113  0.076368338   -2.7746357    1.1292244   569361 
 3170000    1.0021546   -2.7721351   -2.7721351   -1.6454656  0.080680348   -2.7721351    1.1266695   569361 
 3171000    1.0044773   -2.7744354   -2.7744354   -1.6451546  0.061753568   -2.7744354    1.1292808   569361 
 3172000    1.0039324   -2.7735326   -2.7735326   -1.6448644  0.072124143   -2.7735326    1.1286682   569361 
 3173000    1.0033518   -2.7737797   -2.7737797   -1.6457643  0.066966579   -2.7737797    1.1280154   569361 
 3174000    1.0032635   -2.7733248   -2.7733248   -1.6454087  0.070536999   -2.7733248    1.1279161   569361 
 3175000    1.0025684   -2.7719092   -2.7719092   -1.6447745  0.066850934   -2.7719092    1.1271347   569361 
 3176000    1.0046828   -2.7743763   -2.7743763   -1.6448645  0.056360504   -2.7743763    1.1295118   569361 
 3177000    1.0040223   -2.7739984   -2.7739984   -1.6452291  0.068516701   -2.7739984    1.1287692   569361 
 3178000    1.0048435   -2.7749671   -2.7749671   -1.6452746  0.072292772   -2.7749671    1.1296925   569361 
 3179000    1.0043835   -2.7748451   -2.7748451   -1.6456698  0.059687173   -2.7748451    1.1291754   569361 
 3180000    1.0033972   -2.7736202   -2.7736202   -1.6455537  0.063934088   -2.7736202    1.1280665   569361 
 3181000     1.003537   -2.7734347   -2.7734347   -1.6452111   0.07094201   -2.7734347    1.1282236   569361 
 3182000     1.003651   -2.7738085   -2.7738085   -1.6454566  0.064322327   -2.7738085    1.1283519   569361 
 3183000    1.0048922   -2.7755802   -2.7755802    -1.645833  0.063349858   -2.7755802    1.1297472   569361 
 3184000    1.0040904   -2.7750162   -2.7750162   -1.6461704  0.063524286   -2.7750162    1.1288458   569361 
 3185000     1.005669   -2.7758225   -2.7758225    -1.645202   0.06748641   -2.7758225    1.1306205   569361 
 3186000    1.0043633   -2.7745131   -2.7745131   -1.6453605  0.063912285   -2.7745131    1.1291526   569361 
 3187000     1.006099   -2.7761966   -2.7761966   -1.6450927  0.056336678   -2.7761966    1.1311039   569361 
 3188000    1.0051842   -2.7753379   -2.7753379   -1.6452624  0.057578831   -2.7753379    1.1300755   569361 
 3189000    1.0036309   -2.7736307   -2.7736307   -1.6453015  0.076524737   -2.7736307    1.1283292   569361 
 3190000    1.0049313   -2.7755409   -2.7755409   -1.6457497  0.068567563   -2.7755409    1.1297912   569361 
 3191000    1.0055497   -2.7763787   -2.7763787   -1.6458923  0.071549268   -2.7763787    1.1304865   569361 
 3192000    1.0051003   -2.7759949   -2.7759949   -1.6460136  0.078272048   -2.7759949    1.1299812   569361 
 3193000    1.0054969   -2.7771204   -2.7771204   -1.6466934  0.065216733   -2.7771204     1.130427   569361 
 3194000    1.0059579   -2.7778963   -2.7778963   -1.6469509   0.07035843   -2.7778963    1.1309454   569361 
 3195000    1.0063791   -2.7768663   -2.7768663   -1.6454474   0.07141237   -2.7768663    1.1314189   569361 
 3196000    1.0051417   -2.7755743   -2.7755743   -1.6455465  0.069530599   -2.7755743    1.1300277   569361 
 3197000    1.0062704   -2.7772509   -2.7772509   -1.6459541  0.065893235   -2.7772509    1.1312967   569361 
 3198000    1.0054749    -2.777485    -2.777485   -1.6470826  0.066404366    -2.777485    1.1304023   569361 
 3199000    1.0035608   -2.7754274   -2.7754274   -1.6471769  0.071007572   -2.7754274    1.1282505   569361 
 3200000    1.0040535   -2.7751129   -2.7751129   -1.6463086  0.064315633   -2.7751129    1.1288043   569361 
 3201000    1.0031635   -2.7753058   -2.7753058   -1.6475021   0.06803804   -2.7753058    1.1278037   569361 
 3202000    1.0033479   -2.7759278   -2.7759278   -1.6479167  0.064182759   -2.7759278    1.1280111   569361 
 3203000    1.0038294    -2.775407    -2.775407   -1.6468546   0.05659303    -2.775407    1.1285523   569361 
 3204000    1.0027535   -2.7744182   -2.7744182   -1.6470754  0.065219973   -2.7744182    1.1273428   569361 
 3205000    1.0029006   -2.7742275   -2.7742275   -1.6467193  0.059135324   -2.7742275    1.1275082   569361 
 3206000    1.0036467    -2.775573    -2.775573    -1.647226  0.070987599    -2.775573     1.128347   569361 
 3207000    1.0037353   -2.7755418   -2.7755418   -1.6470952  0.076282787   -2.7755418    1.1284466   569361 
 3208000    1.0054061   -2.7774564   -2.7774564   -1.6471314  0.070214798   -2.7774564     1.130325   569361 
 3209000    1.0026613   -2.7739014   -2.7739014   -1.6466623  0.066961492   -2.7739014    1.1272391   569361 
 3210000    1.0044308   -2.7758088   -2.7758088   -1.6465804  0.064176609   -2.7758088    1.1292285   569361 
 3211000    1.0024712   -2.7739298   -2.7739298   -1.6469044  0.061334353   -2.7739298    1.1270254   569361 
 3212000    1.0036368   -2.7758615   -2.7758615   -1.6475257  0.069845931   -2.7758615    1.1283358   569361 
 3213000    1.0017371   -2.7737033   -2.7737033   -1.6475032   0.06964877   -2.7737033    1.1262001   569361 
 3214000    1.0027161   -2.7744504   -2.7744504   -1.6471496  0.069076627   -2.7744504    1.1273008   569361 
 3215000    1.0019828   -2.7745624   -2.7745624   -1.6480861  0.060499253   -2.7745624    1.1264763   569361 
 3216000    1.0026448     -2.77494     -2.77494   -1.6477195  0.057819614     -2.77494    1.1272206   569361 
 3217000    1.0038745   -2.7764589   -2.7764589   -1.6478558  0.058945299   -2.7764589    1.1286031   569361 
 3218000    1.0046562   -2.7765062   -2.7765062   -1.6470243  0.065764978   -2.7765062    1.1294819   569361 
 3219000    1.0038446   -2.7761196   -2.7761196   -1.6475502  0.066830355   -2.7761196    1.1285694   569361 
 3220000    1.0035873   -2.7755598   -2.7755598   -1.6472795  0.065075894   -2.7755598    1.1282802   569361 
 3221000    1.0042705   -2.7759425   -2.7759425   -1.6468942  0.063924927   -2.7759425    1.1290482   569361 
 3222000    1.0059708   -2.7783295   -2.7783295   -1.6473697  0.070857254   -2.7783295    1.1309598   569361 
 3223000    1.0059847   -2.7785782   -2.7785782   -1.6476027  0.075975559   -2.7785782    1.1309755   569361 
 3224000    1.0073007   -2.7798493   -2.7798493   -1.6473943  0.072277826   -2.7798493     1.132455   569361 
 3225000    1.0050361   -2.7770979   -2.7770979   -1.6471889   0.07955221   -2.7770979     1.129909   569361 
 3226000     1.004786   -2.7769202   -2.7769202   -1.6472923  0.071397328   -2.7769202    1.1296279   569361 
 3227000    1.0071509   -2.7793307   -2.7793307   -1.6470442  0.067843198   -2.7793307    1.1322865   569361 
 3228000    1.0046768   -2.7771599   -2.7771599   -1.6476548  0.069936875   -2.7771599    1.1295051   569361 
 3229000    1.0044401   -2.7772761   -2.7772761   -1.6480372  0.059594575   -2.7772761     1.129239   569361 
 3230000    1.0047556   -2.7769181   -2.7769181   -1.6473245  0.054423314   -2.7769181    1.1295936   569361 
 3231000    1.0041667   -2.7763989   -2.7763989   -1.6474672  0.081122628   -2.7763989    1.1289316   569361 
 3232000    1.0042069   -2.7768356   -2.7768356   -1.6478588  0.069693819   -2.7768356    1.1289768   569361 
 3233000    1.0037144    -2.776191    -2.776191   -1.6477679  0.054429735    -2.776191    1.1284231   569361 
 3234000    1.0053846   -2.7782403   -2.7782403   -1.6479395  0.058524728   -2.7782403    1.1303008   569361 
 3235000    1.0040667   -2.7778822   -2.7778822    -1.649063  0.059680243   -2.7778822    1.1288192   569361 
 3236000    1.0037859   -2.7767522   -2.7767522   -1.6482488  0.071235306   -2.7767522    1.1285034   569361 
 3237000    1.0033882   -2.7767213   -2.7767213    -1.648665  0.072142869   -2.7767213    1.1280563   569361 
 3238000    1.0042265   -2.7765459   -2.7765459   -1.6475471  0.068026146   -2.7765459    1.1289988   569361 
 3239000    1.0046041   -2.7775621   -2.7775621   -1.6481388   0.06544126   -2.7775621    1.1294233   569361 
 3240000    1.0036127   -2.7756685   -2.7756685   -1.6473597  0.075206567   -2.7756685    1.1283088   569361 
 3241000    1.0028311   -2.7747799   -2.7747799   -1.6473498  0.074423144   -2.7747799    1.1274301   569361 
 3242000    1.0035686   -2.7745073   -2.7745073   -1.6462481  0.082149809   -2.7745073    1.1282592   569361 
 3243000    1.0051894   -2.7761775   -2.7761775   -1.6460962  0.061981796   -2.7761775    1.1300813   569361 
 3244000    1.0048848   -2.7770049   -2.7770049   -1.6472661  0.064653381   -2.7770049    1.1297389   569361 
 3245000    1.0035805   -2.7755616   -2.7755616    -1.647289  0.071764702   -2.7755616    1.1282725   569361 
 3246000    1.0035659   -2.7754203   -2.7754203   -1.6471642  0.065614737   -2.7754203    1.1282562   569361 
 3247000     1.002812   -2.7737483   -2.7737483   -1.6463397  0.070921463   -2.7737483    1.1274086   569361 
 3248000    1.0045678   -2.7756144   -2.7756144   -1.6462319  0.064445415   -2.7756144    1.1293825   569361 
 3249000    1.0046229   -2.7763378   -2.7763378   -1.6468933  0.061452486   -2.7763378    1.1294445   569361 
 3250000    1.0049696   -2.7762872   -2.7762872    -1.646453  0.069299618   -2.7762872    1.1298342   569361 
 3251000    1.0048992   -2.7758353   -2.7758353   -1.6460802  0.058609498   -2.7758353    1.1297551   569361 
 3252000    1.0055252   -2.7768973   -2.7768973   -1.6464384  0.065971082   -2.7768973    1.1304589   569361 
 3253000    1.0047296   -2.7756257   -2.7756257   -1.6460613  0.063793137   -2.7756257    1.1295644   569361 
 3254000    1.0047755   -2.7753618   -2.7753618   -1.6457458  0.066145721   -2.7753618    1.1296161   569361 
 3255000    1.0035205   -2.7745103   -2.7745103   -1.6463052  0.067488472   -2.7745103    1.1282051   569361 
 3256000    1.0045863   -2.7759356   -2.7759356   -1.6465323  0.056817502   -2.7759356    1.1294033   569361 
 3257000     1.003215   -2.7743124   -2.7743124   -1.6464508  0.054711289   -2.7743124    1.1278617   569361 
 3258000    1.0030692   -2.7740831   -2.7740831   -1.6463854  0.079343469   -2.7740831    1.1276977   569361 
 3259000    1.0049299   -2.7764053   -2.7764053   -1.6466157  0.068940926   -2.7764053    1.1297896   569361 
 3260000    1.0033734   -2.7746809   -2.7746809   -1.6466412  0.067015845   -2.7746809    1.1280397   569361 
 3261000    1.0037329   -2.7753701   -2.7753701   -1.6469263  0.061988596   -2.7753701    1.1284439   569361 
 3262000    1.0054536   -2.7770076   -2.7770076   -1.6466293  0.073087913   -2.7770076    1.1303783   569361 
 3263000    1.0051683    -2.777524    -2.777524   -1.6474664  0.058061063    -2.777524    1.1300576   569361 
 3264000    1.0043567   -2.7768655   -2.7768655   -1.6477202  0.059027177   -2.7768655    1.1291452   569361 
 3265000    1.0054292   -2.7779161   -2.7779161   -1.6475652  0.057444759   -2.7779161    1.1303509   569361 
 3266000    1.0048293     -2.77706     -2.77706   -1.6473835  0.062641826     -2.77706    1.1296765   569361 
 3267000    1.0044163   -2.7766363   -2.7766363   -1.6474241  0.058627479   -2.7766363    1.1292122   569361 
 3268000    1.0034603   -2.7753818   -2.7753818   -1.6472443  0.062333546   -2.7753818    1.1281374   569361 
 3269000    1.0030507   -2.7752741   -2.7752741   -1.6475972  0.062030866   -2.7752741    1.1276769   569361 
 3270000    1.0035297   -2.7751557   -2.7751557   -1.6469403   0.06820803   -2.7751557    1.1282154   569361 
 3271000    1.0041263   -2.7760573   -2.7760573   -1.6471712  0.060282539   -2.7760573    1.1288861   569361 
 3272000     1.004642   -2.7764861   -2.7764861   -1.6470201  0.071641703   -2.7764861    1.1294659   569361 
 3273000    1.0052386   -2.7758289   -2.7758289   -1.6456922  0.072131913   -2.7758289    1.1301366   569361 
 3274000    1.0053281   -2.7752295   -2.7752295   -1.6449922  0.071463981   -2.7752295    1.1302373   569361 
 3275000    1.0063287   -2.7776249   -2.7776249   -1.6462627  0.065350868   -2.7776249    1.1313622   569361 
 3276000    1.0064274   -2.7774588   -2.7774588   -1.6459857  0.082520029   -2.7774588    1.1314731   569361 
 3277000    1.0064689   -2.7776463   -2.7776463   -1.6461265  0.065958551   -2.7776463    1.1315198   569361 
 3278000    1.0066058   -2.7779985   -2.7779985   -1.6463247  0.068298081   -2.7779985    1.1316738   569361 
 3279000    1.0046059    -2.775928    -2.775928   -1.6465027  0.060448272    -2.775928    1.1294254   569361 
 3280000    1.0060485   -2.7771292   -2.7771292   -1.6460821  0.070619962   -2.7771292    1.1310472   569361 
 3281000    1.0046643   -2.7749846   -2.7749846   -1.6454936  0.072406613   -2.7749846     1.129491   569361 
 3282000    1.0057776   -2.7767836   -2.7767836    -1.646041  0.072565799   -2.7767836    1.1307426   569361 
 3283000     1.004914   -2.7746788   -2.7746788   -1.6449071  0.071305859   -2.7746788    1.1297717   569361 
 3284000    1.0046026   -2.7753964   -2.7753964   -1.6459748  0.073533284   -2.7753964    1.1294216   569361 
 3285000    1.0059901   -2.7758093   -2.7758093   -1.6448277  0.065123648   -2.7758093    1.1309816   569361 
 3286000     1.003634    -2.773868    -2.773868   -1.6455353  0.062994533    -2.773868    1.1283327   569361 
 3287000    1.0053437   -2.7761179   -2.7761179   -1.6458631  0.064702954   -2.7761179    1.1302548   569361 
 3288000    1.0046237   -2.7746948   -2.7746948   -1.6452495  0.058060923   -2.7746948    1.1294454   569361 
 3289000    1.0042487   -2.7745469   -2.7745469   -1.6455231  0.057103769   -2.7745469    1.1290238   569361 
 3290000    1.0039241   -2.7736009   -2.7736009   -1.6449421  0.072063346   -2.7736009    1.1286588   569361 
 3291000    1.0058327   -2.7747344   -2.7747344   -1.6439298  0.081359156   -2.7747344    1.1308046   569361 
 3292000    1.0063683   -2.7761924   -2.7761924   -1.6447857  0.064995207   -2.7761924    1.1314067   569361 
 3293000    1.0048367   -2.7740934   -2.7740934   -1.6444086  0.064459605   -2.7740934    1.1296848   569361 
 3294000    1.0058414    -2.774687    -2.774687   -1.6438726  0.068207309    -2.774687    1.1308144   569361 
 3295000    1.0053062   -2.7740528   -2.7740528   -1.6438401   0.05825556   -2.7740528    1.1302127   569361 
 3296000    1.0047874   -2.7740314   -2.7740314    -1.644402  0.068715815   -2.7740314    1.1296294   569361 
 3297000    1.0032698   -2.7714153   -2.7714153   -1.6434921  0.069156105   -2.7714153    1.1279232   569361 
 3298000    1.0058182   -2.7749954   -2.7749954   -1.6442072  0.063355919   -2.7749954    1.1307883   569361 
 3299000    1.0054563   -2.7738985   -2.7738985   -1.6435172  0.074424884   -2.7738985    1.1303814   569361 
 3300000     1.006801   -2.7762199   -2.7762199   -1.6443267  0.075595522   -2.7762199    1.1318932   569361 
 3301000    1.0069038    -2.776305    -2.776305   -1.6442963  0.067380533    -2.776305    1.1320087   569361 
 3302000    1.0053572   -2.7750445   -2.7750445   -1.6447746  0.069506816   -2.7750445      1.13027   569361 
 3303000    1.0056362   -2.7748214   -2.7748214   -1.6442377  0.069919844   -2.7748214    1.1305837   569361 
 3304000    1.0054137   -2.7747341   -2.7747341   -1.6444006  0.062844934   -2.7747341    1.1303335   569361 
 3305000    1.0047031   -2.7744404   -2.7744404   -1.6449057  0.067583169   -2.7744404    1.1295346   569361 
 3306000    1.0037584    -2.773007    -2.773007   -1.6445345   0.06445429    -2.773007    1.1284725   569361 
 3307000    1.0032947   -2.7732194   -2.7732194   -1.6452682   0.06167333   -2.7732194    1.1279512   569361 
 3308000    1.0011577   -2.7715627   -2.7715627    -1.646014  0.066319336   -2.7715627    1.1255487   569361 
 3309000    1.0020602   -2.7725399   -2.7725399   -1.6459765   0.07301753   -2.7725399    1.1265633   569361 
 3310000    1.0023544   -2.7728992   -2.7728992   -1.6460051  0.069107066   -2.7728992    1.1268941   569361 
 3311000    1.0030433   -2.7730485   -2.7730485   -1.6453799  0.061460811   -2.7730485    1.1276687   569361 
 3312000    1.0034867   -2.7741821   -2.7741821    -1.646015  0.072000725   -2.7741821    1.1281671   569361 
 3313000    1.0050352   -2.7740334   -2.7740334   -1.6441254  0.064820068   -2.7740334     1.129908   569361 
 3314000    1.0073683   -2.7760041   -2.7760041   -1.6434731  0.073197049   -2.7760041     1.132531   569361 
 3315000    1.0065826   -2.7748248   -2.7748248   -1.6431772  0.069742671   -2.7748248    1.1316477   569361 
 3316000    1.0051469   -2.7737357   -2.7737357   -1.6437021  0.072889616   -2.7737357    1.1300336   569361 
 3317000    1.0047918   -2.7736168   -2.7736168   -1.6439825  0.074432517   -2.7736168    1.1296343   569361 
 3318000    1.0050335   -2.7742023   -2.7742023   -1.6442962  0.071364859   -2.7742023    1.1299061   569361 
 3319000    1.0055282   -2.7748803   -2.7748803   -1.6444181  0.068368378   -2.7748803    1.1304622   569361 
 3320000    1.0043119   -2.7734012   -2.7734012   -1.6443063   0.06394794   -2.7734012    1.1290949   569361 
 3321000    1.0053398   -2.7754627   -2.7754627   -1.6452122  0.057621344   -2.7754627    1.1302504   569361 
 3322000    1.0047264   -2.7739993   -2.7739993   -1.6444385  0.073430887   -2.7739993    1.1295608   569361 
 3323000     1.002946   -2.7721544   -2.7721544   -1.6445952  0.070481156   -2.7721544    1.1275592   569361 
 3324000    1.0028846   -2.7723426   -2.7723426   -1.6448524  0.062489167   -2.7723426    1.1274902   569361 
 3325000     1.002132   -2.7725084   -2.7725084   -1.6458643  0.070546843   -2.7725084    1.1266441   569361 
 3326000    1.0035724   -2.7730866   -2.7730866   -1.6448231  0.051586751   -2.7730866    1.1282635   569361 
 3327000    1.0033797    -2.773257    -2.773257   -1.6452102  0.063482359    -2.773257    1.1280468   569361 
 3328000    1.0041096    -2.773624    -2.773624   -1.6447566  0.058982701    -2.773624    1.1288674   569361 
 3329000    1.0021739   -2.7704656   -2.7704656   -1.6437745  0.065378638   -2.7704656    1.1266912   569361 
 3330000    1.0031294   -2.7714538   -2.7714538   -1.6436884  0.060902556   -2.7714538    1.1277654   569361 
 3331000    1.0045741   -2.7738726   -2.7738726    -1.644483  0.068078028   -2.7738726    1.1293896   569361 
 3332000    1.0048964   -2.7739345   -2.7739345   -1.6441825  0.059762668   -2.7739345    1.1297519   569361 
 3333000    1.0064715   -2.7755667   -2.7755667   -1.6440439  0.070800194   -2.7755667    1.1315228   569361 
 3334000    1.0043302   -2.7737916   -2.7737916   -1.6446762  0.062992336   -2.7737916    1.1291154   569361 
 3335000    1.0053048   -2.7752205   -2.7752205   -1.6450094  0.071351489   -2.7752205    1.1302111   569361 
 3336000    1.0049635   -2.7746512   -2.7746512   -1.6448238  0.067629194   -2.7746512    1.1298274   569361 
 3337000    1.0053314   -2.7748765   -2.7748765   -1.6446354  0.067296248   -2.7748765     1.130241   569361 
 3338000    1.0051811   -2.7743783   -2.7743783   -1.6443063  0.065690126   -2.7743783    1.1300721   569361 
 3339000    1.0058681   -2.7754341   -2.7754341   -1.6445898   0.07263929   -2.7754341    1.1308443   569361 
 3340000    1.0048085   -2.7749654   -2.7749654   -1.6453123  0.068975152   -2.7749654    1.1296531   569361 
 3341000    1.0047286   -2.7755995   -2.7755995   -1.6460363  0.063585811   -2.7755995    1.1295633   569361 
 3342000    1.0028919   -2.7734082   -2.7734082   -1.6459099  0.064832504   -2.7734082    1.1274984   569361 
 3343000    1.0045033   -2.7744467   -2.7744467   -1.6451368  0.071513467   -2.7744467      1.12931   569361 
 3344000    1.0048443   -2.7745422   -2.7745422   -1.6448487  0.070423875   -2.7745422    1.1296934   569361 
 3345000    1.0059531   -2.7760925   -2.7760925   -1.6451526  0.065990851   -2.7760925    1.1309399   569361 
 3346000    1.0060206   -2.7766629   -2.7766629    -1.645647   0.06814872   -2.7766629    1.1310158   569361 
 3347000    1.0056349   -2.7765871   -2.7765871   -1.6460049  0.073489912   -2.7765871    1.1305822   569361 
 3348000    1.0065828    -2.777503    -2.777503   -1.6458551  0.078073225    -2.777503    1.1316479   569361 
 3349000    1.0049553   -2.7769268   -2.7769268   -1.6471086  0.077936011   -2.7769268    1.1298182   569361 
 3350000    1.0048853   -2.7765411   -2.7765411   -1.6468016  0.065497491   -2.7765411    1.1297394   569361 
 3351000    1.0035647   -2.7754354   -2.7754354   -1.6471807  0.070471277   -2.7754354    1.1282547   569361 
 3352000    1.0041109   -2.7758685   -2.7758685   -1.6469997  0.071954436   -2.7758685    1.1288688   569361 
 3353000    1.0038583   -2.7745842   -2.7745842   -1.6459994  0.071281876   -2.7745842    1.1285848   569361 
 3354000    1.0035814   -2.7741468   -2.7741468   -1.6458732  0.075182948   -2.7741468    1.1282736   569361 
 3355000    1.0033816   -2.7745712   -2.7745712   -1.6465223  0.063646959   -2.7745712    1.1280489   569361 
 3356000     1.004911   -2.7762965   -2.7762965   -1.6465282  0.070652479   -2.7762965    1.1297683   569361 
 3357000     1.003517   -2.7743873   -2.7743873   -1.6461862  0.055708715   -2.7743873    1.1282011   569361 
 3358000    1.0016773   -2.7726999   -2.7726999    -1.646567  0.063770047   -2.7726999    1.1261329   569361 
 3359000    1.0023176   -2.7737734   -2.7737734   -1.6469207  0.062045106   -2.7737734    1.1268528   569361 
 3360000    1.0041646   -2.7755368   -2.7755368   -1.6466076  0.064391143   -2.7755368    1.1289292   569361 
 3361000    1.0016714   -2.7731809   -2.7731809   -1.6470547  0.073181222   -2.7731809    1.1261262   569361 
 3362000    1.0027018   -2.7742972   -2.7742972   -1.6470125   0.06547164   -2.7742972    1.1272847   569361 
 3363000    1.0018517   -2.7735778   -2.7735778   -1.6472488  0.061880458   -2.7735778     1.126329   569361 
 3364000    1.0033302   -2.7744608   -2.7744608   -1.6464696  0.062035114   -2.7744608    1.1279912   569361 
 3365000    1.0032462   -2.7731897   -2.7731897    -1.645293  0.054910102   -2.7731897    1.1278967   569361 
 3366000     1.003564   -2.7739891   -2.7739891   -1.6457351  0.071271433   -2.7739891     1.128254   569361 
 3367000    1.0022549   -2.7729179   -2.7729179   -1.6461356  0.061891287   -2.7729179    1.1267823   569361 
 3368000    1.0035207   -2.7741624   -2.7741624    -1.645957   0.05799663   -2.7741624    1.1282054   569361 
 3369000     1.003665    -2.774533    -2.774533   -1.6461655  0.075491741    -2.774533    1.1283675   569361 
 3370000    1.0042543   -2.7757156   -2.7757156   -1.6466855  0.056706024   -2.7757156    1.1290301   569361 
 3371000    1.0040935   -2.7753749   -2.7753749   -1.6465257  0.068241887   -2.7753749    1.1288493   569361 
 3372000    1.0041678    -2.775588    -2.775588   -1.6466551  0.082749501    -2.775588    1.1289329   569361 
 3373000    1.0048941   -2.7758938   -2.7758938   -1.6461445  0.069865712   -2.7758938    1.1297493   569361 
 3374000    1.0063761   -2.7770391   -2.7770391   -1.6456236  0.065676226   -2.7770391    1.1314154   569361 
 3375000    1.0037166   -2.7740356   -2.7740356     -1.64561  0.069451779   -2.7740356    1.1284256   569361 
 3376000    1.0048779   -2.7761223   -2.7761223   -1.6463911  0.067007079   -2.7761223    1.1297312   569361 
 3377000    1.0033018   -2.7745137   -2.7745137   -1.6465546  0.063365335   -2.7745137    1.1279592   569361 
 3378000    1.0039938   -2.7744859   -2.7744859   -1.6457487  0.067939453   -2.7744859    1.1287372   569361 
 3379000    1.0043787   -2.7752128   -2.7752128   -1.6460429    0.0668437   -2.7752128    1.1291699   569361 
 3380000    1.0030096   -2.7741791   -2.7741791   -1.6465484  0.067332688   -2.7741791    1.1276307   569361 
 3381000    1.0032465   -2.7755375   -2.7755375   -1.6476405  0.051259595   -2.7755375     1.127897   569361 
 3382000    1.0040061   -2.7760983   -2.7760983   -1.6473473  0.065415233   -2.7760983     1.128751   569361 
 3383000     1.004284   -2.7767163   -2.7767163   -1.6476528  0.066407246   -2.7767163    1.1290634   569361 
 3384000    1.0028368   -2.7759282   -2.7759282   -1.6484918  0.064471653   -2.7759282    1.1274364   569361 
 3385000    1.0033894   -2.7749417   -2.7749417    -1.646884  0.063934702   -2.7749417    1.1280577   569361 
 3386000    1.0044837   -2.7751119   -2.7751119   -1.6458239  0.069890579   -2.7751119     1.129288   569361 
 3387000     1.003702   -2.7739411   -2.7739411   -1.6455319  0.079383879   -2.7739411    1.1284092   569361 
 3388000    1.0047437   -2.7748041   -2.7748041   -1.6452238  0.067536179   -2.7748041    1.1295803   569361 
 3389000    1.0059061   -2.7756129   -2.7756129   -1.6447258  0.070882198   -2.7756129    1.1308871   569361 
 3390000    1.0041492   -2.7733453   -2.7733453   -1.6444334  0.080679749   -2.7733453    1.1289119   569361 
 3391000    1.0042669    -2.774165    -2.774165   -1.6451208  0.062754426    -2.774165    1.1290442   569361 
 3392000     1.005122   -2.7750018   -2.7750018   -1.6449962  0.063999048   -2.7750018    1.1300056   569361 
 3393000    1.0045483    -2.774578    -2.774578   -1.6452174  0.070941801    -2.774578    1.1293605   569361 
 3394000    1.0039015    -2.774299    -2.774299   -1.6456656  0.066669746    -2.774299    1.1286334   569361 
 3395000     1.004147   -2.7743702   -2.7743702   -1.6454608  0.058340334   -2.7743702    1.1289095   569361 
 3396000    1.0036525   -2.7733538   -2.7733538   -1.6450003  0.070013989   -2.7733538    1.1283535   569361 
 3397000    1.0034632   -2.7737188   -2.7737188    -1.645578  0.057626431   -2.7737188    1.1281407   569361 
 3398000    1.0054141   -2.7750905   -2.7750905   -1.6447565  0.065188683   -2.7750905     1.130334   569361 
 3399000    1.0055957   -2.7748926   -2.7748926   -1.6443545  0.068802781   -2.7748926    1.1305381   569361 
 3400000    1.0045681   -2.7742945   -2.7742945   -1.6449116  0.061954257   -2.7742945    1.1293829   569361 
 3401000    1.0047092   -2.7743065   -2.7743065    -1.644765  0.068134429   -2.7743065    1.1295415   569361 
 3402000    1.0036134   -2.7740846   -2.7740846    -1.645775  0.065799283   -2.7740846    1.1283096   569361 
 3403000    1.0031181   -2.7730737   -2.7730737    -1.645321  0.068872297   -2.7730737    1.1277527   569361 
 3404000    1.0025342   -2.7721475   -2.7721475   -1.6450512  0.062643272   -2.7721475    1.1270962   569361 
 3405000    1.0020687     -2.77236     -2.77236   -1.6457871  0.062849405     -2.77236    1.1265729   569361 
 3406000    1.0048844   -2.7749714   -2.7749714    -1.645233  0.061706164   -2.7749714    1.1297384   569361 
 3407000    1.0036065   -2.7728513   -2.7728513   -1.6445495  0.061594564   -2.7728513    1.1283017   569361 
 3408000    1.0036633   -2.7731823   -2.7731823   -1.6448166  0.063289375   -2.7731823    1.1283657   569361 
 3409000    1.0034101   -2.7735735   -2.7735735   -1.6454926  0.058093925   -2.7735735     1.128081   569361 
 3410000    1.0042994   -2.7738794   -2.7738794   -1.6447987  0.073659536   -2.7738794    1.1290807   569361 
 3411000     1.004287   -2.7732673   -2.7732673   -1.6442004  0.074633169   -2.7732673    1.1290669   569361 
 3412000    1.0023004   -2.7719891   -2.7719891   -1.6451557  0.066196046   -2.7719891    1.1268334   569361 
 3413000    1.0032699   -2.7728328   -2.7728328   -1.6449095  0.073979372   -2.7728328    1.1279233   569361 
 3414000    1.0035539   -2.7723137   -2.7723137   -1.6440711  0.061715244   -2.7723137    1.1282426   569361 
 3415000    1.0047998    -2.773957    -2.773957   -1.6443137  0.055791123    -2.773957    1.1296433   569361 
 3416000    1.0053098   -2.7748849   -2.7748849   -1.6446682   0.07827495   -2.7748849    1.1302167   569361 
 3417000    1.0037962   -2.7738474   -2.7738474   -1.6453324  0.063702812   -2.7738474     1.128515   569361 
 3418000    1.0039705   -2.7743556   -2.7743556   -1.6456447    0.0665299   -2.7743556     1.128711   569361 
 3419000    1.0040799   -2.7739658   -2.7739658   -1.6451318  0.068897153   -2.7739658     1.128834   569361 
 3420000    1.0035146   -2.7736572   -2.7736572   -1.6454587  0.063833001   -2.7736572    1.1281984   569361 
 3421000    1.0034598   -2.7745854   -2.7745854   -1.6464486  0.062951783   -2.7745854    1.1281368   569361 
 3422000    1.0036535   -2.7749599   -2.7749599   -1.6466053  0.060961615   -2.7749599    1.1283547   569361 
 3423000    1.0051543    -2.776688    -2.776688   -1.6466461  0.067903464    -2.776688    1.1300419   569361 
 3424000    1.0052827   -2.7772373   -2.7772373   -1.6470511  0.074947807   -2.7772373    1.1301862   569361 
 3425000    1.0044706   -2.7760263   -2.7760263    -1.646753  0.068083614   -2.7760263    1.1292733   569361 
 3426000    1.0050296   -2.7773106   -2.7773106   -1.6474089  0.065472319   -2.7773106    1.1299017   569361 
 3427000    1.0053696   -2.7771249   -2.7771249   -1.6468409  0.067295663   -2.7771249    1.1302839   569361 
 3428000    1.0040896   -2.7754416   -2.7754416   -1.6465967   0.06065619   -2.7754416     1.128845   569361 
 3429000    1.0060386    -2.778522    -2.778522   -1.6474859  0.058277352    -2.778522     1.131036   569361 
 3430000    1.0058502    -2.778364    -2.778364   -1.6475397  0.058962081    -2.778364    1.1308242   569361 
 3431000    1.0053673   -2.7774924   -2.7774924    -1.647211  0.065610502   -2.7774924    1.1302814   569361 
 3432000     1.004565   -2.7769363   -2.7769363    -1.647557  0.063987128   -2.7769363    1.1293793   569361 
 3433000    1.0043956   -2.7763324   -2.7763324   -1.6471435  0.066940413   -2.7763324    1.1291889   569361 
 3434000    1.0045988   -2.7769232   -2.7769232   -1.6475059  0.063478471   -2.7769232    1.1294173   569361 
 3435000    1.0053051    -2.776707    -2.776707   -1.6464956  0.068993341    -2.776707    1.1302114   569361 
 3436000    1.0039679   -2.7767341   -2.7767341    -1.648026  0.076269425   -2.7767341    1.1287081   569361 
 3437000    1.0050964   -2.7762647   -2.7762647   -1.6462878  0.069312104   -2.7762647    1.1299768   569361 
 3438000    1.0050951   -2.7762284   -2.7762284   -1.6462531  0.074675697   -2.7762284    1.1299754   569361 
 3439000    1.0045789   -2.7753479   -2.7753479   -1.6459528  0.075009366   -2.7753479     1.129395   569361 
 3440000    1.0045222   -2.7742564   -2.7742564   -1.6449252  0.073125867   -2.7742564    1.1293312   569361 
 3441000    1.0040428   -2.7734774   -2.7734774   -1.6446851  0.080043317   -2.7734774    1.1287923   569361 
 3442000    1.0044143    -2.774021    -2.774021    -1.644811  0.056018145    -2.774021      1.12921   569361 
 3443000    1.0053278     -2.77542     -2.77542    -1.645183  0.062594803     -2.77542     1.130237   569361 
 3444000    1.0042831   -2.7741378   -2.7741378   -1.6450753  0.067794089   -2.7741378    1.1290624   569361 
 3445000    1.0039765   -2.7747062   -2.7747062   -1.6459884  0.063224596   -2.7747062    1.1287178   569361 
 3446000    1.0048071   -2.7759396   -2.7759396    -1.646288   0.06928894   -2.7759396    1.1296515   569361 
 3447000    1.0035399   -2.7745449   -2.7745449    -1.646318  0.068192985   -2.7745449    1.1282269   569361 
 3448000    1.0048213   -2.7755136   -2.7755136   -1.6458461  0.059239976   -2.7755136    1.1296676   569361 
 3449000     1.003427    -2.773768    -2.773768    -1.645668  0.069167057    -2.773768       1.1281   569361 
 3450000    1.0037645   -2.7736182   -2.7736182   -1.6451388  0.064538512   -2.7736182    1.1284795   569361 
 3451000    1.0041789   -2.7742059   -2.7742059   -1.6452605  0.074690403   -2.7742059    1.1289453   569361 
 3452000    1.0035174   -2.7735876   -2.7735876    -1.645386  0.068716295   -2.7735876    1.1282016   569361 
 3453000    1.0051758    -2.775008    -2.775008    -1.644942  0.060148084    -2.775008     1.130066   569361 
 3454000    1.0058999   -2.7760327   -2.7760327   -1.6451525  0.056972111   -2.7760327    1.1308802   569361 
 3455000    1.0043491   -2.7732077   -2.7732077    -1.644071  0.069523873   -2.7732077    1.1291367   569361 
 3456000    1.0048185   -2.7746335   -2.7746335   -1.6449691  0.069657024   -2.7746335    1.1296644   569361 
 3457000    1.0059083   -2.7752101   -2.7752101   -1.6443205  0.063064948   -2.7752101    1.1308896   569361 
 3458000    1.0046135   -2.7733008   -2.7733008   -1.6438669  0.074237521   -2.7733008    1.1294339   569361 
 3459000    1.0046355   -2.7740321   -2.7740321   -1.6445734  0.055942622   -2.7740321    1.1294586   569361 
 3460000    1.0040421   -2.7743123   -2.7743123   -1.6455208  0.066135949   -2.7743123    1.1287915   569361 
 3461000    1.0046684   -2.7748162   -2.7748162   -1.6453207   0.06775787   -2.7748162    1.1294956   569361 
 3462000    1.0051519   -2.7746609   -2.7746609   -1.6446218  0.060869543   -2.7746609    1.1300391   569361 
 3463000    1.0052919   -2.7763416   -2.7763416    -1.646145  0.070918308   -2.7763416    1.1301966   569361 
 3464000    1.0048389   -2.7759795   -2.7759795   -1.6462921  0.071320168   -2.7759795    1.1296874   569361 
 3465000    1.0039232   -2.7744874   -2.7744874   -1.6458295   0.05677818   -2.7744874    1.1286578   569361 
 3466000    1.0049746   -2.7750947   -2.7750947   -1.6452549  0.060966632   -2.7750947    1.1298398   569361 
 3467000    1.0041598   -2.7749319   -2.7749319   -1.6460081  0.069073652   -2.7749319    1.1289238   569361 
 3468000    1.0048115   -2.7759455   -2.7759455    -1.646289  0.069150895   -2.7759455    1.1296565   569361 
 3469000    1.0044767   -2.7745592   -2.7745592   -1.6452792  0.072685846   -2.7745592    1.1292801   569361 
 3470000    1.0044091   -2.7756178   -2.7756178   -1.6464137  0.074633431   -2.7756178    1.1292041   569361 
 3471000    1.0057702   -2.7772383   -2.7772383    -1.646504   0.06499523   -2.7772383    1.1307343   569361 
 3472000    1.0059254    -2.775648    -2.775648   -1.6447392  0.067859891    -2.775648    1.1309087   569361 
 3473000     1.004517    -2.774885    -2.774885   -1.6455596  0.073583847    -2.774885    1.1293255   569361 
 3474000    1.0069388   -2.7771352   -2.7771352   -1.6450871  0.061003183   -2.7771352    1.1320481   569361 
 3475000    1.0050996   -2.7753205   -2.7753205     -1.64534  0.077037623   -2.7753205    1.1299804   569361 
 3476000    1.0069384   -2.7769645   -2.7769645   -1.6449168  0.066871743   -2.7769645    1.1320477   569361 
 3477000    1.0066606   -2.7768588   -2.7768588   -1.6451234  0.069425329   -2.7768588    1.1317354   569361 
 3478000    1.0069805   -2.7760409   -2.7760409   -1.6439459  0.071860023   -2.7760409     1.132095   569361 
 3479000    1.0076533   -2.7767715   -2.7767715   -1.6439201  0.074907889   -2.7767715    1.1328514   569361 
 3480000    1.0081753   -2.7776613   -2.7776613    -1.644223  0.074101833   -2.7776613    1.1334382   569361 
 3481000    1.0071267   -2.7767007   -2.7767007   -1.6444414  0.067294699   -2.7767007    1.1322593   569361 
 3482000    1.0054077   -2.7746149   -2.7746149   -1.6442882  0.079049102   -2.7746149    1.1303268   569361 
 3483000    1.0061423   -2.7757961   -2.7757961   -1.6446434  0.075478699   -2.7757961    1.1311527   569361 
 3484000    1.0045334   -2.7743415   -2.7743415   -1.6449978   0.06214158   -2.7743415    1.1293438   569361 
 3485000    1.0037945   -2.7744528   -2.7744528   -1.6459396  0.062898614   -2.7744528    1.1285132   569361 
 3486000    1.0047297   -2.7757622   -2.7757622   -1.6461976  0.048622299   -2.7757622    1.1295646   569361 
 3487000    1.0037365   -2.7736344   -2.7736344   -1.6451865  0.058238499   -2.7736344    1.1284479   569361 
 3488000    1.0050198   -2.7751363   -2.7751363   -1.6452456  0.062817491   -2.7751363    1.1298907   569361 
 3489000    1.0043165    -2.774264    -2.774264    -1.645164  0.069648184    -2.774264       1.1291   569361 
 3490000    1.0034619   -2.7733076   -2.7733076   -1.6451683  0.068194936   -2.7733076    1.1281392   569361 
 3491000    1.0042573   -2.7741662   -2.7741662   -1.6451327  0.069469024   -2.7741662    1.1290335   569361 
 3492000    1.0053526   -2.7746971   -2.7746971   -1.6444322  0.069623473   -2.7746971    1.1302649   569361 
 3493000    1.0048057   -2.7739651   -2.7739651   -1.6443151  0.079012149   -2.7739651      1.12965   569361 
 3494000    1.0069705    -2.776285    -2.776285   -1.6442012  0.059883523    -2.776285    1.1320837   569361 
 3495000    1.0036543   -2.7727751   -2.7727751   -1.6444196  0.063803912   -2.7727751    1.1283555   569361 
 3496000    1.0050419   -2.7743146   -2.7743146   -1.6443991  0.060932038   -2.7743146    1.1299155   569361 
 3497000    1.0037586   -2.7727721   -2.7727721   -1.6442993     0.062062   -2.7727721    1.1284728   569361 
 3498000     1.004308   -2.7741654   -2.7741654    -1.645075  0.060664589   -2.7741654    1.1290904   569361 
 3499000    1.0048708   -2.7744749   -2.7744749   -1.6447517  0.063314519   -2.7744749    1.1297232   569361 
 3500000    1.0050353   -2.7753332   -2.7753332    -1.645425   0.06971055   -2.7753332    1.1299081   569361 
 3501000     1.005834   -2.7760289   -2.7760289   -1.6452229  0.068824347   -2.7760289     1.130806   569361 
 3502000    1.0049777    -2.775019    -2.775019   -1.6451757  0.068931552    -2.775019    1.1298433   569361 
 3503000    1.0060428    -2.776218    -2.776218   -1.6451772  0.076488639    -2.776218    1.1310407   569361 
 3504000    1.0057287   -2.7755031   -2.7755031   -1.6448155  0.062749508   -2.7755031    1.1306876   569361 
 3505000     1.006258   -2.7759535   -2.7759535   -1.6446707  0.086371265   -2.7759535    1.1312827   569361 
 3506000    1.0038846   -2.7740812   -2.7740812   -1.6454668  0.074804935   -2.7740812    1.1286144   569361 
 3507000    1.0048565   -2.7758077   -2.7758077   -1.6461007   0.06108852   -2.7758077     1.129707   569361 
 3508000    1.0049661   -2.7750395   -2.7750395   -1.6452092  0.061306251   -2.7750395    1.1298303   569361 
 3509000    1.0040388   -2.7746903   -2.7746903   -1.6459026  0.062732051   -2.7746903    1.1287877   569361 
 3510000    1.0041398   -2.7755459   -2.7755459   -1.6466446  0.065625393   -2.7755459    1.1289013   569361 
 3511000    1.0043811   -2.7755988   -2.7755988   -1.6464262  0.067717372   -2.7755988    1.1291726   569361 
 3512000    1.0049851   -2.7751463   -2.7751463   -1.6452945  0.074008314   -2.7751463    1.1298517   569361 
 3513000    1.0049923   -2.7754527   -2.7754527   -1.6455929  0.076202003   -2.7754527    1.1298598   569361 
 3514000    1.0056017   -2.7768125   -2.7768125   -1.6462677  0.064356947   -2.7768125    1.1305448   569361 
 3515000     1.004241   -2.7754352   -2.7754352   -1.6464202  0.074459685   -2.7754352    1.1290151   569361 
 3516000    1.0036102   -2.7750102   -2.7750102   -1.6467043  0.065215851   -2.7750102    1.1283059   569361 
 3517000    1.0051701   -2.7767086   -2.7767086    -1.646649  0.056384497   -2.7767086    1.1300597   569361 
 3518000     1.005075    -2.774789    -2.774789   -1.6448362  0.073644978    -2.774789    1.1299528   569361 
 3519000    1.0022923   -2.7730405   -2.7730405   -1.6462162  0.070961037   -2.7730405    1.1268243   569361 
 3520000    1.0036298   -2.7740581   -2.7740581   -1.6457301  0.060806238   -2.7740581     1.128328   569361 
 3521000    1.0031997   -2.7740302   -2.7740302   -1.6461858  0.067064085   -2.7740302    1.1278444   569361 
 3522000    1.0037511   -2.7737606   -2.7737606   -1.6452963  0.058797601   -2.7737606    1.1284643   569361 
 3523000    1.0017057   -2.7722231   -2.7722231   -1.6460583   0.05735304   -2.7722231    1.1261648   569361 
 3524000    1.0039738   -2.7742603   -2.7742603   -1.6455456  0.062604928   -2.7742603    1.1287147   569361 
 3525000    1.0028554   -2.7723023   -2.7723023   -1.6448449  0.057379574   -2.7723023    1.1274573   569361 
 3526000    1.0032009   -2.7725569   -2.7725569   -1.6447111   0.07810226   -2.7725569    1.1278458   569361 
 3527000     1.003209   -2.7721241   -2.7721241   -1.6442692  0.065560296   -2.7721241    1.1278549   569361 
 3528000     1.002684   -2.7724631   -2.7724631   -1.6451984  0.069059057   -2.7724631    1.1272647   569361 
 3529000    1.0039241   -2.7734452   -2.7734452   -1.6447863  0.065494345   -2.7734452    1.1286589   569361 
 3530000    1.0047932   -2.7749121   -2.7749121   -1.6452762  0.065254246   -2.7749121    1.1296359   569361 
 3531000    1.0040724   -2.7740451   -2.7740451   -1.6452195  0.059732935   -2.7740451    1.1288256   569361 
 3532000    1.0044826   -2.7740853   -2.7740853   -1.6447985  0.067685441   -2.7740853    1.1292868   569361 
 3533000    1.0056276   -2.7746663   -2.7746663   -1.6440923  0.058307517   -2.7746663     1.130574   569361 
 3534000    1.0048679   -2.7745502   -2.7745502   -1.6448303  0.069347311   -2.7745502    1.1297199   569361 
 3535000    1.0037443   -2.7733696   -2.7733696   -1.6449129  0.071783862   -2.7733696    1.1284567   569361 
 3536000    1.0071266   -2.7763219   -2.7763219   -1.6440626  0.060276675   -2.7763219    1.1322593   569361 
 3537000    1.0040635   -2.7739038   -2.7739038   -1.6450883  0.071097509   -2.7739038    1.1288156   569361 
 3538000    1.0051199   -2.7747327   -2.7747327   -1.6447295  0.064811428   -2.7747327    1.1300032   569361 
 3539000    1.0044696   -2.7739113   -2.7739113   -1.6446392  0.075426568   -2.7739113    1.1292721   569361 
 3540000    1.0058742   -2.7758153   -2.7758153    -1.644964  0.067051622   -2.7758153    1.1308512   569361 
 3541000    1.0039565   -2.7738088   -2.7738088   -1.6451135  0.073642755   -2.7738088    1.1286953   569361 
 3542000    1.0039411   -2.7735088   -2.7735088   -1.6448308  0.071129841   -2.7735088     1.128678   569361 
 3543000    1.0037798   -2.7741384   -2.7741384   -1.6456418  0.071897912   -2.7741384    1.1284966   569361 
 3544000    1.0042555   -2.7736419   -2.7736419   -1.6446104  0.068069788   -2.7736419    1.1290314   569361 
 3545000     1.004333   -2.7745528   -2.7745528   -1.6454343  0.060373184   -2.7745528    1.1291185   569361 
 3546000    1.0052542   -2.7752885   -2.7752885   -1.6451343  0.075448725   -2.7752885    1.1301542   569361 
 3547000    1.0046739   -2.7742989   -2.7742989    -1.644797  0.065919028   -2.7742989    1.1295018   569361 
 3548000    1.0055103   -2.7751771   -2.7751771   -1.6447349  0.066395854   -2.7751771    1.1304421   569361 
 3549000    1.0059946   -2.7759791   -2.7759791   -1.6449925  0.059650225   -2.7759791    1.1309866   569361 
 3550000    1.0029597   -2.7737814   -2.7737814   -1.6462068  0.066595694   -2.7737814    1.1275746   569361 
 3551000    1.0047594   -2.7754444   -2.7754444   -1.6458465   0.07372361   -2.7754444    1.1295979   569361 
 3552000    1.0059553   -2.7761092   -2.7761092   -1.6451668  0.060906345   -2.7761092    1.1309424   569361 
 3553000    1.0046039   -2.7747218   -2.7747218   -1.6452987  0.062219153   -2.7747218    1.1294231   569361 
 3554000     1.005266   -2.7754669   -2.7754669   -1.6452994  0.068659821   -2.7754669    1.1301675   569361 
 3555000    1.0036846   -2.7752834   -2.7752834   -1.6468938  0.071240542   -2.7752834    1.1283896   569361 
 3556000    1.0044703   -2.7764669   -2.7764669   -1.6471939   0.07064385   -2.7764669    1.1292729   569361 
 3557000    1.0052168   -2.7761202   -2.7761202    -1.646008  0.075429719   -2.7761202    1.1301122   569361 
 3558000    1.0053049   -2.7768229   -2.7768229   -1.6466117   0.06133789   -2.7768229    1.1302112   569361 
 3559000    1.0045367   -2.7761518   -2.7761518   -1.6468043  0.064802552   -2.7761518    1.1293475   569361 
 3560000    1.0043092   -2.7762284   -2.7762284   -1.6471366  0.070147696   -2.7762284    1.1290918   569361 
 3561000    1.0054674   -2.7774099   -2.7774099    -1.647016  0.069293795   -2.7774099    1.1303939   569361 
 3562000    1.0033744   -2.7742402   -2.7742402   -1.6461993  0.073864368   -2.7742402    1.1280409   569361 
 3563000    1.0042483   -2.7756072   -2.7756072   -1.6465839  0.071909382   -2.7756072    1.1290233   569361 
 3564000    1.0043874   -2.7757876   -2.7757876    -1.646608  0.064862238   -2.7757876    1.1291797   569361 
 3565000    1.0039467   -2.7756718   -2.7756718   -1.6469875  0.068144334   -2.7756718    1.1286843   569361 
 3566000    1.0050322   -2.7762461   -2.7762461   -1.6463415  0.067696339   -2.7762461    1.1299046   569361 
 3567000    1.0044413   -2.7750152   -2.7750152   -1.6457748  0.067760965   -2.7750152    1.1292404   569361 
 3568000    1.0034539   -2.7742972   -2.7742972    -1.646167  0.071681826   -2.7742972    1.1281302   569361 
 3569000    1.0045135   -2.7755939   -2.7755939   -1.6462725  0.068112329   -2.7755939    1.1293214   569361 
 3570000    1.0056233   -2.7766248   -2.7766248   -1.6460556  0.055672851   -2.7766248    1.1305692   569361 
 3571000    1.0049837   -2.7757448   -2.7757448   -1.6458948  0.065586988   -2.7757448    1.1298501   569361 
 3572000    1.0046621   -2.7763374   -2.7763374   -1.6468488  0.059973252   -2.7763374    1.1294886   569361 
 3573000    1.0051412   -2.7765832   -2.7765832    -1.646556  0.055163622   -2.7765832    1.1300272   569361 
 3574000    1.0039428   -2.7745877   -2.7745877   -1.6459078  0.075603326   -2.7745877    1.1286799   569361 
 3575000     1.004823   -2.7759004   -2.7759004    -1.646231  0.061451813   -2.7759004    1.1296694   569361 
 3576000    1.0038036   -2.7741864   -2.7741864   -1.6456631  0.069261164   -2.7741864    1.1285233   569361 
 3577000    1.0047901   -2.7753667   -2.7753667   -1.6457342  0.060563413   -2.7753667    1.1296325   569361 
 3578000    1.0046968   -2.7756052   -2.7756052   -1.6460776  0.069844556   -2.7756052    1.1295276   569361 
 3579000    1.0047599   -2.7755963   -2.7755963   -1.6459978   0.05851993   -2.7755963    1.1295985   569361 
 3580000    1.0057684   -2.7763405   -2.7763405   -1.6456082  0.072108659   -2.7763405    1.1307323   569361 
 3581000    1.0049469   -2.7756069   -2.7756069   -1.6457982  0.066253314   -2.7756069    1.1298087   569361 
 3582000    1.0049887   -2.7756947   -2.7756947    -1.645839  0.071293548   -2.7756947    1.1298557   569361 
 3583000    1.0044377   -2.7752671   -2.7752671   -1.6460308  0.071164245   -2.7752671    1.1292363   569361 
 3584000    1.0045819   -2.7754403   -2.7754403    -1.646042  0.073815291   -2.7754403    1.1293984   569361 
 3585000    1.0058248   -2.7766609   -2.7766609   -1.6458653  0.076350435   -2.7766609    1.1307956   569361 
 3586000    1.0047788   -2.7760879   -2.7760879   -1.6464681   0.06558161   -2.7760879    1.1296198   569361 
 3587000    1.0053195   -2.7762631   -2.7762631   -1.6460355  0.064294097   -2.7762631    1.1302276   569361 
 3588000    1.0042665   -2.7763783   -2.7763783   -1.6473345  0.069174387   -2.7763783    1.1290437   569361 
 3589000    1.0049215   -2.7774662   -2.7774662   -1.6476861  0.059278741   -2.7774662    1.1297801   569361 
 3590000    1.0044109   -2.7770521   -2.7770521    -1.647846  0.062652701   -2.7770521    1.1292061   569361 
 3591000     1.003561   -2.7753896   -2.7753896    -1.647139  0.066194223   -2.7753896    1.1282506   569361 
 3592000    1.0059287   -2.7767047   -2.7767047   -1.6457922   0.08725099   -2.7767047    1.1309125   569361 
 3593000    1.0036995    -2.774528    -2.774528   -1.6461217  0.072771787    -2.774528    1.1284063   569361 
 3594000    1.0034706   -2.7748712   -2.7748712   -1.6467222  0.069271439   -2.7748712     1.128149   569361 
 3595000    1.0041073   -2.7752878   -2.7752878    -1.646423  0.069799645   -2.7752878    1.1288648   569361 
 3596000    1.0027628   -2.7736566   -2.7736566   -1.6463034  0.060743892   -2.7736566    1.1273532   569361 
 3597000    1.0046631   -2.7761001   -2.7761001   -1.6466105   0.06291098   -2.7761001    1.1294896   569361 
 3598000    1.0043013    -2.775895    -2.775895   -1.6468121  0.066967865    -2.775895    1.1290829   569361 
 3599000    1.0048778   -2.7754812   -2.7754812   -1.6457502  0.071530211   -2.7754812     1.129731   569361 
 3600000    1.0051436   -2.7755652   -2.7755652   -1.6455354   0.06830386   -2.7755652    1.1300298   569361 
 3601000    1.0048278   -2.7753654   -2.7753654   -1.6456907  0.071138522   -2.7753654    1.1296748   569361 
 3602000    1.0046899   -2.7751373   -2.7751373   -1.6456175  0.066900275   -2.7751373    1.1295198   569361 
 3603000    1.0051408   -2.7753947   -2.7753947    -1.645368  0.066873434   -2.7753947    1.1300267   569361 
 3604000    1.0048564   -2.7758771   -2.7758771   -1.6461701   0.07261845   -2.7758771     1.129707   569361 
 3605000    1.0053948   -2.7763964   -2.7763964   -1.6460841  0.066132682   -2.7763964    1.1303123   569361 
 3606000    1.0068917   -2.7769776   -2.7769776   -1.6449825  0.069640198   -2.7769776    1.1319951   569361 
 3607000    1.0060119   -2.7764991   -2.7764991   -1.6454931  0.070093927   -2.7764991     1.131006   569361 
 3608000    1.0061926   -2.7770909   -2.7770909   -1.6458818  0.072706188   -2.7770909    1.1312091   569361 
 3609000    1.0033768   -2.7746634   -2.7746634   -1.6466199  0.070928426   -2.7746634    1.1280435   569361 
 3610000    1.0028747   -2.7745051   -2.7745051    -1.647026  0.054328822   -2.7745051    1.1274791   569361 
 3611000    1.0020631   -2.7746375   -2.7746375   -1.6480708  0.063506098   -2.7746375    1.1265667   569361 
 3612000    1.0033304   -2.7763111   -2.7763111   -1.6483197  0.075291925   -2.7763111    1.1279914   569361 
 3613000    1.0044243   -2.7773769   -2.7773769   -1.6481557  0.052673508   -2.7773769    1.1292212   569361 
 3614000    1.0027819   -2.7762513   -2.7762513   -1.6488766  0.067162867   -2.7762513    1.1273747   569361 
 3615000    1.0014886   -2.7743558   -2.7743558   -1.6484351  0.063641438   -2.7743558    1.1259208   569361 
 3616000    1.0038648   -2.7768008   -2.7768008   -1.6482085   0.07294129   -2.7768008    1.1285922   569361 
 3617000    1.0034343   -2.7766381   -2.7766381   -1.6485299  0.063677864   -2.7766381    1.1281082   569361 
 3618000    1.0030564   -2.7767185   -2.7767185   -1.6490352  0.068502792   -2.7767185    1.1276833   569361 
 3619000    1.0047327   -2.7791145   -2.7791145   -1.6495465  0.065827789   -2.7791145    1.1295679   569361 
 3620000    1.0058024   -2.7792851   -2.7792851   -1.6485145  0.063470995   -2.7792851    1.1307705   569361 
 3621000    1.0043188   -2.7770867   -2.7770867   -1.6479841  0.058204828   -2.7770867    1.1291026   569361 
 3622000    1.0049662   -2.7778509   -2.7778509   -1.6480204  0.074655876   -2.7778509    1.1298305   569361 
 3623000    1.0064199   -2.7792596   -2.7792596   -1.6477949  0.066682878   -2.7792596    1.1314648   569361 
 3624000      1.00683    -2.779675    -2.779675   -1.6477492  0.070350841    -2.779675    1.1319258   569361 
 3625000    1.0059556   -2.7779077   -2.7779077    -1.646965  0.081336653   -2.7779077    1.1309427   569361 
 3626000    1.0049592   -2.7776078   -2.7776078   -1.6477853  0.074323177   -2.7776078    1.1298225   569361 
 3627000    1.0053867   -2.7779941   -2.7779941   -1.6476909  0.068578438   -2.7779941    1.1303031   569361 
 3628000     1.006522   -2.7791012   -2.7791012   -1.6475216   0.06984285   -2.7791012    1.1315795   569361 
 3629000    1.0054429   -2.7773878   -2.7773878   -1.6470215  0.075440935   -2.7773878    1.1303664   569361 
 3630000     1.006152   -2.7773281   -2.7773281   -1.6461645  0.061613863   -2.7773281    1.1311635   569361 
 3631000    1.0056842   -2.7770537   -2.7770537   -1.6464161  0.070803245   -2.7770537    1.1306376   569361 
 3632000    1.0054869   -2.7761152   -2.7761152   -1.6456994  0.072681105   -2.7761152    1.1304158   569361 
 3633000    1.0034057    -2.775048    -2.775048   -1.6469721  0.083674528    -2.775048     1.128076   569361 
 3634000    1.0045248   -2.7768007   -2.7768007   -1.6474665  0.063792893   -2.7768007    1.1293342   569361 
 3635000    1.0052576   -2.7766087   -2.7766087   -1.6464507  0.068945191   -2.7766087     1.130158   569361 
 3636000    1.0045155   -2.7760885   -2.7760885   -1.6467648  0.071904442   -2.7760885    1.1293237   569361 
 3637000    1.0054453   -2.7773258   -2.7773258   -1.6469568  0.076405191   -2.7773258    1.1303691   569361 
 3638000    1.0057693   -2.7777267   -2.7777267   -1.6469934  0.057603685   -2.7777267    1.1307333   569361 
 3639000    1.0035889   -2.7761033   -2.7761033   -1.6478213  0.059998886   -2.7761033     1.128282   569361 
 3640000    1.0030646   -2.7752502   -2.7752502   -1.6475577  0.066980364   -2.7752502    1.1276925   569361 
 3641000    1.0035654   -2.7747975   -2.7747975   -1.6465419  0.075985061   -2.7747975    1.1282556   569361 
 3642000    1.0037388   -2.7753408   -2.7753408   -1.6468903  0.065688679   -2.7753408    1.1284505   569361 
 3643000    1.0035133   -2.7748207   -2.7748207   -1.6466237   0.07133523   -2.7748207     1.128197   569361 
 3644000    1.0034707   -2.7746602   -2.7746602    -1.646511  0.055820958   -2.7746602    1.1281492   569361 
 3645000    1.0040416   -2.7751183   -2.7751183   -1.6463274  0.056775046   -2.7751183    1.1287909   569361 
 3646000    1.0043834   -2.7751155   -2.7751155   -1.6459403  0.057992287   -2.7751155    1.1291752   569361 
 3647000    1.0039624   -2.7749116   -2.7749116   -1.6462097  0.060037557   -2.7749116    1.1287019   569361 
 3648000    1.0038254   -2.7744162   -2.7744162   -1.6458683  0.066315497   -2.7744162    1.1285479   569361 
 3649000    1.0038427   -2.7742405   -2.7742405   -1.6456732  0.083051603   -2.7742405    1.1285673   569361 
 3650000    1.0058899   -2.7757643   -2.7757643   -1.6448954  0.069105055   -2.7757643    1.1308689   569361 
 3651000    1.0051025   -2.7762528   -2.7762528   -1.6462691  0.075591027   -2.7762528    1.1299837   569361 
 3652000    1.0055764   -2.7771076   -2.7771076   -1.6465912  0.070753104   -2.7771076    1.1305164   569361 
 3653000    1.0053783    -2.777029    -2.777029   -1.6467353   0.07476664    -2.777029    1.1302937   569361 
 3654000    1.0047036   -2.7761411   -2.7761411   -1.6466059  0.072703951   -2.7761411    1.1295352   569361 
 3655000    1.0059103   -2.7776027   -2.7776027   -1.6467109  0.064338686   -2.7776027    1.1308919   569361 
 3656000    1.0039292    -2.775332    -2.775332   -1.6466674   0.07136475    -2.775332    1.1286646   569361 
 3657000    1.0050553   -2.7762864   -2.7762864   -1.6463559  0.069392414   -2.7762864    1.1299305   569361 
 3658000    1.0038234   -2.7749634   -2.7749634   -1.6464178  0.066393771   -2.7749634    1.1285456   569361 
 3659000    1.0055153   -2.7771832   -2.7771832   -1.6467355   0.07592104   -2.7771832    1.1304477   569361 
 3660000    1.0064412   -2.7783844   -2.7783844   -1.6468957  0.068780814   -2.7783844    1.1314887   569361 
 3661000     1.004633   -2.7761893   -2.7761893   -1.6467334  0.063956278   -2.7761893    1.1294558   569361 
 3662000      1.00376   -2.7758337   -2.7758337   -1.6473592  0.069935265   -2.7758337    1.1284744   569361 
 3663000    1.0047362   -2.7771975   -2.7771975   -1.6476257  0.073364691   -2.7771975    1.1295718   569361 
 3664000    1.0046663   -2.7777899   -2.7777899   -1.6482967  0.069099419   -2.7777899    1.1294932   569361 
 3665000    1.0048188   -2.7783892   -2.7783892   -1.6487245  0.075253053   -2.7783892    1.1296647   569361 
 3666000    1.0043873   -2.7778428   -2.7778428   -1.6486632   0.06873544   -2.7778428    1.1291796   569361 
 3667000    1.0035687   -2.7775013   -2.7775013    -1.649242  0.073813432   -2.7775013    1.1282593   569361 
 3668000    1.0041145   -2.7774188   -2.7774188   -1.6485459   0.07732581   -2.7774188    1.1288729   569361 
 3669000    1.0050351   -2.7782284   -2.7782284   -1.6483205  0.072774106   -2.7782284    1.1299079   569361 
 3670000     1.003402   -2.7764468   -2.7764468   -1.6483749  0.077563564   -2.7764468    1.1280719   569361 
 3671000    1.0046039   -2.7783093   -2.7783093   -1.6488862  0.072773609   -2.7783093    1.1294231   569361 
 3672000    1.0033287   -2.7766208   -2.7766208   -1.6486314  0.056948133   -2.7766208    1.1279894   569361 
 3673000    1.0058436   -2.7784955   -2.7784955   -1.6476787  0.068677996   -2.7784955    1.1308169   569361 
 3674000    1.0040578   -2.7766569   -2.7766569   -1.6478478  0.072988832   -2.7766569    1.1288091   569361 
 3675000    1.0045824   -2.7770129   -2.7770129    -1.647614   0.07297749   -2.7770129    1.1293989   569361 
 3676000     1.004611   -2.7767563   -2.7767563   -1.6473253  0.080214325   -2.7767563    1.1294311   569361 
 3677000    1.0053782   -2.7767024   -2.7767024   -1.6464088  0.065438293   -2.7767024    1.1302936   569361 
 3678000    1.0055896   -2.7762844   -2.7762844   -1.6457531  0.075504337   -2.7762844    1.1305313   569361 
 3679000    1.0030823   -2.7739421   -2.7739421   -1.6462296  0.064591607   -2.7739421    1.1277124   569361 
 3680000    1.0051915   -2.7762281   -2.7762281   -1.6461444  0.059418663   -2.7762281    1.1300838   569361 
 3681000    1.0044029   -2.7753849   -2.7753849   -1.6461878  0.053097765   -2.7753849    1.1291971   569361 
 3682000    1.0029501   -2.7740815   -2.7740815   -1.6465177  0.065807445   -2.7740815    1.1275638   569361 
 3683000    1.0014856   -2.7718617   -2.7718617   -1.6459443  0.062911554   -2.7718617    1.1259174   569361 
 3684000    1.0038271   -2.7753874   -2.7753874   -1.6468375  0.053113586   -2.7753874    1.1285498   569361 
 3685000    1.0035742   -2.7750192   -2.7750192   -1.6467538  0.044230818   -2.7750192    1.1282654   569361 
 3686000    1.0027568   -2.7732277   -2.7732277   -1.6458812  0.061152092   -2.7732277    1.1273465   569361 
 3687000    1.0020091   -2.7733988   -2.7733988   -1.6468929  0.062131055   -2.7733988     1.126506   569361 
 3688000    1.0029036    -2.775121    -2.775121   -1.6476095   0.05936583    -2.775121    1.1275115   569361 
 3689000    1.0042175   -2.7762932   -2.7762932   -1.6473045  0.058726886   -2.7762932    1.1289886   569361 
 3690000    1.0033539   -2.7745721   -2.7745721   -1.6465542  0.072908142   -2.7745721    1.1280178   569361 
 3691000    1.0028554   -2.7733757   -2.7733757   -1.6459184  0.065311238   -2.7733757    1.1274573   569361 
 3692000    1.0028545    -2.773973    -2.773973   -1.6465166  0.067537602    -2.773973    1.1274564   569361 
 3693000     1.003817   -2.7738103   -2.7738103   -1.6452719  0.070079436   -2.7738103    1.1285384   569361 
 3694000    1.0034031    -2.772701    -2.772701   -1.6446279  0.072085555    -2.772701    1.1280732   569361 
 3695000    1.0032103   -2.7734427   -2.7734427   -1.6455863  0.065974128   -2.7734427    1.1278564   569361 
 3696000    1.0025848   -2.7735559   -2.7735559   -1.6464027  0.063492138   -2.7735559    1.1271532   569361 
 3697000    1.0045405    -2.775738    -2.775738   -1.6463862  0.068293985    -2.775738    1.1293518   569361 
 3698000    1.0056181   -2.7760476   -2.7760476   -1.6454843   0.06532822   -2.7760476    1.1305633   569361 
 3699000    1.0046311   -2.7758188   -2.7758188   -1.6463651  0.070051478   -2.7758188    1.1294537   569361 
 3700000     1.005661   -2.7760728   -2.7760728   -1.6454612  0.067283149   -2.7760728    1.1306116   569361 
 3701000    1.0053846   -2.7760958   -2.7760958    -1.645795  0.069845465   -2.7760958    1.1303008   569361 
 3702000    1.0057847   -2.7767149   -2.7767149   -1.6459643  0.060200039   -2.7767149    1.1307506   569361 
 3703000    1.0040974   -2.7751643   -2.7751643   -1.6463107  0.061878083   -2.7751643    1.1288536   569361 
 3704000     1.006052   -2.7765138   -2.7765138   -1.6454626  0.076499893   -2.7765138    1.1310511   569361 
 3705000    1.0038929   -2.7743814   -2.7743814   -1.6457577  0.076068791   -2.7743814    1.1286237   569361 
 3706000     1.003828   -2.7746345   -2.7746345   -1.6460837  0.073971891   -2.7746345    1.1285508   569361 
 3707000    1.0047259   -2.7751381   -2.7751381   -1.6455778  0.064971826   -2.7751381    1.1295602   569361 
 3708000    1.0048718   -2.7757286   -2.7757286   -1.6460043  0.082173523   -2.7757286    1.1297243   569361 
 3709000    1.0050065   -2.7743245   -2.7743245   -1.6444487  0.071316071   -2.7743245    1.1298757   569361 
 3710000    1.0053906   -2.7748267   -2.7748267   -1.6445191   0.06097254   -2.7748267    1.1303075   569361 
 3711000    1.0040954   -2.7736098   -2.7736098   -1.6447584   0.06534255   -2.7736098    1.1288515   569361 
 3712000    1.0038096   -2.7730339   -2.7730339   -1.6445039  0.076081311   -2.7730339    1.1285301   569361 
 3713000    1.0051934   -2.7747181   -2.7747181   -1.6446322  0.074389245   -2.7747181    1.1300859   569361 
 3714000     1.005451   -2.7743643   -2.7743643   -1.6439888  0.064867381   -2.7743643    1.1303755   569361 
 3715000    1.0048798   -2.7742516   -2.7742516   -1.6445182  0.069428645   -2.7742516    1.1297333   569361 
 3716000    1.0059602   -2.7746635   -2.7746635   -1.6437156  0.062028115   -2.7746635     1.130948   569361 
 3717000    1.0048964   -2.7744195   -2.7744195   -1.6446675  0.068710096   -2.7744195     1.129752   569361 
 3718000    1.0039419    -2.772796    -2.772796   -1.6441171  0.058336486    -2.772796    1.1286789   569361 
 3719000    1.0051774   -2.7740933   -2.7740933   -1.6440254  0.062022922   -2.7740933    1.1300679   569361 
 3720000    1.0029262   -2.7716745   -2.7716745   -1.6441375  0.066003979   -2.7716745     1.127537   569361 
 3721000    1.0032748   -2.7715019   -2.7715019    -1.643573   0.06609813   -2.7715019    1.1279289   569361 
 3722000    1.0031508   -2.7713918   -2.7713918   -1.6436023  0.060764086   -2.7713918    1.1277895   569361 
 3723000    1.0029783   -2.7709982   -2.7709982   -1.6434027  0.075508234   -2.7709982    1.1275955   569361 
 3724000     1.005019     -2.77255     -2.77255   -1.6426603  0.063970344     -2.77255    1.1298898   569361 
 3725000    1.0033808    -2.770912    -2.770912    -1.642864   0.07101042    -2.770912     1.128048   569361 
 3726000    1.0032227   -2.7714166   -2.7714166   -1.6435464  0.062801123   -2.7714166    1.1278703   569361 
 3727000    1.0045821   -2.7721063   -2.7721063   -1.6427077  0.061345674   -2.7721063    1.1293986   569361 
 3728000    1.0052759   -2.7725345   -2.7725345    -1.642356  0.062038496   -2.7725345    1.1301786   569361 
 3729000    1.0044057   -2.7719102   -2.7719102   -1.6427099  0.055401762   -2.7719102    1.1292003   569361 
 3730000    1.0030604   -2.7701214   -2.7701214   -1.6424336  0.066875218   -2.7701214    1.1276878   569361 
 3731000     1.005002    -2.771786    -2.771786   -1.6419152  0.076730807    -2.771786    1.1298707   569361 
 3732000    1.0062311   -2.7725395   -2.7725395   -1.6412871  0.067868895   -2.7725395    1.1312525   569361 
 3733000    1.0056279   -2.7723496   -2.7723496   -1.6417753  0.076321033   -2.7723496    1.1305743   569361 
 3734000    1.0027271    -2.769431    -2.769431   -1.6421179  0.069751687    -2.769431    1.1273131   569361 
 3735000    1.0053479    -2.773553    -2.773553   -1.6432935  0.060715317    -2.773553    1.1302595   569361 
 3736000    1.0043658   -2.7726202   -2.7726202   -1.6434647  0.058773617   -2.7726202    1.1291555   569361 
 3737000    1.0044612   -2.7723761   -2.7723761   -1.6431134  0.073599212   -2.7723761    1.1292627   569361 
 3738000    1.0057145   -2.7745602   -2.7745602   -1.6438885  0.068201012   -2.7745602    1.1306717   569361 
 3739000    1.0037972   -2.7724397   -2.7724397   -1.6439235   0.06654592   -2.7724397    1.1285161   569361 
 3740000    1.0050709   -2.7736773   -2.7736773   -1.6437292  0.063776659   -2.7736773    1.1299482   569361 
 3741000    1.0035937   -2.7717657   -2.7717657   -1.6434783  0.066141123   -2.7717657    1.1282874   569361 
 3742000    1.0044774   -2.7719254   -2.7719254   -1.6426445  0.066934725   -2.7719254    1.1292809   569361 
 3743000    1.0038039   -2.7718497   -2.7718497    -1.643326  0.056555273   -2.7718497    1.1285237   569361 
 3744000    1.0043453   -2.7713982   -2.7713982   -1.6422658   0.07010055   -2.7713982    1.1291324   569361 
 3745000     1.005299   -2.7724248   -2.7724248   -1.6422202  0.071250355   -2.7724248    1.1302046   569361 
 3746000    1.0048312   -2.7717674   -2.7717674   -1.6420888  0.070924841   -2.7717674    1.1296787   569361 
 3747000    1.0060105   -2.7737208   -2.7737208   -1.6427163  0.065026279   -2.7737208    1.1310045   569361 
 3748000    1.0045911   -2.7724748   -2.7724748   -1.6430661  0.071148093   -2.7724748    1.1294087   569361 
 3749000     1.004368   -2.7719597   -2.7719597   -1.6428017  0.066958026   -2.7719597    1.1291579   569361 
 3750000    1.0053384   -2.7731773   -2.7731773   -1.6429284  0.074345446   -2.7731773    1.1302489   569361 
 3751000    1.0038036   -2.7719736   -2.7719736   -1.6434503  0.068627799   -2.7719736    1.1285233   569361 
 3752000    1.0035801   -2.7720041   -2.7720041   -1.6437321  0.058472775   -2.7720041     1.128272   569361 
 3753000    1.0046418   -2.7729442   -2.7729442   -1.6434785  0.058373524   -2.7729442    1.1294658   569361 
 3754000    1.0048838   -2.7731794   -2.7731794   -1.6434417  0.071396084   -2.7731794    1.1297378   569361 
 3755000    1.0026621   -2.7709815   -2.7709815   -1.6437415  0.061184324   -2.7709815    1.1272401   569361 
 3756000    1.0027493   -2.7711359   -2.7711359   -1.6437978  0.058062069   -2.7711359    1.1273381   569361 
 3757000    1.0053865    -2.772839    -2.772839   -1.6425361   0.05697021    -2.772839    1.1303029   569361 
 3758000    1.0035679   -2.7708789   -2.7708789   -1.6426205  0.065231954   -2.7708789    1.1282583   569361 
 3759000     1.002912   -2.7721494   -2.7721494   -1.6446284  0.071449701   -2.7721494     1.127521   569361 
 3760000    1.0048758   -2.7737587   -2.7737587   -1.6440299  0.060038401   -2.7737587    1.1297288   569361 
 3761000    1.0039596   -2.7720175   -2.7720175   -1.6433187   0.06305174   -2.7720175    1.1286988   569361 
 3762000     1.005327   -2.7733446   -2.7733446   -1.6431085   0.07388194   -2.7733446    1.1302361   569361 
 3763000    1.0069406   -2.7747776   -2.7747776   -1.6427275  0.067774679   -2.7747776    1.1320501   569361 
 3764000    1.0070991   -2.7757063   -2.7757063    -1.643478  0.058046144   -2.7757063    1.1322283   569361 
 3765000    1.0046786   -2.7727042   -2.7727042   -1.6431971  0.069388268   -2.7727042    1.1295071   569361 
 3766000    1.0063588    -2.775283    -2.775283    -1.643887  0.072024867    -2.775283    1.1313961   569361 
 3767000    1.0052085   -2.7743876   -2.7743876   -1.6442848  0.060415559   -2.7743876    1.1301028   569361 
 3768000    1.0062113   -2.7746286   -2.7746286   -1.6433983  0.065975199   -2.7746286    1.1312303   569361 
 3769000    1.0045942   -2.7735222   -2.7735222     -1.64411  0.062923627   -2.7735222    1.1294122   569361 
 3770000    1.0053025   -2.7743876   -2.7743876   -1.6441791  0.065177305   -2.7743876    1.1302085   569361 
 3771000     1.005292   -2.7738863   -2.7738863   -1.6436896  0.062826688   -2.7738863    1.1301967   569361 
 3772000    1.0060221   -2.7754273   -2.7754273   -1.6444097  0.075162791   -2.7754273    1.1310175   569361 
 3773000    1.0050638   -2.7747908   -2.7747908   -1.6448507  0.067496627   -2.7747908    1.1299401   569361 
 3774000    1.0038786   -2.7733035   -2.7733035   -1.6446959  0.061408379   -2.7733035    1.1286076   569361 
 3775000    1.0032782   -2.7728467   -2.7728467    -1.644914  0.059965891   -2.7728467    1.1279327   569361 
 3776000    1.0045113   -2.7740343   -2.7740343   -1.6447153  0.061720067   -2.7740343     1.129319   569361 
 3777000    1.0039493   -2.7736748   -2.7736748   -1.6449876  0.071920588   -2.7736748    1.1286872   569361 
 3778000     1.004579   -2.7738306   -2.7738306   -1.6444355  0.062257672   -2.7738306    1.1293951   569361 
 3779000    1.0032862   -2.7720066   -2.7720066   -1.6440649  0.062415706   -2.7720066    1.1279417   569361 
 3780000    1.0027877    -2.771375    -2.771375   -1.6439937  0.077571403    -2.771375    1.1273813   569361 
 3781000    1.0048127   -2.7734751   -2.7734751   -1.6438172   0.07164414   -2.7734751    1.1296579   569361 
 3782000    1.0048901   -2.7726025   -2.7726025   -1.6428577  0.070080712   -2.7726025    1.1297449   569361 
 3783000    1.0054456   -2.7730072   -2.7730072   -1.6426378   0.06088007   -2.7730072    1.1303693   569361 
 3784000    1.0058564   -2.7729999   -2.7729999   -1.6421687  0.072157469   -2.7729999    1.1308312   569361 
 3785000    1.0058878    -2.773507    -2.773507   -1.6426404  0.066107468    -2.773507    1.1308666   569361 
 3786000    1.0052056    -2.772637    -2.772637   -1.6425374  0.071145609    -2.772637    1.1300996   569361 
 3787000    1.0057136    -2.772951    -2.772951   -1.6422803  0.062649515    -2.772951    1.1306707   569361 
 3788000    1.0055428   -2.7729586   -2.7729586   -1.6424799  0.053725837   -2.7729586    1.1304787   569361 
 3789000    1.0052268   -2.7717976   -2.7717976   -1.6416742  0.066369658   -2.7717976    1.1301234   569361 
 3790000    1.0029837   -2.7693851   -2.7693851   -1.6417836  0.066645007   -2.7693851    1.1276016   569361 
 3791000    1.0046399   -2.7702937   -2.7702937   -1.6408301  0.057182258   -2.7702937    1.1294635   569361 
 3792000    1.0058221   -2.7708768   -2.7708768   -1.6400842  0.074271408   -2.7708768    1.1307926   569361 
 3793000     1.003224   -2.7685833   -2.7685833   -1.6407115  0.065442587   -2.7685833    1.1278718   569361 
 3794000    1.0034297   -2.7688085   -2.7688085   -1.6407055  0.062029274   -2.7688085    1.1281031   569361 
 3795000    1.0038912   -2.7689806   -2.7689806   -1.6403588  0.066532077   -2.7689806    1.1286218   569361 
 3796000    1.0052753   -2.7705283   -2.7705283   -1.6403504  0.075262008   -2.7705283    1.1301779   569361 
 3797000    1.0041421   -2.7692313   -2.7692313   -1.6403274  0.058585634   -2.7692313    1.1289039   569361 
 3798000    1.0022826   -2.7676733   -2.7676733   -1.6408598  0.065616102   -2.7676733    1.1268134   569361 
 3799000    1.0030739      -2.7688      -2.7688   -1.6410971  0.056969795      -2.7688     1.127703   569361 
 3800000     1.004163   -2.7692303   -2.7692303   -1.6403028  0.065153171   -2.7692303    1.1289274   569361 
 3801000    1.0024654    -2.767286    -2.767286   -1.6402671  0.055974715    -2.767286    1.1270189   569361 
 3802000     1.003014   -2.7682371   -2.7682371   -1.6406014  0.054364198   -2.7682371    1.1276356   569361 
 3803000    1.0038826   -2.7694845   -2.7694845   -1.6408723  0.061538613   -2.7694845    1.1286122   569361 
 3804000    1.0036854   -2.7685732   -2.7685732   -1.6401828  0.072878519   -2.7685732    1.1283904   569361 
 3805000    1.0029763   -2.7676603   -2.7676603    -1.640067  0.065127045   -2.7676603    1.1275932   569361 
 3806000    1.0031369    -2.768956    -2.768956   -1.6411821  0.060683907    -2.768956    1.1277738   569361 
 3807000     1.005499   -2.7702216   -2.7702216   -1.6397922  0.063097138   -2.7702216    1.1304294   569361 
 3808000    1.0034306   -2.7686169   -2.7686169   -1.6405128  0.064352355   -2.7686169    1.1281041   569361 
 3809000    1.0033357    -2.768478    -2.768478   -1.6404807  0.065996216    -2.768478    1.1279973   569361 
 3810000    1.0039774   -2.7698022   -2.7698022   -1.6410835  0.070836408   -2.7698022    1.1287187   569361 
 3811000    1.0050484   -2.7714288   -2.7714288   -1.6415059  0.073935682   -2.7714288    1.1299229   569361 
 3812000    1.0048679   -2.7703129   -2.7703129    -1.640593  0.073503701   -2.7703129      1.12972   569361 
 3813000    1.0060543    -2.771782    -2.771782   -1.6407283  0.061851446    -2.771782    1.1310537   569361 
 3814000    1.0059961   -2.7712582   -2.7712582     -1.64027  0.069053996   -2.7712582    1.1309883   569361 
 3815000     1.006491   -2.7724518   -2.7724518   -1.6409071  0.070910731   -2.7724518    1.1315447   569361 
 3816000    1.0068599   -2.7724611   -2.7724611   -1.6405016  0.070846985   -2.7724611    1.1319594   569361 
 3817000    1.0056044    -2.771654    -2.771654   -1.6411061  0.062885054    -2.771654    1.1305479   569361 
 3818000    1.0053524   -2.7713305   -2.7713305   -1.6410658  0.071297422   -2.7713305    1.1302646   569361 
 3819000    1.0068067   -2.7722619   -2.7722619   -1.6403623  0.065020366   -2.7722619    1.1318996   569361 
 3820000    1.0067685   -2.7726511   -2.7726511   -1.6407944   0.07120194   -2.7726511    1.1318567   569361 
 3821000    1.0068854   -2.7728071   -2.7728071    -1.640819  0.065953996   -2.7728071    1.1319881   569361 
 3822000    1.0060376   -2.7728204   -2.7728204   -1.6417854  0.066273211   -2.7728204    1.1310349   569361 
 3823000    1.0059161   -2.7721456   -2.7721456   -1.6412472  0.065198077   -2.7721456    1.1308984   569361 
 3824000    1.0058549    -2.773006    -2.773006   -1.6421764  0.063583011    -2.773006    1.1308295   569361 
 3825000    1.0053213   -2.7727452   -2.7727452   -1.6425155  0.061926746   -2.7727452    1.1302297   569361 
 3826000    1.0056934   -2.7728739   -2.7728739    -1.642226  0.062408111   -2.7728739    1.1306479   569361 
 3827000    1.0057174    -2.771707    -2.771707   -1.6410321    0.0716912    -2.771707    1.1306749   569361 
 3828000    1.0040573   -2.7706646   -2.7706646    -1.641856   0.07302258   -2.7706646    1.1288086   569361 
 3829000    1.0060638   -2.7724024   -2.7724024   -1.6413379  0.056393086   -2.7724024    1.1310644   569361 
 3830000    1.0069594   -2.7732722   -2.7732722    -1.641201  0.065096759   -2.7732722    1.1320712   569361 
 3831000    1.0045593   -2.7713713   -2.7713713   -1.6419983  0.072610146   -2.7713713     1.129373   569361 
 3832000    1.0039553   -2.7709302   -2.7709302   -1.6422363  0.071985293   -2.7709302    1.1286939   569361 
 3833000    1.0053636   -2.7719188   -2.7719188   -1.6416415  0.071235121   -2.7719188    1.1302772   569361 
 3834000    1.0038135   -2.7701497   -2.7701497   -1.6416152  0.072285501   -2.7701497    1.1285345   569361 
 3835000    1.0050097   -2.7704102   -2.7704102   -1.6405309  0.065434529   -2.7704102    1.1298794   569361 
 3836000    1.0041654   -2.7710374   -2.7710374   -1.6421072  0.065197951   -2.7710374    1.1289302   569361 
 3837000    1.0047062   -2.7710333   -2.7710333   -1.6414953  0.054053464   -2.7710333    1.1295381   569361 
 3838000    1.0024651   -2.7699489   -2.7699489   -1.6429303  0.057836884   -2.7699489    1.1270186   569361 
 3839000    1.0047898   -2.7729729   -2.7729729   -1.6433408  0.054631093   -2.7729729    1.1296321   569361 
 3840000    1.0049264   -2.7723109   -2.7723109   -1.6425253  0.074591451   -2.7723109    1.1297857   569361 
 3841000    1.0054008   -2.7727321   -2.7727321   -1.6424131  0.064317689   -2.7727321     1.130319   569361 
 3842000      1.00442   -2.7709312   -2.7709312   -1.6417149  0.078870366   -2.7709312    1.1292163   569361 
 3843000    1.0059527   -2.7721547   -2.7721547   -1.6412151  0.079215855   -2.7721547    1.1309395   569361 
 3844000    1.0059682   -2.7742663   -2.7742663   -1.6433094  0.070254531   -2.7742663    1.1309569   569361 
 3845000    1.0058304   -2.7738559   -2.7738559   -1.6430539  0.061572672   -2.7738559     1.130802   569361 
 3846000    1.0060263    -2.774162    -2.774162   -1.6431398  0.071487032    -2.774162    1.1310223   569361 
 3847000    1.0059983   -2.7733487   -2.7733487   -1.6423579  0.064188211   -2.7733487    1.1309908   569361 
 3848000    1.0059458   -2.7736408   -2.7736408   -1.6427091  0.075821541   -2.7736408    1.1309317   569361 
 3849000    1.0059947   -2.7746859   -2.7746859   -1.6436991  0.065655091   -2.7746859    1.1309867   569361 
 3850000    1.0056051   -2.7743166   -2.7743166    -1.643768  0.068792966   -2.7743166    1.1305487   569361 
 3851000    1.0076579   -2.7765154   -2.7765154   -1.6436588   0.06921142   -2.7765154    1.1328565   569361 
 3852000    1.0054746   -2.7739848   -2.7739848   -1.6435828  0.064506057   -2.7739848     1.130402   569361 
 3853000    1.0042378   -2.7739411   -2.7739411   -1.6449296  0.067544221   -2.7739411    1.1290115   569361 
 3854000    1.0050455   -2.7753694   -2.7753694   -1.6454499    0.0729674   -2.7753694    1.1299196   569361 
 3855000    1.0038282   -2.7748188   -2.7748188   -1.6462677  0.067003663   -2.7748188     1.128551   569361 
 3856000    1.0054692   -2.7750237   -2.7750237   -1.6446279  0.071434002   -2.7750237    1.1303959   569361 
 3857000    1.0042628   -2.7742363   -2.7742363   -1.6451967  0.072031924   -2.7742363    1.1290396   569361 
 3858000    1.0049295   -2.7749703   -2.7749703   -1.6451812  0.058384509   -2.7749703    1.1297891   569361 
 3859000     1.006084   -2.7765772   -2.7765772     -1.64549  0.069299759   -2.7765772    1.1310871   569361 
 3860000    1.0057168    -2.774671    -2.774671   -1.6439967  0.060324279    -2.774671    1.1306743   569361 
 3861000     1.005391   -2.7754378   -2.7754378   -1.6451298  0.065709869   -2.7754378     1.130308   569361 
 3862000    1.0050503   -2.7746906   -2.7746906   -1.6447657   0.07829848   -2.7746906    1.1299249   569361 
 3863000    1.0042734   -2.7741048   -2.7741048   -1.6450532  0.064238681   -2.7741048    1.1290516   569361 
 3864000    1.0047007    -2.774764    -2.774764    -1.645232  0.055990867    -2.774764     1.129532   569361 
 3865000    1.0045501   -2.7744804   -2.7744804   -1.6451178  0.067432411   -2.7744804    1.1293626   569361 
 3866000    1.0048343   -2.7744708   -2.7744708   -1.6447887  0.067450899   -2.7744708    1.1296821   569361 
 3867000    1.0057381   -2.7749759   -2.7749759   -1.6442777     0.070157   -2.7749759    1.1306982   569361 
 3868000    1.0050704   -2.7746532   -2.7746532   -1.6447057  0.072848377   -2.7746532    1.1299475   569361 
 3869000    1.0053194   -2.7743192   -2.7743192   -1.6440917  0.061432579   -2.7743192    1.1302275   569361 
 3870000    1.0065803   -2.7749812   -2.7749812   -1.6433361  0.070513064   -2.7749812    1.1316451   569361 
 3871000     1.005051   -2.7737294   -2.7737294   -1.6438037  0.065899537   -2.7737294    1.1299257   569361 
 3872000    1.0043288   -2.7731938   -2.7731938     -1.64408  0.059551563   -2.7731938    1.1291139   569361 
 3873000    1.0050083    -2.773933    -2.773933   -1.6440552  0.055199687    -2.773933    1.1298777   569361 
 3874000     1.006086   -2.7740958   -2.7740958   -1.6430064  0.064603419   -2.7740958    1.1310894   569361 
 3875000    1.0034392   -2.7714449   -2.7714449   -1.6433312  0.070110648   -2.7714449    1.1281137   569361 
 3876000    1.0049218   -2.7725924   -2.7725924   -1.6428119  0.071379181   -2.7725924    1.1297805   569361 
 3877000     1.005641   -2.7722861   -2.7722861    -1.641697  0.076419564   -2.7722861    1.1305891   569361 
 3878000    1.0050699    -2.771776    -2.771776   -1.6418291  0.065227368    -2.771776     1.129947   569361 
 3879000    1.0060163   -2.7735792   -2.7735792   -1.6425682  0.065250861   -2.7735792     1.131011   569361 
 3880000    1.0053413   -2.7721524   -2.7721524   -1.6419003  0.069186463   -2.7721524    1.1302521   569361 
 3881000    1.0057451   -2.7717904   -2.7717904   -1.6410843  0.070141988   -2.7717904    1.1307061   569361 
 3882000    1.0063693   -2.7726952   -2.7726952   -1.6412873  0.066480989   -2.7726952    1.1314079   569361 
 3883000    1.0050016   -2.7710428   -2.7710428   -1.6411726  0.067695377   -2.7710428    1.1298702   569361 
 3884000    1.0049292    -2.771677    -2.771677   -1.6418882  0.056515346    -2.771677    1.1297888   569361 
 3885000    1.0048545   -2.7715921   -2.7715921   -1.6418873  0.064166866   -2.7715921    1.1297048   569361 
 3886000    1.0039155   -2.7697061   -2.7697061    -1.641057  0.069788543   -2.7697061    1.1286492   569361 
 3887000    1.0033458   -2.7689629   -2.7689629   -1.6409541  0.064125772   -2.7689629    1.1280087   569361 
 3888000    1.0052242   -2.7719847   -2.7719847   -1.6418642  0.064234827   -2.7719847    1.1301205   569361 
 3889000    1.0026205    -2.769032    -2.769032   -1.6418388  0.057681555    -2.769032    1.1271932   569361 
 3890000    1.0042158   -2.7712116   -2.7712116   -1.6422248  0.067643214   -2.7712116    1.1289868   569361 
 3891000    1.0033442   -2.7711164   -2.7711164   -1.6431094  0.050904843   -2.7711164    1.1280069   569361 
 3892000    1.0046014   -2.7717728   -2.7717728   -1.6423525  0.060524012   -2.7717728    1.1294203   569361 
 3893000    1.0040957   -2.7717962   -2.7717962   -1.6429444  0.079458106   -2.7717962    1.1288518   569361 
 3894000    1.0039239    -2.771447    -2.771447   -1.6427884   0.05943283    -2.771447    1.1286586   569361 
 3895000    1.0047616   -2.7711457   -2.7711457   -1.6415453  0.063900673   -2.7711457    1.1296004   569361 
 3896000    1.0052458   -2.7714992   -2.7714992   -1.6413545   0.06641662   -2.7714992    1.1301447   569361 
 3897000    1.0067152   -2.7724064   -2.7724064   -1.6406097  0.069667765   -2.7724064    1.1317967   569361 
 3898000    1.0077946   -2.7734265   -2.7734265   -1.6404162  0.064457441   -2.7734265    1.1330102   569361 
 3899000    1.0065799   -2.7718758   -2.7718758   -1.6402312  0.063449677   -2.7718758    1.1316446   569361 
 3900000    1.0059999   -2.7730973   -2.7730973   -1.6421048  0.072284375   -2.7730973    1.1309925   569361 
 3901000    1.0054603   -2.7717053   -2.7717053   -1.6413193  0.059537916   -2.7717053    1.1303859   569361 
 3902000     1.005478   -2.7725946   -2.7725946   -1.6421888   0.06838295   -2.7725946    1.1304058   569361 
 3903000    1.0055213   -2.7735248   -2.7735248   -1.6430703  0.063483341   -2.7735248    1.1304544   569361 
 3904000     1.004765    -2.771741    -2.771741   -1.6421367  0.069490568    -2.771741    1.1296042   569361 
 3905000    1.0035665   -2.7705314   -2.7705314   -1.6422746  0.056504058   -2.7705314    1.1282568   569361 
 3906000    1.0038364   -2.7706497   -2.7706497   -1.6420895  0.066777077   -2.7706497    1.1285602   569361 
 3907000    1.0035246   -2.7705361   -2.7705361   -1.6423264   0.06629595   -2.7705361    1.1282097   569361 
 3908000    1.0051762   -2.7718039   -2.7718039   -1.6417374  0.059128569   -2.7718039    1.1300665   569361 
 3909000    1.0051207    -2.771737    -2.771737   -1.6417329  0.058044821    -2.771737    1.1300042   569361 
 3910000    1.0050807     -2.77315     -2.77315   -1.6431908  0.061455058     -2.77315    1.1299591   569361 
 3911000    1.0056513   -2.7737652   -2.7737652   -1.6431646  0.059928353   -2.7737652    1.1306006   569361 
 3912000     1.004549   -2.7734501   -2.7734501   -1.6440888  0.067614741   -2.7734501    1.1293613   569361 
 3913000     1.004161   -2.7728538   -2.7728538   -1.6439287  0.066971127   -2.7728538    1.1289252   569361 
 3914000     1.002392   -2.7714098   -2.7714098   -1.6444735  0.077544496   -2.7714098    1.1269363   569361 
 3915000    1.0044247   -2.7730079   -2.7730079   -1.6437863  0.078162488   -2.7730079    1.1292216   569361 
 3916000    1.0047317   -2.7736955   -2.7736955   -1.6441287  0.057707413   -2.7736955    1.1295668   569361 
 3917000     1.004825   -2.7744568   -2.7744568   -1.6447851  0.057793795   -2.7744568    1.1296717   569361 
 3918000      1.00329   -2.7736742   -2.7736742   -1.6457282  0.065998457   -2.7736742     1.127946   569361 
 3919000    1.0040855   -2.7735255   -2.7735255   -1.6446853  0.064563344   -2.7735255    1.1288403   569361 
 3920000    1.0036704   -2.7730011   -2.7730011   -1.6446274  0.067551736   -2.7730011    1.1283737   569361 
 3921000    1.0035012   -2.7721689   -2.7721689   -1.6439855  0.071610354   -2.7721689    1.1281834   569361 
 3922000    1.0053825   -2.7744421   -2.7744421   -1.6441436  0.061455627   -2.7744421    1.1302984   569361 
 3923000    1.0063844   -2.7767698   -2.7767698    -1.645345  0.060254179   -2.7767698    1.1314248   569361 
 3924000    1.0042468   -2.7743124   -2.7743124   -1.6452908  0.071098936   -2.7743124    1.1290217   569361 
 3925000     1.004444   -2.7748349   -2.7748349   -1.6455915  0.078097676   -2.7748349    1.1292433   569361 
 3926000    1.0060003   -2.7756039   -2.7756039   -1.6446109  0.073046893   -2.7756039     1.130993   569361 
 3927000    1.0047743    -2.774704    -2.774704   -1.6450894  0.068957605    -2.774704    1.1296147   569361 
 3928000    1.0062364   -2.7771983   -2.7771983   -1.6459399  0.063842093   -2.7771983    1.1312584   569361 
 3929000    1.0046809   -2.7755633   -2.7755633   -1.6460537  0.083810064   -2.7755633    1.1295096   569361 
 3930000    1.0058266   -2.7768225   -2.7768225   -1.6460247  0.070939439   -2.7768225    1.1307978   569361 
 3931000    1.0050118   -2.7760918   -2.7760918   -1.6462102   0.06818364   -2.7760918    1.1298816   569361 
 3932000    1.0042769   -2.7751144   -2.7751144   -1.6460589   0.06837345   -2.7751144    1.1290555   569361 
 3933000    1.0049419   -2.7760688   -2.7760688   -1.6462656  0.072680916   -2.7760688    1.1298031   569361 
 3934000    1.0043831   -2.7746805   -2.7746805   -1.6455056   0.06184341   -2.7746805    1.1291749   569361 
 3935000    1.0032985   -2.7740941   -2.7740941   -1.6461385  0.062270939   -2.7740941    1.1279556   569361 
 3936000    1.0054839   -2.7767464   -2.7767464    -1.646334  0.061217401   -2.7767464    1.1304124   569361 
 3937000    1.0054137   -2.7760533   -2.7760533   -1.6457198  0.069689755   -2.7760533    1.1303336   569361 
 3938000    1.0033727   -2.7747351   -2.7747351   -1.6466961  0.071399773   -2.7747351     1.128039   569361 
 3939000    1.0044882   -2.7755271   -2.7755271   -1.6462341  0.066423036   -2.7755271     1.129293   569361 
 3940000    1.0045386   -2.7750009   -2.7750009   -1.6456512  0.070551879   -2.7750009    1.1293497   569361 
 3941000     1.005195   -2.7753915   -2.7753915   -1.6453038  0.057658414   -2.7753915    1.1300877   569361 
 3942000    1.0064107   -2.7764762   -2.7764762   -1.6450217  0.059796737   -2.7764762    1.1314544   569361 
 3943000    1.0045187   -2.7751167   -2.7751167   -1.6457894  0.073618799   -2.7751167    1.1293273   569361 
 3944000    1.0043624   -2.7751148   -2.7751148   -1.6459632  0.083091592   -2.7751148    1.1291516   569361 
 3945000    1.0049009   -2.7754294   -2.7754294   -1.6456724  0.064449271   -2.7754294     1.129757   569361 
 3946000      1.00352   -2.7745235   -2.7745235    -1.646319  0.068466801   -2.7745235    1.1282045   569361 
 3947000    1.0053493   -2.7760747   -2.7760747   -1.6458135  0.065126186   -2.7760747    1.1302612   569361 
 3948000      1.00459   -2.7750646   -2.7750646   -1.6456572  0.067403063   -2.7750646    1.1294074   569361 
 3949000    1.0041664   -2.7740923   -2.7740923    -1.645161  0.061133381   -2.7740923    1.1289313   569361 
 3950000    1.0041951    -2.773673    -2.773673   -1.6447094   0.06463855    -2.773673    1.1289636   569361 
 3951000    1.0026183   -2.7717734   -2.7717734   -1.6445825  0.063438719   -2.7717734    1.1271908   569361 
 3952000    1.0027351   -2.7728155   -2.7728155   -1.6454934  0.059534523   -2.7728155    1.1273221   569361 
 3953000    1.0012173    -2.771489    -2.771489   -1.6458732  0.063882272    -2.771489    1.1256158   569361 
 3954000    1.0014305   -2.7720866   -2.7720866   -1.6462312  0.059472682   -2.7720866    1.1258554   569361 
 3955000    1.0035569   -2.7728668   -2.7728668   -1.6446208  0.061238657   -2.7728668     1.128246   569361 
 3956000    1.0042433   -2.7725142   -2.7725142   -1.6434965  0.075606324   -2.7725142    1.1290177   569361 
 3957000    1.0045837   -2.7732788   -2.7732788   -1.6438784   0.07139594   -2.7732788    1.1294004   569361 
 3958000     1.005225   -2.7737539   -2.7737539   -1.6436326  0.061851492   -2.7737539    1.1301214   569361 
 3959000    1.0044049   -2.7723511   -2.7723511   -1.6431517    0.0658906   -2.7723511    1.1291994   569361 
 3960000    1.0035578   -2.7721539   -2.7721539   -1.6439069  0.065689386   -2.7721539     1.128247   569361 
 3961000    1.0034856   -2.7722381   -2.7722381   -1.6440722  0.065235596   -2.7722381    1.1281659   569361 
 3962000    1.0036517   -2.7730935   -2.7730935    -1.644741  0.073683815   -2.7730935    1.1283526   569361 
 3963000    1.0033533   -2.7724638   -2.7724638   -1.6444466  0.061465192   -2.7724638    1.1280171   569361 
 3964000    1.0028305   -2.7721077   -2.7721077   -1.6446784  0.069429495   -2.7721077    1.1274294   569361 
 3965000    1.0018584   -2.7716401   -2.7716401   -1.6453036  0.067651714   -2.7716401    1.1263365   569361 
 3966000    1.0035619   -2.7729566   -2.7729566    -1.644705  0.063381729   -2.7729566    1.1282517   569361 
 3967000    1.0029011   -2.7723666   -2.7723666   -1.6448579  0.067980625   -2.7723666    1.1275087   569361 
 3968000    1.0042634   -2.7741073   -2.7741073   -1.6450671  0.067006665   -2.7741073    1.1290403   569361 
 3969000    1.0040688   -2.7747889   -2.7747889   -1.6459674  0.065098176   -2.7747889    1.1288215   569361 
 3970000    1.0053342   -2.7753459   -2.7753459   -1.6451018  0.063999053   -2.7753459    1.1302441   569361 
 3971000    1.0033283   -2.7734185   -2.7734185   -1.6454294  0.071384115   -2.7734185    1.1279891   569361 
 3972000    1.0054285   -2.7756836   -2.7756836   -1.6453334  0.072603835   -2.7756836    1.1303502   569361 
 3973000    1.0048221    -2.774828    -2.774828   -1.6451596  0.064833363    -2.774828    1.1296684   569361 
 3974000    1.0044313   -2.7745356   -2.7745356   -1.6453065  0.073982895   -2.7745356    1.1292291   569361 
 3975000    1.0053304   -2.7756859   -2.7756859   -1.6454461  0.066156875   -2.7756859    1.1302398   569361 
 3976000    1.0063555   -2.7759748   -2.7759748   -1.6445825  0.069727303   -2.7759748    1.1313923   569361 
 3977000    1.0037682   -2.7736604   -2.7736604   -1.6451769  0.069905832   -2.7736604    1.1284835   569361 
 3978000    1.0036909   -2.7743574   -2.7743574   -1.6459608   0.06701124   -2.7743574    1.1283967   569361 
 3979000    1.0034342   -2.7753944   -2.7753944   -1.6472863  0.065583035   -2.7753944    1.1281081   569361 
 3980000    1.0043578   -2.7753368   -2.7753368   -1.6461904   0.06364896   -2.7753368    1.1291464   569361 
 3981000     1.005563   -2.7767925   -2.7767925   -1.6462911  0.054262296   -2.7767925    1.1305014   569361 
 3982000    1.0048731   -2.7755428   -2.7755428    -1.645817  0.071822511   -2.7755428    1.1297258   569361 
 3983000    1.0036976   -2.7743535   -2.7743535   -1.6459493  0.072370527   -2.7743535    1.1284043   569361 
 3984000    1.0042009   -2.7752518   -2.7752518   -1.6462817  0.068580462   -2.7752518    1.1289701   569361 
 3985000    1.0027506   -2.7745221   -2.7745221   -1.6471826  0.067400857   -2.7745221    1.1273396   569361 
 3986000    1.0032737   -2.7742605   -2.7742605   -1.6463329  0.070233234   -2.7742605    1.1279276   569361 
 3987000    1.0041362    -2.775916    -2.775916   -1.6470188  0.064178319    -2.775916    1.1288973   569361 
 3988000    1.0034268   -2.7743259   -2.7743259   -1.6462262   0.05403013   -2.7743259    1.1280997   569361 
 3989000    1.0030415   -2.7730211   -2.7730211   -1.6453546  0.063673304   -2.7730211    1.1276666   569361 
 3990000    1.0051371   -2.7760338   -2.7760338   -1.6460113  0.060067276   -2.7760338    1.1300225   569361 
 3991000    1.0049493   -2.7749254   -2.7749254    -1.645114  0.068925332   -2.7749254    1.1298114   569361 
 3992000    1.0063956   -2.7756336   -2.7756336   -1.6441962  0.066268079   -2.7756336    1.1314374   569361 
 3993000    1.0055583   -2.7752004   -2.7752004   -1.6447043  0.063165629   -2.7752004    1.1304961   569361 
 3994000    1.0053502   -2.7756234   -2.7756234   -1.6453613  0.067594751   -2.7756234    1.1302621   569361 
 3995000    1.0053476   -2.7756469   -2.7756469   -1.6453877   0.06052533   -2.7756469    1.1302592   569361 
 3996000    1.0067864   -2.7766225   -2.7766225   -1.6447458  0.066639724   -2.7766225    1.1318767   569361 
 3997000    1.0058619   -2.7757569   -2.7757569   -1.6449195  0.074222534   -2.7757569    1.1308374   569361 
 3998000    1.0062837   -2.7757495   -2.7757495   -1.6444378  0.064727513   -2.7757495    1.1313116   569361 
 3999000     1.003541    -2.773792    -2.773792   -1.6455639  0.065072757    -2.773792    1.1282281   569361 
 4000000    1.0062313   -2.7767937   -2.7767937    -1.645541  0.064582599   -2.7767937    1.1312527   569361 
Loop time of 14061.2 on 288 procs for 4000000 steps with 569361 atoms

Performance: 122891.275 tau/day, 284.471 timesteps/s
98.6% CPU use with 288 MPI tasks x 1 OpenMP threads

MPI task timing breakdown:
Section |  min time  |  avg time  |  max time  |%varavg|  %CPU | %total
-----------------------------------------------------------------------
Pair    | 1439.3     | 2470.6     | 3865.3     | 871.3 |  98.7 | 17.57
Bond    | 2.6634     | 2.8246     | 3.0584     |   4.0 | 100.0 |  0.02
Neigh   | 2085.9     | 3928.3     | 6659.4     |1434.3 |  99.6 | 27.94
Comm    | 2535.9     | 4744.3     | 7845.5     |1401.2 |  98.4 | 33.74
Output  | 153.21     | 157.99     | 168.26     |  45.6 |  96.8 |  1.12
Modify  | 797.53     | 2638.7     | 5429.8     |2298.2 |  98.3 | 18.77
Other   |            | 118.5      |            |       |       |  0.84

Nlocal:        1976.95 ave        2543 max        1574 min
Histogram: 10 21 32 80 64 40 19 15 5 2
Nghost:        7389.30 ave       10880 max        3863 min
Histogram: 22 15 46 26 20 38 41 55 21 4
Neighs:        61926.2 ave       88636 max       21779 min
Histogram: 5 11 4 3 35 81 62 57 25 5

Total # of neighbors = 17834736
Ave neighs/atom = 31.324127
Ave special neighs/atom = 0.0000000
Neighbor list builds = 400000
Dangerous builds = 396000

Total wall time: 3:54:25
